# el_label, x, y, sXX, sYY, sZZ, sXY
1.000000000000000000e+00 3.783642196655273438e+01 -1.180678653717041016e+01 -1.478389024734497070e+00 1.714327931404113770e-01 -3.920868635177612305e-01 -7.442179918289184570e-01
2.000000000000000000e+00 3.801894378662109375e+01 -1.188618469238281250e+01 1.591515898704528809e+00 5.198714733123779297e-01 6.334162354469299316e-01 -5.548031330108642578e-01
3.000000000000000000e+00 3.820146179199218750e+01 -1.196558284759521484e+01 1.213069081306457520e+00 3.337510228157043457e-01 4.640460312366485596e-01 -8.093123435974121094e-01
4.000000000000000000e+00 3.838397979736328125e+01 -1.204498004913330078e+01 1.374241113662719727e+00 4.456961750984191895e-01 5.459811687469482422e-01 -7.034397721290588379e-01
5.000000000000000000e+00 3.785437011718750000e+01 -1.175120735168457031e+01 3.518649578094482422e+00 3.665606081485748291e-01 1.165562987327575684e+00 -2.411521673202514648e+00
6.000000000000000000e+00 3.804885482788085938e+01 -1.179355239868164062e+01 2.317792177200317383e+00 5.703128576278686523e-01 8.664315342903137207e-01 -1.213219404220581055e+00
7.000000000000000000e+00 3.824333953857421875e+01 -1.183589839935302734e+01 2.800090551376342773e+00 5.026338696479797363e-01 9.908173084259033203e-01 -9.906190037727355957e-01
8.000000000000000000e+00 3.843782424926757812e+01 -1.187824344635009766e+01 2.328762769699096680e+00 4.179951548576354980e-01 8.240273594856262207e-01 -1.036544919013977051e+00
9.000000000000000000e+00 3.786115646362304688e+01 -1.169319820404052734e+01 7.096180915832519531e+00 3.094044700264930725e-02 2.138136386871337891e+00 -1.495741367340087891e+00
1.000000000000000000e+01 3.806016159057617188e+01 -1.169686985015869141e+01 4.795913696289062500e+00 3.063808083534240723e-01 1.530688405036926270e+00 -1.319411277770996094e+00
1.100000000000000000e+01 3.825916671752929688e+01 -1.170054244995117188e+01 3.866516351699829102e+00 4.337064027786254883e-01 1.290066838264465332e+00 -9.699710011482238770e-01
1.200000000000000000e+01 3.845817565917968750e+01 -1.170421409606933594e+01 3.695266485214233398e+00 3.763670325279235840e-01 1.221490025520324707e+00 -8.342822194099426270e-01
1.300000000000000000e+01 3.785651397705078125e+01 -1.163497734069824219e+01 9.625324249267578125e+00 3.590926527976989746e-01 2.995324850082397461e+00 2.938587777316570282e-02
1.400000000000000000e+01 3.805242919921875000e+01 -1.159983634948730469e+01 6.566276073455810547e+00 2.840561568737030029e-01 2.055099725723266602e+00 -3.553127348423004150e-01
1.500000000000000000e+01 3.824834442138671875e+01 -1.156469440460205078e+01 5.416796207427978516e+00 4.093490540981292725e-01 1.747843623161315918e+00 -4.240580499172210693e-01
1.600000000000000000e+01 3.844425582885742188e+01 -1.152955245971679688e+01 4.576979160308837891e+00 3.606696426868438721e-01 1.481294631958007812e+00 -3.902511596679687500e-01
1.700000000000000000e+01 3.784062957763671875e+01 -1.157877445220947266e+01 1.082799243927001953e+01 1.279051899909973145e+00 3.632113218307495117e+00 1.999886631965637207e+00
1.800000000000000000e+01 3.802595520019531250e+01 -1.150616359710693359e+01 7.807927131652832031e+00 9.292933344841003418e-01 2.621166229248046875e+00 9.368976354598999023e-01
1.900000000000000000e+01 3.821127700805664062e+01 -1.143355274200439453e+01 6.270516872406005859e+00 7.172065377235412598e-01 2.096317052841186523e+00 5.481394529342651367e-01
2.000000000000000000e+01 3.839660263061523438e+01 -1.136094284057617188e+01 5.450079917907714844e+00 6.514246463775634766e-01 1.830451369285583496e+00 4.526243507862091064e-01
2.100000000000000000e+01 3.781410598754882812e+01 -1.152673912048339844e+01 1.106376552581787109e+01 3.131636857986450195e+00 4.258620738983154297e+00 3.785541296005249023e+00
2.200000000000000000e+01 3.798174667358398438e+01 -1.141943836212158203e+01 8.133214950561523438e+00 2.016541481018066406e+00 3.044926881790161133e+00 2.286955833435058594e+00
2.300000000000000000e+01 3.814939117431640625e+01 -1.131213665008544922e+01 6.683382987976074219e+00 1.668857693672180176e+00 2.505672216415405273e+00 1.648253321647644043e+00
2.400000000000000000e+01 3.831703186035156250e+01 -1.120483589172363281e+01 5.715098857879638672e+00 1.261714339256286621e+00 2.093043804168701172e+00 1.290343999862670898e+00
2.500000000000000000e+01 3.777796173095703125e+01 -1.148086261749267578e+01 1.031745910644531250e+01 5.470791339874267578e+00 4.736474990844726562e+00 5.097791671752929688e+00
2.600000000000000000e+01 3.792150497436523438e+01 -1.134297752380371094e+01 7.891388416290283203e+00 3.723996877670288086e+00 3.484615564346313477e+00 3.308530807495117188e+00
2.700000000000000000e+01 3.806504821777343750e+01 -1.120509243011474609e+01 6.467816352844238281e+00 2.890530824661254883e+00 2.807504177093505859e+00 2.578261852264404297e+00
2.800000000000000000e+01 3.820859527587890625e+01 -1.106720829010009766e+01 5.561763286590576172e+00 2.536940574645996094e+00 2.429611206054687500e+00 2.072706460952758789e+00
2.900000000000000000e+01 3.773357772827148438e+01 -1.144290161132812500e+01 9.141247749328613281e+00 8.128156661987304688e+00 5.180821418762207031e+00 5.592681884765625000e+00
3.000000000000000000e+01 3.784753036499023438e+01 -1.127970886230468750e+01 7.151964187622070312e+00 5.660352706909179688e+00 3.843695163726806641e+00 3.881307601928710938e+00
3.100000000000000000e+01 3.796148300170898438e+01 -1.111651611328125000e+01 5.857021331787109375e+00 4.499895572662353516e+00 3.107075214385986328e+00 3.067589044570922852e+00
3.200000000000000000e+01 3.807543563842773438e+01 -1.095332431793212891e+01 5.054233074188232422e+00 3.828307151794433594e+00 2.664762020111083984e+00 2.544019460678100586e+00
3.300000000000000000e+01 3.768264770507812500e+01 -1.141430759429931641e+01 7.873494625091552734e+00 1.078879356384277344e+01 5.598686695098876953e+00 5.211885929107666016e+00
3.400000000000000000e+01 3.776265335083007812e+01 -1.123205280303955078e+01 6.213101387023925781e+00 7.523795604705810547e+00 4.121068954467773438e+00 3.851028680801391602e+00
3.500000000000000000e+01 3.784265136718750000e+01 -1.104979801177978516e+01 5.132502079010009766e+00 6.202781677246093750e+00 3.400585174560546875e+00 3.119204282760620117e+00
3.600000000000000000e+01 3.792265701293945312e+01 -1.086754322052001953e+01 4.151089191436767578e+00 5.280431747436523438e+00 2.829456329345703125e+00 2.510544300079345703e+00
3.700000000000000000e+01 3.762712860107421875e+01 -1.139617538452148438e+01 6.732522487640380859e+00 1.279119586944580078e+01 5.857115268707275391e+00 4.236804962158203125e+00
3.800000000000000000e+01 3.767012023925781250e+01 -1.120183277130126953e+01 5.495252132415771484e+00 9.371837615966796875e+00 4.460126876831054688e+00 3.148437738418579102e+00
3.900000000000000000e+01 3.771310806274414062e+01 -1.100749015808105469e+01 4.368378162384033203e+00 7.441717624664306641e+00 3.543028831481933594e+00 2.666218996047973633e+00
4.000000000000000000e+01 3.775609970092773438e+01 -1.081314754486083984e+01 3.533357143402099609e+00 6.759632587432861328e+00 3.087896823883056641e+00 2.340340137481689453e+00
4.100000000000000000e+01 3.756914138793945312e+01 -1.138919925689697266e+01 6.331664562225341797e+00 1.422728729248046875e+01 6.167685508728027344e+00 2.707436800003051758e+00
4.200000000000000000e+01 3.757347488403320312e+01 -1.119020557403564453e+01 4.867230415344238281e+00 1.062313461303710938e+01 4.647109508514404297e+00 2.167496919631958008e+00
4.300000000000000000e+01 3.757780838012695312e+01 -1.099121189117431641e+01 4.019725322723388672e+00 8.701230049133300781e+00 3.816286563873291016e+00 1.626528859138488770e+00
4.400000000000000000e+01 3.758213806152343750e+01 -1.079221820831298828e+01 3.273289918899536133e+00 6.975244045257568359e+00 3.074560165405273438e+00 1.617433428764343262e+00
4.500000000000000000e+01 3.751090621948242188e+01 -1.139364528656005859e+01 6.531124114990234375e+00 1.486264705657958984e+01 6.418131351470947266e+00 1.177651405334472656e+00
4.600000000000000000e+01 3.747641372680664062e+01 -1.119761562347412109e+01 4.681398868560791016e+00 1.136668395996093750e+01 4.814424514770507812e+00 8.484648466110229492e-01
4.700000000000000000e+01 3.744192504882812500e+01 -1.100158596038818359e+01 3.988779544830322266e+00 9.383797645568847656e+00 4.011773109436035156e+00 5.798915624618530273e-01
4.800000000000000000e+01 3.740743255615234375e+01 -1.080555629730224609e+01 3.194313764572143555e+00 7.800613880157470703e+00 3.298478126525878906e+00 4.120174422860145569e-02
4.900000000000000000e+01 3.745465087890625000e+01 -1.140934371948242188e+01 7.095776081085205078e+00 1.468723201751708984e+01 6.534902095794677734e+00 -3.662429749965667725e-01
5.000000000000000000e+01 3.738265609741210938e+01 -1.122377967834472656e+01 5.200531959533691406e+00 1.155759811401367188e+01 5.027439117431640625e+00 -1.892895251512527466e-01
5.100000000000000000e+01 3.731066131591796875e+01 -1.103821659088134766e+01 4.017286777496337891e+00 9.469770431518554688e+00 4.046117305755615234e+00 -6.908866763114929199e-01
5.200000000000000000e+01 3.723866653442382812e+01 -1.085265254974365234e+01 3.573498249053955078e+00 8.921098709106445312e+00 3.748378992080688477e+00 -6.417672038078308105e-01
5.300000000000000000e+01 3.740253067016601562e+01 -1.143569469451904297e+01 7.996215343475341797e+00 1.422058486938476562e+01 6.665040016174316406e+00 -1.262990355491638184e+00
5.400000000000000000e+01 3.729578399658203125e+01 -1.126769733428955078e+01 6.125051975250244141e+00 1.100591754913330078e+01 5.139290809631347656e+00 -1.263443470001220703e+00
5.500000000000000000e+01 3.718904113769531250e+01 -1.109969997406005859e+01 4.488323211669921875e+00 9.435327529907226562e+00 4.177094936370849609e+00 -1.321355223655700684e+00
5.600000000000000000e+01 3.708229827880859375e+01 -1.093170261383056641e+01 4.151878356933593750e+00 7.917703628540039062e+00 3.620874643325805664e+00 -1.148064374923706055e+00
5.700000000000000000e+01 3.735653305053710938e+01 -1.147168827056884766e+01 9.528394699096679688e+00 1.336132526397705078e+01 6.866916179656982422e+00 -1.667880058288574219e+00
5.800000000000000000e+01 3.721912384033203125e+01 -1.132768630981445312e+01 6.796572208404541016e+00 1.027500057220458984e+01 5.121471881866455078e+00 -1.956748485565185547e+00
5.900000000000000000e+01 3.708171463012695312e+01 -1.118368530273437500e+01 5.858297824859619141e+00 8.635003089904785156e+00 4.347990512847900391e+00 -1.501382708549499512e+00
6.000000000000000000e+01 3.694430923461914062e+01 -1.103968429565429688e+01 4.492194175720214844e+00 6.700743675231933594e+00 3.357881307601928711e+00 -1.874746322631835938e+00
6.100000000000000000e+01 3.731842422485351562e+01 -1.151594829559326172e+01 1.052660083770751953e+01 1.216035747528076172e+01 6.806087493896484375e+00 -1.788686633110046387e+00
6.200000000000000000e+01 3.715560913085937500e+01 -1.140145301818847656e+01 7.986652851104736328e+00 9.614140510559082031e+00 5.280238151550292969e+00 -1.764707326889038086e+00
6.300000000000000000e+01 3.699279785156250000e+01 -1.128695774078369141e+01 6.671596527099609375e+00 7.364619255065917969e+00 4.210865020751953125e+00 -1.871519923210144043e+00
6.400000000000000000e+01 3.682998275756835938e+01 -1.117246246337890625e+01 5.781299114227294922e+00 6.600526809692382812e+00 3.714547872543334961e+00 -1.831253051757812500e+00
6.500000000000000000e+01 3.728966140747070312e+01 -1.156678009033203125e+01 1.143959331512451172e+01 1.139780616760253906e+01 6.851219654083251953e+00 -1.338142275810241699e+00
6.600000000000000000e+01 3.710767364501953125e+01 -1.148617267608642578e+01 8.920740127563476562e+00 8.656870841979980469e+00 5.273283004760742188e+00 -1.268655657768249512e+00
6.700000000000000000e+01 3.692568206787109375e+01 -1.140556430816650391e+01 7.266154289245605469e+00 6.810284614562988281e+00 4.222931861877441406e+00 -1.621047139167785645e+00
6.800000000000000000e+01 3.674369430541992188e+01 -1.132495784759521484e+01 6.480565547943115234e+00 5.843872547149658203e+00 3.697331428527832031e+00 -1.418078660964965820e+00
6.900000000000000000e+01 3.727134704589843750e+01 -1.162223815917968750e+01 1.204107856750488281e+01 1.102937126159667969e+01 6.921134948730468750e+00 -4.332697391510009766e-01
7.000000000000000000e+01 3.707714843750000000e+01 -1.157860279083251953e+01 9.488661766052246094e+00 7.794314384460449219e+00 5.184892654418945312e+00 -5.862128138542175293e-01
7.100000000000000000e+01 3.688294601440429688e+01 -1.153496837615966797e+01 7.616173744201660156e+00 6.757803916931152344e+00 4.312193393707275391e+00 -6.367859840393066406e-01
7.200000000000000000e+01 3.668874740600585938e+01 -1.149133300781250000e+01 6.379981994628906250e+00 4.750936031341552734e+00 3.339275360107421875e+00 -8.752509355545043945e-01
7.300000000000000000e+01 3.726417541503906250e+01 -1.168020057678222656e+01 1.221216964721679688e+01 1.061353302001953125e+01 6.847710609436035156e+00 7.939280271530151367e-01
7.400000000000000000e+01 3.706519699096679688e+01 -1.167520904541015625e+01 9.321621894836425781e+00 7.907987594604492188e+00 5.168882846832275391e+00 2.867279052734375000e-01
7.500000000000000000e+01 3.686621856689453125e+01 -1.167021656036376953e+01 7.813692092895507812e+00 6.174868583679199219e+00 4.196568012237548828e+00 4.539333581924438477e-01
7.600000000000000000e+01 3.666724014282226562e+01 -1.166522407531738281e+01 6.402223587036132812e+00 5.256412982940673828e+00 3.497591018676757812e+00 2.007630281150341034e-02
7.700000000000000000e+01 3.726842880249023438e+01 -1.173845100402832031e+01 1.170782756805419922e+01 1.053009319305419922e+01 6.671376228332519531e+00 1.704530358314514160e+00
7.800000000000000000e+01 3.707228469848632812e+01 -1.177229213714599609e+01 8.811218261718750000e+00 8.516047477722167969e+00 5.198179721832275391e+00 1.559006452560424805e+00
7.900000000000000000e+01 3.687614059448242188e+01 -1.180613231658935547e+01 7.176661014556884766e+00 6.143839836120605469e+00 3.996150255203247070e+00 9.885372519493103027e-01
8.000000000000000000e+01 3.668000030517578125e+01 -1.183997344970703125e+01 6.411022663116455078e+00 5.695066928863525391e+00 3.631826877593994141e+00 1.113326191902160645e+00
8.100000000000000000e+01 3.728394317626953125e+01 -1.179475879669189453e+01 1.074414157867431641e+01 1.174121475219726562e+01 6.745606899261474609e+00 2.710986375808715820e+00
8.200000000000000000e+01 3.709814071655273438e+01 -1.186613750457763672e+01 7.799184322357177734e+00 8.590194702148437500e+00 4.916813850402832031e+00 2.342611789703369141e+00
8.300000000000000000e+01 3.691233825683593750e+01 -1.193751621246337891e+01 6.145388603210449219e+00 7.631421566009521484e+00 4.133043289184570312e+00 1.749498963356018066e+00
8.400000000000000000e+01 3.672653198242187500e+01 -1.200889492034912109e+01 4.845837116241455078e+00 5.399631023406982422e+00 3.073640584945678711e+00 1.333127140998840332e+00
8.500000000000000000e+01 3.731011581420898438e+01 -1.184696865081787109e+01 9.132748603820800781e+00 1.253463363647460938e+01 6.500214576721191406e+00 3.369713068008422852e+00
8.600000000000000000e+01 3.714176559448242188e+01 -1.195315456390380859e+01 6.410120010375976562e+00 9.818159103393554688e+00 4.868483543395996094e+00 2.620861291885375977e+00
8.700000000000000000e+01 3.697341537475585938e+01 -1.205933952331542969e+01 4.863066196441650391e+00 8.163104057312011719e+00 3.907850980758666992e+00 2.265270948410034180e+00
8.800000000000000000e+01 3.680506515502929688e+01 -1.216552543640136719e+01 3.501544713973999023e+00 7.185158729553222656e+00 3.206011056900024414e+00 1.881855964660644531e+00
8.900000000000000000e+01 3.734595870971679688e+01 -1.189308357238769531e+01 7.166871547698974609e+00 1.368070220947265625e+01 6.254271984100341797e+00 3.438732862472534180e+00
9.000000000000000000e+01 3.720149993896484375e+01 -1.203001213073730469e+01 4.950675964355468750e+00 1.089299964904785156e+01 4.753102779388427734e+00 2.382888078689575195e+00
9.100000000000000000e+01 3.705704498291015625e+01 -1.216694164276123047e+01 3.306667566299438477e+00 8.867806434631347656e+00 3.652342081069946289e+00 2.235924959182739258e+00
9.200000000000000000e+01 3.691258621215820312e+01 -1.230387020111083984e+01 3.236768245697021484e+00 8.086276054382324219e+00 3.396913290023803711e+00 2.026711702346801758e+00
9.300000000000000000e+01 3.739009094238281250e+01 -1.193133831024169922e+01 5.537788867950439453e+00 1.500001049041748047e+01 6.161339759826660156e+00 2.631335258483886719e+00
9.400000000000000000e+01 3.727505493164062500e+01 -1.209377098083496094e+01 3.096335887908935547e+00 1.153951168060302734e+01 4.390754222869873047e+00 1.811664819717407227e+00
9.500000000000000000e+01 3.716001892089843750e+01 -1.225620365142822266e+01 2.550588130950927734e+00 9.606800079345703125e+00 3.647216558456420898e+00 1.479639053344726562e+00
9.600000000000000000e+01 3.704498291015625000e+01 -1.241863536834716797e+01 1.475031852722167969e+00 8.039781570434570312e+00 2.854444265365600586e+00 1.164344906806945801e+00
9.700000000000000000e+01 3.744082641601562500e+01 -1.196026992797851562e+01 3.520088434219360352e+00 1.565491104125976562e+01 5.752500057220458984e+00 1.292115092277526855e+00
9.800000000000000000e+01 3.735961532592773438e+01 -1.214198970794677734e+01 2.211725950241088867e+00 1.192791938781738281e+01 4.241893768310546875e+00 6.190474629402160645e-01
9.900000000000000000e+01 3.727840423583984375e+01 -1.232370948791503906e+01 1.280550241470336914e+00 9.727054595947265625e+00 3.302281379699707031e+00 3.439228534698486328e-01
1.000000000000000000e+02 3.719719314575195312e+01 -1.250542926788330078e+01 4.396360218524932861e-01 8.494209289550781250e+00 2.680153608322143555e+00 2.821546792984008789e-01
1.010000000000000000e+02 3.749622344970703125e+01 -1.197877025604248047e+01 2.460498094558715820e+00 1.566666793823242188e+01 5.438149929046630859e+00 -5.304915308952331543e-01
1.020000000000000000e+02 3.745194625854492188e+01 -1.217282295227050781e+01 1.443659663200378418e+00 1.153647518157958984e+01 3.894040584564208984e+00 -8.823233246803283691e-01
1.030000000000000000e+02 3.740766525268554688e+01 -1.236687660217285156e+01 6.489827632904052734e-01 9.530325889587402344e+00 3.053792715072631836e+00 -8.629311323165893555e-01
1.040000000000000000e+02 3.736338806152343750e+01 -1.256092929840087891e+01 1.394358277320861816e-01 8.223219871520996094e+00 2.508796691894531250e+00 -6.148163080215454102e-01
1.050000000000000000e+02 3.755416488647460938e+01 -1.198613071441650391e+01 2.052432775497436523e+00 1.465961456298828125e+01 5.013614177703857422e+00 -2.573159694671630859e+00
1.060000000000000000e+02 3.754851150512695312e+01 -1.218509197235107422e+01 1.254434704780578613e+00 1.051922416687011719e+01 3.532097816467285156e+00 -2.335894584655761719e+00
1.070000000000000000e+02 3.754285812377929688e+01 -1.238405227661132812e+01 6.399527788162231445e-01 8.596049308776855469e+00 2.770800590515136719e+00 -1.936744928359985352e+00
1.080000000000000000e+02 3.753720474243164062e+01 -1.258301353454589844e+01 1.577301621437072754e-01 7.372519493103027344e+00 2.259074926376342773e+00 -1.684296011924743652e+00
1.090000000000000000e+02 3.761242675781250000e+01 -1.198207187652587891e+01 2.382896661758422852e+00 1.262525463104248047e+01 4.502445220947265625e+00 -4.378765583038330078e+00
1.100000000000000000e+02 3.764561843872070312e+01 -1.217832565307617188e+01 1.611063003540039062e+00 8.788738250732421875e+00 3.119940280914306641e+00 -3.430610656738281250e+00
1.110000000000000000e+02 3.767880630493164062e+01 -1.237458038330078125e+01 1.056851983070373535e+00 7.078104972839355469e+00 2.440487146377563477e+00 -2.793584585189819336e+00
1.120000000000000000e+02 3.771199417114257812e+01 -1.257083511352539062e+01 4.698895514011383057e-01 6.228384494781494141e+00 2.009482383728027344e+00 -2.314493417739868164e+00
1.130000000000000000e+02 3.766878509521484375e+01 -1.196674728393554688e+01 3.260837554931640625e+00 9.692585945129394531e+00 3.886026859283447266e+00 -5.530017375946044922e+00
1.140000000000000000e+02 3.773954772949218750e+01 -1.215278530120849609e+01 2.338286399841308594e+00 6.487864017486572266e+00 2.647845029830932617e+00 -3.907567501068115234e+00
1.150000000000000000e+02 3.781031036376953125e+01 -1.233882331848144531e+01 1.583879470825195312e+00 5.354610443115234375e+00 2.081547021865844727e+00 -3.130013227462768555e+00
1.160000000000000000e+02 3.788107299804687500e+01 -1.252486133575439453e+01 1.129066586494445801e+00 4.634312629699707031e+00 1.729013800621032715e+00 -2.539400815963745117e+00
1.170000000000000000e+02 3.772108078002929688e+01 -1.194074344635009766e+01 4.289932727813720703e+00 6.186525821685791016e+00 3.142937421798706055e+00 -5.570081233978271484e+00
1.180000000000000000e+02 3.782670974731445312e+01 -1.210944557189941406e+01 3.010852813720703125e+00 4.072177886962890625e+00 2.124909162521362305e+00 -3.714336633682250977e+00
1.190000000000000000e+02 3.793233489990234375e+01 -1.227814865112304688e+01 2.118380308151245117e+00 3.512970924377441406e+00 1.689405441284179688e+00 -2.741224050521850586e+00
1.200000000000000000e+02 3.803796005249023438e+01 -1.244685077667236328e+01 1.486615777015686035e+00 3.250113010406494141e+00 1.421018600463867188e+00 -2.439541339874267578e+00
1.210000000000000000e+02 3.776731491088867188e+01 -1.190505599975585938e+01 5.052578926086425781e+00 2.312144041061401367e+00 2.209416866302490234e+00 -4.475779533386230469e+00
1.220000000000000000e+02 3.790376663208007812e+01 -1.204996681213378906e+01 2.978679180145263672e+00 2.130894184112548828e+00 1.532871961593627930e+00 -2.467220067977905273e+00
1.230000000000000000e+02 3.804021453857421875e+01 -1.219487762451171875e+01 2.265496015548706055e+00 2.311548471450805664e+00 1.373113393783569336e+00 -2.301150560379028320e+00
1.240000000000000000e+02 3.817666244506835938e+01 -1.233978939056396484e+01 1.781366944313049316e+00 1.694837212562561035e+00 1.042861223220825195e+00 -1.873426198959350586e+00
1.250000000000000000e+02 3.780571746826171875e+01 -1.186105060577392578e+01 2.992695093154907227e+00 -4.511695504188537598e-01 7.624576687812805176e-01 -1.521595954895019531e+00
1.260000000000000000e+02 3.796776962280273438e+01 -1.197662448883056641e+01 2.704622268676757812e+00 1.709641098976135254e+00 1.324279069900512695e+00 -1.821147799491882324e+00
1.270000000000000000e+02 3.812981796264648438e+01 -1.209219932556152344e+01 2.044525861740112305e+00 7.708421349525451660e-01 8.446103930473327637e-01 -1.450786590576171875e+00
1.280000000000000000e+02 3.829186630249023438e+01 -1.220777320861816406e+01 1.604639410972595215e+00 8.933745026588439941e-01 7.494041919708251953e-01 -1.149212002754211426e+00
1.290000000000000000e+02 4.378240203857421875e+01 -1.521486091613769531e+01 1.359548866748809814e-01 8.002936840057373047e-03 4.318735003471374512e-02 -3.316440433263778687e-02
1.300000000000000000e+02 4.483348846435546875e+01 -1.505673217773437500e+01 1.279838383197784424e-01 -3.939155116677284241e-02 2.657768875360488892e-02 3.889160603284835815e-02
1.310000000000000000e+02 4.545152282714843750e+01 -1.549620914459228516e+01 3.695007041096687317e-02 -1.918567344546318054e-02 5.329319275915622711e-03 4.453887790441513062e-02
1.320000000000000000e+02 4.359851455688476562e+01 -1.417135810852050781e+01 3.771158754825592041e-01 -7.691019028425216675e-02 9.006170183420181274e-02 -1.726390235126018524e-02
1.330000000000000000e+02 4.317002487182617188e+01 -1.477468585968017578e+01 2.393382042646408081e-01 1.687863096594810486e-02 7.686505466699600220e-02 -8.999282121658325195e-02
1.340000000000000000e+02 4.500817108154296875e+01 -1.608890724182128906e+01 1.807837188243865967e-02 9.638993069529533386e-03 8.315209299325942993e-03 1.227919664233922958e-02
1.350000000000000000e+02 4.421584320068359375e+01 -1.461507511138916016e+01 2.421251535415649414e-01 -7.402288913726806641e-02 5.043068155646324158e-02 1.396027114242315292e-02
1.360000000000000000e+02 4.439509201049804688e+01 -1.565297508239746094e+01 5.663018673658370972e-02 -1.523462031036615372e-02 1.241866964846849442e-02 -1.070059370249509811e-02
1.370000000000000000e+02 4.186465454101562500e+01 -1.393742275238037109e+01 4.815050959587097168e-01 9.684690833091735840e-02 1.735056042671203613e-01 -2.571249604225158691e-01
1.380000000000000000e+02 4.253660583496093750e+01 -1.432962417602539062e+01 3.732904195785522461e-01 5.898225679993629456e-02 1.296817958354949951e-01 -1.567671298980712891e-01
1.390000000000000000e+02 4.081694412231445312e+01 -1.245774650573730469e+01 1.265902400016784668e+00 5.605741590261459351e-02 3.965879380702972412e-01 -3.592736124992370605e-01
1.400000000000000000e+02 4.299022293090820312e+01 -1.374366664886474609e+01 5.310521125793457031e-01 -8.794923871755599976e-02 1.329308599233627319e-01 -8.260782808065414429e-02
1.410000000000000000e+02 4.252217483520507812e+01 -1.331129074096679688e+01 7.042307853698730469e-01 -8.671214431524276733e-02 1.852555871009826660e-01 -1.281296014785766602e-01
1.420000000000000000e+02 4.138666915893554688e+01 -1.317725181579589844e+01 8.411452770233154297e-01 7.491910457611083984e-02 2.748193144798278809e-01 -3.200974464416503906e-01
1.430000000000000000e+02 4.114665222167968750e+01 -1.215983867645263672e+01 1.416108965873718262e+00 -8.748961985111236572e-02 3.985857963562011719e-01 -2.460694760084152222e-01
1.440000000000000000e+02 4.081392288208007812e+01 -1.326261711120605469e+01 8.181228637695312500e-01 2.387158870697021484e-01 3.170516192913055420e-01 -4.621315300464630127e-01
1.450000000000000000e+02 4.047758865356445312e+01 -1.321686363220214844e+01 8.567203283309936523e-01 3.097615838050842285e-01 3.499445617198944092e-01 -5.126056075096130371e-01
1.460000000000000000e+02 4.062231063842773438e+01 -1.280729579925537109e+01 1.097211956977844238e+00 1.997620016336441040e-01 3.890922069549560547e-01 -4.725337326526641846e-01
1.470000000000000000e+02 4.096816253662109375e+01 -1.272137260437011719e+01 1.099771022796630859e+00 9.201750159263610840e-02 3.575365543365478516e-01 -3.748704493045806885e-01
1.480000000000000000e+02 4.051885223388671875e+01 -1.298852634429931641e+01 1.041924715042114258e+00 2.544914484024047852e-01 3.889248371124267578e-01 -4.921778738498687744e-01
1.490000000000000000e+02 4.123145675659179688e+01 -1.359923267364501953e+01 6.324611306190490723e-01 2.107617259025573730e-01 2.529668509960174561e-01 -3.584316074848175049e-01
1.500000000000000000e+02 4.128803634643554688e+01 -1.271552562713623047e+01 1.060198187828063965e+00 3.825954860076308250e-03 3.192072510719299316e-01 -2.890188992023468018e-01
1.510000000000000000e+02 4.097981643676757812e+01 -1.232396602630615234e+01 1.373608827590942383e+00 -2.868146821856498718e-02 4.034782052040100098e-01 -2.970373630523681641e-01
1.520000000000000000e+02 4.160244750976562500e+01 -1.255751705169677734e+01 1.119733691215515137e+00 -9.835837781429290771e-02 3.064126074314117432e-01 -2.051702588796615601e-01
1.530000000000000000e+02 4.209041213989257812e+01 -1.293192195892333984e+01 9.115316867828369141e-01 -1.056079193949699402e-01 2.417771220207214355e-01 -1.792106330394744873e-01
1.540000000000000000e+02 4.197353744506835938e+01 -1.337570095062255859e+01 7.258630990982055664e-01 -6.901018321514129639e-03 2.156886160373687744e-01 -2.169017791748046875e-01
1.550000000000000000e+02 4.095311355590820312e+01 -1.300941467285156250e+01 9.507933855056762695e-01 1.617739945650100708e-01 3.337702155113220215e-01 -4.003468453884124756e-01
1.560000000000000000e+02 4.070603942871093750e+01 -1.261392307281494141e+01 1.192830801010131836e+00 1.397578418254852295e-01 3.997766077518463135e-01 -4.325399398803710938e-01
1.570000000000000000e+02 3.926514053344726562e+01 -1.130744934082031250e+01 3.324676752090454102e+00 1.605914980173110962e-01 1.045580506324768066e+00 -8.625875413417816162e-02
1.580000000000000000e+02 3.867909240722656250e+01 -1.100641822814941406e+01 4.460941791534423828e+00 8.754190206527709961e-01 1.600908279418945312e+00 9.237362742424011230e-01
1.590000000000000000e+02 3.750904846191406250e+01 -1.052326393127441406e+01 2.603201150894165039e+00 6.106070041656494141e+00 2.612781524658203125e+00 5.446181297302246094e-01
1.600000000000000000e+02 3.649089813232421875e+01 -1.120181465148925781e+01 4.955950736999511719e+00 4.106833934783935547e+00 2.718835592269897461e+00 -1.211533427238464355e+00
1.610000000000000000e+02 3.639919662475585938e+01 -1.184405231475830078e+01 4.299914836883544922e+00 4.021438598632812500e+00 2.496406078338623047e+00 5.913842916488647461e-01
1.620000000000000000e+02 3.651533126831054688e+01 -1.205860900878906250e+01 4.966350555419921875e+00 4.902701377868652344e+00 2.960715532302856445e+00 1.714207291603088379e+00
1.630000000000000000e+02 3.895923614501953125e+01 -1.376340103149414062e+01 -1.101796180009841919e-01 1.609551548957824707e+00 4.498115777969360352e-01 -8.059916496276855469e-01
1.640000000000000000e+02 3.711116027832031250e+01 -1.301139736175537109e+01 -7.467167973518371582e-01 6.671513557434082031e+00 1.777438998222351074e+00 1.402972191572189331e-01
1.650000000000000000e+02 3.765628051757812500e+01 -1.061911487579345703e+01 2.984432935714721680e+00 6.380949974060058594e+00 2.809614896774291992e+00 1.618735432624816895e+00
1.660000000000000000e+02 3.790309143066406250e+01 -1.040496635437011719e+01 2.815882444381713867e+00 4.859705448150634766e+00 2.302676439285278320e+00 1.703189730644226074e+00
1.670000000000000000e+02 3.884423446655273438e+01 -1.197660923004150391e+01 2.063376665115356445e+00 3.597598969936370850e-01 7.269409298896789551e-01 -8.624914288520812988e-01
1.680000000000000000e+02 4.082613372802734375e+01 -1.193366622924804688e+01 1.616901874542236328e+00 -6.381312012672424316e-02 4.659266173839569092e-01 -2.279271185398101807e-01
1.690000000000000000e+02 4.064531707763671875e+01 -1.183630275726318359e+01 1.744225502014160156e+00 -7.332354038953781128e-02 5.012705922126770020e-01 -2.732637226581573486e-01
1.700000000000000000e+02 3.815939712524414062e+01 -1.074350357055664062e+01 4.148643493652343750e+00 3.566228866577148438e+00 2.314461708068847656e+00 2.030395984649658203e+00
1.710000000000000000e+02 3.849103546142578125e+01 -1.111125564575195312e+01 5.136765480041503906e+00 1.100779414176940918e+00 1.871263504028320312e+00 1.136248946189880371e+00
1.720000000000000000e+02 3.837924575805664062e+01 -1.096951293945312500e+01 4.953480720520019531e+00 1.843331217765808105e+00 2.039043426513671875e+00 1.674101233482360840e+00
1.730000000000000000e+02 3.858341979980468750e+01 -1.128574752807617188e+01 4.798731803894042969e+00 5.657730102539062500e-01 1.609351515769958496e+00 3.718887865543365479e-01
1.740000000000000000e+02 3.885425949096679688e+01 -1.139960384368896484e+01 3.829882860183715820e+00 2.276857048273086548e-01 1.217270612716674805e+00 -2.140842676162719727e-01
1.750000000000000000e+02 3.932301330566406250e+01 -1.248246479034423828e+01 1.275209188461303711e+00 3.106153011322021484e-01 4.757473468780517578e-01 -6.536064147949218750e-01
1.760000000000000000e+02 3.913926696777343750e+01 -1.237327384948730469e+01 1.309118986129760742e+00 3.412554562091827393e-01 4.951123297214508057e-01 -6.768112778663635254e-01
1.770000000000000000e+02 3.963853073120117188e+01 -1.272033596038818359e+01 1.132959365844726562e+00 3.093904554843902588e-01 4.327049553394317627e-01 -6.075595617294311523e-01
1.780000000000000000e+02 4.046261215209960938e+01 -1.174329185485839844e+01 1.877534270286560059e+00 -3.395979106426239014e-02 5.530723333358764648e-01 -2.782884836196899414e-01
1.790000000000000000e+02 3.934629821777343750e+01 -1.429561042785644531e+01 -2.239225804805755615e-01 1.369194746017456055e+00 3.435816466808319092e-01 -5.046236515045166016e-01
1.800000000000000000e+02 3.928903961181640625e+01 -1.400077819824218750e+01 -1.766543239355087280e-01 1.268672108650207520e+00 3.276053369045257568e-01 -5.785742998123168945e-01
1.810000000000000000e+02 3.917623138427734375e+01 -1.419249916076660156e+01 -2.648817300796508789e-01 1.443228840827941895e+00 3.535041213035583496e-01 -6.200245618820190430e-01
1.820000000000000000e+02 3.990824508666992188e+01 -1.339630031585693359e+01 -1.494222581386566162e-01 1.476611644029617310e-01 -5.283307400532066822e-04 -5.342980846762657166e-02
1.830000000000000000e+02 3.832968521118164062e+01 -1.349040603637695312e+01 -2.111634910106658936e-01 2.799201011657714844e+00 7.764112353324890137e-01 -1.256939172744750977e+00
1.840000000000000000e+02 3.779188156127929688e+01 -1.345318031311035156e+01 -7.050075531005859375e-01 4.409022808074951172e+00 1.111204624176025391e+00 -1.085922837257385254e+00
1.850000000000000000e+02 4.002077484130859375e+01 -1.322028160095214844e+01 -2.231152504682540894e-01 -3.311137482523918152e-02 -7.686799019575119019e-02 6.500949710607528687e-02
1.860000000000000000e+02 3.985029220581054688e+01 -1.311721992492675781e+01 -1.384754478931427002e-01 2.343941479921340942e-02 -3.451080992817878723e-02 4.623836278915405273e-02
1.870000000000000000e+02 3.914254379272460938e+01 -1.273631954193115234e+01 3.303694128990173340e-01 2.528029978275299072e-01 1.749517172574996948e-01 -3.491027653217315674e-01
1.880000000000000000e+02 3.638481521606445312e+01 -1.163444519042968750e+01 5.000502109527587891e+00 3.808417558670043945e+00 2.642675876617431641e+00 -4.428889155387878418e-01
1.890000000000000000e+02 3.648134994506835938e+01 -1.143490219116210938e+01 6.494585990905761719e+00 4.089290618896484375e+00 3.175163030624389648e+00 -1.062730669975280762e+00
1.900000000000000000e+02 3.653394317626953125e+01 -1.226742935180664062e+01 2.721555233001708984e+00 5.006954193115234375e+00 2.318552970886230469e+00 1.054317235946655273e+00
1.910000000000000000e+02 3.729301834106445312e+01 -1.312328910827636719e+01 -6.386595964431762695e-01 6.032366752624511719e+00 1.618112206459045410e+00 -3.575296401977539062e-01
1.920000000000000000e+02 3.872526550292968750e+01 -1.276984500885009766e+01 6.989920735359191895e-01 1.116388082504272461e+00 5.446140170097351074e-01 -9.831544756889343262e-01
1.930000000000000000e+02 3.856711959838867188e+01 -1.212451362609863281e+01 1.329418778419494629e+00 3.670805990695953369e-01 5.089498162269592285e-01 -7.519753575325012207e-01
1.940000000000000000e+02 3.905214691162109375e+01 -1.204163074493408203e+01 1.909165501594543457e+00 3.468416333198547363e-01 6.768020987510681152e-01 -7.818837165832519531e-01
1.950000000000000000e+02 3.865477371215820312e+01 -1.148697948455810547e+01 4.166549682617187500e+00 3.196739852428436279e-01 1.345867156982421875e+00 -3.125155270099639893e-01
1.960000000000000000e+02 3.718909072875976562e+01 -1.052567386627197266e+01 2.404565334320068359e+00 6.537941455841064453e+00 2.682751893997192383e+00 -5.760505199432373047e-01
1.970000000000000000e+02 3.973381805419921875e+01 -1.136068725585937500e+01 2.680390596389770508e+00 3.768095001578330994e-02 8.154214620590209961e-01 -1.648940443992614746e-01
1.980000000000000000e+02 4.060993194580078125e+01 -1.229398441314697266e+01 1.448695421218872070e+00 6.312273442745208740e-02 4.535454511642456055e-01 -3.854086697101593018e-01
1.990000000000000000e+02 4.038058853149414062e+01 -1.264131927490234375e+01 1.221009612083435059e+00 2.279556840658187866e-01 4.346896111965179443e-01 -5.102634429931640625e-01
2.000000000000000000e+02 4.015298843383789062e+01 -1.300878334045410156e+01 1.061942458152770996e+00 3.588705062866210938e-01 4.262438714504241943e-01 -5.847069025039672852e-01
2.010000000000000000e+02 3.785407638549804688e+01 -1.331359767913818359e+01 -3.903817236423492432e-01 4.395155429840087891e+00 1.201432108879089355e+00 -1.298486351966857910e+00
2.020000000000000000e+02 3.912277603149414062e+01 -1.388880920410156250e+01 -1.616413891315460205e-01 1.393583655357360840e+00 3.695826828479766846e-01 -6.905896067619323730e-01
2.030000000000000000e+02 3.797972106933593750e+01 -1.272408676147460938e+01 6.013100147247314453e-01 4.082744121551513672e+00 1.405216217041015625e+00 -2.192700624465942383e+00
2.040000000000000000e+02 3.900710678100585938e+01 -1.408884143829345703e+01 -2.501611113548278809e-01 1.680465102195739746e+00 4.290912151336669922e-01 -6.799253821372985840e-01
2.050000000000000000e+02 3.816526412963867188e+01 -1.344279575347900391e+01 -2.369494438171386719e-01 3.344197750091552734e+00 9.321745038032531738e-01 -1.329378843307495117e+00
2.060000000000000000e+02 3.848187637329101562e+01 -1.376720619201660156e+01 -3.172920644283294678e-01 2.522773504257202148e+00 6.616443991661071777e-01 -1.035402059555053711e+00
2.070000000000000000e+02 3.850112152099609375e+01 -1.351400279998779297e+01 -7.593918591737747192e-02 2.390261650085449219e+00 6.942967772483825684e-01 -1.128397583961486816e+00
2.080000000000000000e+02 3.945846557617187500e+01 -1.411158370971679688e+01 -2.111118137836456299e-01 1.052612185478210449e+00 2.524501383304595947e-01 -4.692726135253906250e-01
2.090000000000000000e+02 3.957053756713867188e+01 -1.393090152740478516e+01 -1.357683390378952026e-01 8.290433287620544434e-01 2.079824954271316528e-01 -4.416969418525695801e-01
2.100000000000000000e+02 3.813170242309570312e+01 -1.293576526641845703e+01 4.159007966518402100e-01 3.340714216232299805e+00 1.126984477043151855e+00 -1.792271375656127930e+00
2.110000000000000000e+02 3.746862030029296875e+01 -1.323981189727783203e+01 -8.301683664321899414e-01 5.550227642059326172e+00 1.416017770767211914e+00 -7.165920734405517578e-01
2.120000000000000000e+02 3.703794097900390625e+01 -1.263588142395019531e+01 4.262051582336425781e-01 7.292255878448486328e+00 2.315538167953491211e+00 9.218029975891113281e-01
2.130000000000000000e+02 3.694598007202148438e+01 -1.283359527587890625e+01 -2.615555375814437866e-02 6.477217674255371094e+00 1.935318589210510254e+00 6.548940539360046387e-01
2.140000000000000000e+02 3.678916549682617188e+01 -1.089095020294189453e+01 4.363497734069824219e+00 6.400632381439208984e+00 3.229239225387573242e+00 -2.299029827117919922e+00
2.150000000000000000e+02 3.754606246948242188e+01 -1.276962280273437500e+01 -3.122590780258178711e-01 6.769106864929199219e+00 1.937054395675659180e+00 -1.350201249122619629e+00
2.160000000000000000e+02 3.628173065185546875e+01 -1.207372570037841797e+01 3.917143821716308594e+00 3.788845062255859375e+00 2.311796665191650391e+00 9.794730544090270996e-01
2.170000000000000000e+02 3.833602905273437500e+01 -1.281907272338867188e+01 7.295417189598083496e-01 2.274411201477050781e+00 9.011858701705932617e-01 -1.651593327522277832e+00
2.180000000000000000e+02 3.626548767089843750e+01 -1.136256790161132812e+01 5.238538742065429688e+00 3.414026975631713867e+00 2.595769643783569336e+00 -1.063287019729614258e+00
2.190000000000000000e+02 3.804280090332031250e+01 -1.321263122558593750e+01 -3.176649287343025208e-02 3.716804504394531250e+00 1.105511426925659180e+00 -1.577061295509338379e+00
2.200000000000000000e+02 3.669370651245117188e+01 -1.254669761657714844e+01 1.142461419105529785e+00 6.254425525665283203e+00 2.219066143035888672e+00 1.614162087440490723e+00
2.210000000000000000e+02 3.845704650878906250e+01 -1.232490348815917969e+01 1.237269043922424316e+00 6.587699651718139648e-01 5.688117146492004395e-01 -9.603258371353149414e-01
2.220000000000000000e+02 3.659429550170898438e+01 -1.101919651031494141e+01 4.080802917480468750e+00 5.027444839477539062e+00 2.732474327087402344e+00 -1.715784788131713867e+00
2.230000000000000000e+02 3.691045761108398438e+01 -1.070542240142822266e+01 3.281667947769165039e+00 5.767785549163818359e+00 2.714836120605468750e+00 -1.430411815643310547e+00
2.240000000000000000e+02 3.661600112915039062e+01 -1.074315834045410156e+01 3.618523836135864258e+00 5.164262771606445312e+00 2.634835958480834961e+00 -2.048337459564208984e+00
2.250000000000000000e+02 3.849311065673828125e+01 -1.062144756317138672e+01 4.021615028381347656e+00 2.158358812332153320e+00 1.853992223739624023e+00 1.872393369674682617e+00
2.260000000000000000e+02 3.836975860595703125e+01 -1.080854129791259766e+01 4.585833549499511719e+00 2.119745016098022461e+00 2.011673450469970703e+00 1.843813776969909668e+00
2.270000000000000000e+02 3.891170120239257812e+01 -1.174322795867919922e+01 2.914900541305541992e+00 2.724807262420654297e-01 9.562143683433532715e-01 -7.141716480255126953e-01
2.280000000000000000e+02 3.922702407836914062e+01 -1.102745723724365234e+01 3.473606109619140625e+00 2.860246598720550537e-01 1.127889275550842285e+00 3.037869930267333984e-01
2.290000000000000000e+02 3.867617034912109375e+01 -1.170543861389160156e+01 3.207579851150512695e+00 2.881565392017364502e-01 1.048720955848693848e+00 -8.108160495758056641e-01
2.300000000000000000e+02 3.828837203979492188e+01 -1.052392196655273438e+01 3.578772544860839844e+00 2.774541854858398438e+00 1.905994296073913574e+00 1.695987582206726074e+00
2.310000000000000000e+02 3.867578506469726562e+01 -1.071983146667480469e+01 4.097171306610107422e+00 1.344548821449279785e+00 1.632516026496887207e+00 1.326450705528259277e+00
2.320000000000000000e+02 3.779987716674804688e+01 -1.066832923889160156e+01 3.332846164703369141e+00 6.243414878845214844e+00 2.872878313064575195e+00 2.257729291915893555e+00
2.330000000000000000e+02 3.946900177001953125e+01 -1.331519699096679688e+01 3.161390498280525208e-02 5.097664594650268555e-01 1.624141037464141846e-01 -3.647241294384002686e-01
2.340000000000000000e+02 3.899163055419921875e+01 -1.262533378601074219e+01 5.787919163703918457e-01 3.439114391803741455e-01 2.768110036849975586e-01 -4.475026428699493408e-01
2.350000000000000000e+02 3.863077926635742188e+01 -1.244155120849609375e+01 9.412001967430114746e-01 6.001219749450683594e-01 4.623966515064239502e-01 -7.737445235252380371e-01
2.360000000000000000e+02 3.940052032470703125e+01 -1.382005310058593750e+01 -1.099343374371528625e-01 9.857652783393859863e-01 2.627492845058441162e-01 -5.161116719245910645e-01
2.370000000000000000e+02 3.832578659057617188e+01 -1.249014091491699219e+01 1.316810846328735352e+00 1.656106710433959961e+00 8.918752670288085938e-01 -1.607983231544494629e+00
2.380000000000000000e+02 4.020817184448242188e+01 -1.251273345947265625e+01 1.305344462394714355e+00 2.161608040332794189e-01 4.564515650272369385e-01 -5.334891080856323242e-01
2.390000000000000000e+02 3.964376068115234375e+01 -1.244823551177978516e+01 1.337885856628417969e+00 3.051969707012176514e-01 4.929248690605163574e-01 -6.321576833724975586e-01
2.400000000000000000e+02 3.997892761230468750e+01 -1.291064929962158203e+01 1.070917248725891113e+00 3.139961659908294678e-01 4.154740273952484131e-01 -5.797509551048278809e-01
2.410000000000000000e+02 3.939727020263671875e+01 -1.113386726379394531e+01 3.221293687820434570e+00 1.713323593139648438e-01 1.017787814140319824e+00 1.092688739299774170e-01
2.420000000000000000e+02 4.027958297729492188e+01 -1.165298652648925781e+01 2.020889520645141602e+00 -3.399869799613952637e-02 5.960672497749328613e-01 -2.787618041038513184e-01
2.430000000000000000e+02 4.014324569702148438e+01 -1.189322948455810547e+01 1.890500068664550781e+00 8.180387318134307861e-02 5.916911959648132324e-01 -4.198788106441497803e-01
2.440000000000000000e+02 3.991580963134765625e+01 -1.146003341674804688e+01 2.450349092483520508e+00 -7.921012118458747864e-03 7.327284216880798340e-01 -2.607711255550384521e-01
2.450000000000000000e+02 3.885072708129882812e+01 -1.083815002441406250e+01 4.031093597412109375e+00 8.359551429748535156e-01 1.460114598274230957e+00 9.780116081237792969e-01
2.460000000000000000e+02 3.877862930297851562e+01 -1.119173049926757812e+01 4.357360363006591797e+00 4.779458045959472656e-01 1.450591802597045898e+00 4.201811254024505615e-01
2.470000000000000000e+02 3.956279373168945312e+01 -1.124907779693603516e+01 2.928182840347290039e+00 6.270847469568252563e-02 8.972674012184143066e-01 -5.805961415171623230e-02
2.480000000000000000e+02 4.009864044189453125e+01 -1.155706119537353516e+01 2.208028554916381836e+00 -3.248044988140463829e-03 6.614341139793395996e-01 -2.763300836086273193e-01
2.490000000000000000e+02 3.968144607543945312e+01 -1.375050830841064453e+01 -1.112470701336860657e-01 6.366240978240966797e-01 1.576130986213684082e-01 -3.485975265502929688e-01
2.500000000000000000e+02 4.049775314331054688e+01 -1.246678638458251953e+01 1.286541104316711426e+00 1.537076234817504883e-01 4.320746064186096191e-01 -4.615108966827392578e-01
2.510000000000000000e+02 4.071605300903320312e+01 -1.211464881896972656e+01 1.519772529602050781e+00 -7.540253456681966782e-03 4.536696970462799072e-01 -3.276155292987823486e-01
2.520000000000000000e+02 3.893929290771484375e+01 -1.229117202758789062e+01 1.318837285041809082e+00 3.524733483791351318e-01 5.013931989669799805e-01 -7.168278098106384277e-01
2.530000000000000000e+02 3.795758819580078125e+01 -1.354169559478759766e+01 -5.012493133544921875e-01 3.888056516647338867e+00 1.016042232513427734e+00 -1.156692028045654297e+00
2.540000000000000000e+02 3.776509094238281250e+01 -1.277143669128417969e+01 2.581635117530822754e-01 5.310558319091796875e+00 1.670616507530212402e+00 -1.976178884506225586e+00
2.550000000000000000e+02 3.896000289916992188e+01 -1.281935214996337891e+01 4.045665860176086426e-01 6.550478339195251465e-01 3.178843259811401367e-01 -6.282679438591003418e-01
2.560000000000000000e+02 3.879705429077148438e+01 -1.361252307891845703e+01 -5.909925699234008789e-02 1.811790704727172852e+00 5.258074402809143066e-01 -9.571999311447143555e-01
2.570000000000000000e+02 3.958464813232421875e+01 -1.317265224456787109e+01 1.688544265925884247e-02 2.826977670192718506e-01 8.987496048212051392e-02 -2.090803533792495728e-01
2.580000000000000000e+02 3.980727386474609375e+01 -1.281607532501220703e+01 1.108730554580688477e+00 3.193086683750152588e-01 4.284117519855499268e-01 -5.781188607215881348e-01
2.590000000000000000e+02 3.955330657958984375e+01 -1.227965164184570312e+01 1.545477867126464844e+00 3.069815635681152344e-01 5.557378530502319336e-01 -6.719200015068054199e-01
2.600000000000000000e+02 3.863748168945312500e+01 -1.192169857025146484e+01 2.263983249664306641e+00 4.224213659763336182e-01 8.059213757514953613e-01 -8.993873596191406250e-01
2.610000000000000000e+02 3.897198486328125000e+01 -1.113871860504150391e+01 3.916117668151855469e+00 3.772605359554290771e-01 1.288013458251953125e+00 3.248973786830902100e-01
2.620000000000000000e+02 3.975349426269531250e+01 -1.194175529479980469e+01 1.960529327392578125e+00 1.648424714803695679e-01 6.376115083694458008e-01 -5.587862133979797363e-01
2.630000000000000000e+02 3.979385757446289062e+01 -1.357207298278808594e+01 -1.090819761157035828e-01 4.160129725933074951e-01 9.207930415868759155e-02 -2.134657055139541626e-01
2.640000000000000000e+02 4.053705215454101562e+01 -1.202467060089111328e+01 1.631201505661010742e+00 2.581982500851154327e-02 4.971064031124114990e-01 -3.417418897151947021e-01
2.650000000000000000e+02 3.847277450561523438e+01 -1.305915641784667969e+01 4.666358530521392822e-01 2.130627393722534180e+00 7.791789770126342773e-01 -1.397131085395812988e+00
2.660000000000000000e+02 3.816631698608398438e+01 -1.262301063537597656e+01 1.152615904808044434e+00 2.638929843902587891e+00 1.137463808059692383e+00 -2.000290870666503906e+00
2.670000000000000000e+02 3.913119506835937500e+01 -1.119086360931396484e+01 3.580694675445556641e+00 2.756215631961822510e-01 1.156894922256469727e+00 1.473862230777740479e-01
2.680000000000000000e+02 3.915189361572265625e+01 -1.179569625854492188e+01 2.501928806304931641e+00 2.277940362691879272e-01 8.189168572425842285e-01 -6.818348765373229980e-01
2.690000000000000000e+02 3.866582489013671875e+01 -1.385980892181396484e+01 -2.678416967391967773e-01 2.206843376159667969e+00 5.817005634307861328e-01 -9.275870919227600098e-01
2.700000000000000000e+02 3.865060043334960938e+01 -1.341626644134521484e+01 4.866939410567283630e-02 2.009125232696533203e+00 6.173384189605712891e-01 -1.102485775947570801e+00
2.710000000000000000e+02 3.818948364257812500e+01 -1.325605201721191406e+01 -3.692666441202163696e-02 3.209750413894653320e+00 9.518470764160156250e-01 -1.473098516464233398e+00
2.720000000000000000e+02 3.974061584472656250e+01 -1.328569889068603516e+01 -8.648261427879333496e-02 2.271294295787811279e-01 4.219404608011245728e-02 -1.331843286752700806e-01
2.730000000000000000e+02 3.923666763305664062e+01 -1.371500682830810547e+01 -5.808150768280029297e-02 1.147945284843444824e+00 3.269591331481933594e-01 -6.376405358314514160e-01
2.740000000000000000e+02 3.981606292724609375e+01 -1.217225265502929688e+01 1.685966730117797852e+00 2.257047295570373535e-01 5.735014081001281738e-01 -6.155442595481872559e-01
2.750000000000000000e+02 3.955863571166992188e+01 -1.161843299865722656e+01 2.527282238006591797e+00 1.120197474956512451e-01 7.917906045913696289e-01 -4.626384377479553223e-01
2.760000000000000000e+02 3.950410461425781250e+01 -1.363386058807373047e+01 -3.359719738364219666e-02 7.279195785522460938e-01 2.082967162132263184e-01 -4.481510221958160400e-01
2.770000000000000000e+02 4.009291076660156250e+01 -1.271991348266601562e+01 1.170670390129089355e+00 3.219761550426483154e-01 4.477939605712890625e-01 -5.720394253730773926e-01
2.780000000000000000e+02 3.918941497802734375e+01 -1.158058547973632812e+01 2.953161239624023438e+00 1.769085377454757690e-01 9.390209913253784180e-01 -5.114360451698303223e-01
2.790000000000000000e+02 3.920149993896484375e+01 -1.347032642364501953e+01 8.037012070417404175e-02 1.025998115539550781e+00 3.319104611873626709e-01 -6.729152202606201172e-01
2.800000000000000000e+02 3.895228195190429688e+01 -1.342496490478515625e+01 1.097710952162742615e-01 1.391332149505615234e+00 4.503309726715087891e-01 -8.766075372695922852e-01
2.810000000000000000e+02 4.034906005859375000e+01 -1.195340633392333984e+01 1.749059915542602539e+00 2.538460865616798401e-02 5.323333740234375000e-01 -3.886679708957672119e-01
2.820000000000000000e+02 4.045182037353515625e+01 -1.220451641082763672e+01 1.520240306854248047e+00 7.370020449161529541e-02 4.781821370124816895e-01 -4.045882821083068848e-01
2.830000000000000000e+02 4.034081649780273438e+01 -1.234744644165039062e+01 1.453758955001831055e+00 1.636461764574050903e-01 4.852215349674224854e-01 -4.934218227863311768e-01
2.840000000000000000e+02 4.026595687866210938e+01 -1.282508373260498047e+01 1.083816647529602051e+00 2.617518901824951172e-01 4.036705493927001953e-01 -5.290238857269287109e-01
2.850000000000000000e+02 3.977138900756835938e+01 -1.170628070831298828e+01 2.252999544143676758e+00 1.042599678039550781e-01 7.071778774261474609e-01 -4.575847685337066650e-01
2.860000000000000000e+02 3.995706558227539062e+01 -1.179377555847167969e+01 2.027464151382446289e+00 7.272503525018692017e-02 6.300567984580993652e-01 -4.401041269302368164e-01
2.870000000000000000e+02 3.911750030517578125e+01 -1.142801570892333984e+01 3.416541576385498047e+00 1.929841190576553345e-01 1.082857728004455566e+00 -2.538076341152191162e-01
2.880000000000000000e+02 3.903871536254882812e+01 -1.094007968902587891e+01 3.819348096847534180e+00 4.847316443920135498e-01 1.291223883628845215e+00 5.970430970191955566e-01
2.890000000000000000e+02 3.796863174438476562e+01 -1.068827629089355469e+01 3.601778507232666016e+00 5.294258117675781250e+00 2.668810844421386719e+00 2.122131586074829102e+00
2.900000000000000000e+02 3.968232727050781250e+01 -1.301461887359619141e+01 -7.404745370149612427e-02 4.652096703648567200e-02 -8.257945999503135681e-03 -2.546601928770542145e-02
2.910000000000000000e+02 3.951086807250976562e+01 -1.291774749755859375e+01 4.130616784095764160e-02 1.634821593761444092e-01 6.143649667501449585e-02 -1.053466573357582092e-01
2.920000000000000000e+02 3.931524658203125000e+01 -1.284178447723388672e+01 1.877422034740447998e-01 2.434104382991790771e-01 1.293457895517349243e-01 -2.568466961383819580e-01
2.930000000000000000e+02 3.881308364868164062e+01 -1.254432106018066406e+01 7.412579655647277832e-01 4.998639225959777832e-01 3.723365664482116699e-01 -5.849435925483703613e-01
2.940000000000000000e+02 3.961832809448242188e+01 -1.345309734344482422e+01 -3.079468943178653717e-02 4.793054461479187012e-01 1.345532238483428955e-01 -3.146870732307434082e-01
2.950000000000000000e+02 3.883793640136718750e+01 -1.398025703430175781e+01 -2.860456109046936035e-01 1.903569340705871582e+00 4.852571189403533936e-01 -7.982960343360900879e-01
2.960000000000000000e+02 3.829771804809570312e+01 -1.370223999023437500e+01 -3.562957048416137695e-01 2.980421304702758789e+00 7.872377038002014160e-01 -1.101908445358276367e+00
2.970000000000000000e+02 3.812543487548828125e+01 -1.362518310546875000e+01 -5.080806016921997070e-01 3.406378507614135742e+00 8.694893717765808105e-01 -1.174037337303161621e+00
2.980000000000000000e+02 3.770795822143554688e+01 -1.323455333709716797e+01 -6.094242930412292480e-01 4.922949314117431641e+00 1.294057488441467285e+00 -1.072864413261413574e+00
2.990000000000000000e+02 3.947801208496093750e+01 -1.261146259307861328e+01 1.224572539329528809e+00 3.379653096199035645e-01 4.687613546848297119e-01 -5.998332500457763672e-01
3.000000000000000000e+02 3.982448196411132812e+01 -1.238531970977783203e+01 1.418257832527160645e+00 2.799190282821655273e-01 5.094530582427978516e-01 -6.229242682456970215e-01
3.010000000000000000e+02 3.948998260498046875e+01 -1.205418777465820312e+01 1.863326311111450195e+00 2.691148519515991211e-01 6.397323608398437500e-01 -6.856737136840820312e-01
3.020000000000000000e+02 3.875197601318359375e+01 -1.220648860931396484e+01 1.344813585281372070e+00 4.040300846099853516e-01 5.246530771255493164e-01 -7.111867666244506836e-01
3.030000000000000000e+02 3.762829971313476562e+01 -1.335719490051269531e+01 -5.370302796363830566e-01 4.835676193237304688e+00 1.289593815803527832e+00 -9.620583057403564453e-01
3.040000000000000000e+02 3.759690856933593750e+01 -1.311972236633300781e+01 -6.201934218406677246e-01 5.475924968719482422e+00 1.456719398498535156e+00 -1.170321464538574219e+00
3.050000000000000000e+02 3.717251968383789062e+01 -1.268096256256103516e+01 1.052146703004837036e-01 7.668314933776855469e+00 2.332058906555175781e+00 2.939053773880004883e-01
3.060000000000000000e+02 3.716584396362304688e+01 -1.282543849945068359e+01 -6.079372763633728027e-01 6.835734367370605469e+00 1.868339180946350098e+00 -1.231094747781753540e-01
3.070000000000000000e+02 3.734735488891601562e+01 -1.274038696289062500e+01 -2.617264688014984131e-01 7.308462619781494141e+00 2.114020824432373047e+00 -7.669963836669921875e-01
3.080000000000000000e+02 3.734516143798828125e+01 -1.291779804229736328e+01 -6.759101152420043945e-01 6.747077941894531250e+00 1.821350336074829102e+00 -4.910188615322113037e-01
3.090000000000000000e+02 3.775508117675781250e+01 -1.311145401000976562e+01 -3.002992272377014160e-01 4.943749904632568359e+00 1.393035173416137695e+00 -1.430952906608581543e+00
3.100000000000000000e+02 3.850630569458007812e+01 -1.265375518798828125e+01 9.751028418540954590e-01 1.346446037292480469e+00 6.964646577835083008e-01 -1.290728688240051270e+00
3.110000000000000000e+02 3.790245056152343750e+01 -1.317288112640380859e+01 -2.896687984466552734e-01 4.465025424957275391e+00 1.252606987953186035e+00 -1.482718944549560547e+00
3.120000000000000000e+02 3.854162597656250000e+01 -1.087318706512451172e+01 4.478829383850097656e+00 1.462944865226745605e+00 1.782532334327697754e+00 1.469863772392272949e+00
3.130000000000000000e+02 3.785142517089843750e+01 -1.057282352447509766e+01 3.265239715576171875e+00 5.725251674652099609e+00 2.697147369384765625e+00 2.010401964187622070e+00
3.140000000000000000e+02 3.908543014526367188e+01 -1.359288692474365234e+01 -2.500496106222271919e-03 1.270121932029724121e+00 3.802864253520965576e-01 -7.531760931015014648e-01
3.150000000000000000e+02 3.893430328369140625e+01 -1.304731273651123047e+01 3.917166888713836670e-01 9.330988526344299316e-01 3.974446654319763184e-01 -7.953003644943237305e-01
3.160000000000000000e+02 3.870232772827148438e+01 -1.302156639099121094e+01 4.611640870571136475e-01 1.461604475975036621e+00 5.768305659294128418e-01 -1.113409876823425293e+00
3.170000000000000000e+02 3.935229110717773438e+01 -1.317698001861572266e+01 1.468423604965209961e-01 5.697467327117919922e-01 2.149767279624938965e-01 -4.593274891376495361e-01
3.180000000000000000e+02 3.932920074462890625e+01 -1.340126323699951172e+01 1.038202047348022461e-01 7.418752312660217285e-01 2.537086308002471924e-01 -5.258045196533203125e-01
3.190000000000000000e+02 3.992286682128906250e+01 -1.262991523742675781e+01 1.197978854179382324e+00 2.991451025009155273e-01 4.491371810436248779e-01 -5.979068875312805176e-01
3.200000000000000000e+02 4.002027893066406250e+01 -1.241498661041259766e+01 1.405642747879028320e+00 2.625063359737396240e-01 5.004447102546691895e-01 -5.782648324966430664e-01
3.210000000000000000e+02 3.925815963745117188e+01 -1.210615158081054688e+01 1.801266074180603027e+00 2.854684889316558838e-01 6.260203719139099121e-01 -7.571247220039367676e-01
3.220000000000000000e+02 3.899056243896484375e+01 -1.154880905151367188e+01 3.274341583251953125e+00 2.180819809436798096e-01 1.047727108001708984e+00 -4.754988551139831543e-01
3.230000000000000000e+02 3.976228713989257812e+01 -1.255560684204101562e+01 1.273543477058410645e+00 3.081554174423217773e-01 4.745096862316131592e-01 -5.906391739845275879e-01
3.240000000000000000e+02 3.849682998657226562e+01 -1.329804611206054688e+01 6.204965338110923767e-02 2.230408430099487305e+00 6.877374649047851562e-01 -1.258393049240112305e+00
3.250000000000000000e+02 3.880385208129882812e+01 -1.324215030670166016e+01 2.415103763341903687e-01 1.517538070678710938e+00 5.277145504951477051e-01 -1.019775986671447754e+00
3.260000000000000000e+02 3.833617401123046875e+01 -1.329631137847900391e+01 8.165914565324783325e-02 2.663807392120361328e+00 8.236399888992309570e-01 -1.358540654182434082e+00
3.270000000000000000e+02 3.800731658935546875e+01 -1.338281440734863281e+01 -4.192319214344024658e-01 3.839458227157592773e+00 1.026067972183227539e+00 -1.345752358436584473e+00
3.280000000000000000e+02 3.755678939819335938e+01 -1.295058345794677734e+01 -3.150646984577178955e-01 6.017911434173583984e+00 1.710853934288024902e+00 -1.192635178565979004e+00
3.290000000000000000e+02 3.797657394409179688e+01 -1.304776287078857422e+01 4.864944890141487122e-02 4.097573280334472656e+00 1.243866801261901855e+00 -1.764949202537536621e+00
3.300000000000000000e+02 3.778153610229492188e+01 -1.295790767669677734e+01 -1.715596616268157959e-01 4.995086669921875000e+00 1.447058200836181641e+00 -1.680833101272583008e+00
3.310000000000000000e+02 3.901504135131835938e+01 -1.130015754699707031e+01 3.733091354370117188e+00 2.575848996639251709e-01 1.197202801704406738e+00 -8.366257883608341217e-03
3.320000000000000000e+02 3.943794250488281250e+01 -1.307071590423583984e+01 9.899522364139556885e-02 2.874554097652435303e-01 1.159351915121078491e-01 -2.459166049957275391e-01
3.330000000000000000e+02 3.927233505249023438e+01 -1.303281021118164062e+01 2.264830172061920166e-01 4.530878961086273193e-01 2.038712799549102783e-01 -4.192638993263244629e-01
3.340000000000000000e+02 3.910663604736328125e+01 -1.332187938690185547e+01 2.223036736249923706e-01 9.878473877906799316e-01 3.630453050136566162e-01 -7.677938938140869141e-01
3.350000000000000000e+02 3.933376312255859375e+01 -1.355462551116943359e+01 -3.303060366306453943e-04 8.676542639732360840e-01 2.601971924304962158e-01 -5.535336136817932129e-01
3.360000000000000000e+02 4.006913757324218750e+01 -1.215937805175781250e+01 1.651819467544555664e+00 1.538732945919036865e-01 5.417078137397766113e-01 -5.256916284561157227e-01
3.370000000000000000e+02 4.028198242187500000e+01 -1.217189121246337891e+01 1.582506179809570312e+00 1.273453533649444580e-01 5.129554271697998047e-01 -4.633221328258514404e-01
3.380000000000000000e+02 3.939363479614257812e+01 -1.146197319030761719e+01 2.922619104385375977e+00 1.192107796669006348e-01 9.125489592552185059e-01 -3.448130488395690918e-01
3.390000000000000000e+02 3.923757934570312500e+01 -1.325883674621582031e+01 8.889491856098175049e-02 6.787332296371459961e-01 2.302884310483932495e-01 -4.780653417110443115e-01
3.400000000000000000e+02 3.912122344970703125e+01 -1.313798141479492188e+01 2.521347999572753906e-01 7.602970600128173828e-01 3.037295639514923096e-01 -6.169046759605407715e-01
3.410000000000000000e+02 3.827954864501953125e+01 -1.312313175201416016e+01 2.451293468475341797e-01 2.870910167694091797e+00 9.348118305206298828e-01 -1.578860998153686523e+00
3.420000000000000000e+02 3.937506484985351562e+01 -1.186748027801513672e+01 2.256065130233764648e+00 2.280926853418350220e-01 7.452473640441894531e-01 -6.475042104721069336e-01
3.430000000000000000e+02 4.067597579956054688e+01 -1.492616271972656250e+01 -3.102456033229827881e-01 3.483651280403137207e-01 1.143586356192827225e-02 -1.828316785395145416e-02
3.440000000000000000e+02 3.960700607299804688e+01 -1.447205066680908203e+01 -2.823223471641540527e-01 1.030538678169250488e+00 2.244649231433868408e-01 -4.067089557647705078e-01
3.450000000000000000e+02 4.153607177734375000e+01 -1.454702377319335938e+01 -5.381495356559753418e-01 -2.030818313360214233e-01 -2.223694175481796265e-01 3.310929536819458008e-01
3.460000000000000000e+02 3.964753341674804688e+01 -1.426131629943847656e+01 -1.752748340368270874e-01 9.670714735984802246e-01 2.375389933586120605e-01 -4.421541988849639893e-01
3.470000000000000000e+02 3.977859115600585938e+01 -1.413844299316406250e+01 -2.251140624284744263e-01 8.017174601554870605e-01 1.729810237884521484e-01 -3.145609796047210693e-01
3.480000000000000000e+02 4.173348236083984375e+01 -1.560855484008789062e+01 -3.160887062549591064e-01 7.356687448918819427e-03 -9.261960536241531372e-02 1.881501078605651855e-01
3.490000000000000000e+02 4.212546539306640625e+01 -1.497986698150634766e+01 -5.479586124420166016e-01 -2.280938327312469482e-01 -2.328157275915145874e-01 3.842771351337432861e-01
3.500000000000000000e+02 4.121213912963867188e+01 -1.522288703918457031e+01 -3.303131163120269775e-01 1.594941914081573486e-01 -5.124567821621894836e-02 1.067022606730461121e-01
3.510000000000000000e+02 4.026616668701171875e+01 -1.422120475769042969e+01 -3.067455291748046875e-01 3.751918077468872070e-01 2.053388208150863647e-02 -1.108686849474906921e-01
3.520000000000000000e+02 4.034296417236328125e+01 -1.346042633056640625e+01 -2.677308619022369385e-01 -8.118915557861328125e-02 -1.046760007739067078e-01 1.723510921001434326e-01
3.530000000000000000e+02 4.013394927978515625e+01 -1.358463382720947266e+01 -2.192561030387878418e-01 1.315421611070632935e-01 -2.631418406963348389e-02 3.107065707445144653e-02
3.540000000000000000e+02 3.991685867309570312e+01 -1.397008800506591797e+01 -1.933169215917587280e-01 5.595752596855163574e-01 1.098775044083595276e-01 -2.216255813837051392e-01
3.550000000000000000e+02 4.016902542114257812e+01 -1.467787933349609375e+01 -2.661506235599517822e-01 6.623627543449401855e-01 1.188636347651481628e-01 -1.849020123481750488e-01
3.560000000000000000e+02 4.028168869018554688e+01 -1.387051868438720703e+01 -2.932905554771423340e-01 1.905580163002014160e-01 -3.081976436078548431e-02 7.348957005888223648e-03
3.570000000000000000e+02 4.001298904418945312e+01 -1.374455642700195312e+01 -1.975713819265365601e-01 3.308412134647369385e-01 3.998094424605369568e-02 -1.039671897888183594e-01
3.580000000000000000e+02 4.069069290161132812e+01 -1.432726764678955078e+01 -3.817888796329498291e-01 1.525961309671401978e-01 -6.875782459974288940e-02 8.334950357675552368e-02
3.590000000000000000e+02 4.100041580200195312e+01 -1.408281040191650391e+01 -4.690292477607727051e-01 -1.322805881500244141e-01 -1.803929507732391357e-01 2.770054936408996582e-01
3.600000000000000000e+02 4.059204864501953125e+01 -1.386011791229248047e+01 -3.982433080673217773e-01 -9.308858960866928101e-02 -1.473995596170425415e-01 1.531631201505661011e-01
3.610000000000000000e+02 3.984148406982421875e+01 -1.444252490997314453e+01 -2.729040086269378662e-01 8.761660456657409668e-01 1.809786111116409302e-01 -3.452219665050506592e-01
3.620000000000000000e+02 4.393293762207031250e+01 -1.628159904479980469e+01 -3.796192705631256104e-01 -2.796422839164733887e-01 -1.977784633636474609e-01 3.456664979457855225e-01
3.630000000000000000e+02 4.349453735351562500e+01 -1.687784004211425781e+01 -1.395823359489440918e-01 -2.382314503192901611e-01 -1.133441329002380371e-01 2.753476202487945557e-01
3.640000000000000000e+02 4.454083633422851562e+01 -1.671368789672851562e+01 -2.693482637405395508e-01 -2.530387341976165771e-01 -1.567160934209823608e-01 2.767207920551300049e-01
3.650000000000000000e+02 4.332546997070312500e+01 -1.584721183776855469e+01 -4.711550176143646240e-01 -2.825439572334289551e-01 -2.261096984148025513e-01 3.831209838390350342e-01
3.660000000000000000e+02 4.228987503051757812e+01 -1.601399040222167969e+01 -2.749590277671813965e-01 -8.223148435354232788e-02 -1.071571484208106995e-01 2.414271235466003418e-01
3.670000000000000000e+02 4.271836471557617188e+01 -1.541066265106201172e+01 -5.259380340576171875e-01 -2.782898247241973877e-01 -2.412683516740798950e-01 3.915836811065673828e-01
3.680000000000000000e+02 4.409748458862304688e+01 -1.730638694763183594e+01 -5.136164650321006775e-02 -2.928667068481445312e-01 -1.032685041427612305e-01 2.718016207218170166e-01
3.690000000000000000e+02 4.289202880859375000e+01 -1.644699668884277344e+01 -2.063605785369873047e-01 -1.890314668416976929e-01 -1.186176091432571411e-01 2.692603170871734619e-01
3.700000000000000000e+02 4.547533798217773438e+01 -1.835840034484863281e+01 2.675220742821693420e-02 -3.606741130352020264e-01 -1.001765727996826172e-01 1.476974636316299438e-01
3.710000000000000000e+02 4.592621231079101562e+01 -1.777148628234863281e+01 -5.304956357576884329e-05 -1.329219192266464233e-01 -3.989248722791671753e-02 5.433110147714614868e-02
3.720000000000000000e+02 4.477213668823242188e+01 -1.781250190734863281e+01 2.188248373568058014e-02 -3.148958683013916016e-01 -8.790401369333267212e-02 2.336843162775039673e-01
3.730000000000000000e+02 4.521964645385742188e+01 -1.722290992736816406e+01 -1.073239147663116455e-01 -2.035466730594635010e-01 -9.326117485761642456e-02 1.925731748342514038e-01
3.740000000000000000e+02 4.605035400390625000e+01 -1.858536338806152344e+01 -9.844143642112612724e-04 -2.700543999671936035e-01 -8.131164312362670898e-02 -2.214200049638748169e-02
3.750000000000000000e+02 4.658209228515625000e+01 -1.637586402893066406e+01 -4.882762208580970764e-02 2.379762940108776093e-03 -1.393435802310705185e-02 -2.262102253735065460e-02
3.760000000000000000e+02 4.631165695190429688e+01 -1.710632896423339844e+01 3.172822296619415283e-03 -1.503925491124391556e-02 -3.559929784387350082e-03 5.603250581771135330e-03
3.770000000000000000e+02 4.698057174682617188e+01 -1.691733360290527344e+01 1.028893422335386276e-02 1.300323009490966797e-02 6.987649016082286835e-03 -2.023715293034911156e-03
3.780000000000000000e+02 4.604409027099609375e+01 -1.595431995391845703e+01 -2.907768450677394867e-02 6.785117555409669876e-03 -6.687770131975412369e-03 3.721640631556510925e-02
3.790000000000000000e+02 4.565672302246093750e+01 -1.659176063537597656e+01 -6.703392602503299713e-03 7.340520824072882533e-06 -2.008815528824925423e-03 -6.854729726910591125e-03
3.800000000000000000e+02 4.778184509277343750e+01 -1.613277053833007812e+01 -1.647596508264541626e-01 -8.295533247292041779e-03 -5.191655457019805908e-02 -1.816449686884880066e-02
3.810000000000000000e+02 4.648395919799804688e+01 -1.532822322845458984e+01 -4.310294985771179199e-02 -8.348966017365455627e-03 -1.543557457625865936e-02 1.100445017218589783e-01
3.820000000000000000e+02 4.633080291748046875e+01 -9.250532150268554688e+00 4.733702242374420166e-01 -5.616601109504699707e-01 -2.648696862161159515e-02 1.187243819236755371e+00
3.830000000000000000e+02 4.475930786132812500e+01 -6.323493003845214844e+00 -3.510179221630096436e-01 -8.973569273948669434e-01 -3.745124638080596924e-01 1.307876110076904297e+00
3.840000000000000000e+02 4.147860717773437500e+01 -3.380367040634155273e+00 -2.660714149475097656e+00 -1.236001729965209961e+00 -1.169014692306518555e+00 1.542345404624938965e+00
3.850000000000000000e+02 3.964855194091796875e+01 -2.087997436523437500e+00 -2.350931882858276367e+00 -1.425306685268878937e-02 -7.095555067062377930e-01 1.208287954330444336e+00
3.860000000000000000e+02 4.031888580322265625e+01 -1.450063943862915039e+00 -1.552480101585388184e+00 -9.182139635086059570e-01 -7.412081956863403320e-01 1.212929964065551758e+00
3.870000000000000000e+02 3.931433868408203125e+01 -7.697933316230773926e-01 -1.301469326019287109e+00 -6.147388834506273270e-03 -3.922850191593170166e-01 7.907954454421997070e-01
3.880000000000000000e+02 3.843049240112304688e+01 -1.450927019119262695e+00 -1.864113092422485352e+00 3.978858292102813721e-01 -4.398681819438934326e-01 8.323035836219787598e-01
3.890000000000000000e+02 3.652997970581054688e+01 -1.094995617866516113e+00 -2.129936218261718750e+00 4.109128117561340332e-01 -5.157070159912109375e-01 3.383385241031646729e-01
3.900000000000000000e+02 3.445773696899414062e+01 -1.380500793457031250e+00 -3.084244966506958008e+00 4.341401159763336182e-01 -7.950314283370971680e-01 1.284926831722259521e-01
3.910000000000000000e+02 3.353755187988281250e+01 -2.286338090896606445e+00 -2.422771215438842773e+00 -2.602528929710388184e-01 -8.049072027206420898e-01 3.858777284622192383e-01
3.920000000000000000e+02 3.251891326904296875e+01 -3.135389566421508789e+00 -1.599347829818725586e+00 -9.887757152318954468e-02 -5.094676017761230469e-01 -3.410032764077186584e-02
3.930000000000000000e+02 3.167794227600097656e+01 -7.614593505859375000e+00 2.505259990692138672e+00 4.864979982376098633e-01 8.975273966789245605e-01 -4.792451560497283936e-01
3.940000000000000000e+02 3.715252685546875000e+01 -9.072080612182617188e+00 9.637965559959411621e-01 3.469432353973388672e+00 1.329968690872192383e+00 -4.394825398921966553e-01
3.950000000000000000e+02 3.744858169555664062e+01 -9.663728713989257812e+00 1.539836287498474121e+00 4.392767906188964844e+00 1.779781222343444824e+00 1.500834226608276367e-01
3.960000000000000000e+02 3.798893737792968750e+01 -1.003593063354492188e+01 2.257176876068115234e+00 3.957809448242187500e+00 1.864495873451232910e+00 1.212082028388977051e+00
3.970000000000000000e+02 3.861442184448242188e+01 -1.034884166717529297e+01 3.256881952285766602e+00 1.995387196540832520e+00 1.575680732727050781e+00 1.523066878318786621e+00
3.980000000000000000e+02 3.814206314086914062e+01 -7.723890304565429688e+00 3.041082918643951416e-01 1.830076694488525391e+00 6.402555108070373535e-01 5.265044569969177246e-01
3.990000000000000000e+02 4.163417053222656250e+01 -7.190131664276123047e+00 3.033530116081237793e-01 -4.495643079280853271e-01 -4.386338591575622559e-02 1.106707692146301270e+00
4.000000000000000000e+02 3.611845779418945312e+01 -7.820280551910400391e+00 8.193642497062683105e-01 1.659820675849914551e+00 7.437554597854614258e-01 -8.584680557250976562e-01
4.010000000000000000e+02 3.732389450073242188e+01 -1.408311724662780762e+00 -2.028456449508666992e+00 5.473073124885559082e-01 -4.443447291851043701e-01 6.061605215072631836e-01
4.020000000000000000e+02 4.014497756958007812e+01 -2.825907945632934570e+00 -2.366378068923950195e+00 -4.403208941221237183e-02 -7.231230735778808594e-01 9.794116020202636719e-01
4.030000000000000000e+02 4.949212265014648438e+01 -1.413861179351806641e+01 -5.771505832672119141e-01 6.473986059427261353e-02 -1.537232249975204468e-01 3.616417050361633301e-01
4.040000000000000000e+02 4.945292663574218750e+01 -1.530252647399902344e+01 -6.388342976570129395e-01 1.645043678581714630e-02 -1.867151558399200439e-01 5.153670907020568848e-02
4.050000000000000000e+02 5.072142028808593750e+01 -1.518077087402343750e+01 -9.854478836059570312e-01 3.122930042445659637e-02 -2.862655818462371826e-01 4.350119270384311676e-03
4.060000000000000000e+02 5.595292663574218750e+01 -1.449120807647705078e+01 -2.095815420150756836e+00 -6.728655193001031876e-03 -6.307631731033325195e-01 -1.966062784194946289e-01
4.070000000000000000e+02 5.761964797973632812e+01 -1.065153312683105469e+01 -1.111583828926086426e+00 4.331461191177368164e-01 -2.035313099622726440e-01 -4.763263463973999023e-02
4.080000000000000000e+02 5.759475708007812500e+01 -6.508434772491455078e+00 2.635388970375061035e-01 8.254492878913879395e-01 3.266964554786682129e-01 4.250741004943847656e-01
4.090000000000000000e+02 5.546833419799804688e+01 -1.784112095832824707e+00 1.650181412696838379e+00 2.107125282287597656e+00 1.127192020416259766e+00 1.775244951248168945e+00
4.100000000000000000e+02 5.737773132324218750e+01 -1.454417824745178223e+00 1.288497328758239746e+00 1.751684308052062988e+00 9.120544791221618652e-01 1.271779417991638184e+00
4.110000000000000000e+02 5.877242279052734375e+01 2.764650583267211914e+00 1.076375365257263184e+00 2.246207714080810547e+00 9.967749118804931641e-01 1.523802042007446289e+00
4.120000000000000000e+02 5.794917678833007812e+01 1.645355224609375000e+00 9.930307269096374512e-01 2.119948625564575195e+00 9.338938593864440918e-01 1.482728719711303711e+00
4.130000000000000000e+02 5.726212692260742188e+01 -1.431362724304199219e+01 -2.039688587188720703e+00 1.635123789310455322e-02 -6.070011854171752930e-01 -2.652096152305603027e-01
4.140000000000000000e+02 6.104421615600585938e+01 -1.330004692077636719e+01 -1.936660051345825195e+00 -2.706201076507568359e-01 -6.621840596199035645e-01 -7.761015295982360840e-01
4.150000000000000000e+02 6.220668029785156250e+01 -1.271638298034667969e+01 -2.445822715759277344e+00 -4.104138612747192383e-01 -8.568710088729858398e-01 -1.018405318260192871e+00
4.160000000000000000e+02 6.334920501708984375e+01 -1.219575023651123047e+01 -3.429057598114013672e+00 -5.454730987548828125e-01 -1.192359209060668945e+00 -7.619115710258483887e-01
4.170000000000000000e+02 6.430261993408203125e+01 -1.146944332122802734e+01 -2.669226884841918945e+00 -7.483710646629333496e-01 -1.025279402732849121e+00 -3.987297415733337402e-01
4.180000000000000000e+02 6.534574127197265625e+01 -1.231994342803955078e+01 -2.503911018371582031e+00 -3.692595064640045166e-01 -8.619511127471923828e-01 2.667328417301177979e-01
4.190000000000000000e+02 6.877548980712890625e+01 -1.303519535064697266e+01 -6.543539762496948242e-01 1.257398426532745361e-01 -1.585842370986938477e-01 1.010502874851226807e-02
4.200000000000000000e+02 6.915653228759765625e+01 -1.392160129547119141e+01 -4.184893071651458740e-01 7.222862541675567627e-02 -1.038782075047492981e-01 5.720020085573196411e-02
4.210000000000000000e+02 7.047905731201171875e+01 -1.457927322387695312e+01 -2.731596827507019043e-01 2.498688921332359314e-02 -7.445183396339416504e-02 -3.179307328537106514e-03
4.220000000000000000e+02 7.202820587158203125e+01 -1.447686672210693359e+01 -2.207223027944564819e-01 1.903647929430007935e-02 -6.050574779510498047e-02 -4.552531987428665161e-02
4.230000000000000000e+02 7.435052490234375000e+01 -1.442232894897460938e+01 -1.338063776493072510e-01 -4.704862367361783981e-03 -4.155337065458297729e-02 -5.901790410280227661e-02
4.240000000000000000e+02 7.554020690917968750e+01 -1.053283500671386719e+01 -1.789078563451766968e-01 -1.227908954024314880e-01 -9.050962328910827637e-02 -2.646061778068542480e-01
4.250000000000000000e+02 7.455044555664062500e+01 -5.530486583709716797e+00 -1.076714470982551575e-01 -3.507034778594970703e-01 -1.375124752521514893e-01 -6.052027940750122070e-01
4.260000000000000000e+02 7.580020904541015625e+01 -4.311645030975341797e+00 -3.824998810887336731e-02 -5.701473355293273926e-01 -1.825191974639892578e-01 -5.404819846153259277e-01
4.270000000000000000e+02 7.443431091308593750e+01 -4.203818440437316895e-01 5.010678991675376892e-02 -6.555631160736083984e-01 -1.816368997097015381e-01 -6.351599097251892090e-01
4.280000000000000000e+02 7.563635253906250000e+01 9.958689808845520020e-01 5.616638809442520142e-02 -9.672071933746337891e-01 -2.733122408390045166e-01 -5.352884531021118164e-01
4.290000000000000000e+02 7.436305236816406250e+01 6.466739177703857422e+00 1.583157628774642944e-01 -8.907702565193176270e-01 -2.197363525629043579e-01 -3.993017971515655518e-01
4.300000000000000000e+02 7.552688598632812500e+01 9.299640655517578125e+00 1.308083832263946533e-01 -1.355374574661254883e+00 -3.673698604106903076e-01 -2.334152907133102417e-01
4.310000000000000000e+02 7.411300659179687500e+01 1.339392185211181641e+01 2.282301783561706543e-01 -9.007614850997924805e-01 -2.017593979835510254e-01 -2.342875301837921143e-02
4.320000000000000000e+02 7.397295379638671875e+01 1.610835266113281250e+01 2.450174093246459961e-01 -8.456383943557739258e-01 -1.801863014698028564e-01 1.537607312202453613e-01
4.330000000000000000e+02 7.485281372070312500e+01 2.206297302246093750e+01 7.713326811790466309e-02 -9.920990467071533203e-01 -2.744897305965423584e-01 4.166545569896697998e-01
4.340000000000000000e+02 7.479809570312500000e+01 2.347926330566406250e+01 3.327979519963264465e-02 -9.275593161582946777e-01 -2.682838737964630127e-01 4.494767189025878906e-01
4.350000000000000000e+02 7.477799987792968750e+01 2.748327636718750000e+01 -5.992529541254043579e-02 -7.505705356597900391e-01 -2.431487590074539185e-01 4.281450808048248291e-01
4.360000000000000000e+02 7.373432159423828125e+01 3.162440299987792969e+01 -1.274910569190979004e-01 -4.332106709480285645e-01 -1.682105213403701782e-01 3.805552721023559570e-01
4.370000000000000000e+02 7.328836822509765625e+01 3.380371856689453125e+01 -1.510845720767974854e-01 -2.708075642585754395e-01 -1.265676468610763550e-01 3.170520961284637451e-01
4.380000000000000000e+02 7.336697387695312500e+01 3.770470809936523438e+01 -1.557482182979583740e-01 -2.394752651453018188e-01 -1.185670420527458191e-01 1.741609275341033936e-01
4.390000000000000000e+02 7.175377655029296875e+01 4.104343032836914062e+01 -2.030732333660125732e-01 -1.036017015576362610e-01 -9.200248122215270996e-02 4.955817013978958130e-02
4.400000000000000000e+02 7.011437988281250000e+01 3.530372238159179688e+01 -2.673510611057281494e-01 1.369987428188323975e-01 -3.910569846630096436e-02 2.510692477226257324e-01
4.410000000000000000e+02 7.228261566162109375e+01 3.225296401977539062e+01 -1.873105168342590332e-01 -1.417451947927474976e-01 -9.871671348810195923e-02 3.792916536331176758e-01
4.420000000000000000e+02 7.340366363525390625e+01 2.879424667358398438e+01 -9.028664976358413696e-02 -3.999016880989074707e-01 -1.470565050840377808e-01 4.736188948154449463e-01
4.430000000000000000e+02 7.310524749755859375e+01 2.359641456604003906e+01 5.904855951666831970e-02 -4.301509261131286621e-01 -1.113307103514671326e-01 5.069380402565002441e-01
4.440000000000000000e+02 7.062145233154296875e+01 2.006978797912597656e+01 3.512578010559082031e-01 2.593516707420349121e-01 1.831828504800796509e-01 4.038416743278503418e-01
4.450000000000000000e+02 7.081647491455078125e+01 1.551798820495605469e+01 4.447837769985198975e-01 2.567767500877380371e-01 2.104681581258773804e-01 9.167566895484924316e-02
4.460000000000000000e+02 7.135293579101562500e+01 1.301171875000000000e+01 4.072291254997253418e-01 1.071305051445960999e-01 1.543078869581222534e-01 -5.457268655300140381e-02
4.470000000000000000e+02 7.292825317382812500e+01 1.189358997344970703e+01 3.025043010711669922e-01 -4.733465611934661865e-01 -5.125268548727035522e-02 -1.290161460638046265e-01
4.480000000000000000e+02 7.314318084716796875e+01 6.330714702606201172e+00 2.273294627666473389e-01 -5.258320569992065430e-01 -8.955077081918716431e-02 -4.217921793460845947e-01
4.490000000000000000e+02 7.242724609375000000e+01 2.984128952026367188e+00 1.967495977878570557e-01 -3.357257246971130371e-01 -4.169283807277679443e-02 -5.707581639289855957e-01
4.500000000000000000e+02 7.191820526123046875e+01 -1.994110226631164551e+00 2.306487597525119781e-02 -2.033925503492355347e-01 -5.409830436110496521e-02 -7.378305196762084961e-01
4.510000000000000000e+02 7.044578552246093750e+01 -3.465118885040283203e+00 -4.481803998351097107e-02 -3.635859861969947815e-02 -2.435299195349216461e-02 -7.577354907989501953e-01
4.520000000000000000e+02 7.180212402343750000e+01 -6.438367366790771484e+00 -2.544035613536834717e-01 -9.904900193214416504e-02 -1.060357689857482910e-01 -7.036461234092712402e-01
4.530000000000000000e+02 7.016108703613281250e+01 -1.122013187408447266e+01 -7.196706533432006836e-01 1.733372807502746582e-01 -1.639000028371810913e-01 -2.832590937614440918e-01
4.540000000000000000e+02 7.150753784179687500e+01 -1.072636508941650391e+01 -5.346632599830627441e-01 8.880300819873809814e-02 -1.337580680847167969e-01 -3.515062332153320312e-01
4.550000000000000000e+02 7.507875061035156250e+01 -1.134547328948974609e+01 -1.815247386693954468e-01 -6.469959765672683716e-02 -7.386729866266250610e-02 -2.331248521804809570e-01
4.560000000000000000e+02 6.906163787841796875e+01 -1.469652938842773438e+01 -2.882535457611083984e-01 1.339273434132337570e-02 -8.245824277400970459e-02 6.067788228392601013e-02
4.570000000000000000e+02 7.512272644042968750e+01 -1.443771839141845703e+01 -1.087588295340538025e-01 -4.253848921507596970e-03 -3.390380367636680603e-02 -6.199450418353080750e-02
4.580000000000000000e+02 7.863806152343750000e+01 -1.319384479522705078e+01 -2.004967816174030304e-02 -4.358015581965446472e-02 -1.908895000815391541e-02 -3.012853302061557770e-02
4.590000000000000000e+02 7.941645050048828125e+01 -8.619714736938476562e+00 -5.137656698934733868e-04 -2.973526716232299805e-01 -8.935993164777755737e-02 -6.251380592584609985e-02
4.600000000000000000e+02 7.941873931884765625e+01 -1.001388263702392578e+01 -9.771957993507385254e-03 -1.626165062189102173e-01 -5.171654000878334045e-02 -4.870361462235450745e-02
4.610000000000000000e+02 7.940671539306640625e+01 -5.841306209564208984e+00 1.794874086044728756e-03 -6.639316082000732422e-01 -1.986410170793533325e-01 -8.807988464832305908e-02
4.620000000000000000e+02 7.700344848632812500e+01 -5.711109638214111328e+00 -3.747853636741638184e-02 -5.494411587715148926e-01 -1.760759204626083374e-01 -3.928410410881042480e-01
4.630000000000000000e+02 7.939368438720703125e+01 -1.664635896682739258e+00 -2.776003442704677582e-03 -1.362846493721008301e+00 -4.096867442131042480e-01 -9.985588490962982178e-02
4.640000000000000000e+02 7.816130065917968750e+01 -2.893016040325164795e-01 4.578607156872749329e-03 -1.356413722038269043e+00 -4.055505394935607910e-01 -2.878671586513519287e-01
4.650000000000000000e+02 7.685489654541015625e+01 5.202632904052734375e+00 6.148214638233184814e-02 -1.599434852600097656e+00 -4.613858163356781006e-01 -3.260326087474822998e-01
4.660000000000000000e+02 7.810990142822265625e+01 5.262069225311279297e+00 2.246382832527160645e-02 -2.006710290908813477e+00 -5.952739119529724121e-01 -2.123838812112808228e-01
4.670000000000000000e+02 7.807001495361328125e+01 1.086281299591064453e+01 3.251751884818077087e-02 -2.375924587249755859e+00 -7.030221223831176758e-01 -7.521194964647293091e-02
4.680000000000000000e+02 7.934499359130859375e+01 1.513292789459228516e+01 1.249326206743717194e-02 -2.970575332641601562e+00 -8.874246478080749512e-01 2.262018807232379913e-02
4.690000000000000000e+02 7.796465301513671875e+01 1.789131546020507812e+01 3.103775903582572937e-02 -2.270375251770019531e+00 -6.718012094497680664e-01 1.364454925060272217e-01
4.700000000000000000e+02 7.786557006835937500e+01 2.212124443054199219e+01 1.688902266323566437e-02 -1.933488488197326660e+00 -5.749798417091369629e-01 2.317678630352020264e-01
4.710000000000000000e+02 7.781590270996093750e+01 2.489260482788085938e+01 2.597676822915673256e-03 -1.663126587867736816e+00 -4.981586635112762451e-01 2.571055293083190918e-01
4.720000000000000000e+02 7.764900970458984375e+01 2.904929161071777344e+01 -1.369703002274036407e-02 -1.251188158988952637e+00 -3.794655501842498779e-01 2.473066151142120361e-01
4.730000000000000000e+02 7.735933685302734375e+01 3.191034698486328125e+01 -2.883104421198368073e-02 -9.734927415847778320e-01 -3.006971478462219238e-01 2.264614552259445190e-01
4.740000000000000000e+02 7.914527893066406250e+01 3.620131301879882812e+01 -1.337190717458724976e-02 -8.987342715263366699e-01 -2.736318409442901611e-01 4.470112919807434082e-02
4.750000000000000000e+02 7.797541046142578125e+01 3.784522247314453125e+01 -1.118934806436300278e-02 -7.203741073608398438e-01 -2.194690406322479248e-01 9.828183054924011230e-02
4.760000000000000000e+02 7.797408294677734375e+01 4.160697555541992188e+01 -5.336651206016540527e-02 -6.594312787055969238e-01 -2.138393372297286987e-01 1.501811388880014420e-02
4.770000000000000000e+02 6.729008483886718750e+01 4.115742874145507812e+01 -3.522664308547973633e-01 3.428402841091156006e-01 -2.827843185514211655e-03 2.764347568154335022e-02
4.780000000000000000e+02 6.695762634277343750e+01 3.830982589721679688e+01 -3.590642809867858887e-01 3.929973244667053223e-01 1.017991546541452408e-02 9.685662388801574707e-02
4.790000000000000000e+02 6.688994598388671875e+01 3.521357727050781250e+01 -3.643871843814849854e-01 4.925364255905151367e-01 3.844477236270904541e-02 1.688956022262573242e-01
4.800000000000000000e+02 6.795629119873046875e+01 2.933257293701171875e+01 -2.794277667999267578e-01 6.583030819892883301e-01 1.136626005172729492e-01 3.476870954036712646e-01
4.810000000000000000e+02 6.859457397460937500e+01 2.721595382690429688e+01 -1.447860151529312134e-01 6.533380150794982910e-01 1.525655984878540039e-01 4.766612350940704346e-01
4.820000000000000000e+02 6.811690521240234375e+01 2.268064117431640625e+01 2.355170249938964844e-01 9.735606312751770020e-01 3.627232909202575684e-01 4.562211036682128906e-01
4.830000000000000000e+02 6.921896362304687500e+01 1.944646644592285156e+01 4.664222002029418945e-01 7.907097339630126953e-01 3.771395683288574219e-01 3.240947425365447998e-01
4.840000000000000000e+02 6.714990234375000000e+01 1.756869125366210938e+01 7.029702663421630859e-01 1.719956040382385254e+00 7.268778681755065918e-01 3.009507432579994202e-02
4.850000000000000000e+02 6.857085418701171875e+01 1.059924697875976562e+01 4.884265065193176270e-01 1.199598312377929688e+00 5.064074397087097168e-01 -1.027622595429420471e-01
4.860000000000000000e+02 6.791117095947265625e+01 7.952213287353515625e+00 5.077851414680480957e-01 1.250438690185546875e+00 5.274671316146850586e-01 -1.680187731981277466e-01
4.870000000000000000e+02 6.693328094482421875e+01 4.482645988464355469e+00 4.928748905658721924e-01 1.188893079757690430e+00 5.045303702354431152e-01 -1.898933947086334229e-01
4.880000000000000000e+02 6.795709228515625000e+01 4.785265624523162842e-01 3.008873164653778076e-01 5.120874047279357910e-01 2.438924163579940796e-01 -5.034607648849487305e-01
4.890000000000000000e+02 6.930979919433593750e+01 -3.903810024261474609e+00 -4.844870790839195251e-02 5.629120767116546631e-02 2.352750161662697792e-03 -7.548277974128723145e-01
4.900000000000000000e+02 6.762700653076171875e+01 -7.860286712646484375e+00 -6.042811274528503418e-01 3.965749964118003845e-02 -1.693870872259140015e-01 -7.501443624496459961e-01
4.910000000000000000e+02 6.990081787109375000e+01 -1.066850566864013672e+01 -7.302307486534118652e-01 1.441473066806793213e-01 -1.758250296115875244e-01 -4.624323248863220215e-01
4.920000000000000000e+02 6.644509124755859375e+01 -1.305026054382324219e+01 -9.032218456268310547e-01 -8.911664038896560669e-02 -2.977015376091003418e-01 4.222744405269622803e-01
4.930000000000000000e+02 6.290578079223632812e+01 3.815433502197265625e+01 -4.036804735660552979e-01 6.481828689575195312e-01 7.335072010755538940e-02 -5.568120162934064865e-03
4.940000000000000000e+02 6.338108062744140625e+01 3.488833618164062500e+01 -4.017022252082824707e-01 7.490214109420776367e-01 1.041957587003707886e-01 9.799657389521598816e-03
4.950000000000000000e+02 6.408270263671875000e+01 3.150309562683105469e+01 -3.696182668209075928e-01 9.093254208564758301e-01 1.619121432304382324e-01 6.731429696083068848e-02
4.960000000000000000e+02 6.453829956054687500e+01 2.838544845581054688e+01 -2.852879166603088379e-01 1.163194060325622559e+00 2.633718550205230713e-01 8.174409717321395874e-02
4.970000000000000000e+02 6.464881134033203125e+01 2.591420364379882812e+01 -1.655496954917907715e-01 1.467595577239990234e+00 3.906137645244598389e-01 1.000768840312957764e-01
4.980000000000000000e+02 6.235053253173828125e+01 1.967288017272949219e+01 1.195463061332702637e+00 3.917689323425292969e+00 1.533945679664611816e+00 -1.137606978416442871e+00
4.990000000000000000e+02 6.260857391357421875e+01 1.356030750274658203e+01 1.597945541143417358e-01 4.668648242950439453e+00 1.448532819747924805e+00 1.454857885837554932e-01
5.000000000000000000e+02 6.602827453613281250e+01 1.037611770629882812e+01 5.076373219490051270e-01 2.194307088851928711e+00 8.105833530426025391e-01 4.882602021098136902e-02
5.010000000000000000e+02 6.521490478515625000e+01 7.787364482879638672e+00 5.618346929550170898e-01 2.314885377883911133e+00 8.630160093307495117e-01 2.218139171600341797e-01
5.020000000000000000e+02 6.346858978271484375e+01 2.200133085250854492e+00 5.684061050415039062e-01 1.726716518402099609e+00 6.885367631912231445e-01 2.861147224903106689e-01
5.030000000000000000e+02 6.447233581542968750e+01 1.163407325744628906e+00 5.207668542861938477e-01 1.262213468551635742e+00 5.348941087722778320e-01 2.904895879328250885e-02
5.040000000000000000e+02 6.245462799072265625e+01 -3.342670202255249023e+00 4.028885662555694580e-01 6.809941530227661133e-01 3.251648247241973877e-01 4.697502404451370239e-02
5.050000000000000000e+02 6.312195205688476562e+01 -9.199480056762695312e+00 -9.074570536613464355e-01 -2.097801119089126587e-01 -3.351711332798004150e-01 -3.238334357738494873e-01
5.060000000000000000e+02 6.597749328613281250e+01 -1.124167251586914062e+01 -1.664763927459716797e+00 -5.981006100773811340e-02 -5.173721909523010254e-01 -6.110266447067260742e-01
5.070000000000000000e+02 6.260825347900390625e+01 4.112042236328125000e+01 -4.023045003414154053e-01 6.095767021179199219e-01 6.218166649341583252e-02 -1.282932935282588005e-03
5.080000000000000000e+02 5.887091064453125000e+01 3.780313491821289062e+01 -3.422177433967590332e-01 6.850451827049255371e-01 1.028482392430305481e-01 -9.517292678356170654e-02
5.090000000000000000e+02 5.977457046508789062e+01 3.429573822021484375e+01 -3.313262462615966797e-01 8.016348481178283691e-01 1.410925835371017456e-01 -1.729197949171066284e-01
5.100000000000000000e+02 5.878343963623046875e+01 2.940074920654296875e+01 -1.514188200235366821e-01 9.296930432319641113e-01 2.334822714328765869e-01 -4.036495685577392578e-01
5.110000000000000000e+02 6.040929031372070312e+01 2.683057212829589844e+01 -8.075730502605438232e-02 1.398041367530822754e+00 3.951852321624755859e-01 -4.728161990642547607e-01
5.120000000000000000e+02 5.912520217895507812e+01 2.359921836853027344e+01 5.372782945632934570e-01 1.260196566581726074e+00 5.392424464225769043e-01 -8.844645619392395020e-01
5.130000000000000000e+02 5.898147201538085938e+01 2.175382232666015625e+01 1.764118552207946777e+00 9.107285737991333008e-01 8.024541139602661133e-01 -9.825208783149719238e-01
5.140000000000000000e+02 6.029866409301757812e+01 2.109206199645996094e+01 1.980988621711730957e+00 2.182816743850708008e+00 1.249141573905944824e+00 -1.710062265396118164e+00
5.150000000000000000e+02 6.126615905761718750e+01 2.004929924011230469e+01 1.553748369216918945e+00 3.694428443908691406e+00 1.574453115463256836e+00 -1.921211242675781250e+00
5.160000000000000000e+02 6.207672119140625000e+01 2.134931564331054688e+01 8.821659684181213379e-01 2.536690950393676758e+00 1.025657057762145996e+00 -6.008277535438537598e-01
5.170000000000000000e+02 6.237366485595703125e+01 1.808647727966308594e+01 8.522810935974121094e-01 4.987802505493164062e+00 1.752025008201599121e+00 -1.115305066108703613e+00
5.180000000000000000e+02 6.256444549560546875e+01 1.662839317321777344e+01 2.443150281906127930e-01 4.947009086608886719e+00 1.557397246360778809e+00 -4.979507029056549072e-01
5.190000000000000000e+02 6.437914276123046875e+01 1.527842044830322266e+01 4.372529387474060059e-01 3.517841339111328125e+00 1.186528325080871582e+00 -1.806080043315887451e-01
5.200000000000000000e+02 6.204872512817382812e+01 1.077487182617187500e+01 9.234663844108581543e-02 4.662569522857666016e+00 1.426474809646606445e+00 6.111074686050415039e-01
5.210000000000000000e+02 6.270783996582031250e+01 9.357974052429199219e+00 3.901675343513488770e-01 3.892885208129882812e+00 1.284915804862976074e+00 6.760106682777404785e-01
5.220000000000000000e+02 6.153761672973632812e+01 8.127007484436035156e+00 2.965850234031677246e-01 4.143303394317626953e+00 1.331966519355773926e+00 1.133575677871704102e+00
5.230000000000000000e+02 6.133135604858398438e+01 6.844429492950439453e+00 6.485493183135986328e-01 3.928716897964477539e+00 1.373179793357849121e+00 1.284554004669189453e+00
5.240000000000000000e+02 6.043933868408203125e+01 4.878587245941162109e+00 1.089984178543090820e+00 3.269416570663452148e+00 1.307820200920104980e+00 1.599187135696411133e+00
5.250000000000000000e+02 6.136959457397460938e+01 3.715925693511962891e+00 6.963531374931335449e-01 2.599761962890625000e+00 9.888345003128051758e-01 8.501960635185241699e-01
5.260000000000000000e+02 6.182025527954101562e+01 1.591061800718307495e-01 6.789281368255615234e-01 1.476012110710144043e+00 6.464821100234985352e-01 5.193135738372802734e-01
5.270000000000000000e+02 6.138384246826171875e+01 -2.622792482376098633e+00 5.942094922065734863e-01 9.784734249114990234e-01 4.718048870563507080e-01 3.358769714832305908e-01
5.280000000000000000e+02 5.979636383056640625e+01 -5.879307270050048828e+00 1.623757034540176392e-01 6.111934781074523926e-01 2.320707440376281738e-01 2.427181303501129150e-01
5.290000000000000000e+02 6.159500885009765625e+01 -1.154712295532226562e+01 -2.095480442047119141e+00 -8.064845204353332520e-02 -6.528386473655700684e-01 -3.188376128673553467e-01
5.300000000000000000e+02 5.794815826416015625e+01 4.099492645263671875e+01 -3.432984650135040283e-01 6.532651185989379883e-01 9.298998862504959106e-02 -2.950289286673069000e-02
5.310000000000000000e+02 5.522961425781250000e+01 3.735429382324218750e+01 -2.495071142911911011e-01 6.146802902221679688e-01 1.095519438385963440e-01 -1.497663110494613647e-01
5.320000000000000000e+02 5.617335128784179688e+01 3.393934631347656250e+01 -2.046401500701904297e-01 6.777267456054687500e-01 1.419259756803512573e-01 -2.582484483718872070e-01
5.330000000000000000e+02 5.615851593017578125e+01 3.087975883483886719e+01 -9.149380028247833252e-02 6.947882771492004395e-01 1.809883415699005127e-01 -3.791726529598236084e-01
5.340000000000000000e+02 5.544532394409179688e+01 2.493950843811035156e+01 4.530695378780364990e-01 2.983258068561553955e-01 2.254185974597930908e-01 -5.273512601852416992e-01
5.350000000000000000e+02 5.737324142456054688e+01 2.353678512573242188e+01 7.260363101959228516e-01 4.701459407806396484e-01 3.588546812534332275e-01 -7.450907230377197266e-01
5.360000000000000000e+02 5.465972518920898438e+01 2.143230056762695312e+01 1.351522803306579590e-01 -2.725464850664138794e-02 3.236928954720497131e-02 -6.588298082351684570e-02
5.370000000000000000e+02 5.751084899902343750e+01 2.185512733459472656e+01 9.318705201148986816e-01 8.448353409767150879e-02 3.049062192440032959e-01 -3.051928281784057617e-01
5.380000000000000000e+02 5.355712890625000000e+01 4.076930618286132812e+01 -2.230199128389358521e-01 5.404391288757324219e-01 9.522577375173568726e-02 -4.334275051951408386e-02
5.390000000000000000e+02 5.233559036254882812e+01 3.681565475463867188e+01 -1.588151305913925171e-01 5.124991536140441895e-01 1.061052158474922180e-01 -1.552968025207519531e-01
5.400000000000000000e+02 5.283276367187500000e+01 3.392980575561523438e+01 -8.862570673227310181e-02 4.829555451869964600e-01 1.182989478111267090e-01 -2.424577772617340088e-01
5.410000000000000000e+02 5.300418472290039062e+01 3.099645423889160156e+01 4.089491907507181168e-03 4.212202429771423340e-01 1.275929212570190430e-01 -3.049496412277221680e-01
5.420000000000000000e+02 5.465772247314453125e+01 2.635744476318359375e+01 2.818662524223327637e-01 3.570024669170379639e-01 1.916606128215789795e-01 -4.803309440612792969e-01
5.430000000000000000e+02 5.284062194824218750e+01 2.286772155761718750e+01 1.981633752584457397e-01 -9.668496437370777130e-03 5.654846131801605225e-02 -1.268293410539627075e-01
5.440000000000000000e+02 5.195946884155273438e+01 2.070567512512207031e+01 -7.700336724519729614e-02 -3.532338514924049377e-02 -3.369802609086036682e-02 -5.421167984604835510e-02
5.450000000000000000e+02 5.064156723022460938e+01 3.947384262084960938e+01 -1.476130932569503784e-01 4.460210204124450684e-01 8.952237665653228760e-02 -7.114599645137786865e-02
5.460000000000000000e+02 4.977308273315429688e+01 3.694213104248046875e+01 -7.396655529737472534e-02 3.764258921146392822e-01 9.073780477046966553e-02 -1.324534565210342407e-01
5.470000000000000000e+02 4.976602935791015625e+01 3.409930419921875000e+01 -3.285225480794906616e-02 3.406122922897338867e-01 9.232801198959350586e-02 -1.751191318035125732e-01
5.480000000000000000e+02 4.987916946411132812e+01 3.111051750183105469e+01 4.858161881566047668e-02 2.838071882724761963e-01 9.971664100885391235e-02 -2.247869670391082764e-01
5.490000000000000000e+02 4.980012130737304688e+01 2.846689987182617188e+01 1.250059604644775391e-01 1.848361343145370483e-01 9.295262396335601807e-02 -2.221267223358154297e-01
5.500000000000000000e+02 4.843413543701171875e+01 2.576824569702148438e+01 1.226294338703155518e-01 5.615681409835815430e-02 5.363587290048599243e-02 -1.103474497795104980e-01
5.510000000000000000e+02 4.940962600708007812e+01 1.955408096313476562e+01 -1.265169978141784668e-01 -5.105027556419372559e-02 -5.327018350362777710e-02 -6.475292891263961792e-02
5.520000000000000000e+02 4.823918151855468750e+01 1.879073143005371094e+01 -1.091928854584693909e-01 -3.419317305088043213e-02 -4.301581904292106628e-02 -6.919912248849868774e-02
5.530000000000000000e+02 4.328008651733398438e+01 1.712108802795410156e+01 -5.819870531558990479e-02 4.782633855938911438e-03 -1.602482050657272339e-02 -1.212118379771709442e-02
5.540000000000000000e+02 3.940371704101562500e+01 1.854103088378906250e+01 -4.457536339759826660e-02 2.771855331957340240e-02 -5.057042930275201797e-03 6.220981478691101074e-03
5.550000000000000000e+02 3.781964492797851562e+01 1.616445922851562500e+01 -3.624875098466873169e-02 1.666959375143051147e-02 -5.873747169971466064e-03 9.098968468606472015e-03
5.560000000000000000e+02 3.074257087707519531e+01 1.749290847778320312e+01 -1.484894286841154099e-02 -5.089113116264343262e-02 -1.972202211618423462e-02 2.694451063871383667e-02
5.570000000000000000e+02 3.325329589843750000e+01 8.174875259399414062e+00 -2.973828941321698949e-06 1.660229056142270565e-03 4.971765447407960892e-04 -3.674760810099542141e-04
5.580000000000000000e+02 3.351745223999023438e+01 6.131623268127441406e+00 -9.588911198079586029e-04 4.493768210522830486e-04 -1.528542779851704836e-04 -1.744909095577895641e-04
5.590000000000000000e+02 3.359569168090820312e+01 1.898203969001770020e+00 1.271587825613096356e-04 -1.716140250209718943e-04 -1.333657382929231972e-05 -2.473120985087007284e-04
5.600000000000000000e+02 4.722742080688476562e+01 4.086876296997070312e+01 -8.407738059759140015e-02 3.420904576778411865e-01 7.740391790866851807e-02 -3.071900084614753723e-02
5.610000000000000000e+02 4.683563995361328125e+01 3.765942764282226562e+01 -4.648441821336746216e-02 2.945404648780822754e-01 7.441681623458862305e-02 -9.363702684640884399e-02
5.620000000000000000e+02 4.668914794921875000e+01 3.453511428833007812e+01 4.141348879784345627e-03 2.460706233978271484e-01 7.506359368562698364e-02 -1.277847737073898315e-01
5.630000000000000000e+02 4.671333694458007812e+01 3.135047340393066406e+01 4.780206829309463501e-02 1.773342639207839966e-01 6.754089891910552979e-02 -1.297087520360946655e-01
5.640000000000000000e+02 4.734595870971679688e+01 2.830212974548339844e+01 9.736955165863037109e-02 1.272200047969818115e-01 6.737686693668365479e-02 -1.333337128162384033e-01
5.650000000000000000e+02 4.700377655029296875e+01 2.483976745605468750e+01 8.175031095743179321e-02 4.818083345890045166e-02 3.897934406995773315e-02 -6.745193898677825928e-02
5.660000000000000000e+02 4.759703826904296875e+01 2.030726814270019531e+01 -6.239147484302520752e-02 -1.274702884256839752e-02 -2.254155091941356659e-02 -2.501245774328708649e-02
5.670000000000000000e+02 4.319075775146484375e+01 4.102467727661132812e+01 -1.483863685280084610e-02 2.082595527172088623e-01 5.802627280354499817e-02 -1.166071649640798569e-02
5.680000000000000000e+02 4.370811843872070312e+01 3.813750839233398438e+01 -1.510237250477075577e-02 2.235137522220611572e-01 6.252340972423553467e-02 -5.370157584547996521e-02
5.690000000000000000e+02 4.347092819213867188e+01 3.514360046386718750e+01 1.169466506689786911e-02 1.802495419979095459e-01 5.758326128125190735e-02 -7.086504250764846802e-02
5.700000000000000000e+02 4.339883422851562500e+01 3.186797904968261719e+01 3.858992457389831543e-02 1.353284418582916260e-01 5.217550694942474365e-02 -7.723598182201385498e-02
5.710000000000000000e+02 4.443474960327148438e+01 2.531539535522460938e+01 4.506310820579528809e-02 4.894089326262474060e-02 2.820120006799697876e-02 -3.338978812098503113e-02
5.720000000000000000e+02 4.187852096557617188e+01 1.983225631713867188e+01 -4.621775075793266296e-02 2.726675011217594147e-02 -5.685300100594758987e-03 6.290343590080738068e-03
5.730000000000000000e+02 4.283536911010742188e+01 2.051029396057128906e+01 -3.568588569760322571e-02 3.049619309604167938e-02 -1.556908478960394859e-03 -1.479994272813200951e-03
5.740000000000000000e+02 4.075691223144531250e+01 3.936702728271484375e+01 1.391913555562496185e-02 1.461048424243927002e-01 4.800719395279884338e-02 -1.855968497693538666e-02
5.750000000000000000e+02 4.016499710083007812e+01 3.604890060424804688e+01 2.215461246669292450e-02 1.212123185396194458e-01 4.301008209586143494e-02 -3.470888361334800720e-02
5.760000000000000000e+02 3.999578857421875000e+01 3.282238769531250000e+01 3.119077160954475403e-02 9.150741249322891235e-02 3.680945560336112976e-02 -3.650612011551856995e-02
5.770000000000000000e+02 3.987955474853515625e+01 2.981811714172363281e+01 2.854438126087188721e-02 7.461506873369216919e-02 3.094783611595630646e-02 -3.052249737083911896e-02
5.780000000000000000e+02 3.940412902832031250e+01 2.732179260253906250e+01 2.242159098386764526e-02 4.893000423908233643e-02 2.140547893941402435e-02 -1.697515137493610382e-02
5.790000000000000000e+02 3.992126083374023438e+01 2.266680908203125000e+01 -1.909611187875270844e-02 3.741083666682243347e-02 5.494417622685432434e-03 5.162323825061321259e-03
5.800000000000000000e+02 4.122554779052734375e+01 2.109431076049804688e+01 -3.195822611451148987e-02 3.524924442172050476e-02 9.873051894828677177e-04 3.835648531094193459e-03
5.810000000000000000e+02 3.712734985351562500e+01 4.059426116943359375e+01 2.543779462575912476e-02 9.555076062679290771e-02 3.629656881093978882e-02 -8.857375942170619965e-03
5.820000000000000000e+02 3.662671661376953125e+01 3.694998931884765625e+01 3.069545514881610870e-02 7.231051474809646606e-02 3.090179152786731720e-02 -1.431393530219793320e-02
5.830000000000000000e+02 3.644373321533203125e+01 3.353993988037109375e+01 2.726950682699680328e-02 5.953344330191612244e-02 2.604088559746742249e-02 -1.666929759085178375e-02
5.840000000000000000e+02 3.677013015747070312e+01 3.041437339782714844e+01 2.230977825820446014e-02 4.376847669482231140e-02 1.982347667217254639e-02 -1.321081817150115967e-02
5.850000000000000000e+02 3.722944259643554688e+01 2.789474868774414062e+01 1.294558867812156677e-02 4.187215492129325867e-02 1.644532382488250732e-02 -1.006292738020420074e-02
5.860000000000000000e+02 3.679259872436523438e+01 2.491393661499023438e+01 -1.302602794021368027e-02 3.011738508939743042e-02 5.127406679093837738e-03 2.490835962817072868e-03
5.870000000000000000e+02 3.714775848388671875e+01 1.933000755310058594e+01 -4.052252322435379028e-02 2.193565666675567627e-02 -5.576059687882661819e-03 1.648596115410327911e-02
5.880000000000000000e+02 3.793957901000976562e+01 2.074497222900390625e+01 -3.604000061750411987e-02 2.752621471881866455e-02 -2.554135397076606750e-03 1.418122369796037674e-02
5.890000000000000000e+02 3.256635665893554688e+01 4.088452911376953125e+01 3.645875677466392517e-02 3.647621721029281616e-02 2.188049256801605225e-02 1.616341993212699890e-03
5.900000000000000000e+02 3.265917587280273438e+01 3.759078979492187500e+01 3.310991451144218445e-02 3.789759799838066101e-02 2.130225487053394318e-02 -3.775490447878837585e-03
5.910000000000000000e+02 3.262992477416992188e+01 3.427410507202148438e+01 2.877827361226081848e-02 2.512842230498790741e-02 1.617200858891010284e-02 -2.660178579390048981e-03
5.920000000000000000e+02 3.293123626708984375e+01 2.820285224914550781e+01 2.774587599560618401e-03 1.000530272722244263e-02 3.833967028185725212e-03 3.319449489936232567e-03
5.930000000000000000e+02 3.411780166625976562e+01 2.683971214294433594e+01 -8.695224532857537270e-04 2.051246166229248047e-02 5.892882123589515686e-03 1.267032348550856113e-03
5.940000000000000000e+02 3.304189682006835938e+01 2.277332115173339844e+01 -4.088940098881721497e-02 3.881954355165362358e-03 -1.110223401337862015e-02 1.465007755905389786e-02
5.950000000000000000e+02 3.243761825561523438e+01 2.115062904357910156e+01 -5.038419365882873535e-02 -4.776268266141414642e-03 -1.654813811182975769e-02 2.196448668837547302e-02
5.960000000000000000e+02 3.187998008728027344e+01 2.040359687805175781e+01 -5.421894788742065430e-02 -1.330168545246124268e-02 -2.025618962943553925e-02 2.767196483910083771e-02
5.970000000000000000e+02 2.787218666076660156e+01 4.100341415405273438e+01 3.530817851424217224e-02 4.875931423157453537e-03 1.205523312091827393e-02 -6.827529286965727806e-04
5.980000000000000000e+02 2.855109596252441406e+01 3.794374084472656250e+01 3.389617428183555603e-02 4.556970205157995224e-03 1.153594255447387695e-02 4.828099161386489868e-03
5.990000000000000000e+02 2.896339797973632812e+01 3.491874694824218750e+01 2.662012167274951935e-02 5.889983382076025009e-03 9.753031656146049500e-03 5.544006824493408203e-03
6.000000000000000000e+02 2.899700546264648438e+01 2.945625114440917969e+01 6.531206425279378891e-03 -6.330354604870080948e-03 6.025544280419126153e-05 1.062148623168468475e-02
6.010000000000000000e+02 2.739643096923828125e+01 2.734560012817382812e+01 -9.038566611707210541e-03 -1.581015251576900482e-02 -7.454616017639636993e-03 1.786407828330993652e-02
6.020000000000000000e+02 2.827669334411621094e+01 2.197226905822753906e+01 -7.566127181053161621e-02 -3.950209915637969971e-02 -3.454901278018951416e-02 3.882732242345809937e-02
6.030000000000000000e+02 2.594061660766601562e+01 2.149208831787109375e+01 -9.983389079570770264e-02 -9.991740807890892029e-03 -3.294768929481506348e-02 3.032300062477588654e-02
6.040000000000000000e+02 3.026186180114746094e+01 1.955676460266113281e+01 -5.540824308991432190e-02 -5.185274034738540649e-02 -3.217829391360282898e-02 4.906797781586647034e-02
6.050000000000000000e+02 2.979401397705078125e+01 1.929821205139160156e+01 -4.554129391908645630e-02 -7.567532360553741455e-02 -3.636498749256134033e-02 5.414394289255142212e-02
6.060000000000000000e+02 2.466837692260742188e+01 3.785476684570312500e+01 2.730264328420162201e-02 -7.530229631811380386e-03 5.931724328547716141e-03 5.921154748648405075e-03
6.070000000000000000e+02 2.572861289978027344e+01 3.502858734130859375e+01 2.532823383808135986e-02 -9.071282111108303070e-03 4.877085797488689423e-03 1.143325585871934891e-02
6.080000000000000000e+02 2.622990989685058594e+01 3.240789413452148438e+01 1.602215692400932312e-02 -8.924650028347969055e-03 2.129252301529049873e-03 1.339388545602560043e-02
6.090000000000000000e+02 2.193797683715820312e+01 2.231309127807617188e+01 -7.546730339527130127e-02 -4.553716629743576050e-03 -2.400630526244640350e-02 7.621595636010169983e-03
6.100000000000000000e+02 2.325258827209472656e+01 4.092045211791992188e+01 2.876885049045085907e-02 -1.085943076759576797e-02 5.372825544327497482e-03 3.620580537244677544e-03
6.110000000000000000e+02 2.145144844055175781e+01 3.721529006958007812e+01 2.102731354534626007e-02 -1.362060103565454483e-02 2.222013659775257111e-03 1.139402389526367188e-02
6.120000000000000000e+02 2.125972747802734375e+01 3.381264114379882812e+01 1.310717314481735229e-02 -1.417460478842258453e-02 -3.202295047231018543e-04 1.631639525294303894e-02
6.130000000000000000e+02 2.300510978698730469e+01 3.041603279113769531e+01 4.728808999061584473e-03 -1.547744125127792358e-02 -3.224589629098773003e-03 2.099726721644401550e-02
6.140000000000000000e+02 2.228089332580566406e+01 2.550695037841796875e+01 -2.883155830204486847e-02 -1.260966714471578598e-02 -1.243236754089593887e-02 2.175120450556278229e-02
6.150000000000000000e+02 2.149929428100585938e+01 2.233289909362792969e+01 -6.864523142576217651e-02 -5.020548589527606964e-03 -2.209973335266113281e-02 2.238313201814889908e-03
6.160000000000000000e+02 2.276066780090332031e+01 2.215167427062988281e+01 -7.556697726249694824e-02 -3.503438783809542656e-03 -2.372112311422824860e-02 1.445135846734046936e-02
6.170000000000000000e+02 1.896483612060546875e+01 4.055764007568359375e+01 2.086991630494594574e-02 -1.497552637010812759e-02 1.768316957168281078e-03 2.251557772979140282e-03
6.180000000000000000e+02 1.925522232055664062e+01 3.589992904663085938e+01 1.743279024958610535e-02 -1.500419992953538895e-02 7.285772007890045643e-04 1.160386018455028534e-02
6.190000000000000000e+02 2.129409790039062500e+01 3.138441276550292969e+01 5.853032227605581284e-03 -1.469922624528408051e-02 -2.653858158737421036e-03 1.981163956224918365e-02
6.200000000000000000e+02 1.882979202270507812e+01 2.593529129028320312e+01 -1.991652511060237885e-02 -5.047599785029888153e-03 -7.489237468689680099e-03 1.698441989719867706e-02
6.210000000000000000e+02 1.868965339660644531e+01 2.176859855651855469e+01 -2.826511114835739136e-02 -1.167482696473598480e-03 -8.829778060317039490e-03 -4.867113661020994186e-03
6.220000000000000000e+02 1.674728202819824219e+01 2.108512878417968750e+01 -1.298625674098730087e-02 -2.891978947445750237e-03 -4.763470496982336044e-03 -4.226008430123329163e-03
6.230000000000000000e+02 1.949370384216308594e+01 2.195758438110351562e+01 -3.462367132306098938e-02 -6.833171937614679337e-04 -1.059209648519754410e-02 -3.405874827876687050e-03
6.240000000000000000e+02 1.616013336181640625e+01 3.878874206542968750e+01 1.307388860732316971e-02 -1.389509625732898712e-02 -2.463621785864233971e-04 6.200497038662433624e-03
6.250000000000000000e+02 1.453506851196289062e+01 3.621007919311523438e+01 8.917911909520626068e-03 -1.245055161416530609e-02 -1.059792004525661469e-03 9.298718534409999847e-03
6.260000000000000000e+02 1.495901584625244141e+01 3.291088485717773438e+01 4.208586178719997406e-03 -1.040143799036741257e-02 -1.857855473645031452e-03 1.276162266731262207e-02
6.270000000000000000e+02 1.339166069030761719e+01 3.010675621032714844e+01 -2.389158820733428001e-03 -6.262296810746192932e-03 -2.595436759293079376e-03 1.217350177466869354e-02
6.280000000000000000e+02 1.578366374969482422e+01 2.604133224487304688e+01 -1.450926717370748520e-02 -1.933905761688947678e-03 -4.932951647788286209e-03 1.241873018443584442e-02
6.290000000000000000e+02 1.616581726074218750e+01 2.179388999938964844e+01 -1.447215024381875992e-02 7.290578214451670647e-04 -4.122927784919738770e-03 7.836889562895521522e-05
6.300000000000000000e+02 1.582856655120849609e+01 2.038042640686035156e+01 -2.907849382609128952e-03 -5.309280822984874249e-04 -1.031633233651518822e-03 -2.215315587818622589e-03
6.310000000000000000e+02 1.613920783996582031e+01 2.060854721069335938e+01 -5.257980432361364365e-03 -2.231257967650890350e-03 -2.246771473437547684e-03 -2.473576460033655167e-03
6.320000000000000000e+02 1.214963245391845703e+01 4.076272964477539062e+01 1.024473551660776138e-02 -1.321599166840314865e-02 -8.913766941986978054e-04 2.816799329593777657e-03
6.330000000000000000e+02 1.145682811737060547e+01 3.757546615600585938e+01 6.453037261962890625e-03 -1.147405430674552917e-02 -1.506305183283984661e-03 6.549829151481389999e-03
6.340000000000000000e+02 1.326431465148925781e+01 3.413659667968750000e+01 3.567220177501440048e-03 -1.016009692102670670e-02 -1.977863023057579994e-03 1.099030952900648117e-02
6.350000000000000000e+02 1.035110378265380859e+01 2.976501464843750000e+01 -2.950702328234910965e-03 -4.983132705092430115e-03 -2.380150603130459785e-03 9.171124547719955444e-03
6.360000000000000000e+02 1.118612384796142578e+01 2.662805938720703125e+01 -5.730576813220977783e-03 -2.053877804428339005e-03 -2.335336292162537575e-03 7.678013760596513748e-03
6.370000000000000000e+02 1.380513763427734375e+01 2.305991172790527344e+01 -1.106362883001565933e-02 1.125670503824949265e-03 -2.981387311592698097e-03 3.692304715514183044e-03
6.380000000000000000e+02 1.342442607879638672e+01 1.858076095581054688e+01 -2.185751509387046099e-04 3.301390679553151131e-04 3.346917583257891238e-05 -1.583606208441779017e-04
6.390000000000000000e+02 1.470616912841796875e+01 1.621176528930664062e+01 -2.206303906859830022e-04 1.503225415945053101e-03 3.847785119432955980e-04 1.316002162639051676e-04
6.400000000000000000e+02 1.114299201965332031e+01 5.276290416717529297e+00 -3.399513661861419678e-05 -3.092590122832916677e-05 -1.947631062648724765e-05 2.276704617543146014e-05
6.410000000000000000e+02 1.041286849975585938e+01 1.831807851791381836e+00 1.255205279449000955e-05 -2.707621570152696222e-05 -4.357249054010026157e-06 7.067903879942605272e-06
6.420000000000000000e+02 1.409754371643066406e+01 1.862150430679321289e+00 1.330388749920530245e-05 2.676167423487640917e-05 1.201966824737610295e-05 6.010544893797487020e-06
6.430000000000000000e+02 1.336701393127441406e+01 1.846811294555664062e+00 2.019590738200349733e-06 -2.258119275211356580e-05 -6.168480467749759555e-06 9.400457201991230249e-06
6.440000000000000000e+02 1.115347194671630859e+01 1.834681272506713867e+00 2.960196616186294705e-05 2.303867586306296289e-05 1.579219315317459404e-05 9.053315807250328362e-06
6.450000000000000000e+02 7.848681449890136719e+00 4.098473358154296875e+01 4.054851364344358444e-03 -1.144206151366233826e-02 -2.216163091361522675e-03 9.544670465402305126e-04
6.460000000000000000e+02 8.187169075012207031e+00 3.793603134155273438e+01 4.549995996057987213e-03 -1.099866535514593124e-02 -1.934600877575576305e-03 4.772282671183347702e-03
6.470000000000000000e+02 8.275990486145019531e+00 2.750157737731933594e+01 -2.688583452254533768e-03 -3.033073851838707924e-03 -1.716497237794101238e-03 6.070078350603580475e-03
6.480000000000000000e+02 7.541061401367187500e+00 2.401862525939941406e+01 -2.997833304107189178e-03 -1.281915698200464249e-03 -1.283924677409231663e-03 3.125033341348171234e-03
6.490000000000000000e+02 6.936736583709716797e+00 2.045159339904785156e+01 -1.695275423116981983e-03 -7.504429086111485958e-04 -7.337154820561408997e-04 6.780224503017961979e-04
6.500000000000000000e+02 8.057415962219238281e+00 1.691302871704101562e+01 -5.168091156519949436e-04 -6.438115960918366909e-04 -3.481862077023833990e-04 -3.537438897183164954e-05
6.510000000000000000e+02 9.365121841430664062e+00 1.323632621765136719e+01 2.416740899207070470e-04 -3.452814999036490917e-04 -3.108222517766989768e-05 6.521843170048668981e-05
6.520000000000000000e+02 7.608210086822509766e+00 9.859760284423828125e+00 2.511159691493958235e-04 -1.395287545165047050e-04 3.347615711390972137e-05 -6.169085099827498198e-05
6.530000000000000000e+02 8.082137107849121094e+00 5.223168373107910156e+00 3.539419412845745683e-05 9.704948752187192440e-06 1.352974231849657372e-05 -9.148157005256507546e-06
6.540000000000000000e+02 8.134789466857910156e+00 1.837215900421142578e+00 3.711837780429050326e-05 2.180275441787671298e-05 1.767634057614486665e-05 -4.617276772478362545e-06
6.550000000000000000e+02 6.608302593231201172e+00 1.850294709205627441e+00 3.764343637158162892e-05 2.186179881391581148e-05 1.785157110134605318e-05 -1.301276370213599876e-05
6.560000000000000000e+02 4.617477893829345703e+00 4.038287734985351562e+01 1.384596573188900948e-03 -1.151364110410213470e-02 -3.038713475689291954e-03 1.691865618340671062e-03
6.570000000000000000e+02 5.414336681365966797e+00 3.802127075195312500e+01 1.788791036233305931e-03 -1.046585012227296829e-02 -2.603117842227220535e-03 2.933692885562777519e-03
6.580000000000000000e+02 4.682398319244384766e+00 3.368700027465820312e+01 4.124978731852024794e-04 -7.980154827237129211e-03 -2.270297147333621979e-03 4.250023514032363892e-03
6.590000000000000000e+02 6.356589794158935547e+00 3.078538513183593750e+01 -3.536809817887842655e-04 -5.578905809670686722e-03 -1.779776066541671753e-03 6.144033744931221008e-03
6.600000000000000000e+02 5.807158470153808594e+00 2.635727310180664062e+01 -2.327067777514457703e-03 -2.359950682148337364e-03 -1.406105584464967251e-03 3.613649867475032806e-03
6.610000000000000000e+02 4.491678714752197266e+00 2.490953636169433594e+01 -1.548234140500426292e-03 -1.609611208550632000e-03 -9.473536047153174877e-04 2.164641162380576134e-03
6.620000000000000000e+02 5.997076034545898438e+00 2.064151573181152344e+01 -9.339157841168344021e-04 -6.272988975979387760e-04 -4.683643928728997707e-04 5.027343286201357841e-04
6.630000000000000000e+02 5.069197177886962891e+00 1.727384948730468750e+01 1.497887114965124056e-05 -3.336866793688386679e-04 -9.561234764987602830e-05 -1.369601086480543017e-04
6.640000000000000000e+02 5.025655269622802734e+00 1.456679058074951172e+01 -2.698653133847983554e-06 -1.887992548290640116e-04 -5.744937152485363185e-05 -3.311968175694346428e-04
6.650000000000000000e+02 5.937468528747558594e+00 1.068300724029541016e+01 6.623972149100154638e-05 -1.788808731362223625e-04 -3.379234476597048342e-05 -2.591650627437047660e-05
6.660000000000000000e+02 5.035416603088378906e+00 7.841988086700439453e+00 2.428684092592447996e-05 3.974048922827932984e-06 8.478266863676253706e-06 -1.569430314702913165e-04
6.670000000000000000e+02 4.310782909393310547e+00 1.925531983375549316e+00 1.016173519019503146e-05 -2.429465166642330587e-05 -4.239874670020071790e-06 -2.029962388405692764e-06
6.680000000000000000e+02 2.765381574630737305e+00 2.046933412551879883e+00 1.683888149273116142e-05 -2.942947503470350057e-05 -3.777177880692761391e-06 3.962704795412719250e-06
6.690000000000000000e+02 4.508121490478515625e+00 2.743366718292236328e+00 2.789510290313046426e-05 1.725090078252833337e-05 1.354380128759657964e-05 -2.708881766011472791e-05
6.700000000000000000e+02 1.955509185791015625e+00 4.165498733520507812e+01 4.278284322936087847e-04 -1.339841168373823166e-02 -3.891174914315342903e-03 1.260963035747408867e-04
6.710000000000000000e+02 2.341443061828613281e+00 3.836767196655273438e+01 2.189892838941887021e-04 -1.199170388281345367e-02 -3.531814320012927055e-03 1.126760500483214855e-03
6.720000000000000000e+02 2.150644540786743164e+00 3.338858032226562500e+01 -2.425345301162451506e-04 -7.777975406497716904e-03 -2.406153129413723946e-03 2.346320310607552528e-03
6.730000000000000000e+02 2.112191438674926758e+00 3.198239135742187500e+01 2.139608259312808514e-04 -6.548594683408737183e-03 -1.900390256196260452e-03 2.321858657523989677e-03
6.740000000000000000e+02 2.022554636001586914e+00 2.773435592651367188e+01 -5.173689569346606731e-04 -2.750176703557372093e-03 -9.802636923268437386e-04 1.716433325782418251e-03
6.750000000000000000e+02 1.927385091781616211e+00 2.489735794067382812e+01 -5.481817643158137798e-04 -8.622566820122301579e-04 -4.231315397191792727e-04 9.764787973836064339e-04
6.760000000000000000e+02 1.769713878631591797e+00 2.071544647216796875e+01 1.219363548443652689e-04 4.509001446422189474e-04 1.718509593047201633e-04 1.308689679717645049e-04
6.770000000000000000e+02 1.767570376396179199e+00 1.793015289306640625e+01 2.010413445532321930e-04 5.314488080330193043e-04 2.197470457758754492e-04 -1.415008155163377523e-04
6.780000000000000000e+02 1.883713960647583008e+00 1.507806777954101562e+01 2.111377398250624537e-04 3.798264369834214449e-04 1.772892574081197381e-04 -2.005673304665833712e-04
6.790000000000000000e+02 1.739552021026611328e+00 1.082912158966064453e+01 -1.424752845196053386e-04 1.725384208839386702e-04 9.018942364491522312e-06 -1.020253839669749141e-04
6.800000000000000000e+02 1.857846260070800781e+00 8.028772354125976562e+00 -1.325661723967641592e-04 7.593468762934207916e-05 -1.698944288364145905e-05 -4.136828647460788488e-05
6.810000000000000000e+02 2.977088689804077148e+00 3.104839801788330078e+00 -6.987002620917337481e-07 2.559972926974296570e-05 7.470308901247335598e-06 -2.447252700221724808e-05
6.820000000000000000e+02 4.613304138183593750e-01 3.605380058288574219e+00 -5.946741657680831850e-05 7.929135790618602186e-06 -1.546148450870532542e-05 2.171956339225289412e-06
6.830000000000000000e+02 1.634833335876464844e+01 3.062090396881103516e+00 -5.836268883285811171e-06 -1.473422980780014768e-05 -6.171149834699463099e-06 3.150499196635792032e-06
6.840000000000000000e+02 1.743355941772460938e+01 8.372463226318359375e+00 -6.041394954081624746e-05 1.771236043168755714e-06 -1.759281440172344446e-05 -2.630311610118951648e-05
6.850000000000000000e+02 1.684280395507812500e+01 9.824765205383300781e+00 6.293746264418587089e-05 4.135418203077279031e-05 3.128749449388124049e-05 1.803304076020140201e-05
6.860000000000000000e+02 1.615976715087890625e+01 1.077930164337158203e+01 -7.834424468455836177e-05 2.886371839849743992e-05 -1.484415770391933620e-05 -1.047953483066521585e-04
6.870000000000000000e+02 1.591241455078125000e+01 1.109204578399658203e+01 1.234873634530231357e-04 1.433575671399012208e-04 8.005348354345187545e-05 1.559544216434005648e-05
6.880000000000000000e+02 1.351751518249511719e+01 1.018590641021728516e+01 -5.667856021318584681e-05 1.524290855741128325e-04 2.872515688068233430e-05 5.434518971014767885e-05
6.890000000000000000e+02 1.980246925354003906e+01 2.339442253112792969e+00 5.838838660565670580e-06 2.107951149810105562e-05 8.075505320448428392e-06 5.178711148801085074e-07
6.900000000000000000e+02 1.627795600891113281e+01 1.942192554473876953e+00 -4.646671186492312700e-06 -2.285840673721395433e-05 -8.251523468061350286e-06 1.075458726518263575e-06
6.910000000000000000e+02 1.422864055633544922e+01 1.318676757812500000e+01 -1.662881550146266818e-04 4.189039464108645916e-04 7.578473741887137294e-05 9.838753612712025642e-05
6.920000000000000000e+02 1.478919696807861328e+01 1.417188549041748047e+01 2.245605865027755499e-04 7.879788172431290150e-04 3.037618298549205065e-04 8.782022860032157041e-07
6.930000000000000000e+02 1.420786666870117188e+01 1.626118659973144531e+01 2.363288222113624215e-04 1.192331314086914062e-03 4.285980539862066507e-04 2.232459664810448885e-04
6.940000000000000000e+02 1.476000404357910156e+01 1.858179855346679688e+01 -2.370545407757163048e-04 3.065406344830989838e-03 8.485055295750498772e-04 2.853012410923838615e-04
6.950000000000000000e+02 1.481072139739990234e+01 1.973965835571289062e+01 -1.025967532768845558e-03 1.279796008020639420e-03 7.614854257553815842e-05 -2.811069425661116838e-04
6.960000000000000000e+02 1.389134502410888672e+01 1.957868766784667969e+01 -1.530457986518740654e-03 5.249141249805688858e-04 -3.016631817445158958e-04 -7.696181419305503368e-04
6.970000000000000000e+02 3.591769790649414062e+01 2.361422538757324219e+00 5.559329292736947536e-04 -1.308475184487178922e-04 1.275256363442167640e-04 1.513279712526127696e-04
6.980000000000000000e+02 3.892863845825195312e+01 3.274411678314208984e+00 -2.096709358738735318e-04 1.685616152826696634e-04 -1.233279635926010087e-05 -2.356378099648281932e-04
6.990000000000000000e+02 3.954955673217773438e+01 3.521877050399780273e+00 -7.635605288669466972e-04 -4.034221346955746412e-04 -3.500948077999055386e-04 3.305089921923354268e-05
7.000000000000000000e+02 3.731203460693359375e+01 2.696640253067016602e+00 1.752980024321004748e-04 -2.251105470350012183e-04 -1.494376283517340198e-05 8.789792627794668078e-05
7.010000000000000000e+02 3.863927841186523438e+01 5.728166580200195312e+00 1.187854912132024765e-03 9.377273381687700748e-04 6.376746459864079952e-04 -5.798036581836640835e-04
7.020000000000000000e+02 3.835697174072265625e+01 8.351647377014160156e+00 -1.124210190027952194e-03 -1.089364304789341986e-04 -3.699439985211938620e-04 4.715466056950390339e-04
7.030000000000000000e+02 3.937857437133789062e+01 7.997742652893066406e+00 2.018955070525407791e-03 1.482930034399032593e-03 1.050565508194267750e-03 -3.450682561378926039e-04
7.040000000000000000e+02 3.982681655883789062e+01 9.302878379821777344e+00 -1.834777533076703548e-03 1.008453662507236004e-03 -2.478971437085419893e-04 1.669920049607753754e-03
7.050000000000000000e+02 4.050473403930664062e+01 1.048926258087158203e+01 1.077810418792068958e-03 1.488430774770677090e-03 7.698723347857594490e-04 -1.576316193677484989e-03
7.060000000000000000e+02 4.035289764404296875e+01 1.206263256072998047e+01 -8.351159282028675079e-03 8.310446282848715782e-04 -2.256034407764673233e-03 -5.310533102601766586e-03
7.070000000000000000e+02 4.073315811157226562e+01 1.765821266174316406e+01 -4.806387796998023987e-02 2.512837201356887817e-02 -6.880651693791151047e-03 -8.991439244709908962e-04
7.080000000000000000e+02 4.086557769775390625e+01 1.311372756958007812e+01 -2.296167798340320587e-02 -1.209438196383416653e-04 -6.924786604940891266e-03 -8.965707384049892426e-03
7.090000000000000000e+02 4.129707717895507812e+01 1.525271129608154297e+01 -3.959928452968597412e-02 1.208008546382188797e-02 -8.255759254097938538e-03 -6.430892739444971085e-03
7.100000000000000000e+02 4.395435333251953125e+01 1.544685173034667969e+01 -4.271545261144638062e-02 -9.514799341559410095e-03 -1.566907577216625214e-02 -2.891902625560760498e-02
7.110000000000000000e+02 4.497728729248046875e+01 1.623447990417480469e+01 -5.820089951157569885e-02 -2.701359055936336517e-02 -2.556434646248817444e-02 -3.408207371830940247e-02
7.120000000000000000e+02 5.453708267211914062e+01 -2.859745264053344727e+00 1.653943181037902832e+00 1.900486230850219727e+00 1.066328883171081543e+00 1.757320523262023926e+00
7.130000000000000000e+02 5.358036041259765625e+01 -3.965676784515380859e+00 1.984707951545715332e+00 1.875236153602600098e+00 1.157983183860778809e+00 1.774079442024230957e+00
7.140000000000000000e+02 5.402949523925781250e+01 -8.428259849548339844e+00 -4.948424920439720154e-02 9.647814631462097168e-01 2.745891511440277100e-01 6.371842026710510254e-01
7.150000000000000000e+02 4.913478469848632812e+01 -5.322577953338623047e+00 4.535230100154876709e-01 -1.005603149533271790e-01 1.058888062834739685e-01 3.891765773296356201e-01
7.160000000000000000e+02 5.015603256225585938e+01 -6.806748867034912109e+00 6.238253712654113770e-01 5.241084694862365723e-01 3.443801403045654297e-01 1.433250546455383301e+00
7.170000000000000000e+02 4.641783905029296875e+01 -4.622740745544433594e+00 -1.460145950317382812e+00 -3.119058012962341309e-01 -5.316154956817626953e-01 7.119731903076171875e-01
7.180000000000000000e+02 4.377328109741210938e+01 -3.839596748352050781e+00 -3.161961078643798828e+00 -6.528415083885192871e-01 -1.144440770149230957e+00 1.379351615905761719e+00
7.190000000000000000e+02 4.370438003540039062e+01 -4.917081832885742188e+00 -1.498419761657714844e+00 -1.021919488906860352e+00 -7.561017870903015137e-01 1.440427184104919434e+00
7.200000000000000000e+02 4.493173217773437500e+01 -5.261335372924804688e+00 -1.281867504119873047e+00 -6.873345971107482910e-01 -5.907606482505798340e-01 1.227033376693725586e+00
7.210000000000000000e+02 4.751475906372070312e+01 -6.031370639801025391e+00 -1.347843557596206665e-01 -4.227117002010345459e-01 -1.672488152980804443e-01 9.377991557121276855e-01
7.220000000000000000e+02 5.295378875732421875e+01 -5.968802928924560547e+00 1.069622516632080078e+00 1.563426136970520020e+00 7.899146080017089844e-01 1.057194113731384277e+00
7.230000000000000000e+02 5.174699020385742188e+01 -5.789022445678710938e+00 1.976335883140563965e+00 1.284317493438720703e+00 9.781960248947143555e-01 1.368320345878601074e+00
7.240000000000000000e+02 3.305795288085937500e+01 -3.041768312454223633e+00 -1.739300370216369629e+00 -7.073276489973068237e-02 -5.430099368095397949e-01 1.643752902746200562e-01
7.250000000000000000e+02 3.231863021850585938e+01 -2.499699354171752930e+00 -2.384184360504150391e+00 -2.109378278255462646e-01 -7.785366773605346680e-01 -2.298096865415573120e-01
7.260000000000000000e+02 2.532102775573730469e+01 -2.559540271759033203e+00 -1.540328025817871094e+00 -7.641904801130294800e-02 -4.850241243839263916e-01 -8.062117099761962891e-01
7.270000000000000000e+02 2.351391792297363281e+01 -3.296218633651733398e+00 -7.883169054985046387e-01 9.225901961326599121e-02 -2.088173627853393555e-01 -7.129232883453369141e-01
7.280000000000000000e+02 1.899090385437011719e+01 -2.310285091400146484e+00 -5.475169420242309570e-01 -6.948827952146530151e-02 -1.851015537977218628e-01 -3.324382901191711426e-01
7.290000000000000000e+02 1.572470855712890625e+01 -1.740021467208862305e+00 -4.132356345653533936e-01 -5.941285565495491028e-02 -1.417945474386215210e-01 -2.151885330677032471e-01
7.300000000000000000e+02 1.265751171112060547e+01 -1.845618009567260742e+00 -2.168916761875152588e-01 -3.342415392398834229e-02 -7.509474456310272217e-02 -1.279243230819702148e-01
7.310000000000000000e+02 1.038509845733642578e+01 -1.870140790939331055e+00 -1.163872256875038147e-01 -2.003808878362178802e-02 -4.092759639024734497e-02 -7.713702321052551270e-02
7.320000000000000000e+02 4.955586910247802734e+00 -2.655571937561035156e+00 -1.708679087460041046e-02 -1.287113595753908157e-02 -8.987378329038619995e-03 -1.467872597277164459e-02
7.330000000000000000e+02 1.258949637413024902e+00 -2.104939222335815430e+00 1.646152522880584002e-04 3.321791533380746841e-03 1.045922050252556801e-03 4.361994098871946335e-03
7.340000000000000000e+02 5.789629220962524414e-01 -3.599933862686157227e+00 -3.406416799407452345e-04 9.372807107865810394e-03 2.709649736061692238e-03 7.295278483070433140e-04
7.350000000000000000e+02 3.167132377624511719e+01 -1.675361514091491699e+00 -3.473497390747070312e+00 4.125512838363647461e-01 -9.182838201522827148e-01 -4.616974294185638428e-01
7.360000000000000000e+02 3.152098464965820312e+01 -1.624294996261596680e+00 -3.628524780273437500e+00 4.450352191925048828e-01 -9.550468921661376953e-01 -2.246157079935073853e-01
7.370000000000000000e+02 3.154269218444824219e+01 -1.902963280677795410e+00 -2.995474100112915039e+00 1.131410077214241028e-01 -8.646999597549438477e-01 -2.760263383388519287e-01
7.380000000000000000e+02 2.487852478027343750e+01 -2.041420936584472656e+00 -1.750161290168762207e+00 1.016619354486465454e-01 -4.945497810840606689e-01 -6.326395273208618164e-01
7.390000000000000000e+02 2.424173736572265625e+01 -1.799597859382629395e+00 -1.615988731384277344e+00 2.651763856410980225e-01 -4.052437245845794678e-01 -4.505721330642700195e-01
7.400000000000000000e+02 2.436972045898437500e+01 -9.442271590232849121e-01 -1.744608759880065918e+00 3.152583539485931396e-01 -4.288051128387451172e-01 -7.399668544530868530e-02
7.410000000000000000e+02 2.439322662353515625e+01 -1.899703741073608398e-01 -1.242077112197875977e+00 1.677449643611907959e-01 -3.222996592521667480e-01 2.264375239610671997e-01
7.420000000000000000e+02 1.114278602600097656e+01 -1.869191169738769531e+00 -1.461018770933151245e-01 -2.445014193654060364e-02 -5.116560310125350952e-02 -9.241319447755813599e-02
7.430000000000000000e+02 7.312935352325439453e+00 -1.874713301658630371e+00 -3.729455918073654175e-02 -1.134785450994968414e-02 -1.459272392094135284e-02 -2.954283170402050018e-02
7.440000000000000000e+02 3.427605628967285156e+00 -1.826660633087158203e+00 -3.217735793441534042e-03 -5.149900913238525391e-03 -2.510291058570146561e-03 -1.126334900618530810e-04
7.450000000000000000e+02 4.987286090850830078e+00 -1.886427164077758789e+00 -1.171321421861648560e-02 -7.615357637405395508e-03 -5.798571743071079254e-03 -8.822755888104438782e-03
7.460000000000000000e+02 1.418423271179199219e+01 -1.788190722465515137e+00 -3.077838718891143799e-01 -4.451584070920944214e-02 -1.056899130344390869e-01 -1.699936538934707642e-01
7.470000000000000000e+02 1.191230678558349609e+01 -2.610853672027587891e+00 -1.633494347333908081e-01 -4.870201647281646729e-02 -6.361543387174606323e-02 -1.411182582378387451e-01
7.480000000000000000e+02 3.753203392028808594e+00 -3.927053213119506836e+00 -1.217475440353155136e-02 -1.831912808120250702e-02 -9.148164652287960052e-03 -1.161665748804807663e-02
7.490000000000000000e+02 1.672250628471374512e+00 -9.255685806274414062e+00 -2.065431326627731323e-03 -3.651215136051177979e-02 -1.157327461987733841e-02 -1.480635441839694977e-02
7.500000000000000000e+02 2.803347349166870117e+00 -9.244025230407714844e+00 -4.279512446373701096e-03 -5.807641521096229553e-02 -1.870677806437015533e-02 -2.631289698183536530e-02
7.510000000000000000e+02 1.939832091331481934e+00 -1.614142608642578125e+01 -4.054878838360309601e-03 -1.333317160606384277e-01 -4.121597856283187866e-02 -3.825223445892333984e-02
7.520000000000000000e+02 2.218202114105224609e+00 -2.045243263244628906e+01 -1.496711047366261482e-03 -2.211229354143142700e-01 -6.678589433431625366e-02 -5.487485975027084351e-02
7.530000000000000000e+02 6.712204217910766602e-01 -2.764920043945312500e+01 8.670610259287059307e-04 -3.972525596618652344e-01 -1.189156472682952881e-01 -1.340405270457267761e-02
7.540000000000000000e+02 2.022704124450683594e+00 -2.764604949951171875e+01 4.435966257005929947e-03 -3.626368343830108643e-01 -1.074602603912353516e-01 -3.794085606932640076e-02
7.550000000000000000e+02 6.951018571853637695e-01 -3.464369964599609375e+01 1.325344434008002281e-03 -4.853642582893371582e-01 -1.452116668224334717e-01 -2.063501859083771706e-03
7.560000000000000000e+02 7.076773047447204590e-01 -3.602468872070312500e+01 -1.064041513018310070e-03 -4.895727038383483887e-01 -1.471910178661346436e-01 -2.084762556478381157e-03
7.570000000000000000e+02 1.323994994163513184e+00 -4.007596206665039062e+01 7.220212370157241821e-03 -4.728333652019500732e-01 -1.396839469671249390e-01 9.088234975934028625e-03
7.580000000000000000e+02 8.242754936218261719e+00 -4.111672592163085938e+01 2.045663632452487946e-02 -2.568025290966033936e-01 -7.090377062559127808e-02 -6.787892431020736694e-03
7.590000000000000000e+02 9.807383537292480469e+00 -3.555695343017578125e+01 3.822407126426696777e-02 -2.012517899274826050e-01 -4.890831559896469116e-02 -3.287324681878089905e-02
7.600000000000000000e+02 8.975968360900878906e+00 -3.035543632507324219e+01 4.358601570129394531e-02 -2.337149530649185181e-01 -5.703867971897125244e-02 -6.287433952093124390e-02
7.610000000000000000e+02 1.058396148681640625e+01 -2.700227165222167969e+01 6.523042917251586914e-02 -1.980464458465576172e-01 -3.984480723738670349e-02 -8.163176476955413818e-02
7.620000000000000000e+02 7.449699878692626953e+00 -2.355894660949707031e+01 2.409159392118453979e-02 -2.505265176296234131e-01 -6.793048232793807983e-02 -1.178376302123069763e-01
7.630000000000000000e+02 1.062511730194091797e+01 -2.194442939758300781e+01 3.201439231634140015e-02 -2.356625348329544067e-01 -6.109444424510002136e-02 -1.314105242490768433e-01
7.640000000000000000e+02 8.820871353149414062e+00 -1.796066284179687500e+01 -4.229559749364852905e-02 -2.187842130661010742e-01 -7.832394540309906006e-02 -1.280402988195419312e-01
7.650000000000000000e+02 1.085796356201171875e+01 -1.315409088134765625e+01 -3.196279704570770264e-02 -2.552219033241271973e-01 -8.615540713071823120e-02 -9.145447611808776855e-02
7.660000000000000000e+02 7.546801090240478516e+00 -1.043754673004150391e+01 -1.414632983505725861e-02 -1.607308387756347656e-01 -5.246315151453018188e-02 -8.033907413482666016e-02
7.670000000000000000e+02 8.855849266052246094e+00 -1.859468936920166016e+00 -6.980259716510772705e-02 -1.487672887742519379e-02 -2.540379762649536133e-02 -5.033260211348533630e-02
7.680000000000000000e+02 2.033460378646850586e+00 -4.163626861572265625e+01 -1.172330789268016815e-02 -4.681694209575653076e-01 -1.439678072929382324e-01 3.337729722261428833e-03
7.690000000000000000e+02 1.270566368103027344e+01 -4.118008041381835938e+01 4.393139109015464783e-02 -1.165044382214546204e-01 -2.177191339433193207e-02 -5.212655290961265564e-03
7.700000000000000000e+02 1.301277542114257812e+01 -3.834835815429687500e+01 4.431985691189765930e-02 -1.094952374696731567e-01 -1.955261267721652985e-02 -1.858302205801010132e-02
7.710000000000000000e+02 1.300603389739990234e+01 -3.515457916259765625e+01 5.433910340070724487e-02 -1.131128296256065369e-01 -1.763211749494075775e-02 -3.149842470884323120e-02
7.720000000000000000e+02 1.067953491210937500e+01 -3.155693244934082031e+01 5.388310924172401428e-02 -1.816963553428649902e-01 -3.834397345781326294e-02 -5.463297292590141296e-02
7.730000000000000000e+02 1.146136665344238281e+01 -2.364436912536621094e+01 5.991614237427711487e-02 -2.168474495410919189e-01 -4.707939177751541138e-02 -1.089759767055511475e-01
7.740000000000000000e+02 1.114981746673583984e+01 -1.893998527526855469e+01 -3.689078241586685181e-02 -2.645925879478454590e-01 -9.044501185417175293e-02 -1.359605342149734497e-01
7.750000000000000000e+02 1.199329185485839844e+01 -1.805655479431152344e+01 -6.665815412998199463e-02 -2.912413477897644043e-01 -1.073698550462722778e-01 -1.455629318952560425e-01
7.760000000000000000e+02 1.240533828735351562e+01 -1.348891067504882812e+01 -3.851347789168357849e-02 -3.041869401931762695e-01 -1.028101295232772827e-01 -9.023679047822952271e-02
7.770000000000000000e+02 1.186945247650146484e+01 -1.117760944366455078e+01 1.681751385331153870e-02 -2.829710841178894043e-01 -7.984606921672821045e-02 -1.129572838544845581e-01
7.780000000000000000e+02 1.193733882904052734e+01 -5.978766918182373047e+00 -4.120983555912971497e-02 -1.611390709877014160e-01 -6.070467457175254822e-02 -2.019889354705810547e-01
7.790000000000000000e+02 1.706395339965820312e+01 -3.808654022216796875e+01 6.231034547090530396e-02 1.461693830788135529e-02 2.307818457484245300e-02 -9.464667178690433502e-03
7.800000000000000000e+02 1.499094295501708984e+01 -3.135470962524414062e+01 7.046997547149658203e-02 -5.764090642333030701e-02 3.848722204566001892e-03 -4.272311553359031677e-02
7.810000000000000000e+02 1.353279781341552734e+01 -2.533929252624511719e+01 8.978854119777679443e-02 -1.443234533071517944e-01 -1.636047475039958954e-02 -6.554029136896133423e-02
7.820000000000000000e+02 1.800600051879882812e+01 -2.587427520751953125e+01 9.646622091531753540e-02 7.112440466880798340e-02 5.027718469500541687e-02 -8.373375236988067627e-02
7.830000000000000000e+02 1.714444541931152344e+01 -2.468460655212402344e+01 8.407019823789596558e-02 5.894917249679565430e-02 4.290581122040748596e-02 -7.187324762344360352e-02
7.840000000000000000e+02 1.522099781036376953e+01 -2.260586738586425781e+01 4.957980662584304810e-02 -6.368934363126754761e-02 -4.232861567288637161e-03 -3.375165909528732300e-02
7.850000000000000000e+02 1.444028186798095703e+01 -2.144668960571289062e+01 2.684255689382553101e-02 -2.024566531181335449e-01 -5.268422886729240417e-02 -2.465974353253841400e-02
7.860000000000000000e+02 1.419934558868408203e+01 -1.921421241760253906e+01 -8.604027330875396729e-03 -3.538331687450408936e-01 -1.087311580777168274e-01 -3.752939775586128235e-02
7.870000000000000000e+02 1.429926395416259766e+01 -1.793156242370605469e+01 -6.969653069972991943e-03 -4.455714523792266846e-01 -1.357623338699340820e-01 -5.429872870445251465e-02
7.880000000000000000e+02 1.468012619018554688e+01 -1.512551116943359375e+01 -1.274040341377258301e-01 -5.361630320549011230e-01 -1.990701258182525635e-01 -1.946911066770553589e-01
7.890000000000000000e+02 1.442289257049560547e+01 -1.131431007385253906e+01 7.405918836593627930e-02 -3.499298393726348877e-01 -8.276119083166122437e-02 -1.461680829524993896e-01
7.900000000000000000e+02 1.561762142181396484e+01 -1.264999103546142578e+01 -3.565858677029609680e-02 -3.384461104869842529e-01 -1.122314035892486572e-01 -1.609726250171661377e-01
7.910000000000000000e+02 1.669930267333984375e+01 -5.761864185333251953e+00 -3.987667337059974670e-02 -1.902431249618530273e-01 -6.903593987226486206e-02 -3.685328662395477295e-01
7.920000000000000000e+02 1.737763786315917969e+01 -4.111261367797851562e+01 5.720111355185508728e-02 3.225852549076080322e-02 2.683789096772670746e-02 -1.846940256655216217e-03
7.930000000000000000e+02 2.107488632202148438e+01 -3.787316894531250000e+01 6.829684227705001831e-02 1.502823233604431152e-01 6.557375192642211914e-02 1.086873188614845276e-02
7.940000000000000000e+02 1.777041053771972656e+01 -3.059435081481933594e+01 7.962590456008911133e-02 6.682901643216609955e-03 2.589264325797557831e-02 -4.636724665760993958e-02
7.950000000000000000e+02 2.145015907287597656e+01 -2.861334800720214844e+01 1.263913214206695557e-01 7.401309162378311157e-02 6.012132391333580017e-02 -8.113230019807815552e-02
7.960000000000000000e+02 1.906915473937988281e+01 -2.692663002014160156e+01 1.035983189940452576e-01 7.434555143117904663e-02 5.338316410779953003e-02 -8.274120092391967773e-02
7.970000000000000000e+02 2.029430389404296875e+01 -2.777625656127929688e+01 1.085140556097030640e-01 6.929019838571548462e-02 5.334127694368362427e-02 -8.720614016056060791e-02
7.980000000000000000e+02 2.200655937194824219e+01 -4.098637390136718750e+01 4.999219998717308044e-02 1.961166113615036011e-01 7.383263856172561646e-02 5.259431432932615280e-03
7.990000000000000000e+02 2.456673049926757812e+01 -3.742578125000000000e+01 6.770130246877670288e-02 2.825151681900024414e-01 1.050649359822273254e-01 6.728062778711318970e-02
8.000000000000000000e+02 2.459917259216308594e+01 -2.973192787170410156e+01 1.688231527805328369e-01 3.999665752053260803e-02 6.264594197273254395e-02 -1.421484071761369705e-02
8.010000000000000000e+02 2.364245414733886719e+01 -3.027300071716308594e+01 1.598730981349945068e-01 5.437293648719787598e-02 6.427381187677383423e-02 -3.023120202124118805e-02
8.020000000000000000e+02 2.261305809020996094e+01 -2.933528137207031250e+01 1.425931453704833984e-01 5.111230909824371338e-02 5.811163410544395447e-02 -6.759863346815109253e-02
8.030000000000000000e+02 2.640734291076660156e+01 -4.068824005126953125e+01 -8.208980783820152283e-03 4.161501228809356689e-01 1.223823428153991699e-01 2.580665796995162964e-02
8.040000000000000000e+02 2.717830657958984375e+01 -3.607603454589843750e+01 7.612736523151397705e-02 3.754256069660186768e-01 1.354658901691436768e-01 1.296138912439346313e-01
8.050000000000000000e+02 2.792142868041992188e+01 -3.206973266601562500e+01 2.262243181467056274e-01 2.795718610286712646e-01 1.517388522624969482e-01 2.157874703407287598e-01
8.060000000000000000e+02 3.343001937866210938e+01 -3.143412590026855469e+01 1.556685287505388260e-02 9.907307028770446777e-01 3.018892705440521240e-01 2.870338261127471924e-01
8.070000000000000000e+02 3.240316390991210938e+01 -2.729027748107910156e+01 6.258831620216369629e-01 1.021775603294372559e+00 4.942976236343383789e-01 7.299298644065856934e-01
8.080000000000000000e+02 2.957034111022949219e+01 -3.138594436645507812e+01 2.230563312768936157e-01 5.206975936889648438e-01 2.231261730194091797e-01 3.309865891933441162e-01
8.090000000000000000e+02 2.962785911560058594e+01 -3.902914810180664062e+01 -6.368544697761535645e-02 5.895375013351440430e-01 1.577556282281875610e-01 7.951035350561141968e-02
8.100000000000000000e+02 3.143881797790527344e+01 -3.644316482543945312e+01 -7.609069347381591797e-02 7.027527689933776855e-01 1.879986077547073364e-01 1.393813192844390869e-01
8.110000000000000000e+02 2.915899276733398438e+01 -3.447011184692382812e+01 7.053765654563903809e-02 5.250278711318969727e-01 1.786696612834930420e-01 2.100734859704971313e-01
8.120000000000000000e+02 3.134696769714355469e+01 -2.823952484130859375e+01 6.501810550689697266e-01 7.667567729949951172e-01 4.250813424587249756e-01 6.306273937225341797e-01
8.130000000000000000e+02 3.665283966064453125e+01 -2.875489044189453125e+01 7.003075629472732544e-02 1.325287222862243652e+00 4.185954034328460693e-01 7.565478235483169556e-02
8.140000000000000000e+02 4.100340652465820312e+01 -2.778938293457031250e+01 4.915467649698257446e-02 7.060803174972534180e-01 2.265705019235610962e-01 -2.868425548076629639e-01
8.150000000000000000e+02 4.244275665283203125e+01 -2.562657546997070312e+01 9.737489372491836548e-02 3.163602352142333984e-01 1.241205409169197083e-01 -2.513205707073211670e-01
8.160000000000000000e+02 4.481435394287109375e+01 -2.689725875854492188e+01 3.967375308275222778e-02 -1.850655525922775269e-01 -4.361753910779953003e-02 -1.490660160779953003e-01
8.170000000000000000e+02 4.598237228393554688e+01 -2.587732315063476562e+01 -6.534494459629058838e-02 -4.685606360435485840e-01 -1.601716727018356323e-01 1.440946459770202637e-01
8.180000000000000000e+02 4.552566528320312500e+01 -1.939300346374511719e+01 -1.418534480035305023e-02 -5.866044163703918457e-01 -1.802369207143783569e-01 4.116480797529220581e-02
8.190000000000000000e+02 4.452186203002929688e+01 -1.962078666687011719e+01 6.077999249100685120e-02 -4.019179940223693848e-01 -1.023413985967636108e-01 1.908093988895416260e-01
8.200000000000000000e+02 4.366136932373046875e+01 -1.796681022644042969e+01 6.063110753893852234e-02 -2.188168913125991821e-01 -4.745573550462722778e-02 2.416094541549682617e-01
8.210000000000000000e+02 4.136936950683593750e+01 -1.623333740234375000e+01 -1.556029319763183594e-01 3.012767434120178223e-01 4.370213672518730164e-02 7.033716887235641479e-02
8.220000000000000000e+02 4.089642715454101562e+01 -1.586949825286865234e+01 -2.079341411590576172e-01 4.886443614959716797e-01 8.421306312084197998e-02 -1.007060427218675613e-02
8.230000000000000000e+02 4.043341445922851562e+01 -1.551320171356201172e+01 -2.746395170688629150e-01 6.966342926025390625e-01 1.265984475612640381e-01 -9.761703014373779297e-02
8.240000000000000000e+02 3.621875381469726562e+01 -1.346575927734375000e+01 -6.273635625839233398e-01 3.755759716033935547e+00 9.385188221931457520e-01 1.215863823890686035e+00
8.250000000000000000e+02 3.499031829833984375e+01 -1.146734905242919922e+01 1.843257308006286621e+00 -5.505586266517639160e-01 3.878096044063568115e-01 -6.928632855415344238e-01
8.260000000000000000e+02 3.575743484497070312e+01 -1.136377525329589844e+01 3.445833206176757812e+00 2.266848087310791016e+00 1.713804364204406738e+00 -1.071993231773376465e+00
8.270000000000000000e+02 3.479999923706054688e+01 -1.082579517364501953e+01 2.251792907714843750e+00 -1.834935098886489868e-01 6.204898357391357422e-01 -1.478710651397705078e+00
8.280000000000000000e+02 3.632976150512695312e+01 -1.034218025207519531e+01 2.850072860717773438e+00 3.831589937210083008e+00 2.004498720169067383e+00 -2.090127706527709961e+00
8.290000000000000000e+02 3.323582839965820312e+01 -4.078184509277343750e+01 -1.380037367343902588e-01 6.814979910850524902e-01 1.630482822656631470e-01 1.968556828796863556e-02
8.300000000000000000e+02 3.447297286987304688e+01 -3.760916900634765625e+01 -1.442409902811050415e-01 7.620231509208679199e-01 1.853346526622772217e-01 4.576577991247177124e-02
8.310000000000000000e+02 3.686088562011718750e+01 -3.143209266662597656e+01 -7.087481766939163208e-02 1.062641382217407227e+00 2.975299656391143799e-01 1.071153767406940460e-02
8.320000000000000000e+02 3.446559524536132812e+01 -3.043853187561035156e+01 1.702129608020186424e-03 1.245569944381713867e+00 3.741816282272338867e-01 2.301819473505020142e-01
8.330000000000000000e+02 3.773477935791015625e+01 -4.109104919433593750e+01 -1.554598212242126465e-01 6.811907291412353516e-01 1.577192842960357666e-01 -1.475305948406457901e-02
8.340000000000000000e+02 3.822476577758789062e+01 -3.821009445190429688e+01 -1.439783424139022827e-01 6.865991353988647461e-01 1.627862304449081421e-01 -4.763462021946907043e-02
8.350000000000000000e+02 3.869113922119140625e+01 -3.523722457885742188e+01 -1.253085583448410034e-01 7.596548795700073242e-01 1.903038918972015381e-01 -9.678927063941955566e-02
8.360000000000000000e+02 3.910703659057617188e+01 -3.065589714050292969e+01 -4.428115114569664001e-02 9.553572535514831543e-01 2.733228206634521484e-01 -1.808491647243499756e-01
8.370000000000000000e+02 3.900056076049804688e+01 -3.258215713500976562e+01 -9.313907474279403687e-02 8.101980090141296387e-01 2.151176929473876953e-01 -1.736425012350082397e-01
8.380000000000000000e+02 4.233484268188476562e+01 -3.854773330688476562e+01 -7.356338202953338623e-02 4.884081780910491943e-01 1.244534403085708618e-01 -8.841920644044876099e-02
8.390000000000000000e+02 4.239655685424804688e+01 -3.577565002441406250e+01 -5.478208884596824646e-02 4.626644551753997803e-01 1.223647147417068481e-01 -1.596529334783554077e-01
8.400000000000000000e+02 4.245266723632812500e+01 -2.977021980285644531e+01 3.786225616931915283e-02 4.410687088966369629e-01 1.436792910099029541e-01 -2.632585167884826660e-01
8.410000000000000000e+02 4.242910385131835938e+01 -4.121898269653320312e+01 -7.860737293958663940e-02 4.737097024917602539e-01 1.185306981205940247e-01 -2.578898333013057709e-02
8.420000000000000000e+02 4.286156845092773438e+01 -3.342267608642578125e+01 -9.091934189200401306e-03 4.332253336906433105e-01 1.272400170564651489e-01 -1.967061012983322144e-01
8.430000000000000000e+02 4.495438766479492188e+01 -3.108774757385253906e+01 4.249674826860427856e-02 1.626374572515487671e-01 6.154026091098785400e-02 -1.750367283821105957e-01
8.440000000000000000e+02 4.672285461425781250e+01 -2.712889671325683594e+01 -9.243070334196090698e-02 -3.045641779899597168e-01 -1.190984696149826050e-01 1.199000328779220581e-01
8.450000000000000000e+02 4.658927154541015625e+01 -2.988410186767578125e+01 8.393707685172557831e-03 -4.824509844183921814e-02 -1.195541769266128540e-02 -6.674050539731979370e-02
8.460000000000000000e+02 4.709315872192382812e+01 -4.118373489379882812e+01 1.453342288732528687e-02 2.190262526273727417e-01 7.006789743900299072e-02 -2.127497829496860504e-02
8.470000000000000000e+02 4.633502578735351562e+01 -3.852779006958007812e+01 8.569706231355667114e-03 2.316053360700607300e-01 7.205251604318618774e-02 -6.567587703466415405e-02
8.480000000000000000e+02 4.579053115844726562e+01 -3.591260910034179688e+01 9.612966328859329224e-03 2.343013584613800049e-01 7.317429780960083008e-02 -1.029313728213310242e-01
8.490000000000000000e+02 4.883137893676757812e+01 -2.922804450988769531e+01 -1.320249587297439575e-01 -1.003988012671470642e-01 -6.972712278366088867e-02 7.856821268796920776e-02
8.500000000000000000e+02 5.152860260009765625e+01 -4.090937042236328125e+01 5.113587900996208191e-02 5.621062219142913818e-02 3.220394998788833618e-02 -3.276447299867868423e-03
8.510000000000000000e+02 5.111960983276367188e+01 -3.468224334716796875e+01 1.647930778563022614e-02 8.677126839756965637e-03 7.546930573880672455e-03 -6.946297944523394108e-04
8.520000000000000000e+02 5.004912185668945312e+01 -3.283649826049804688e+01 -1.122942753136157990e-02 -1.575895398855209351e-02 -8.096514269709587097e-03 -1.066303579136729240e-03
8.530000000000000000e+02 5.431324386596679688e+01 -3.074920272827148438e+01 -1.050084605813026428e-01 -6.559083238244056702e-03 -3.347026184201240540e-02 1.872231252491474152e-02
8.540000000000000000e+02 5.578763961791992188e+01 -3.087711524963378906e+01 -8.399207890033721924e-02 -5.148023366928100586e-03 -2.674203179776668549e-02 1.034957543015480042e-02
8.550000000000000000e+02 6.016394424438476562e+01 -2.976215934753417969e+01 -2.729322388768196106e-02 -1.816576696000993252e-03 -8.732940070331096649e-03 -2.636892721056938171e-03
8.560000000000000000e+02 6.344727706909179688e+01 -3.201940917968750000e+01 -1.379838492721319199e-02 1.288858591578900814e-03 -3.752857912331819534e-03 7.586746010929346085e-03
8.570000000000000000e+02 6.473398590087890625e+01 -2.633087348937988281e+01 -1.592623186297714710e-03 -6.975645374041050673e-05 -4.987138672731816769e-04 -3.877980052493512630e-04
8.580000000000000000e+02 6.367175292968750000e+01 -2.956500625610351562e+01 -1.159935817122459412e-02 1.460581086575984955e-03 -3.041633171960711479e-03 8.502403507009148598e-04
8.590000000000000000e+02 6.268067932128906250e+01 -2.830309867858886719e+01 -9.039988741278648376e-03 -1.155472593382000923e-03 -3.058638423681259155e-03 -2.307940041646361351e-03
8.600000000000000000e+02 6.239299774169921875e+01 -3.052106475830078125e+01 -1.718217320740222931e-02 1.390702440403401852e-03 -4.737440962344408035e-03 3.307298989966511726e-03
8.610000000000000000e+02 5.264125442504882812e+01 -3.686292648315429688e+01 3.936681523919105530e-02 1.304216776043176651e-02 1.572269387543201447e-02 6.586470641195774078e-03
8.620000000000000000e+02 5.299247360229492188e+01 -3.368738174438476562e+01 -1.486302353441715240e-02 -1.858902163803577423e-02 -1.003561355173587799e-02 2.888386324048042297e-02
8.630000000000000000e+02 5.467647933959960938e+01 -3.514436340332031250e+01 7.314974907785654068e-03 -1.481638848781585693e-02 -2.250424120575189590e-03 2.706514857709407806e-02
8.640000000000000000e+02 5.484938812255859375e+01 -3.936605072021484375e+01 4.369117692112922668e-02 -3.210767754353582859e-04 1.301103085279464722e-02 7.712672464549541473e-03
8.650000000000000000e+02 5.691799545288085938e+01 -3.682535171508789062e+01 1.694825291633605957e-02 -1.382798980921506882e-02 9.360792464576661587e-04 2.194576524198055267e-02
8.660000000000000000e+02 5.829209136962890625e+01 -4.098139190673828125e+01 3.769173473119735718e-02 -1.099797058850526810e-02 8.008128963410854340e-03 6.275616586208343506e-03
8.670000000000000000e+02 5.969035339355468750e+01 -3.820507049560546875e+01 1.937978342175483704e-02 -1.253050006926059723e-02 2.054785145446658134e-03 1.612276397645473480e-02
8.680000000000000000e+02 5.862146377563476562e+01 -3.491158294677734375e+01 -5.675072781741619110e-03 -1.083891559392213821e-02 -4.954196512699127197e-03 2.548267133533954620e-02
8.690000000000000000e+02 6.066490936279296875e+01 -3.588688278198242188e+01 3.342756535857915878e-03 -9.123411029577255249e-03 -1.734196324832737446e-03 2.048647589981555939e-02
8.700000000000000000e+02 6.270559692382812500e+01 -4.127457427978515625e+01 1.887276396155357361e-02 -1.487694121897220612e-02 1.198746613226830959e-03 2.884064801037311554e-03
8.710000000000000000e+02 6.310233306884765625e+01 -3.877047729492187500e+01 1.556737348437309265e-02 -1.164490543305873871e-02 1.176740508526563644e-03 1.112328469753265381e-02
8.720000000000000000e+02 6.340311813354492188e+01 -3.619775009155273438e+01 1.957535510882735252e-03 -6.628330796957015991e-03 -1.401238609105348587e-03 1.466100569814443588e-02
8.730000000000000000e+02 6.784384918212890625e+01 -3.184432220458984375e+01 -4.933886229991912842e-03 -1.976361381821334362e-04 -1.539456658065319061e-03 4.901516251266002655e-03
8.740000000000000000e+02 6.579269409179687500e+01 -2.735117530822753906e+01 -3.405986819416284561e-03 4.556597559712827206e-04 -8.850981248542666435e-04 -6.399219273589551449e-04
8.750000000000000000e+02 6.851828765869140625e+01 -2.396739387512207031e+01 -2.907637681346386671e-04 1.301015145145356655e-04 -4.819867172045633197e-05 1.294112735195085406e-04
8.760000000000000000e+02 7.208019256591796875e+01 -1.909832572937011719e+01 6.607435352634638548e-05 -1.196056036860682070e-04 -1.605937359272502363e-05 5.947332465439103544e-05
8.770000000000000000e+02 6.927008056640625000e+01 -2.260510444641113281e+01 2.560590510256588459e-04 1.183549829875119030e-05 8.036836516112089157e-05 8.153804810717701912e-05
8.780000000000000000e+02 6.727971649169921875e+01 -4.127349853515625000e+01 8.362721651792526245e-03 -8.822252042591571808e-03 -1.378590823151171207e-04 1.985799754038453102e-03
8.790000000000000000e+02 6.828256225585937500e+01 -3.360882568359375000e+01 -1.966276671737432480e-03 -1.324837678112089634e-03 -9.873342933133244514e-04 6.280372850596904755e-03
8.800000000000000000e+02 7.102048492431640625e+01 -3.038761711120605469e+01 -2.376507502049207687e-03 -6.116625736467540264e-04 -8.964510052464902401e-04 1.918530673719942570e-03
8.810000000000000000e+02 6.887400054931640625e+01 -2.709309959411621094e+01 -2.475508255884051323e-03 -8.658057777211070061e-05 -7.686266326345503330e-04 -5.340365078154718503e-06
8.820000000000000000e+02 7.171120452880859375e+01 -2.289768791198730469e+01 1.056301698554307222e-05 -6.531226244987919927e-05 -1.642477400309871882e-05 1.106118870666250587e-04
8.830000000000000000e+02 7.137621307373046875e+01 -1.914729309082031250e+01 2.407166757620871067e-04 -1.318028444075025618e-05 6.826091703260317445e-05 1.344707561656832695e-04
8.840000000000000000e+02 7.285814666748046875e+01 -1.822354316711425781e+01 3.431507138884626329e-05 -5.471336771734058857e-05 -6.119489171396708116e-06 1.654372135817538947e-05
8.850000000000000000e+02 7.142833709716796875e+01 -1.828166961669921875e+01 2.254813443869352341e-05 -3.842506339424289763e-05 -4.763078777614282444e-06 7.583675323985517025e-05
8.860000000000000000e+02 7.179367065429687500e+01 -4.096162033081054688e+01 2.837240928784012794e-03 -5.075358320027589798e-03 -6.714351475238800049e-04 1.043306197971105576e-03
8.870000000000000000e+02 7.261772155761718750e+01 -3.674229049682617188e+01 1.157608814537525177e-03 -3.110128222033381462e-03 -5.857558571733534336e-04 2.928743138909339905e-03
8.880000000000000000e+02 7.265350341796875000e+01 -3.369881439208984375e+01 -5.055122892372310162e-04 -1.825149636715650558e-03 -6.991985719650983810e-04 2.826926298439502716e-03
8.890000000000000000e+02 7.440783691406250000e+01 -3.073818969726562500e+01 -8.086033631116151810e-04 -6.985296495258808136e-04 -4.521399096120148897e-04 1.399726490490138531e-03
8.900000000000000000e+02 7.552339172363281250e+01 -2.943470764160156250e+01 -3.540604084264487028e-04 -4.487734113354235888e-04 -2.408501459285616875e-04 7.772128446958959103e-04
8.910000000000000000e+02 7.602918243408203125e+01 -2.294848823547363281e+01 -1.865822850959375501e-04 -1.412176206940785050e-04 -9.833997319219633937e-05 -1.018819893943145871e-04
8.920000000000000000e+02 7.557371520996093750e+01 -1.901165008544921875e+01 1.315451663685962558e-04 -4.944303145748563111e-05 2.463064265612047166e-05 -3.771158662857487798e-05
8.930000000000000000e+02 7.770420074462890625e+01 -1.842849540710449219e+01 9.557818702887743711e-05 2.410028355370741338e-05 3.590354026528075337e-05 -6.714472692692652345e-05
8.940000000000000000e+02 7.573551177978515625e+01 -1.825611686706542969e+01 5.240296741249039769e-05 -2.564907845226116478e-05 8.026167051866650581e-06 -8.607334166299551725e-05
8.950000000000000000e+02 7.429693603515625000e+01 -1.819366264343261719e+01 4.016186721855774522e-05 -4.644886575988493860e-05 -1.886099767034465913e-06 -6.149602268123999238e-05
8.960000000000000000e+02 7.536689758300781250e+01 -4.017351531982421875e+01 7.146706338971853256e-04 -3.865435952320694923e-03 -9.452296071685850620e-04 1.001960365101695061e-03
8.970000000000000000e+02 7.550461578369140625e+01 -3.598361968994140625e+01 6.227366393432021141e-04 -2.544450340792536736e-03 -5.765141104348003864e-04 1.919156755320727825e-03
8.980000000000000000e+02 7.807730865478515625e+01 -2.953255653381347656e+01 6.547968223458155990e-05 -2.535114472266286612e-04 -5.640953168040141463e-05 3.450528602115809917e-04
8.990000000000000000e+02 7.937914276123046875e+01 -2.820641517639160156e+01 1.312439271714538336e-04 2.894582576118409634e-04 1.262106525246053934e-04 6.715142080793157220e-05
9.000000000000000000e+02 7.822093200683593750e+01 -2.554301834106445312e+01 -2.056371449725702405e-04 1.322943571722134948e-04 -2.200283779529854655e-05 -1.150263142335461453e-05
9.010000000000000000e+02 7.940866851806640625e+01 -2.550167465209960938e+01 1.086357588064856827e-04 4.059212515130639076e-04 1.543671096442267299e-04 -2.880379497582907788e-06
9.020000000000000000e+02 7.956482696533203125e+01 -1.996838188171386719e+01 8.389593858737498522e-05 1.061187140294350684e-04 5.700439578504301608e-05 -2.797586421365849674e-05
9.030000000000000000e+02 7.750431060791015625e+01 -2.041511917114257812e+01 1.243345614057034254e-04 9.134614811046048999e-05 6.470421067206189036e-05 -1.318853901466354728e-04
9.040000000000000000e+02 7.900457763671875000e+01 -1.854810714721679688e+01 2.468820184731157497e-06 7.789488881826400757e-05 2.410911292827222496e-05 -7.462161647708853707e-06
9.050000000000000000e+02 7.807672119140625000e+01 -4.166808319091796875e+01 5.464043933898210526e-04 -4.004827700555324554e-03 -1.037526992149651051e-03 1.538742071716114879e-04
9.060000000000000000e+02 7.892471313476562500e+01 -4.024589157104492188e+01 -5.478347884491086006e-04 -3.785904962569475174e-03 -1.300121890380978584e-03 3.804770240094512701e-04
9.070000000000000000e+02 7.907452392578125000e+01 -3.773155593872070312e+01 -3.017533526872284710e-05 -2.966882893815636635e-03 -8.991174981929361820e-04 3.679673827718943357e-04
9.080000000000000000e+02 7.757802581787109375e+01 -3.487809753417968750e+01 2.579141873866319656e-04 -2.044756431132555008e-03 -5.360526265576481819e-04 1.164544140920042992e-03
9.090000000000000000e+02 7.929090118408203125e+01 -3.226581573486328125e+01 -2.417565992800518870e-04 -7.106111734174191952e-04 -2.857103536371141672e-04 2.631056995596736670e-04
9.100000000000000000e+02 6.821926879882812500e+01 -2.193249511718750000e+01 1.070418365998193622e-04 4.275085811968892813e-04 1.603651180630549788e-04 2.377584314672276378e-04
9.110000000000000000e+02 6.660980224609375000e+01 -2.425935363769531250e+01 -4.779676237376406789e-05 2.864060807041823864e-04 7.158279913710430264e-05 3.203509259037673473e-04
9.120000000000000000e+02 6.375545120239257812e+01 -2.735205459594726562e+01 -3.667271696031093597e-03 -3.384485607966780663e-04 -1.201716018840670586e-03 -1.490280264988541603e-03
9.130000000000000000e+02 6.702588653564453125e+01 -2.832988739013671875e+01 -4.981199745088815689e-03 8.536082459613680840e-04 -1.238277531228959560e-03 4.864415968768298626e-04
9.140000000000000000e+02 5.877215957641601562e+01 -3.031192398071289062e+01 -4.234097898006439209e-02 -2.384090097621083260e-03 -1.341752149164676666e-02 -5.618823706754483283e-05
9.150000000000000000e+02 5.150301361083984375e+01 -3.029347419738769531e+01 -1.553179472684860229e-01 -2.629472687840461731e-02 -5.448380485177040100e-02 4.575061798095703125e-02
9.160000000000000000e+02 4.975740432739257812e+01 -3.129789161682128906e+01 -5.344013497233390808e-02 -3.220485150814056396e-02 -2.569349482655525208e-02 1.953325793147087097e-02
9.170000000000000000e+02 4.296299743652343750e+01 -1.288560962677001953e+01 7.890423536300659180e-01 -2.277989685535430908e-01 1.683730036020278931e-01 5.025008227676153183e-03
9.180000000000000000e+02 4.404469299316406250e+01 -1.363536262512207031e+01 4.687587916851043701e-01 -1.785261183977127075e-01 8.706980198621749878e-02 8.221327513456344604e-02
9.190000000000000000e+02 4.749058151245117188e+01 -1.501003265380859375e+01 -1.797380000352859497e-01 3.827420994639396667e-02 -4.243913665413856506e-02 1.930949091911315918e-01
9.200000000000000000e+02 3.148601722717285156e+01 -8.985397338867187500e+00 3.293170452117919922e+00 1.128021359443664551e+00 1.326357483863830566e+00 -1.695766091346740723e+00
9.210000000000000000e+02 3.242803573608398438e+01 -9.843995094299316406e+00 1.682814002037048340e+00 6.416667699813842773e-01 6.973441839218139648e-01 -1.163792014122009277e+00
9.220000000000000000e+02 3.303638458251953125e+01 -9.123174667358398438e+00 2.696088790893554688e+00 -3.876468241214752197e-01 6.925325393676757812e-01 -1.082624912261962891e+00
9.230000000000000000e+02 2.861922645568847656e+01 -8.190783500671386719e+00 4.739906311035156250e+00 3.054499328136444092e-01 1.513606905937194824e+00 2.933109700679779053e-01
9.240000000000000000e+02 3.421221160888671875e+01 -1.135534000396728516e+01 1.054553747177124023e+00 -1.714504480361938477e+00 -1.979852020740509033e-01 -1.972535103559494019e-01
9.250000000000000000e+02 3.428680419921875000e+01 -1.236667346954345703e+01 -2.233782261610031128e-01 -2.598443984985351562e+00 -8.465467095375061035e-01 1.063621044158935547e+00
9.260000000000000000e+02 3.605274200439453125e+01 -1.652794837951660156e+01 -2.038160860538482666e-01 2.781729459762573242e+00 7.733739614486694336e-01 3.592611849308013916e-01
9.270000000000000000e+02 3.554208374023437500e+01 -1.915859031677246094e+01 4.443635046482086182e-02 3.822133064270019531e+00 1.159970879554748535e+00 -7.933714427053928375e-03
9.280000000000000000e+02 3.559974670410156250e+01 -2.054920387268066406e+01 1.710218638181686401e-01 4.031682968139648438e+00 1.260811448097229004e+00 2.540239691734313965e-01
9.290000000000000000e+02 3.533769607543945312e+01 -2.325681304931640625e+01 5.538323521614074707e-01 3.333187341690063477e+00 1.166105985641479492e+00 9.090207219123840332e-01
9.300000000000000000e+02 3.776236724853515625e+01 -2.794608497619628906e+01 3.251944482326507568e-02 1.345717668533325195e+00 4.134711623191833496e-01 -7.746515423059463501e-02
9.310000000000000000e+02 3.440373611450195312e+01 -2.541275978088378906e+01 7.329387664794921875e-01 2.173378467559814453e+00 8.718951344490051270e-01 9.586983323097229004e-01
9.320000000000000000e+02 3.452473068237304688e+01 -2.799327659606933594e+01 1.756375730037689209e-01 1.625784873962402344e+00 5.404267311096191406e-01 4.902490675449371338e-01
9.330000000000000000e+02 3.342245864868164062e+01 -2.634267425537109375e+01 6.640107631683349609e-01 1.307911872863769531e+00 5.915768146514892578e-01 8.942171931266784668e-01
9.340000000000000000e+02 1.524704360961914062e+01 -1.036763477325439453e+01 1.541727781295776367e-01 -3.256983458995819092e-01 -5.145766958594322205e-02 -2.050678879022598267e-01
9.350000000000000000e+02 1.957518196105957031e+01 -7.936676979064941406e+00 2.829485833644866943e-01 -2.032320052385330200e-01 2.391497418284416199e-02 -3.162532746791839600e-01
9.360000000000000000e+02 1.937792778015136719e+01 -1.009972572326660156e+01 3.595871031284332275e-01 -1.098374873399734497e-01 7.492488622665405273e-02 -1.344239562749862671e-01
9.370000000000000000e+02 2.339701271057128906e+01 -1.058950138092041016e+01 7.145035266876220703e-01 1.950915530323982239e-02 2.202038168907165527e-01 2.152057737112045288e-01
9.380000000000000000e+02 2.388317871093750000e+01 -2.629987478256225586e+00 -1.185645341873168945e+00 1.545937061309814453e-01 -3.093154728412628174e-01 -6.982717514038085938e-01
9.390000000000000000e+02 2.413689041137695312e+01 -9.075393676757812500e+00 1.021088838577270508e+00 -1.280988007783889771e-01 2.678970098495483398e-01 1.650063544511795044e-01
9.400000000000000000e+02 2.573861122131347656e+01 -9.420415878295898438e+00 1.251170635223388672e+00 2.272360026836395264e-01 4.435219764709472656e-01 5.968608260154724121e-01
9.410000000000000000e+02 2.676816177368164062e+01 -7.334068298339843750e+00 1.837244868278503418e+00 9.993920475244522095e-02 5.811552405357360840e-01 -4.205286204814910889e-01
9.420000000000000000e+02 2.757026672363281250e+01 -7.950910091400146484e+00 3.064541578292846680e+00 3.225404620170593262e-01 1.016124606132507324e+00 2.148797363042831421e-01
9.430000000000000000e+02 3.593067932128906250e+01 -3.296113729476928711e+00 -1.794512391090393066e+00 7.138273119926452637e-01 -3.242055177688598633e-01 5.349373221397399902e-01
9.440000000000000000e+02 3.626979827880859375e+01 -2.371775865554809570e+00 -2.167047977447509766e+00 6.643657088279724121e-01 -4.508047103881835938e-01 5.665876865386962891e-01
9.450000000000000000e+02 5.303512954711914062e+01 -1.194288063049316406e+01 -9.012150764465332031e-01 3.437397480010986328e-01 -1.672426015138626099e-01 4.935812354087829590e-01
9.460000000000000000e+02 5.061137390136718750e+01 -1.193393707275390625e+01 -5.149155259132385254e-01 2.317693531513214111e-01 -8.494385331869125366e-02 7.961451411247253418e-01
9.470000000000000000e+02 4.836730575561523438e+01 -1.087831115722656250e+01 7.001268118619918823e-02 -9.108307957649230957e-02 -6.321119610220193863e-03 1.031674742698669434e+00
9.480000000000000000e+02 5.067691802978515625e+01 -1.409780979156494141e+01 -8.818325400352478027e-01 1.045593544840812683e-01 -2.331819534301757812e-01 3.120797574520111084e-01
9.490000000000000000e+02 5.776779556274414062e+01 -1.167027282714843750e+01 -1.386240243911743164e+00 3.075879216194152832e-01 -3.235957026481628418e-01 -1.656246483325958252e-01
9.500000000000000000e+02 4.122943115234375000e+01 -1.165783596038818359e+01 1.639850854873657227e+00 -2.066953480243682861e-01 4.299466311931610107e-01 -9.708106517791748047e-02
9.510000000000000000e+02 5.333903121948242188e+01 -1.485531902313232422e+01 -1.780148625373840332e+00 7.873293012380599976e-03 -5.316826105117797852e-01 -8.405799418687820435e-02
9.520000000000000000e+02 7.332703399658203125e+01 -7.034478187561035156e+00 -2.215878665447235107e-01 -1.796191781759262085e-01 -1.203621104359626770e-01 -6.109430789947509766e-01
9.530000000000000000e+02 7.578469085693359375e+01 -5.633447647094726562e+00 -8.353971689939498901e-02 -4.587107598781585693e-01 -1.626751422882080078e-01 -5.032371878623962402e-01
9.540000000000000000e+02 5.990869903564453125e+01 -1.101009273529052734e+01 -1.592433691024780273e+00 1.996237933635711670e-01 -4.178429841995239258e-01 -2.106523215770721436e-01
9.550000000000000000e+02 4.815416336059570312e+01 -8.608354568481445312e+00 2.763260006904602051e-01 -1.970595568418502808e-01 2.377993427217006683e-02 1.346508383750915527e+00
9.560000000000000000e+02 3.564302444458007812e+01 -8.194334983825683594e+00 1.250801444053649902e+00 1.418833971023559570e+00 8.008906245231628418e-01 -1.131240487098693848e+00
9.570000000000000000e+02 7.324319458007812500e+01 -1.811880350112915039e+00 2.610483020544052124e-02 -4.033290147781372070e-01 -1.131672561168670654e-01 -7.110823392868041992e-01
9.580000000000000000e+02 7.577924346923828125e+01 -2.993117332458496094e+00 -1.930228434503078461e-02 -6.832555532455444336e-01 -2.107673436403274536e-01 -5.533908605575561523e-01
9.590000000000000000e+02 6.853708648681640625e+01 -7.177864551544189453e+00 -4.265150427818298340e-01 4.394374787807464600e-02 -1.147713884711265564e-01 -7.597402930259704590e-01
9.600000000000000000e+02 5.655312728881835938e+01 -2.600459814071655273e+00 1.281771540641784668e+00 1.702206254005432129e+00 8.951933383941650391e-01 1.289289951324462891e+00
9.610000000000000000e+02 5.772538375854492188e+01 -3.388062000274658203e+00 1.029513239860534668e+00 1.280087828636169434e+00 6.928803324699401855e-01 9.064598083496093750e-01
9.620000000000000000e+02 4.883367156982421875e+01 -6.402373313903808594e+00 6.130321025848388672e-01 -1.693897843360900879e-01 1.330927014350891113e-01 1.160196781158447266e+00
9.630000000000000000e+02 2.271349143981933594e+01 -8.377332687377929688e+00 7.393117547035217285e-01 -2.102704346179962158e-01 1.587124019861221313e-01 -1.541052460670471191e-01
9.640000000000000000e+02 2.028523826599121094e+01 -6.897932529449462891e+00 2.081670016050338745e-01 -1.978741735219955444e-01 3.087848424911499023e-03 -4.114603102207183838e-01
9.650000000000000000e+02 1.964796066284179688e+01 -1.391071796417236328e+00 -7.404808402061462402e-01 -4.245259985327720642e-02 -2.348800450563430786e-01 -2.696583569049835205e-01
9.660000000000000000e+02 3.952720880508422852e+00 -6.950315475463867188e+00 -1.133309863507747650e-02 -5.266443267464637756e-02 -1.919925957918167114e-02 -3.060325793921947479e-02
9.670000000000000000e+02 6.834661483764648438e+00 -7.876788616180419922e+00 -1.557794027030467987e-02 -1.134062781929969788e-01 -3.869526460766792297e-02 -7.167050242424011230e-02
9.680000000000000000e+02 1.672133445739746094e+00 -7.926359176635742188e+00 -2.085612155497074127e-03 -2.456597797572612762e-02 -7.995476946234703064e-03 -1.225060597062110901e-02
9.690000000000000000e+02 4.346825122833251953e+00 -5.043912887573242188e+00 -1.715583913028240204e-02 -3.464348614215850830e-02 -1.553979702293872833e-02 -2.526921033859252930e-02
9.700000000000000000e+02 3.992147445678710938e+00 -1.045190620422363281e+01 -7.867482490837574005e-03 -9.207541495561599731e-02 -2.998287044465541840e-02 -4.253239929676055908e-02
9.710000000000000000e+02 7.378470897674560547e+00 -1.178834533691406250e+01 -2.068365737795829773e-02 -1.686123907566070557e-01 -5.678881704807281494e-02 -7.772073149681091309e-02
9.720000000000000000e+02 1.145007610321044922e+01 -6.655377864837646484e+00 -2.021430991590023041e-02 -1.751000732183456421e-01 -5.859431251883506775e-02 -1.825050413608551025e-01
9.730000000000000000e+02 1.551523494720458984e+01 -8.639042854309082031e+00 1.251840591430664062e-01 -2.729344666004180908e-01 -4.432512447237968445e-02 -2.664815187454223633e-01
9.740000000000000000e+02 7.050661468505859375e+01 9.166644811630249023e-01 2.189537435770034790e-01 7.127646356821060181e-02 8.706906437873840332e-02 -6.389703154563903809e-01
9.750000000000000000e+02 7.573274993896484375e+01 -1.682726621627807617e+00 1.349685061722993851e-02 -7.859593629837036133e-01 -2.317387461662292480e-01 -5.602353811264038086e-01
9.760000000000000000e+02 6.768849945068359375e+01 -3.791016578674316406e+00 3.120462177321314812e-03 1.775323748588562012e-01 5.419585108757019043e-02 -6.792092323303222656e-01
9.770000000000000000e+02 6.307948684692382812e+01 -2.378376960754394531e+00 4.454749226570129395e-01 8.132891654968261719e-01 3.776292204856872559e-01 3.606628999114036560e-02
9.780000000000000000e+02 6.030659484863281250e+01 -1.886539816856384277e+00 7.870469689369201660e-01 1.219841003417968750e+00 6.020663976669311523e-01 6.370807886123657227e-01
9.790000000000000000e+02 7.819245147705078125e+01 -3.036114454269409180e+00 -7.767146918922662735e-03 -9.819803237915039062e-01 -2.969242334365844727e-01 -2.863428592681884766e-01
9.800000000000000000e+02 7.308114624023437500e+01 3.992305278778076172e+00 2.041888833045959473e-01 -4.780244827270507812e-01 -8.215067535638809204e-02 -5.391002893447875977e-01
9.810000000000000000e+02 7.559208679199218750e+01 2.371834516525268555e+00 6.890698522329330444e-02 -1.055671215057373047e+00 -2.960292696952819824e-01 -5.014525055885314941e-01
9.820000000000000000e+02 6.696507263183593750e+01 -4.391702637076377869e-02 3.188799321651458740e-01 6.428464055061340332e-01 2.885178923606872559e-01 -4.154157340526580811e-01
9.830000000000000000e+02 6.001056671142578125e+01 -3.737980499863624573e-02 8.880558013916015625e-01 1.653115272521972656e+00 7.623513340950012207e-01 9.666494727134704590e-01
9.840000000000000000e+02 7.938834381103515625e+01 -2.711617648601531982e-01 4.560325294733047485e-03 -1.603609681129455566e+00 -4.797148108482360840e-01 -9.864340722560882568e-02
9.850000000000000000e+02 7.031583404541015625e+01 6.579187870025634766e+00 3.729296624660491943e-01 3.506125509738922119e-01 2.170626670122146606e-01 -3.635360002517700195e-01
9.860000000000000000e+02 7.561165618896484375e+01 5.146300315856933594e+00 1.052925363183021545e-01 -1.211891889572143555e+00 -3.319798111915588379e-01 -4.022445380687713623e-01
9.870000000000000000e+02 6.806305694580078125e+01 5.165327072143554688e+00 4.492372274398803711e-01 9.695860147476196289e-01 4.256469607353210449e-01 -2.861514985561370850e-01
9.880000000000000000e+02 6.372089004516601562e+01 4.449597358703613281e+00 6.914736032485961914e-01 2.225066661834716797e+00 8.749620914459228516e-01 3.828175961971282959e-01
9.890000000000000000e+02 5.961043167114257812e+01 3.850910663604736328e+00 1.109608530998229980e+00 2.527053594589233398e+00 1.090998649597167969e+00 1.632163763046264648e+00
9.900000000000000000e+02 7.811761474609375000e+01 3.865158081054687500e+00 2.347132377326488495e-02 -1.864338278770446777e+00 -5.522601008415222168e-01 -2.421542704105377197e-01
9.910000000000000000e+02 7.058394622802734375e+01 1.124148464202880859e+01 4.055227637290954590e-01 3.651700019836425781e-01 2.312078326940536499e-01 -1.411183476448059082e-01
9.920000000000000000e+02 7.550364685058593750e+01 1.070422649383544922e+01 1.364358365535736084e-01 -1.383700847625732422e+00 -3.741795122623443604e-01 -1.550302207469940186e-01
9.930000000000000000e+02 6.409419250488281250e+01 7.331463813781738281e+00 5.892218947410583496e-01 2.698536396026611328e+00 9.863275289535522461e-01 3.507823944091796875e-01
9.940000000000000000e+02 7.936648559570312500e+01 6.719824790954589844e+00 5.107162985950708389e-03 -2.610941648483276367e+00 -7.817503809928894043e-01 -5.897085368633270264e-02
9.950000000000000000e+02 7.547439575195312500e+01 1.211448383331298828e+01 1.481960117816925049e-01 -1.386694192886352539e+00 -3.715494573116302490e-01 -8.330293744802474976e-02
9.960000000000000000e+02 6.814377593994140625e+01 9.594830513000488281e+00 4.893194139003753662e-01 1.227003216743469238e+00 5.148968100547790527e-01 -1.465982198715209961e-01
9.970000000000000000e+02 6.481361389160156250e+01 1.094601058959960938e+01 4.999413192272186279e-01 3.008580684661865234e+00 1.052556633949279785e+00 2.249200493097305298e-01
9.980000000000000000e+02 7.179953765869140625e+01 1.801893424987792969e+01 3.202165961265563965e-01 -1.149766519665718079e-01 6.157198175787925720e-02 2.816879451274871826e-01
9.990000000000000000e+02 7.530647277832031250e+01 1.627544784545898438e+01 1.617908626794815063e-01 -1.317199587821960449e+00 -3.466226458549499512e-01 1.447221636772155762e-01
1.000000000000000000e+03 6.799067687988281250e+01 1.209026050567626953e+01 5.340728163719177246e-01 1.445964455604553223e+00 5.940111875534057617e-01 -5.652369931340217590e-02
1.001000000000000000e+03 7.804971313476562500e+01 1.366961765289306641e+01 3.657786920666694641e-02 -2.418089628219604492e+00 -7.144535183906555176e-01 4.946290981024503708e-03
1.002000000000000000e+03 7.327152252197265625e+01 2.202446174621582031e+01 1.196896582841873169e-01 -5.109406113624572754e-01 -1.173752918839454651e-01 4.744831621646881104e-01
1.003000000000000000e+03 6.416568756103515625e+01 1.683629417419433594e+01 7.383670210838317871e-01 3.521262884140014648e+00 1.277888894081115723e+00 -4.665198624134063721e-01
1.004000000000000000e+03 7.329385375976562500e+01 2.498356628417968750e+01 1.479916647076606750e-02 -4.341850280761718750e-01 -1.258157640695571899e-01 5.177123546600341797e-01
1.005000000000000000e+03 7.483081817626953125e+01 2.482750701904296875e+01 2.267633378505706787e-02 -8.678686618804931641e-01 -2.535576820373535156e-01 4.598912596702575684e-01
1.006000000000000000e+03 6.855675506591796875e+01 2.095369911193847656e+01 4.046985208988189697e-01 9.169306755065917969e-01 3.964887559413909912e-01 3.875949680805206299e-01
1.007000000000000000e+03 6.327334976196289062e+01 2.383775520324707031e+01 1.303939670324325562e-01 1.996210455894470215e+00 6.379813551902770996e-01 -1.374877840280532837e-01
1.008000000000000000e+03 5.007033538818359375e+01 2.183178520202636719e+01 2.037208341062068939e-02 -2.484197728335857391e-02 -1.340967835858464241e-03 -4.315641149878501892e-02
1.009000000000000000e+03 8.479094505310058594e+00 2.090668869018554688e+01 -2.326143207028508186e-03 -5.476339720189571381e-04 -8.621331653557717800e-04 7.914064917713403702e-04
1.010000000000000000e+03 4.177593231201171875e+00 2.212041473388671875e+01 -1.212811446748673916e-03 -6.241105147637426853e-04 -5.510766059160232544e-04 8.708316599950194359e-04
1.011000000000000000e+03 4.065397739410400391e+00 1.693883895874023438e+01 -3.391690843272954226e-04 -1.036823086906224489e-04 -1.328554208157584071e-04 -2.313209552085027099e-04
1.012000000000000000e+03 6.824265003204345703e+00 1.794467544555664062e+01 -3.354312502779066563e-04 -5.946772871538996696e-04 -2.790325670503079891e-04 -7.532808376708999276e-05
1.013000000000000000e+03 5.936083793640136719e-01 2.063176345825195312e+01 -2.920870319940149784e-04 1.157950377091765404e-03 2.597590209916234016e-04 2.142868652299512178e-06
1.014000000000000000e+03 7.333917236328125000e+01 2.749327278137207031e+01 -6.758466362953186035e-02 -4.253756999969482422e-01 -1.478881090879440308e-01 4.928049743175506592e-01
1.015000000000000000e+03 6.967617797851562500e+01 2.317243194580078125e+01 1.710495799779891968e-01 5.248843431472778320e-01 2.087801843881607056e-01 5.147407650947570801e-01
1.016000000000000000e+03 5.869925308227539062e+01 2.582642173767089844e+01 1.661213040351867676e-01 1.081002354621887207e+00 3.741370737552642822e-01 -6.678820252418518066e-01
1.017000000000000000e+03 5.696619796752929688e+01 2.533351135253906250e+01 3.673664629459381104e-01 6.377902030944824219e-01 3.015469908714294434e-01 -6.755472421646118164e-01
1.018000000000000000e+03 5.427716064453125000e+01 2.312900733947753906e+01 3.326698243618011475e-01 5.535819381475448608e-02 1.164084076881408691e-01 -2.215509563684463501e-01
1.019000000000000000e+03 5.081548309326171875e+01 2.432669830322265625e+01 1.632237136363983154e-01 3.138841688632965088e-02 5.838363990187644958e-02 -1.256310343742370605e-01
1.020000000000000000e+03 4.018762588500976562e+01 2.442059326171875000e+01 2.065480686724185944e-03 4.043807461857795715e-02 1.275106612592935562e-02 -1.274930196814239025e-03
1.021000000000000000e+03 3.618244934082031250e+01 2.404995155334472656e+01 -1.606781966984272003e-02 2.673099562525749207e-02 3.198952879756689072e-03 5.797090008854866028e-03
1.022000000000000000e+03 3.157793045043945312e+01 2.410117530822753906e+01 -3.299321979284286499e-02 -8.985581807792186737e-03 -1.259364001452922821e-02 1.312768738716840744e-02
1.023000000000000000e+03 2.883929824829101562e+01 2.268423080444335938e+01 -5.638987571001052856e-02 -3.588125854730606079e-02 -2.768133953213691711e-02 2.833286300301551819e-02
1.024000000000000000e+03 1.908559226989746094e+01 2.186991119384765625e+01 -3.171423077583312988e-02 -1.776853343471884727e-03 -1.004732493311166763e-02 -3.966428805142641068e-03
1.025000000000000000e+03 1.568169689178466797e+01 2.212154006958007812e+01 -1.361693814396858215e-02 1.424482208676636219e-03 -3.657736815512180328e-03 1.277325791306793690e-03
1.026000000000000000e+03 1.340870666503906250e+01 2.342491149902343750e+01 -1.044787932187318802e-02 1.323167933151125908e-03 -2.737413393333554268e-03 3.565326333045959473e-03
1.027000000000000000e+03 7.021849155426025391e+00 2.510372543334960938e+01 -3.095374675467610359e-03 -1.582599594257771969e-03 -1.403392292559146881e-03 3.226379165425896645e-03
1.028000000000000000e+03 4.361985683441162109e+00 2.349637985229492188e+01 -7.711657672189176083e-04 -1.103838323615491390e-03 -5.625011981464922428e-04 1.550012733787298203e-03
1.029000000000000000e+03 6.242640614509582520e-01 2.344529724121093750e+01 -3.225984401069581509e-04 6.404466694220900536e-04 9.535448043607175350e-05 1.961901725735515356e-04
1.030000000000000000e+03 7.784098815917968750e+01 2.351087570190429688e+01 8.494015783071517944e-03 -1.800559520721435547e+00 -5.376196503639221191e-01 2.499577850103378296e-01
1.031000000000000000e+03 7.477365875244140625e+01 3.274120330810546875e+01 -1.010455191135406494e-01 -5.483432412147521973e-01 -1.948166340589523315e-01 3.232126235961914062e-01
1.032000000000000000e+03 5.354048919677734375e+01 2.826535224914550781e+01 1.518314778804779053e-01 3.787989616394042969e-01 1.591891348361968994e-01 -3.928664326667785645e-01
1.033000000000000000e+03 5.163313674926757812e+01 2.720298194885253906e+01 1.769219487905502319e-01 1.988910436630249023e-01 1.127438992261886597e-01 -2.708363234996795654e-01
1.034000000000000000e+03 3.208847427368164062e+01 2.681313323974609375e+01 -4.742251243442296982e-03 1.212623436003923416e-03 -1.058888388797640800e-03 4.644044674932956696e-03
1.035000000000000000e+03 2.934727859497070312e+01 2.735872459411621094e+01 -6.960366386920213699e-03 -1.406183373183012009e-02 -6.306660361588001251e-03 1.320406515151262283e-02
1.036000000000000000e+03 2.562476921081542969e+01 2.810152244567871094e+01 -5.675218068063259125e-03 -1.795982010662555695e-02 -7.090511266142129898e-03 1.936729066073894501e-02
1.037000000000000000e+03 2.201449966430664062e+01 2.614094543457031250e+01 -2.439304254949092865e-02 -1.372359413653612137e-02 -1.143499091267585754e-02 2.288812585175037384e-02
1.038000000000000000e+03 1.936759185791015625e+01 2.663694190979003906e+01 -1.832376047968864441e-02 -8.153329603374004364e-03 -7.943127304315567017e-03 1.986187510192394257e-02
1.039000000000000000e+03 1.611570739746093750e+01 2.695887184143066406e+01 -1.152649428695440292e-02 -3.516230499371886253e-03 -4.512817598879337311e-03 1.420435309410095215e-02
1.040000000000000000e+03 1.014116477966308594e+01 2.620913505554199219e+01 -5.466687493026256561e-03 -1.663544331677258015e-03 -2.139069605618715286e-03 6.187274120748043060e-03
1.041000000000000000e+03 6.958513259887695312e+00 2.640277671813964844e+01 -2.184321871027350426e-03 -2.469599945470690727e-03 -1.396176521666347980e-03 4.561414476484060287e-03
1.042000000000000000e+03 4.678833484649658203e+00 2.778701400756835938e+01 -1.426551025360822678e-03 -3.299753880128264427e-03 -1.417891471646726131e-03 3.631552681326866150e-03
1.043000000000000000e+03 6.741840243339538574e-01 2.768364715576171875e+01 2.064489526674151421e-04 -2.020287327468395233e-03 -5.441515240818262100e-04 6.259043002501130104e-04
1.044000000000000000e+03 7.778001403808593750e+01 2.627695655822753906e+01 -4.697842989116907120e-03 -1.519942402839660645e+00 -4.573920965194702148e-01 2.616812884807586670e-01
1.045000000000000000e+03 6.716484832763671875e+01 3.199814414978027344e+01 -3.383320868015289307e-01 6.146959066390991211e-01 8.290915191173553467e-02 2.417599707841873169e-01
1.046000000000000000e+03 6.100970077514648438e+01 3.087595939636230469e+01 -3.017935454845428467e-01 1.033933877944946289e+00 2.196421176195144653e-01 -2.201546281576156616e-01
1.047000000000000000e+03 3.200691223144531250e+01 3.142939758300781250e+01 1.841214671730995178e-02 1.557973492890596390e-02 1.019756402820348740e-02 3.050514496862888336e-04
1.048000000000000000e+03 2.895672416687011719e+01 3.207362365722656250e+01 2.003599889576435089e-02 -1.806644140742719173e-03 5.468806251883506775e-03 8.871133439242839813e-03
1.049000000000000000e+03 2.004064178466796875e+01 3.258095550537109375e+01 1.005622092634439468e-02 -1.429022755473852158e-02 -1.270202104933559895e-03 1.661552675068378448e-02
1.050000000000000000e+03 1.405179691314697266e+01 3.148770332336425781e+01 -5.079663242213428020e-04 -8.271701633930206299e-03 -2.633900381624698639e-03 1.332001667469739914e-02
1.051000000000000000e+03 1.090353775024414062e+01 3.269764328002929688e+01 3.522017505019903183e-04 -7.605626247823238373e-03 -2.176027279347181320e-03 9.342049248516559601e-03
1.052000000000000000e+03 8.197311401367187500e+00 3.255140304565429688e+01 7.916671456769108772e-04 -7.153484970331192017e-03 -1.908545265905559063e-03 7.650624960660934448e-03
1.053000000000000000e+03 4.932784557342529297e+00 3.073802566528320312e+01 -5.569942877627909184e-04 -5.670198705047369003e-03 -1.868157880380749702e-03 4.666459280997514725e-03
1.054000000000000000e+03 6.971421241760253906e-01 3.051411247253417969e+01 2.525631571188569069e-04 -4.905962850898504257e-03 -1.396019943058490753e-03 7.971333689056336880e-04
1.055000000000000000e+03 7.756002044677734375e+01 3.044835090637207031e+01 -2.253561094403266907e-02 -1.117208123207092285e+00 -3.419231474399566650e-01 2.400064319372177124e-01
1.056000000000000000e+03 7.059697723388671875e+01 3.818203735351562500e+01 -2.574840486049652100e-01 4.120514169335365295e-02 -6.488367170095443726e-02 1.554362773895263672e-01
1.057000000000000000e+03 2.311068344116210938e+01 3.464008712768554688e+01 1.921595074236392975e-02 -1.243320573121309280e-02 2.034823410212993622e-03 1.260566990822553635e-02
1.058000000000000000e+03 1.093317508697509766e+01 3.482161712646484375e+01 3.891529282554984093e-03 -9.833957068622112274e-03 -1.782728359103202820e-03 8.896524086594581604e-03
1.059000000000000000e+03 6.139369964599609375e+00 3.453744125366210938e+01 1.305917627178132534e-03 -8.472186513245105743e-03 -2.149880630895495415e-03 5.488296970725059509e-03
1.060000000000000000e+03 6.471555709838867188e+00 3.254329681396484375e+01 2.753164735622704029e-04 -7.156671024858951569e-03 -2.064406406134366989e-03 5.954158958047628403e-03
1.061000000000000000e+03 7.366323471069335938e-01 3.474230575561523438e+01 -1.770622038748115301e-04 -9.799521416425704956e-03 -2.992975292727351189e-03 6.918714498169720173e-04
1.062000000000000000e+03 7.593263244628906250e+01 3.401807403564453125e+01 -6.389356404542922974e-02 -6.713343858718872070e-01 -2.205683737993240356e-01 2.279338091611862183e-01
1.063000000000000000e+03 7.255854010581970215e-01 3.745428085327148438e+01 -8.389658614760264754e-05 -1.203945837914943695e-02 -3.637006506323814392e-03 4.027921240776777267e-04
1.064000000000000000e+03 7.733677673339843750e+01 3.632659912109375000e+01 -2.922028861939907074e-02 -7.579529881477355957e-01 -2.361519783735275269e-01 1.484290808439254761e-01
1.065000000000000000e+03 4.372687339782714844e+00 1.343157196044921875e+01 -1.016269152387394570e-06 -1.248456246685236692e-04 -3.775856748688966036e-05 -1.366156502626836300e-04
1.066000000000000000e+03 7.243122577667236328e+00 1.418563270568847656e+01 9.168601536657661200e-05 -4.157603252679109573e-04 -9.722229151520878077e-05 1.049437742040026933e-05
1.067000000000000000e+03 6.123983263969421387e-01 1.639586067199707031e+01 1.980856759473681450e-04 8.277992019429802895e-04 3.077654691878706217e-04 -7.408271630993112922e-05
1.068000000000000000e+03 3.855055332183837891e+00 9.787354469299316406e+00 1.842365745687857270e-04 2.650458736752625555e-05 6.322234548861160874e-05 -1.439058396499603987e-04
1.069000000000000000e+03 7.102511882781982422e+00 1.143035793304443359e+01 7.926920807221904397e-05 -2.245193754788488150e-04 -4.357505167718045413e-05 2.810652404150459915e-06
1.070000000000000000e+03 6.244314908981323242e-01 1.356143188476562500e+01 1.764045737218111753e-04 4.764532204717397690e-04 1.958573411684483290e-04 -5.849103763466700912e-05
1.071000000000000000e+03 4.036517620086669922e+00 6.370630264282226562e+00 6.745428254362195730e-05 1.232173235621303320e-05 2.393280374235473573e-05 -9.385753946844488382e-05
1.072000000000000000e+03 8.449360847473144531e+00 5.729134082794189453e+00 1.338188885711133480e-04 -5.581429286394268274e-05 2.340137689316179603e-05 3.578090036171488464e-05
1.073000000000000000e+03 1.186702632904052734e+01 6.665092468261718750e+00 9.172068530460819602e-05 2.595693513285368681e-05 3.530328467604704201e-05 5.660757597070187330e-05
1.074000000000000000e+03 5.913656353950500488e-01 9.327720642089843750e+00 -1.205235093948431313e-04 1.454241719329729676e-04 7.470201126125175506e-06 -2.536964348109904677e-05
1.075000000000000000e+03 5.845399379730224609e+00 1.863428831100463867e+00 1.017741669784300029e-05 -2.687993401195853949e-05 -5.010755103285191581e-06 -1.679933006926148664e-06
1.076000000000000000e+03 8.259977340698242188e+00 2.514347314834594727e+00 1.767809590091928840e-05 -3.366751479916274548e-05 -4.796825578523566946e-06 6.222382580745033920e-06
1.077000000000000000e+03 6.202020645141601562e-01 6.467652797698974609e+00 -7.242382707772776484e-05 4.366392386145889759e-05 -8.627972420072183013e-06 -1.281638378713978454e-05
1.078000000000000000e+03 1.904757499694824219e+01 3.256835460662841797e+00 -3.672332468340755440e-06 -2.338418744329828769e-05 -8.116956450976431370e-06 -2.441269771225051954e-06
1.079000000000000000e+03 3.769651031494140625e+01 1.716971969604492188e+01 -3.817788138985633850e-02 1.636575162410736084e-02 -6.543638650327920914e-03 1.218081451952457428e-02
1.080000000000000000e+03 3.778742980957031250e+01 1.330678176879882812e+01 -2.063316665589809418e-02 4.293809644877910614e-03 -4.901807289570569992e-03 2.554984996095299721e-03
1.081000000000000000e+03 4.120498275756835938e+01 1.163041973114013672e+01 -7.644539233297109604e-03 -2.729833591729402542e-03 -3.112311940640211105e-03 -2.321685664355754852e-03
1.082000000000000000e+03 3.858390808105468750e+01 1.290963459014892578e+01 -1.692242547869682312e-02 5.875838454812765121e-03 -3.313976107165217400e-03 -3.785719454754143953e-04
1.083000000000000000e+03 3.840769577026367188e+01 1.086225700378417969e+01 -7.644634693861007690e-03 -6.134662544354796410e-04 -2.477430272847414017e-03 -6.835284293629229069e-04
1.084000000000000000e+03 3.442489624023437500e+01 6.412890911102294922e+00 -6.468952051363885403e-04 2.947920584119856358e-04 -1.056309411069378257e-04 1.309726212639361620e-04
1.085000000000000000e+03 3.811969375610351562e+01 7.272069454193115234e+00 1.977632753551006317e-03 3.004755417350679636e-04 6.834324449300765991e-04 2.936311066150665283e-04
1.086000000000000000e+03 3.661170959472656250e+01 2.523637771606445312e+00 -3.112437261734157801e-04 1.535077608423307538e-04 -4.732078741653822362e-05 -2.287807292304933071e-04
1.087000000000000000e+03 3.343656539916992188e+01 7.353893756866455078e+00 2.625012421049177647e-04 1.095243846066296101e-03 4.073235322721302509e-04 -1.445859088562428951e-04
1.088000000000000000e+03 2.135379219055175781e+01 -1.719303250312805176e+00 -8.624256849288940430e-01 7.933419942855834961e-02 -2.349274456501007080e-01 -2.780010700225830078e-01
1.089000000000000000e+03 2.119880676269531250e+01 -1.062829136848449707e+00 -8.991285562515258789e-01 4.752977937459945679e-02 -2.554796338081359863e-01 -2.071186006069183350e-01
1.090000000000000000e+03 1.886033821105957031e+01 -1.516425848007202148e+00 -6.673176288604736328e-01 -6.234550476074218750e-02 -2.188989371061325073e-01 -2.765876948833465576e-01
1.091000000000000000e+03 1.496298789978027344e+01 -2.445830345153808594e+00 -3.059848546981811523e-01 -7.497673481702804565e-02 -1.142884790897369385e-01 -2.331058681011199951e-01
1.092000000000000000e+03 1.807234001159667969e+01 -1.599206209182739258e+00 -5.967189073562622070e-01 -7.172192633152008057e-02 -2.005322426557540894e-01 -2.735523879528045654e-01
1.093000000000000000e+03 2.843659877777099609e+00 -1.053128147125244141e+01 -5.087056197226047516e-03 -7.269853353500366211e-02 -2.333567850291728973e-02 -2.991749718785285950e-02
1.094000000000000000e+03 4.202462196350097656e+00 -1.305246543884277344e+01 -1.283014658838510513e-02 -1.243840977549552917e-01 -4.116427153348922729e-02 -5.477257817983627319e-02
1.095000000000000000e+03 1.058865451812744141e+01 -1.464712142944335938e+01 -7.044681906700134277e-02 -2.463894039392471313e-01 -9.505086392164230347e-02 -9.804806858301162720e-02
1.096000000000000000e+03 1.303028011322021484e+01 -1.279229927062988281e+01 -2.204431220889091492e-02 -3.306940495967864990e-01 -1.058215126395225525e-01 -9.369259327650070190e-02
1.097000000000000000e+03 1.803204727172851562e+01 -1.179148674011230469e+01 2.304392457008361816e-01 -5.834873765707015991e-02 5.162715166807174683e-02 -6.428640335798263550e-02
1.098000000000000000e+03 1.806196451187133789e+00 -1.335171890258789062e+01 -3.170846728608012199e-03 -8.681464195251464844e-02 -2.699564583599567413e-02 -2.644347772002220154e-02
1.099000000000000000e+03 3.008195400238037109e+00 -1.321376228332519531e+01 -7.940054871141910553e-03 -1.068422421813011169e-01 -3.443469107151031494e-02 -4.188921302556991577e-02
1.100000000000000000e+03 4.630265712738037109e+00 -1.712125205993652344e+01 -1.713369600474834442e-02 -1.760705411434173584e-01 -5.796127393841743469e-02 -8.389139175415039062e-02
1.101000000000000000e+03 9.163420677185058594e+00 -1.709211158752441406e+01 -5.124781653285026550e-02 -2.230143845081329346e-01 -8.227866142988204956e-02 -1.240429058670997620e-01
1.102000000000000000e+03 1.339617919921875000e+01 -1.441412639617919922e+01 -9.668734669685363770e-02 -3.618061840534210205e-01 -1.375480592250823975e-01 -9.367352724075317383e-02
1.103000000000000000e+03 1.535126781463623047e+01 -1.391485309600830078e+01 -1.311873644590377808e-01 -4.155267179012298584e-01 -1.640142202377319336e-01 -2.127908021211624146e-01
1.104000000000000000e+03 3.218043565750122070e+00 -1.596545028686523438e+01 -1.013083849102258682e-02 -1.465710699558258057e-01 -4.701057076454162598e-02 -5.803630128502845764e-02
1.105000000000000000e+03 4.812382698059082031e+00 -1.849284362792968750e+01 -1.377874054014682770e-02 -1.964807212352752686e-01 -6.307783722877502441e-02 -9.368282556533813477e-02
1.106000000000000000e+03 1.288858985900878906e+01 -1.652366256713867188e+01 -1.034674495458602905e-01 -3.508835136890411377e-01 -1.363052874803543091e-01 -1.360120028257369995e-01
1.107000000000000000e+03 1.432629203796386719e+01 -1.652329635620117188e+01 -7.794277369976043701e-02 -5.407851934432983398e-01 -1.856183856725692749e-01 -1.157359778881072998e-01
1.108000000000000000e+03 5.156752109527587891e+00 -1.987981414794921875e+01 -8.459740318357944489e-03 -2.165869921445846558e-01 -6.751402467489242554e-02 -1.038250848650932312e-01
1.109000000000000000e+03 6.303154468536376953e+00 -2.255503463745117188e+01 1.176580786705017090e-02 -2.475359588861465454e-01 -7.073104381561279297e-02 -1.145888641476631165e-01
1.110000000000000000e+03 9.103180885314941406e+00 -2.648633193969726562e+01 5.310589447617530823e-02 -2.351467013359069824e-01 -5.461223796010017395e-02 -9.523365646600723267e-02
1.111000000000000000e+03 1.245216369628906250e+01 -2.138840484619140625e+01 2.918703481554985046e-02 -2.271301895380020142e-01 -5.938294529914855957e-02 -1.148241087794303894e-01
1.112000000000000000e+03 2.192788600921630859e+00 -2.341546440124511719e+01 2.573626814410090446e-03 -2.822557091712951660e-01 -8.390462398529052734e-02 -5.340337380766868591e-02
1.113000000000000000e+03 5.170084476470947266e+00 -2.215977478027343750e+01 5.843217950314283371e-03 -2.454490810632705688e-01 -7.188176363706588745e-02 -1.034567505121231079e-01
1.114000000000000000e+03 9.882634162902832031e+00 -2.873008346557617188e+01 5.843874439597129822e-02 -2.100733965635299683e-01 -4.549039900302886963e-02 -7.455697655677795410e-02
1.115000000000000000e+03 1.286461830139160156e+01 -2.367880249023437500e+01 7.588810473680496216e-02 -1.967832595109939575e-01 -3.626854345202445984e-02 -8.520302176475524902e-02
1.116000000000000000e+03 1.999160885810852051e+00 -2.902079200744628906e+01 4.084461834281682968e-03 -3.836362957954406738e-01 -1.138655543327331543e-01 -3.203019499778747559e-02
1.117000000000000000e+03 3.348289251327514648e+00 -2.898479461669921875e+01 1.066959649324417114e-02 -3.488829433917999268e-01 -1.014640033245086670e-01 -4.928796365857124329e-02
1.118000000000000000e+03 4.990913867950439453e+00 -3.147153282165527344e+01 1.907464861869812012e-02 -3.270147442817687988e-01 -9.238202869892120361e-02 -4.846971854567527771e-02
1.119000000000000000e+03 9.174198150634765625e+00 -3.325979232788085938e+01 4.102433100342750549e-02 -2.188130617141723633e-01 -5.333662033081054688e-02 -4.460331052541732788e-02
1.120000000000000000e+03 1.194848346710205078e+01 -2.760261154174804688e+01 7.400792092084884644e-02 -1.684298813343048096e-01 -2.832658961415290833e-02 -6.772053241729736328e-02
1.121000000000000000e+03 1.653336906433105469e+01 -2.875496101379394531e+01 7.642753422260284424e-02 -7.600741926580667496e-03 2.064803801476955414e-02 -4.820029437541961670e-02
1.122000000000000000e+03 2.018746376037597656e+00 -3.039578628540039062e+01 4.580107517540454865e-03 -4.015161395072937012e-01 -1.190808042883872986e-01 -2.791445888578891754e-02
1.123000000000000000e+03 4.844339370727539062e+00 -3.015603065490722656e+01 1.764281280338764191e-02 -3.241843283176422119e-01 -9.196245670318603516e-02 -5.464137718081474304e-02
1.124000000000000000e+03 7.139744281768798828e+00 -3.401664733886718750e+01 2.900142967700958252e-02 -2.755589187145233154e-01 -7.396724820137023926e-02 -4.148084297776222229e-02
1.125000000000000000e+03 1.292232990264892578e+01 -3.208510589599609375e+01 6.359206885099411011e-02 -1.190386489033699036e-01 -1.663397252559661865e-02 -4.281952977180480957e-02
1.126000000000000000e+03 1.641129493713378906e+01 -3.491093444824218750e+01 7.134053111076354980e-02 -1.055922266095876694e-02 1.823439262807369232e-02 -2.569260075688362122e-02
1.127000000000000000e+03 1.999133872985839844e+01 -3.199939727783203125e+01 1.040028706192970276e-01 7.451263070106506348e-02 5.355465039610862732e-02 -3.295735642313957214e-02
1.128000000000000000e+03 6.482905578613281250e+01 -3.094655036926269531e+01 -1.078222878277301788e-02 1.428345683962106705e-03 -2.806164789944887161e-03 4.690079018473625183e-03
1.129000000000000000e+03 6.937177276611328125e+01 -3.108392906188964844e+01 -3.737049875780940056e-03 3.990692493971437216e-04 -1.001394120976328850e-03 3.475906327366828918e-03
1.130000000000000000e+03 7.172264099121093750e+01 -3.208566665649414062e+01 -1.736162812449038029e-03 -7.253602962009608746e-04 -7.384569616988301277e-04 2.870542230084538460e-03
1.131000000000000000e+03 2.134119749069213867e+00 -3.581211853027343750e+01 5.662025418132543564e-03 -4.447788298130035400e-01 -1.317350417375564575e-01 -3.442441578954458237e-03
1.132000000000000000e+03 3.653219461441040039e+00 -3.437437057495117188e+01 1.237165089696645737e-02 -3.838670253753662109e-01 -1.114486157894134521e-01 -2.432330511510372162e-02
1.133000000000000000e+03 7.248980045318603516e+00 -3.585803985595703125e+01 2.181856706738471985e-02 -2.824860215187072754e-01 -7.820023596286773682e-02 -3.284925967454910278e-02
1.134000000000000000e+03 9.390044212341308594e+00 -3.834864425659179688e+01 3.150858357548713684e-02 -2.192462831735610962e-01 -5.632130801677703857e-02 -1.910432986915111542e-02
1.135000000000000000e+03 2.092436981201171875e+01 -3.500679016113281250e+01 1.006553471088409424e-01 1.047442182898521423e-01 6.161987036466598511e-02 6.568807177245616913e-03
1.136000000000000000e+03 2.290882873535156250e+01 -3.299973678588867188e+01 1.505701094865798950e-01 1.043569147586822510e-01 7.647810876369476318e-02 1.413813233375549316e-02
1.137000000000000000e+03 6.634739685058593750e+01 -3.626011276245117188e+01 2.847193507477641106e-03 -5.102136638015508652e-03 -6.764828576706349850e-04 9.543326683342456818e-03
1.138000000000000000e+03 7.406731414794921875e+01 -3.266066360473632812e+01 -8.204512414522469044e-04 -1.328974729403853416e-03 -6.448277854360640049e-04 2.118693199008703232e-03
1.139000000000000000e+03 7.581129074096679688e-01 -3.738957977294921875e+01 4.955620039254426956e-03 -4.880969524383544922e-01 -1.449424028396606445e-01 2.829796401783823967e-03
1.140000000000000000e+03 5.261807441711425781e+00 -3.582031631469726562e+01 1.567669585347175598e-02 -3.361724615097045898e-01 -9.614872932434082031e-02 -2.917455323040485382e-02
1.141000000000000000e+03 4.986516952514648438e+01 -3.801183700561523438e+01 3.842006623744964600e-02 8.665291219949722290e-02 3.752189502120018005e-02 -2.385097369551658630e-02
1.142000000000000000e+03 6.679466247558593750e+01 -3.877246856689453125e+01 6.352448835968971252e-03 -8.465044200420379639e-03 -6.337785162031650543e-04 5.504141096025705338e-03
1.143000000000000000e+03 7.028401947021484375e+01 -3.815491485595703125e+01 2.489570295438170433e-03 -4.614781122654676437e-03 -6.375631783157587051e-04 3.862629411742091179e-03
1.144000000000000000e+03 7.487825775146484375e+01 -3.779576110839843750e+01 5.316313472576439381e-04 -3.736990736797451973e-03 -9.616077877581119537e-04 1.607810729183256626e-03
1.145000000000000000e+03 7.563588714599609375e+01 -2.687627601623535156e+01 -1.787508663255721331e-04 -1.981774839805439115e-04 -1.130785021814517677e-04 2.763826632872223854e-04
1.146000000000000000e+03 7.220597839355468750e+01 -2.841043472290039062e+01 -1.551373396068811417e-03 -4.796645371243357658e-04 -6.093113915994763374e-04 7.716740947216749191e-04
1.147000000000000000e+03 7.580557250976562500e+01 -2.552949333190917969e+01 -4.616658843588083982e-04 -1.594030618434771895e-04 -1.863206853158771992e-04 8.301189518533647060e-05
1.148000000000000000e+03 6.941484069824218750e+01 -2.508924102783203125e+01 -7.876473828218877316e-04 -2.594354446046054363e-04 -3.141248598694801331e-04 -2.274673170177266002e-04
1.149000000000000000e+03 7.451264190673828125e+01 -2.104981231689453125e+01 1.897016190923750401e-04 -8.191839879145845771e-05 3.233496681787073612e-05 -2.116659379680640996e-05
1.150000000000000000e+03 4.416138839721679688e+01 -2.573608589172363281e+01 3.598645329475402832e-02 -5.400371551513671875e-02 -5.405178759247064590e-03 -1.821007877588272095e-01
1.151000000000000000e+03 4.452603912353515625e+01 -2.370900726318359375e+01 -3.254631161689758301e-02 -4.865821003913879395e-01 -1.557385176420211792e-01 -1.129300333559513092e-02
1.152000000000000000e+03 4.219649887084960938e+01 -2.824387359619140625e+01 4.254527390003204346e-02 4.685612320899963379e-01 1.533319503068923950e-01 -2.960973083972930908e-01
1.153000000000000000e+03 4.058356094360351562e+01 -2.429964637756347656e+01 2.131563723087310791e-01 8.530552983283996582e-01 3.198634982109069824e-01 -1.730013042688369751e-01
1.154000000000000000e+03 3.681607437133789062e+01 -2.184056472778320312e+01 4.983236491680145264e-01 2.692502737045288086e+00 9.572479128837585449e-01 3.345530629158020020e-01
1.155000000000000000e+03 4.521251678466796875e+01 -2.243899154663085938e+01 -2.161403745412826538e-02 -8.095285892486572266e-01 -2.493427842855453491e-01 2.690168470144271851e-02
1.156000000000000000e+03 3.901430511474609375e+01 -2.229105567932128906e+01 3.960874974727630615e-01 1.482784509658813477e+00 5.636616349220275879e-01 1.130543649196624756e-02
1.157000000000000000e+03 3.511934661865234375e+01 -1.218766403198242188e+01 1.587623238563537598e+00 4.313962757587432861e-01 6.057058572769165039e-01 6.256334483623504639e-02
1.158000000000000000e+03 4.270714187622070312e+01 -1.947434997558593750e+01 1.566387414932250977e-01 8.535014092922210693e-02 7.259666919708251953e-02 1.620057821273803711e-01
1.159000000000000000e+03 4.747501754760742188e+01 -1.426164531707763672e+01 -1.542728543281555176e-01 -1.430234499275684357e-02 -5.057255923748016357e-02 3.184924423694610596e-01
1.160000000000000000e+03 5.436774826049804688e+01 -1.359122085571289062e+01 -1.548898100852966309e+00 1.341626048088073730e-01 -4.244206547737121582e-01 7.464651018381118774e-02
1.161000000000000000e+03 5.465014648437500000e+01 -1.468251705169677734e+01 -1.983127951622009277e+00 1.508966088294982910e-02 -5.904114842414855957e-01 -1.470969915390014648e-01
1.162000000000000000e+03 5.558324050903320312e+01 -1.327783584594726562e+01 -1.581360697746276855e+00 1.178561672568321228e-01 -4.390513598918914795e-01 -4.754849150776863098e-02
1.163000000000000000e+03 5.856669235229492188e+01 -1.411681842803955078e+01 -1.852103948593139648e+00 1.008580066263675690e-02 -5.526054501533508301e-01 -3.787037730216979980e-01
1.164000000000000000e+03 5.933647918701171875e+01 -1.253992271423339844e+01 -1.784472942352294922e+00 1.409339606761932373e-01 -4.930616915225982666e-01 -4.391261637210845947e-01
1.165000000000000000e+03 6.851779937744140625e+01 -1.381994342803955078e+01 -5.100874304771423340e-01 2.533307485282421112e-02 -1.454263031482696533e-01 8.820967376232147217e-02
1.166000000000000000e+03 6.837335968017578125e+01 -1.472170448303222656e+01 -2.345773279666900635e-01 -9.251273237168788910e-03 -7.314857840538024902e-02 9.328017383813858032e-02
1.167000000000000000e+03 6.974819946289062500e+01 -1.463840770721435547e+01 -2.699753642082214355e-01 4.480199515819549561e-02 -6.755201518535614014e-02 4.902118071913719177e-02
1.168000000000000000e+03 7.278140258789062500e+01 -1.368892288208007812e+01 -2.521887123584747314e-01 2.387901581823825836e-02 -6.849290430545806885e-02 -1.025566160678863525e-01
1.169000000000000000e+03 7.358543395996093750e+01 -1.440757083892822266e+01 -1.704968363046646118e-01 1.085998490452766418e-02 -4.789105430245399475e-02 -6.943564116954803467e-02
1.170000000000000000e+03 7.432781982421875000e+01 -1.364592266082763672e+01 -1.852514296770095825e-01 3.920722287148237228e-03 -5.439921095967292786e-02 -1.045137569308280945e-01
1.171000000000000000e+03 7.592069244384765625e+01 -1.443109321594238281e+01 -7.604210823774337769e-02 -1.819519512355327606e-02 -2.827119082212448120e-02 -4.815829917788505554e-02
1.172000000000000000e+03 7.661384582519531250e+01 -1.452670192718505859e+01 -5.745630711317062378e-02 -1.663161255419254303e-02 -2.222637645900249481e-02 -3.512725234031677246e-02
1.173000000000000000e+03 7.835310363769531250e+01 -1.448119354248046875e+01 -1.424091681838035583e-02 -2.439886517822742462e-02 -1.159193459898233414e-02 -9.738504886627197266e-03
1.174000000000000000e+03 7.939817047119140625e+01 -1.144811916351318359e+01 -4.632661119103431702e-03 -6.695814430713653564e-02 -2.147724293172359467e-02 -3.146514669060707092e-02
1.175000000000000000e+03 7.897675323486328125e+01 -1.436987876892089844e+01 -2.606178168207406998e-03 -6.836127955466508865e-03 -2.832691883668303490e-03 2.556219929829239845e-03
1.176000000000000000e+03 7.964952087402343750e+01 -1.429773139953613281e+01 2.539442386478185654e-03 1.366989221423864365e-02 4.862800240516662598e-03 -4.965862899553030729e-05
1.177000000000000000e+03 7.492491149902343750e+01 4.014924240112304688e+01 -9.954608231782913208e-02 -4.499813020229339600e-01 -1.648582220077514648e-01 5.815019831061363220e-02
1.178000000000000000e+03 7.872843170166015625e+01 4.001996231079101562e+01 1.453077420592308044e-02 -6.804262399673461914e-01 -1.997686326503753662e-01 4.922708123922348022e-02
1.179000000000000000e+03 7.666622161865234375e+01 3.877630615234375000e+01 -2.760161831974983215e-02 -6.627963185310363770e-01 -2.071193903684616089e-01 1.085579916834831238e-01
1.180000000000000000e+03 7.911876678466796875e+01 3.478984451293945312e+01 -1.289515011012554169e-02 -9.841692447662353516e-01 -2.991193234920501709e-01 6.513050943613052368e-02
1.181000000000000000e+03 7.921267700195312500e+01 2.914277648925781250e+01 -5.125412717461585999e-03 -1.517966628074645996e+00 -4.569276273250579834e-01 9.398475289344787598e-02
1.182000000000000000e+03 7.924002838134765625e+01 2.774477767944335938e+01 2.247654832899570465e-03 -1.690070748329162598e+00 -5.063469409942626953e-01 9.690397977828979492e-02
1.183000000000000000e+03 7.929550933837890625e+01 2.215440368652343750e+01 2.450736472383141518e-03 -2.405964374542236328e+00 -7.210540771484375000e-01 8.687455207109451294e-02
1.184000000000000000e+03 7.789143371582031250e+01 2.071692085266113281e+01 2.011059410870075226e-02 -2.057132720947265625e+00 -6.111066341400146484e-01 2.099175602197647095e-01
1.185000000000000000e+03 7.932582855224609375e+01 1.794300460815429688e+01 1.100708730518817902e-02 -2.827289819717407227e+00 -8.448848128318786621e-01 5.327412486076354980e-02
1.186000000000000000e+03 7.800251007080078125e+01 1.647948265075683594e+01 3.747058659791946411e-02 -2.347883462905883789e+00 -6.931238770484924316e-01 9.176250547170639038e-02
1.187000000000000000e+03 7.935673522949218750e+01 1.092469310760498047e+01 2.142756944522261620e-03 -2.929633855819702148e+00 -8.782473206520080566e-01 -2.294995822012424469e-02
1.188000000000000000e+03 7.808071899414062500e+01 9.461022377014160156e+00 2.820433676242828369e-02 -2.315532684326171875e+00 -6.861984729766845703e-01 -1.172693371772766113e-01
1.189000000000000000e+03 7.810253143310546875e+01 6.663185119628906250e+00 2.703082747757434845e-02 -2.132063627243041992e+00 -6.315098404884338379e-01 -1.846887022256851196e-01
1.190000000000000000e+03 7.937295532226562500e+01 3.917848110198974609e+00 2.203277545049786568e-03 -2.265278816223144531e+00 -6.789226531982421875e-01 -8.046995103359222412e-02
1.191000000000000000e+03 7.812886047363281250e+01 2.475943088531494141e+00 1.430484745651483536e-02 -1.706476092338562012e+00 -5.076513886451721191e-01 -2.631050050258636475e-01
1.192000000000000000e+03 7.939806365966796875e+01 -3.057527780532836914e+00 3.324093529954552650e-03 -1.120830774307250977e+00 -3.352520167827606201e-01 -9.965900331735610962e-02
1.193000000000000000e+03 7.820217132568359375e+01 -4.409266948699951172e+00 -5.121016409248113632e-03 -7.965938448905944824e-01 -2.405144572257995605e-01 -2.762248516082763672e-01
1.194000000000000000e+03 7.822411346435546875e+01 -7.140680313110351562e+00 -1.864510215818881989e-02 -4.619123637676239014e-01 -1.441672444343566895e-01 -2.238099873065948486e-01
1.195000000000000000e+03 7.820372009277343750e+01 -1.120760536193847656e+01 -4.144764691591262817e-02 -1.245107576251029968e-01 -4.978752136230468750e-02 -9.673074632883071899e-02
1.196000000000000000e+03 4.038990736007690430e-01 2.200756549835205078e+00 5.627004793495871127e-05 1.280417109228437766e-05 2.072226561722345650e-05 2.832447080436395481e-06
1.197000000000000000e+03 5.511195659637451172e-01 5.026076316833496094e+00 6.972217670409008861e-05 1.614714165043551475e-05 2.576079532445874065e-05 -9.355980182590428740e-06
1.198000000000000000e+03 1.884911060333251953e+00 6.489876270294189453e+00 1.157115548267029226e-04 3.617783295339904726e-05 4.556681597023271024e-05 -6.489262887043878436e-05
1.199000000000000000e+03 1.741871356964111328e+00 9.451036453247070312e+00 1.822412887122482061e-04 9.239991049980744720e-05 8.239236194640398026e-05 -7.921926589915528893e-05
1.200000000000000000e+03 6.051267981529235840e-01 1.214844417572021484e+01 -1.552096946397796273e-04 3.341075789649039507e-04 5.366936966311186552e-05 -6.591979763470590115e-05
1.201000000000000000e+03 1.803198814392089844e+00 1.221850872039794922e+01 2.002940163947641850e-04 2.110969653585925698e-04 1.234172959811985493e-04 -1.394649734720587730e-04
1.202000000000000000e+03 1.820976257324218750e+00 1.651313781738281250e+01 -2.379245124757289886e-04 4.755583067890256643e-04 7.129013101803138852e-05 -1.923009549500420690e-04
1.203000000000000000e+03 1.749005436897277832e+00 1.932735633850097656e+01 -3.500582533888518810e-04 5.671572871506214142e-04 6.512971594929695129e-05 -6.962128827581182122e-05
1.204000000000000000e+03 6.071721315383911133e-01 2.203845405578613281e+01 2.258595050079748034e-04 1.010580104775726795e-03 3.709318989422172308e-04 1.296652044402435422e-04
1.205000000000000000e+03 6.421934962272644043e-01 2.485439109802246094e+01 2.046370354946702719e-04 2.076145392493344843e-05 6.761954864487051964e-05 3.653567691799253225e-04
1.206000000000000000e+03 6.588793396949768066e-01 2.626777648925781250e+01 -3.261398815084248781e-04 -8.734755683690309525e-04 -3.598846378736197948e-04 4.619534593075513840e-04
1.207000000000000000e+03 6.872593760490417480e-01 2.909969139099121094e+01 -3.105558571405708790e-04 -3.387616714462637901e-03 -1.109451754018664360e-03 6.956591969355940819e-04
1.208000000000000000e+03 2.064635753631591797e+00 2.915893554687500000e+01 8.170452929334715009e-05 -3.956547472625970840e-03 -1.162452856078743935e-03 2.069996437057852745e-03
1.209000000000000000e+03 7.207092642784118652e-01 3.334219360351562500e+01 3.335194778628647327e-04 -8.264752104878425598e-03 -2.379369689151644707e-03 8.857501670718193054e-04
1.210000000000000000e+03 7.166768312454223633e-01 3.610554122924804688e+01 2.924282453022897243e-04 -1.103086117655038834e-02 -3.221529768779873848e-03 6.013016682118177414e-04
1.211000000000000000e+03 1.181528806686401367e+00 4.013959121704101562e+01 -1.504732208559289575e-04 -1.320478599518537521e-02 -4.006577655673027039e-03 3.598371404223144054e-04
1.212000000000000000e+03 9.660771369934082031e+00 1.830779671669006348e+00 3.396463216631673276e-05 2.163355566153768450e-05 1.667945616645738482e-05 4.790315870195627213e-06
1.213000000000000000e+03 8.898162841796875000e+00 1.833070158958435059e+00 1.705149225017521530e-05 -2.921625673479866236e-05 -3.649429572760709561e-06 4.975981028110254556e-06
1.214000000000000000e+03 5.079369544982910156e+00 1.887264013290405273e+00 2.941519960586447269e-05 2.293463694513775408e-05 1.570495078340172768e-05 -1.738884748192504048e-05
1.215000000000000000e+03 1.987309217453002930e+00 2.117538452148437500e+00 -5.026070084568345919e-06 4.371249815449118614e-05 1.160592819360317662e-05 -2.914761353167705238e-05
1.216000000000000000e+03 1.202759981155395508e+00 2.172918319702148438e+00 -9.886336556519381702e-06 -2.845403105311561376e-05 -1.150211028289049864e-05 8.591471669205930084e-06
1.217000000000000000e+03 1.123903942108154297e+01 2.498460292816162109e+00 6.244037649594247341e-06 -2.367001070524565876e-05 -5.227791916695423424e-06 1.208791763929184526e-05
1.218000000000000000e+03 1.263190746307373047e+01 1.838846564292907715e+00 2.058533027593512088e-05 2.461355870764236897e-05 1.355966651317430660e-05 7.791532880219165236e-06
1.219000000000000000e+03 1.555578804016113281e+01 1.902382135391235352e+00 7.572123649879358709e-06 2.717629467952065170e-05 1.042452549882000312e-05 3.961637048632837832e-06
1.220000000000000000e+03 1.699426460266113281e+01 1.998464226722717285e+00 6.520777787955012172e-06 2.653206138347741216e-05 9.915851478581316769e-06 2.392450141996960156e-06
1.221000000000000000e+03 1.841623497009277344e+01 2.124079942703247070e+00 4.799240741704124957e-06 2.484879769326653332e-05 8.894411621440667659e-06 2.588575114259583643e-07
1.222000000000000000e+03 2.049329566955566406e+01 2.471666336059570312e+00 -4.380568498163484037e-06 -1.934106512635480613e-05 -7.116489996406016871e-06 -7.110254500730661675e-07
1.223000000000000000e+03 2.118067932128906250e+01 2.592161178588867188e+00 8.102527999653830193e-07 1.845230872277170420e-05 5.778768354502972215e-06 -2.201723191319615580e-06
1.224000000000000000e+03 2.292539024353027344e+01 4.027799606323242188e+00 -1.075696036423323676e-05 -8.132992661558091640e-06 -5.666985998686868697e-06 -4.503111540543613955e-06
1.225000000000000000e+03 2.345988845825195312e+01 3.539875984191894531e+00 -2.048121314146555960e-05 -7.980706868693232536e-06 -8.538576366845518351e-06 -1.628065729164518416e-05
1.226000000000000000e+03 2.364665794372558594e+01 3.248914957046508789e+00 -5.220189791543816682e-07 7.286959771590773016e-06 2.029482175203156658e-06 7.371000720013398677e-06
1.227000000000000000e+03 2.182552909851074219e+01 2.722041368484497070e+00 1.758204234647564590e-06 -2.193500222347211093e-05 -6.053039214748423547e-06 -2.783030367936589755e-06
1.228000000000000000e+03 2.205485725402832031e+01 4.840780258178710938e+00 1.466768935642903671e-05 2.571492768765892833e-05 1.211478502227691934e-05 2.180328374379314482e-05
1.229000000000000000e+03 2.143729019165039062e+01 5.325683593750000000e+00 1.952110687852837145e-05 2.710524313442874700e-05 1.398790573148289695e-05 2.331789073650725186e-05
1.230000000000000000e+03 2.017420578002929688e+01 6.372799873352050781e+00 3.458333230810239911e-05 1.349310423393035308e-05 1.442293159925611690e-05 2.643914012878667563e-05
1.231000000000000000e+03 1.986413574218750000e+01 6.632470607757568359e+00 -3.317791197332553566e-05 -1.971369601960759610e-05 -1.586748294357676059e-05 -1.709426032903138548e-05
1.232000000000000000e+03 1.870235824584960938e+01 7.746471881866455078e+00 -4.544027979136444628e-05 -2.225669049948919564e-05 -2.030909126915503293e-05 -2.555274113547056913e-05
1.233000000000000000e+03 1.785197639465332031e+01 8.600794792175292969e+00 5.060251351096667349e-05 1.677977888903114945e-05 2.021468753810040653e-05 2.912453965109307319e-05
1.234000000000000000e+03 1.758070755004882812e+01 8.892500877380371094e+00 -5.617325950879603624e-05 -1.008025083137908950e-05 -1.987605355679988861e-05 -2.825406045303680003e-05
1.235000000000000000e+03 1.732138824462890625e+01 9.192727088928222656e+00 5.593798778136260808e-05 2.367639353906270117e-05 2.388431494182441384e-05 2.315545680176001042e-05
1.236000000000000000e+03 1.707506942749023438e+01 9.503864288330078125e+00 -5.322482320480048656e-05 -1.636387736425604089e-07 -1.601653821126092225e-05 -3.414227103348821402e-05
1.237000000000000000e+03 1.662093925476074219e+01 1.014970302581787109e+01 -5.417042484623380005e-05 -4.984283350495388731e-06 -1.774641350493766367e-05 -5.225946370046585798e-05
1.238000000000000000e+03 1.548242568969726562e+01 1.180807590484619141e+01 1.185122891911305487e-04 2.456094371154904366e-04 1.092365200747735798e-04 -1.026291283778846264e-05
1.239000000000000000e+03 1.465958309173583984e+01 1.540226459503173828e+01 -1.716760016279295087e-04 1.258495147339999676e-03 3.260457306168973446e-04 9.706943092169240117e-05
1.240000000000000000e+03 1.468276214599609375e+01 1.580909252166748047e+01 2.123176673194393516e-04 1.366683165542781353e-03 4.737002600450068712e-04 9.684953693067654967e-05
1.241000000000000000e+03 1.472104072570800781e+01 1.660965156555175781e+01 2.352023730054497719e-04 1.689823926426470280e-03 5.775078898295760155e-04 9.188842523144558072e-05
1.242000000000000000e+03 1.475141429901123047e+01 1.818726539611816406e+01 3.467030765023082495e-04 2.679419005289673805e-03 9.078365983441472054e-04 1.534383482066914439e-04
1.243000000000000000e+03 1.486914443969726562e+01 1.934228706359863281e+01 -5.943025462329387665e-04 2.214243868365883827e-03 4.859823966398835182e-04 2.806928823702037334e-04
1.244000000000000000e+03 1.644299507141113281e+01 2.084234619140625000e+01 -7.919355295598506927e-03 -1.858072355389595032e-03 -2.933228388428688049e-03 -4.546889569610357285e-03
1.245000000000000000e+03 1.642355537414550781e+01 2.132768440246582031e+01 -1.286550797522068024e-02 -3.323040436953306198e-04 -3.959343768656253815e-03 -2.742663724347949028e-03
1.246000000000000000e+03 1.707442474365234375e+01 2.135067749023437500e+01 -1.715683564543724060e-02 -1.747396425344049931e-03 -5.671269726008176804e-03 -4.068547859787940979e-03
1.247000000000000000e+03 1.991183090209960938e+01 2.207395362854003906e+01 -3.773568570613861084e-02 -6.716881762258708477e-04 -1.152221206575632095e-02 -3.239772515371441841e-03
1.248000000000000000e+03 2.396531105041503906e+01 2.195468711853027344e+01 -8.195526152849197388e-02 -5.406196694821119308e-03 -2.620843797922134399e-02 1.739683933556079865e-02
1.249000000000000000e+03 2.436772918701171875e+01 2.188248443603515625e+01 -8.592735230922698975e-02 -4.743560217320919037e-03 -2.720127440989017487e-02 1.995458453893661499e-02
1.250000000000000000e+03 2.476665115356445312e+01 2.180523681640625000e+01 -8.951770514249801636e-02 -6.774233188480138779e-03 -2.888758108019828796e-02 2.147996611893177032e-02
1.251000000000000000e+03 2.633831596374511719e+01 2.139792060852050781e+01 -1.011093854904174805e-01 -1.250385772436857224e-02 -3.408397361636161804e-02 3.223277255892753601e-02
1.252000000000000000e+03 2.714536285400390625e+01 2.117591094970703125e+01 -1.091243997216224670e-01 -1.491568982601165771e-02 -3.721202909946441650e-02 3.789037466049194336e-02
1.253000000000000000e+03 2.827879714965820312e+01 2.071908950805664062e+01 -1.332924813032150269e-01 -4.242202267050743103e-02 -5.271435156464576721e-02 6.578291952610015869e-02
1.254000000000000000e+03 2.957287216186523438e+01 1.965849304199218750e+01 -6.078227609395980835e-02 -8.116365969181060791e-02 -4.258378222584724426e-02 6.511442363262176514e-02
1.255000000000000000e+03 3.018868827819824219e+01 1.857221603393554688e+01 -2.931891754269599915e-02 -6.420422345399856567e-02 -2.805694192647933960e-02 4.106651991605758667e-02
1.256000000000000000e+03 3.037981033325195312e+01 1.821311378479003906e+01 -2.342566102743148804e-02 -6.038897857069969177e-02 -2.514439076185226440e-02 3.694894909858703613e-02
1.257000000000000000e+03 3.056694984436035156e+01 1.785420799255371094e+01 -2.016074396669864655e-02 -5.626797303557395935e-02 -2.292861416935920715e-02 3.141407296061515808e-02
1.258000000000000000e+03 3.090146446228027344e+01 1.712367439270019531e+01 -1.223158743232488632e-02 -4.462060332298278809e-02 -1.705565676093101501e-02 2.193369902670383453e-02
1.259000000000000000e+03 3.169683074951171875e+01 1.485686111450195312e+01 -3.516541793942451477e-03 -1.480454206466674805e-02 -5.496324971318244934e-03 6.969104520976543427e-03
1.260000000000000000e+03 3.184904861450195312e+01 1.573427009582519531e+01 -8.846266195178031921e-03 -1.944643072783946991e-02 -8.487808518111705780e-03 1.451275683939456940e-02
1.261000000000000000e+03 3.256762695312500000e+01 1.210126781463623047e+01 -6.332512712106108665e-04 -1.034337619785219431e-04 -2.210055099567398429e-04 1.095304731279611588e-03
1.262000000000000000e+03 3.263854598999023438e+01 1.170358276367187500e+01 -7.330751977860927582e-04 8.596061961725354195e-04 3.795929660554975271e-05 2.954424126073718071e-04
1.263000000000000000e+03 3.292964553833007812e+01 1.011593818664550781e+01 -1.704352616798132658e-04 2.369934692978858948e-03 6.598498439416289330e-04 -3.327227314002811909e-04
1.264000000000000000e+03 3.348503494262695312e+01 5.310446739196777344e+00 -1.066524884663522243e-03 2.294847508892416954e-04 -2.511120401322841644e-04 2.155555921490304172e-05
1.265000000000000000e+03 3.349483489990234375e+01 4.122018337249755859e+00 1.376177882775664330e-03 -8.103710570139810443e-05 3.885422192979604006e-04 -3.830038258456625044e-05
1.266000000000000000e+03 3.350708770751953125e+01 3.713356971740722656e+00 -1.048619276843965054e-03 9.531372052151709795e-05 -2.859916421584784985e-04 2.252624981338158250e-04
1.267000000000000000e+03 3.424322128295898438e+01 2.022726774215698242e+00 9.485448390478268266e-05 -5.035666399635374546e-04 -1.226136373588815331e-04 7.075704343151301146e-05
1.268000000000000000e+03 3.343651962280273438e+01 2.092813014984130859e+00 2.725806261878460646e-04 3.770473704207688570e-04 1.948884018929675221e-04 -4.118759534321725368e-04
1.269000000000000000e+03 3.358474349975585938e+01 2.327900171279907227e+00 -5.596806295216083527e-04 -3.494962584227323532e-04 -2.727530663833022118e-04 4.759081348311156034e-04
1.270000000000000000e+03 3.378815460205078125e+01 1.995760321617126465e+00 -4.042889340780675411e-04 2.769638376776129007e-04 -3.819753328571096063e-05 9.872869122773408890e-05
1.271000000000000000e+03 3.444089889526367188e+01 2.014813184738159180e+00 4.068660491611808538e-04 6.139443139545619488e-04 3.062431060243397951e-04 -7.616688526468351483e-05
1.272000000000000000e+03 3.460612869262695312e+01 1.980190753936767578e+00 -2.336595644010230899e-04 1.671976133366115391e-05 -6.508194201160222292e-05 -5.461741238832473755e-05
1.273000000000000000e+03 3.650008010864257812e+01 3.111873626708984375e+00 3.074663109146058559e-04 -1.210767004522494972e-04 5.591688386630266905e-05 2.914995711762458086e-04
1.274000000000000000e+03 3.808039474487304688e+01 2.942909717559814453e+00 2.145073085557669401e-04 9.161561320070177317e-05 9.183687507174909115e-05 1.646114105824381113e-04
1.275000000000000000e+03 3.927138900756835938e+01 4.731362819671630859e+00 5.815488984808325768e-04 -2.749866507656406611e-05 1.662150607444345951e-04 1.306732592638581991e-04
1.276000000000000000e+03 3.916942977905273438e+01 6.695647239685058594e+00 -1.639664871618151665e-03 -1.089492579922080040e-04 -5.245842621661722660e-04 1.154359895735979080e-03
1.277000000000000000e+03 4.191939163208007812e+01 1.272955799102783203e+01 -7.933281362056732178e-03 -5.595301743596792221e-03 -4.058574791997671127e-03 -9.704416617751121521e-03
1.278000000000000000e+03 4.269025421142578125e+01 1.514518451690673828e+01 -3.669621422886848450e-02 -7.773076649755239487e-03 -1.334078796207904816e-02 -1.588449068367481232e-02
1.279000000000000000e+03 4.602944564819335938e+01 1.709322738647460938e+01 -7.277588546276092529e-02 -2.534736506640911102e-02 -2.943697571754455566e-02 -5.002585798501968384e-02
1.280000000000000000e+03 4.711578750610351562e+01 1.795825958251953125e+01 -9.400921314954757690e-02 -4.306804016232490540e-02 -4.112317785620689392e-02 -5.426846444606781006e-02
1.281000000000000000e+03 5.064945220947265625e+01 2.020509910583496094e+01 -1.168209910392761230e-01 -2.368737384676933289e-02 -4.215250909328460693e-02 -7.019190490245819092e-02
1.282000000000000000e+03 5.330007171630859375e+01 2.110367584228515625e+01 5.258782301098108292e-03 2.966951346024870872e-03 2.467720303684473038e-03 -6.572011113166809082e-02
1.283000000000000000e+03 5.606430816650390625e+01 2.167660903930664062e+01 3.874252140522003174e-01 5.341002345085144043e-02 1.322505772113800049e-01 -1.332513391971588135e-01
1.284000000000000000e+03 6.268709564208984375e+01 1.509695720672607422e+01 2.140711247920989990e-01 4.688320159912109375e+00 1.470717430114746094e+00 -1.382241696119308472e-01
1.285000000000000000e+03 6.232616424560546875e+01 1.212250804901123047e+01 1.498802304267883301e-01 4.641222476959228516e+00 1.437330722808837891e+00 4.200163483619689941e-01
1.286000000000000000e+03 6.178966140747070312e+01 9.448929786682128906e+00 4.246791899204254150e-01 4.658202648162841797e+00 1.524864554405212402e+00 9.400219321250915527e-01
1.287000000000000000e+03 5.635386657714843750e+01 -6.728150248527526855e-01 1.458494067192077637e+00 2.339239120483398438e+00 1.139319896697998047e+00 1.737475395202636719e+00
1.288000000000000000e+03 4.776197433471679688e+01 -5.019514560699462891e+00 -6.392752528190612793e-01 -1.992494761943817139e-01 -2.515574097633361816e-01 5.369468331336975098e-01
1.289000000000000000e+03 4.508731842041015625e+01 -4.219569206237792969e+00 -2.189507961273193359e+00 -3.733074963092803955e-01 -7.688446640968322754e-01 9.524567127227783203e-01
1.290000000000000000e+03 4.255583572387695312e+01 -3.418788433074951172e+00 -3.455551385879516602e+00 -1.326725006103515625e+00 -1.434682965278625488e+00 1.876181364059448242e+00
1.291000000000000000e+03 3.724112701416015625e+01 -9.452405571937561035e-01 -1.994651913642883301e+00 4.244700968265533447e-01 -4.710545241832733154e-01 5.310672521591186523e-01
1.292000000000000000e+03 3.671967315673828125e+01 -1.605470538139343262e+00 -2.192137479782104492e+00 5.517728924751281738e-01 -4.921093881130218506e-01 5.222557783126831055e-01
1.293000000000000000e+03 3.518980407714843750e+01 -1.773118138313293457e+00 -2.573941946029663086e+00 5.568136572837829590e-01 -6.051384806632995605e-01 2.820435464382171631e-01
1.294000000000000000e+03 3.485507583618164062e+01 -1.344607234001159668e+00 -2.929556369781494141e+00 5.110018253326416016e-01 -7.255663871765136719e-01 1.834029145538806915e-02
1.295000000000000000e+03 3.419601058959960938e+01 -1.647105693817138672e+00 -3.107784271240234375e+00 2.281679213047027588e-01 -8.638849258422851562e-01 2.692843377590179443e-01
1.296000000000000000e+03 3.134101295471191406e+01 -1.617349624633789062e+00 -3.255529165267944336e+00 3.408500254154205322e-01 -8.744037151336669922e-01 -1.579713374376296997e-01
1.297000000000000000e+03 3.116732406616210938e+01 -1.611879110336303711e+00 -3.293190240859985352e+00 3.594104945659637451e-01 -8.801339864730834961e-01 -1.279477328062057495e-01
1.298000000000000000e+03 2.938873672485351562e+01 -1.845317482948303223e+00 -2.832787752151489258e+00 1.519168019294738770e-01 -8.042612671852111816e-01 -2.291554361581802368e-01
1.299000000000000000e+03 2.660337257385253906e+01 -2.146172046661376953e+00 -2.067481279373168945e+00 -3.298677802085876465e-01 -7.192047238349914551e-01 -5.461855530738830566e-01
1.300000000000000000e+03 2.277057838439941406e+01 -6.636402010917663574e-01 -1.117679834365844727e+00 2.314969003200531006e-01 -2.658548653125762939e-01 -8.408583700656890869e-02
1.301000000000000000e+03 2.042828941345214844e+01 -1.232176184654235840e+00 -8.218685388565063477e-01 -7.286104839295148849e-03 -2.487463951110839844e-01 -2.457643300294876099e-01
1.302000000000000000e+03 1.728585815429687500e+01 -1.659381270408630371e+00 -5.382324457168579102e-01 -6.740697473287582397e-02 -1.816918253898620605e-01 -2.575556933879852295e-01
1.303000000000000000e+03 1.650217628479003906e+01 -1.707715153694152832e+00 -4.720158874988555908e-01 -6.392410397529602051e-02 -1.607819944620132446e-01 -2.404861897230148315e-01
1.304000000000000000e+03 1.341828155517578125e+01 -1.819956064224243164e+00 -2.590449452400207520e-01 -3.747826069593429565e-02 -8.895695954561233521e-02 -1.485227644443511963e-01
1.305000000000000000e+03 1.495305824279785156e+01 -1.761562824249267578e+00 -3.584208786487579346e-01 -5.126748979091644287e-02 -1.229065060615539551e-01 -1.944453716278076172e-01
1.306000000000000000e+03 1.190034484863281250e+01 -1.860699892044067383e+00 -1.784382462501525879e-01 -2.767101116478443146e-02 -6.183277815580368042e-02 -1.100229546427726746e-01
1.307000000000000000e+03 8.865137100219726562e+00 -2.566722869873046875e+00 -7.299190014600753784e-02 -2.811139822006225586e-02 -3.033098950982093811e-02 -6.710446625947952271e-02
1.308000000000000000e+03 8.085982322692871094e+00 -1.861636519432067871e+00 -5.207558348774909973e-02 -1.439940929412841797e-02 -1.994249783456325531e-02 -3.944563493132591248e-02
1.309000000000000000e+03 4.182933807373046875e+00 -1.889671206474304199e+00 -6.722107529640197754e-03 -5.242886487394571304e-03 -3.589498111978173256e-03 -3.986286930739879608e-03
1.310000000000000000e+03 2.752153396606445312e+00 -1.818688631057739258e+00 -8.936574449762701988e-04 -2.163649536669254303e-03 -9.171920828521251678e-04 2.808172721415758133e-03
1.311000000000000000e+03 2.039475202560424805e+00 -1.960841655731201172e+00 -5.152666708454489708e-04 -1.313440036028623581e-03 -5.486120353452861309e-04 4.323875997215509415e-03
1.312000000000000000e+03 5.093070983886718750e+00 -4.032570266723632812e+01 5.810849834233522415e-03 -3.633731901645660400e-01 -1.072687059640884399e-01 -1.726182922720909119e-02
1.313000000000000000e+03 9.403423070907592773e-01 -3.872330474853515625e+01 -2.392722060903906822e-03 -4.823967218399047852e-01 -1.454368382692337036e-01 3.382232738658785820e-03
1.314000000000000000e+03 6.869035959243774414e-01 -3.325259017944335938e+01 2.045916393399238586e-03 -4.779029488563537598e-01 -1.427571028470993042e-01 -5.402492824941873550e-03
1.315000000000000000e+03 6.766498088836669922e-01 -3.185602378845214844e+01 1.340901508228853345e-04 -4.642874896526336670e-01 -1.392460316419601440e-01 -7.834875024855136871e-03
1.316000000000000000e+03 6.627078056335449219e-01 -2.905268478393554688e+01 8.934093057177960873e-04 -4.239743351936340332e-01 -1.269242763519287109e-01 -1.158156152814626694e-02
1.317000000000000000e+03 6.890034079551696777e-01 -2.624572181701660156e+01 1.240025623701512814e-03 -3.668666481971740723e-01 -1.096879914402961731e-01 -1.564074121415615082e-02
1.318000000000000000e+03 2.242289543151855469e+00 -2.193239974975585938e+01 5.978880217298865318e-04 -2.509730458259582520e-01 -7.511255145072937012e-02 -5.602016672492027283e-02
1.319000000000000000e+03 2.121096611022949219e+00 -1.899133110046386719e+01 -2.954625757411122322e-03 -1.904399394989013672e-01 -5.801837146282196045e-02 -5.140363797545433044e-02
1.320000000000000000e+03 6.490787267684936523e-01 -1.628297615051269531e+01 -1.516981399618089199e-03 -1.154268607497215271e-01 -3.508315235376358032e-02 -1.381796039640903473e-02
1.321000000000000000e+03 1.869462728500366211e+00 -1.474358081817626953e+01 -4.131237044930458069e-03 -1.087587624788284302e-01 -3.386699780821800232e-02 -3.216759860515594482e-02
1.322000000000000000e+03 1.747867107391357422e+00 -1.196841907501220703e+01 -2.843474503606557846e-03 -6.763845682144165039e-02 -2.114458009600639343e-02 -2.175988443195819855e-02
1.323000000000000000e+03 5.548663735389709473e-01 -9.268095970153808594e+00 -2.786505501717329025e-04 -1.254722662270069122e-02 -3.847763175144791603e-03 -4.873600322753190994e-03
1.324000000000000000e+03 1.884250164031982422e+00 -5.292775154113769531e+00 -3.666882636025547981e-03 -1.016854960471391678e-02 -4.150629509240388870e-03 -5.440237931907176971e-03
1.325000000000000000e+03 7.966436767578125000e+01 -1.863401794433593750e+01 -7.329734944505617023e-05 1.241538484464399517e-05 -1.826459083531517535e-05 -1.397072537656640634e-05
1.326000000000000000e+03 7.944799804687500000e+01 -2.277281761169433594e+01 9.195152233587577939e-05 2.791969745885580778e-04 1.113445468945428729e-04 -3.230370930396020412e-05
1.327000000000000000e+03 7.833324432373046875e+01 -2.281788063049316406e+01 -1.333614927716553211e-04 1.342039613518863916e-04 2.527378342165320646e-07 -1.028036931529641151e-04
1.328000000000000000e+03 7.939365386962890625e+01 -2.685495948791503906e+01 -1.528214197605848312e-04 3.789441834669560194e-04 6.783683056710287929e-05 2.085583400912582874e-05
1.329000000000000000e+03 7.817277526855468750e+01 -2.687926101684570312e+01 7.896873285062611103e-05 9.697960194898769259e-05 5.278450043988414109e-05 8.904461719794198871e-05
1.330000000000000000e+03 7.932966613769531250e+01 -3.091265296936035156e+01 1.580764073878526688e-04 -2.548359625507146120e-04 -2.902786582126282156e-05 1.889962732093408704e-04
1.331000000000000000e+03 7.786721801757812500e+01 -3.219698333740234375e+01 9.037642303155735135e-05 -9.895084658637642860e-04 -2.697396266739815474e-04 7.373816333711147308e-04
1.332000000000000000e+03 7.918113708496093750e+01 -3.498648071289062500e+01 -8.986896864371374249e-05 -1.876951777376234531e-03 -5.900462274439632893e-04 3.083953342866152525e-04
1.333000000000000000e+03 7.731577301025390625e+01 -3.630165100097656250e+01 1.563036312290932983e-05 -2.692305715754628181e-03 -8.030026219785213470e-04 9.268189314752817154e-04
1.334000000000000000e+03 7.913542938232421875e+01 -3.903163528442382812e+01 3.802470746450126171e-04 -3.323065117001533508e-03 -8.828453719615936279e-04 1.209410038427449763e-04
1.335000000000000000e+03 7.678974914550781250e+01 -2.033013343811035156e+01 9.578386197972577065e-06 -8.480859105475246906e-05 -2.256906191178131849e-05 -9.198128100251778960e-05
1.336000000000000000e+03 7.705675506591796875e+01 -1.838808822631835938e+01 1.362020702799782157e-05 -1.273861289519118145e-05 2.644780749960773392e-07 -5.641545794787816703e-05
1.337000000000000000e+03 7.641318511962890625e+01 -1.832702636718750000e+01 8.333852747455239296e-05 1.281183995160972700e-05 2.884511013689916581e-05 -5.446547584142535925e-05
1.338000000000000000e+03 7.357734680175781250e+01 -1.819810295104980469e+01 1.877189934020861983e-04 -2.721421515161637217e-05 4.815143256564624608e-05 2.885300636989995837e-05
1.339000000000000000e+03 7.501666259765625000e+01 -1.820893669128417969e+01 1.428807881893590093e-04 -1.824319951992947608e-05 3.739127714652568102e-05 -1.469880658078182023e-06
1.340000000000000000e+03 7.214395904541015625e+01 -1.824943733215332031e+01 1.699888089206069708e-04 -1.001520831778179854e-05 4.799207817995920777e-05 4.397085649543441832e-05
1.341000000000000000e+03 6.950991058349609375e+01 -1.951850128173828125e+01 2.004515554290264845e-04 2.749482810031622648e-04 1.426199451088905334e-04 2.127829357050359249e-04
1.342000000000000000e+03 6.567185211181640625e+01 -2.530099487304687500e+01 -3.986379888374358416e-04 3.066262870561331511e-04 -2.760350798780564219e-05 -8.296598389279097319e-05
1.343000000000000000e+03 6.147092056274414062e+01 -2.909683418273925781e+01 -1.629576273262500763e-02 -1.075335196219384670e-03 -5.211329553276300430e-03 -3.292144043371081352e-03
1.344000000000000000e+03 5.729489135742187500e+01 -3.072389411926269531e+01 -6.203718855977058411e-02 -2.825960516929626465e-03 -1.945894584059715271e-02 4.102071747183799744e-03
1.345000000000000000e+03 5.255344772338867188e+01 -3.214536666870117188e+01 -5.958784371614456177e-02 -1.869597658514976501e-02 -2.348514646291732788e-02 3.265208750963211060e-02
1.346000000000000000e+03 5.288898849487304688e+01 -3.056837081909179688e+01 -1.322675645351409912e-01 -8.732575923204421997e-03 -4.230004176497459412e-02 2.904320694506168365e-02
1.347000000000000000e+03 4.543068695068359375e+01 -2.465213012695312500e+01 -7.541716098785400391e-02 -6.970810890197753906e-01 -2.317494601011276245e-01 6.716711819171905518e-02
1.348000000000000000e+03 4.411926269531250000e+01 -2.030248260498046875e+01 1.020302474498748779e-01 -2.739060819149017334e-01 -5.156274884939193726e-02 1.356043815612792969e-01
1.349000000000000000e+03 4.468938827514648438e+01 -2.076229476928710938e+01 5.743109062314033508e-02 -5.160591006278991699e-01 -1.375883966684341431e-01 1.042736694216728210e-01
1.350000000000000000e+03 4.432991409301757812e+01 -1.846045112609863281e+01 7.380239665508270264e-02 -3.222953379154205322e-01 -7.454788684844970703e-02 2.440838813781738281e-01
1.351000000000000000e+03 4.305880355834960938e+01 -1.752501487731933594e+01 2.531632035970687866e-02 -1.530772149562835693e-01 -3.832826763391494751e-02 2.271986007690429688e-01
1.352000000000000000e+03 4.189475250244140625e+01 -1.663559150695800781e+01 -9.960982203483581543e-02 1.160361096262931824e-01 4.927885718643665314e-03 1.435211896896362305e-01
1.353000000000000000e+03 4.055311584472656250e+01 -1.639032554626464844e+01 -1.622753143310546875e-01 7.638004422187805176e-01 1.804575324058532715e-01 -3.300870954990386963e-02
1.354000000000000000e+03 3.902005767822265625e+01 -1.447092151641845703e+01 -3.581797778606414795e-01 1.781038284301757812e+00 4.268575310707092285e-01 -5.714220404624938965e-01
1.355000000000000000e+03 3.868952941894531250e+01 -1.421483230590820312e+01 -4.080392122268676758e-01 2.273687601089477539e+00 5.596945285797119141e-01 -7.762889266014099121e-01
1.356000000000000000e+03 3.852292633056640625e+01 -1.410770988464355469e+01 -4.879395663738250732e-01 2.509765148162841797e+00 6.065476536750793457e-01 -8.384342193603515625e-01
1.357000000000000000e+03 3.837654495239257812e+01 -1.399600410461425781e+01 -5.082137584686279297e-01 2.737999439239501953e+00 6.689357161521911621e-01 -8.696101307868957520e-01
1.358000000000000000e+03 3.805152130126953125e+01 -1.385203361511230469e+01 -6.315693855285644531e-01 3.432142734527587891e+00 8.401719927787780762e-01 -9.170710444450378418e-01
1.359000000000000000e+03 3.714278411865234375e+01 -1.338749122619628906e+01 -9.606896042823791504e-01 5.510422229766845703e+00 1.364919662475585938e+00 -1.739165559411048889e-02
1.360000000000000000e+03 3.688141250610351562e+01 -1.363440227508544922e+01 -1.095040559768676758e+00 5.157945632934570312e+00 1.218871593475341797e+00 4.142578244209289551e-01
1.361000000000000000e+03 3.672278213500976562e+01 -1.321503353118896484e+01 -8.253769278526306152e-01 5.897993564605712891e+00 1.521784901618957520e+00 9.109662175178527832e-01
1.362000000000000000e+03 3.749997329711914062e+01 -1.359696960449218750e+01 -9.956431984901428223e-01 4.797858715057373047e+00 1.140664577484130859e+00 -5.992298126220703125e-01
1.363000000000000000e+03 4.081391906738281250e+01 -1.131080150604248047e+01 1.980354189872741699e+00 -2.101327478885650635e-01 5.310664176940917969e-01 -7.747291587293148041e-03
1.364000000000000000e+03 4.144941329956054688e+01 -1.193998336791992188e+01 1.450347542762756348e+00 -1.929133385419845581e-01 3.772302567958831787e-01 -1.121669635176658630e-01
1.365000000000000000e+03 4.348054885864257812e+01 -1.324188423156738281e+01 6.392530202865600586e-01 -2.086015194654464722e-01 1.291954368352890015e-01 5.628401786088943481e-02
1.366000000000000000e+03 4.244896316528320312e+01 -1.254484176635742188e+01 1.002463817596435547e+00 -2.197882980108261108e-01 2.348026633262634277e-01 -4.745417833328247070e-02
1.367000000000000000e+03 4.193133926391601562e+01 -1.223161983489990234e+01 1.179590940475463867e+00 -2.155452817678451538e-01 2.892136871814727783e-01 -8.879306167364120483e-02
1.368000000000000000e+03 4.465981292724609375e+01 -1.405930519104003906e+01 3.024930357933044434e-01 -1.262990981340408325e-01 5.285818502306938171e-02 1.123683154582977295e-01
1.369000000000000000e+03 4.528312683105468750e+01 -1.448164272308349609e+01 1.674476712942123413e-01 -8.743885904550552368e-02 2.400264702737331390e-02 1.168202534317970276e-01
1.370000000000000000e+03 3.528774261474609375e+01 -1.422056770324707031e+01 -9.444688558578491211e-01 8.325109481811523438e-01 -3.358736634254455566e-02 1.101402044296264648e+00
1.371000000000000000e+03 3.526387023925781250e+01 -1.645299148559570312e+01 1.195010729134082794e-02 3.033732414245605469e+00 9.137047529220581055e-01 -1.129967644810676575e-01
1.372000000000000000e+03 3.540428543090820312e+01 -1.778823852539062500e+01 1.625291071832180023e-02 3.570739984512329102e+00 1.076097846031188965e+00 -9.364748001098632812e-02
1.373000000000000000e+03 3.551671218872070312e+01 -2.193241500854492188e+01 2.695645689964294434e-01 3.932718753814697266e+00 1.260684967041015625e+00 6.092464327812194824e-01
1.374000000000000000e+03 3.575080108642578125e+01 -2.480040550231933594e+01 5.626606345176696777e-01 2.450818061828613281e+00 9.040436148643493652e-01 5.827026367187500000e-01
1.375000000000000000e+03 2.879837799072265625e+01 -2.957558250427246094e+01 4.231111109256744385e-01 1.711793392896652222e-01 1.782871335744857788e-01 2.456653267145156860e-01
1.376000000000000000e+03 2.737772941589355469e+01 -2.991095924377441406e+01 2.976063191890716553e-01 1.018594279885292053e-01 1.198397204279899597e-01 1.260708272457122803e-01
1.377000000000000000e+03 1.622838401794433594e+01 -2.361908531188964844e+01 6.464084237813949585e-02 2.526833303272724152e-02 2.697275206446647644e-02 -5.469724908471107483e-02
1.378000000000000000e+03 1.941178131103515625e+01 -1.143203544616699219e+01 4.177744984626770020e-01 -2.820227481424808502e-02 1.168716624379158020e-01 -1.426281314343214035e-02
1.379000000000000000e+03 2.212338829040527344e+01 -1.097623252868652344e+01 6.350350379943847656e-01 6.799870170652866364e-03 1.925504654645919800e-01 1.229336187243461609e-01
1.380000000000000000e+03 2.460933685302734375e+01 -1.008033561706542969e+01 8.650556206703186035e-01 1.054009124636650085e-01 2.911369502544403076e-01 3.309085965156555176e-01
1.381000000000000000e+03 3.523055267333984375e+01 2.200480461120605469e+00 -4.476896428968757391e-04 9.991660772357136011e-05 -1.043319061864167452e-04 -9.792391938390210271e-05
1.382000000000000000e+03 3.515198898315429688e+01 3.280651330947875977e+00 -4.785527125932276249e-04 2.790550643112510443e-04 -5.984929157420992851e-05 5.927940947003662586e-06
1.383000000000000000e+03 3.320898056030273438e+01 2.507221460342407227e+00 9.109164820984005928e-04 -8.277936103695537895e-06 2.707915555220097303e-04 -1.401679619448259473e-04
1.384000000000000000e+03 3.342091751098632812e+01 1.865122079849243164e+00 -3.391650679986923933e-04 1.602982083568349481e-04 -5.366006371332332492e-05 1.292478118557482958e-04
1.385000000000000000e+03 3.401208877563476562e+01 2.022630453109741211e+00 4.231535713188350201e-04 2.929843030869960785e-04 2.148413623217493296e-04 -4.037078469991683960e-04
1.386000000000000000e+03 3.416784667968750000e+01 2.397813081741333008e+00 -1.539988297736272216e-04 -6.354764918796718121e-04 -2.368425921304151416e-04 2.601695887278765440e-04
1.387000000000000000e+03 3.382650375366210938e+01 2.687585592269897461e+00 7.975309272296726704e-04 2.853230980690568686e-04 3.248561988584697247e-04 -4.012378631159663200e-04
1.388000000000000000e+03 3.885498046875000000e+01 -1.433322811126708984e+01 -4.101190865039825439e-01 2.016339063644409180e+00 4.818660020828247070e-01 -6.783041357994079590e-01
1.389000000000000000e+03 3.693507766723632812e+01 -1.332011032104492188e+01 -7.160800695419311523e-01 5.591658592224121094e+00 1.462673544883728027e+00 5.073180794715881348e-01
1.390000000000000000e+03 3.677616500854492188e+01 -1.560138702392578125e+01 -8.450039029121398926e-01 3.202796697616577148e+00 7.073377966880798340e-01 5.225374102592468262e-01
1.391000000000000000e+03 3.930849456787109375e+01 -1.530966472625732422e+01 -4.253178834915161133e-01 1.596690654754638672e+00 3.514118492603302002e-01 -3.179747760295867920e-01
1.392000000000000000e+03 3.786811828613281250e+01 -1.377762413024902344e+01 -7.939822673797607422e-01 3.872541427612304688e+00 9.235677123069763184e-01 -8.656867146492004395e-01
1.393000000000000000e+03 3.820190811157226562e+01 -1.413395214080810547e+01 -6.713114380836486816e-01 3.070425271987915039e+00 7.197341918945312500e-01 -7.915406227111816406e-01
1.394000000000000000e+03 3.768511962890625000e+01 -1.369185256958007812e+01 -8.382185101509094238e-01 4.300336837768554688e+00 1.038635492324829102e+00 -7.462040185928344727e-01
1.395000000000000000e+03 3.636133575439453125e+01 -1.295174503326416016e+01 2.385893762111663818e-01 4.438855648040771484e+00 1.403233528137207031e+00 1.384589314460754395e+00
1.396000000000000000e+03 3.513047027587890625e+01 -1.519272994995117188e+01 -2.944710254669189453e-01 1.504141092300415039e+00 3.629010319709777832e-01 3.340248465538024902e-01
1.397000000000000000e+03 3.078605842590332031e+01 -1.683334112167358398e+00 -3.149054050445556641e+00 3.605503141880035400e-01 -8.365511298179626465e-01 -1.370119303464889526e-01
1.398000000000000000e+03 2.998525047302246094e+01 -1.783129453659057617e+00 -2.934268951416015625e+00 2.380486428737640381e-01 -8.088660836219787598e-01 -1.726390421390533447e-01
1.399000000000000000e+03 2.840015411376953125e+01 -1.919355630874633789e+00 -2.701412200927734375e+00 3.151204204186797142e-03 -8.094782829284667969e-01 -2.922843694686889648e-01
1.400000000000000000e+03 2.821345329284667969e+01 -1.972032427787780762e+00 -2.638531684875488281e+00 -4.088652506470680237e-02 -8.038254380226135254e-01 -3.191517293453216553e-01
1.401000000000000000e+03 2.922450637817382812e+01 -2.180530071258544922e+00 -2.520835638046264648e+00 1.511411815881729126e-01 -7.109083533287048340e-01 -2.693395316600799561e-01
1.402000000000000000e+03 2.881225204467773438e+01 -2.190367937088012695e+00 -2.472191095352172852e+00 7.365135103464126587e-02 -7.195619344711303711e-01 -3.062683641910552979e-01
1.403000000000000000e+03 2.760408592224121094e+01 -2.035562515258789062e+00 -2.495634078979492188e+00 -1.647195518016815186e-01 -7.981060743331909180e-01 -3.454691767692565918e-01
1.404000000000000000e+03 2.700699234008789062e+01 -2.084227323532104492e+00 -2.258129119873046875e+00 -3.044736385345458984e-01 -7.687808275222778320e-01 -4.302684962749481201e-01
1.405000000000000000e+03 2.637628364562988281e+01 -2.196764707565307617e+00 -1.978809237480163574e+00 -4.394721388816833496e-01 -7.254844307899475098e-01 -5.845612287521362305e-01
1.406000000000000000e+03 2.680863952636718750e+01 -2.111116170883178711e+00 -2.196078062057495117e+00 -3.699785470962524414e-01 -7.698169946670532227e-01 -4.481808543205261230e-01
1.407000000000000000e+03 3.098189735412597656e+01 -1.647732496261596680e+00 -3.207309961318969727e+00 3.500705063343048096e-01 -8.571718335151672363e-01 -6.919298321008682251e-02
1.408000000000000000e+03 2.978558921813964844e+01 -1.800798177719116211e+00 -2.887253522872924805e+00 2.013076394796371460e-01 -8.057837486267089844e-01 -1.839280873537063599e-01
1.409000000000000000e+03 2.761817741394042969e+01 -2.339603424072265625e+00 -2.163085937500000000e+00 -1.148627996444702148e-01 -6.833845973014831543e-01 -4.302653074264526367e-01
1.410000000000000000e+03 2.704259109497070312e+01 -2.364896774291992188e+00 -2.033041477203369141e+00 -2.734873890876770020e-01 -6.919586062431335449e-01 -4.824702441692352295e-01
1.411000000000000000e+03 2.592654418945312500e+01 -2.231293916702270508e+00 -1.836052060127258301e+00 -2.423857599496841431e-01 -6.235313415527343750e-01 -7.169734239578247070e-01
1.412000000000000000e+03 2.642297744750976562e+01 -2.566975116729736328e+00 -1.679117798805236816e+00 -3.257146179676055908e-01 -6.014497280120849609e-01 -6.767165064811706543e-01
1.413000000000000000e+03 3.490940856933593750e+01 -1.780622363090515137e+00 -2.637031078338623047e+00 4.305603802204132080e-01 -6.619411706924438477e-01 3.162763118743896484e-01
1.414000000000000000e+03 3.508625793457031250e+01 -1.333662748336791992e+00 -2.704957723617553711e+00 4.491280615329742432e-01 -6.767489314079284668e-01 7.883323729038238525e-02
1.415000000000000000e+03 3.464704132080078125e+01 -1.704219341278076172e+00 -2.846894264221191406e+00 4.250231385231018066e-01 -7.265613675117492676e-01 3.006098866462707520e-01
1.416000000000000000e+03 4.076435089111328125e+01 -1.159986972808837891e+01 1.807127356529235840e+00 -1.342180222272872925e-01 5.018727779388427734e-01 -1.451007276773452759e-01
1.417000000000000000e+03 3.970362091064453125e+01 -1.057465934753417969e+01 2.889151334762573242e+00 2.010495066642761230e-01 9.270602464675903320e-01 5.982915759086608887e-01
1.418000000000000000e+03 4.025666046142578125e+01 -1.129596805572509766e+01 2.310801029205322266e+00 -1.005101129412651062e-01 6.630872488021850586e-01 -7.327041029930114746e-02
1.419000000000000000e+03 3.917824554443359375e+01 -1.065453720092773438e+01 3.439685106277465820e+00 6.178746223449707031e-01 1.217267990112304688e+00 8.697510361671447754e-01
1.420000000000000000e+03 3.899351501464843750e+01 -1.055266761779785156e+01 3.492876052856445312e+00 9.212817549705505371e-01 1.324247360229492188e+00 1.099686384201049805e+00
1.421000000000000000e+03 4.002146911621093750e+01 -1.080614757537841797e+01 2.600819587707519531e+00 -2.377304434776306152e-02 7.731139659881591797e-01 2.805800437927246094e-01
1.422000000000000000e+03 3.935908889770507812e+01 -1.076799011230468750e+01 3.288918256759643555e+00 3.763408362865447998e-01 1.099577784538269043e+00 5.899479985237121582e-01
1.423000000000000000e+03 3.988933181762695312e+01 -1.108915042877197266e+01 2.688269376754760742e+00 -1.057721022516489029e-02 8.033076524734497070e-01 7.720490545034408569e-02
1.424000000000000000e+03 4.008232116699218750e+01 -1.117979431152343750e+01 2.480593919754028320e+00 -5.644556879997253418e-02 7.272444963455200195e-01 9.987268131226301193e-04
1.425000000000000000e+03 4.043047332763671875e+01 -1.139389514923095703e+01 2.116565942764282227e+00 -1.101209297776222229e-01 6.019334793090820312e-01 -1.163950785994529724e-01
1.426000000000000000e+03 3.815233230590820312e+01 -9.540075302124023438e+00 1.666666030883789062e+00 2.959586381912231445e+00 1.387875676155090332e+00 9.037755131721496582e-01
1.427000000000000000e+03 3.840413284301757812e+01 -1.022034454345703125e+01 3.024944067001342773e+00 2.707895994186401367e+00 1.719851970672607422e+00 1.838260650634765625e+00
1.428000000000000000e+03 3.300430679321289062e+01 1.820395112037658691e+00 4.504999087657779455e-04 -4.433475987752899528e-05 1.218495453940704465e-04 -1.750439259922131896e-04
1.429000000000000000e+03 1.431774616241455078e+01 1.966143226623535156e+01 -2.122943755239248276e-03 1.257261494174599648e-03 -2.597046841401606798e-04 -8.726411033421754837e-04
1.430000000000000000e+03 1.522057342529296875e+01 1.989982414245605469e+01 -1.009346917271614075e-03 1.150947529822587967e-03 4.248020923114381731e-05 -5.822747480124235153e-04
1.431000000000000000e+03 1.434632205963134766e+01 1.857879829406738281e+01 4.231549100950360298e-04 1.638422021642327309e-03 6.184731028042733669e-04 2.650406386237591505e-04
1.432000000000000000e+03 1.479439640045166016e+01 1.897352981567382812e+01 5.407911376096308231e-04 3.078628098592162132e-03 1.085825730115175247e-03 4.545570991467684507e-04
1.433000000000000000e+03 1.551865482330322266e+01 2.014430236816406250e+01 -2.244197763502597809e-03 -6.100540631450712681e-04 -8.562754956074059010e-04 -7.745214970782399178e-04
1.434000000000000000e+03 1.459458446502685547e+01 2.015810585021972656e+01 -3.708287840709090233e-03 1.175335841253399849e-03 -7.598855881951749325e-04 -1.420917687937617302e-03
1.435000000000000000e+03 2.235894012451171875e+01 2.222535324096679688e+01 -7.786137610673904419e-02 -4.164292477071285248e-03 -2.460770122706890106e-02 1.240802835673093796e-02
1.436000000000000000e+03 1.474731254577636719e+01 1.779282379150390625e+01 -2.995535905938595533e-04 2.338720951229333878e-03 6.117502343840897083e-04 1.433724100934341550e-04
1.437000000000000000e+03 1.531553649902343750e+01 1.219613742828369141e+01 -8.027637522900477052e-05 2.870523603633046150e-04 6.203279190231114626e-05 -7.441514753736555576e-05
1.438000000000000000e+03 1.555319499969482422e+01 1.080119037628173828e+01 -6.997746822889894247e-05 1.127972063841298223e-04 1.284592144656926394e-05 -5.246134242042899132e-05
1.439000000000000000e+03 2.047454643249511719e+01 2.263001060485839844e+01 -4.689608514308929443e-02 -1.357387518510222435e-04 -1.410954724997282028e-02 3.886878257617354393e-03
1.440000000000000000e+03 2.107505989074707031e+01 2.225984954833984375e+01 -5.944645777344703674e-02 -2.100325655192136765e-03 -1.846403442323207855e-02 -2.487395424395799637e-03
1.441000000000000000e+03 1.466761207580566406e+01 1.499497222900390625e+01 2.672592818271368742e-04 1.143821864388883114e-03 4.233243525959551334e-04 2.156290611310396343e-05
1.442000000000000000e+03 1.471833896636962891e+01 1.458542537689208984e+01 -2.072950592264533043e-04 9.947755606845021248e-04 2.362441446166485548e-04 -2.429365122225135565e-05
1.443000000000000000e+03 1.496739006042480469e+01 2.032924079895019531e+01 -4.484028089791536331e-03 8.988689514808356762e-04 -1.075547770597040653e-03 -1.134076155722141266e-03
1.444000000000000000e+03 1.621804428100585938e+01 2.104701805114746094e+01 -1.055581588298082352e-02 -1.057155313901603222e-03 -3.483891254290938377e-03 -2.634624717757105827e-03
1.445000000000000000e+03 1.564874553680419922e+01 2.070628166198730469e+01 -6.423956248909235001e-03 -1.390361867379397154e-04 -1.968897646293044090e-03 -1.742679160088300705e-03
1.446000000000000000e+03 1.671016311645507812e+01 9.317542076110839844e+00 6.321550608845427632e-05 4.610092946677468717e-05 3.279493103036656976e-05 1.797469303710386157e-05
1.447000000000000000e+03 1.693821716308593750e+01 8.994815826416015625e+00 -6.490757368737831712e-05 9.145459443971049041e-06 -1.672863436397165060e-05 -2.898629099945537746e-05
1.448000000000000000e+03 1.469123935699462891e+01 1.309360218048095703e+01 -1.042894723468634766e-06 5.255453870631754398e-04 1.573507470311596990e-04 1.167347545560915023e-05
1.449000000000000000e+03 1.486713695526123047e+01 1.375084972381591797e+01 -1.402923226123675704e-04 6.086328066885471344e-04 1.405021466780453920e-04 -9.840441634878516197e-05
1.450000000000000000e+03 1.846641540527343750e+01 2.228934288024902344e+01 -2.777208015322685242e-02 -9.663020609878003597e-04 -8.621514774858951569e-03 3.795647062361240387e-04
1.451000000000000000e+03 1.518055152893066406e+01 1.260312747955322266e+01 1.067242628778330982e-04 3.566402301657944918e-04 1.390093530062586069e-04 -2.662015685928054154e-05
1.452000000000000000e+03 1.957091903686523438e+01 6.905481815338134766e+00 2.558264168328605592e-05 2.229526216979138553e-05 1.436337151972111315e-05 2.711928391363471746e-05
1.453000000000000000e+03 1.813284873962402344e+01 8.314812660217285156e+00 -5.331202555680647492e-05 -1.729616269585676491e-05 -2.118245538440532982e-05 -2.701572338992264122e-05
1.454000000000000000e+03 1.749327278137207031e+01 2.155661010742187500e+01 -1.962908916175365448e-02 -1.902342191897332668e-03 -6.459429860115051270e-03 -3.177972044795751572e-03
1.455000000000000000e+03 1.832554244995117188e+01 2.163850212097167969e+01 -2.461622655391693115e-02 -1.610554987564682961e-03 -7.868034765124320984e-03 -4.828408826142549515e-03
1.456000000000000000e+03 1.639868164062500000e+01 1.047156906127929688e+01 8.266641816589981318e-05 9.639542986406013370e-05 5.371855513658374548e-05 3.570509215933270752e-05
1.457000000000000000e+03 1.649352836608886719e+01 9.647476196289062500e+00 -6.801506242481991649e-05 2.190601480833720416e-05 -1.383271410304587334e-05 -3.594602458178997040e-05
1.458000000000000000e+03 2.047972297668457031e+01 6.111709117889404297e+00 -3.727895818883553147e-05 -2.290034899488091469e-05 -1.805379179131705314e-05 -2.738770854193717241e-05
1.459000000000000000e+03 2.069203186035156250e+01 2.215130424499511719e+01 -5.032761767506599426e-02 -1.892716973088681698e-03 -1.566610112786293030e-02 -4.364823922514915466e-03
1.460000000000000000e+03 1.927886772155761719e+01 7.183923721313476562e+00 -3.903023753082379699e-05 -2.429917731205932796e-05 -1.899882408906705678e-05 -2.958214645332191139e-05
1.461000000000000000e+03 2.305751609802246094e+01 3.091280460357666016e+00 -1.474002374379779212e-06 -1.137024719355395064e-05 -3.853274847642751411e-06 -1.126055576605722308e-05
1.462000000000000000e+03 1.628944969177246094e+01 9.976202011108398438e+00 6.254346226342022419e-05 9.396159293828532100e-05 4.695151801570318639e-05 1.694354068604297936e-06
1.463000000000000000e+03 2.228135108947753906e+01 3.951634407043457031e+00 -9.334251444670371711e-06 -2.258831773360725492e-05 -9.576770935382228345e-06 -1.321456511504948139e-05
1.464000000000000000e+03 2.174630165100097656e+01 3.183881044387817383e+00 -8.975571290648076683e-06 1.138928018917795271e-05 7.241127377710654400e-07 9.122802111960481852e-06
1.465000000000000000e+03 2.303643989562988281e+01 3.474857568740844727e+00 -5.744699592469260097e-06 -8.434669325652066618e-06 -4.253810857335338369e-06 2.634038082760525867e-06
1.466000000000000000e+03 2.322709465026855469e+01 3.788417339324951172e+00 2.418342955934349447e-05 5.760055955761345103e-06 8.983045518107246608e-06 1.156457528850296512e-05
1.467000000000000000e+03 1.530743885040283203e+01 2.052066993713378906e+01 -4.933686926960945129e-03 9.157025488093495369e-04 -1.205395325087010860e-03 -1.580214942805469036e-03
1.468000000000000000e+03 2.176127052307128906e+01 5.095342636108398438e+00 -2.096131174766924232e-05 -2.812939055729657412e-05 -1.472721123718656600e-05 -2.246446274511981755e-05
1.469000000000000000e+03 1.433045482635498047e+01 1.819648361206054688e+01 -2.266455849166959524e-04 1.725272508338093758e-03 4.495880857575684786e-04 3.685179399326443672e-04
1.470000000000000000e+03 1.426978015899658203e+01 1.704053688049316406e+01 2.618592989165335894e-04 1.436995342373847961e-03 5.096563836559653282e-04 2.549054916016757488e-04
1.471000000000000000e+03 1.501155376434326172e+01 1.336760330200195312e+01 2.102974540321156383e-04 5.161115550436079502e-04 2.179227012675255537e-04 -1.894136221380904317e-05
1.472000000000000000e+03 1.973528671264648438e+01 2.266952514648437500e+01 -3.909674286842346191e-02 6.917067221365869045e-04 -1.152151077985763550e-02 1.283015590161085129e-03
1.473000000000000000e+03 2.174238395690917969e+01 4.538189888000488281e+00 -1.025863548420602456e-05 -2.205981036240700632e-05 -9.695533663034439087e-06 -2.148879320884589106e-05
1.474000000000000000e+03 2.107773971557617188e+01 5.545971870422363281e+00 -2.127309562638401985e-05 -2.783068703138269484e-05 -1.473113479733001441e-05 -2.297513128723949194e-05
1.475000000000000000e+03 1.794747924804687500e+01 2.159341049194335938e+01 -2.137126959860324860e-02 5.878972006030380726e-04 -6.235011853277683258e-03 -4.054122604429721832e-03
1.476000000000000000e+03 1.841780281066894531e+01 8.031277656555175781e+00 4.241415808792226017e-05 1.705352224234957248e-05 1.784030428098049015e-05 3.212206502212211490e-05
1.477000000000000000e+03 1.458089351654052734e+01 1.241492366790771484e+01 -1.391481346217915416e-04 2.956248063128441572e-04 4.694299786933697760e-05 -6.021192803018493578e-06
1.478000000000000000e+03 1.473968124389648438e+01 1.739859008789062500e+01 2.784509269986301661e-04 2.109823049977421761e-03 7.164822309277951717e-04 1.196477533085271716e-04
1.479000000000000000e+03 1.431369304656982422e+01 1.781091308593750000e+01 2.904784341808408499e-04 1.670268247835338116e-03 5.882240366190671921e-04 3.171338175889104605e-04
1.480000000000000000e+03 1.898541069030761719e+01 7.462346076965332031e+00 4.415005969349294901e-05 1.777410398062784225e-05 1.857724964793305844e-05 3.189345443388447165e-05
1.481000000000000000e+03 2.075763130187988281e+01 5.816659927368164062e+00 2.758954724413342774e-05 2.369431058468762785e-05 1.538515789434313774e-05 2.951455644506495446e-05
1.482000000000000000e+03 1.424476814270019531e+01 1.665436363220214844e+01 -2.066276647383347154e-04 1.295572263188660145e-03 3.266833955422043800e-04 3.229684662073850632e-04
1.483000000000000000e+03 1.473086452484130859e+01 1.700467681884765625e+01 -2.433530462440103292e-04 1.887851278297603130e-03 4.933494492433965206e-04 1.380139729008078575e-04
1.484000000000000000e+03 1.511805343627929688e+01 1.300565814971923828e+01 -1.500866346759721637e-04 3.793867945205420256e-04 6.879005377413704991e-05 -1.167159643955528736e-04
1.485000000000000000e+03 2.818367767333984375e+01 2.132141494750976562e+01 -9.653858095407485962e-02 -4.209238663315773010e-02 -4.158928990364074707e-02 4.820463433861732483e-02
1.486000000000000000e+03 2.930562782287597656e+01 1.998711204528808594e+01 -8.356060087680816650e-02 -8.272697776556015015e-02 -4.988627508282661438e-02 7.304687052965164185e-02
1.487000000000000000e+03 2.864152145385742188e+01 2.051117897033691406e+01 -1.250339597463607788e-01 -5.912742763757705688e-02 -5.524841696023941040e-02 7.527308911085128784e-02
1.488000000000000000e+03 2.790659713745117188e+01 2.089758491516113281e+01 -1.305841058492660522e-01 -2.938790060579776764e-02 -4.799160361289978027e-02 5.259878933429718018e-02
1.489000000000000000e+03 2.316210937500000000e+01 2.208580398559570312e+01 -7.510737329721450806e-02 -3.167796647176146507e-03 -2.348255179822444916e-02 1.508363801985979080e-02
1.490000000000000000e+03 2.325569915771484375e+01 2.263150215148925781e+01 -7.050917297601699829e-02 -5.295112263411283493e-03 -2.274128608405590057e-02 1.660370640456676483e-02
1.491000000000000000e+03 3.286636734008789062e+01 2.080543041229248047e+00 -3.692351165227591991e-04 -2.468242309987545013e-04 -1.848178071668371558e-04 3.205594839528203011e-04
1.492000000000000000e+03 3.043932533264160156e+01 1.914557456970214844e+01 -4.528848454356193542e-02 -5.263173952698707581e-02 -2.937606722116470337e-02 4.541679099202156067e-02
1.493000000000000000e+03 3.348445892333984375e+01 4.914616107940673828e+00 1.121982815675437450e-03 2.067631721729412675e-04 3.986237861681729555e-04 -4.898633778793737292e-05
1.494000000000000000e+03 3.348256683349609375e+01 4.518757343292236328e+00 -1.257100491784512997e-03 9.753935592016205192e-05 -3.478683356661349535e-04 -1.054451131494715810e-04
1.495000000000000000e+03 3.413814926147460938e+01 6.027667522430419922e+00 1.133112935349345207e-03 3.287231666035950184e-04 4.385508073028177023e-04 -5.684967618435621262e-04
1.496000000000000000e+03 3.077969169616699219e+01 1.838722991943359375e+01 -3.154705464839935303e-02 -4.796740412712097168e-02 -2.385433763265609741e-02 3.623593226075172424e-02
1.497000000000000000e+03 3.104502105712890625e+01 1.674558067321777344e+01 -8.807618170976638794e-03 -3.819535300135612488e-02 -1.410089060664176941e-02 1.793834753334522247e-02
1.498000000000000000e+03 3.257944869995117188e+01 1.392785263061523438e+01 -4.175805952399969101e-03 -6.791321095079183578e-03 -3.290138207376003265e-03 7.579977158457040787e-03
1.499000000000000000e+03 3.243114089965820312e+01 1.293034076690673828e+01 -2.235045889392495155e-03 -3.035411704331636429e-03 -1.581137301400303841e-03 2.591217868030071259e-03
1.500000000000000000e+03 3.390438842773437500e+01 4.863136291503906250e+00 -9.529442759230732918e-04 -1.804095518309623003e-05 -2.912955824285745621e-04 5.131920624990016222e-05
1.501000000000000000e+03 3.333256149291992188e+01 7.772090911865234375e+00 9.404622687725350261e-05 1.329612219706177711e-03 4.270975186955183744e-04 -4.590687749441713095e-04
1.502000000000000000e+03 3.394788742065429688e+01 5.242689609527587891e+00 1.173931290395557880e-03 1.372458791593089700e-04 3.933531406801193953e-04 -2.987566695082932711e-04
1.503000000000000000e+03 3.348955917358398438e+01 5.711656570434570312e+00 1.120961620472371578e-03 2.590403310023248196e-04 4.140005912631750107e-04 -1.289968058699741960e-04
1.504000000000000000e+03 3.345357131958007812e+01 6.939244270324707031e+00 -6.218109629116952419e-04 8.576770778745412827e-04 7.075983739923685789e-05 -4.296511760912835598e-04
1.505000000000000000e+03 2.356488227844238281e+01 2.202628707885742188e+01 -7.822681218385696411e-02 -3.245313651859760284e-03 -2.444163709878921509e-02 1.586981117725372314e-02
1.506000000000000000e+03 2.999493980407714844e+01 1.893305587768554688e+01 -3.363502398133277893e-02 -6.878640502691268921e-02 -3.072642907500267029e-02 4.739679768681526184e-02
1.507000000000000000e+03 3.103374481201171875e+01 1.891169357299804688e+01 -4.259817302227020264e-02 -3.830953687429428101e-02 -2.427231334149837494e-02 3.873996064066886902e-02
1.508000000000000000e+03 2.554688262939453125e+01 2.158997344970703125e+01 -9.702591598033905029e-02 -9.689324535429477692e-03 -3.201457485556602478e-02 2.655827254056930542e-02
1.509000000000000000e+03 2.570891761779785156e+01 2.205455017089843750e+01 -8.618897199630737305e-02 -1.218785345554351807e-02 -2.951304800808429718e-02 2.840591222047805786e-02
1.510000000000000000e+03 3.271230316162109375e+01 1.130692291259765625e+01 2.309611008968204260e-04 1.454900950193405151e-03 5.057586240582168102e-04 2.051772607956081629e-04
1.511000000000000000e+03 2.674144744873046875e+01 2.128864479064941406e+01 -1.028611436486244202e-01 -1.229907386004924774e-02 -3.454806655645370483e-02 3.509313240647315979e-02
1.512000000000000000e+03 3.060722923278808594e+01 1.875855827331542969e+01 -3.581971675157546997e-02 -5.142443254590034485e-02 -2.617324516177177429e-02 4.140203073620796204e-02
1.513000000000000000e+03 2.494182777404785156e+01 2.240905189514160156e+01 -7.814465463161468506e-02 -1.014663465321063995e-02 -2.648738585412502289e-02 2.522341534495353699e-02
1.514000000000000000e+03 3.318665695190429688e+01 8.570246696472167969e+00 2.051688061328604817e-04 1.907883444800972939e-03 6.339156534522771835e-04 -4.722406156361103058e-04
1.515000000000000000e+03 3.154557800292968750e+01 1.522300815582275391e+01 -4.233735147863626480e-03 -1.785997115075588226e-02 -6.628111936151981354e-03 8.729386143386363983e-03
1.516000000000000000e+03 3.184723281860351562e+01 1.448868083953857422e+01 -2.707573119550943375e-03 -1.239668764173984528e-02 -4.531278274953365326e-03 5.954440683126449585e-03
1.517000000000000000e+03 3.198000717163085938e+01 1.410960292816162109e+01 -2.038274658843874931e-03 -9.461726993322372437e-03 -3.450000658631324768e-03 5.382273811846971512e-03
1.518000000000000000e+03 3.117807388305664062e+01 1.636128234863281250e+01 -6.815378554165363312e-03 -3.161664307117462158e-02 -1.152960583567619324e-02 1.462088711559772491e-02
1.519000000000000000e+03 3.130287361145019531e+01 1.597641468048095703e+01 -5.723154637962579727e-03 -2.639517001807689667e-02 -9.635496884584426880e-03 1.183167099952697754e-02
1.520000000000000000e+03 3.298658752441406250e+01 9.725501060485839844e+00 -3.159623156534507871e-05 2.370112109929323196e-03 7.015547598712146282e-04 -5.394740146584808826e-04
1.521000000000000000e+03 3.304112625122070312e+01 9.338247299194335938e+00 3.254620532970875502e-04 2.239068970084190369e-03 7.693592924624681473e-04 -5.094141815789043903e-04
1.522000000000000000e+03 3.393174362182617188e+01 4.151604175567626953e+00 -6.868470809422433376e-04 4.938006168231368065e-04 -5.791394505649805069e-05 -4.636548983398824930e-04
1.523000000000000000e+03 3.386113357543945312e+01 9.283021926879882812e+00 -5.287559470161795616e-04 1.421656488673761487e-04 -1.159770908998325467e-04 -2.277430612593889236e-04
1.524000000000000000e+03 3.346763992309570312e+01 9.373761177062988281e+00 -6.988114910200238228e-05 1.495979493483901024e-03 4.278295091353356838e-04 -3.464434412308037281e-04
1.525000000000000000e+03 3.162963485717773438e+01 1.653143882751464844e+01 -1.322840806096792221e-02 -2.696967124938964844e-02 -1.205942314118146896e-02 1.991661638021469116e-02
1.526000000000000000e+03 3.311191940307617188e+01 8.955001831054687500e+00 -9.848477930063381791e-05 2.073339885100722313e-03 5.924565484747290611e-04 -4.091132723260670900e-04
1.527000000000000000e+03 3.347074890136718750e+01 9.733520507812500000e+00 -1.950075384229421616e-04 1.086136559024453163e-03 2.673387352842837572e-04 -1.021813004626892507e-04
1.528000000000000000e+03 3.278887176513671875e+01 1.090883350372314453e+01 -6.482483004219830036e-04 1.936814864166080952e-03 3.865699982270598412e-04 -2.367131673963740468e-04
1.529000000000000000e+03 3.141761398315429688e+01 1.559580993652343750e+01 -4.115564282983541489e-03 -2.188605815172195435e-02 -7.800486870110034943e-03 1.025565993040800095e-02
1.530000000000000000e+03 3.228791809082031250e+01 1.333896636962890625e+01 -9.244338725693523884e-04 -4.686942324042320251e-03 -1.683412818238139153e-03 3.587296465411782265e-03
1.531000000000000000e+03 3.210908508300781250e+01 1.372288799285888672e+01 -2.675020834431052208e-03 -7.237844169139862061e-03 -2.973859431222081184e-03 3.880788106471300125e-03
1.532000000000000000e+03 4.015216445922851562e+01 -1.687907409667968750e+01 -1.369376927614212036e-01 1.039514303207397461e+00 2.707729637622833252e-01 -3.585182502865791321e-02
1.533000000000000000e+03 4.247122955322265625e+01 -1.707841682434082031e+01 -4.092472046613693237e-02 -1.570020243525505066e-02 -1.698747649788856506e-02 1.979736685752868652e-01
1.534000000000000000e+03 4.012817382812500000e+01 -1.599312973022460938e+01 -2.359104901552200317e-01 9.780826568603515625e-01 2.226516455411911011e-01 -1.263995915651321411e-01
1.535000000000000000e+03 3.997555541992187500e+01 -1.516697502136230469e+01 -3.179299235343933105e-01 9.370082020759582520e-01 1.857234835624694824e-01 -2.228163331747055054e-01
1.536000000000000000e+03 3.953050994873046875e+01 -1.484220981597900391e+01 -3.297110795974731445e-01 1.291800022125244141e+00 2.886267006397247314e-01 -3.755784332752227783e-01
1.537000000000000000e+03 3.941190338134765625e+01 -1.606808662414550781e+01 -3.412282466888427734e-01 1.535974979400634766e+00 3.584240078926086426e-01 -1.750262975692749023e-01
1.538000000000000000e+03 4.393443679809570312e+01 -1.277010059356689453e+01 6.725600957870483398e-01 -2.993302047252655029e-01 1.119689643383026123e-01 1.885985285043716431e-01
1.539000000000000000e+03 4.340895080566406250e+01 -1.239682006835937500e+01 8.661494851112365723e-01 -3.454506993293762207e-01 1.562096327543258667e-01 1.698004007339477539e-01
1.540000000000000000e+03 4.288088226318359375e+01 -1.203080558776855469e+01 1.053689599037170410e+00 -3.753852546215057373e-01 2.034913003444671631e-01 1.494416147470474243e-01
1.541000000000000000e+03 4.230851364135742188e+01 -1.177972316741943359e+01 1.265914559364318848e+00 -3.604801297187805176e-01 2.716303467750549316e-01 1.077032014727592468e-01
1.542000000000000000e+03 4.047213745117187500e+01 -1.111726379394531250e+01 2.237609863281250000e+00 -1.540960520505905151e-01 6.250541210174560547e-01 6.137624010443687439e-02
1.543000000000000000e+03 7.717341613769531250e+01 -1.460440158843994141e+01 -4.195475950837135315e-02 -1.612324826419353485e-02 -1.742340251803398132e-02 -2.713911235332489014e-02
1.544000000000000000e+03 7.754200744628906250e+01 -1.387165451049804688e+01 -4.861149191856384277e-02 -3.236973285675048828e-02 -2.429436706006526947e-02 -3.442035242915153503e-02
1.545000000000000000e+03 7.784886169433593750e+01 -1.235086822509765625e+01 -3.371040523052215576e-02 -6.566131860017776489e-02 -2.981151640415191650e-02 -7.148585468530654907e-02
1.546000000000000000e+03 7.774983215332031250e+01 -1.455443191528320312e+01 -2.301123924553394318e-02 -1.267988700419664383e-02 -1.070733740925788879e-02 -1.843117922544479370e-02
1.547000000000000000e+03 7.757872009277343750e+01 -1.942723846435546875e+01 -5.430876626633107662e-05 8.731528396310750395e-06 -1.367317145195556805e-05 -6.083478729124180973e-05
1.548000000000000000e+03 7.835426330566406250e+01 -1.847065544128417969e+01 -1.731438533170148730e-05 2.498629692126996815e-05 2.301573431395809166e-06 -6.723757542204111814e-05
1.549000000000000000e+03 7.947130584716796875e+01 -2.136620903015136719e+01 -7.649659528397023678e-05 1.851355482358485460e-04 3.259168443037196994e-05 -3.635281245806254447e-05
1.550000000000000000e+03 2.197112655639648438e+01 4.235243797302246094e+00 9.346024853584822267e-06 2.546430550864897668e-05 1.044309919961960986e-05 1.237595097336452454e-05
1.551000000000000000e+03 4.051212310791015625e+01 -5.966642498970031738e-01 -4.109135866165161133e-01 -1.124113678932189941e+00 -4.605081975460052490e-01 6.505547165870666504e-01
1.552000000000000000e+03 4.000167846679687500e+01 -6.510509252548217773e-01 -9.240935444831848145e-01 -4.093742668628692627e-01 -4.000403285026550293e-01 8.178458213806152344e-01
1.553000000000000000e+03 3.862929534912109375e+01 -7.780109047889709473e-01 -1.584521412849426270e+00 2.119101732969284058e-01 -4.117833673954010010e-01 7.492853999137878418e-01
1.554000000000000000e+03 4.100466918945312500e+01 -2.199674129486083984e+00 -2.466211795806884766e+00 -1.533075451850891113e+00 -1.199786186218261719e+00 1.715993881225585938e+00
1.555000000000000000e+03 3.905630874633789062e+01 -1.638937354087829590e+00 -1.896121621131896973e+00 1.479371339082717896e-01 -5.244553685188293457e-01 1.062239050865173340e+00
1.556000000000000000e+03 4.707649612426757812e+01 -1.572204113006591797e+01 -1.514346301555633545e-01 3.072418272495269775e-02 -3.621313720941543579e-02 7.483684271574020386e-02
1.557000000000000000e+03 4.833072280883789062e+01 -1.521550941467285156e+01 -3.767808377742767334e-01 -1.747729023918509483e-03 -1.135585755109786987e-01 1.126381158828735352e-01
1.558000000000000000e+03 4.691527175903320312e+01 -1.472586441040039062e+01 -4.555635899305343628e-02 -3.054470568895339966e-02 -2.283031865954399109e-02 1.972960382699966431e-01
1.559000000000000000e+03 4.589941787719726562e+01 -1.490657711029052734e+01 5.707138776779174805e-02 -4.663621261715888977e-02 3.130552358925342560e-03 1.220430806279182434e-01
1.560000000000000000e+03 7.050927734375000000e+01 -1.391133594512939453e+01 -3.645769059658050537e-01 7.341594249010086060e-02 -8.734828978776931763e-02 -4.878651350736618042e-03
1.561000000000000000e+03 6.791841888427734375e+01 -1.357483673095703125e+01 -6.069257259368896484e-01 6.217008456587791443e-02 -1.634266823530197144e-01 9.609391540288925171e-02
1.562000000000000000e+03 2.042541122436523438e+01 3.026939392089843750e+00 8.264090865850448608e-06 1.829071879910770804e-05 7.966443263285327703e-06 1.967803200386697426e-06
1.563000000000000000e+03 1.771989631652832031e+01 2.606401920318603516e+00 8.924874236981850117e-06 2.348180169065017253e-05 9.722002687340136617e-06 7.925675618025707081e-07
1.564000000000000000e+03 1.911346054077148438e+01 2.216401338577270508e+00 -5.393529136199504137e-06 -2.390572990407235920e-05 -8.789777893980499357e-06 -2.488311338311177678e-06
1.565000000000000000e+03 2.112928390502929688e+01 3.152584552764892578e+00 2.535077101128990762e-06 -1.379914465360343456e-05 -3.379220288479700685e-06 -2.866305749193998054e-06
1.566000000000000000e+03 1.979651260375976562e+01 6.041465759277343750e+00 -3.201867730240337551e-05 -1.700330358289647847e-05 -1.470659481128677726e-05 -1.711339427856728435e-05
1.567000000000000000e+03 7.071659851074218750e+01 -1.830086326599121094e+01 1.264445454580709338e-04 2.172507083741948009e-05 4.445088416105136275e-05 3.949371603084728122e-05
1.568000000000000000e+03 6.996906280517578125e+01 -1.830876922607421875e+01 4.251204882166348398e-05 -3.500478487694635987e-05 2.252178546768845990e-06 1.144011112046428025e-04
1.569000000000000000e+03 7.060975646972656250e+01 -1.916667366027832031e+01 3.104103961959481239e-05 -1.030280145641881973e-05 6.221471267053857446e-06 1.567892759339883924e-04
1.570000000000000000e+03 7.021867370605468750e+01 -2.009471893310546875e+01 1.638786197872832417e-04 -8.785460522631183267e-05 2.280720400449354202e-05 3.922323799088189844e-07
1.571000000000000000e+03 1.770778465270996094e+01 2.058585882186889648e+00 -4.992560661776224151e-06 -2.353585296077653766e-05 -8.558524314139503986e-06 -1.372991732750961091e-06
1.572000000000000000e+03 1.559935092926025391e+01 2.483855485916137695e+00 -3.109957106062211096e-06 -1.841078665165696293e-05 -6.456222763517871499e-06 5.643527856591390446e-06
1.573000000000000000e+03 1.840491676330566406e+01 2.665621995925903320e+00 -5.647004854836268350e-06 -2.135138674930203706e-05 -8.099517799564637244e-06 -1.062589262801338919e-06
1.574000000000000000e+03 1.631165695190429688e+01 2.510538816452026367e+00 9.651608706917613745e-06 2.558692176535259932e-05 1.057155895978212357e-05 3.208157068002037704e-06
1.575000000000000000e+03 3.637353134155273438e+01 3.705045700073242188e+00 3.821860809694044292e-05 -1.090276418835856020e-04 -2.124271122738718987e-05 -1.693004451226443052e-04
1.576000000000000000e+03 3.584685897827148438e+01 2.911180496215820312e+00 -2.650615642778575420e-04 1.346702192677184939e-04 -3.911739986506290734e-05 -1.469932612963020802e-04
1.577000000000000000e+03 3.464310455322265625e+01 2.207096099853515625e+00 9.799108374863862991e-04 -1.377043809043243527e-04 2.526619355194270611e-04 3.120797919109463692e-04
1.578000000000000000e+03 1.352165031433105469e+01 3.122929573059082031e+00 -1.828191500408138381e-07 -1.439548486814601347e-05 -4.373491265141637996e-06 1.830151450121775270e-05
1.579000000000000000e+03 1.482739353179931641e+01 1.879874348640441895e+00 -8.081249234237475321e-07 -2.218922963947989047e-05 -6.899206255184253678e-06 5.734990736527834088e-06
1.580000000000000000e+03 1.197113037109375000e+01 2.499204397201538086e+00 3.053975160582922399e-05 2.086811400658916682e-05 1.542235986562445760e-05 1.039842663885792717e-05
1.581000000000000000e+03 1.488266372680664062e+01 2.474423646926879883e+00 1.212283495988231152e-05 2.650839269335847348e-05 1.158936811407329515e-05 5.236044216871960089e-06
1.582000000000000000e+03 7.423851776123046875e+01 -1.896475410461425781e+01 1.794562413124367595e-04 -2.396827403572387993e-05 4.664638981921598315e-05 2.637804027472157031e-05
1.583000000000000000e+03 7.355301666259765625e+01 -1.903889656066894531e+01 -1.690809403953608125e-05 -8.884578710421919823e-05 -3.172616561641916633e-05 -4.248029654263518751e-05
1.584000000000000000e+03 7.490920257568359375e+01 -1.893658256530761719e+01 2.104060149576980621e-05 -6.318512896541506052e-05 -1.264335787709569559e-05 -8.231075480580329895e-05
1.585000000000000000e+03 4.206844711303710938e+01 -1.894810867309570312e+01 1.646001636981964111e-01 2.292424738407135010e-01 1.181527897715568542e-01 1.337693184614181519e-01
1.586000000000000000e+03 4.203041458129882812e+01 -1.774258232116699219e+01 7.031437009572982788e-02 1.741388589143753052e-01 7.333596795797348022e-02 1.426441073417663574e-01
1.587000000000000000e+03 4.100254440307617188e+01 -1.681112098693847656e+01 -8.861298859119415283e-02 5.570070147514343262e-01 1.405182182788848877e-01 3.328867629170417786e-02
1.588000000000000000e+03 4.149528121948242188e+01 -1.726098251342773438e+01 1.279233692912384868e-04 3.702016770839691162e-01 1.110988855361938477e-01 1.044365614652633667e-01
1.589000000000000000e+03 1.189265251159667969e+01 1.837184548377990723e+00 6.937731086509302258e-06 -2.374760333623271435e-05 -5.042961674917023629e-06 9.566445442033000290e-06
1.590000000000000000e+03 1.362838077545166016e+01 3.758672237396240234e+00 2.404645056230947375e-05 2.237755143141839653e-05 1.392720059811836109e-05 1.121879540733061731e-05
1.591000000000000000e+03 1.270518875122070312e+01 2.493677377700805664e+00 2.637242232594871894e-06 -1.898063055705279112e-05 -4.903016815660521388e-06 1.489309670432703570e-05
1.592000000000000000e+03 1.114202213287353516e+01 -3.409601211547851562e+00 -1.189949661493301392e-01 -6.519472599029541016e-02 -5.525690689682960510e-02 -1.434197276830673218e-01
1.593000000000000000e+03 1.114804840087890625e+01 -2.626542091369628906e+00 -1.353733837604522705e-01 -4.215352609753608704e-02 -5.325807631015777588e-02 -1.212925389409065247e-01
1.594000000000000000e+03 1.267272472381591797e+01 -2.572921037673950195e+00 -1.925852745771408081e-01 -5.351453274488449097e-02 -7.382994145154953003e-02 -1.626255661249160767e-01
1.595000000000000000e+03 9.623064994812011719e+00 -1.865042686462402344e+00 -9.142598509788513184e-02 -1.848990656435489655e-02 -3.297476842999458313e-02 -6.272420287132263184e-02
1.596000000000000000e+03 4.637338638305664062e+01 -1.430324554443359375e+01 4.241190105676651001e-02 -6.126310676336288452e-02 -5.655362270772457123e-03 2.169421315193176270e-01
1.597000000000000000e+03 4.510110855102539062e+01 -1.353613567352294922e+01 3.413619697093963623e-01 -1.880649179220199585e-01 4.598911851644515991e-02 2.378420382738113403e-01
1.598000000000000000e+03 7.281040191650390625e+01 -1.442688751220703125e+01 -2.020944058895111084e-01 1.917879283428192139e-02 -5.487468093633651733e-02 -4.288704693317413330e-02
1.599000000000000000e+03 7.509169769287109375e+01 -1.366610240936279297e+01 -1.345530748367309570e-01 -1.975642144680023193e-02 -4.629284888505935669e-02 -9.192510694265365601e-02
1.600000000000000000e+03 7.587654113769531250e+01 -1.359031772613525391e+01 -9.916187077760696411e-02 -2.732189744710922241e-02 -3.794512897729873657e-02 -8.404014259576797485e-02
1.601000000000000000e+03 7.668141937255859375e+01 -1.329986190795898438e+01 -7.996287941932678223e-02 -4.452388361096382141e-02 -3.734602779150009155e-02 -7.231107354164123535e-02
1.602000000000000000e+03 1.421121406555175781e+01 -3.142287731170654297e+00 -2.220860272645950317e-01 -9.153371304273605347e-02 -9.408592432737350464e-02 -2.369260638952255249e-01
1.603000000000000000e+03 1.343163299560546875e+01 -2.521131992340087891e+00 -2.280427366495132446e-01 -6.080547347664833069e-02 -8.665446192026138306e-02 -1.844724863767623901e-01
1.604000000000000000e+03 1.419421482086181641e+01 -2.472847223281860352e+00 -2.652799785137176514e-01 -6.624751538038253784e-02 -9.945824742317199707e-02 -2.091003805398941040e-01
1.605000000000000000e+03 1.573855018615722656e+01 -2.441307783126831055e+00 -3.477435111999511719e-01 -8.043549209833145142e-02 -1.284537017345428467e-01 -2.609509825706481934e-01
1.606000000000000000e+03 6.759047985076904297e+00 2.549407005310058594e+00 1.240085839526727796e-05 -3.079370435443706810e-05 -5.517853878700407222e-06 2.971743242596858181e-06
1.607000000000000000e+03 7.371171951293945312e+00 1.842680931091308594e+00 1.470902134315110743e-05 -2.974022390844766051e-05 -4.509360678639495745e-06 2.181998297601239756e-06
1.608000000000000000e+03 5.262753963470458984e+00 2.641443490982055664e+00 9.205649803334381431e-06 -2.197499088651966304e-05 -3.830802597803995013e-06 -1.550988827148103155e-06
1.609000000000000000e+03 9.011157989501953125e+00 2.501939773559570312e+00 3.950022073695436120e-05 1.983882430067751557e-05 1.780171260179486126e-05 6.685988296339928638e-07
1.610000000000000000e+03 3.540167808532714844e+00 1.979353666305541992e+00 9.313276677858084440e-06 3.067159559577703476e-05 1.199546113639371470e-05 -1.828205859055742621e-05
1.611000000000000000e+03 3.330585002899169922e+00 4.048262119293212891e+00 3.638468842837028205e-05 1.149819763668347150e-05 1.436486581951612607e-05 -1.979027729248628020e-06
1.612000000000000000e+03 6.013303279876708984e+00 2.581323146820068359e+00 4.283667294657789171e-05 1.704944588709622622e-05 1.796583637769799680e-05 -2.225850766990333796e-05
1.613000000000000000e+03 1.352549314498901367e+00 3.526331186294555664e+00 3.721314351423643529e-05 2.537340515118557960e-05 1.877596514532342553e-05 -3.364506846992298961e-05
1.614000000000000000e+03 1.050453853607177734e+01 2.494721174240112305e+00 3.714872582349926233e-05 2.022387343458831310e-05 1.721177977742627263e-05 1.077749857358867303e-05
1.615000000000000000e+03 9.760931015014648438e+00 2.494518041610717773e+00 1.608340062375646085e-05 -3.116756488452665508e-05 -4.525249551079468802e-06 8.712378075870219618e-06
1.616000000000000000e+03 1.038467788696289062e+01 -2.617756366729736328e+00 -1.122963503003120422e-01 -3.764316067099571228e-02 -4.498185217380523682e-02 -1.010812819004058838e-01
1.617000000000000000e+03 6.539188385009765625e+00 -1.891275644302368164e+00 -2.687665447592735291e-02 -1.041362807154655457e-02 -1.118708495050668716e-02 -2.154774218797683716e-02
1.618000000000000000e+03 5.765094280242919922e+00 -1.896628737449645996e+00 -1.774133741855621338e-02 -7.882218807935714722e-03 -7.687067147344350815e-03 -1.492544449865818024e-02
1.619000000000000000e+03 7.405990123748779297e+00 -3.288133144378662109e+00 -4.633237048983573914e-02 -3.222813829779624939e-02 -2.356815338134765625e-02 -5.330400913953781128e-02
1.620000000000000000e+03 4.185426235198974609e+00 -2.608196258544921875e+00 -1.169440709054470062e-02 -1.058077253401279449e-02 -6.682553794234991074e-03 -7.139226887375116348e-03
1.621000000000000000e+03 7.334543228149414062e+00 -2.608222961425781250e+00 -4.399988427758216858e-02 -2.253464236855506897e-02 -1.996035687625408173e-02 -4.214780405163764954e-02
1.622000000000000000e+03 8.104680061340332031e+00 -2.565935134887695312e+00 -5.712093412876129150e-02 -2.357713691890239716e-02 -2.420942112803459167e-02 -5.360820889472961426e-02
1.623000000000000000e+03 6.551105022430419922e+00 -2.676680803298950195e+00 -3.229173272848129272e-02 -1.867161877453327179e-02 -1.528900489211082458e-02 -3.140740841627120972e-02
1.624000000000000000e+03 4.284659624099731445e-01 -2.190081119537353516e+00 -1.607052545296028256e-04 6.008336320519447327e-03 1.754289260134100914e-03 1.550905522890388966e-03
1.625000000000000000e+03 6.389200687408447266e-01 -5.050716876983642578e+00 -1.047900295816361904e-03 9.399096481502056122e-03 2.505359007045626640e-03 -6.772104534320533276e-04
1.626000000000000000e+03 3.195841789245605469e+01 -1.958018302917480469e+00 -2.983565330505371094e+00 -7.548171561211347580e-03 -8.973340392112731934e-01 -3.221336007118225098e-01
1.627000000000000000e+03 3.122872543334960938e+01 -1.794561982154846191e+00 -3.229063749313354492e+00 3.184783160686492920e-01 -8.731756210327148438e-01 -1.189943104982376099e-01
1.628000000000000000e+03 3.286311340332031250e+01 -2.390128850936889648e+00 -2.309522390365600586e+00 -4.080301821231842041e-01 -8.152657747268676758e-01 -4.356934502720832825e-02
1.629000000000000000e+03 3.318473815917968750e+01 -3.694281816482543945e+00 -1.193404555320739746e+00 8.878140151500701904e-02 -3.313869237899780273e-01 1.346501857042312622e-01
1.630000000000000000e+03 3.583318328857421875e+01 -1.235943555831909180e+00 -2.410547256469726562e+00 3.979062736034393311e-01 -6.037923097610473633e-01 2.007156461477279663e-01
1.631000000000000000e+03 3.510795211791992188e+01 -2.152908563613891602e+00 -2.347018241882324219e+00 4.806085824966430664e-01 -5.599228739738464355e-01 3.626452386379241943e-01
1.632000000000000000e+03 3.556172180175781250e+01 -1.809705495834350586e+00 -2.411125659942626953e+00 4.916673898696899414e-01 -5.758374929428100586e-01 3.512821793556213379e-01
1.633000000000000000e+03 1.815709877014160156e+01 -2.413934707641601562e+00 -4.882377386093139648e-01 -8.483950048685073853e-02 -1.719231754541397095e-01 -3.249813318252563477e-01
1.634000000000000000e+03 1.732291030883789062e+01 -3.230627775192260742e+00 -3.318975567817687988e-01 -1.134889498353004456e-01 -1.336159557104110718e-01 -3.404534161090850830e-01
1.635000000000000000e+03 1.652549171447753906e+01 -2.446098566055297852e+00 -3.893960714340209961e-01 -8.859110623598098755e-02 -1.433961540460586548e-01 -2.837787568569183350e-01
1.636000000000000000e+03 1.733124160766601562e+01 -2.444557189941406250e+00 -4.300287067890167236e-01 -9.000174701213836670e-02 -1.560091376304626465e-01 -3.122791051864624023e-01
1.637000000000000000e+03 3.580921554565429688e+01 -1.205285263061523438e+01 2.980493545532226562e+00 2.327641963958740234e+00 1.592440605163574219e+00 8.845959305763244629e-01
1.638000000000000000e+03 3.547715759277343750e+01 -1.341261863708496094e+01 -7.959139347076416016e-01 1.900512456893920898e+00 3.313795626163482666e-01 1.570432543754577637e+00
1.639000000000000000e+03 3.694535064697265625e+01 -9.982068061828613281e+00 1.791407942771911621e+00 4.883861541748046875e+00 2.002580881118774414e+00 -8.404461741447448730e-01
1.640000000000000000e+03 3.562712860107421875e+01 -1.066310882568359375e+01 3.124043226242065430e+00 1.764878869056701660e+00 1.466676592826843262e+00 -2.063812255859375000e+00
1.641000000000000000e+03 3.653720474243164062e+01 -9.334916114807128906e+00 1.474501013755798340e+00 3.100811958312988281e+00 1.372593879699707031e+00 -1.294125318527221680e+00
1.642000000000000000e+03 7.125080108642578125e+01 -1.453003597259521484e+01 -2.549971640110015869e-01 4.931924864649772644e-02 -6.170337274670600891e-02 -2.631837967783212662e-03
1.643000000000000000e+03 7.200555419921875000e+01 -1.376498508453369141e+01 -3.021023869514465332e-01 5.135352537035942078e-02 -7.522466033697128296e-02 -5.659861117601394653e-02
1.644000000000000000e+03 7.124694824218750000e+01 -1.384370517730712891e+01 -3.266141116619110107e-01 4.613117128610610962e-02 -8.414488285779953003e-02 -6.063835322856903076e-02
1.645000000000000000e+03 7.356053924560546875e+01 -1.363952541351318359e+01 -2.107983380556106567e-01 1.154181826859712601e-02 -5.977695435285568237e-02 -8.614922314882278442e-02
1.646000000000000000e+03 2.196644020080566406e+01 -8.838013410568237305e-01 -1.008885264396667480e+00 1.375173330307006836e-01 -2.614103853702545166e-01 -1.550556868314743042e-01
1.647000000000000000e+03 2.208372879028320312e+01 -1.464908242225646973e+00 -9.864780306816101074e-01 1.613208204507827759e-01 -2.475471645593643188e-01 -2.450573891401290894e-01
1.648000000000000000e+03 2.360473442077636719e+01 -1.068124055862426758e+00 -1.376601219177246094e+00 3.058858811855316162e-01 -3.212145864963531494e-01 -1.591795682907104492e-01
1.649000000000000000e+03 1.980957031250000000e+01 -2.140924215316772461e+00 -6.379631161689758301e-01 -3.503895178437232971e-02 -2.019006162881851196e-01 -3.283735811710357666e-01
1.650000000000000000e+03 2.059643745422363281e+01 -1.944863200187683105e+00 -7.407394051551818848e-01 1.595158874988555908e-02 -2.174363434314727783e-01 -3.104800879955291748e-01
1.651000000000000000e+03 2.688608360290527344e+01 -3.097980260848999023e+00 -1.315247416496276855e+00 -1.593558341264724731e-01 -4.423809647560119629e-01 -6.889600753784179688e-01
1.652000000000000000e+03 6.970523071289062500e+01 -2.119850921630859375e+01 -7.788697985233739018e-06 4.905666719423606992e-05 1.238039112649857998e-05 1.982038811547681689e-04
1.653000000000000000e+03 6.885491943359375000e+01 -1.962189865112304688e+01 1.381092297378927469e-04 1.945529365912079811e-04 9.979864989873021841e-05 1.188979294965974987e-04
1.654000000000000000e+03 6.865751647949218750e+01 -2.060196685791015625e+01 7.897884643170982599e-05 2.319551131222397089e-04 9.328018495580181479e-05 1.542669633636251092e-04
1.655000000000000000e+03 4.506958389282226562e+01 -2.000138664245605469e+01 1.922787912189960480e-02 -5.409727692604064941e-01 -1.565234661102294922e-01 1.105442047119140625e-01
1.656000000000000000e+03 4.503299713134765625e+01 -1.900710678100585938e+01 6.963346153497695923e-02 -4.216248095035552979e-01 -1.055974066257476807e-01 1.612647473812103271e-01
1.657000000000000000e+03 3.714888763427734375e+01 3.302322864532470703e+00 -1.734768302412703633e-04 3.199882630724459887e-04 4.395343057694844902e-05 -3.667999990284442902e-04
1.658000000000000000e+03 2.331166458129882812e+01 -2.467472553253173828e+00 -1.137703657150268555e+00 2.197217643260955811e-01 -2.753945887088775635e-01 -5.584877133369445801e-01
1.659000000000000000e+03 2.438302993774414062e+01 -2.877207517623901367e+00 -1.075816392898559570e+00 1.012688577175140381e-01 -2.923642694950103760e-01 -7.793648242950439453e-01
1.660000000000000000e+03 3.467634582519531250e+01 -1.348092651367187500e+01 -4.764930009841918945e-01 -1.593920350074768066e+00 -6.211240291595458984e-01 1.330844044685363770e+00
1.661000000000000000e+03 3.566859817504882812e+01 -1.268007946014404297e+01 8.967388868331909180e-01 2.536320209503173828e+00 1.029917716979980469e+00 1.204428195953369141e+00
1.662000000000000000e+03 5.983432388305664062e+01 -1.379083633422851562e+01 -1.751368284225463867e+00 -4.614359140396118164e-02 -5.392535328865051270e-01 -5.847225785255432129e-01
1.663000000000000000e+03 5.685610961914062500e+01 -1.303921413421630859e+01 -1.611889481544494629e+00 1.355857998132705688e-01 -4.428911209106445312e-01 -1.941974163055419922e-01
1.664000000000000000e+03 5.812549591064453125e+01 -1.283662509918212891e+01 -1.665217757225036621e+00 1.902431249618530273e-01 -4.424923956394195557e-01 -3.826631605625152588e-01
1.665000000000000000e+03 5.202393722534179688e+01 -1.502173805236816406e+01 -1.401978135108947754e+00 3.297075629234313965e-03 -4.196043014526367188e-01 -4.587817937135696411e-02
1.666000000000000000e+03 6.821882629394531250e+01 -1.282267284393310547e+01 -7.849963307380676270e-01 5.449837818741798401e-02 -2.191493809223175049e-01 1.765619777143001556e-02
1.667000000000000000e+03 5.191111755371093750e+01 -1.400069332122802734e+01 -1.148315548896789551e+00 8.257130533456802368e-02 -3.197232782840728760e-01 2.569552063941955566e-01
1.668000000000000000e+03 5.315631103515625000e+01 -1.384843063354492188e+01 -1.368984222412109375e+00 9.338472038507461548e-02 -3.826798498630523682e-01 1.764938980340957642e-01
1.669000000000000000e+03 7.829441070556640625e+01 -2.033679771423339844e+01 -1.515367184765636921e-04 1.566578430356457829e-05 -4.076127879670821130e-05 -1.040879214997403324e-04
1.670000000000000000e+03 7.798950958251953125e+01 -3.086552619934082031e+01 -3.639656933955848217e-04 -5.898081581108272076e-04 -2.861321554519236088e-04 5.581012810580432415e-04
1.671000000000000000e+03 7.935923004150390625e+01 -2.955817604064941406e+01 -2.042340929619967937e-04 7.013986760284751654e-05 -4.022826396976597607e-05 1.286161568714305758e-04
1.672000000000000000e+03 7.942625427246093750e+01 -2.414168357849121094e+01 -1.120371744036674500e-04 3.528921224642544985e-04 7.225648005260154605e-05 -3.491700044833123684e-05
1.673000000000000000e+03 7.910794830322265625e+01 -3.636518478393554688e+01 2.148449675587471575e-05 -2.415623283013701439e-03 -7.182416738942265511e-04 3.759574901778250933e-04
1.674000000000000000e+03 7.924510955810546875e+01 -3.361930847167968750e+01 1.407233212376013398e-04 -1.288737985305488110e-03 -3.444043977651745081e-04 3.601574280764907598e-04
1.675000000000000000e+03 7.775320434570312500e+01 -3.352152252197265625e+01 -3.747553273569792509e-04 -1.353647676296532154e-03 -5.185208865441381931e-04 8.634870173409581184e-04
1.676000000000000000e+03 7.827613830566406250e+01 -2.418711090087890625e+01 1.027367543429136276e-04 1.754465483827516437e-04 8.345499372808262706e-05 -5.596424307441338897e-05
1.677000000000000000e+03 7.813153076171875000e+01 -2.820813179016113281e+01 -2.824532566592097282e-04 -7.609370368300005794e-05 -1.075640902854502201e-04 2.147817140212282538e-04
1.678000000000000000e+03 7.716226959228515625e+01 -3.779896545410156250e+01 2.801813534460961819e-04 -2.859219443053007126e-03 -7.737114792689681053e-04 7.833632989786565304e-04
1.679000000000000000e+03 7.749598693847656250e+01 -3.929956054687500000e+01 3.487452704575844109e-05 -3.218855243176221848e-03 -9.551942348480224609e-04 8.385906112380325794e-04
1.680000000000000000e+03 4.340538787841796875e+01 -2.480212593078613281e+01 2.365425415337085724e-02 7.645916193723678589e-02 3.003402613103389740e-02 -1.738589257001876831e-01
1.681000000000000000e+03 2.968836784362792969e+01 -7.346318244934082031e+00 2.667948722839355469e+00 1.067702651023864746e+00 1.120695352554321289e+00 -4.300907254219055176e-01
1.682000000000000000e+03 2.979691314697265625e+01 -8.214552879333496094e+00 5.567658424377441406e+00 8.003068566322326660e-01 1.910389661788940430e+00 -1.077610611915588379e+00
1.683000000000000000e+03 3.974634933471679688e+01 1.102313423156738281e+01 -7.020017132163047791e-03 -4.275011597201228142e-04 -2.234255429357290268e-03 -1.624667434953153133e-03
1.684000000000000000e+03 4.767639160156250000e+01 -2.830000114440917969e+01 -1.040742695331573486e-01 -1.585718244314193726e-01 -7.879383116960525513e-02 1.066787913441658020e-01
1.685000000000000000e+03 5.014154815673828125e+01 -2.984774971008300781e+01 -1.548650711774826050e-01 -3.560506179928779602e-02 -5.714103952050209045e-02 6.501141190528869629e-02
1.686000000000000000e+03 5.567073059082031250e+01 -3.303021240234375000e+01 -3.451457992196083069e-02 -1.362090557813644409e-02 -1.444064546376466751e-02 2.904094569385051727e-02
1.687000000000000000e+03 5.113790512084960938e+01 -3.177800369262695312e+01 -6.097922846674919128e-02 -2.530367113649845123e-02 -2.588487043976783752e-02 2.649872750043869019e-02
1.688000000000000000e+03 4.259133529663085938e+01 1.378104686737060547e+01 -2.939973957836627960e-02 -1.150313392281532288e-02 -1.227086223661899567e-02 -1.462190784513950348e-02
1.689000000000000000e+03 4.121545791625976562e+01 1.414187717437744141e+01 -2.921187318861484528e-02 6.151414476335048676e-03 -6.918137427419424057e-03 -9.550002403557300568e-03
1.690000000000000000e+03 3.722465133666992188e+01 7.666053771972656250e+00 -6.824380252510309219e-04 -1.212965697050094604e-03 -5.686210934072732925e-04 3.434097743593156338e-05
1.691000000000000000e+03 4.681904220581054688e+01 2.194141960144042969e+01 -7.323889294639229774e-04 1.716068945825099945e-02 4.928490612655878067e-03 -2.328793890774250031e-02
1.692000000000000000e+03 6.752944946289062500e+01 -2.510966491699218750e+01 -6.842816947028040886e-04 1.190530965686775744e-04 -1.695685787126421928e-04 -2.216612047050148249e-04
1.693000000000000000e+03 6.751567840576171875e+01 -2.316409683227539062e+01 3.054535482078790665e-04 4.031482385471463203e-04 2.125805331161245704e-04 2.296583261340856552e-04
1.694000000000000000e+03 4.811437225341796875e+01 -3.097497940063476562e+01 -2.209562622010707855e-02 -1.768318749964237213e-02 -1.193364430218935013e-02 -2.620536275207996368e-02
1.695000000000000000e+03 5.143138122558593750e+01 2.242251205444335938e+01 1.037164106965065002e-01 1.592500833794474602e-03 3.159267455339431763e-02 -9.083063900470733643e-02
1.696000000000000000e+03 4.429063415527343750e+01 1.775683975219726562e+01 -6.153607368469238281e-02 8.796800859272480011e-03 -1.582178100943565369e-02 -2.211256325244903564e-02
1.697000000000000000e+03 3.905879974365234375e+01 1.004504394531250000e+01 -8.641703170724213123e-04 9.929065126925706863e-04 3.862083758576773107e-05 -1.453335396945476532e-03
1.698000000000000000e+03 4.879648208618164062e+01 2.111833572387695312e+01 -2.768217958509922028e-02 -8.657656610012054443e-03 -1.090195123106241226e-02 -3.730141744017601013e-02
1.699000000000000000e+03 4.645168304443359375e+01 1.943404388427734375e+01 -6.869385391473770142e-02 1.819039694964885712e-03 -2.006244473159313202e-02 -2.992374449968338013e-02
1.700000000000000000e+03 4.535033035278320312e+01 1.855462837219238281e+01 -7.083309441804885864e-02 -3.124964889138936996e-03 -2.218741923570632935e-02 -2.049649320542812347e-02
1.701000000000000000e+03 3.228107452392578125e+01 -2.975823402404785156e+01 2.749789953231811523e-01 9.347231984138488770e-01 3.629106581211090088e-01 4.215986430644989014e-01
1.702000000000000000e+03 3.015330696105957031e+01 -2.902499580383300781e+01 5.993342399597167969e-01 4.677988290786743164e-01 3.201399147510528564e-01 4.330481886863708496e-01
1.703000000000000000e+03 6.044470596313476562e+01 -3.395043182373046875e+01 -1.589084416627883911e-02 -3.757287980988621712e-03 -5.894439294934272766e-03 1.922406256198883057e-02
1.704000000000000000e+03 6.100474166870117188e+01 -3.138256072998046875e+01 -2.427681721746921539e-02 5.542537546716630459e-04 -7.116768974810838699e-03 8.146316744387149811e-03
1.705000000000000000e+03 5.763872909545898438e+01 -3.292095565795898438e+01 -2.932435832917690277e-02 -7.465713191777467728e-03 -1.103702187538146973e-02 2.396504580974578857e-02
1.706000000000000000e+03 5.946268463134765625e+01 -3.216579055786132812e+01 -2.832686528563499451e-02 -1.673583290539681911e-03 -9.000134654343128204e-03 1.404825970530509949e-02
1.707000000000000000e+03 4.556183624267578125e+01 -2.829655838012695312e+01 3.600521385669708252e-02 -7.999060302972793579e-02 -1.319561619311571121e-02 -9.131392836570739746e-02
1.708000000000000000e+03 5.400329589843750000e+01 -3.241827392578125000e+01 -5.263725295662879944e-02 -1.445632986724376678e-02 -2.012807503342628479e-02 3.013820573687553406e-02
1.709000000000000000e+03 6.480088043212890625e+01 -2.847603225708007812e+01 -7.135537918657064438e-03 8.211092790588736534e-04 -1.894328510388731956e-03 -1.144785055657848716e-04
1.710000000000000000e+03 7.070302581787109375e+01 -2.165333175659179688e+01 4.210171173326671124e-04 -1.497328339610248804e-04 8.138528937706723809e-05 1.014854424283839762e-04
1.711000000000000000e+03 6.665287780761718750e+01 -2.622346115112304688e+01 -1.968062948435544968e-03 9.581272752257063985e-05 -5.616750568151473999e-04 -1.878884067991748452e-04
1.712000000000000000e+03 4.544919204711914062e+01 -2.119190025329589844e+01 2.269185613840818405e-03 -7.743793129920959473e-01 -2.316330373287200928e-01 -1.757298596203327179e-04
1.713000000000000000e+03 4.328757095336914062e+01 -2.306298637390136719e+01 6.028085574507713318e-02 1.385251339524984360e-02 2.224001102149486542e-02 -6.630556285381317139e-02
1.714000000000000000e+03 4.396913909912109375e+01 -2.106212997436523438e+01 4.720515012741088867e-02 -3.076290190219879150e-01 -7.812716066837310791e-02 1.292123347520828247e-01
1.715000000000000000e+03 6.176959991455078125e+01 2.466065597534179688e+01 6.725112348794937134e-02 1.791133642196655273e+00 5.575154423713684082e-01 -3.814584910869598389e-01
1.716000000000000000e+03 3.733442306518554688e+01 -2.443802642822265625e+01 3.347504138946533203e-01 1.983143329620361328e+00 6.953681111335754395e-01 4.812209308147430420e-02
1.717000000000000000e+03 2.592875862121582031e+01 -2.993078804016113281e+01 2.113891243934631348e-01 3.752360492944717407e-02 7.467381656169891357e-02 5.117394402623176575e-02
1.718000000000000000e+03 1.684734344482421875e+01 -1.243696689605712891e+01 -2.242200821638107300e-02 -2.327898591756820679e-01 -7.656355947256088257e-02 -1.429625898599624634e-01
1.719000000000000000e+03 1.434457111358642578e+01 -1.233976459503173828e+01 2.522920072078704834e-02 -3.783017396926879883e-01 -1.059217602014541626e-01 -1.302473545074462891e-01
1.720000000000000000e+03 2.186359214782714844e+01 -9.810158729553222656e+00 6.148735284805297852e-01 -1.061580404639244080e-01 1.526146531105041504e-01 1.056807930581271648e-03
1.721000000000000000e+03 3.335688400268554688e+01 -1.072836685180664062e+01 8.821358084678649902e-01 -9.932342171669006348e-01 -3.332952409982681274e-02 -2.778145074844360352e-01
1.722000000000000000e+03 1.820809745788574219e+01 -9.757897377014160156e+00 2.549424767494201660e-01 -1.757805943489074707e-01 2.374856173992156982e-02 -2.302181273698806763e-01
1.723000000000000000e+03 1.646021461486816406e+01 -1.118146419525146484e+01 2.046189457178115845e-01 -2.978775501251220703e-01 -2.797758206725120544e-02 -1.749979555606842041e-01
1.724000000000000000e+03 3.682668304443359375e+01 -2.045090866088867188e+01 3.158700764179229736e-01 2.887928485870361328e+00 9.611395597457885742e-01 2.394866347312927246e-01
1.725000000000000000e+03 3.660588073730468750e+01 -1.903699684143066406e+01 1.212401539087295532e-01 3.037981986999511719e+00 9.477666616439819336e-01 1.624853014945983887e-01
1.726000000000000000e+03 2.605022048950195312e+01 -7.952329635620117188e+00 1.831801772117614746e+00 -1.359331756830215454e-01 5.087605714797973633e-01 -1.783970743417739868e-01
1.727000000000000000e+03 2.681064033508300781e+01 -8.737492561340332031e+00 2.480962991714477539e+00 3.858868777751922607e-01 8.600549101829528809e-01 6.986109614372253418e-01
1.728000000000000000e+03 2.190921974182128906e+01 -3.099073791503906250e+01 1.312869787216186523e-01 7.818897068500518799e-02 6.284278631210327148e-02 -3.684466704726219177e-02
1.729000000000000000e+03 2.302712440490722656e+01 -3.156972122192382812e+01 1.429075449705123901e-01 7.418932765722274780e-02 6.512906402349472046e-02 -3.064602985978126526e-02
1.730000000000000000e+03 2.065267181396484375e+01 -1.003339195251464844e+01 4.995869696140289307e-01 -9.109860658645629883e-02 1.225465089082717896e-01 -6.242363899946212769e-02
1.731000000000000000e+03 3.226951599121093750e+01 -8.371985435485839844e+00 2.777670145034790039e+00 1.654901802539825439e-01 8.829481005668640137e-01 -7.263273000717163086e-01
1.732000000000000000e+03 3.680458068847656250e+01 -1.481396102905273438e+01 -1.142280936241149902e+00 3.594563961029052734e+00 7.356848716735839844e-01 5.086066722869873047e-01
1.733000000000000000e+03 2.080646324157714844e+01 -1.126602649688720703e+01 5.262591242790222168e-01 -2.819752879440784454e-02 1.494184732437133789e-01 5.470284819602966309e-02
1.734000000000000000e+03 3.084625053405761719e+01 -8.081378936767578125e+00 3.927870988845825195e+00 1.018016219139099121e+00 1.483766198158264160e+00 -1.108618736267089844e+00
1.735000000000000000e+03 3.625023269653320312e+01 -1.772899246215820312e+01 -1.696179248392581940e-02 3.081810712814331055e+00 9.194546341896057129e-01 7.068438827991485596e-02
1.736000000000000000e+03 1.417144680023193359e+01 -2.399638557434082031e+01 8.456604182720184326e-02 -1.403350979089736938e-01 -1.673071458935737610e-02 -5.368536710739135742e-02
1.737000000000000000e+03 1.949984741210937500e+01 -2.947393798828125000e+01 9.718414396047592163e-02 6.478155404329299927e-02 4.858971014618873596e-02 -6.619942933320999146e-02
1.738000000000000000e+03 1.443587684631347656e+01 -2.596231842041015625e+01 8.960244804620742798e-02 -1.126526370644569397e-01 -6.915055681020021439e-03 -5.313424766063690186e-02
1.739000000000000000e+03 3.069496536254882812e+01 -3.317926788330078125e+01 7.001627981662750244e-02 6.465801596641540527e-01 2.149789333343505859e-01 2.730167210102081299e-01
1.740000000000000000e+03 2.515398216247558594e+01 -8.552380561828613281e+00 1.567699193954467773e+00 -1.489563137292861938e-01 4.256228506565093994e-01 1.037221327424049377e-01
1.741000000000000000e+03 3.647492599487304688e+01 -1.395462608337402344e+01 -1.370157599449157715e+00 4.098598480224609375e+00 8.185323476791381836e-01 9.114659428596496582e-01
1.742000000000000000e+03 2.465645599365234375e+01 -3.121653556823730469e+01 1.779071390628814697e-01 7.436558604240417480e-02 7.568182051181793213e-02 6.338916253298521042e-03
1.743000000000000000e+03 2.612516593933105469e+01 -3.195195770263671875e+01 2.158775180578231812e-01 1.753638386726379395e-01 1.173724085092544556e-01 1.175707802176475525e-01
1.744000000000000000e+03 3.559176254272460938e+01 -2.718868827819824219e+01 6.074697151780128479e-02 1.702276706695556641e+00 5.289071202278137207e-01 2.006922960281372070e-01
1.745000000000000000e+03 1.367913627624511719e+01 -2.698443984985351562e+01 8.029682189226150513e-02 -1.231352388858795166e-01 -1.285152416676282883e-02 -5.571838095784187317e-02
1.746000000000000000e+03 7.928565216064453125e+01 3.754640579223632812e+01 5.619016010314226151e-03 -8.274274468421936035e-01 -2.465425282716751099e-01 3.764913231134414673e-02
1.747000000000000000e+03 7.732746887207031250e+01 3.477585601806640625e+01 -3.156199306249618530e-02 -8.105883598327636719e-01 -2.526451051235198975e-01 1.593730896711349487e-01
1.748000000000000000e+03 7.917567443847656250e+01 3.054840850830078125e+01 -1.417622319422662258e-03 -1.359579563140869141e+00 -4.082991778850555420e-01 8.852472901344299316e-02
1.749000000000000000e+03 7.772415161132812500e+01 2.766466331481933594e+01 -1.140210125595331192e-02 -1.380102872848510742e+00 -4.174515008926391602e-01 2.538664340972900391e-01
1.750000000000000000e+03 7.824409484863281250e+01 -9.854693412780761719e+00 -2.185204066336154938e-02 -2.104381620883941650e-01 -6.968706101179122925e-02 -1.411339789628982544e-01
1.751000000000000000e+03 7.823632812500000000e+01 -8.500211715698242188e+00 -3.556897863745689392e-02 -3.211628496646881104e-01 -1.070195436477661133e-01 -1.836764961481094360e-01
1.752000000000000000e+03 7.941158294677734375e+01 -7.230526924133300781e+00 -1.082421932369470596e-02 -4.652480185031890869e-01 -1.428216695785522461e-01 -7.591113448143005371e-02
1.753000000000000000e+03 7.936947631835937500e+01 5.318079471588134766e+00 6.441207136958837509e-03 -2.450107812881469727e+00 -7.330999374389648438e-01 -7.131247967481613159e-02
1.754000000000000000e+03 7.935414123535156250e+01 1.232723903656005859e+01 1.155097503215074539e-02 -2.976974248886108398e+00 -8.896269798278808594e-01 -7.687122561037540436e-03
1.755000000000000000e+03 7.806116485595703125e+01 1.226662731170654297e+01 2.991706691682338715e-02 -2.407452821731567383e+00 -7.132607102394104004e-01 -3.787149116396903992e-02
1.756000000000000000e+03 7.935097503662109375e+01 1.372988128662109375e+01 2.015467965975403786e-03 -2.990453958511352539e+00 -8.965315222740173340e-01 6.494855508208274841e-03
1.757000000000000000e+03 7.931326293945312500e+01 1.934807777404785156e+01 3.496652934700250626e-03 -2.708632230758666992e+00 -8.115407228469848633e-01 6.817588210105895996e-02
1.758000000000000000e+03 7.928665161132812500e+01 2.355235671997070312e+01 2.625080756843090057e-03 -2.232615709304809570e+00 -6.689971685409545898e-01 9.198296070098876953e-02
1.759000000000000000e+03 7.927567291259765625e+01 2.494824218750000000e+01 1.505103427916765213e-03 -2.051656484603881836e+00 -6.150453686714172363e-01 9.613448381423950195e-02
1.760000000000000000e+03 7.926084899902343750e+01 2.634551048278808594e+01 -1.573556568473577499e-03 -1.869383215904235840e+00 -5.612870454788208008e-01 9.599051624536514282e-02
1.761000000000000000e+03 7.913187408447265625e+01 3.196191787719726562e+01 -7.913400419056415558e-03 -1.220232367515563965e+00 -3.684437274932861328e-01 8.060150593519210815e-02
1.762000000000000000e+03 7.912458038330078125e+01 3.337560272216796875e+01 6.910458905622363091e-04 -1.098067283630371094e+00 -3.292128741741180420e-01 7.510320097208023071e-02
1.763000000000000000e+03 7.919357299804687500e+01 3.875628280639648438e+01 -5.800177808851003647e-03 -7.450854182243347168e-01 -2.252656668424606323e-01 3.547464683651924133e-02
1.764000000000000000e+03 7.817848205566406250e+01 -1.663925290107727051e+00 6.624748930335044861e-03 -1.169861316680908203e+00 -3.489709496498107910e-01 -2.924930453300476074e-01
1.765000000000000000e+03 7.938264465332031250e+01 1.123757243156433105e+00 -2.703549689613282681e-04 -1.837670803070068359e+00 -5.513823628425598145e-01 -9.464215487241744995e-02
1.766000000000000000e+03 7.936328125000000000e+01 8.121285438537597656e+00 4.509775433689355850e-03 -2.745698451995849609e+00 -8.223566412925720215e-01 -4.885573312640190125e-02
1.767000000000000000e+03 7.792337799072265625e+01 1.930439758300781250e+01 3.193144127726554871e-02 -2.172775983810424805e+00 -6.422533392906188965e-01 1.742396056652069092e-01
1.768000000000000000e+03 7.930268096923828125e+01 2.075246429443359375e+01 6.186232902109622955e-03 -2.566656112670898438e+00 -7.681409716606140137e-01 7.813356071710586548e-02
1.769000000000000000e+03 7.803039550781250000e+01 1.507220458984375000e+01 3.276471793651580811e-02 -2.395710468292236328e+00 -7.088837623596191406e-01 4.814249277114868164e-02
1.770000000000000000e+03 7.933609771728515625e+01 1.653743743896484375e+01 2.731042448431253433e-03 -2.914933204650878906e+00 -8.736606240272521973e-01 3.848267346620559692e-02
1.771000000000000000e+03 7.809265899658203125e+01 8.062254905700683594e+00 2.700905688107013702e-02 -2.235118865966796875e+00 -6.624329686164855957e-01 -1.473596990108489990e-01
1.772000000000000000e+03 7.935978698730468750e+01 9.522588729858398438e+00 8.773078210651874542e-03 -2.852702379226684570e+00 -8.531787991523742676e-01 -3.428557142615318298e-02
1.773000000000000000e+03 7.814392089843750000e+01 1.091057062149047852e+00 1.494110841304063797e-02 -1.535596251487731934e+00 -4.561965465545654297e-01 -2.795656621456146240e-01
1.774000000000000000e+03 7.937762451171875000e+01 2.520083665847778320e+00 5.947506055235862732e-03 -2.059716463088989258e+00 -6.161307096481323242e-01 -8.884515613317489624e-02
1.775000000000000000e+03 7.821187591552734375e+01 -5.778640747070312500e+00 -2.224215865135192871e-02 -6.215531826019287109e-01 -1.931385993957519531e-01 -2.528215348720550537e-01
1.776000000000000000e+03 7.940251922607421875e+01 -4.450052738189697266e+00 -6.801459472626447678e-03 -8.854222893714904785e-01 -2.676671445369720459e-01 -9.448750317096710205e-02
1.777000000000000000e+03 7.747325897216796875e+01 -1.318657684326171875e+01 -5.828387290239334106e-02 -4.627848789095878601e-02 -3.136871010065078735e-02 -6.111466139554977417e-02
1.778000000000000000e+03 7.949346923828125000e+01 -1.290107536315917969e+01 -9.999507106840610504e-03 -1.413949113339185715e-02 -7.241699378937482834e-03 -1.487516053020954132e-02
1.779000000000000000e+03 5.049943542480468750e+01 -5.484369277954101562e+00 1.909369826316833496e+00 4.247310459613800049e-01 7.002302408218383789e-01 8.534052371978759766e-01
1.780000000000000000e+03 6.396236419677734375e+01 1.837151908874511719e+01 9.602124691009521484e-01 3.075274229049682617e+00 1.210646033287048340e+00 -4.008548855781555176e-01
1.781000000000000000e+03 4.621294021606445312e+01 -5.638928890228271484e+00 -7.069353461265563965e-01 -5.392478108406066895e-01 -3.738549351692199707e-01 1.038348197937011719e+00
1.782000000000000000e+03 1.975962042808532715e+00 2.631172180175781250e+01 -1.463006901758490130e-05 -1.700988854281604290e-03 -5.146856419742107391e-04 1.417547813616693020e-03
1.783000000000000000e+03 2.291159868240356445e+00 3.481865692138671875e+01 6.402439903467893600e-04 -9.289076551795005798e-03 -2.594649558886885643e-03 2.444380428642034531e-03
1.784000000000000000e+03 7.058566808700561523e-01 3.192663192749023438e+01 -3.356902743689715862e-04 -6.551583763211965561e-03 -2.066182205453515053e-03 8.377705235034227371e-04
1.785000000000000000e+03 2.183382034301757812e+00 3.611996459960937500e+01 4.334429104346781969e-04 -1.047472469508647919e-02 -3.012384753674268723e-03 1.722729764878749847e-03
1.786000000000000000e+03 2.994866371154785156e+00 3.935000228881835938e+01 4.926260444335639477e-04 -1.214779540896415710e-02 -3.496550722047686577e-03 1.323015429079532623e-03
1.787000000000000000e+03 8.561289310455322266e-01 3.879981613159179688e+01 1.551574096083641052e-04 -1.269309129565954208e-02 -3.761380212381482124e-03 3.166540409438312054e-04
1.788000000000000000e+03 1.873791933059692383e+00 2.349596977233886719e+01 2.734823647188022733e-05 -2.312144788447767496e-04 -6.115987343946471810e-05 6.851389771327376366e-04
1.789000000000000000e+03 2.095320463180541992e+00 3.057728767395019531e+01 -3.725174174178391695e-04 -5.280540324747562408e-03 -1.695917337201535702e-03 2.214742591604590416e-03
1.790000000000000000e+03 2.088135004043579102e+00 3.725245666503906250e+01 4.653079668059945107e-04 -1.144482754170894623e-02 -3.293855814263224602e-03 1.304249744862318039e-03
1.791000000000000000e+03 2.528108835220336914e+00 -3.807401275634765625e+01 9.916561655700206757e-03 -4.387855827808380127e-01 -1.286607086658477783e-01 1.397849642671644688e-03
1.792000000000000000e+03 2.126950502395629883e+00 -3.449100875854492188e+01 6.091360002756118774e-03 -4.395767152309417725e-01 -1.300456076860427856e-01 -1.336117368191480637e-02
1.793000000000000000e+03 6.660557985305786133e-01 -3.045602989196777344e+01 1.270895940251648426e-03 -4.462382793426513672e-01 -1.334902197122573853e-01 -9.211965836584568024e-03
1.794000000000000000e+03 1.636158347129821777e+00 4.944623470306396484e+00 -5.161689477972686291e-05 2.728730760281905532e-05 -7.298876425920752808e-06 1.928380152094177902e-05
1.795000000000000000e+03 5.753284096717834473e-01 -6.482484340667724609e+00 -3.191252471879124641e-04 5.848063156008720398e-03 1.658681314438581467e-03 -2.407531952485442162e-03
1.796000000000000000e+03 5.650125145912170410e-01 -1.066204166412353516e+01 -6.275842897593975067e-04 -2.634241431951522827e-02 -8.090998977422714233e-03 -5.983718670904636383e-03
1.797000000000000000e+03 5.819561481475830078e-01 -1.206147289276123047e+01 -5.230453680269420147e-04 -4.306441918015480042e-02 -1.307623926550149918e-02 -7.453468628227710724e-03
1.798000000000000000e+03 6.022654175758361816e-01 -1.346577167510986328e+01 -1.020572730340063572e-03 -6.321949511766433716e-02 -1.927202008664608002e-02 -9.291456080973148346e-03
1.799000000000000000e+03 6.781089305877685547e-01 -1.769818115234375000e+01 -8.673049742355942726e-04 -1.479351222515106201e-01 -4.464073106646537781e-02 -1.635486446321010590e-02
1.800000000000000000e+03 7.106539011001586914e-01 -1.912063217163085938e+01 -1.128864125348627567e-03 -1.835355460643768311e-01 -5.539932101964950562e-02 -1.837413758039474487e-02
1.801000000000000000e+03 7.383953332901000977e-01 -2.054694366455078125e+01 -5.401154048740863800e-04 -2.210285961627960205e-01 -6.647061556577682495e-02 -2.001102641224861145e-02
1.802000000000000000e+03 7.463488578796386719e-01 -2.197635841369628906e+01 3.055177221540361643e-04 -2.590048313140869141e-01 -7.760979235172271729e-02 -2.016181685030460358e-02
1.803000000000000000e+03 7.334898114204406738e-01 -2.340849685668945312e+01 6.364907021634280682e-04 -2.966399490833282471e-01 -8.880103379487991333e-02 -1.930818893015384674e-02
1.804000000000000000e+03 2.076082229614257812e+00 -2.627099609375000000e+01 3.824061714112758636e-03 -3.382075428962707520e-01 -1.003150418400764465e-01 -4.319059848785400391e-02
1.805000000000000000e+03 2.097629547119140625e+00 -3.313210678100585938e+01 5.573822651058435440e-03 -4.264981150627136230e-01 -1.262772977352142334e-01 -1.772901602089405060e-02
1.806000000000000000e+03 1.817434668540954590e+00 2.210400199890136719e+01 -4.714961105491966009e-04 2.062862040475010872e-04 -7.956297486089169979e-05 3.224261163268238306e-04
1.807000000000000000e+03 5.889474153518676758e-01 1.922392463684082031e+01 2.277080347994342446e-04 1.134637161158025265e-03 4.087035486008971930e-04 -1.941612936207093298e-05
1.808000000000000000e+03 5.961152911186218262e-01 1.781244850158691406e+01 -2.341003128094598651e-04 1.009734929539263248e-03 2.326903922948986292e-04 -8.086531306616961956e-05
1.809000000000000000e+03 6.273521780967712402e-01 1.497748184204101562e+01 -1.781531464075669646e-04 6.409167544916272163e-04 1.388290838804095984e-04 -9.002933802548795938e-05
1.810000000000000000e+03 5.876447558403015137e-01 1.073895931243896484e+01 1.547200809000059962e-04 2.162037562811747193e-04 1.112771496991626918e-04 -3.440554428379982710e-05
1.811000000000000000e+03 6.191881299018859863e-01 7.906315803527832031e+00 9.847948967944830656e-05 8.435219206148758531e-05 5.484950452228076756e-05 -2.560965913289692253e-05
1.812000000000000000e+03 1.879005908966064453e+00 1.363896369934082031e+01 -1.562612451380118728e-04 2.880285028368234634e-04 3.953017221647314727e-05 -1.834416325436905026e-04
1.813000000000000000e+03 3.487399101257324219e+00 -3.906520843505859375e+01 6.583365611732006073e-03 -4.336314797401428223e-01 -1.281144320964813232e-01 -8.703821338713169098e-03
1.814000000000000000e+03 2.057551860809326172e+00 -3.176391983032226562e+01 4.139059223234653473e-03 -4.153980016708374023e-01 -1.233776807785034180e-01 -2.245426550507545471e-02
1.815000000000000000e+03 2.133688926696777344e+00 -2.486674499511718750e+01 3.702141344547271729e-03 -3.118911385536193848e-01 -9.245670586824417114e-02 -4.841032251715660095e-02
1.816000000000000000e+03 7.117638587951660156e-01 -2.483382606506347656e+01 9.119454189203679562e-04 -3.329545557498931885e-01 -9.961278736591339111e-02 -1.776094920933246613e-02
1.817000000000000000e+03 6.240772604942321777e-01 -1.487323474884033203e+01 -7.058823248371481895e-04 -8.722034096717834473e-02 -2.637786604464054108e-02 -1.130946911871433258e-02
1.818000000000000000e+03 2.860392808914184570e+00 -6.787846088409423828e+00 -6.309403572231531143e-03 -3.527266904711723328e-02 -1.247462164610624313e-02 -1.885705627501010895e-02
1.819000000000000000e+03 5.549641847610473633e-01 -7.878027439117431641e+00 -6.738020456396043301e-04 -1.698291860520839691e-03 -7.116281776688992977e-04 -3.596876049414277077e-03
1.820000000000000000e+03 1.598423480987548828e+00 -3.306367635726928711e+00 -2.789142308756709099e-03 -5.977772525511682034e-04 -1.016075839288532734e-03 1.824818202294409275e-03
1.821000000000000000e+03 4.259880065917968750e+01 -4.665619850158691406e+00 -1.449150681495666504e+00 -1.045502424240112305e+00 -7.483959197998046875e-01 1.186173677444458008e+00
1.822000000000000000e+03 6.238766098022460938e+01 4.135109901428222656e+00 7.082418203353881836e-01 2.349777698516845703e+00 9.174058437347412109e-01 6.299836635589599609e-01
1.823000000000000000e+03 6.166756439208984375e+01 5.502880573272705078e+00 9.267657399177551270e-01 3.293746232986450195e+00 1.266153573989868164e+00 1.118021726608276367e+00
1.824000000000000000e+03 5.818242645263671875e+01 -3.123759627342224121e-01 1.181827306747436523e+00 1.801568031311035156e+00 8.950185775756835938e-01 1.330978870391845703e+00
1.825000000000000000e+03 6.283874893188476562e+01 7.013599872589111328e+00 6.438130736351013184e-01 3.086475849151611328e+00 1.119086742401123047e+00 7.815839648246765137e-01
1.826000000000000000e+03 6.317804336547851562e+01 5.803676128387451172e+00 6.698951721191406250e-01 2.637729644775390625e+00 9.922873973846435547e-01 5.577715039253234863e-01
1.827000000000000000e+03 5.249406814575195312e+01 -4.833522796630859375e+00 2.665494918823242188e+00 1.612068176269531250e+00 1.283268928527832031e+00 1.643269896507263184e+00
1.828000000000000000e+03 5.488158416748046875e+01 -4.895377159118652344e+00 1.422939658164978027e+00 1.323260188102722168e+00 8.238599300384521484e-01 1.088170051574707031e+00
1.829000000000000000e+03 5.716411972045898438e+01 4.864043295383453369e-01 1.149665594100952148e+00 2.295555591583251953e+00 1.033566355705261230e+00 1.568336009979248047e+00
1.830000000000000000e+03 6.574391937255859375e+01 1.710910606384277344e+01 7.640751600265502930e-01 2.308907270431518555e+00 9.218947291374206543e-01 -8.696677535772323608e-02
1.831000000000000000e+03 5.572022247314453125e+01 -3.735260486602783203e+00 1.393351912498474121e+00 1.557592868804931641e+00 8.852834105491638184e-01 1.316363096237182617e+00
1.832000000000000000e+03 6.406958770751953125e+01 1.291977596282958984e+01 3.606794178485870361e-01 3.607866048812866211e+00 1.190563678741455078e+00 6.031113117933273315e-02
1.833000000000000000e+03 6.490994262695312500e+01 1.393533992767333984e+01 4.646965563297271729e-01 3.205465793609619141e+00 1.101048707962036133e+00 -3.763401508331298828e-02
1.834000000000000000e+03 5.978440475463867188e+01 1.866468548774719238e+00 8.438349366188049316e-01 2.148224830627441406e+00 8.976178765296936035e-01 1.265646338462829590e+00
1.835000000000000000e+03 6.059643554687500000e+01 2.863753080368041992e+00 7.780468463897705078e-01 2.537054300308227539e+00 9.945303201675415039e-01 1.159994482994079590e+00
1.836000000000000000e+03 1.288378906250000000e+01 -1.874487686157226562e+01 -1.767695695161819458e-02 -3.333653807640075684e-01 -1.053127050399780273e-01 -1.084307879209518433e-01
1.837000000000000000e+03 6.501239013671875000e+01 -1.037354278564453125e+01 -1.299369454383850098e+00 -4.153658747673034668e-01 -5.144205689430236816e-01 -6.135649681091308594e-01
1.838000000000000000e+03 3.709688568115234375e+01 -1.383313751220703125e+01 -1.409412026405334473e+00 4.804906368255615234e+00 1.018648266792297363e+00 1.395771801471710205e-01
1.839000000000000000e+03 3.897128677368164062e+01 -1.505074882507324219e+01 -4.807680249214172363e-01 1.916053295135498047e+00 4.305855929851531982e-01 -4.187942743301391602e-01
1.840000000000000000e+03 3.731300735473632812e+01 -1.349871921539306641e+01 -8.795936107635498047e-01 5.262847900390625000e+00 1.314976334571838379e+00 -3.104508519172668457e-01
1.841000000000000000e+03 3.733756256103515625e+01 -1.392655181884765625e+01 -1.220399618148803711e+00 4.563399314880371094e+00 1.002899885177612305e+00 -7.428905367851257324e-02
1.842000000000000000e+03 3.822674942016601562e+01 -1.391353797912597656e+01 -6.027831435203552246e-01 3.074661493301391602e+00 7.415635585784912109e-01 -9.388672113418579102e-01
1.843000000000000000e+03 2.801334571838378906e+01 -2.010778903961181641e+00 -2.620091438293457031e+00 -6.670928001403808594e-02 -8.060402274131774902e-01 -3.263425827026367188e-01
1.844000000000000000e+03 2.958695602416992188e+01 -1.822003126144409180e+00 -2.875868797302246094e+00 1.843173503875732422e-01 -8.074654340744018555e-01 -2.035723179578781128e-01
1.845000000000000000e+03 3.064609909057617188e+01 -2.015583515167236328e+00 -2.820986270904541016e+00 3.361926078796386719e-01 -7.454380989074707031e-01 -1.928502321243286133e-01
1.846000000000000000e+03 3.107154273986816406e+01 -2.888627290725708008e+00 -2.001096725463867188e+00 2.903710007667541504e-01 -5.132176876068115234e-01 -2.282777577638626099e-01
1.847000000000000000e+03 2.902009391784667969e+01 -2.207598209381103516e+00 -2.516200542449951172e+00 1.333855539560317993e-01 -7.148445248603820801e-01 -2.669934630393981934e-01
1.848000000000000000e+03 3.018668174743652344e+01 -1.768278002738952637e+00 -2.964828252792358398e+00 2.648894190788269043e-01 -8.099816441535949707e-01 -1.529461741447448730e-01
1.849000000000000000e+03 2.808381652832031250e+01 -2.377435445785522461e+00 -2.201681375503540039e+00 -3.385448828339576721e-02 -6.706607341766357422e-01 -3.859276175498962402e-01
1.850000000000000000e+03 2.780875778198242188e+01 -2.029147863388061523e+00 -2.533253431320190430e+00 -1.084897518157958984e-01 -7.925229668617248535e-01 -3.493908047676086426e-01
1.851000000000000000e+03 2.961855888366699219e+01 -2.117066383361816406e+00 -2.629684686660766602e+00 2.038260549306869507e-01 -7.277575731277465820e-01 -2.283864915370941162e-01
1.852000000000000000e+03 2.858134460449218750e+01 -1.910154938697814941e+00 -2.716896057128906250e+00 3.823325783014297485e-02 -8.035988211631774902e-01 -3.045430779457092285e-01
1.853000000000000000e+03 3.892538070678710938e+01 -9.781925201416015625e+00 2.416291475296020508e+00 1.649151325225830078e+00 1.219632863998413086e+00 1.446237921714782715e+00
1.854000000000000000e+03 3.880613708496093750e+01 -1.045704555511474609e+01 3.494921445846557617e+00 1.383708953857421875e+00 1.463589072227478027e+00 1.410429358482360840e+00
1.855000000000000000e+03 4.006378936767578125e+01 -1.020535469055175781e+01 2.425631999969482422e+00 1.268883049488067627e-01 7.657561302185058594e-01 7.338725924491882324e-01
1.856000000000000000e+03 3.971164703369140625e+01 -1.098706245422363281e+01 2.890215873718261719e+00 7.788887619972229004e-02 8.904314041137695312e-01 1.934853792190551758e-01
1.857000000000000000e+03 2.567014312744140625e+01 -3.087751865386962891e+00 -1.167847990989685059e+00 -1.259650588035583496e-01 -3.881438970565795898e-01 -8.511241078376770020e-01
1.858000000000000000e+03 3.920932006835937500e+01 -1.461577415466308594e+01 -3.732057809829711914e-01 1.560716748237609863e+00 3.562532961368560791e-01 -5.279930233955383301e-01
1.859000000000000000e+03 4.180700683593750000e+01 -1.163189411163330078e+01 1.449545383453369141e+00 -3.310196697711944580e-01 3.355577290058135986e-01 5.553918331861495972e-02
1.860000000000000000e+03 2.372243881225585938e+01 2.319979858398437500e+01 -6.236108019948005676e-02 -9.609174914658069611e-03 -2.159107662737369537e-02 2.038788981735706329e-02
1.861000000000000000e+03 3.460732269287109375e+01 2.598453998565673828e+00 -6.415396346710622311e-04 4.408967215567827225e-04 -6.019286956870928407e-05 -1.331133535131812096e-04
1.862000000000000000e+03 3.347585296630859375e+01 6.544755458831787109e+00 9.638589690439403057e-04 5.204235203564167023e-04 4.452847351785749197e-04 -2.674108873179648072e-05
1.863000000000000000e+03 3.537387847900390625e+01 6.366985797882080078e+00 -7.515769102610647678e-04 -4.019384505227208138e-05 -2.375312324147671461e-04 2.212658873759210110e-04
1.864000000000000000e+03 3.395638275146484375e+01 6.757342815399169922e+00 6.293695187196135521e-04 2.566615294199436903e-04 2.658093289937824011e-04 -5.656657740473747253e-04
1.865000000000000000e+03 2.329468727111816406e+01 2.316795730590820312e+01 -6.172532960772514343e-02 -9.390043094754219055e-03 -2.133461274206638336e-02 1.835216581821441650e-02
1.866000000000000000e+03 2.743214225769042969e+01 2.174369239807128906e+01 -9.113222360610961914e-02 -2.569803409278392792e-02 -3.504907712340354919e-02 4.218186065554618835e-02
1.867000000000000000e+03 2.262535667419433594e+01 4.297183036804199219e+00 4.934710887027904391e-06 1.206950764753855765e-05 5.101265742268878967e-06 7.930023457447532564e-06
1.868000000000000000e+03 2.233474922180175781e+01 4.569706439971923828e+00 -1.000756583380280063e-05 -2.161449629056733102e-05 -9.486619092058390379e-06 -1.316341331403236836e-05
1.869000000000000000e+03 1.414936256408691406e+01 1.585657215118408203e+01 -1.639976544538512826e-04 1.040979754179716110e-03 2.630946401041001081e-04 2.874384517781436443e-04
1.870000000000000000e+03 2.243761634826660156e+01 2.913836479187011719e+00 2.144597146980231628e-06 1.665093986957799643e-05 5.638661150442203507e-06 8.848532161209732294e-06
1.871000000000000000e+03 1.806662750244140625e+01 2.203587722778320312e+01 -2.432709932327270508e-02 5.582722369581460953e-04 -7.130648009479045868e-03 -1.588326878845691681e-03
1.872000000000000000e+03 1.383463096618652344e+01 1.746355247497558594e+01 2.444475830998271704e-04 1.025315723381936550e-03 3.809290064964443445e-04 3.295667702332139015e-04
1.873000000000000000e+03 2.191628456115722656e+01 3.594112157821655273e+00 1.500937833043280989e-05 1.760244595061521977e-05 9.783547284314408898e-06 9.118313755607232451e-06
1.874000000000000000e+03 1.796564674377441406e+01 7.752755165100097656e+00 -5.481113112182356417e-05 -7.446829840773716569e-06 -1.867738865257706493e-05 -2.685609069885686040e-05
1.875000000000000000e+03 1.849028778076171875e+01 7.097316741943359375e+00 -4.892914512311108410e-05 -1.737049569783266634e-05 -1.988989242818206549e-05 -2.405327541055157781e-05
1.876000000000000000e+03 1.913036346435546875e+01 6.560145378112792969e+00 -2.966151987493503839e-05 -3.829641354968771338e-05 -2.038737875409424305e-05 -2.494043837941717356e-05
1.877000000000000000e+03 2.160128211975097656e+01 3.863188982009887695e+00 -5.958301699138246477e-06 -3.531145193846896291e-05 -1.238092590938322246e-05 -9.628213774703908712e-06
1.878000000000000000e+03 2.100728416442871094e+01 4.533807754516601562e+00 8.832454113871790469e-06 1.621060619072522968e-05 7.512918273278046399e-06 -9.579865945852361619e-06
1.879000000000000000e+03 1.389229965209960938e+01 1.821144294738769531e+01 2.598098071757704020e-04 8.897733641788363457e-04 3.448749484959989786e-04 2.171924570575356483e-04
1.880000000000000000e+03 3.222481155395507812e+01 1.566051006317138672e+01 -1.143945194780826569e-02 -1.699934154748916626e-02 -8.531638421118259430e-03 1.587609201669692993e-02
1.881000000000000000e+03 1.610537338256835938e+01 1.028833675384521484e+01 -2.782307637971825898e-05 -4.493036158237373456e-06 -9.694834261608775705e-06 -4.441518103703856468e-05
1.882000000000000000e+03 1.613268089294433594e+01 9.484747886657714844e+00 7.463719521183520555e-05 7.284363528015092015e-05 4.424425060278736055e-05 1.291353692067787051e-05
1.883000000000000000e+03 2.369190597534179688e+01 2.261164283752441406e+01 -7.142017781734466553e-02 -7.402352988719940186e-03 -2.364675886929035187e-02 1.948367618024349213e-02
1.884000000000000000e+03 2.410270309448242188e+01 2.251521873474121094e+01 -7.382696121931076050e-02 -7.425194606184959412e-03 -2.437564730644226074e-02 2.081926725804805756e-02
1.885000000000000000e+03 1.578481006622314453e+01 1.019544410705566406e+01 8.089966286206617951e-05 1.421491033397614956e-04 6.691463204333558679e-05 -3.809536792687140405e-05
1.886000000000000000e+03 3.322897338867187500e+01 1.175859165191650391e+01 -1.210560090839862823e-03 -7.524373941123485565e-04 -5.888992454856634140e-04 2.140624448657035828e-03
1.887000000000000000e+03 1.568244743347167969e+01 1.143664646148681641e+01 -7.095829641912132502e-05 1.452225260436534882e-04 2.227926779596600682e-05 -9.785103611648082733e-05
1.888000000000000000e+03 3.286307525634765625e+01 1.051114177703857422e+01 4.380338068585842848e-04 2.121591474860906601e-03 7.678875699639320374e-04 -3.200716164428740740e-04
1.889000000000000000e+03 3.193959426879882812e+01 1.539838314056396484e+01 -6.524115800857543945e-03 -1.696108654141426086e-02 -7.045560516417026520e-03 1.161721907556056976e-02
1.890000000000000000e+03 3.455686569213867188e+01 3.178546667098999023e+00 8.544277516193687916e-04 -2.575682301539927721e-04 1.790578535292297602e-04 -5.516434248420409858e-05
1.891000000000000000e+03 3.347586441040039062e+01 3.286206483840942383e+00 6.307760486379265785e-04 1.141344328061677516e-04 2.234731364296749234e-04 -2.152050437871366739e-04
1.892000000000000000e+03 1.377576923370361328e+01 1.671181297302246094e+01 2.529911580495536327e-04 9.087473736144602299e-04 3.485215711407363415e-04 2.791332663036882877e-04
1.893000000000000000e+03 2.753195953369140625e+01 2.105025482177734375e+01 -1.195754110813140869e-01 -1.866804808378219604e-02 -4.147303849458694458e-02 4.388524591922760010e-02
1.894000000000000000e+03 2.760133934020996094e+01 2.229582977294921875e+01 -7.469888776540756226e-02 -3.168685361742973328e-02 -3.191572427749633789e-02 3.766323253512382507e-02
1.895000000000000000e+03 1.769964790344238281e+01 8.064196586608886719e+00 5.363136369851417840e-05 1.853278808994218707e-05 2.164924626413267106e-05 2.396878880972508341e-05
1.896000000000000000e+03 3.206556701660156250e+01 1.670842552185058594e+01 -1.839324273169040680e-02 -2.128301188349723816e-02 -1.190287619829177856e-02 2.306172065436840057e-02
1.897000000000000000e+03 3.278073883056640625e+01 1.361834144592285156e+01 -5.316485650837421417e-03 -6.023347843438386917e-03 -3.401950001716613770e-03 6.226715631783008575e-03
1.898000000000000000e+03 3.089813995361328125e+01 1.931486129760742188e+01 -4.892837628722190857e-02 -3.815099224448204041e-02 -2.612380869686603546e-02 4.093493148684501648e-02
1.899000000000000000e+03 3.379236221313476562e+01 7.884568214416503906e+00 -6.712519825669005513e-05 9.321717079728841782e-04 2.595139376353472471e-04 -2.597756392788141966e-04
1.900000000000000000e+03 3.076307296752929688e+01 1.975403404235839844e+01 -5.924865603446960449e-02 -3.563005849719047546e-02 -2.846361510455608368e-02 4.066633060574531555e-02
1.901000000000000000e+03 3.250607299804687500e+01 1.432903766632080078e+01 -5.922580603510141373e-03 -9.206909686326980591e-03 -4.538847133517265320e-03 8.308814838528633118e-03
1.902000000000000000e+03 1.343787765502929688e+01 1.267140865325927734e+01 -6.282565300352871418e-05 2.422238030703738332e-04 5.381944356486201286e-05 2.437410439597442746e-04
1.903000000000000000e+03 3.369010925292968750e+01 8.268882751464843750e+00 2.408498839940875769e-04 8.646312053315341473e-04 3.316443180665373802e-04 -6.186523241922259331e-04
1.904000000000000000e+03 1.473733615875244141e+01 1.196945858001708984e+01 1.071229344233870506e-04 2.846283023245632648e-04 1.175253710243850946e-04 6.761751137673854828e-05
1.905000000000000000e+03 2.010915565490722656e+01 5.819911956787109375e+00 4.012190765934064984e-05 5.984498784528113902e-06 1.383192193316062912e-05 2.210990169260185212e-05
1.906000000000000000e+03 3.148927879333496094e+01 1.692607116699218750e+01 -1.640758477151393890e-02 -3.060696646571159363e-02 -1.410436537116765976e-02 2.323578670620918274e-02
1.907000000000000000e+03 3.422009658813476562e+01 4.385813713073730469e+00 -6.261169910430908203e-04 -5.417347420006990433e-04 -3.503555199131369591e-04 3.350030165165662766e-04
1.908000000000000000e+03 3.386769104003906250e+01 4.500060081481933594e+00 7.902307552285492420e-04 3.582140780054032803e-04 3.445334441494196653e-04 1.374025741824880242e-04
1.909000000000000000e+03 2.522739791870117188e+01 2.303231430053710938e+01 -6.591919809579849243e-02 -1.498807128518819809e-02 -2.427218109369277954e-02 2.637558802962303162e-02
1.910000000000000000e+03 1.597163772583007812e+01 2.085703086853027344e+01 -7.477810140699148178e-03 -1.625938748475164175e-04 -2.292121294885873795e-03 -2.887272275984287262e-03
1.911000000000000000e+03 1.510996532440185547e+01 2.091150093078613281e+01 -7.774374447762966156e-03 1.031741965562105179e-03 -2.022789791226387024e-03 -1.153529970906674862e-03
1.912000000000000000e+03 3.249834442138671875e+01 1.250674533843994141e+01 -8.985559688881039619e-04 -1.451019197702407837e-03 -7.048725383356213570e-04 1.572710112668573856e-03
1.913000000000000000e+03 3.297900390625000000e+01 1.398448753356933594e+01 -6.218852940946817398e-03 -6.232526153326034546e-03 -3.735413542017340660e-03 8.380191400647163391e-03
1.914000000000000000e+03 3.434672546386718750e+01 8.249815940856933594e+00 -7.892172288848087192e-05 -4.512493032962083817e-04 -1.590512983966618776e-04 -5.487499875016510487e-04
1.915000000000000000e+03 1.862094688415527344e+01 6.417181968688964844e+00 3.066646604565903544e-05 9.314800081483554095e-06 1.199437974719330668e-05 -6.667170509899733588e-06
1.916000000000000000e+03 1.933658599853515625e+01 2.249197196960449219e+01 -3.444666042923927307e-02 -1.105404109694063663e-03 -1.066561881452798843e-02 1.540144439786672592e-04
1.917000000000000000e+03 3.097393035888671875e+01 1.803369903564453125e+01 -2.642029151320457458e-02 -4.386193305253982544e-02 -2.108466811478137970e-02 3.275349363684654236e-02
1.918000000000000000e+03 2.024978065490722656e+01 5.107368469238281250e+00 2.289362601004540920e-05 -2.518063411116600037e-05 -6.861022825432883110e-07 -9.251976393898075912e-07
1.919000000000000000e+03 2.598253059387207031e+01 2.241836166381835938e+01 -7.815939188003540039e-02 -1.588417775928974152e-02 -2.821307070553302765e-02 3.003705851733684540e-02
1.920000000000000000e+03 1.473922348022460938e+01 2.071846199035644531e+01 -6.106448359787464142e-03 1.422412111423909664e-03 -1.405210932716727257e-03 -1.334622618742287159e-03
1.921000000000000000e+03 1.517028045654296875e+01 1.050364875793457031e+01 6.921256135683506727e-05 1.643910654820501804e-04 7.008108514128252864e-05 4.225968586979433894e-05
1.922000000000000000e+03 1.585982799530029297e+01 1.052781009674072266e+01 1.474708369642030448e-06 1.343273470411077142e-04 4.074061507708393037e-05 4.352321411715820432e-05
1.923000000000000000e+03 1.633197402954101562e+01 9.141667366027832031e+00 -7.783493492752313614e-05 3.407278927625156939e-05 -1.312864333158358932e-05 -2.975056668219622225e-05
1.924000000000000000e+03 2.651348114013671875e+01 2.195723152160644531e+01 -8.880819380283355713e-02 -1.545893773436546326e-02 -3.128014132380485535e-02 3.312129899859428406e-02
1.925000000000000000e+03 1.390536117553710938e+01 1.857679557800292969e+01 -4.190659674350172281e-04 7.669933838769793510e-04 1.043782249325886369e-04 9.437881089979782701e-05
1.926000000000000000e+03 4.123471832275390625e+01 -1.101291561126708984e+01 1.849869251251220703e+00 -3.142714202404022217e-01 4.606793522834777832e-01 1.760298460721969604e-01
1.927000000000000000e+03 1.686880874633789062e+01 7.633325576782226562e+00 5.667855657520703971e-05 3.005672260769642889e-05 2.602058339107315987e-05 1.738226819725241512e-05
1.928000000000000000e+03 3.117049980163574219e+01 1.768303680419921875e+01 -2.365508489310741425e-02 -3.910722211003303528e-02 -1.882869191467761993e-02 2.909286879003047943e-02
1.929000000000000000e+03 3.115879058837890625e+01 1.854720878601074219e+01 -3.630619123578071594e-02 -3.827816992998123169e-02 -2.237530797719955444e-02 3.638085722923278809e-02
1.930000000000000000e+03 2.139180374145507812e+01 2.298043441772460938e+01 -5.290558934211730957e-02 -6.635508965700864792e-03 -1.786232925951480865e-02 1.116963662207126617e-02
1.931000000000000000e+03 3.437847518920898438e+01 5.139814376831054688e+00 -1.103206421248614788e-03 2.279317995999008417e-04 -2.625823835842311382e-04 1.035288296407088637e-04
1.932000000000000000e+03 3.401654052734375000e+01 5.628031253814697266e+00 -1.031176536343991756e-03 2.296184538863599300e-04 -2.404674160061404109e-04 2.758800474111922085e-05
1.933000000000000000e+03 3.005545234680175781e+01 2.000134277343750000e+01 -7.052931934595108032e-02 -4.901454225182533264e-02 -3.586315736174583435e-02 4.724203422665596008e-02
1.934000000000000000e+03 1.890577888488769531e+01 2.241087150573730469e+01 -3.114023618400096893e-02 -2.231129474239423871e-04 -9.409004822373390198e-03 1.839053293224424124e-04
1.935000000000000000e+03 1.663786888122558594e+01 2.169320678710937500e+01 -1.696113310754299164e-02 -2.274177386425435543e-04 -5.156565457582473755e-03 -5.508656031452119350e-04
1.936000000000000000e+03 1.427350044250488281e+01 1.365756893157958984e+01 2.076636883430182934e-04 5.721211782656610012e-04 2.339354541618376970e-04 1.306989288423210382e-04
1.937000000000000000e+03 1.550547981262207031e+01 2.109333801269531250e+01 -9.264932945370674133e-03 1.123559428378939629e-03 -2.442412078380584717e-03 -1.455220393836498260e-03
1.938000000000000000e+03 2.008890342712402344e+01 2.306524658203125000e+01 -4.190951958298683167e-02 -1.535263378173112869e-03 -1.303343567997217178e-02 7.190744392573833466e-03
1.939000000000000000e+03 1.416753292083740234e+01 1.453689002990722656e+01 2.732482971623539925e-04 6.778974202461540699e-04 2.853437035810202360e-04 2.127706975443288684e-04
1.940000000000000000e+03 3.399264144897460938e+01 3.193259000778198242e+00 -9.475456317886710167e-04 3.287081926828250289e-05 -2.744024386629462242e-04 2.967233012896031141e-04
1.941000000000000000e+03 1.436460590362548828e+01 2.053039932250976562e+01 -5.118303000926971436e-03 9.827633621171116829e-04 -1.240661949850618839e-03 -8.165092440322041512e-04
1.942000000000000000e+03 2.784056282043457031e+01 2.157565879821777344e+01 -9.189932793378829956e-02 -3.387793526053428650e-02 -3.773317858576774597e-02 4.496660456061363220e-02
1.943000000000000000e+03 2.284397506713867188e+01 2.266650962829589844e+01 -6.866599619388580322e-02 -5.845833104103803635e-03 -2.235354855656623840e-02 1.355923712253570557e-02
1.944000000000000000e+03 2.214972877502441406e+01 2.323410224914550781e+01 -5.530743673443794250e-02 -8.480883203446865082e-03 -1.913649588823318481e-02 1.421945169568061829e-02
1.945000000000000000e+03 2.898818588256835938e+01 2.026922416687011719e+01 -1.065240800380706787e-01 -7.367233932018280029e-02 -5.405892804265022278e-02 7.878018915653228760e-02
1.946000000000000000e+03 2.848682212829589844e+01 2.166543769836425781e+01 -8.235687762498855591e-02 -4.370592534542083740e-02 -3.781884163618087769e-02 4.177566617727279663e-02
1.947000000000000000e+03 1.614195060729980469e+01 2.220395851135253906e+01 -1.587126962840557098e-02 1.166744390502572060e-03 -4.411357454955577850e-03 1.422850531525909901e-03
1.948000000000000000e+03 2.931055450439453125e+01 2.064116096496582031e+01 -8.971224725246429443e-02 -5.644898861646652222e-02 -4.384836927056312561e-02 4.882545024156570435e-02
1.949000000000000000e+03 2.972555351257324219e+01 2.037803649902343750e+01 -8.080720156431198120e-02 -5.043135210871696472e-02 -3.937156498432159424e-02 4.718494787812232971e-02
1.950000000000000000e+03 1.437049961090087891e+01 1.931422615051269531e+01 -4.345418128650635481e-04 1.158087630756199360e-03 2.170637453673407435e-04 -5.664942436851561069e-04
1.951000000000000000e+03 3.337017822265625000e+01 2.870844602584838867e+00 -6.019407301209867001e-04 -5.232651892583817244e-05 -1.962801761692389846e-04 8.759626507526263595e-05
1.952000000000000000e+03 2.450772285461425781e+01 2.246187973022460938e+01 -7.579480856657028198e-02 -9.966278448700904846e-03 -2.572832629084587097e-02 2.271013520658016205e-02
1.953000000000000000e+03 1.417893409729003906e+01 2.001264953613281250e+01 -2.756525296717882156e-03 8.059634710662066936e-04 -5.851685418747365475e-04 -8.683708729222416878e-04
1.954000000000000000e+03 3.520383071899414062e+01 2.728609085083007812e+00 4.905216046608984470e-04 -2.744721714407205582e-04 6.481484160758554935e-05 2.637311445141676813e-05
1.955000000000000000e+03 1.393822002410888672e+01 1.926707649230957031e+01 -1.448703347705304623e-03 7.290408248081803322e-04 -2.158987481379881501e-04 -4.774865810759365559e-04
1.956000000000000000e+03 3.171595573425292969e+01 -2.225208759307861328e+00 -2.720508813858032227e+00 1.474339216947555542e-01 -7.719224691390991211e-01 -2.679859995841979980e-01
1.957000000000000000e+03 2.116584396362304688e+01 4.928918361663818359e+00 -9.894578397506847978e-06 -3.102246409980580211e-05 -1.227511256729485467e-05 -7.092917257978115231e-06
1.958000000000000000e+03 7.688362121582031250e+01 -1.937384796142578125e+01 8.012503531062975526e-05 3.945386197301559150e-05 3.587366882129572332e-05 -8.179157157428562641e-05
1.959000000000000000e+03 7.621284484863281250e+01 -1.921066093444824219e+01 3.054925036849454045e-05 -9.086083082365803421e-06 6.438949640141800046e-06 -1.146444847108796239e-04
1.960000000000000000e+03 3.965866088867187500e+01 -1.732717704772949219e+01 -1.196419969201087952e-01 1.387613058090209961e+00 3.803912997245788574e-01 -1.674920320510864258e-03
1.961000000000000000e+03 3.971078872680664062e+01 -1.562749004364013672e+01 -3.245476782321929932e-01 1.272701621055603027e+00 2.844461798667907715e-01 -2.245152294635772705e-01
1.962000000000000000e+03 4.056384277343750000e+01 -1.734885406494140625e+01 -2.600169368088245392e-02 8.402265310287475586e-01 2.442674487829208374e-01 2.983347885310649872e-02
1.963000000000000000e+03 2.128237724304199219e+01 4.068803310394287109e+00 1.402446832798887044e-05 9.330912689620163292e-06 7.006614396232180297e-06 5.547981345443986356e-06
1.964000000000000000e+03 4.388697433471679688e+01 -1.190027999877929688e+01 8.526653051376342773e-01 -4.317265152931213379e-01 1.262816339731216431e-01 3.407911658287048340e-01
1.965000000000000000e+03 7.806034851074218750e+01 -1.365478801727294922e+01 -3.195442259311676025e-02 -2.807706594467163086e-02 -1.800944656133651733e-02 -3.543581068515777588e-02
1.966000000000000000e+03 3.611951828002929688e+01 -1.457610893249511719e+01 -1.157755494117736816e+00 3.311993122100830078e+00 6.462713479995727539e-01 1.142490148544311523e+00
1.967000000000000000e+03 3.874537277221679688e+01 -9.437062263488769531e+00 1.808063507080078125e+00 2.033000230789184570e+00 1.152319073677062988e+00 1.223921060562133789e+00
1.968000000000000000e+03 3.933826065063476562e+01 -1.028786563873291016e+01 2.966099023818969727e+00 7.286784648895263672e-01 1.108433246612548828e+00 1.025297641754150391e+00
1.969000000000000000e+03 7.280848693847656250e+01 -1.912321662902832031e+01 2.224445925094187260e-04 -4.998421354684978724e-05 5.173811223357915878e-05 2.576968290668446571e-05
1.970000000000000000e+03 7.483560180664062500e+01 -1.959451103210449219e+01 1.558188378112390637e-04 -4.410950350575149059e-05 3.351279883645474911e-05 -7.598532829433679581e-05
1.971000000000000000e+03 1.907708740234375000e+01 2.745755910873413086e+00 7.573717084596864879e-06 2.326628600712865591e-05 9.252001291315536946e-06 5.725075880036456510e-07
1.972000000000000000e+03 1.774094772338867188e+01 3.160733938217163086e+00 -1.049420006893342361e-05 -1.502553732279920951e-05 -7.655920853721909225e-06 1.086589804799587000e-06
1.973000000000000000e+03 2.305414199829101562e+01 -3.043568134307861328e+00 -8.762103915214538574e-01 1.256240904331207275e-01 -2.251759022474288940e-01 -6.440414190292358398e-01
1.974000000000000000e+03 3.899319458007812500e+01 -2.670204401016235352e+00 -2.141005754470825195e+00 4.797671139240264893e-01 -4.983715713024139404e-01 7.905588746070861816e-01
1.975000000000000000e+03 7.694842529296875000e+01 -1.403399276733398438e+01 -4.504870250821113586e-02 -1.972879841923713684e-02 -1.943325065076351166e-02 -4.453889280557632446e-02
1.976000000000000000e+03 4.616801834106445312e+01 -1.329104709625244141e+01 1.954485476016998291e-01 -1.576529592275619507e-01 1.133867353200912476e-02 4.042368531227111816e-01
1.977000000000000000e+03 1.495004177093505859e+01 3.062928199768066406e+00 -2.763908241831813939e-06 -1.420575426891446114e-05 -5.090898866910720244e-06 1.159472139988793060e-05
1.978000000000000000e+03 6.763248443603515625e+01 -1.243157958984375000e+01 -9.957225322723388672e-01 1.602803170680999756e-01 -2.506326735019683838e-01 1.396051198244094849e-01
1.979000000000000000e+03 6.980862426757812500e+01 -1.395072555541992188e+01 -3.950316011905670166e-01 4.868545010685920715e-02 -1.039038449525833130e-01 4.042175132781267166e-03
1.980000000000000000e+03 4.449323272705078125e+01 -1.315400028228759766e+01 5.101959705352783203e-01 -2.489207834005355835e-01 7.838255912065505981e-02 2.154084295034408569e-01
1.981000000000000000e+03 4.438495635986328125e+01 -1.228682136535644531e+01 7.034031748771667480e-01 -3.809714019298553467e-01 9.672952443361282349e-02 3.412546813488006592e-01
1.982000000000000000e+03 6.932844543457031250e+01 -1.319188499450683594e+01 -5.969830155372619629e-01 8.368946611881256104e-02 -1.539880633354187012e-01 -1.697679609060287476e-02
1.983000000000000000e+03 1.974293136596679688e+01 2.865422010421752930e+00 -6.723802471242379397e-06 -2.364781539654359221e-05 -9.111485269386321306e-06 -3.589640073187183589e-06
1.984000000000000000e+03 7.108758544921875000e+01 -2.059322547912597656e+01 -4.536630513030104339e-05 2.211551145592238754e-05 -6.975238193263066933e-06 1.907812838908284903e-04
1.985000000000000000e+03 1.343651008605957031e+01 2.484641075134277344e+00 2.038265483861323446e-05 2.416330426058266312e-05 1.336378772975876927e-05 7.512354841310298070e-06
1.986000000000000000e+03 1.205176067352294922e+01 3.175102710723876953e+00 -2.318954273050621850e-07 -1.625253207748755813e-05 -4.945328328176401556e-06 1.884923040051944554e-05
1.987000000000000000e+03 1.704786682128906250e+01 3.101950883865356445e+00 1.314562086918158457e-05 2.172769018216058612e-05 1.046199304255424067e-05 2.970324885609443299e-06
1.988000000000000000e+03 1.701983642578125000e+01 2.553740978240966797e+00 -6.575115548912435770e-06 -1.900901224871631712e-05 -7.675238521187566221e-06 4.083327098669542465e-07
1.989000000000000000e+03 1.840929603576660156e+01 3.207028627395629883e+00 8.087772584985941648e-06 2.254959690617397428e-05 9.191210665449034423e-06 -2.700161758184549399e-06
1.990000000000000000e+03 3.574638366699218750e+01 3.463983297348022461e+00 2.893169876188039780e-04 -2.206788485636934638e-04 2.059143844235222787e-05 -2.331490759388543665e-05
1.991000000000000000e+03 7.537858581542968750e+01 -1.965786170959472656e+01 -6.329160532914102077e-05 7.422775524901226163e-06 -1.676065039646346122e-05 -6.220710201887413859e-05
1.992000000000000000e+03 1.424203777313232422e+01 3.089683771133422852e+00 1.781375613063573837e-05 2.524852970964275301e-05 1.291868557018460706e-05 7.088036454661050811e-06
1.993000000000000000e+03 1.416179084777832031e+01 2.476829767227172852e+00 -5.262909894554468337e-07 -1.827029700507409871e-05 -5.638976290356367826e-06 1.158629765996010974e-05
1.994000000000000000e+03 1.564999198913574219e+01 3.051041603088378906e+00 1.128341318690218031e-05 2.635028795339167118e-05 1.129011070588603616e-05 4.268084467184962705e-06
1.995000000000000000e+03 7.530065917968750000e+01 -2.022120475769042969e+01 2.009957825066521764e-04 -3.182576983817853034e-05 5.075100125395692885e-05 -1.182170672109350562e-05
1.996000000000000000e+03 3.401815795898437500e+01 3.723712921142578125e+00 9.511767420917749405e-04 -1.709101197775453329e-04 2.340799837838858366e-04 -1.326049823546782136e-04
1.997000000000000000e+03 4.386729049682617188e+01 -1.916721153259277344e+01 1.164245456457138062e-01 -2.232716083526611328e-01 -3.205411881208419800e-02 2.028290331363677979e-01
1.998000000000000000e+03 4.259763717651367188e+01 -1.823239707946777344e+01 1.100867167115211487e-01 3.974222019314765930e-02 4.494867846369743347e-02 1.882689893245697021e-01
1.999000000000000000e+03 4.101857757568359375e+01 -1.784945678710937500e+01 5.847715958952903748e-02 6.377218961715698242e-01 2.088597267866134644e-01 8.006316423416137695e-02
2.000000000000000000e+03 4.151734542846679688e+01 -1.838838195800781250e+01 1.353224068880081177e-01 4.339767396450042725e-01 1.707897335290908813e-01 1.308435648679733276e-01
2.001000000000000000e+03 1.132185173034667969e+01 3.173879623413085938e+00 4.295984035707078874e-05 1.711830736894626170e-05 1.802344377210829407e-05 1.668977711233310401e-05
2.002000000000000000e+03 1.278842735290527344e+01 3.155047655105590820e+00 2.872920231311582029e-05 2.006470276683103293e-05 1.463817170588299632e-05 9.518032129562925547e-06
2.003000000000000000e+03 1.059423255920410156e+01 3.160423040390014648e+00 9.737566870171576738e-06 -2.947579378087539226e-05 -5.921468073211144656e-06 1.107771095121279359e-05
2.004000000000000000e+03 7.649267673492431641e+00 3.219698905944824219e+00 1.936062653840053827e-05 -3.890474181389436126e-05 -5.863235401193378493e-06 8.222328688134439290e-06
2.005000000000000000e+03 4.339857101440429688e+01 -1.149522781372070312e+01 1.054071784019470215e+00 -4.914361238479614258e-01 1.687906980514526367e-01 3.575079143047332764e-01
2.006000000000000000e+03 1.028509330749511719e+01 -4.160763263702392578e+00 -8.255048096179962158e-02 -7.927858829498291016e-02 -4.854872077703475952e-02 -1.337294429540634155e-01
2.007000000000000000e+03 1.036073875427246094e+01 -3.377775192260742188e+00 -9.965056926012039185e-02 -5.658748745918273926e-02 -4.687141627073287964e-02 -1.210237443447113037e-01
2.008000000000000000e+03 4.574172210693359375e+01 -1.390973472595214844e+01 1.692122071981430054e-01 -1.193462014198303223e-01 1.495980005711317062e-02 2.436919659376144409e-01
2.009000000000000000e+03 4.549372482299804688e+01 -1.298928070068359375e+01 3.668799102306365967e-01 -2.455662190914154053e-01 3.639410436153411865e-02 3.754846453666687012e-01
2.010000000000000000e+03 4.692745971679687500e+01 -1.366259860992431641e+01 -1.339242234826087952e-02 -7.716696709394454956e-02 -2.716781571507453918e-02 3.892685174942016602e-01
2.011000000000000000e+03 4.490746307373046875e+01 -1.265877246856689453e+01 5.288282632827758789e-01 -3.095864951610565186e-01 6.577252596616744995e-02 3.571768999099731445e-01
2.012000000000000000e+03 7.505874633789062500e+01 -1.296996593475341797e+01 -1.690233498811721802e-01 -2.264143154025077820e-02 -5.749943479895591736e-02 -1.296775788068771362e-01
2.013000000000000000e+03 7.434499359130859375e+01 -1.283215713500976562e+01 -1.927043795585632324e-01 -1.251310016959905624e-02 -6.156524270772933960e-02 -1.390765905380249023e-01
2.014000000000000000e+03 7.632016754150390625e+01 -1.247641658782958984e+01 -8.534447848796844482e-02 -6.471247225999832153e-02 -4.501708596944808960e-02 -1.176769956946372986e-01
2.015000000000000000e+03 7.567362976074218750e+01 -1.287161254882812500e+01 -1.361415386199951172e-01 -4.542027041316032410e-02 -5.446854233741760254e-02 -1.206275448203086853e-01
2.016000000000000000e+03 1.496118831634521484e+01 -3.108361005783081055e+00 -2.531663179397583008e-01 -9.596272557973861694e-02 -1.047387123107910156e-01 -2.644115388393402100e-01
2.017000000000000000e+03 9.623905181884765625e+00 -2.591806650161743164e+00 -9.105837345123291016e-02 -3.140561655163764954e-02 -3.673919662833213806e-02 -8.336742222309112549e-02
2.018000000000000000e+03 7.507859230041503906e+00 2.529859781265258789e+00 4.308874122216366231e-05 1.866460297605954111e-05 1.852600325946696103e-05 -1.216090731759322807e-05
2.019000000000000000e+03 6.914996623992919922e+00 3.245125770568847656e+00 5.162532761460170150e-05 1.569707637827377766e-05 2.019672137976158410e-05 -2.279292675666511059e-05
2.020000000000000000e+03 9.127407073974609375e+00 3.173837184906005859e+00 2.150773980247322470e-05 -4.030359923490323126e-05 -5.638757556880591437e-06 1.039925609802594408e-05
2.021000000000000000e+03 8.390234947204589844e+00 3.195157766342163086e+00 4.639518738258630037e-05 1.805198007787112147e-05 1.933415114763192832e-05 -6.763056717318249866e-06
2.022000000000000000e+03 5.475847721099853516e+00 3.352939844131469727e+00 4.384716885397210717e-05 1.214006442751269788e-05 1.679616980254650116e-05 -3.793110226979479194e-05
2.023000000000000000e+03 4.760578155517578125e+00 3.488222122192382812e+00 1.569462256156839430e-05 -1.278731997444992885e-05 8.721907533981720917e-07 4.935836386721348390e-06
2.024000000000000000e+03 3.749700307846069336e+00 2.895992517471313477e+00 1.363312367175240070e-05 -1.199994039779994637e-05 4.899549708170525264e-07 -4.493322194321081042e-06
2.025000000000000000e+03 4.407833099365234375e+00 4.383974075317382812e+00 4.359074227977544069e-05 -6.764960289729060605e-07 1.287427403440233320e-05 2.159564428438898176e-05
2.026000000000000000e+03 6.194507122039794922e+00 3.280218839645385742e+00 1.177708145405631512e-05 -3.245220796088688076e-05 -6.202537861099699512e-06 5.143218004377558827e-06
2.027000000000000000e+03 6.367533683776855469e+00 3.963519811630249023e+00 6.219087663339450955e-05 1.533294380351435393e-05 2.325714558537583798e-05 -3.333423956064507365e-05
2.028000000000000000e+03 9.862212181091308594e+00 3.158633947372436523e+00 4.150369568378664553e-05 1.934781175805255771e-05 1.825545223255176097e-05 1.077547040040371940e-05
2.029000000000000000e+03 5.752486228942871094e+00 -2.701332330703735352e+00 -2.514374442398548126e-02 -1.623993180692195892e-02 -1.241510268300771713e-02 -2.240908704698085785e-02
2.030000000000000000e+03 6.621837139129638672e+00 -3.480100870132446289e+00 -3.715892508625984192e-02 -3.140344098210334778e-02 -2.056870982050895691e-02 -4.289155080914497375e-02
2.031000000000000000e+03 6.963980674743652344e+00 -4.181783676147460938e+00 -3.841909393668174744e-02 -4.376479238271713257e-02 -2.465516701340675354e-02 -5.519574880599975586e-02
2.032000000000000000e+03 3.074563741683959961e+00 -2.368720293045043945e+00 -5.612741690129041672e-03 -5.634394474327564240e-03 -3.374140709638595581e-03 -2.945540181826800108e-04
2.033000000000000000e+03 4.631923198699951172e+00 -4.217803955078125000e+00 -1.824870891869068146e-02 -2.800760231912136078e-02 -1.387689262628555298e-02 -2.295195870101451874e-02
2.034000000000000000e+03 8.131359100341796875e+00 -3.218271017074584961e+00 -5.831615999341011047e-02 -3.592057898640632629e-02 -2.827102132141590118e-02 -6.542300432920455933e-02
2.035000000000000000e+03 5.572225570678710938e+00 -4.432271003723144531e+00 -2.641930244863033295e-02 -3.778279945254325867e-02 -1.926063001155853271e-02 -3.625820949673652649e-02
2.036000000000000000e+03 2.397814989089965820e+00 -2.808838367462158203e+00 -4.303909838199615479e-03 -4.657915327697992325e-03 -2.688547596335411072e-03 9.190635173581540585e-04
2.037000000000000000e+03 2.347271442413330078e+00 -4.218842506408691406e+00 -5.207835696637630463e-03 -8.865981362760066986e-03 -4.222144838422536850e-03 -3.477346617728471756e-03
2.038000000000000000e+03 8.854665756225585938e+00 -3.246142625808715820e+00 -7.041665166616439819e-02 -4.053760319948196411e-02 -3.328627347946166992e-02 -8.044046908617019653e-02
2.039000000000000000e+03 7.613689422607421875e+01 -2.052831459045410156e+01 2.579961619630921632e-05 1.066793120116926730e-04 3.974367791670374572e-05 -5.448030788102187216e-05
2.040000000000000000e+03 3.190943527221679688e+01 -2.688006877899169922e+00 -2.171276569366455078e+00 8.200505375862121582e-02 -6.267814636230468750e-01 -2.250367701053619385e-01
2.041000000000000000e+03 3.786420440673828125e+01 -1.347528576850891113e+00 -1.938894271850585938e+00 4.417873919010162354e-01 -4.491320848464965820e-01 7.493302226066589355e-01
2.042000000000000000e+03 1.721890640258789062e+01 -4.031191825866699219e+00 -2.382243871688842773e-01 -1.336538493633270264e-01 -1.115634739398956299e-01 -3.687091171741485596e-01
2.043000000000000000e+03 1.822086715698242188e+01 -3.267501592636108398e+00 -3.578958809375762939e-01 -1.056952476501464844e-01 -1.390773355960845947e-01 -3.725004792213439941e-01
2.044000000000000000e+03 3.770061492919921875e+01 -9.189229011535644531e+00 1.218006610870361328e+00 3.126790285110473633e+00 1.303439140319824219e+00 5.400751829147338867e-01
2.045000000000000000e+03 4.486563491821289062e+01 -1.180468463897705078e+01 6.618610620498657227e-01 -4.242546558380126953e-01 7.128191739320755005e-02 5.019790530204772949e-01
2.046000000000000000e+03 1.193116283416748047e+01 -3.391745328903198242e+00 -1.388291716575622559e-01 -7.168420404195785522e-02 -6.315401196479797363e-02 -1.671996414661407471e-01
2.047000000000000000e+03 1.270726585388183594e+01 -3.324763536453247070e+00 -1.643097996711730957e-01 -7.951942831277847290e-02 -7.314876466989517212e-02 -1.899590492248535156e-01
2.048000000000000000e+03 3.536346054077148438e+01 -2.970560073852539062e+00 -1.918068528175354004e+00 5.568827986717224121e-01 -4.083557426929473877e-01 5.201699733734130859e-01
2.049000000000000000e+03 7.195257568359375000e+01 -1.303041553497314453e+01 -3.622432649135589600e-01 5.750012397766113281e-02 -9.142294526100158691e-02 -1.391629725694656372e-01
2.050000000000000000e+03 7.272295379638671875e+01 -1.291638755798339844e+01 -3.178725242614746094e-01 4.110817983746528625e-02 -8.302930742502212524e-02 -1.282133162021636963e-01
2.051000000000000000e+03 7.050512695312500000e+01 -1.323021697998046875e+01 -4.508301317691802979e-01 7.832754403352737427e-02 -1.117507815361022949e-01 -7.368852198123931885e-02
2.052000000000000000e+03 1.572059535980224609e+01 -3.130184888839721680e+00 -2.806724309921264648e-01 -1.050468087196350098e-01 -1.157157719135284424e-01 -2.899565398693084717e-01
2.053000000000000000e+03 3.771655654907226562e+01 3.659855842590332031e+00 -1.867742830654606223e-04 -7.373759290203452110e-04 -2.772450679913163185e-04 1.426581438863649964e-04
2.054000000000000000e+03 3.695018005371093750e+01 4.600855827331542969e+00 -1.620143484615255147e-05 2.605426707305014133e-04 7.330236985580995679e-05 -3.004570316988974810e-04
2.055000000000000000e+03 7.353516387939453125e+01 -1.280109691619873047e+01 -2.621771395206451416e-01 1.208661589771509171e-02 -7.502716034650802612e-02 -1.657508462667465210e-01
2.056000000000000000e+03 7.428194427490234375e+01 -1.973843193054199219e+01 1.539694676466751844e-05 -1.724857138469815254e-04 -4.712662848760373890e-05 -1.104253096855245531e-04
2.057000000000000000e+03 2.483435440063476562e+01 -3.214975833892822266e+00 -1.005204439163208008e+00 9.044781327247619629e-04 -3.012900054454803467e-01 -8.480095267295837402e-01
2.058000000000000000e+03 2.282921981811523438e+01 -1.233288407325744629e+00 -1.174500703811645508e+00 2.531051039695739746e-01 -2.764186859130859375e-01 -1.951304674148559570e-01
2.059000000000000000e+03 2.159105110168457031e+01 -2.407444715499877930e+00 -7.955828309059143066e-01 9.569081664085388184e-02 -2.099676132202148438e-01 -3.847473561763763428e-01
2.060000000000000000e+03 6.988291931152343750e+01 -1.891637229919433594e+01 5.592466186499223113e-05 -3.257500793552026153e-06 1.580014941282570362e-05 9.523984044790267944e-05
2.061000000000000000e+03 1.914787864685058594e+01 -3.136971473693847656e+00 -4.261457622051239014e-01 -8.220501244068145752e-02 -1.525052338838577271e-01 -3.885290920734405518e-01
2.062000000000000000e+03 2.572911071777343750e+01 -3.973804473876953125e+00 -5.854511260986328125e-01 -8.835085481405258179e-02 -2.021405994892120361e-01 -9.123804569244384766e-01
2.063000000000000000e+03 4.320755386352539062e+01 -1.870604324340820312e+01 1.279139369726181030e-01 -1.289833933115005493e-01 -3.208350681234151125e-04 2.058442384004592896e-01
2.064000000000000000e+03 4.383244323730468750e+01 -2.200884819030761719e+01 4.397298768162727356e-02 -1.539142429828643799e-01 -3.298237547278404236e-02 6.012156233191490173e-02
2.065000000000000000e+03 2.352758789062500000e+01 -1.779484391212463379e+00 -1.332871317863464355e+00 2.796333730220794678e-01 -3.159714043140411377e-01 -3.457562029361724854e-01
2.066000000000000000e+03 2.001268386840820312e+01 -2.898798942565917969e+00 -5.295215845108032227e-01 -3.464833647012710571e-02 -1.692509800195693970e-01 -3.965376317501068115e-01
2.067000000000000000e+03 2.081196212768554688e+01 -2.682785272598266602e+00 -6.488403081893920898e-01 1.801648363471031189e-02 -1.892471313476562500e-01 -3.966791331768035889e-01
2.068000000000000000e+03 5.242164993286132812e+01 2.490892982482910156e+01 2.635144293308258057e-01 1.108750551939010620e-01 1.123168468475341797e-01 -2.513663172721862793e-01
2.069000000000000000e+03 4.934466171264648438e+01 2.367044067382812500e+01 1.064424291253089905e-01 1.462828833609819412e-02 3.632121533155441284e-02 -8.093224465847015381e-02
2.070000000000000000e+03 3.378781890869140625e+01 -3.651669025421142578e+00 -1.296874046325683594e+00 2.039748281240463257e-01 -3.278697431087493896e-01 2.913588583469390869e-01
2.071000000000000000e+03 3.366851425170898438e+01 -2.956209897994995117e+00 -1.839652895927429199e+00 1.267688907682895660e-02 -5.480927824974060059e-01 2.961463034152984619e-01
2.072000000000000000e+03 3.534449768066406250e+01 -1.002489471435546875e+01 2.557754039764404297e+00 1.205832719802856445e+00 1.129076004028320312e+00 -2.095440864562988281e+00
2.073000000000000000e+03 3.593925857543945312e+01 -9.700618743896484375e+00 2.037281036376953125e+00 2.308509826660156250e+00 1.303737282752990723e+00 -1.960523247718811035e+00
2.074000000000000000e+03 5.897711563110351562e+01 7.990726232528686523e-01 1.005705237388610840e+00 1.993756055831909180e+00 8.998383879661560059e-01 1.332485914230346680e+00
2.075000000000000000e+03 6.160108947753906250e+01 1.979508042335510254e+00 6.586308479309082031e-01 1.970897197723388672e+00 7.888584136962890625e-01 6.892390251159667969e-01
2.076000000000000000e+03 4.723076248168945312e+01 -7.097061157226562500e+00 2.241423130035400391e-01 -5.175132751464843750e-01 -8.801127970218658447e-02 1.277247190475463867e+00
2.077000000000000000e+03 6.271209716796875000e+01 8.187722206115722656e+00 4.882155656814575195e-01 3.746721029281616211e+00 1.270480990409851074e+00 7.621741294860839844e-01
2.078000000000000000e+03 6.730215454101562500e+01 -1.340826606750488281e+01 -6.138409376144409180e-01 -9.593495726585388184e-02 -2.129327654838562012e-01 1.739203184843063354e-01
2.079000000000000000e+03 5.577559280395507812e+01 2.332608413696289062e+01 5.377947092056274414e-01 1.222600936889648438e-01 1.980164349079132080e-01 -3.780103921890258789e-01
2.080000000000000000e+03 5.400129318237304688e+01 2.496807289123535156e+01 3.489787578582763672e-01 1.532403081655502319e-01 1.506657153367996216e-01 -3.487662076950073242e-01
2.081000000000000000e+03 5.647731781005859375e+01 -1.172944355010986328e+01 -1.229920625686645508e+00 3.853374719619750977e-01 -2.533749639987945557e-01 -2.550560422241687775e-02
2.082000000000000000e+03 2.302903175354003906e+01 -9.481784820556640625e+00 8.092054724693298340e-01 -9.942690283060073853e-02 2.129335701465606689e-01 6.694470345973968506e-02
2.083000000000000000e+03 2.056992340087890625e+01 -8.889157295227050781e+00 4.318081736564636230e-01 -1.621114164590835571e-01 8.090902119874954224e-02 -1.913814842700958252e-01
2.084000000000000000e+03 4.302818298339843750e+01 -2.657172775268554688e+01 5.750280246138572693e-02 2.326589971780776978e-01 8.704853802919387817e-02 -2.448050081729888916e-01
2.085000000000000000e+03 1.885889625549316406e+01 -3.104459762573242188e+01 8.235085010528564453e-02 4.459490254521369934e-02 3.808372467756271362e-02 -4.862556234002113342e-02
2.086000000000000000e+03 1.951765060424804688e+01 -8.916606903076171875e+00 3.404725790023803711e-01 -1.779378056526184082e-01 4.876042902469635010e-02 -2.499991357326507568e-01
2.087000000000000000e+03 6.838347625732421875e+01 -2.598239898681640625e+01 -1.391675556078553200e-03 1.578305818838998675e-04 -3.701535169966518879e-04 4.646034722100012004e-05
2.088000000000000000e+03 1.024921417236328125e+01 -1.717101478576660156e+01 -6.288949400186538696e-02 -2.393588870763778687e-01 -9.067451953887939453e-02 -1.292422264814376831e-01
2.089000000000000000e+03 3.616421127319335938e+01 4.298260688781738281e+00 1.189793765661306679e-04 -3.980685432907193899e-04 -8.372674346901476383e-05 1.984188711503520608e-04
2.090000000000000000e+03 3.778925323486328125e+01 5.056955814361572266e+00 -4.021932909381575882e-05 -7.337747374549508095e-04 -2.321982174180448055e-04 6.880116998217999935e-04
2.091000000000000000e+03 5.182011032104492188e+01 -1.295580005645751953e+01 -9.362079501152038574e-01 1.997985690832138062e-01 -2.209228128194808960e-01 4.742426872253417969e-01
2.092000000000000000e+03 5.064046859741210938e+01 -1.301369571685791016e+01 -7.009082436561584473e-01 1.592069566249847412e-01 -1.625103950500488281e-01 5.771205425262451172e-01
2.093000000000000000e+03 6.203757858276367188e+01 -3.302086257934570312e+01 -1.418249495327472687e-02 -1.250928384251892567e-03 -4.630026873201131821e-03 1.373510435223579407e-02
2.094000000000000000e+03 2.163647079467773438e+01 -8.701135635375976562e+00 5.884536504745483398e-01 -1.738961488008499146e-01 1.243672519922256470e-01 -1.657005995512008667e-01
2.095000000000000000e+03 6.666846466064453125e+01 -1.027684116363525391e+01 -1.171058297157287598e+00 -6.047687307000160217e-02 -3.694605529308319092e-01 -5.756873488426208496e-01
2.096000000000000000e+03 6.687546539306640625e+01 -1.193762397766113281e+01 -1.755135536193847656e+00 1.686533391475677490e-01 -4.759446382522583008e-01 -1.002514064311981201e-01
2.097000000000000000e+03 5.393522262573242188e+01 -1.251704025268554688e+01 -1.134723424911499023e+00 2.775751650333404541e-01 -2.571444809436798096e-01 2.955894470214843750e-01
2.098000000000000000e+03 5.507421493530273438e+01 -1.196470069885253906e+01 -1.161135077476501465e+00 3.326734006404876709e-01 -2.485385090112686157e-01 1.878585368394851685e-01
2.099000000000000000e+03 5.295766830444335938e+01 -1.287789344787597656e+01 -1.110961437225341797e+00 1.801520586013793945e-01 -2.792428135871887207e-01 3.739045560359954834e-01
2.100000000000000000e+03 6.048220062255859375e+01 -1.210390758514404297e+01 -1.882456183433532715e+00 1.026714518666267395e-01 -5.339354276657104492e-01 -4.945810437202453613e-01
2.101000000000000000e+03 3.342399597167968750e+01 -2.885080909729003906e+01 2.846826314926147461e-01 1.157722830772399902e+00 4.327216148376464844e-01 5.042547583580017090e-01
2.102000000000000000e+03 6.526217651367187500e+01 2.029467582702636719e+01 7.292768359184265137e-01 2.143048048019409180e+00 8.616974353790283203e-01 3.271292522549629211e-02
2.103000000000000000e+03 7.839848327636718750e+01 -2.144493484497070312e+01 1.280152500839903951e-04 1.407548843417316675e-04 8.063104178290814161e-05 -5.180729203857481480e-05
2.104000000000000000e+03 7.718547058105468750e+01 -2.283096885681152344e+01 1.177866070065647364e-04 6.390288763213902712e-05 5.450684693641960621e-05 -9.612187568563967943e-05
2.105000000000000000e+03 7.680238342285156250e+01 -2.947735977172851562e+01 -5.177502753213047981e-04 -4.933827440254390240e-04 -3.033399116247892380e-04 6.087762885726988316e-04
2.106000000000000000e+03 7.667890930175781250e+01 -3.076003646850585938e+01 -1.060114664142020047e-04 -7.010225672274827957e-04 -2.421101962681859732e-04 7.861758349463343620e-04
2.107000000000000000e+03 7.692811584472656250e+01 -2.688726234436035156e+01 -3.841643920168280602e-04 -1.606296282261610031e-04 -1.634382060728967190e-04 1.609464961802586913e-04
2.108000000000000000e+03 7.713224029541015625e+01 -2.421515655517578125e+01 -2.383215905865654349e-04 -4.419127890287199989e-06 -7.282221486093476415e-05 -6.387114262906834483e-05
2.109000000000000000e+03 7.702244567871093750e+01 -2.556284523010253906e+01 3.696222483995370567e-05 -2.413805850665085018e-05 3.847249899990856647e-06 4.769322185893543065e-05
2.110000000000000000e+03 7.639662170410156250e+01 -3.208117675781250000e+01 -6.678750505670905113e-04 -1.067113596946001053e-03 -5.204965709708631039e-04 1.190364127978682518e-03
2.111000000000000000e+03 7.610301208496093750e+01 -3.460762405395507812e+01 -4.749693616759032011e-04 -1.889334060251712799e-03 -7.092910236679017544e-04 1.587293110787868500e-03
2.112000000000000000e+03 7.687030792236328125e+01 -2.819641685485839844e+01 -8.212684042518958449e-05 -2.124577877111732960e-04 -8.837538916850462556e-05 3.543884959071874619e-04
2.113000000000000000e+03 7.628639221191406250e+01 -3.338117599487304688e+01 3.347427627886645496e-05 -1.570004038512706757e-03 -4.609589232131838799e-04 1.444172579795122147e-03
2.114000000000000000e+03 4.223495864868164062e+01 -2.247960090637207031e+01 1.710731685161590576e-01 3.334252834320068359e-01 1.513495296239852905e-01 -3.274187445640563965e-02
2.115000000000000000e+03 3.052729606628417969e+01 -7.198779106140136719e+00 2.688770294189453125e+00 8.842399716377258301e-01 1.071902990341186523e+00 -3.116565942764282227e-01
2.116000000000000000e+03 2.796683120727539062e+01 -7.101326465606689453e+00 2.508548021316528320e+00 3.469075262546539307e-01 8.566366434097290039e-01 -6.270321011543273926e-01
2.117000000000000000e+03 3.465800857543945312e+01 -1.014015674591064453e+01 2.699784994125366211e+00 1.043104976415634155e-01 8.412286639213562012e-01 -1.837843537330627441e+00
2.118000000000000000e+03 3.386388397216796875e+01 -9.803997993469238281e+00 2.595243692398071289e+00 -5.502834916114807129e-01 6.134880185127258301e-01 -1.489824771881103516e+00
2.119000000000000000e+03 4.359909820556640625e+01 1.919209098815917969e+01 -5.570306256413459778e-02 1.725264266133308411e-02 -1.153512578457593918e-02 -3.371386788785457611e-03
2.120000000000000000e+03 4.263475799560546875e+01 1.853933715820312500e+01 -5.086169764399528503e-02 2.374019660055637360e-02 -8.136450313031673431e-03 -7.472448516637086868e-03
2.121000000000000000e+03 4.170758056640625000e+01 1.802085876464843750e+01 -5.126716569066047668e-02 1.872508414089679718e-02 -9.762624278664588928e-03 1.083195558749139309e-03
2.122000000000000000e+03 7.685884094238281250e+01 3.808284044265747070e+00 4.912701994180679321e-02 -1.489845871925354004e+00 -4.322156608104705811e-01 -3.662503659725189209e-01
2.123000000000000000e+03 7.686966705322265625e+01 2.425935506820678711e+00 4.189257323741912842e-02 -1.372571468353271484e+00 -3.992036581039428711e-01 -4.007037580013275146e-01
2.124000000000000000e+03 7.678441619873046875e+01 1.079032230377197266e+01 7.769806683063507080e-02 -1.860164999961853027e+00 -5.347400903701782227e-01 -1.247863098978996277e-01
2.125000000000000000e+03 7.680386352539062500e+01 9.388033866882324219e+00 6.998263299465179443e-02 -1.822533249855041504e+00 -5.257651805877685547e-01 -1.768438667058944702e-01
2.126000000000000000e+03 7.658294677734375000e+01 1.781352043151855469e+01 8.372736722230911255e-02 -1.748524785041809082e+00 -4.994392096996307373e-01 1.943298429250717163e-01
2.127000000000000000e+03 7.665785980224609375e+01 1.639658355712890625e+01 8.736120164394378662e-02 -1.820376396179199219e+00 -5.199045538902282715e-01 1.291558295488357544e-01
2.128000000000000000e+03 7.638796234130859375e+01 2.208813858032226562e+01 3.657172992825508118e-02 -1.463274359703063965e+00 -4.280107915401458740e-01 3.456360995769500732e-01
2.129000000000000000e+03 7.635431671142578125e+01 2.347513389587402344e+01 2.177984826266765594e-02 -1.364265799522399902e+00 -4.027458131313323975e-01 3.626407086849212646e-01
2.130000000000000000e+03 7.580086517333984375e+01 3.156837272644042969e+01 -7.342851161956787109e-02 -7.505021691322326660e-01 -2.471792101860046387e-01 2.996742427349090576e-01
2.131000000000000000e+03 7.633611297607421875e+01 2.483807563781738281e+01 7.662386633455753326e-03 -1.269970059394836426e+00 -3.786922991275787354e-01 3.764361739158630371e-01
2.132000000000000000e+03 7.650368499755859375e+01 1.924106216430664062e+01 7.144425064325332642e-02 -1.656278371810913086e+00 -4.754502177238464355e-01 2.546393573284149170e-01
2.133000000000000000e+03 7.671098327636718750e+01 1.499244785308837891e+01 8.654996007680892944e-02 -1.866132974624633789e+00 -5.338749289512634277e-01 6.098528578877449036e-02
2.134000000000000000e+03 7.674391174316406250e+01 1.359587001800537109e+01 7.987572997808456421e-02 -1.881622076034545898e+00 -5.405238866806030273e-01 4.421029370860196650e-05
2.135000000000000000e+03 7.676632690429687500e+01 1.219623088836669922e+01 8.068145066499710083e-02 -1.887170314788818359e+00 -5.419466495513916016e-01 -5.846190825104713440e-02
2.136000000000000000e+03 7.682607269287109375e+01 7.995436668395996094e+00 6.614124029874801636e-02 -1.763268113136291504e+00 -5.091380476951599121e-01 -2.335675656795501709e-01
2.137000000000000000e+03 7.684505462646484375e+01 6.602503776550292969e+00 6.054605543613433838e-02 -1.688706636428833008e+00 -4.884482026100158691e-01 -2.745031714439392090e-01
2.138000000000000000e+03 7.689501953125000000e+01 1.049893856048583984e+00 2.706659957766532898e-02 -1.249088168144226074e+00 -3.666064739227294922e-01 -4.228254854679107666e-01
2.139000000000000000e+03 7.692568969726562500e+01 -3.162599802017211914e-01 2.144001610577106476e-02 -1.113951921463012695e+00 -3.277535736560821533e-01 -4.402874708175659180e-01
2.140000000000000000e+03 7.695712280273437500e+01 -1.668327093124389648e+00 5.687199300155043602e-04 -9.768548011779785156e-01 -2.928858399391174316e-01 -4.411675333976745605e-01
2.141000000000000000e+03 7.701467895507812500e+01 -7.045968532562255859e+00 -6.532001495361328125e-02 -4.219584763050079346e-01 -1.461835503578186035e-01 -3.474693298339843750e-01
2.142000000000000000e+03 7.703270721435546875e+01 -8.372662544250488281e+00 -6.598791480064392090e-02 -3.086223006248474121e-01 -1.123830601572990417e-01 -2.964428961277008057e-01
2.143000000000000000e+03 7.691960144042968750e+01 -1.183469486236572266e+01 -9.190538525581359863e-02 -9.728723019361495972e-02 -5.675778537988662720e-02 -1.300294995307922363e-01
2.144000000000000000e+03 7.702822875976562500e+01 -9.695667266845703125e+00 -8.695038408041000366e-02 -2.083501517772674561e-01 -8.859016001224517822e-02 -2.310215085744857788e-01
2.145000000000000000e+03 7.708934020996093750e+01 -1.089846134185791016e+01 -7.811842858791351318e-02 -1.402299553155899048e-01 -6.550451368093490601e-02 -1.731460392475128174e-01
2.146000000000000000e+03 7.698250579833984375e+01 -3.014297723770141602e+00 -4.031325690448284149e-03 -8.341487050056457520e-01 -2.514539957046508789e-01 -4.385791718959808350e-01
2.147000000000000000e+03 7.699591064453125000e+01 -4.364758968353271484e+00 -3.036686964333057404e-02 -6.895297169685363770e-01 -2.159689813852310181e-01 -4.199656248092651367e-01
2.148000000000000000e+03 7.737545776367187500e+01 3.336748123168945312e+01 -3.158238157629966736e-02 -8.878558874130249023e-01 -2.758314907550811768e-01 1.968927830457687378e-01
2.149000000000000000e+03 7.484432983398437500e+01 2.615373420715332031e+01 -2.006189152598381042e-02 -7.966309785842895508e-01 -2.450078576803207397e-01 4.634714424610137939e-01
2.150000000000000000e+03 7.630272674560546875e+01 2.620240020751953125e+01 -8.942467160522937775e-03 -1.171666860580444336e+00 -3.541828095912933350e-01 3.782414495944976807e-01
2.151000000000000000e+03 3.896979522705078125e+01 -2.722326660156250000e+01 7.660755515098571777e-02 1.173051953315734863e+00 3.748978674411773682e-01 -2.432345747947692871e-01
2.152000000000000000e+03 4.461919021606445312e+01 2.000840950012207031e+01 -4.699915274977684021e-02 2.141608670353889465e-02 -7.674919907003641129e-03 -1.040336303412914276e-02
2.153000000000000000e+03 3.215507125854492188e+01 -3.233869934082031250e+01 4.112074524164199829e-02 8.539704680442810059e-01 2.685273587703704834e-01 2.789425253868103027e-01
2.154000000000000000e+03 3.560616683959960938e+01 -2.965436935424804688e+01 -4.005516879260540009e-03 1.265699982643127441e+00 3.785083293914794922e-01 1.050877347588539124e-01
2.155000000000000000e+03 3.508239507675170898e+00 3.064928436279296875e+01 2.338570811843965203e-05 -5.472622811794281006e-03 -1.634771120734512806e-03 3.556485287845134735e-03
2.156000000000000000e+03 3.518632888793945312e+00 3.206119537353515625e+01 -2.420177333988249302e-04 -6.685901433229446411e-03 -2.078375779092311859e-03 3.503704443573951721e-03
2.157000000000000000e+03 3.120098352432250977e+00 2.351751327514648438e+01 -8.932332275435328484e-04 -7.741192821413278580e-04 -5.002057296223938465e-04 1.066217431798577309e-03
2.158000000000000000e+03 3.211290121078491211e+00 2.491569519042968750e+01 -3.860366414301097393e-04 -1.390842720866203308e-03 -5.330638377927243710e-04 1.676892396062612534e-03
2.159000000000000000e+03 3.622737646102905273e+00 3.810083007812500000e+01 8.857619250193238258e-04 -1.099040266126394272e-02 -3.031392116099596024e-03 2.284358954057097435e-03
2.160000000000000000e+03 3.287022352218627930e+00 2.633648872375488281e+01 -9.745356510393321514e-04 -2.162424614652991295e-03 -9.410880738869309425e-04 2.163409022614359856e-03
2.161000000000000000e+03 3.364485263824462891e+00 2.777079582214355469e+01 -3.467475180514156818e-04 -3.141933819279074669e-03 -1.046604476869106293e-03 2.830550540238618851e-03
2.162000000000000000e+03 3.445266485214233398e+00 2.920905685424804688e+01 -6.980333710089325905e-04 -4.296449944376945496e-03 -1.498344936408102512e-03 3.193716751411557198e-03
2.163000000000000000e+03 3.396303176879882812e+00 -2.766554641723632812e+01 1.020976062864065170e-02 -3.319774270057678223e-01 -9.653029590845108032e-02 -5.670447647571563721e-02
2.164000000000000000e+03 3.495874643325805664e+00 -2.633513832092285156e+01 9.360810741782188416e-03 -3.148285448551177979e-01 -9.164031594991683960e-02 -6.429278105497360229e-02
2.165000000000000000e+03 3.014279365539550781e+00 2.213791656494140625e+01 -2.018944505834951997e-04 -3.504956839606165886e-04 -1.657170505495741963e-04 6.559061002917587757e-04
2.166000000000000000e+03 3.498021841049194336e+00 -3.164401245117187500e+01 1.242110691964626312e-02 -3.707279264926910400e-01 -1.074920445680618286e-01 -3.704911842942237854e-02
2.167000000000000000e+03 2.978983640670776367e+00 1.667784500122070312e+01 2.097511314786970615e-04 1.283257442992180586e-04 1.014230583677999675e-04 -2.105999737977981567e-04
2.168000000000000000e+03 2.886427640914916992e+00 1.806819152832031250e+01 -3.882148303091526031e-04 1.833309652283787727e-04 -6.146515806904062629e-05 -1.615752844372764230e-04
2.169000000000000000e+03 3.159426927566528320e+00 1.368117427825927734e+01 2.515773230697959661e-04 7.449054101016372442e-05 9.782036067917943001e-05 -2.482907730154693127e-04
2.170000000000000000e+03 3.090328931808471680e+00 6.464076042175292969e+00 -6.102588304202072322e-05 1.457270809623878449e-05 -1.393595266563352197e-05 1.213013092637993395e-06
2.171000000000000000e+03 3.001880645751953125e+00 8.399693489074707031e+00 1.748481299728155136e-04 4.610496762325055897e-05 6.628593109780922532e-05 -4.609594543580897152e-05
2.172000000000000000e+03 1.700134873390197754e+00 -1.060194969177246094e+01 -1.977802487090229988e-03 -5.068296194076538086e-02 -1.579822972416877747e-02 -1.804928854107856750e-02
2.173000000000000000e+03 1.725367784500122070e+00 -6.605892658233642578e+00 -2.800230868160724640e-03 -1.535617280751466751e-02 -5.446921102702617645e-03 -9.011182934045791626e-03
2.174000000000000000e+03 2.021705150604248047e+00 -1.755362701416015625e+01 -4.581460729241371155e-03 -1.601209938526153564e-01 -4.941073805093765259e-02 -4.476371034979820251e-02
2.175000000000000000e+03 3.336886882781982422e+00 -1.735961532592773438e+01 -9.443193674087524414e-03 -1.694158464670181274e-01 -5.365771427750587463e-02 -6.692297011613845825e-02
2.176000000000000000e+03 3.040086746215820312e+00 -5.674068450927734375e+00 -9.341802448034286499e-03 -2.752334065735340118e-02 -1.105954311788082123e-02 -1.549899764358997345e-02
2.177000000000000000e+03 2.914739370346069336e+00 -1.185559654235839844e+01 -6.065977737307548523e-03 -8.852657675743103027e-02 -2.837776578962802887e-02 -3.526430204510688782e-02
2.178000000000000000e+03 3.727762222290039062e+00 -2.031141281127929688e+01 -3.274271730333566666e-03 -2.202648669481277466e-01 -6.706173717975616455e-02 -8.420708030462265015e-02
2.179000000000000000e+03 3.496253967285156250e+00 -1.879473686218261719e+01 -8.427840657532215118e-03 -1.927625089883804321e-01 -6.035710498690605164e-02 -7.572048902511596680e-02
2.180000000000000000e+03 3.618062734603881836e+00 -2.347026443481445312e+01 7.048145867884159088e-03 -2.721513807773590088e-01 -7.953096926212310791e-02 -7.897111773490905762e-02
2.181000000000000000e+03 3.763958454132080078e+00 -2.190780448913574219e+01 1.638173125684261322e-03 -2.454557567834854126e-01 -7.314527779817581177e-02 -8.449575304985046387e-02
2.182000000000000000e+03 3.617178201675415039e+00 -3.573381805419921875e+01 1.280803419649600983e-02 -4.022221267223358154e-01 -1.168242320418357849e-01 -2.220855839550495148e-02
2.183000000000000000e+03 2.846888542175292969e+00 1.089113426208496094e+01 2.139820280717685819e-04 7.498270861105993390e-05 8.668941882206127048e-05 -1.577831280883401632e-04
2.184000000000000000e+03 2.965602874755859375e+00 1.222426319122314453e+01 -1.199029866256751120e-04 9.503916953690350056e-05 -7.459144853783072904e-06 -1.470087445341050625e-04
2.185000000000000000e+03 3.159962177276611328e+00 1.521061134338378906e+01 -2.139442949555814266e-04 1.019546325551345944e-04 -3.359689799253828824e-05 -2.395797491772100329e-04
2.186000000000000000e+03 4.968584537506103516e+00 -2.359018898010253906e+01 1.022993680089712143e-02 -2.630868256092071533e-01 -7.585707306861877441e-02 -9.493967890739440918e-02
2.187000000000000000e+03 3.110841035842895508e+00 -1.458620738983154297e+01 -8.845157921314239502e-03 -1.261134594678878784e-01 -4.048758372664451599e-02 -4.945911094546318054e-02
2.188000000000000000e+03 2.797695398330688477e+00 -7.993479728698730469e+00 -5.487289745360612869e-03 -4.540504515171051025e-02 -1.526770088821649551e-02 -2.227832190692424774e-02
2.189000000000000000e+03 2.568090915679931641e+00 4.563963413238525391e+00 -2.775943357846699655e-05 1.900547795230522752e-05 -2.626186187626444735e-06 -4.612711927620694041e-05
2.190000000000000000e+03 3.259491920471191406e+00 5.403625488281250000e+00 1.770228845998644829e-04 1.036894718708936125e-05 5.621755190077237785e-05 -4.891103890258818865e-05
2.191000000000000000e+03 2.868445396423339844e+00 1.942524147033691406e+01 5.501052146428264678e-05 9.232378215529024601e-05 4.420029290486127138e-05 2.402689096925314516e-05
2.192000000000000000e+03 2.830554246902465820e+00 9.626383781433105469e+00 -1.086586125893518329e-04 6.264259718591347337e-05 -1.380480534862726927e-05 -1.103074100683443248e-04
2.193000000000000000e+03 3.293945312500000000e+01 -7.737372398376464844e+00 2.207437276840209961e+00 -1.566146872937679291e-02 6.575327515602111816e-01 -6.390246152877807617e-01
2.194000000000000000e+03 3.350586700439453125e+01 -7.083160400390625000e+00 1.604467630386352539e+00 1.838636249303817749e-01 5.364993810653686523e-01 -6.055647730827331543e-01
2.195000000000000000e+03 3.937482452392578125e+01 -1.682987022399902344e+01 -2.350894808769226074e-01 1.557506799697875977e+00 3.967252075672149658e-01 -6.020639091730117798e-02
2.196000000000000000e+03 7.883643341064453125e+01 -1.968733406066894531e+01 3.155420927214436233e-06 1.248353801202028990e-04 3.839724013232626021e-05 -9.446359035791829228e-05
2.197000000000000000e+03 7.822903442382812500e+01 -1.945913696289062500e+01 1.221808342961594462e-04 3.093388295383192599e-05 4.593441553879529238e-05 -4.955863551003858447e-05
2.198000000000000000e+03 3.945829772949218750e+01 1.249091720581054688e+01 -1.738206110894680023e-02 2.051924355328083038e-03 -4.599040839821100235e-03 -4.043125547468662262e-03
2.199000000000000000e+03 3.896385192871093750e+01 1.160621547698974609e+01 -7.892491295933723450e-03 1.934767235070466995e-03 -1.787317334674298763e-03 -2.363228006288409233e-03
2.200000000000000000e+03 3.752736282348632812e+01 -1.857649230957031250e+01 9.436599165201187134e-02 2.449952363967895508e+00 7.632954716682434082e-01 1.766490489244461060e-01
2.201000000000000000e+03 3.817259597778320312e+01 -2.051762771606445312e+01 3.591443300247192383e-01 2.021298885345458984e+00 7.141329646110534668e-01 1.611730605363845825e-01
2.202000000000000000e+03 2.072276115417480469e+01 -3.027364730834960938e+01 1.087648570537567139e-01 6.708745658397674561e-02 5.275569483637809753e-02 -5.475190654397010803e-02
2.203000000000000000e+03 6.772883605957031250e+01 -2.705521202087402344e+01 -2.386930631473660469e-03 4.420714394655078650e-04 -5.834577605128288269e-04 1.444002009520772845e-05
2.204000000000000000e+03 6.751526641845703125e+01 -1.412720966339111328e+01 -4.528333246707916260e-01 -1.319614201784133911e-01 -1.754384189844131470e-01 1.548247188329696655e-01
2.205000000000000000e+03 6.234360122680664062e+01 2.970639944076538086e+00 7.117412090301513672e-01 2.133998394012451172e+00 8.537218570709228516e-01 6.362602114677429199e-01
2.206000000000000000e+03 1.305968570709228516e+01 -1.776473045349121094e+01 -5.826264992356300354e-02 -3.752656579017639160e-01 -1.300584971904754639e-01 -1.237658783793449402e-01
2.207000000000000000e+03 1.225515365600585938e+01 -1.969098281860351562e+01 -1.461361162364482880e-02 -2.900458574295043945e-01 -9.139784425497055054e-02 -1.230198517441749573e-01
2.208000000000000000e+03 4.012327194213867188e+01 1.531310462951660156e+01 -3.475949168205261230e-02 1.032075565308332443e-02 -7.331621367484331131e-03 -2.070292830467224121e-03
2.209000000000000000e+03 3.917036056518554688e+01 1.450653743743896484e+01 -2.906038798391819000e-02 1.134528126567602158e-02 -5.314532201737165451e-03 -6.753063062205910683e-04
2.210000000000000000e+03 5.847174835205078125e+01 -2.233544826507568359e+00 1.030665040016174316e+00 1.387404203414916992e+00 7.254207730293273926e-01 9.504770636558532715e-01
2.211000000000000000e+03 4.246273040771484375e+01 -2.405032348632812500e+01 8.264384418725967407e-02 2.827400565147399902e-01 1.096151694655418396e-01 -1.385766416788101196e-01
2.212000000000000000e+03 5.923345947265625000e+01 -1.114224195480346680e+00 9.943162202835083008e-01 1.536485314369201660e+00 7.592404484748840332e-01 9.718120694160461426e-01
2.213000000000000000e+03 2.383996391296386719e+01 -7.180192470550537109e+00 8.005474805831909180e-01 -2.303420156240463257e-01 1.710616350173950195e-01 -4.392054975032806396e-01
2.214000000000000000e+03 3.806057357788085938e+01 -2.178378105163574219e+01 4.438767433166503906e-01 1.931776642799377441e+00 7.126960158348083496e-01 8.243031799793243408e-02
2.215000000000000000e+03 7.181130218505859375e+01 -2.099961280822753906e+01 3.871113294735550880e-04 -3.210828872397542000e-04 1.980852721317205578e-05 5.845867781317792833e-05
2.216000000000000000e+03 2.184240818023681641e+00 3.343337297439575195e+00 2.418431176920421422e-05 -1.803203667805064470e-05 1.845682845669216476e-06 8.809106475382577628e-06
2.217000000000000000e+03 4.846638488769531250e+01 -7.480874538421630859e+00 3.172568678855895996e-01 -1.161757409572601318e-01 6.032433733344078064e-02 1.408084392547607422e+00
2.218000000000000000e+03 1.403205204010009766e+01 -1.337478256225585938e+01 -3.024960495531558990e-02 -3.929491341114044189e-01 -1.269596219062805176e-01 -9.924709796905517578e-02
2.219000000000000000e+03 4.965664672851562500e+01 -7.870451927185058594e+00 2.936162650585174561e-01 2.979787588119506836e-01 1.774785071611404419e-01 1.357813835144042969e+00
2.220000000000000000e+03 5.149369812011718750e+01 -7.122138500213623047e+00 4.736300408840179443e-01 1.061208605766296387e+00 4.604516029357910156e-01 1.193078279495239258e+00
2.221000000000000000e+03 6.303170394897460938e+01 1.040413951873779297e+01 4.119703471660614014e-01 3.929637908935546875e+00 1.302482485771179199e+00 5.749854445457458496e-01
2.222000000000000000e+03 1.351833915710449219e+01 -2.040534400939941406e+01 1.095774932764470577e-03 -2.854657173156738281e-01 -8.531098067760467529e-02 -6.165611743927001953e-02
2.223000000000000000e+03 1.748328399658203125e+01 -1.066250038146972656e+01 2.400285452604293823e-01 -2.154872119426727295e-01 7.362399250268936157e-03 -2.155809253454208374e-01
2.224000000000000000e+03 5.428952407836914062e+01 -6.163647651672363281e+00 8.945072293281555176e-01 1.232680201530456543e+00 6.381562352180480957e-01 8.234456181526184082e-01
2.225000000000000000e+03 6.592317962646484375e+01 1.314906215667724609e+01 5.097755193710327148e-01 2.550003051757812500e+00 9.179335832595825195e-01 -8.610006421804428101e-03
2.226000000000000000e+03 6.594453430175781250e+01 1.558743953704833984e+01 6.555561423301696777e-01 2.397097587585449219e+00 9.157961606979370117e-01 -1.579591333866119385e-01
2.227000000000000000e+03 3.676766204833984375e+01 -2.647613906860351562e+01 2.001893669366836548e-01 1.617061138153076172e+00 5.451751351356506348e-01 3.740271925926208496e-02
2.228000000000000000e+03 3.691003799438476562e+01 -2.311755180358886719e+01 5.384088754653930664e-01 2.255937814712524414e+00 8.383039832115173340e-01 1.766806691884994507e-01
2.229000000000000000e+03 4.075120162963867188e+01 -4.801556110382080078e+00 -1.531037330627441406e+00 -3.398861289024353027e-01 -5.612770318984985352e-01 9.356615543365478516e-01
2.230000000000000000e+03 4.163943481445312500e+01 -4.621891975402832031e+00 -1.671967387199401855e+00 -7.382615208625793457e-01 -7.230686545372009277e-01 1.010249733924865723e+00
2.231000000000000000e+03 1.576082038879394531e+01 -9.347198486328125000e+00 1.533932089805603027e-01 -2.931180596351623535e-01 -4.191745445132255554e-02 -2.509662508964538574e-01
2.232000000000000000e+03 3.101350402832031250e+01 -3.061104965209960938e+01 2.202822566032409668e-01 7.243173122406005859e-01 2.833798527717590332e-01 4.026488363742828369e-01
2.233000000000000000e+03 3.520197677612304688e+01 -3.225760269165039062e+01 -9.588105976581573486e-02 1.032899975776672363e+00 2.811056673526763916e-01 7.792872190475463867e-02
2.234000000000000000e+03 3.866019439697265625e+01 -2.395147132873535156e+01 3.597677052021026611e-01 1.538106560707092285e+00 5.693622827529907227e-01 -6.430308520793914795e-02
2.235000000000000000e+03 4.358881378173828125e+01 -5.973631858825683594e+00 -5.498882532119750977e-01 -9.154862165451049805e-01 -4.396123290061950684e-01 1.223537087440490723e+00
2.236000000000000000e+03 6.347265243530273438e+01 -1.062568283081054688e+01 -1.520352244377136230e+00 -5.746042132377624512e-01 -6.284869313240051270e-01 -3.684311807155609131e-01
2.237000000000000000e+03 5.889261245727539062e+01 -1.143672466278076172e+01 -1.472110748291015625e+00 2.857690751552581787e-01 -3.559024930000305176e-01 -2.713232934474945068e-01
2.238000000000000000e+03 1.533877182006835938e+01 -2.676289939880371094e+01 8.409223705530166626e-02 -5.777408182621002197e-02 7.895446382462978363e-03 -4.659087210893630981e-02
2.239000000000000000e+03 6.595361328125000000e+01 -2.957645797729492188e+01 -6.835874635726213455e-03 1.202506711706519127e-03 -1.690010423772037029e-03 1.355681801214814186e-03
2.240000000000000000e+03 5.279768371582031250e+01 -7.240189075469970703e+00 5.452177524566650391e-01 1.252744078636169434e+00 5.393885374069213867e-01 9.348409175872802734e-01
2.241000000000000000e+03 6.788453674316406250e+01 -1.479576396942138672e+01 -2.037267535924911499e-01 -1.217955444008111954e-02 -6.477189064025878906e-02 1.340869218111038208e-01
2.242000000000000000e+03 6.752571105957031250e+01 -1.479084300994873047e+01 -1.858890950679779053e-01 -1.395448744297027588e-01 -9.763018786907196045e-02 1.253330856561660767e-01
2.243000000000000000e+03 3.876515197753906250e+01 -1.479398536682128906e+01 -5.509380698204040527e-01 2.176004886627197266e+00 4.875200390815734863e-01 -5.078127384185791016e-01
2.244000000000000000e+03 3.841937637329101562e+01 -1.464409637451171875e+01 -6.364973187446594238e-01 2.571013689041137695e+00 5.803549289703369141e-01 -5.078039169311523438e-01
2.245000000000000000e+03 3.754259872436523438e+01 -1.404041385650634766e+01 -1.130193710327148438e+00 4.136455059051513672e+00 9.018784165382385254e-01 -3.464341759681701660e-01
2.246000000000000000e+03 3.782447052001953125e+01 -1.443087768554687500e+01 -9.467317461967468262e-01 3.487565755844116211e+00 7.622501850128173828e-01 -4.253699481487274170e-01
2.247000000000000000e+03 2.879340362548828125e+01 -2.401542425155639648e+00 -2.342225551605224609e+00 8.805669844150543213e-02 -6.762506961822509766e-01 -3.090596795082092285e-01
2.248000000000000000e+03 2.608337593078613281e+01 -2.749400138854980469e+00 -1.427599668502807617e+00 -1.655072718858718872e-01 -4.779320955276489258e-01 -7.804796099662780762e-01
2.249000000000000000e+03 2.831024551391601562e+01 -2.284149169921875000e+00 -2.341340541839599609e+00 2.080013044178485870e-02 -6.961621046066284180e-01 -3.537141978740692139e-01
2.250000000000000000e+03 3.043142700195312500e+01 -2.085474491119384766e+00 -2.749095678329467773e+00 3.046213686466217041e-01 -7.333422899246215820e-01 -1.764172464609146118e-01
2.251000000000000000e+03 2.942264366149902344e+01 -2.146549224853515625e+00 -2.606866836547851562e+00 1.947031021118164062e-01 -7.236491441726684570e-01 -2.405122369527816772e-01
2.252000000000000000e+03 2.981262207031250000e+01 -2.092271566390991211e+00 -2.702941417694091797e+00 2.357510924339294434e-01 -7.401571273803710938e-01 -2.081627547740936279e-01
2.253000000000000000e+03 3.012380790710449219e+01 -2.321955442428588867e+00 -2.478206872940063477e+00 2.730794250965118408e-01 -6.615381836891174316e-01 -2.404491305351257324e-01
2.254000000000000000e+03 3.111946487426757812e+01 -2.100483417510986328e+00 -2.754101037979125977e+00 2.551300823688507080e-01 -7.496912479400634766e-01 -2.367233335971832275e-01
2.255000000000000000e+03 3.112450599670410156e+01 -2.356208324432373047e+00 -2.601219415664672852e+00 2.555048167705535889e-01 -7.037143707275390625e-01 -2.244394719600677490e-01
2.256000000000000000e+03 3.919912719726562500e+01 -9.776450157165527344e+00 2.370589971542358398e+00 1.262146115303039551e+00 1.089820861816406250e+00 1.267901778221130371e+00
2.257000000000000000e+03 3.891389465332031250e+01 -1.011962127685546875e+01 2.879060029983520508e+00 1.425378680229187012e+00 1.291331648826599121e+00 1.336415052413940430e+00
2.258000000000000000e+03 4.041719055175781250e+01 -1.083542060852050781e+01 2.301908254623413086e+00 -1.479660272598266602e-01 6.461826562881469727e-01 2.367068529129028320e-01
2.259000000000000000e+03 3.851281738281250000e+01 -1.442580986022949219e+01 -6.133561730384826660e-01 2.548229694366455078e+00 5.804620385169982910e-01 -6.463410258293151855e-01
2.260000000000000000e+03 2.075480079650878906e+01 5.066880702972412109e+00 -1.225180994879337959e-06 2.997547017002943903e-05 8.625086593383457512e-06 9.909632353810593486e-06
2.261000000000000000e+03 2.029351425170898438e+01 5.535853385925292969e+00 -4.058919512317515910e-05 -6.403469342330936342e-06 -1.409779906680341810e-05 -1.627623532840516418e-05
2.262000000000000000e+03 2.440555763244628906e+01 2.294057273864746094e+01 -6.675799936056137085e-02 -1.094867847859859467e-02 -2.331200428307056427e-02 2.306753769516944885e-02
2.263000000000000000e+03 3.428946304321289062e+01 -2.847786188125610352e+00 -1.942395687103271484e+00 2.064325958490371704e-01 -5.207889080047607422e-01 4.573371708393096924e-01
2.264000000000000000e+03 3.560413360595703125e+01 -2.378258228302001953e+00 -2.249698877334594727e+00 6.220348477363586426e-01 -4.882992208003997803e-01 4.613741040229797363e-01
2.265000000000000000e+03 1.885475349426269531e+01 2.289787483215332031e+01 -3.039930202066898346e-02 -4.342813335824757814e-04 -9.250074625015258789e-03 3.257154952734708786e-03
2.266000000000000000e+03 1.717808723449707031e+01 8.681263923645019531e+00 5.979199704597704113e-05 2.789830068650189787e-05 2.630708877404686064e-05 1.939883622981142253e-05
2.267000000000000000e+03 1.774646377563476562e+01 7.179464340209960938e+00 -6.313438643701374531e-05 4.612360044120578095e-06 -1.755660741764586419e-05 -1.940385482157580554e-05
2.268000000000000000e+03 1.801447486877441406e+01 6.387039184570312500e+00 -4.726444967673160136e-05 6.226357527339132503e-06 -1.231142778124194592e-05 -7.276235464814817533e-06
2.269000000000000000e+03 1.373735141754150391e+01 1.633362197875976562e+01 -1.598149392521008849e-04 8.153333910740911961e-04 1.966555428225547075e-04 4.004743823315948248e-04
2.270000000000000000e+03 2.139071655273437500e+01 4.441765785217285156e+00 -8.039371095946989954e-06 -1.242625967279309407e-05 -6.139689503470435739e-06 1.254624112334568053e-05
2.271000000000000000e+03 1.343539619445800781e+01 1.821581840515136719e+01 -4.992491449229419231e-04 4.550592566374689341e-04 -1.325696212006732821e-05 9.757243969943374395e-05
2.272000000000000000e+03 1.336630439758300781e+01 1.752800750732421875e+01 -1.543107646284624934e-04 3.954368585254997015e-04 7.233782525872811675e-05 3.356954839546233416e-04
2.273000000000000000e+03 2.674854660034179688e+01 2.250769424438476562e+01 -7.560954242944717407e-02 -2.130905166268348694e-02 -2.907557785511016846e-02 3.361865505576133728e-02
2.274000000000000000e+03 2.696354293823242188e+01 2.183372879028320312e+01 -9.069805592298507690e-02 -1.916687749326229095e-02 -3.295947983860969543e-02 3.623810410499572754e-02
2.275000000000000000e+03 3.461395645141601562e+01 5.812591552734375000e+00 -6.793299689888954163e-04 -1.870850392151623964e-04 -2.599245053716003895e-04 -1.566221180837601423e-04
2.276000000000000000e+03 3.484346771240234375e+01 6.778355121612548828e+00 1.349415397271513939e-03 -3.925634955521672964e-04 2.870555908884853125e-04 -6.840971764177083969e-04
2.277000000000000000e+03 3.328929901123046875e+01 1.135435390472412109e+01 -1.507755485363304615e-03 4.055772933497792110e-06 -4.511099250521510839e-04 8.923551067709922791e-04
2.278000000000000000e+03 3.222116470336914062e+01 1.631590270996093750e+01 -1.595448516309261322e-02 -1.889334246516227722e-02 -1.045434828847646713e-02 2.008344046771526337e-02
2.279000000000000000e+03 3.177585983276367188e+01 1.612682151794433594e+01 -1.057863514870405197e-02 -2.259256690740585327e-02 -9.951360523700714111e-03 1.719250157475471497e-02
2.280000000000000000e+03 1.727491950988769531e+01 7.841359615325927734e+00 -6.241001392481848598e-05 8.084731234703212976e-06 -1.629758480703458190e-05 -2.263927308376878500e-05
2.281000000000000000e+03 1.429241752624511719e+01 1.742476654052734375e+01 -2.168188220821321011e-04 1.516438671387732029e-03 3.898859722539782524e-04 3.217877820134162903e-04
2.282000000000000000e+03 1.405463504791259766e+01 1.542345523834228516e+01 2.636083518154919147e-04 9.079165756702423096e-04 3.514574782457202673e-04 1.868210820248350501e-04
2.283000000000000000e+03 3.253040695190429688e+01 1.538281917572021484e+01 -1.059872191399335861e-02 -1.229847781360149384e-02 -6.869160104542970657e-03 1.487911771982908249e-02
2.284000000000000000e+03 1.577491188049316406e+01 9.336795806884765625e+00 -9.841452992986887693e-05 6.296945502981543541e-05 -1.063352192431921139e-05 -8.181926204997580498e-06
2.285000000000000000e+03 1.423057174682617188e+01 1.163145256042480469e+01 -6.558768654940649867e-05 2.389270521234720945e-04 5.200181112741120160e-05 4.800934766535647213e-05
2.286000000000000000e+03 1.329322338104248047e+01 1.713274192810058594e+01 1.692676014499738812e-04 5.484959692694246769e-04 2.153290843125432730e-04 2.498479443602263927e-04
2.287000000000000000e+03 1.379788017272949219e+01 1.708781433105468750e+01 -1.568146108184009790e-04 9.008033084683120251e-04 2.231966209365054965e-04 4.108461434952914715e-04
2.288000000000000000e+03 4.245363998413085938e+01 -1.125142765045166016e+01 1.323424696922302246e+00 -4.620417058467864990e-01 2.584148943424224854e-01 2.752105891704559326e-01
2.289000000000000000e+03 4.150205612182617188e+01 -1.077940273284912109e+01 1.745513558387756348e+00 -3.877514898777008057e-01 4.073286354541778564e-01 3.308476805686950684e-01
2.290000000000000000e+03 1.721861839294433594e+01 2.229759025573730469e+01 -2.047169208526611328e-02 4.545482515823096037e-04 -6.005143281072378159e-03 1.349010708509013057e-04
2.291000000000000000e+03 1.771808815002441406e+01 2.254127120971679688e+01 -2.417068183422088623e-02 -6.098925368860363960e-04 -7.434172090142965317e-03 1.390328165143728256e-03
2.292000000000000000e+03 2.114938545227050781e+01 3.659425497055053711e+00 -9.795933692657854408e-06 6.195064088387880474e-06 -1.080260972230462357e-06 -2.608498334666364826e-06
2.293000000000000000e+03 1.919702339172363281e+01 2.292629814147949219e+01 -3.444590047001838684e-02 1.391876958223292604e-05 -1.032959483563899994e-02 3.944656811654567719e-03
2.294000000000000000e+03 3.236189270019531250e+01 1.473245906829833984e+01 -6.617479957640171051e-03 -1.056119427084922791e-02 -5.153601989150047302e-03 1.026665698736906052e-02
2.295000000000000000e+03 2.251106834411621094e+01 2.320278167724609375e+01 -5.649615079164505005e-02 -9.567615576088428497e-03 -1.981912925839424133e-02 1.484854985028505325e-02
2.296000000000000000e+03 1.424462795257568359e+01 1.410587501525878906e+01 -1.771791721694171429e-04 6.632768199779093266e-04 1.458292972529307008e-04 1.056120090652257204e-04
2.297000000000000000e+03 1.402438449859619141e+01 1.244491481781005859e+01 3.762740016099996865e-05 3.662619274109601974e-04 1.211667986353859305e-04 7.174754136940464377e-05
2.298000000000000000e+03 3.136642646789550781e+01 1.943385314941406250e+01 -5.190560594201087952e-02 -2.559538185596466064e-02 -2.325029671192169189e-02 3.610797226428985596e-02
2.299000000000000000e+03 3.129063606262207031e+01 1.987448883056640625e+01 -5.644262209534645081e-02 -2.433379925787448883e-02 -2.423292770981788635e-02 3.484002873301506042e-02
2.300000000000000000e+03 3.180373382568359375e+01 1.751360130310058594e+01 -2.639730647206306458e-02 -2.552152238786220551e-02 -1.557564921677112579e-02 2.821197547018527985e-02
2.301000000000000000e+03 3.365508270263671875e+01 8.674439430236816406e+00 9.184649388771504164e-05 9.994036518037319183e-04 3.273750480730086565e-04 -3.911291714757680893e-04
2.302000000000000000e+03 1.942688941955566406e+01 6.274744987487792969e+00 3.086668220930732787e-05 1.990254168049432337e-05 1.523076662124367431e-05 1.899426570162177086e-05
2.303000000000000000e+03 2.007899093627929688e+01 4.056363582611083984e+00 2.588872848718892783e-05 5.041944859840441495e-06 9.279201549361459911e-06 5.600350959866773337e-06
2.304000000000000000e+03 3.405681610107421875e+01 8.325078010559082031e+00 1.453583536203950644e-04 6.770429317839443684e-04 2.467203885316848755e-04 -3.912526881322264671e-04
2.305000000000000000e+03 1.358020973205566406e+01 2.016858100891113281e+01 -3.485693130642175674e-03 4.397379525471478701e-04 -9.137865272350609303e-04 -6.178154726512730122e-04
2.306000000000000000e+03 1.355444431304931641e+01 1.924383163452148438e+01 -1.041245181113481522e-03 4.551876336336135864e-04 -1.758172729751095176e-04 -5.595106049440801144e-04
2.307000000000000000e+03 3.214102935791015625e+01 1.508290958404541016e+01 -7.316660135984420776e-03 -1.453555189073085785e-02 -6.555663887411355972e-03 1.132672093808650970e-02
2.308000000000000000e+03 1.501472282409667969e+01 9.872222900390625000e+00 4.165932114119641483e-05 1.575170754222199321e-04 5.975291787763126194e-05 2.921313898696098477e-05
2.309000000000000000e+03 1.594166851043701172e+01 9.830395698547363281e+00 -9.833815420279279351e-05 5.538647383218631148e-05 -1.288550538447452709e-05 -8.785907994024455547e-06
2.310000000000000000e+03 2.642080879211425781e+01 2.365981674194335938e+01 -5.427257716655731201e-02 -2.194888517260551453e-02 -2.286643907427787781e-02 2.904488332569599152e-02
2.311000000000000000e+03 3.286758804321289062e+01 1.573821544647216797e+01 -1.624555140733718872e-02 -1.154855266213417053e-02 -8.338231593370437622e-03 1.792011782526969910e-02
2.312000000000000000e+03 3.312012481689453125e+01 1.256414318084716797e+01 -3.019934985786676407e-03 -2.144919009879231453e-03 -1.549456152133643627e-03 4.053485579788684845e-03
2.313000000000000000e+03 1.653489494323730469e+01 8.803291320800781250e+00 6.469566869782283902e-05 5.272955968393944204e-05 3.522756742313504219e-05 1.836596493376418948e-05
2.314000000000000000e+03 1.436902618408203125e+01 1.279683780670166016e+01 9.768625750439241529e-05 3.714926133397966623e-04 1.407536619808524847e-04 1.630524784559383988e-04
2.315000000000000000e+03 3.193960571289062500e+01 1.710849571228027344e+01 -2.183256670832633972e-02 -2.421314083039760590e-02 -1.381371170282363892e-02 2.525677904486656189e-02
2.316000000000000000e+03 3.134064292907714844e+01 1.731224632263183594e+01 -1.944364421069622040e-02 -3.544851765036582947e-02 -1.646764762699604034e-02 2.625050209462642670e-02
2.317000000000000000e+03 2.563400077819824219e+01 2.272932624816894531e+01 -7.216863334178924561e-02 -1.565038599073886871e-02 -2.634570561349391937e-02 2.893306128680706024e-02
2.318000000000000000e+03 3.447291183471679688e+01 5.487431526184082031e+00 1.350134378299117088e-03 3.030711195606272668e-05 4.141324316151440144e-04 -3.534023126121610403e-04
2.319000000000000000e+03 1.488474559783935547e+01 2.129817008972167969e+01 -8.944211527705192566e-03 1.831959001719951630e-03 -2.133675618097186089e-03 -6.570538389496505260e-04
2.320000000000000000e+03 1.857050132751464844e+01 5.968950271606445312e+00 -2.171629239455796778e-05 1.044961663865251467e-05 -3.380002908670576289e-06 -1.683228418869475718e-07
2.321000000000000000e+03 3.124337387084960938e+01 2.035040664672851562e+01 -6.097735464572906494e-02 -2.024443075060844421e-02 -2.436653524637222290e-02 3.106180205941200256e-02
2.322000000000000000e+03 3.062702178955078125e+01 2.024652481079101562e+01 -6.539096683263778687e-02 -3.413773700594902039e-02 -2.985861152410507202e-02 3.758851438760757446e-02
2.323000000000000000e+03 3.475625991821289062e+01 4.692059993743896484e+00 -8.393683820031583309e-04 8.714720024727284908e-05 -2.256663428852334619e-04 -4.675828677136451006e-06
2.324000000000000000e+03 3.431758880615234375e+01 4.771708488464355469e+00 1.071247970685362816e-03 2.374388277530670166e-04 3.926060453522950411e-04 -4.814752610400319099e-04
2.325000000000000000e+03 2.605237770080566406e+01 -3.506463050842285156e+00 -9.073218107223510742e-01 -9.899059683084487915e-02 -3.018937110900878906e-01 -8.690131306648254395e-01
2.326000000000000000e+03 3.434555435180664062e+01 7.126738071441650391e+00 -4.848586104344576597e-04 3.871961380355060101e-04 -2.929874244728125632e-05 -2.311463031219318509e-04
2.327000000000000000e+03 3.398638153076171875e+01 7.499402046203613281e+00 4.865226219408214092e-04 2.001800312427803874e-04 2.060107944998890162e-04 -7.093859021551907063e-04
2.328000000000000000e+03 1.949196815490722656e+01 2.309035301208496094e+01 -3.734374791383743286e-02 -8.579482673667371273e-04 -1.146050915122032166e-02 6.674498785287141800e-03
2.329000000000000000e+03 1.603318786621093750e+01 2.147458457946777344e+01 -1.331799011677503586e-02 7.159003871493041515e-04 -3.780626924708485603e-03 -9.132152772508561611e-04
2.330000000000000000e+03 1.574918937683105469e+01 2.172749328613281250e+01 -1.302096061408519745e-02 1.588743878528475761e-03 -3.429665230214595795e-03 1.742117892717942595e-04
2.331000000000000000e+03 1.410725593566894531e+01 2.087485122680664062e+01 -6.312859244644641876e-03 1.453842851333320141e-03 -1.457704929634928703e-03 -9.414670057594776154e-04
2.332000000000000000e+03 1.405391883850097656e+01 1.497329807281494141e+01 -1.683969312580302358e-04 8.154976530931890011e-04 1.941302180057391524e-04 2.581845328677445650e-04
2.333000000000000000e+03 1.341495132446289062e+01 1.483414554595947266e+01 2.808532444760203362e-04 3.892757813446223736e-04 2.010387106565758586e-04 3.615229798015207052e-04
2.334000000000000000e+03 1.367388820648193359e+01 1.443721580505371094e+01 -1.029395571094937623e-04 5.744634545408189297e-04 1.414571743225678802e-04 1.896090252557769418e-04
2.335000000000000000e+03 3.059507751464843750e+01 2.081262397766113281e+01 -6.843966990709304810e-02 -2.856395021080970764e-02 -2.910108491778373718e-02 3.103940561413764954e-02
2.336000000000000000e+03 2.854380989074707031e+01 2.109409332275390625e+01 -1.002103090286254883e-01 -4.964317008852958679e-02 -4.495604336261749268e-02 5.031441524624824524e-02
2.337000000000000000e+03 2.180251312255859375e+01 2.314305877685546875e+01 -5.428500473499298096e-02 -9.499231353402137756e-03 -1.913527213037014008e-02 1.244528964161872864e-02
2.338000000000000000e+03 2.205481338500976562e+01 2.281371307373046875e+01 -6.045725569128990173e-02 -8.524080738425254822e-03 -2.069440111517906189e-02 1.005812734365463257e-02
2.339000000000000000e+03 2.080727577209472656e+01 2.352252960205078125e+01 -4.339343681931495667e-02 -4.871868528425693512e-03 -1.447959151118993759e-02 1.316651050001382828e-02
2.340000000000000000e+03 2.128607749938964844e+01 2.358026885986328125e+01 -4.544513672590255737e-02 -7.917372509837150574e-03 -1.600875332951545715e-02 1.428183633834123611e-02
2.341000000000000000e+03 1.349845886230468750e+01 1.894312477111816406e+01 -1.161785912699997425e-03 2.544703311286866665e-04 -2.721946802921593189e-04 -1.568064762977883220e-04
2.342000000000000000e+03 1.740716552734375000e+01 2.323059463500976562e+01 -2.257202565670013428e-02 7.601669058203697205e-04 -6.543557625263929367e-03 5.572793073952198029e-03
2.343000000000000000e+03 1.531609630584716797e+01 2.152348136901855469e+01 -1.117656938731670380e-02 1.239590579643845558e-03 -2.981093712151050568e-03 -1.001760247163474560e-04
2.344000000000000000e+03 1.590330410003662109e+01 2.115892410278320312e+01 -1.026945468038320541e-02 5.530206835828721523e-04 -2.914930228143930435e-03 -1.789340400137007236e-03
2.345000000000000000e+03 1.952044105529785156e+01 4.642972469329833984e+00 2.569824346210225485e-06 -2.032414340646937490e-05 -5.326296104612993076e-06 -8.145923857227899134e-06
2.346000000000000000e+03 2.008675765991210938e+01 4.584472179412841797e+00 -1.885478923213668168e-05 1.765687920851632953e-05 -3.593729616113705561e-07 -2.495067690233554458e-07
2.347000000000000000e+03 2.215625762939453125e+01 2.373155021667480469e+01 -4.772400483489036560e-02 -1.065587438642978668e-02 -1.751396432518959045e-02 1.594767160713672638e-02
2.348000000000000000e+03 2.891945266723632812e+01 2.087204742431640625e+01 -9.756629168987274170e-02 -5.448738113045692444e-02 -4.561610147356987000e-02 5.201111733913421631e-02
2.349000000000000000e+03 2.880709457397460938e+01 2.144583702087402344e+01 -8.358940482139587402e-02 -4.581716656684875488e-02 -3.882196918129920959e-02 4.074851050972938538e-02
2.350000000000000000e+03 2.903797340393066406e+01 2.177649879455566406e+01 -7.073426246643066406e-02 -4.229504615068435669e-02 -3.390879184007644653e-02 3.233901038765907288e-02
2.351000000000000000e+03 1.666234397888183594e+01 2.223421096801757812e+01 -1.712520606815814972e-02 -1.905233511934056878e-04 -5.194718949496746063e-03 1.085605355910956860e-03
2.352000000000000000e+03 1.528369426727294922e+01 2.224347496032714844e+01 -1.330095715820789337e-02 1.189340837299823761e-03 -3.633484942838549614e-03 1.907054567709565163e-03
2.353000000000000000e+03 2.665360641479492188e+01 -2.444197177886962891e+00 -1.859876275062561035e+00 -2.985671758651733398e-01 -6.475330591201782227e-01 -5.701718926429748535e-01
2.354000000000000000e+03 3.003474044799804688e+01 2.088586616516113281e+01 -7.306772470474243164e-02 -3.949358314275741577e-02 -3.376839309930801392e-02 3.407726064324378967e-02
2.355000000000000000e+03 2.916941452026367188e+01 2.123960304260253906e+01 -8.152139931917190552e-02 -4.823531210422515869e-02 -3.892701491713523865e-02 3.760650008916854858e-02
2.356000000000000000e+03 1.397469329833984375e+01 2.034821128845214844e+01 -4.488582257181406021e-03 1.215957454405725002e-03 -9.817874524742364883e-04 -1.222599414177238941e-03
2.357000000000000000e+03 3.800702667236328125e+01 -8.670777320861816406e+00 8.894712924957275391e-01 2.570621728897094727e+00 1.038027882575988770e+00 5.554996728897094727e-01
2.358000000000000000e+03 3.872625350952148438e+01 -1.000744247436523438e+01 2.738770961761474609e+00 1.876293897628784180e+00 1.384519457817077637e+00 1.492407083511352539e+00
2.359000000000000000e+03 2.414492797851562500e+01 2.334460449218750000e+01 -6.195365265011787415e-02 -1.221234910190105438e-02 -2.224980108439922333e-02 2.365913800895214081e-02
2.360000000000000000e+03 3.864533615112304688e+01 -1.739105224609375000e+01 -1.935205310583114624e-01 1.922529697418212891e+00 5.187027454376220703e-01 4.912252351641654968e-02
2.361000000000000000e+03 3.978156661987304688e+01 -1.644482231140136719e+01 -2.340871989727020264e-01 1.274492979049682617e+00 3.121217191219329834e-01 -9.306602180004119873e-02
2.362000000000000000e+03 1.340252590179443359e+01 1.974105644226074219e+01 -2.150278538465499878e-03 2.332260046387091279e-04 -5.751157295890152454e-04 -8.339647320099174976e-04
2.363000000000000000e+03 4.395086288452148438e+01 -1.102161216735839844e+01 9.517863392829895020e-01 -5.718985199928283691e-01 1.139663532376289368e-01 5.754729509353637695e-01
2.364000000000000000e+03 3.892443084716796875e+01 -1.688061332702636719e+01 -2.964897155761718750e-01 1.806129693984985352e+00 4.528920054435729980e-01 -2.578193694353103638e-02
2.365000000000000000e+03 1.675909996032714844e+01 8.476525306701660156e+00 -7.063084194669499993e-05 1.757205791363958269e-05 -1.591763611941132694e-05 -2.269648757646791637e-05
2.366000000000000000e+03 3.137176322937011719e+01 1.825204658508300781e+01 -3.288747370243072510e-02 -3.323050588369369507e-02 -1.983539387583732605e-02 3.297450020909309387e-02
2.367000000000000000e+03 1.595617580413818359e+01 8.990484237670898438e+00 7.589824235765263438e-05 5.784827226307243109e-05 4.012395584140904248e-05 2.165004480048082769e-05
2.368000000000000000e+03 4.196369171142578125e+01 -1.126810073852539062e+01 1.486398577690124512e+00 -3.900358974933624268e-01 3.289088308811187744e-01 1.730963289737701416e-01
2.369000000000000000e+03 7.653007507324218750e+01 -2.121109199523925781e+01 1.433849411114351824e-05 -7.388181256828829646e-05 -1.786299617378972471e-05 -1.257908588740974665e-04
2.370000000000000000e+03 7.584651184082031250e+01 -1.991462135314941406e+01 6.180599302751943469e-05 -1.562327524879947305e-04 -2.832802965713199228e-05 -9.517424769001081586e-05
2.371000000000000000e+03 3.203867721557617188e+01 -3.233217954635620117e+00 -1.686343193054199219e+00 5.346134677529335022e-02 -4.898645579814910889e-01 -1.819063872098922729e-01
2.372000000000000000e+03 4.439544677734375000e+01 -1.142067337036132812e+01 8.249821066856384277e-01 -5.056695342063903809e-01 9.579376131296157837e-02 5.269400477409362793e-01
2.373000000000000000e+03 3.608555984497070312e+01 -1.756215095520019531e+00 -2.282541036605834961e+00 5.548143386840820312e-01 -5.183179974555969238e-01 4.061021208763122559e-01
2.374000000000000000e+03 1.966037178039550781e+01 3.372286319732666016e+00 1.411852554156212136e-05 2.198538095399271697e-05 1.083117149391910061e-05 3.335349447297630832e-06
2.375000000000000000e+03 1.706463623046875000e+01 3.623045682907104492e+00 -1.225888536282582209e-05 -1.339592836302472278e-05 -7.696444299654103816e-06 -1.066598088073078543e-06
2.376000000000000000e+03 1.571301746368408203e+01 3.600899934768676758e+00 -3.352704879944212735e-06 -1.061392686096951365e-05 -4.189989795122528449e-06 9.930363376042805612e-06
2.377000000000000000e+03 1.638467597961425781e+01 3.585105895996093750e+00 1.161790441983612254e-05 2.593740828160662204e-05 1.126659390138229355e-05 3.932332674594363198e-06
2.378000000000000000e+03 3.263154602050781250e+01 -3.746682167053222656e+00 -1.162142753601074219e+00 1.139550730586051941e-01 -3.144562840461730957e-01 2.313393913209438324e-02
2.379000000000000000e+03 3.794821548461914062e+01 -8.333504796028137207e-01 -1.766975641250610352e+00 3.959882259368896484e-01 -4.112962186336517334e-01 6.174729466438293457e-01
2.380000000000000000e+03 1.301142406463623047e+01 4.478770256042480469e+00 3.025193473149556667e-05 1.656239146541338414e-05 1.404429804097162560e-05 1.781938954081851989e-05
2.381000000000000000e+03 2.026837158203125000e+01 3.552352666854858398e+00 -1.984724076464772224e-05 -1.987523683055769652e-05 -1.191674346046056598e-05 2.114973312927759252e-06
2.382000000000000000e+03 1.138636684417724609e+01 3.865359306335449219e+00 -9.642209079174790531e-06 -1.618044370843563229e-05 -7.746795745333656669e-06 1.416931718267733231e-05
2.383000000000000000e+03 3.858852767944335938e+01 -2.250284433364868164e+00 -2.308793067932128906e+00 5.359926819801330566e-01 -5.318400859832763672e-01 9.387970566749572754e-01
2.384000000000000000e+03 1.776887321472167969e+01 3.725424766540527344e+00 2.248817327199503779e-05 1.614158099982887506e-05 1.158892609964823350e-05 2.754210072453133762e-06
2.385000000000000000e+03 3.709452438354492188e+01 3.905319690704345703e+00 6.073341355659067631e-04 2.429903979646041989e-04 2.550973731558769941e-04 3.098384768236428499e-04
2.386000000000000000e+03 1.288662528991699219e+01 3.822399854660034180e+00 1.260153453586099204e-06 -1.211417293234262615e-05 -3.256205900470376946e-06 2.585399670351762325e-05
2.387000000000000000e+03 1.503785800933837891e+01 3.645035266876220703e+00 1.476963916502427310e-05 2.504485019017010927e-05 1.194434753415407613e-05 4.435653409018414095e-06
2.388000000000000000e+03 1.434499645233154297e+01 3.699030399322509766e+00 -4.816018190467730165e-06 -6.931122698006220162e-06 -3.524142357491655275e-06 1.831429472076706588e-05
2.389000000000000000e+03 1.066379737854003906e+01 3.817293643951416016e+00 4.949824506184086204e-05 1.982789945031981915e-05 2.079784462694078684e-05 3.051456042157951742e-05
2.390000000000000000e+03 9.958863258361816406e+00 3.813872098922729492e+00 2.810345722537022084e-05 -4.760743104270659387e-05 -5.851191872352501377e-06 1.210374375659739599e-05
2.391000000000000000e+03 1.213185501098632812e+01 3.872310400009155273e+00 4.431190973264165223e-05 1.368063112749950960e-05 1.739776234899181873e-05 1.187646284961374477e-05
2.392000000000000000e+03 4.050817012786865234e+00 3.706977844238281250e+00 1.809158675314392895e-05 6.018233307258924469e-06 7.232945790747180581e-06 -4.659089245251379907e-05
2.393000000000000000e+03 3.812660932540893555e+00 4.765161991119384766e+00 -5.727251482312567532e-05 7.991535312612541020e-06 -1.478429294365923852e-05 -6.366182788042351604e-05
2.394000000000000000e+03 3.758083724975585938e+01 -1.820678591728210449e+00 -2.122983217239379883e+00 6.089985370635986328e-01 -4.541953802108764648e-01 7.257240414619445801e-01
2.395000000000000000e+03 3.808930969238281250e+01 -2.037771940231323242e+00 -2.122646808624267578e+00 5.831273794174194336e-01 -4.618558585643768311e-01 8.944829702377319336e-01
2.396000000000000000e+03 2.527474212646484375e+01 -3.598323345184326172e+00 -8.048875331878662109e-01 -9.372481703758239746e-02 -2.695837020874023438e-01 -9.071792364120483398e-01
2.397000000000000000e+03 1.110906219482421875e+01 -4.236143589019775391e+00 -9.371428191661834717e-02 -8.960430324077606201e-02 -5.499557405710220337e-02 -1.600708514451980591e-01
2.398000000000000000e+03 1.196520996093750000e+01 -4.220865726470947266e+00 -1.109042093157768250e-01 -1.008195355534553528e-01 -6.351712346076965332e-02 -1.871625036001205444e-01
2.399000000000000000e+03 7.627677917480468750e+01 -1.115886592864990234e+01 -1.164955422282218933e-01 -1.100400090217590332e-01 -6.796066462993621826e-02 -1.995416283607482910e-01
2.400000000000000000e+03 9.597240447998046875e+00 -3.312383174896240234e+00 -8.415989577770233154e-02 -4.906015098094940186e-02 -3.996601328253746033e-02 -9.877386689186096191e-02
2.401000000000000000e+03 1.489019680023193359e+01 -4.304130554199218750e+00 -1.591733992099761963e-01 -1.361238509416580200e-01 -8.858916908502578735e-02 -2.948337495326995850e-01
2.402000000000000000e+03 9.248016357421875000e+00 3.849682092666625977e+00 4.840293331653811038e-05 1.874002373369876295e-05 2.014288656937424093e-05 3.071045966862584464e-06
2.403000000000000000e+03 1.346406078338623047e+01 -3.227797031402587891e+00 -1.907685697078704834e-01 -8.401031047105789185e-02 -8.243366330862045288e-02 -2.133879065513610840e-01
2.404000000000000000e+03 1.354544734954833984e+01 -3.931549310684204102e+00 -1.541323959827423096e-01 -1.122511178255081177e-01 -7.991505414247512817e-02 -2.356251031160354614e-01
2.405000000000000000e+03 7.062458038330078125e+00 3.945229530334472656e+00 1.684231392573565245e-05 -4.522830931819044054e-05 -8.515798072039615363e-06 1.199347025249153376e-05
2.406000000000000000e+03 7.970468044281005859e+00 -4.283748626708984375e+00 -4.887252300977706909e-02 -5.479254573583602905e-02 -3.109952062368392944e-02 -7.547025382518768311e-02
2.407000000000000000e+03 8.142498016357421875e+00 -3.794178247451782227e+00 -5.571914091706275940e-02 -4.645936563611030579e-02 -3.065355308353900909e-02 -7.411139458417892456e-02
2.408000000000000000e+03 7.578584194183349609e+00 -3.868585586547851562e+00 -4.847637191414833069e-02 -4.270625114440917969e-02 -2.735478803515434265e-02 -6.322911381721496582e-02
2.409000000000000000e+03 5.737678527832031250e+00 -3.554231643676757812e+00 -2.697503939270973206e-02 -2.726460620760917664e-02 -1.627189293503761292e-02 -3.178859502077102661e-02
2.410000000000000000e+03 4.856439590454101562e+00 -3.428856134414672852e+00 -1.919010281562805176e-02 -2.086197584867477417e-02 -1.201562397181987762e-02 -1.859806850552558899e-02
2.411000000000000000e+03 3.361441135406494141e+00 -4.723213195800781250e+00 -1.035142689943313599e-02 -2.291115373373031616e-02 -9.978774003684520721e-03 -1.361951977014541626e-02
2.412000000000000000e+03 2.984266281127929688e+00 -3.473250865936279297e+00 -8.197951130568981171e-03 -1.011112425476312637e-02 -5.492722615599632263e-03 -3.888119710609316826e-03
2.413000000000000000e+03 1.809838485717773438e+01 -4.131625175476074219e+00 -2.483731359243392944e-01 -1.289205402135848999e-01 -1.131881028413772583e-01 -3.897429406642913818e-01
2.414000000000000000e+03 8.522315979003906250e+00 3.877179145812988281e+00 2.573464189481455833e-05 -4.963269748259335756e-05 -7.169416676333639771e-06 1.147181046690093353e-05
2.415000000000000000e+03 4.646991729736328125e+01 -1.258779525756835938e+01 2.437127977609634399e-01 -2.244390696287155151e-01 5.782117601484060287e-03 5.525451302528381348e-01
2.416000000000000000e+03 1.650107765197753906e+01 -3.180290699005126953e+00 -3.075674176216125488e-01 -1.088033840060234070e-01 -1.249112412333488464e-01 -3.196411132812500000e-01
2.417000000000000000e+03 1.278802967071533203e+01 -4.110294342041015625e+00 -1.287349462509155273e-01 -1.062471047043800354e-01 -7.049461454153060913e-02 -2.123641073703765869e-01
2.418000000000000000e+03 6.873521423339843750e+01 -1.229293918609619141e+01 -7.947815656661987305e-01 1.528119295835494995e-01 -1.925908923149108887e-01 -7.350441068410873413e-02
2.419000000000000000e+03 1.425175285339355469e+01 -3.779345273971557617e+00 -1.797867417335510254e-01 -1.126350536942481995e-01 -8.772654086351394653e-02 -2.591739892959594727e-01
2.420000000000000000e+03 4.529431533813476562e+01 -1.218075084686279297e+01 5.542592406272888184e-01 -3.745626807212829590e-01 5.390895530581474304e-02 4.900443851947784424e-01
2.421000000000000000e+03 4.836869812011718750e+01 -1.302052783966064453e+01 -2.143698036670684814e-01 -1.285476516932249069e-02 -6.816737353801727295e-02 5.991936326026916504e-01
2.422000000000000000e+03 4.733429336547851562e+01 -1.284583854675292969e+01 2.163108997046947479e-02 -1.008925288915634155e-01 -2.377843111753463745e-02 5.787252783775329590e-01
2.423000000000000000e+03 7.185419464111328125e+01 -1.227885532379150391e+01 -4.368880093097686768e-01 7.818420231342315674e-02 -1.076111420989036560e-01 -1.723713278770446777e-01
2.424000000000000000e+03 7.259978485107421875e+01 -1.212699699401855469e+01 -3.641969859600067139e-01 4.457122460007667542e-02 -9.588772803544998169e-02 -2.225951105356216431e-01
2.425000000000000000e+03 7.572597503662109375e+01 -1.182769012451171875e+01 -1.680091023445129395e-01 -7.615699619054794312e-02 -7.324983179569244385e-02 -1.863620132207870483e-01
2.426000000000000000e+03 7.461843872070312500e+01 -1.206266403198242188e+01 -2.421037107706069946e-01 -2.566133812069892883e-02 -8.032951503992080688e-02 -1.941653490066528320e-01
2.427000000000000000e+03 1.494417285919189453e+01 -3.736574172973632812e+00 -2.016990035772323608e-01 -1.203805878758430481e-01 -9.662387520074844360e-02 -2.828661799430847168e-01
2.428000000000000000e+03 1.565445232391357422e+01 -3.805801630020141602e+00 -2.170916944742202759e-01 -1.248116046190261841e-01 -1.025709882378578186e-01 -3.119180798530578613e-01
2.429000000000000000e+03 7.112814331054687500e+01 -1.241941642761230469e+01 -4.917356967926025391e-01 9.891408681869506836e-02 -1.178464889526367188e-01 -1.862164884805679321e-01
2.430000000000000000e+03 7.121150207519531250e+01 -1.313597869873046875e+01 -4.272683858871459961e-01 8.732665330171585083e-02 -1.019825190305709839e-01 -7.597658783197402954e-02
2.431000000000000000e+03 2.878586006164550781e+01 -7.316224098205566406e+00 2.795434713363647461e+00 8.591777086257934570e-01 1.096383690834045410e+00 -7.685995697975158691e-01
2.432000000000000000e+03 3.550547790527343750e+01 5.424189090728759766e+00 -7.126154960133135319e-04 -1.565094862598925829e-04 -2.607374917715787888e-04 2.887512091547250748e-04
2.433000000000000000e+03 3.456681060791015625e+01 3.746603250503540039e+00 -9.134697029367089272e-04 2.683447673916816711e-04 -1.935374748427420855e-04 -3.769056638702750206e-05
2.434000000000000000e+03 7.337191009521484375e+01 -1.195165634155273438e+01 -3.124274313449859619e-01 1.129890698939561844e-02 -9.033855795860290527e-02 -2.008964121341705322e-01
2.435000000000000000e+03 2.251704406738281250e+01 -2.948921442031860352e+00 -8.340985774993896484e-01 1.356221735477447510e-01 -2.095429301261901855e-01 -5.501731038093566895e-01
2.436000000000000000e+03 1.892475700378417969e+01 -4.454553604125976562e+00 -2.231097221374511719e-01 -1.252336204051971436e-01 -1.045030057430267334e-01 -4.340842366218566895e-01
2.437000000000000000e+03 7.041840362548828125e+01 -1.255683422088623047e+01 -5.950369834899902344e-01 1.325055658817291260e-01 -1.387594193220138550e-01 -1.048266887664794922e-01
2.438000000000000000e+03 6.974781799316406250e+01 -1.272964382171630859e+01 -5.918095111846923828e-01 1.196317598223686218e-01 -1.416533291339874268e-01 -8.147885650396347046e-02
2.439000000000000000e+03 3.653022384643554688e+01 -8.276737213134765625e+00 8.308766484260559082e-01 2.361220598220825195e+00 9.576292037963867188e-01 -8.023956418037414551e-01
2.440000000000000000e+03 3.609630584716796875e+01 -8.726211547851562500e+00 1.303523659706115723e+00 2.052117586135864258e+00 1.006692409515380859e+00 -1.273221492767333984e+00
2.441000000000000000e+03 7.226625061035156250e+01 -2.030816268920898438e+01 1.355283984594279900e-05 1.916430483106523752e-05 9.815143130254000425e-06 9.849495108937844634e-05
2.442000000000000000e+03 7.287857818603515625e+01 -1.995982170104980469e+01 -6.850027421023696661e-05 -1.442331267753615975e-04 -6.382002175087109208e-05 2.651733666425570846e-06
2.443000000000000000e+03 3.445395278930664062e+01 -2.030130863189697266e+00 -2.590627908706665039e+00 3.287790119647979736e-01 -6.785547137260437012e-01 3.512018620967864990e-01
2.444000000000000000e+03 3.479727172851562500e+01 -2.549676895141601562e+00 -2.262790679931640625e+00 4.170936942100524902e-01 -5.537090897560119629e-01 4.761603176593780518e-01
2.445000000000000000e+03 4.342082214355468750e+01 -1.993420982360839844e+01 1.240717694163322449e-01 -1.455987095832824707e-01 -6.458082702010869980e-03 1.676418781280517578e-01
2.446000000000000000e+03 4.272638702392578125e+01 -2.159964942932128906e+01 1.478900164365768433e-01 1.349748671054840088e-01 8.485946804285049438e-02 2.328066155314445496e-02
2.447000000000000000e+03 3.550429534912109375e+01 -9.114501953125000000e+00 1.968221187591552734e+00 1.412504076957702637e+00 1.014217615127563477e+00 -1.728949427604675293e+00
2.448000000000000000e+03 3.437108612060546875e+01 -9.010853767395019531e+00 2.366734027862548828e+00 3.083298504352569580e-01 8.025192022323608398e-01 -1.559347987174987793e+00
2.449000000000000000e+03 3.365353775024414062e+01 -8.377184867858886719e+00 2.372208833694458008e+00 -3.459498658776283264e-02 7.012841105461120605e-01 -1.117607593536376953e+00
2.450000000000000000e+03 3.822986602783203125e+01 9.477089881896972656e+00 -9.885688778012990952e-04 -1.775816897861659527e-03 -8.293157443404197693e-04 7.660050760023295879e-04
2.451000000000000000e+03 2.226309585571289062e+01 -2.048568248748779297e+00 -9.640556573867797852e-01 1.743635982275009155e-01 -2.369076162576675415e-01 -3.530736565589904785e-01
2.452000000000000000e+03 1.366677474975585938e+01 -1.016673088073730469e+01 8.727677166461944580e-02 -3.149368464946746826e-01 -6.829801946878433228e-02 -1.695247292518615723e-01
2.453000000000000000e+03 1.545570850372314453e+01 -1.138683986663818359e+01 1.249625086784362793e-01 -3.297818005084991455e-01 -6.144578754901885986e-02 -1.448952406644821167e-01
2.454000000000000000e+03 3.028999328613281250e+01 -6.440782546997070312e+00 1.446653604507446289e+00 8.910909295082092285e-01 7.013233900070190430e-01 -4.045545458793640137e-01
2.455000000000000000e+03 3.236077880859375000e+01 -7.087805747985839844e+00 1.958396434783935547e+00 2.429585307836532593e-01 6.604064702987670898e-01 -3.718787133693695068e-01
2.456000000000000000e+03 2.890059852600097656e+01 -6.544625759124755859e+00 1.613266825675964355e+00 7.250195741653442383e-01 7.014859318733215332e-01 -5.605655908584594727e-01
2.457000000000000000e+03 2.960919570922851562e+01 -6.564083576202392578e+00 1.763556361198425293e+00 8.080774545669555664e-01 7.714901566505432129e-01 -5.381927490234375000e-01
2.458000000000000000e+03 2.105676651000976562e+01 -3.494102239608764648e+00 -4.929183125495910645e-01 -5.641561467200517654e-03 -1.495679616928100586e-01 -4.790733158588409424e-01
2.459000000000000000e+03 2.357000350952148438e+01 -4.215635776519775391e+00 -3.776159584522247314e-01 -1.562599278986454010e-02 -1.179725900292396545e-01 -7.842944264411926270e-01
2.460000000000000000e+03 3.681044387817382812e+01 -1.652523803710937500e+01 -4.762180745601654053e-01 2.889643192291259766e+00 7.240275144577026367e-01 3.871365785598754883e-01
2.461000000000000000e+03 2.024741172790527344e+01 -3.670440435409545898e+00 -4.155630171298980713e-01 -5.193180590867996216e-02 -1.402484476566314697e-01 -4.538559317588806152e-01
2.462000000000000000e+03 3.836865997314453125e+01 -3.066542863845825195e+00 -2.087853670120239258e+00 6.551497578620910645e-01 -4.298111796379089355e-01 8.474752902984619141e-01
2.463000000000000000e+03 3.360115814208984375e+01 1.479451370239257812e+01 -1.335670240223407745e-02 -5.609891843050718307e-03 -5.689978133887052536e-03 1.404354814440011978e-02
2.464000000000000000e+03 1.156822776794433594e+01 -1.412807750701904297e+01 -6.480959057807922363e-02 -2.788772881031036377e-01 -1.031060591340065002e-01 -9.029728919267654419e-02
2.465000000000000000e+03 3.944747161865234375e+01 -2.054659652709960938e+01 3.238655030727386475e-01 1.338226675987243652e+00 4.986276626586914062e-01 6.244693323969841003e-02
2.466000000000000000e+03 1.522754669189453125e+01 -2.479530906677246094e+01 8.591596782207489014e-02 -5.850576981902122498e-02 8.223059587180614471e-03 -4.557438194751739502e-02
2.467000000000000000e+03 1.443693065643310547e+01 -2.780223464965820312e+01 7.995715737342834473e-02 -9.265179187059402466e-02 -3.808390814810991287e-03 -4.955820366740226746e-02
2.468000000000000000e+03 3.745345306396484375e+01 -1.570413494110107422e+01 -8.278582692146301270e-01 3.030172109603881836e+00 6.606941223144531250e-01 1.681923568248748779e-01
2.469000000000000000e+03 6.266340637207031250e+01 -1.113026905059814453e+01 -1.726806402206420898e+00 -3.882251381874084473e-01 -6.345094442367553711e-01 -2.191782295703887939e-01
2.470000000000000000e+03 4.065895557403564453e+00 -1.172921371459960938e+01 -1.055143214762210846e-02 -1.083882004022598267e-01 -3.568188846111297607e-02 -4.750210046768188477e-02
2.471000000000000000e+03 3.946899652481079102e+00 -9.226329803466796875e+00 -8.043281733989715576e-03 -7.844180613756179810e-02 -2.594552747905254364e-02 -3.796228766441345215e-02
2.472000000000000000e+03 3.703769302368164062e+01 -1.753127861022949219e+01 -1.399318724870681763e-01 2.746285200119018555e+00 7.819060087203979492e-01 2.652737200260162354e-01
2.473000000000000000e+03 3.470661926269531250e+01 8.799033164978027344e+00 -4.061381041537970304e-04 -1.044527161866426468e-03 -4.351995594333857298e-04 -1.895644236356019974e-04
2.474000000000000000e+03 1.656579780578613281e+01 -2.693148612976074219e+01 8.719728887081146240e-02 -2.934686373919248581e-03 2.527878060936927795e-02 -5.096514895558357239e-02
2.475000000000000000e+03 6.086828231811523438e+01 -1.043774795532226562e+01 -1.334301829338073730e+00 2.736308239400386810e-02 -3.920816183090209961e-01 -1.430040448904037476e-01
2.476000000000000000e+03 7.001377868652343750e+01 -2.641538810729980469e+01 -1.523803919553756714e-03 1.958110224222764373e-04 -3.983978531323373318e-04 3.456620033830404282e-04
2.477000000000000000e+03 6.820777130126953125e+01 -1.163087368011474609e+01 -1.253698468208312988e+00 2.538001537322998047e-01 -2.999695241451263428e-01 -2.200725823640823364e-01
2.478000000000000000e+03 7.169127655029296875e+01 -1.981271171569824219e+01 8.605733455624431372e-05 -1.428228279110044241e-04 -1.702964800642803311e-05 -6.261020462261512876e-05
2.479000000000000000e+03 5.649800872802734375e+01 -1.043545246124267578e+01 -9.098306298255920410e-01 5.273716449737548828e-01 -1.147377043962478638e-01 1.368376910686492920e-01
2.480000000000000000e+03 3.817479324340820312e+01 1.213697719573974609e+01 -1.436047907918691635e-02 1.648769015446305275e-03 -3.813513088971376419e-03 -7.952838786877691746e-04
2.481000000000000000e+03 3.452105331420898438e+01 9.536175727844238281e+00 -1.140856882557272911e-03 -3.996752784587442875e-04 -4.621596599463373423e-04 1.799101737560704350e-04
2.482000000000000000e+03 3.587896347045898438e+00 -3.300399398803710938e+01 1.123373862355947495e-02 -3.795833289623260498e-01 -1.105048730969429016e-01 -2.988516166806221008e-02
2.483000000000000000e+03 6.683141231536865234e+00 -3.256898498535156250e+01 2.935681305825710297e-02 -2.844874262809753418e-01 -7.653918117284774780e-02 -4.797374457120895386e-02
2.484000000000000000e+03 6.948664665222167969e+00 -2.023405838012695312e+01 -1.029727514833211899e-02 -2.234944105148315430e-01 -7.013750821352005005e-02 -1.251452863216400146e-01
2.485000000000000000e+03 4.948939132690429688e+01 -1.303702545166015625e+01 -4.722857475280761719e-01 9.907899051904678345e-02 -1.119620278477668762e-01 6.093574166297912598e-01
2.486000000000000000e+03 4.033450603485107422e+00 5.737846374511718750e+00 -8.455642819171771407e-05 -1.288211933569982648e-05 -2.923156353062950075e-05 5.792058436782099307e-05
2.487000000000000000e+03 4.329435348510742188e+00 8.237593650817871094e+00 1.527996355434879661e-04 -4.830781472264789045e-05 3.134754661004990339e-05 2.344011591048911214e-05
2.488000000000000000e+03 7.063491058349609375e+01 -2.445886230468750000e+01 -2.653646515682339668e-04 -2.489089092705398798e-05 -8.707666711416095495e-05 1.035368404700420797e-04
2.489000000000000000e+03 7.543422698974609375e+01 1.350570774078369141e+01 1.422592401504516602e-01 -1.390473008155822754e+00 -3.744641244411468506e-01 -3.302202560007572174e-03
2.490000000000000000e+03 7.538423919677734375e+01 1.488489627838134766e+01 1.480709612369537354e-01 -1.360342860221862793e+00 -3.636815845966339111e-01 6.735277175903320312e-02
2.491000000000000000e+03 2.460805702209472656e+01 -7.694277763366699219e+00 1.154721617698669434e+00 -2.490331679582595825e-01 2.717065513134002686e-01 -3.252710998058319092e-01
2.492000000000000000e+03 2.293295097351074219e+01 -6.794547080993652344e+00 5.233966708183288574e-01 -2.230063825845718384e-01 9.011708199977874756e-02 -5.028690695762634277e-01
2.493000000000000000e+03 2.918262481689453125e+00 2.077507591247558594e+01 -6.404326413758099079e-04 -3.079461748711764812e-05 -2.013681805692613125e-04 2.365188120165839791e-04
2.494000000000000000e+03 3.927371978759765625e+00 1.950852966308593750e+01 -7.065897225402295589e-04 -1.906520774355158210e-04 -2.691725385375320911e-04 9.309039887739345431e-05
2.495000000000000000e+03 5.057333755493164062e+01 -1.085406684875488281e+01 -3.333771824836730957e-01 3.055213093757629395e-01 -8.356760255992412567e-03 9.752016663551330566e-01
2.496000000000000000e+03 4.947870635986328125e+01 -1.195144748687744141e+01 -2.967520654201507568e-01 9.340766817331314087e-02 -6.100332364439964294e-02 8.295997381210327148e-01
2.497000000000000000e+03 5.311450958251953125e+01 -1.086550235748291016e+01 -7.181711792945861816e-01 5.205875635147094727e-01 -5.927508696913719177e-02 6.234880089759826660e-01
2.498000000000000000e+03 5.447677612304687500e+01 -1.070637512207031250e+01 -7.841472029685974121e-01 5.449825525283813477e-01 -7.174938172101974487e-02 4.049014747142791748e-01
2.499000000000000000e+03 4.813117504119873047e+00 2.923971557617187500e+01 -5.375367472879588604e-04 -4.385828971862792969e-03 -1.477009616792201996e-03 4.450744017958641052e-03
2.500000000000000000e+03 1.236688137054443359e+01 -1.523276805877685547e+01 -1.020517647266387939e-01 -3.092235028743743896e-01 -1.233825758099555969e-01 -1.079815253615379333e-01
2.501000000000000000e+03 6.359737014770507812e+01 9.574305534362792969e+00 4.009567201137542725e-01 3.536068916320800781e+00 1.181107640266418457e+00 4.630281329154968262e-01
2.502000000000000000e+03 6.379714202880859375e+01 8.430157661437988281e+00 5.666989088058471680e-01 2.946354150772094727e+00 1.053915858268737793e+00 4.635042250156402588e-01
2.503000000000000000e+03 7.734344482421875000e+01 -2.152084732055664062e+01 -1.042090007103979588e-04 2.160135409212671220e-05 -2.478229544067289680e-05 -9.955390851246193051e-05
2.504000000000000000e+03 7.482877349853515625e+01 3.069707679748535156e+01 -8.750034123659133911e-02 -5.899767875671386719e-01 -2.032431364059448242e-01 3.832590281963348389e-01
2.505000000000000000e+03 4.223252487182617188e+01 1.669923973083496094e+01 -5.127827078104019165e-02 1.553575135767459869e-02 -1.072275638580322266e-02 -1.286605745553970337e-02
2.506000000000000000e+03 3.935322952270507812e+01 -3.264905929565429688e+00 -2.018978595733642578e+00 2.919906377792358398e-01 -5.180963873863220215e-01 8.799613714218139648e-01
2.507000000000000000e+03 4.049011230468750000e+01 -3.780041933059692383e+00 -1.948546409606933594e+00 -2.482922524213790894e-01 -6.590515971183776855e-01 9.123172163963317871e-01
2.508000000000000000e+03 4.495836734771728516e+00 -1.576235771179199219e+01 -1.716750301420688629e-02 -1.588199287652969360e-01 -5.279622972011566162e-02 -7.395099848508834839e-02
2.509000000000000000e+03 5.390429019927978516e+00 -1.284833908081054688e+01 -1.860354840755462646e-02 -1.414402425289154053e-01 -4.801313579082489014e-02 -6.485538929700851440e-02
2.510000000000000000e+03 3.910349655151367188e+01 1.528375625610351562e+01 -3.432672843337059021e-02 1.579972542822360992e-02 -5.558100994676351547e-03 1.696359482593834400e-03
2.511000000000000000e+03 4.009146881103515625e+01 1.435048484802246094e+01 -3.091610223054885864e-02 8.217823691666126251e-03 -6.809483747929334641e-03 -3.114061430096626282e-03
2.512000000000000000e+03 7.582772827148437500e+01 -8.236497879028320312e+00 -1.363365203142166138e-01 -2.625032663345336914e-01 -1.196519434452056885e-01 -3.904953598976135254e-01
2.513000000000000000e+03 7.505701446533203125e+01 1.914974975585937500e+01 1.348551213741302490e-01 -1.165713429450988770e+00 -3.092574775218963623e-01 3.093459010124206543e-01
2.514000000000000000e+03 6.580410766601562500e+01 -9.375231742858886719e+00 -1.065139055252075195e+00 -1.538056582212448120e-01 -3.656834065914154053e-01 -6.986587643623352051e-01
2.515000000000000000e+03 6.505569458007812500e+01 -8.266180038452148438e+00 -6.278398036956787109e-01 -1.578085869550704956e-01 -2.356945127248764038e-01 -6.504493355751037598e-01
2.516000000000000000e+03 4.073411464691162109e+00 1.211039638519287109e+01 2.065608132397755980e-04 -5.103862804389791563e-06 6.043708344805054367e-05 -2.483433345332741737e-04
2.517000000000000000e+03 1.607369613647460938e+01 -1.018226814270019531e+01 1.768966168165206909e-01 -2.861703634262084961e-01 -3.278212994337081909e-02 -2.295909672975540161e-01
2.518000000000000000e+03 7.555949401855468750e+01 7.917800903320312500e+00 1.099167019128799438e-01 -1.322922348976135254e+00 -3.639016747474670410e-01 -2.894740700721740723e-01
2.519000000000000000e+03 2.618199729919433594e+01 -6.680856227874755859e+00 1.310472249984741211e+00 -1.048163846135139465e-01 3.616967499256134033e-01 -6.416805386543273926e-01
2.520000000000000000e+03 4.573406219482421875e+00 2.634628486633300781e+01 -9.373725624755024910e-04 -2.397893695160746574e-03 -1.000579912215471268e-03 3.043552627786993980e-03
2.521000000000000000e+03 4.377368927001953125e+01 2.139411354064941406e+01 -2.809750474989414215e-02 2.679403126239776611e-02 -3.910418890882283449e-04 1.505170599557459354e-03
2.522000000000000000e+03 1.180593013763427734e+01 -2.235270309448242188e+01 5.038842186331748962e-02 -2.329658418893814087e-01 -5.477322638034820557e-02 -1.106413155794143677e-01
2.523000000000000000e+03 5.006552505493164062e+01 2.633959007263183594e+01 1.749850362539291382e-01 8.192801475524902344e-02 7.707391679286956787e-02 -1.736359298229217529e-01
2.524000000000000000e+03 3.477650165557861328e+00 3.337702941894531250e+01 4.214319633319973946e-04 -7.713594939559698105e-03 -2.187649020925164223e-03 3.406638279557228088e-03
2.525000000000000000e+03 6.546701812744140625e+01 1.866939163208007812e+01 7.872725725173950195e-01 2.342034101486206055e+00 9.387919902801513672e-01 -6.385803222656250000e-02
2.526000000000000000e+03 6.376698303222656250e+01 2.000875473022460938e+01 9.007958769798278809e-01 2.900552034378051758e+00 1.140404343605041504e+00 -2.409853041172027588e-01
2.527000000000000000e+03 1.817023849487304688e+01 -2.882572174072265625e+01 8.560781180858612061e-02 3.583571314811706543e-02 3.643305599689483643e-02 -6.064857915043830872e-02
2.528000000000000000e+03 5.849190139770507812e+01 -1.050713920593261719e+01 -1.211343765258789062e+00 3.720441162586212158e-01 -2.517898976802825928e-01 -8.870293200016021729e-02
2.529000000000000000e+03 4.257886505126953125e+01 -5.693366050720214844e+00 -8.118844032287597656e-01 -8.272133469581604004e-01 -4.917293190956115723e-01 1.237164616584777832e+00
2.530000000000000000e+03 6.355994033813476562e+01 1.156398296356201172e+01 2.798121273517608643e-01 3.877881288528442383e+00 1.247308015823364258e+00 2.832860350608825684e-01
2.531000000000000000e+03 3.913413238525390625e+01 -1.778805923461914062e+01 -9.968689084053039551e-02 1.658734917640686035e+00 4.677143990993499756e-01 4.682471230626106262e-02
2.532000000000000000e+03 3.841607284545898438e+01 -1.928146934509277344e+01 1.823650151491165161e-01 1.981103658676147461e+00 6.490405797958374023e-01 1.444768011569976807e-01
2.533000000000000000e+03 3.600395584106445312e+01 -1.546111965179443359e+01 -6.867463588714599609e-01 2.757756471633911133e+00 6.213030219078063965e-01 8.689467310905456543e-01
2.534000000000000000e+03 4.568882751464843750e+01 2.095772933959960938e+01 -3.632864356040954590e-02 1.467365305870771408e-02 -6.496497429907321930e-03 -7.171702105551958084e-03
2.535000000000000000e+03 4.277721786499023438e+01 2.261770820617675781e+01 -6.267620250582695007e-03 3.316334635019302368e-02 8.068718016147613525e-03 -1.814357470721006393e-03
2.536000000000000000e+03 2.047104835510253906e+01 -7.855413436889648438e+00 3.811930716037750244e-01 -2.070306241512298584e-01 5.224873870611190796e-02 -3.255719244480133057e-01
2.537000000000000000e+03 4.870597457885742188e+01 -3.550991439819335938e+01 3.444043546915054321e-02 8.241291344165802002e-02 3.505600616335868835e-02 -5.574208498001098633e-02
2.538000000000000000e+03 5.699732208251953125e+01 -4.546865940093994141e+00 9.545978903770446777e-01 1.150408387184143066e+00 6.315018534660339355e-01 7.860795259475708008e-01
2.539000000000000000e+03 5.895079421997070312e+01 -4.116129398345947266e+00 6.991047263145446777e-01 9.638126492500305176e-01 4.988752305507659912e-01 5.560398697853088379e-01
2.540000000000000000e+03 4.488409423828125000e+01 -1.094995975494384766e+01 7.415717244148254395e-01 -5.463185310363769531e-01 5.857597291469573975e-02 7.198538780212402344e-01
2.541000000000000000e+03 5.627004623413085938e+01 -5.677842617034912109e+00 6.557638049125671387e-01 1.120975732803344727e+00 5.330218672752380371e-01 6.682404875755310059e-01
2.542000000000000000e+03 4.149253082275390625e+01 -2.335451316833496094e+01 1.658560633659362793e-01 5.764976143836975098e-01 2.227061092853546143e-01 -1.151123866438865662e-01
2.543000000000000000e+03 3.276105403900146484e+00 3.678415679931640625e+01 6.217392510734498501e-04 -1.047954708337783813e-02 -2.957342192530632019e-03 2.280360320582985878e-03
2.544000000000000000e+03 4.094404602050781250e+01 -5.707068920135498047e+00 -7.510025501251220703e-01 -2.750825583934783936e-01 -3.078255355358123779e-01 9.510747194290161133e-01
2.545000000000000000e+03 6.747044372558593750e+01 -1.100930881500244141e+01 -1.187209248542785645e+00 1.243410855531692505e-01 -3.188604414463043213e-01 -5.554209351539611816e-01
2.546000000000000000e+03 6.742956542968750000e+01 -9.449810028076171875e+00 -9.478664398193359375e-01 5.739441514015197754e-02 -2.671416103839874268e-01 -7.175565958023071289e-01
2.547000000000000000e+03 3.912630319595336914e+00 -8.053887367248535156e+00 -8.457325398921966553e-03 -6.511955708265304565e-02 -2.207306399941444397e-02 -3.464252874255180359e-02
2.548000000000000000e+03 4.987053394317626953e+00 -8.070573806762695312e+00 -1.295475289225578308e-02 -8.160978555679321289e-02 -2.836936153471469879e-02 -4.747276008129119873e-02
2.549000000000000000e+03 6.450161743164062500e+01 6.205054283142089844e+00 6.015577316284179688e-01 2.326402425765991211e+00 8.783880472183227539e-01 3.167887330055236816e-01
2.550000000000000000e+03 4.460884571075439453e+00 7.095019340515136719e+00 5.577566116699017584e-05 -4.135487415624083951e-06 1.549205262563191354e-05 1.599997813173104078e-05
2.551000000000000000e+03 3.602463722229003906e+00 7.538031101226806641e+00 -7.936609449643583503e-07 9.647780643717851490e-06 2.656235892573022284e-06 -1.728883507894352078e-04
2.552000000000000000e+03 3.813348388671875000e+01 -2.285120010375976562e+01 4.173990190029144287e-01 1.864720106124877930e+00 6.846357583999633789e-01 3.729557991027832031e-02
2.553000000000000000e+03 5.034054183959960938e+01 -8.652091026306152344e+00 1.345698386430740356e-01 4.792445003986358643e-01 1.841443032026290894e-01 1.304413318634033203e+00
2.554000000000000000e+03 4.931912231445312500e+01 -8.779946327209472656e+00 1.369101703166961670e-01 1.155704334378242493e-01 7.574417442083358765e-02 1.330373048782348633e+00
2.555000000000000000e+03 6.451670074462890625e+01 3.117434024810791016e+00 5.682459473609924316e-01 1.644091844558715820e+00 6.637013554573059082e-01 1.215443238615989685e-01
2.556000000000000000e+03 7.453442382812500000e+01 3.510955429077148438e+01 -1.125683188438415527e-01 -4.650198519229888916e-01 -1.732764542102813721e-01 2.462947666645050049e-01
2.557000000000000000e+03 1.113902854919433594e+01 -1.572129631042480469e+01 -8.193697035312652588e-02 -2.641303539276123047e-01 -1.038201972842216492e-01 -1.142019629478454590e-01
2.558000000000000000e+03 6.627163696289062500e+01 -3.191232109069824219e+01 -7.260309066623449326e-03 8.046875591389834881e-04 -1.936686458066105843e-03 5.995680112391710281e-03
2.559000000000000000e+03 6.801660919189453125e+01 1.649331665039062500e+01 6.126096248626708984e-01 1.418324947357177734e+00 6.092803478240966797e-01 5.394452065229415894e-02
2.560000000000000000e+03 3.774599075317382812e+01 -3.009086799621582031e+01 -6.084924191236495972e-02 1.079739928245544434e+00 3.056672215461730957e-01 -1.348040401935577393e-01
2.561000000000000000e+03 3.868450927734375000e+01 -2.926381492614746094e+01 -1.314854715019464493e-03 1.042664766311645508e+00 3.124049603939056396e-01 -2.043356597423553467e-01
2.562000000000000000e+03 5.960501480102539062e+01 -2.968930482864379883e+00 7.900865077972412109e-01 1.114432692527770996e+00 5.713557600975036621e-01 6.195709705352783203e-01
2.563000000000000000e+03 2.947721099853515625e+01 -2.865145683288574219e+00 -1.906055212020874023e+00 2.675056457519531250e-01 -4.915648698806762695e-01 -3.266370892524719238e-01
2.564000000000000000e+03 2.783793640136718750e+01 -2.382523775100708008e+00 -2.187154531478881836e+00 -8.325471729040145874e-02 -6.811227798461914062e-01 -3.902191817760467529e-01
2.565000000000000000e+03 2.994461250305175781e+01 -2.487221002578735352e+00 -2.381922006607055664e+00 2.660353481769561768e-01 -6.347659826278686523e-01 -2.171189486980438232e-01
2.566000000000000000e+03 2.926609230041503906e+01 -3.502594947814941406e+00 -1.300966143608093262e+00 3.095763325691223145e-01 -2.974169552326202393e-01 -4.218862950801849365e-01
2.567000000000000000e+03 2.919015884399414062e+01 -2.682462215423583984e+00 -2.095042228698730469e+00 1.734373867511749268e-01 -5.764814615249633789e-01 -3.146967291831970215e-01
2.568000000000000000e+03 2.974214935302734375e+01 -2.330666542053222656e+00 -2.444359779357910156e+00 2.372138500213623047e-01 -6.621437668800354004e-01 -2.516097426414489746e-01
2.569000000000000000e+03 3.076368522644042969e+01 -2.304843187332153320e+00 -2.608087301254272461e+00 3.037741482257843018e-01 -6.912939548492431641e-01 -1.979840993881225586e-01
2.570000000000000000e+03 2.722976303100585938e+01 -2.336850643157958984e+00 -2.089342117309570312e+00 -2.227034866809844971e-01 -6.936137080192565918e-01 -4.728352427482604980e-01
2.571000000000000000e+03 2.742207908630371094e+01 -2.327242374420166016e+00 -2.162924289703369141e+00 -2.071494907140731812e-01 -7.110221385955810547e-01 -4.211632013320922852e-01
2.572000000000000000e+03 2.635647201538085938e+01 -3.145533084869384766e+00 -1.186113595962524414e+00 -1.837288588285446167e-01 -4.109527170658111572e-01 -8.027741312980651855e-01
2.573000000000000000e+03 4.031509780883789062e+01 -1.059064102172851562e+01 2.428320646286010742e+00 -7.450387626886367798e-02 7.061450481414794922e-01 4.627687335014343262e-01
2.574000000000000000e+03 4.020335769653320312e+01 -1.087236499786376953e+01 2.481793880462646484e+00 -6.540891528129577637e-02 7.249154448509216309e-01 2.236879616975784302e-01
2.575000000000000000e+03 3.934990310668945312e+01 -9.364732742309570312e+00 1.892521500587463379e+00 1.128747224807739258e+00 9.063806533813476562e-01 1.210045814514160156e+00
2.576000000000000000e+03 3.140804481506347656e+01 -2.373642444610595703e+00 -2.478527784347534180e+00 2.034661918878555298e-01 -6.825185418128967285e-01 -2.455008476972579956e-01
2.577000000000000000e+03 3.798574447631835938e+01 -1.414115905761718750e+01 -8.198395967483520508e-01 3.325429439544677734e+00 7.516769766807556152e-01 -6.780699491500854492e-01
2.578000000000000000e+03 3.729210662841796875e+01 -1.426076126098632812e+01 -1.229812741279602051e+00 4.114357471466064453e+00 8.653633594512939453e-01 1.803251169621944427e-02
2.579000000000000000e+03 1.868618011474609375e+01 2.354353904724121094e+01 -2.939040772616863251e-02 -7.574053597636520863e-04 -9.044343605637550354e-03 7.853949442505836487e-03
2.580000000000000000e+03 3.491606903076171875e+01 6.066092014312744141e+00 6.271587335504591465e-04 -1.178098464151844382e-04 1.528046705061569810e-04 -1.089165685698390007e-03
2.581000000000000000e+03 1.794020843505859375e+01 6.811921596527099609e+00 6.311020115390419960e-05 1.431394684914266691e-05 2.322724503756035119e-05 9.595119990990497172e-06
2.582000000000000000e+03 2.819805335998535156e+01 2.245636367797851562e+01 -6.590455025434494019e-02 -3.431921079754829407e-02 -3.006712906062602997e-02 3.409214690327644348e-02
2.583000000000000000e+03 2.709047508239746094e+01 2.296389198303222656e+01 -6.307711452245712280e-02 -2.596574462950229645e-02 -2.671285718679428101e-02 3.253557533025741577e-02
2.584000000000000000e+03 1.701376152038574219e+01 8.158223152160644531e+00 5.902206976315937936e-05 2.803569987008813769e-05 2.611732998047955334e-05 1.965824048966169357e-05
2.585000000000000000e+03 2.720393371582031250e+01 -2.061837673187255859e+00 -2.368978500366210938e+00 -2.826732099056243896e-01 -7.954955101013183594e-01 -3.709614276885986328e-01
2.586000000000000000e+03 3.278807830810546875e+01 1.628247642517089844e+01 -1.994468830525875092e-02 -1.311225444078445435e-02 -9.917083196341991425e-03 2.140477858483791351e-02
2.587000000000000000e+03 1.344844436645507812e+01 1.788099098205566406e+01 1.665607851464301348e-04 5.296045565046370029e-04 2.088495966745540500e-04 2.530193305574357510e-04
2.588000000000000000e+03 2.324586105346679688e+01 2.498832130432128906e+01 -3.699668869376182556e-02 -1.519306376576423645e-02 -1.565692573785781860e-02 2.296388894319534302e-02
2.589000000000000000e+03 3.740674591064453125e+01 -1.472141075134277344e+01 -1.126671075820922852e+00 3.620281457901000977e+00 7.480831146240234375e-01 6.485345959663391113e-02
2.590000000000000000e+03 3.384409332275390625e+01 1.138694381713867188e+01 -1.625907025299966335e-03 -1.076243119314312935e-03 -8.106450550258159637e-04 2.303318819031119347e-03
2.591000000000000000e+03 3.335209274291992188e+01 1.094176578521728516e+01 -2.358260244363918900e-04 1.955796178663149476e-04 -1.207392233482096344e-05 7.568115252070128918e-04
2.592000000000000000e+03 1.558495521545410156e+01 9.691129684448242188e+00 7.625354919582605362e-05 1.074265819624997675e-04 5.510403934749774635e-05 1.473523570894030854e-05
2.593000000000000000e+03 3.257842254638671875e+01 1.651910018920898438e+01 -2.002691663801670074e-02 -1.418153848499059677e-02 -1.026253681629896164e-02 2.230370603501796722e-02
2.594000000000000000e+03 1.308580493927001953e+01 1.803519439697265625e+01 -2.960350248031318188e-04 5.385144322644919157e-05 -7.265507156262174249e-05 1.579056988703086972e-04
2.595000000000000000e+03 1.370215797424316406e+01 1.366939353942871094e+01 -1.138011939474381506e-04 3.993981517851352692e-04 8.567908662371337414e-05 2.341258223168551922e-04
2.596000000000000000e+03 2.030008125305175781e+01 2.368890571594238281e+01 -3.904929757118225098e-02 -3.878302406519651413e-03 -1.287828013300895691e-02 1.217874977737665176e-02
2.597000000000000000e+03 1.540205192565917969e+01 1.009164524078369141e+01 -1.013073779176920652e-04 7.378807640634477139e-05 -8.255788998212665319e-06 -5.493618118634913117e-06
2.598000000000000000e+03 3.474919128417968750e+01 7.484778404235839844e+00 1.122321002185344696e-03 -1.231668866239488125e-04 2.997462288476526737e-04 -3.706461866386234760e-04
2.599000000000000000e+03 3.316488265991210938e+01 1.215605735778808594e+01 -2.124148653820157051e-03 -1.252746442332863808e-03 -1.013068482279777527e-03 2.134034177288413048e-03
2.600000000000000000e+03 1.922886657714843750e+01 4.168792724609375000e+00 1.459444501961115748e-05 1.560635246278252453e-05 9.060238880920223892e-06 1.677224281593225896e-05
2.601000000000000000e+03 3.739628982543945312e+01 8.494512557983398438e+00 3.702952526509761810e-04 -1.043791300617158413e-03 -2.020488318521529436e-04 -9.515764395473524928e-05
2.602000000000000000e+03 3.341016387939453125e+01 1.052913951873779297e+01 -8.367015398107469082e-04 9.109493694268167019e-04 2.227434742962941527e-05 2.988166816066950560e-04
2.603000000000000000e+03 3.432243347167968750e+01 9.083185195922851562e+00 5.102992872707545757e-04 2.688635722734034061e-04 2.337488549528643489e-04 -3.950836835429072380e-04
2.604000000000000000e+03 3.311912918090820312e+01 1.299685955047607422e+01 -3.776454133912920952e-03 -3.654548665508627892e-03 -2.229300793260335922e-03 4.959687590599060059e-03
2.605000000000000000e+03 3.395800399780273438e+01 1.052710914611816406e+01 -5.645256023854017258e-04 -5.220352322794497013e-04 -3.259682562202215195e-04 6.201455253176391125e-04
2.606000000000000000e+03 3.396861267089843750e+01 9.672182083129882812e+00 6.440697325160726905e-05 4.177499504294246435e-04 1.446470705559477210e-04 -3.519791644066572189e-04
2.607000000000000000e+03 1.752304077148437500e+01 7.518809318542480469e+00 6.002297232043929398e-05 1.709709613351151347e-05 2.313602089998312294e-05 1.892706131911836565e-05
2.608000000000000000e+03 1.527214241027832031e+01 1.117285156250000000e+01 7.268510671565309167e-05 2.070171467494219542e-04 8.391067240154370666e-05 4.284092210582457483e-05
2.609000000000000000e+03 1.500550937652587891e+01 1.155864715576171875e+01 -9.161960770143195987e-05 2.161866868846118450e-04 3.737012593774124980e-05 -3.560620461939834058e-05
2.610000000000000000e+03 1.457156753540039062e+01 1.125479412078857422e+01 4.894632365903817117e-05 2.255463914480060339e-04 8.234781853388994932e-05 9.531769319437444210e-05
2.611000000000000000e+03 3.241285705566406250e+01 1.726678085327148438e+01 -2.698741294443607330e-02 -1.654650643467903137e-02 -1.306017581373453140e-02 2.657337114214897156e-02
2.612000000000000000e+03 3.154389572143554688e+01 1.858946609497070312e+01 -3.968937695026397705e-02 -2.831917442381381989e-02 -2.040256559848785400e-02 3.458515554666519165e-02
2.613000000000000000e+03 3.877781295776367188e+01 -8.673486709594726562e+00 1.113703370094299316e+00 1.783852458000183105e+00 8.692667484283447266e-01 9.690763950347900391e-01
2.614000000000000000e+03 3.907443618774414062e+01 -9.065951347351074219e+00 1.563432693481445312e+00 1.509903669357299805e+00 9.220008850097656250e-01 1.200191855430603027e+00
2.615000000000000000e+03 2.725729179382324219e+01 2.371976470947265625e+01 -4.950280115008354187e-02 -2.681660652160644531e-02 -2.289582230150699615e-02 2.922906354069709778e-02
2.616000000000000000e+03 2.636911964416503906e+01 2.281681823730468750e+01 -7.057569921016693115e-02 -1.987615786492824554e-02 -2.713555842638015747e-02 3.166234120726585388e-02
2.617000000000000000e+03 1.695004272460937500e+01 2.304319190979003906e+01 -2.004914171993732452e-02 1.499192294431850314e-04 -5.969766527414321899e-03 4.750562366098165512e-03
2.618000000000000000e+03 1.815814590454101562e+01 2.283584785461425781e+01 -2.699495479464530945e-02 6.849649944342672825e-04 -7.892997004091739655e-03 2.795670181512832642e-03
2.619000000000000000e+03 1.741521644592285156e+01 6.289594650268554688e+00 4.404933497426100075e-05 9.733563274494372308e-06 1.613486892892979085e-05 8.002641152415890247e-06
2.620000000000000000e+03 3.465432357788085938e+01 4.255423069000244141e+00 9.835971286520361900e-04 1.304201432503759861e-04 3.342051641084253788e-04 -1.339010341325774789e-04
2.621000000000000000e+03 3.373494720458984375e+01 1.220968532562255859e+01 -4.146134946495294571e-03 -1.763742882758378983e-03 -1.772963325493037701e-03 4.469383973628282547e-03
2.622000000000000000e+03 3.367228698730468750e+01 1.256682109832763672e+01 -4.566299729049205780e-03 -2.637940924614667892e-03 -2.161272102966904640e-03 4.430208355188369751e-03
2.623000000000000000e+03 3.181399536132812500e+01 1.951053428649902344e+01 -5.057352408766746521e-02 -1.892751082777976990e-02 -2.085031010210514069e-02 3.328400850296020508e-02
2.624000000000000000e+03 1.949924278259277344e+01 5.674891948699951172e+00 1.596810034243389964e-05 1.730780604702886194e-05 9.982772098737768829e-06 5.086066721560200676e-06
2.625000000000000000e+03 1.987548828125000000e+01 5.526125431060791016e+00 -6.763024430256336927e-06 -1.056732980941887945e-05 -5.199106453801505268e-06 2.304251722762273857e-07
2.626000000000000000e+03 2.562970352172851562e+01 2.363001632690429688e+01 -5.497536435723304749e-02 -1.890213042497634888e-02 -2.216324955224990845e-02 2.808766625821590424e-02
2.627000000000000000e+03 2.601008224487304688e+01 2.319887351989746094e+01 -6.248592585325241089e-02 -1.914745010435581207e-02 -2.449001185595989227e-02 2.899959683418273926e-02
2.628000000000000000e+03 1.319729614257812500e+01 1.606950378417968750e+01 -3.753773489734157920e-05 3.616719623096287251e-04 9.724027040647342801e-05 4.149267624597996473e-04
2.629000000000000000e+03 1.784968948364257812e+01 2.346849250793457031e+01 -2.489802613854408264e-02 -5.840387893840670586e-04 -7.644619792699813843e-03 6.903780624270439148e-03
2.630000000000000000e+03 1.977462577819824219e+01 2.401500320434570312e+01 -3.443313762545585632e-02 -3.038749797269701958e-03 -1.124156638979911804e-02 1.287361979484558105e-02
2.631000000000000000e+03 3.460214614868164062e+01 1.432894420623779297e+01 -1.544132456183433533e-02 -3.081310715060681105e-04 -4.724836908280849457e-03 1.198378019034862518e-02
2.632000000000000000e+03 3.324514389038085938e+01 1.344987583160400391e+01 -5.350640043616294861e-03 -4.040221218019723892e-03 -2.817258471623063087e-03 7.211773656308650970e-03
2.633000000000000000e+03 3.248691558837890625e+01 1.686440086364746094e+01 -2.249402552843093872e-02 -1.625105924904346466e-02 -1.162352599203586578e-02 2.383841760456562042e-02
2.634000000000000000e+03 3.231706619262695312e+01 1.769713020324707031e+01 -3.052133321762084961e-02 -1.864128187298774719e-02 -1.474878471344709396e-02 2.851449698209762573e-02
2.635000000000000000e+03 1.375869464874267578e+01 1.407638645172119141e+01 2.399762888671830297e-04 5.120795685797929764e-04 2.256167645100504160e-04 2.416040370007976890e-04
2.636000000000000000e+03 3.438244628906250000e+01 7.764907360076904297e+00 -5.141905858181416988e-04 1.351883838651701808e-04 -1.137006620410829782e-04 -6.096185534261167049e-04
2.637000000000000000e+03 3.414173889160156250e+01 8.033338546752929688e+00 6.640428327955305576e-04 1.932029263116419315e-04 2.571737277321517467e-04 -5.868713487870991230e-04
2.638000000000000000e+03 4.106333923339843750e+01 -1.079775810241699219e+01 1.961936473846435547e+00 -2.909065783023834229e-01 5.013089776039123535e-01 2.697683870792388916e-01
2.639000000000000000e+03 4.193939971923828125e+01 -1.091008853912353516e+01 1.546837925910949707e+00 -4.444031119346618652e-01 3.307304382324218750e-01 3.201915919780731201e-01
2.640000000000000000e+03 3.162778472900390625e+01 1.792224693298339844e+01 -3.010749816894531250e-02 -2.980945818126201630e-02 -1.797508634626865387e-02 3.119118884205818176e-02
2.641000000000000000e+03 1.421153163909912109e+01 2.143488883972167969e+01 -8.321896195411682129e-03 1.756552839651703835e-03 -1.969602890312671661e-03 -2.521275309845805168e-04
2.642000000000000000e+03 1.556960201263427734e+01 2.250321960449218750e+01 -1.474253647029399872e-02 1.827803207561373711e-03 -3.874419955536723137e-03 2.069519832730293274e-03
2.643000000000000000e+03 1.901515579223632812e+01 2.328221511840820312e+01 -3.269845247268676758e-02 -9.794696234166622162e-04 -1.010337658226490021e-02 7.990955375134944916e-03
2.644000000000000000e+03 1.849647140502929688e+01 2.312817573547363281e+01 -2.957392111420631409e-02 -4.203018615953624249e-04 -8.998266421258449554e-03 5.482304375618696213e-03
2.645000000000000000e+03 1.449238491058349609e+01 2.108379554748535156e+01 -7.675560656934976578e-03 1.230305642820894718e-03 -1.933576422743499279e-03 -4.110893059987574816e-04
2.646000000000000000e+03 2.173875427246093750e+01 2.371367454528808594e+01 -4.643804207444190979e-02 -8.920351043343544006e-03 -1.660751737654209137e-02 1.583761535584926605e-02
2.647000000000000000e+03 2.254207420349121094e+01 2.371739196777343750e+01 -5.086734145879745483e-02 -1.019302476197481155e-02 -1.831810921430587769e-02 1.768826320767402649e-02
2.648000000000000000e+03 3.181015968322753906e+01 2.098263931274414062e+01 -5.612361431121826172e-02 -9.034050628542900085e-03 -1.954730041325092316e-02 2.384410798549652100e-02
2.649000000000000000e+03 1.631495475769042969e+01 8.262659072875976562e+00 5.842464452143758535e-05 5.024952042731456459e-05 3.260224912082776427e-05 2.404382030363194644e-05
2.650000000000000000e+03 4.358240890502929688e+01 -1.058801555633544922e+01 1.072455406188964844e+00 -6.325137019157409668e-01 1.319825053215026855e-01 6.271601319313049316e-01
2.651000000000000000e+03 4.304098892211914062e+01 -1.101496315002441406e+01 1.195489764213562012e+00 -5.455865859985351562e-01 1.949709653854370117e-01 4.264106154441833496e-01
2.652000000000000000e+03 1.361385440826416016e+01 1.319085502624511719e+01 1.429386902600526810e-04 4.103947139810770750e-04 1.660000270931050181e-04 1.750844967318698764e-04
2.653000000000000000e+03 1.307923316955566406e+01 1.904332351684570312e+01 -1.052317908033728600e-03 2.289180847583338618e-04 -2.470199542585760355e-04 -6.724787526763975620e-04
2.654000000000000000e+03 1.295581245422363281e+01 1.868479347229003906e+01 -9.764496935531497002e-04 -3.457350248936563730e-05 -3.033069660887122154e-04 3.060590825043618679e-05
2.655000000000000000e+03 2.044980621337890625e+01 2.430950927734375000e+01 -3.620235249400138855e-02 -6.069661583751440048e-03 -1.268160436302423477e-02 1.617699302732944489e-02
2.656000000000000000e+03 1.498780250549316406e+01 2.193355560302734375e+01 -1.147571671754121780e-02 1.996210543438792229e-03 -2.843851689249277115e-03 6.972301634959876537e-04
2.657000000000000000e+03 3.841706848144531250e+01 -9.082228660583496094e+00 1.347866773605346680e+00 2.339629650115966797e+00 1.106248855590820312e+00 9.966322183609008789e-01
2.658000000000000000e+03 3.183072280883789062e+01 1.991223335266113281e+01 -5.486610904335975647e-02 -1.434174086898565292e-02 -2.076235599815845490e-02 3.068145364522933960e-02
2.659000000000000000e+03 4.234199142456054688e+01 -1.077037715911865234e+01 1.423158049583435059e+00 -5.215924382209777832e-01 2.704696655273437500e-01 4.249018430709838867e-01
2.660000000000000000e+03 1.900524520874023438e+01 4.804712295532226562e+00 1.397687265125568956e-05 1.396881998516619205e-05 8.383707609027624130e-06 1.126918687077704817e-05
2.661000000000000000e+03 2.936211776733398438e+01 2.159042930603027344e+01 -7.343398779630661011e-02 -4.188017547130584717e-02 -3.459424898028373718e-02 3.202552348375320435e-02
2.662000000000000000e+03 2.291719245910644531e+01 2.369842910766601562e+01 -5.117468535900115967e-02 -1.129220426082611084e-02 -1.874006725847721100e-02 1.848220638930797577e-02
2.663000000000000000e+03 2.238231086730957031e+01 2.416118812561035156e+01 -4.481586068868637085e-02 -1.202784944325685501e-02 -1.705311425030231476e-02 1.940937340259552002e-02
2.664000000000000000e+03 2.957174301147460938e+01 2.106040000915527344e+01 -7.913685590028762817e-02 -4.407459497451782227e-02 -3.696343675255775452e-02 3.668536618351936340e-02
2.665000000000000000e+03 1.372227954864501953e+01 2.066515541076660156e+01 -5.131937563419342041e-03 7.819872116670012474e-04 -1.304985024034976959e-03 -4.720358701888471842e-04
2.666000000000000000e+03 1.465410041809082031e+01 9.621619224548339844e+00 -6.139465403975918889e-05 6.679830403300002217e-05 1.621095748305378947e-06 4.770941450260579586e-05
2.667000000000000000e+03 3.878068923950195312e+01 -1.839528083801269531e+01 3.267287462949752808e-02 1.796562671661376953e+00 5.487706661224365234e-01 1.049252748489379883e-01
2.668000000000000000e+03 4.093611907958984375e+01 -1.052976417541503906e+01 2.058828115463256836e+00 -2.622796893119812012e-01 5.389645695686340332e-01 4.063176512718200684e-01
2.669000000000000000e+03 3.527852249145507812e+01 4.693056583404541016e+00 7.002074271440505981e-04 -2.233679842902347445e-04 1.430518314009532332e-04 8.964780136011540890e-05
2.670000000000000000e+03 3.587523269653320312e+01 4.892713546752929688e+00 4.063510568812489510e-04 9.999693429563194513e-05 1.519044017186388373e-04 -4.501424264162778854e-04
2.671000000000000000e+03 3.067541503906250000e+01 2.142132759094238281e+01 -6.138619780540466309e-02 -2.584924548864364624e-02 -2.617063373327255249e-02 2.460855059325695038e-02
2.672000000000000000e+03 3.017167282104492188e+01 2.147918510437011719e+01 -6.629732996225357056e-02 -3.028832562267780304e-02 -2.897569537162780762e-02 2.590884827077388763e-02
2.673000000000000000e+03 3.811717987060546875e+01 -1.460322380065917969e+01 -8.665180802345275879e-01 3.051066875457763672e+00 6.553646326065063477e-01 -4.414740800857543945e-01
2.674000000000000000e+03 1.695442771911621094e+01 2.370973777770996094e+01 -2.156101167201995850e-02 2.476348890922963619e-04 -6.394012831151485443e-03 7.317356765270233154e-03
2.675000000000000000e+03 3.510309219360351562e+01 3.769692420959472656e+00 8.099094266071915627e-04 -3.943164774682372808e-04 1.246778847416862845e-04 -1.132407487602904439e-05
2.676000000000000000e+03 2.733616256713867188e+01 -2.695758581161499023e+00 -1.772825241088867188e+00 -1.417792141437530518e-01 -5.743813514709472656e-01 -5.268427133560180664e-01
2.677000000000000000e+03 3.902224731445312500e+01 -1.575640583038330078e+01 -4.353746473789215088e-01 1.847489476203918457e+00 4.236344397068023682e-01 -2.269017398357391357e-01
2.678000000000000000e+03 3.911409378051757812e+01 -1.645463371276855469e+01 -3.407916724681854248e-01 1.728535413742065430e+00 4.163231253623962402e-01 -1.242767721414566040e-01
2.679000000000000000e+03 4.580747604370117188e+01 -1.182705402374267578e+01 4.698439240455627441e-01 -3.700286448001861572e-01 2.994458377361297607e-02 6.471176147460937500e-01
2.680000000000000000e+03 1.376967906951904297e+01 1.988016510009765625e+01 -2.943211933597922325e-03 8.597613195888698101e-04 -6.250352016650140285e-04 -9.318133816123008728e-04
2.681000000000000000e+03 3.650434494018554688e+01 -2.988772630691528320e+00 -1.918969035148620605e+00 7.873442173004150391e-01 -3.394874334335327148e-01 5.701060295104980469e-01
2.682000000000000000e+03 1.821793937683105469e+01 4.562172889709472656e+00 3.115330036962404847e-05 2.815038533299230039e-05 1.779110607458278537e-05 1.205662829306675121e-05
2.683000000000000000e+03 1.904264640808105469e+01 3.732866764068603516e+00 1.165926505564129911e-06 1.741542291711084545e-05 5.574404440267244354e-06 -9.738233757161651738e-07
2.684000000000000000e+03 3.504458618164062500e+01 5.680471420288085938e+00 1.623916323296725750e-03 -1.782654726412147284e-04 4.336952697485685349e-04 3.031781525351107121e-04
2.685000000000000000e+03 3.096302795410156250e+01 -2.564383983612060547e+00 -2.356686830520629883e+00 2.901313602924346924e-01 -6.199666261672973633e-01 -2.837712764739990234e-01
2.686000000000000000e+03 3.210678863525390625e+01 -3.815855979919433594e+00 -1.028148055076599121e+00 1.242040395736694336e-01 -2.711832225322723389e-01 -8.852825313806533813e-02
2.687000000000000000e+03 1.972287940979003906e+01 5.131700038909912109e+00 -1.649495516176102683e-06 1.642021743464283645e-05 4.431216893863165751e-06 1.046085003508778755e-06
2.688000000000000000e+03 2.059537506103515625e+01 4.592321872711181641e+00 8.908215022529475391e-06 -1.820654688344802707e-05 -2.789499376376625150e-06 5.836596756125800312e-06
2.689000000000000000e+03 1.580492687225341797e+01 4.134965419769287109e+00 5.755372058047214523e-06 2.480222792655695230e-05 9.167280040855985135e-06 1.163429715234087780e-06
2.690000000000000000e+03 1.642704582214355469e+01 4.070029258728027344e+00 -6.836507964180782437e-06 -6.713361017318675295e-06 -4.064960648975102231e-06 5.578488526225555688e-06
2.691000000000000000e+03 3.764468002319335938e+01 -8.146430015563964844e+00 5.198081135749816895e-01 2.386559009552001953e+00 8.719101548194885254e-01 1.918061673641204834e-01
2.692000000000000000e+03 2.366524696350097656e+01 2.377874183654785156e+01 -5.349752679467201233e-02 -1.287883985787630081e-02 -1.991290971636772156e-02 2.216185256838798523e-02
2.693000000000000000e+03 3.444069671630859375e+01 -3.598256111145019531e+00 -1.456937432289123535e+00 3.336418569087982178e-01 -3.369886577129364014e-01 3.851728737354278564e-01
2.694000000000000000e+03 3.570939254760742188e+01 -3.778653860092163086e+00 -1.493174672126770020e+00 6.784778833389282227e-01 -2.444090396165847778e-01 4.691316187381744385e-01
2.695000000000000000e+03 2.214079666137695312e+01 -3.835369348526000977e+00 -4.992063045501708984e-01 1.735907979309558868e-02 -1.445541679859161377e-01 -6.133458614349365234e-01
2.696000000000000000e+03 2.757374572753906250e+01 -5.258160114288330078e+00 3.722470104694366455e-01 2.430187463760375977e-01 1.845797300338745117e-01 -8.551474809646606445e-01
2.697000000000000000e+03 1.318867683410644531e+01 5.096617221832275391e+00 -1.638878543985811120e-08 1.648928446229547262e-05 4.941869065078208223e-06 3.843647573376074433e-05
2.698000000000000000e+03 1.954941368103027344e+01 3.858342170715332031e+00 -1.828716267482377589e-05 -2.266834781039506197e-05 -1.228665314556565136e-05 -1.277467890758998692e-05
2.699000000000000000e+03 1.376141929626464844e+01 4.381062507629394531e+00 -7.098492005752632394e-06 3.581575356292887591e-06 -1.055075017575290985e-06 2.457779919495806098e-05
2.700000000000000000e+03 1.705039405822753906e+01 4.091632366180419922e+00 2.495795160939451307e-05 2.335794306418392807e-05 1.449476803827565163e-05 2.071290737148956396e-06
2.701000000000000000e+03 4.179439163208007812e+01 -2.113687896728515625e+01 2.007575482130050659e-01 4.574663341045379639e-01 1.974671632051467896e-01 5.063088610768318176e-02
2.702000000000000000e+03 2.609187507629394531e+01 2.405482101440429688e+01 -4.806101322174072266e-02 -1.957544498145580292e-02 -2.029093727469444275e-02 2.666868828237056732e-02
2.703000000000000000e+03 1.006720352172851562e+01 4.447844028472900391e+00 2.174338806071318686e-05 2.200667950091883540e-05 1.312501990469172597e-05 2.717772986216004938e-05
2.704000000000000000e+03 1.516074275970458984e+01 4.227210044860839844e+00 -5.613255325442878529e-06 7.919972517811402213e-07 -1.446377495994966011e-06 2.066868910333141685e-05
2.705000000000000000e+03 1.447670555114746094e+01 4.304996967315673828e+00 2.347445297345984727e-05 1.830515611800365150e-05 1.253388290933798999e-05 6.568493063241476193e-06
2.706000000000000000e+03 7.282275390625000000e+01 -2.070279884338378906e+01 2.853821206372231245e-04 -2.521471469663083553e-04 9.970495739253237844e-06 5.019238233217038214e-05
2.707000000000000000e+03 1.220871734619140625e+01 4.607137203216552734e+00 -3.488630397896486102e-07 -1.202559906232636422e-05 -3.712338639161316678e-06 3.582051431294530630e-05
2.708000000000000000e+03 1.139260768890380859e+01 4.591231346130371094e+00 8.004967094166204333e-05 1.521120339020853862e-05 2.857826257240958512e-05 3.461889718892052770e-05
2.709000000000000000e+03 3.496028137207031250e+01 -9.532462120056152344e+00 2.259464263916015625e+00 7.159743309020996094e-01 8.926315307617187500e-01 -1.837541818618774414e+00
2.710000000000000000e+03 1.203169822692871094e+01 -5.111028671264648438e+00 -7.310268282890319824e-02 -1.337491869926452637e-01 -6.205556169152259827e-02 -2.035440504550933838e-01
2.711000000000000000e+03 1.102344036102294922e+01 -5.116984844207763672e+00 -6.549685448408126831e-02 -1.182963401079177856e-01 -5.513795837759971619e-02 -1.650588661432266235e-01
2.712000000000000000e+03 9.388693809509277344e+00 4.546409130096435547e+00 2.528759796405211091e-05 -5.283075734041631222e-05 -8.262947631010320038e-06 2.310307718289550394e-05
2.713000000000000000e+03 9.513198852539062500e+00 -4.023975849151611328e+00 -7.202982157468795776e-02 -6.664306670427322388e-02 -4.160186648368835449e-02 -1.092457696795463562e-01
2.714000000000000000e+03 3.727703857421875000e+01 -2.789113044738769531e+00 -2.060906887054443359e+00 7.536535263061523438e-01 -3.921760022640228271e-01 7.214542031288146973e-01
2.715000000000000000e+03 3.699532318115234375e+01 -2.164683580398559570e+00 -2.097736358642578125e+00 6.880571842193603516e-01 -4.229037463665008545e-01 6.335979104042053223e-01
2.716000000000000000e+03 4.102056026458740234e+00 -5.944058418273925781e+00 -1.339503470808267593e-02 -4.315237328410148621e-02 -1.696422323584556580e-02 -2.799678407609462738e-02
2.717000000000000000e+03 6.192348957061767578e+00 -5.526260852813720703e+00 -2.661328017711639404e-02 -6.138988584280014038e-02 -2.640094980597496033e-02 -5.356564000248908997e-02
2.718000000000000000e+03 3.269544219970703125e+01 -4.348525047302246094e+00 -5.937550663948059082e-01 1.565342098474502563e-01 -1.311662644147872925e-01 1.651847735047340393e-02
2.719000000000000000e+03 3.383023834228515625e+01 -4.381783485412597656e+00 -7.470924258232116699e-01 2.842619717121124268e-01 -1.388491392135620117e-01 1.594636738300323486e-01
2.720000000000000000e+03 4.899593353271484375e+00 5.516050338745117188e+00 -4.249000994605012238e-05 -5.274265640764497221e-05 -2.856979881471488625e-05 5.139605491422116756e-05
2.721000000000000000e+03 5.881803989410400391e+00 4.639763832092285156e+00 4.335199719207594171e-06 5.228123700362630188e-05 1.698493178992066532e-05 -6.149678665678948164e-05
2.722000000000000000e+03 7.526659965515136719e+00 -4.670179367065429688e+00 -4.438520222902297974e-02 -5.985781922936439514e-02 -3.127290681004524231e-02 -7.410497963428497314e-02
2.723000000000000000e+03 6.450973033905029297e+00 -4.757281303405761719e+00 -3.272934257984161377e-02 -5.060989409685134888e-02 -2.500177174806594849e-02 -5.346020311117172241e-02
2.724000000000000000e+03 8.787251472473144531e+00 -3.895423173904418945e+00 -6.379698961973190308e-02 -5.394386127591133118e-02 -3.532225638628005981e-02 -8.840752393007278442e-02
2.725000000000000000e+03 1.011139774322509766e+01 -4.978798389434814453e+00 -6.247102841734886169e-02 -1.004921644926071167e-01 -4.888895899057388306e-02 -1.380936801433563232e-01
2.726000000000000000e+03 7.787384033203125000e+00 3.910422563552856445e+00 5.103941657580435276e-05 1.690557292022276670e-05 2.038349703070707619e-05 -1.818383134377654642e-05
2.727000000000000000e+03 6.478082656860351562e+00 4.649593353271484375e+00 -5.173788849788252264e-06 -6.167692481540143490e-05 -2.005521309911273420e-05 -1.154953110926726367e-06
2.728000000000000000e+03 4.327824592590332031e+00 5.244084835052490234e+00 1.495657925261184573e-04 1.491427155997371301e-06 4.531716331257484853e-05 -6.581556954188272357e-05
2.729000000000000000e+03 5.036063194274902344e+00 4.159540653228759766e+00 3.245734478696249425e-05 1.221167440235149115e-05 1.340070502919843420e-05 -7.384499622276052833e-05
2.730000000000000000e+03 5.295238971710205078e+00 -5.286696434020996094e+00 -2.163653261959552765e-02 -4.839707538485527039e-02 -2.101008221507072449e-02 -3.954981267452239990e-02
2.731000000000000000e+03 7.176532745361328125e+00 4.686380386352539062e+00 6.206249963724985719e-05 2.136627699655946344e-05 2.502863208064809442e-05 -4.085358159500174224e-05
2.732000000000000000e+03 8.644689559936523438e+00 4.548939704895019531e+00 6.507492798846215010e-05 1.296811115025775507e-05 2.341291110496968031e-05 1.430319116479950026e-06
2.733000000000000000e+03 8.611340522766113281e+00 -4.508030414581298828e+00 -5.390861257910728455e-02 -6.782250106334686279e-02 -3.651933372020721436e-02 -9.317483752965927124e-02
2.734000000000000000e+03 7.920585155487060547e+00 4.590299129486083984e+00 4.469066334422677755e-05 -6.803509313613176346e-05 -7.003329301369376481e-06 9.430899808648973703e-06
2.735000000000000000e+03 1.786213111877441406e+01 -4.955670833587646484e+00 -1.199202761054039001e-01 -1.592825949192047119e-01 -8.376086503267288208e-02 -4.080960452556610107e-01
2.736000000000000000e+03 1.640791893005371094e+01 -3.920996427536010742e+00 -2.239082753658294678e-01 -1.336484998464584351e-01 -1.072670370340347290e-01 -3.369601070880889893e-01
2.737000000000000000e+03 1.855135345458984375e+01 -5.120828628540039062e+00 -9.786966443061828613e-02 -1.621054559946060181e-01 -7.799253612756729126e-02 -4.254050552845001221e-01
2.738000000000000000e+03 9.342000961303710938e+00 -4.696410179138183594e+00 -5.992455407977104187e-02 -8.073534816503524780e-02 -4.219797253608703613e-02 -1.130816563963890076e-01
2.739000000000000000e+03 4.745054626464843750e+01 -1.188488578796386719e+01 1.169313043355941772e-01 -1.793989092111587524e-01 -1.874028146266937256e-02 8.141251206398010254e-01
2.740000000000000000e+03 3.519856643676757812e+01 4.217450141906738281e+00 -8.288785465992987156e-04 -1.459831983083859086e-04 -2.924585132859647274e-04 -2.572218654677271843e-04
2.741000000000000000e+03 3.558238220214843750e+01 3.968306064605712891e+00 2.342420921195298433e-04 4.884307272732257843e-04 2.168018399970605969e-04 -1.602528936928138137e-04
2.742000000000000000e+03 1.434442901611328125e+01 -4.346211433410644531e+00 -1.459251195192337036e-01 -1.353429555892944336e-01 -8.438042551279067993e-02 -2.736305594444274902e-01
2.743000000000000000e+03 1.296539115905761719e+01 -4.947982788085937500e+00 -9.115899354219436646e-02 -1.411447674036026001e-01 -6.969112902879714966e-02 -2.323834002017974854e-01
2.744000000000000000e+03 1.373437881469726562e+01 -4.609964370727539062e+00 -1.176586896181106567e-01 -1.363911330699920654e-01 -7.621494680643081665e-02 -2.579349577426910400e-01
2.745000000000000000e+03 4.578695678710937500e+01 -1.242737293243408203e+01 3.856485784053802490e-01 -2.816559970378875732e-01 3.119777515530586243e-02 5.178320407867431641e-01
2.746000000000000000e+03 7.525991058349609375e+01 -1.239150524139404297e+01 -1.435432434082031250e-01 -4.317666217684745789e-02 -5.601597204804420471e-02 -1.523618400096893311e-01
2.747000000000000000e+03 1.703769874572753906e+01 -4.890054225921630859e+00 -1.281542330980300903e-01 -1.647464931011199951e-01 -8.787021785974502563e-02 -3.740974962711334229e-01
2.748000000000000000e+03 7.313619232177734375e+01 -1.113215446472167969e+01 -3.479384481906890869e-01 5.167004652321338654e-03 -1.028314307332038879e-01 -3.130424916744232178e-01
2.749000000000000000e+03 7.099777221679687500e+01 -1.170229721069335938e+01 -5.722125172615051270e-01 1.217169165611267090e-01 -1.351486742496490479e-01 -2.290853559970855713e-01
2.750000000000000000e+03 7.404376983642578125e+01 -1.161353206634521484e+01 -2.448597252368927002e-01 -1.822728291153907776e-02 -7.892610132694244385e-02 -2.389642298221588135e-01
2.751000000000000000e+03 4.714149093627929688e+01 -1.006148529052734375e+01 3.383204042911529541e-01 -3.503204584121704102e-01 -3.600010415539145470e-03 1.130785226821899414e+00
2.752000000000000000e+03 1.549838733673095703e+01 -4.469767570495605469e+00 -1.525629162788391113e-01 -1.495228707790374756e-01 -9.062573313713073730e-02 -3.168353140354156494e-01
2.753000000000000000e+03 1.621707153320312500e+01 -4.679035663604736328e+00 -1.449206918478012085e-01 -1.558246016502380371e-01 -9.022358804941177368e-02 -3.473091721534729004e-01
2.754000000000000000e+03 2.397364616394042969e+01 -3.578705787658691406e+00 -7.426642775535583496e-01 3.619255870580673218e-02 -2.119415104389190674e-01 -7.863647341728210449e-01
2.755000000000000000e+03 2.491703414916992188e+01 -4.185829162597656250e+00 -4.506215155124664307e-01 -7.198894023895263672e-02 -1.567831337451934814e-01 -9.022389650344848633e-01
2.756000000000000000e+03 7.380390930175781250e+01 -1.096298980712890625e+01 -3.005462884902954102e-01 -2.108836919069290161e-02 -9.649039804935455322e-02 -2.898789942264556885e-01
2.757000000000000000e+03 4.021679687500000000e+01 -1.944643783569335938e+01 2.437830865383148193e-01 9.946432113647460938e-01 3.715278804302215576e-01 8.748877048492431641e-02
2.758000000000000000e+03 3.945122528076171875e+01 -1.832065010070800781e+01 6.179172545671463013e-02 1.461388111114501953e+00 4.569539427757263184e-01 7.975295931100845337e-02
2.759000000000000000e+03 2.309720230102539062e+01 -3.858557701110839844e+00 -5.465562939643859863e-01 3.031638823449611664e-02 -1.548719853162765503e-01 -7.076766490936279297e-01
2.760000000000000000e+03 5.094663143157958984e+00 -6.143752574920654297e+00 -1.866996660828590393e-02 -5.740516260266304016e-02 -2.282253839075565338e-02 -4.103304445743560791e-02
2.761000000000000000e+03 5.218183040618896484e+00 6.654419898986816406e+00 -2.116993891831953079e-05 9.124687494477257133e-06 -3.613575472627417184e-06 -7.572618051199242473e-05
2.762000000000000000e+03 7.027643585205078125e+01 -1.188069152832031250e+01 -6.389812231063842773e-01 1.392954587936401367e-01 -1.499057263135910034e-01 -2.447616159915924072e-01
2.763000000000000000e+03 2.729069137573242188e+01 -6.705224037170410156e+00 1.719121336936950684e+00 2.792022228240966797e-01 5.994970798492431641e-01 -6.108257174491882324e-01
2.764000000000000000e+03 3.801892852783203125e+01 -2.591789722442626953e+00 -2.075767517089843750e+00 7.020860314369201660e-01 -4.121044576168060303e-01 7.051001787185668945e-01
2.765000000000000000e+03 4.326882934570312500e+01 -6.833125591278076172e+00 1.218437589704990387e-02 -8.686789870262145996e-01 -2.569483816623687744e-01 1.249021053314208984e+00
2.766000000000000000e+03 4.466938018798828125e+01 -7.329817771911621094e+00 1.830481141805648804e-01 -8.691880702972412109e-01 -2.058419883251190186e-01 1.221662521362304688e+00
2.767000000000000000e+03 4.574921417236328125e+01 -7.686952114105224609e+00 2.995455563068389893e-01 -7.935091257095336914e-01 -1.481890678405761719e-01 1.290487885475158691e+00
2.768000000000000000e+03 4.599814605712890625e+01 -6.678409576416015625e+00 -1.592028141021728516e-01 -6.871575117111206055e-01 -2.539080977439880371e-01 1.215256452560424805e+00
2.769000000000000000e+03 2.011345100402832031e+01 -4.362859725952148438e+00 -2.536457180976867676e-01 -9.192015975713729858e-02 -1.036697700619697571e-01 -4.969100654125213623e-01
2.770000000000000000e+03 1.948596191406250000e+01 -3.881269693374633789e+00 -3.176115155220031738e-01 -9.485857933759689331e-02 -1.237410232424736023e-01 -4.256540238857269287e-01
2.771000000000000000e+03 6.396371841430664062e+01 -8.667685508728027344e+00 -7.261323928833007812e-01 -3.334775865077972412e-01 -3.178829848766326904e-01 -4.530749917030334473e-01
2.772000000000000000e+03 3.124750709533691406e+01 -6.880127429962158203e+00 2.097115755081176758e+00 7.564417123794555664e-01 8.560672402381896973e-01 -3.116919398307800293e-01
2.773000000000000000e+03 2.905260276794433594e+01 -3.029124259948730469e+00 -1.741716027259826660e+00 2.280768454074859619e-01 -4.540917277336120605e-01 -3.888037502765655518e-01
2.774000000000000000e+03 3.886883163452148438e+01 1.622102737426757812e+01 -3.657903149724006653e-02 1.406747009605169296e-02 -6.753467954695224762e-03 5.562772043049335480e-03
2.775000000000000000e+03 3.873612594604492188e+01 -1.618790054321289062e+01 -4.317075312137603760e-01 1.982525110244750977e+00 4.652452468872070312e-01 -1.081437543034553528e-01
2.776000000000000000e+03 1.682972335815429688e+01 -9.834506034851074219e+00 2.058196067810058594e-01 -2.664706110954284668e-01 -1.819530501961708069e-02 -2.381503283977508545e-01
2.777000000000000000e+03 1.442467880249023438e+01 -1.041865444183349609e+01 1.213164702057838440e-01 -3.297801017761230469e-01 -6.253909319639205933e-02 -1.741330325603485107e-01
2.778000000000000000e+03 2.183328819274902344e+01 -3.142940282821655273e+00 -6.706064343452453613e-01 6.929578632116317749e-02 -1.803932040929794312e-01 -5.106602907180786133e-01
2.779000000000000000e+03 4.216389846801757812e+01 -2.028526496887207031e+01 1.710950285196304321e-01 2.820685505867004395e-01 1.359490752220153809e-01 8.443950861692428589e-02
2.780000000000000000e+03 4.305284118652343750e+01 -2.074608802795410156e+01 1.102537959814071655e-01 4.918199032545089722e-02 4.783073812723159790e-02 1.193923950195312500e-01
2.781000000000000000e+03 3.815312194824218750e+01 -1.793341827392578125e+01 -9.054673463106155396e-02 2.112018346786499023e+00 6.064414381980895996e-01 1.689205914735794067e-01
2.782000000000000000e+03 3.187686920166015625e+01 -6.455029010772705078e+00 1.423597455024719238e+00 3.936610221862792969e-01 5.451775193214416504e-01 -1.587367951869964600e-01
2.783000000000000000e+03 4.943606376647949219e+00 3.226393127441406250e+01 3.413813246879726648e-04 -6.861880421638488770e-03 -1.956149702891707420e-03 4.860129673033952713e-03
2.784000000000000000e+03 3.874683761596679688e+01 -4.166724205017089844e+00 -1.643841266632080078e+00 6.857079863548278809e-01 -2.874400019645690918e-01 7.193368673324584961e-01
2.785000000000000000e+03 5.533775329589843750e+01 -9.869205474853515625e+00 -6.393699645996093750e-01 6.702849864959716797e-01 9.274503216147422791e-03 3.209672868251800537e-01
2.786000000000000000e+03 5.168616867065429688e+01 -9.696610450744628906e+00 -2.961113750934600830e-01 5.961610674858093262e-01 9.001490473747253418e-02 9.841628074645996094e-01
2.787000000000000000e+03 4.091597747802734375e+01 -1.898166847229003906e+01 1.870425939559936523e-01 7.324782609939575195e-01 2.758562564849853516e-01 9.440772235393524170e-02
2.788000000000000000e+03 3.937818288803100586e+00 1.823047637939453125e+01 3.075519998674280941e-05 -1.472255826229229569e-04 -3.494111660984344780e-05 -7.980050577316433191e-05
2.789000000000000000e+03 7.573751831054687500e+01 -2.182723236083984375e+01 1.253249938599765301e-04 1.307581442233640701e-05 4.152024121140129864e-05 -7.003910286584869027e-05
2.790000000000000000e+03 7.467143249511718750e+01 -2.019625473022460938e+01 -1.191769115393981338e-04 -2.391934685874730349e-05 -4.292887751944363117e-05 -2.468419370416086167e-05
2.791000000000000000e+03 5.790030288696289062e+01 -9.839437484741210938e+00 -8.371754288673400879e-01 4.715042710304260254e-01 -1.097013428807258606e-01 7.155420631170272827e-02
2.792000000000000000e+03 6.571166992187500000e+01 6.718602657318115234e+00 5.682051181793212891e-01 1.894497871398925781e+00 7.388108968734741211e-01 3.997567296028137207e-02
2.793000000000000000e+03 5.384891986846923828e+00 1.622211647033691406e+01 -2.890363975893706083e-04 -3.308909945189952850e-04 -1.859782205428928137e-04 -1.949254365172237158e-04
2.794000000000000000e+03 6.950106048583984375e+01 -1.124860382080078125e+01 -8.958771228790283203e-01 1.948137134313583374e-01 -2.103190273046493530e-01 -3.349057734012603760e-01
2.795000000000000000e+03 6.624629211425781250e+01 8.412972450256347656e+00 5.411769151687622070e-01 1.928493618965148926e+00 7.409011721611022949e-01 1.813196111470460892e-03
2.796000000000000000e+03 3.502030563354492188e+01 -8.516775131225585938e+00 1.820019721984863281e+00 8.360468149185180664e-01 7.968199849128723145e-01 -1.339651942253112793e+00
2.797000000000000000e+03 3.414080047607421875e+01 -7.623482227325439453e+00 1.657169103622436523e+00 3.991351723670959473e-01 6.168912649154663086e-01 -8.984092473983764648e-01
2.798000000000000000e+03 2.540640830993652344e+01 -4.509568691253662109e+00 -2.130286097526550293e-01 -1.087294369935989380e-01 -9.652741253376007080e-02 -9.120260477066040039e-01
2.799000000000000000e+03 2.509988212585449219e+01 -5.036256313323974609e+00 2.053865976631641388e-02 -1.066260114312171936e-01 -2.582620456814765930e-02 -8.896478414535522461e-01
2.800000000000000000e+03 1.302029991149902344e+01 -2.230328369140625000e+01 6.095834076404571533e-02 -2.071781903505325317e-01 -4.386595636606216431e-02 -9.988751262426376343e-02
2.801000000000000000e+03 4.362778186798095703e+00 1.561908912658691406e+01 1.749491493683308363e-04 -1.359216257696971297e-04 1.170825726148905233e-05 -1.880646887002512813e-04
2.802000000000000000e+03 2.417019271850585938e+01 -6.300832271575927734e+00 6.355395913124084473e-01 -2.082026153802871704e-01 1.282010972499847412e-01 -6.445542573928833008e-01
2.803000000000000000e+03 2.541039657592773438e+01 -7.145026206970214844e+00 1.267208099365234375e+00 -1.593312025070190430e-01 3.323630690574645996e-01 -4.510947167873382568e-01
2.804000000000000000e+03 1.328087902069091797e+01 -1.197843170166015625e+01 2.245168201625347137e-02 -3.369636237621307373e-01 -9.435358643531799316e-02 -1.049512699246406555e-01
2.805000000000000000e+03 1.418772029876708984e+01 -9.660037994384765625e+00 1.079294160008430481e-01 -3.071217238903045654e-01 -5.975769460201263428e-02 -2.024758458137512207e-01
2.806000000000000000e+03 7.047592163085937500e+01 -2.297395133972167969e+01 -3.643058589659631252e-04 -2.499606052879244089e-04 -1.842799392761662602e-04 -1.140932290581986308e-04
2.807000000000000000e+03 5.279724502563476562e+01 -8.458900451660156250e+00 -9.908121079206466675e-02 1.014835715293884277e+00 2.747263312339782715e-01 8.880403637886047363e-01
2.808000000000000000e+03 5.558808898925781250e+01 -6.804304122924804688e+00 4.200575649738311768e-01 1.039552569389343262e+00 4.378830194473266602e-01 6.233584284782409668e-01
2.809000000000000000e+03 3.945859527587890625e+01 -5.468084335327148438e+00 -9.972892999649047852e-01 5.626344084739685059e-01 -1.303964704275131226e-01 7.978015542030334473e-01
2.810000000000000000e+03 3.941404342651367188e+01 -1.954683113098144531e+01 2.482586354017257690e-01 1.429132819175720215e+00 5.032173991203308105e-01 1.235623210668563843e-01
2.811000000000000000e+03 5.130269527435302734e+00 1.189423561096191406e+01 5.588000567513518035e-05 -1.748623908497393131e-04 -3.569471664377488196e-05 -1.000781121547333896e-04
2.812000000000000000e+03 3.911834239959716797e+00 1.089483451843261719e+01 -3.843773811240680516e-05 -2.776451037789229304e-05 -1.986067582038231194e-05 -9.885559120448306203e-05
2.813000000000000000e+03 4.032836532592773438e+01 1.871481895446777344e+01 -4.501764103770256042e-02 2.337746322154998779e-02 -6.492052692919969559e-03 8.307758718729019165e-03
2.814000000000000000e+03 4.109696197509765625e+01 1.647627830505371094e+01 -4.337266460061073303e-02 1.150756329298019409e-02 -9.559529833495616913e-03 -2.934156218543648720e-03
2.815000000000000000e+03 7.466336822509765625e+01 -8.147923469543457031e+00 -1.903386563062667847e-01 -1.969566196203231812e-01 -1.161885857582092285e-01 -4.694563448429107666e-01
2.816000000000000000e+03 7.578707122802734375e+01 -6.946448802947998047e+00 -9.870325773954391479e-02 -3.573068976402282715e-01 -1.368030458688735962e-01 -4.583690166473388672e-01
2.817000000000000000e+03 7.559742736816406250e+01 6.539450645446777344e+00 1.105507835745811462e-01 -1.277757644653320312e+00 -3.501620590686798096e-01 -3.495579659938812256e-01
2.818000000000000000e+03 7.429751586914062500e+01 3.732363939285278320e+00 1.432737261056900024e-01 -7.831109762191772461e-01 -1.919511705636978149e-01 -5.168487429618835449e-01
2.819000000000000000e+03 4.842152786254882812e+01 -1.194386672973632812e+01 -9.997747093439102173e-02 -1.751578599214553833e-02 -3.524797782301902771e-02 8.381025195121765137e-01
2.820000000000000000e+03 5.419654083251953125e+01 -9.547595977783203125e+00 -4.414318203926086426e-01 8.084698319435119629e-01 1.101114079356193542e-01 5.786623954772949219e-01
2.821000000000000000e+03 4.171173095703125000e+01 -5.621263027191162109e+00 -7.293932437896728516e-01 -6.429675817489624023e-01 -4.117082357406616211e-01 1.108958482742309570e+00
2.822000000000000000e+03 4.245192718505859375e+01 -6.550487995147705078e+00 -1.176674887537956238e-01 -7.451122403144836426e-01 -2.588339149951934814e-01 1.137490272521972656e+00
2.823000000000000000e+03 4.720721244812011719e+00 8.923924446105957031e+00 1.126053175539709628e-04 1.338766014669090509e-05 3.779789403779432178e-05 -1.695163809927180409e-04
2.824000000000000000e+03 5.178323745727539062e+01 -1.083516693115234375e+01 -4.934247136116027832e-01 4.593647122383117676e-01 -1.021800562739372253e-02 8.523032069206237793e-01
2.825000000000000000e+03 6.475129604339599609e+00 -1.241167068481445312e+01 -2.102066576480865479e-02 -1.536757647991180420e-01 -5.240892991423606873e-02 -7.298658043146133423e-02
2.826000000000000000e+03 4.169826126098632812e+01 -6.464296817779541016e+00 -2.415087223052978516e-01 -4.834617972373962402e-01 -2.174911499023437500e-01 1.096580982208251953e+00
2.827000000000000000e+03 3.770934677124023438e+01 6.438243389129638672e+00 -1.351223094388842583e-03 -5.404997500590980053e-04 -5.675168940797448158e-04 5.983219598419964314e-04
2.828000000000000000e+03 1.165725421905517578e+01 -1.259415817260742188e+01 -2.055314183235168457e-02 -2.794919610023498535e-01 -9.001352638006210327e-02 -9.567831456661224365e-02
2.829000000000000000e+03 4.159914398193359375e+01 -2.499884223937988281e+01 1.500142365694046021e-01 5.697340369224548340e-01 2.159244716167449951e-01 -2.402009218931198120e-01
2.830000000000000000e+03 3.973896789550781250e+01 -2.329295158386230469e+01 2.971205115318298340e-01 1.145292520523071289e+00 4.327239096164703369e-01 -1.177145540714263916e-01
2.831000000000000000e+03 6.141141891479492188e+00 2.921729850769042969e+01 -1.634548301808536053e-03 -4.337163642048835754e-03 -1.791513524949550629e-03 5.173799581825733185e-03
2.832000000000000000e+03 1.982563209533691406e+01 -6.117422580718994141e+00 7.774518430233001709e-02 -1.801380962133407593e-01 -3.071787394583225250e-02 -4.470388293266296387e-01
2.833000000000000000e+03 2.139882659912109375e+01 -7.672996044158935547e+00 4.547414779663085938e-01 -2.130107730627059937e-01 7.251921296119689941e-02 -3.203503191471099854e-01
2.834000000000000000e+03 3.739133834838867188e+01 1.257335281372070312e+01 -1.272245030850172043e-02 3.626760095357894897e-03 -2.728706924244761467e-03 2.391922753304243088e-03
2.835000000000000000e+03 6.080421829223632812e+01 9.937180876731872559e-01 7.671511769294738770e-01 1.909492731094360352e+00 8.029931783676147461e-01 8.959224820137023926e-01
2.836000000000000000e+03 3.892898941040039062e+01 1.372281742095947266e+01 -2.486762963235378265e-02 5.956987850368022919e-03 -5.673192441463470459e-03 -3.168486291542649269e-04
2.837000000000000000e+03 3.845163726806640625e+01 1.484570407867431641e+01 -3.069037757813930511e-02 9.031797759234905243e-03 -6.497574038803577423e-03 5.289674270898103714e-03
2.838000000000000000e+03 3.988269805908203125e+01 -2.161214447021484375e+01 3.118884563446044922e-01 1.178452253341674805e+00 4.471022188663482666e-01 1.788680965546518564e-04
2.839000000000000000e+03 7.437794494628906250e+01 -2.703900146484375000e+01 -8.176919654943048954e-04 -3.099868481513112783e-04 -3.383036528248339891e-04 2.862072724383324385e-04
2.840000000000000000e+03 7.404055786132812500e+01 1.474908924102783203e+01 2.207906842231750488e-01 -8.927569985389709473e-01 -2.015898972749710083e-01 6.632502377033233643e-02
2.841000000000000000e+03 7.541213989257812500e+01 -2.092490959167480469e+01 -5.849499939358793199e-05 -1.767832436598837376e-04 -7.058347546262666583e-05 -1.712457160465419292e-04
2.842000000000000000e+03 7.332935333251953125e+01 -2.491382408142089844e+01 -4.681809805333614349e-04 -3.828537010122090578e-04 -2.553104131948202848e-04 -4.537401309789856896e-06
2.843000000000000000e+03 7.568405914306640625e+01 -3.573634028434753418e-01 2.633695676922798157e-02 -8.808755874633789062e-01 -2.563615739345550537e-01 -5.491527318954467773e-01
2.844000000000000000e+03 7.603388214111328125e+01 -2.423234939575195312e+01 5.451699325931258500e-05 -6.289112934609875083e-05 -2.512239916541147977e-06 -4.733915920951403677e-05
2.845000000000000000e+03 7.506977844238281250e+01 -2.422599411010742188e+01 -2.596309641376137733e-04 -2.778654743451625109e-04 -1.612489286344498396e-04 1.947806413227226585e-05
2.846000000000000000e+03 4.934999847412109375e+01 -9.791735649108886719e+00 5.042171850800514221e-02 1.063121110200881958e-01 4.702014848589897156e-02 1.240325212478637695e+00
2.847000000000000000e+03 4.690876770019531250e+01 -8.220455169677734375e+00 3.069166541099548340e-01 -4.943098723888397217e-01 -5.621796846389770508e-02 1.330670714378356934e+00
2.848000000000000000e+03 5.565048694610595703e+00 8.682732582092285156e+00 1.070364814950153232e-04 -1.126733914134092629e-04 -1.691072725407138932e-06 1.976120256586000323e-05
2.849000000000000000e+03 6.261119461059570312e+01 -1.013084316253662109e+01 -1.390840053558349609e+00 -2.360866963863372803e-01 -4.880780279636383057e-01 -2.596342563629150391e-01
2.850000000000000000e+03 3.650875854492187500e+01 5.282893180847167969e+00 -2.495324297342449427e-04 -4.655744996853172779e-04 -2.145320904674008489e-04 6.692536990158259869e-04
2.851000000000000000e+03 6.005531311035156250e+01 -9.496466636657714844e+00 -9.797549247741699219e-01 2.254050225019454956e-01 -2.263049632310867310e-01 -1.146220490336418152e-01
2.852000000000000000e+03 5.927745819091796875e+01 -1.003795528411865234e+01 -1.052426218986511230e+00 2.806006073951721191e-01 -2.315476834774017334e-01 -6.767930835485458374e-02
2.853000000000000000e+03 7.297382354736328125e+01 -2.384606170654296875e+01 -2.071368217002600431e-04 -3.378602923476137221e-05 -7.227685273392125964e-05 6.080943421693518758e-05
2.854000000000000000e+03 7.501056671142578125e+01 -3.384807586669921875e+01 -2.128605701727792621e-04 -1.674306113272905350e-03 -5.661500035785138607e-04 1.766819041222333908e-03
2.855000000000000000e+03 7.548961639404296875e+01 -3.059838867187500000e+01 -7.793558761477470398e-04 -7.991488673724234104e-04 -4.735514230560511351e-04 1.125064445659518242e-03
2.856000000000000000e+03 9.529818534851074219e+00 -2.121587371826171875e+01 1.071998849511146545e-02 -2.401145994663238525e-01 -6.881838291883468628e-02 -1.370066255331039429e-01
2.857000000000000000e+03 1.039864635467529297e+01 -2.006699943542480469e+01 -1.170728448778390884e-02 -2.457901388406753540e-01 -7.724922895431518555e-02 -1.410843580961227417e-01
2.858000000000000000e+03 4.015842437744140625e+00 2.079392433166503906e+01 -2.983584126923233271e-04 -4.033333971165120602e-04 -2.105075400322675705e-04 4.131747991777956486e-04
2.859000000000000000e+03 5.039419651031494141e+00 2.075423049926757812e+01 -1.234153634868562222e-03 -5.519816768355667591e-04 -5.358405760489404202e-04 5.841824458912014961e-04
2.860000000000000000e+03 4.192221832275390625e+01 -2.711074066162109375e+01 1.269793212413787842e-01 5.156268477439880371e-01 1.927818506956100464e-01 -3.177948892116546631e-01
2.861000000000000000e+03 6.645748138427734375e+01 1.151088142395019531e+01 5.241329073905944824e-01 2.200506210327148438e+00 8.173917531967163086e-01 3.499460220336914062e-02
2.862000000000000000e+03 6.711239624023437500e+01 -3.059423637390136719e+01 -7.124259136617183685e-03 1.258481759577989578e-03 -1.759733306244015694e-03 3.223157254979014397e-03
2.863000000000000000e+03 6.948980712890625000e+01 -2.837874984741210938e+01 -3.141497727483510971e-03 3.978195018135011196e-04 -8.231034735217690468e-04 9.821782587096095085e-04
2.864000000000000000e+03 3.985231018066406250e+01 1.342046642303466797e+01 -2.204144746065139771e-02 7.500161882489919662e-03 -4.362385720014572144e-03 -4.093665629625320435e-03
2.865000000000000000e+03 5.835300445556640625e+01 -5.348373413085937500e+00 4.501684010028839111e-01 8.940975069999694824e-01 4.032797813415527344e-01 4.510801732540130615e-01
2.866000000000000000e+03 5.398069381713867188e+01 -7.368317604064941406e+00 3.352093398571014404e-01 1.166256427764892578e+00 4.504397511482238770e-01 7.615591883659362793e-01
2.867000000000000000e+03 2.267939949035644531e+01 -5.420609951019287109e+00 1.009878441691398621e-01 -1.444311887025833130e-01 -1.303300168365240097e-02 -6.576000452041625977e-01
2.868000000000000000e+03 7.461949157714843750e+01 -1.023517990112304688e+01 -2.216693609952926636e-01 -9.080346673727035522e-02 -9.374184906482696533e-02 -3.267622888088226318e-01
2.869000000000000000e+03 5.441983222961425781e+00 1.296088695526123047e+01 1.817355077946558595e-04 -1.973483740584924817e-04 -4.683861334342509508e-06 -2.126852486981078982e-04
2.870000000000000000e+03 7.346800231933593750e+01 2.053304481506347656e+01 1.740507781505584717e-01 -6.174649000167846680e-01 -1.330242455005645752e-01 4.087647199630737305e-01
2.871000000000000000e+03 5.891957759857177734e+00 -2.099283981323242188e+01 -8.631849777884781361e-04 -2.311617881059646606e-01 -6.960749626159667969e-02 -1.135271638631820679e-01
2.872000000000000000e+03 5.802386283874511719e+00 -1.555192089080810547e+01 -2.684197574853897095e-02 -1.711630374193191528e-01 -5.940150469541549683e-02 -8.730635792016983032e-02
2.873000000000000000e+03 5.607494831085205078e+00 -1.418449497222900391e+01 -2.363463677465915680e-02 -1.553389579057693481e-01 -5.369208008050918579e-02 -7.478998601436614990e-02
2.874000000000000000e+03 4.475271606445312500e+01 2.246603775024414062e+01 -1.088307544705457985e-04 2.998692356050014496e-02 8.963428437709808350e-03 -9.643632918596267700e-03
2.875000000000000000e+03 7.423708343505859375e+01 9.197928428649902344e+00 1.864974945783615112e-01 -9.104138612747192383e-01 -2.171749025583267212e-01 -2.603341639041900635e-01
2.876000000000000000e+03 7.440589141845703125e+01 5.111121177673339844e+00 1.545036435127258301e-01 -8.558294773101806641e-01 -2.103977501392364502e-01 -4.570292532444000244e-01
2.877000000000000000e+03 4.648774147033691406e+00 -2.892877006530761719e+01 1.733516342937946320e-02 -3.199906051158905029e-01 -9.079663455486297607e-02 -6.065190583467483521e-02
2.878000000000000000e+03 6.074536132812500000e+01 -3.637418746948242188e+00 5.480439066886901855e-01 8.400565981864929199e-01 4.164301455020904541e-01 3.220236599445343018e-01
2.879000000000000000e+03 5.699808120727539062e+01 -9.302706718444824219e+00 -6.034379601478576660e-01 6.287732124328613281e-01 7.600571028888225555e-03 1.713030785322189331e-01
2.880000000000000000e+03 1.850786399841308594e+01 -8.705979347229003906e+00 2.681207358837127686e-01 -1.998365372419357300e-01 2.048525772988796234e-02 -2.802968621253967285e-01
2.881000000000000000e+03 5.150188064575195312e+01 -8.449207305908203125e+00 6.772264093160629272e-02 7.902208566665649414e-01 2.573830485343933105e-01 1.188411951065063477e+00
2.882000000000000000e+03 5.049909973144531250e+01 -9.762978553771972656e+00 -1.481138467788696289e-01 4.401201605796813965e-01 8.760189265012741089e-02 1.167901635169982910e+00
2.883000000000000000e+03 7.608398437500000000e+01 2.896008110046386719e+01 -4.698191583156585693e-02 -9.411140680313110352e-01 -2.964287996292114258e-01 3.512957692146301270e-01
2.884000000000000000e+03 6.813971710205078125e+01 1.848054885864257812e+01 5.806849598884582520e-01 1.136080741882324219e+00 5.150297284126281738e-01 2.344215810298919678e-01
2.885000000000000000e+03 1.645294189453125000e+01 -3.065437316894531250e+01 8.132865279912948608e-02 -1.892946846783161163e-02 1.871975697576999664e-02 -4.369678348302841187e-02
2.886000000000000000e+03 1.649294471740722656e+01 -9.092285156250000000e+00 1.657874286174774170e-01 -2.639879882335662842e-01 -2.946017123758792877e-02 -2.780646979808807373e-01
2.887000000000000000e+03 1.002058124542236328e+01 -1.605658912658691406e+01 -6.755225360393524170e-02 -2.337954193353652954e-01 -9.040430188179016113e-02 -1.149170249700546265e-01
2.888000000000000000e+03 1.152346324920654297e+01 -1.693847846984863281e+01 -7.495471835136413574e-02 -2.738734483718872070e-01 -1.046484559774398804e-01 -1.239392831921577454e-01
2.889000000000000000e+03 7.423546600341796875e+01 1.060809993743896484e+01 2.180665433406829834e-01 -9.124649763107299805e-01 -2.083195298910140991e-01 -1.847484260797500610e-01
2.890000000000000000e+03 7.074314117431640625e+00 -1.694694137573242188e+01 -3.377456963062286377e-02 -1.934235095977783203e-01 -6.815942376852035522e-02 -1.080948635935783386e-01
2.891000000000000000e+03 7.427291870117187500e+01 7.820205211639404297e+00 1.794323772192001343e-01 -9.036800265312194824e-01 -2.172743082046508789e-01 -3.349736034870147705e-01
2.892000000000000000e+03 7.026631355285644531e+00 -1.519074726104736328e+01 -3.565479069948196411e-02 -1.806157380342483521e-01 -6.488116085529327393e-02 -9.381737560033798218e-02
2.893000000000000000e+03 2.141487312316894531e+01 -3.278484344482421875e+01 1.203038468956947327e-01 8.687176555395126343e-02 6.215268373489379883e-02 -1.412431243807077408e-02
2.894000000000000000e+03 2.403449821472167969e+01 -3.242823410034179688e+01 1.800671070814132690e-01 9.501895308494567871e-02 8.252581954002380371e-02 2.169443294405937195e-02
2.895000000000000000e+03 7.559113311767578125e+01 3.754406690597534180e+00 9.304494410753250122e-02 -1.138038754463195801e+00 -3.134981393814086914e-01 -4.607320129871368408e-01
2.896000000000000000e+03 7.389087677001953125e+01 -3.509775924682617188e+01 -3.366631863173097372e-04 -2.370239468291401863e-03 -8.120708516798913479e-04 2.520313719287514687e-03
2.897000000000000000e+03 4.811596870422363281e+00 3.600863647460937500e+01 1.822715392336249352e-03 -9.813111275434494019e-03 -2.397118834778666496e-03 3.843508427962660789e-03
2.898000000000000000e+03 6.608892822265625000e+01 -3.387432479858398438e+01 -4.740774165838956833e-03 -1.538239768706262112e-03 -1.883704098872840405e-03 8.930619806051254272e-03
2.899000000000000000e+03 4.353364944458007812e+00 -1.440268039703369141e+01 -1.592817902565002441e-02 -1.409474909305572510e-01 -4.706270247697830200e-02 -6.373032927513122559e-02
2.900000000000000000e+03 5.618856430053710938e+01 2.698079872131347656e+01 1.972860246896743774e-01 6.147603988647460938e-01 2.436139285564422607e-01 -5.523719191551208496e-01
2.901000000000000000e+03 7.011972808837890625e+01 -3.290134429931640625e+01 -1.578873139806091785e-03 -1.862276112660765648e-03 -1.032344764098525047e-03 3.951062913984060287e-03
2.902000000000000000e+03 6.794305324554443359e+00 -2.173185920715332031e+01 8.117171935737133026e-03 -2.401568144559860229e-01 -6.961189210414886475e-02 -1.229635477066040039e-01
2.903000000000000000e+03 4.357126617431640625e+01 -2.774686622619628906e+01 8.092753589153289795e-02 1.920576095581054688e-01 8.189554512500762939e-02 -2.414850592613220215e-01
2.904000000000000000e+03 7.345857238769531250e+01 2.617547416687011719e+01 -4.104778915643692017e-02 -4.766771495342254639e-01 -1.553174704313278198e-01 4.817829728126525879e-01
2.905000000000000000e+03 6.689337158203125000e+01 2.052834892272949219e+01 5.284689068794250488e-01 1.520153760910034180e+00 6.145868301391601562e-01 2.840530872344970703e-01
2.906000000000000000e+03 6.478363800048828125e+01 2.391842842102050781e+01 1.381304562091827393e-01 1.797606825828552246e+00 5.807211399078369141e-01 1.603782773017883301e-01
2.907000000000000000e+03 6.018754196166992188e+01 -4.707204341888427734e+00 4.298197925090789795e-01 7.481652498245239258e-01 3.533955216407775879e-01 2.875867784023284912e-01
2.908000000000000000e+03 5.143393993377685547e+00 -3.284434127807617188e+01 2.282094582915306091e-02 -3.287824690341949463e-01 -9.178845584392547607e-02 -4.044649749994277954e-02
2.909000000000000000e+03 7.559336853027343750e+01 -2.819922828674316406e+01 -7.290262146852910519e-04 -4.307665803935378790e-04 -3.479378356132656336e-04 4.908814444206655025e-04
2.910000000000000000e+03 7.415970611572265625e+01 -2.948018646240234375e+01 -1.064622425474226475e-03 -7.251510978676378727e-04 -5.369320278987288475e-04 9.869077475741505623e-04
2.911000000000000000e+03 4.107722473144531250e+01 1.917438125610351562e+01 -4.271595180034637451e-02 2.913970127701759338e-02 -4.072875715792179108e-03 1.488264068029820919e-03
2.912000000000000000e+03 7.315824890136718750e+01 -5.044621229171752930e-01 7.019820064306259155e-02 -4.347780942916870117e-01 -1.093739718198776245e-01 -6.850469112396240234e-01
2.913000000000000000e+03 1.111285781860351562e+01 -2.525095748901367188e+01 6.902921944856643677e-02 -2.089068591594696045e-01 -4.196329414844512939e-02 -9.237601608037948608e-02
2.914000000000000000e+03 1.245629501342773438e+01 -2.522171020507812500e+01 8.136995881795883179e-02 -1.729496419429779053e-01 -2.747390419244766235e-02 -7.797789573669433594e-02
2.915000000000000000e+03 6.732684326171875000e+01 1.428701400756835938e+01 6.084240078926086426e-01 1.839452028274536133e+00 7.343627810478210449e-01 -8.331384509801864624e-02
2.916000000000000000e+03 6.610882568359375000e+01 1.423898792266845703e+01 5.152194499969482422e-01 2.446805953979492188e+00 8.886076211929321289e-01 -5.951245501637458801e-02
2.917000000000000000e+03 2.850042152404785156e+01 -2.518748283386230469e+00 -2.156190872192382812e+00 4.712841659784317017e-02 -6.327187418937683105e-01 -3.541935384273529053e-01
2.918000000000000000e+03 2.896790695190429688e+01 -5.302164554595947266e+00 2.666966319084167480e-01 5.465247631072998047e-01 2.439664155244827271e-01 -5.700217485427856445e-01
2.919000000000000000e+03 2.979191589355468750e+01 -3.030609369277954102e+00 -1.834434032440185547e+00 2.792417109012603760e-01 -4.665577113628387451e-01 -2.900627851486206055e-01
2.920000000000000000e+03 2.783623313903808594e+01 -2.755735397338867188e+00 -1.799519896507263184e+00 -5.900196358561515808e-02 -5.575565695762634277e-01 -4.694331586360931396e-01
2.921000000000000000e+03 2.751372909545898438e+01 -2.548554897308349609e+00 -1.939674139022827148e+00 -1.651142835617065430e-01 -6.314365267753601074e-01 -4.533858895301818848e-01
2.922000000000000000e+03 3.030976867675781250e+01 -2.593726634979248047e+00 -2.300142288208007812e+00 2.947075068950653076e-01 -6.016304492950439453e-01 -2.263397276401519775e-01
2.923000000000000000e+03 4.057100296020507812e+01 -1.033495235443115234e+01 2.183239936828613281e+00 -1.440716385841369629e-01 6.117504835128784180e-01 5.644432902336120605e-01
2.924000000000000000e+03 4.180700302124023438e+01 -1.058596229553222656e+01 1.619181871414184570e+00 -4.582336544990539551e-01 3.482844531536102295e-01 4.375503063201904297e-01
2.925000000000000000e+03 4.133483505249023438e+01 -1.054565048217773438e+01 1.820887923240661621e+00 -3.729792833328247070e-01 4.343726038932800293e-01 4.235461354255676270e-01
2.926000000000000000e+03 3.865403747558593750e+01 -1.548160362243652344e+01 -5.887401103973388672e-01 2.203608036041259766e+00 4.844603538513183594e-01 -2.659277915954589844e-01
2.927000000000000000e+03 1.477584362030029297e+01 1.023494720458984375e+01 -7.911672582849860191e-05 1.101285524782724679e-04 9.303549632022622973e-06 2.697231502679642290e-05
2.928000000000000000e+03 1.352157402038574219e+01 1.949455451965332031e+01 -2.394029172137379646e-03 7.297590491361916065e-04 -4.992810427211225033e-04 -6.376395467668771744e-04
2.929000000000000000e+03 1.680651092529296875e+01 5.867599487304687500e+00 4.032576907775364816e-05 -6.576675332325976342e-06 1.012472876027459279e-05 6.353459411911899224e-06
2.930000000000000000e+03 1.739340209960937500e+01 6.661992073059082031e+00 -5.916280497331172228e-05 4.898646238871151581e-06 -1.627924757485743612e-05 -3.446432629061746411e-06
2.931000000000000000e+03 3.148647880554199219e+01 -2.809035539627075195e+00 -2.129793405532836914e+00 2.089727967977523804e-01 -5.762461423873901367e-01 -2.243438810110092163e-01
2.932000000000000000e+03 3.049538040161132812e+01 -2.977578878402709961e+00 -1.905548453330993652e+00 3.236409425735473633e-01 -4.745722711086273193e-01 -2.697691917419433594e-01
2.933000000000000000e+03 1.728607368469238281e+01 7.002402782440185547e+00 6.519570888485759497e-05 1.429771145922131836e-05 2.384802610322367400e-05 5.261090336716733873e-06
2.934000000000000000e+03 1.561087131500244141e+01 8.877932548522949219e+00 -9.603853686712682247e-05 7.184434070950374007e-05 -7.258259756781626493e-06 1.149921354226535186e-05
2.935000000000000000e+03 1.925748443603515625e+01 2.409367942810058594e+01 -3.094756044447422028e-02 -2.757720882073044777e-03 -1.011158432811498642e-02 1.198819931596517563e-02
2.936000000000000000e+03 1.330368423461914062e+01 1.641371154785156250e+01 2.494563232176005840e-04 5.200192099437117577e-04 2.308426628587767482e-04 3.172156575601547956e-04
2.937000000000000000e+03 4.076171112060546875e+01 -1.100311279296875000e+01 2.076457977294921875e+00 -2.271577417850494385e-01 5.547900795936584473e-01 1.498900800943374634e-01
2.938000000000000000e+03 3.382266616821289062e+01 1.181605243682861328e+01 -3.418445121496915817e-03 -1.109614619053900242e-03 -1.358417910523712635e-03 2.269728574901819229e-03
2.939000000000000000e+03 1.280144309997558594e+01 1.724403572082519531e+01 -1.078448040061630309e-04 -6.681626109639182687e-05 -5.239831807557493448e-05 3.896812850143760443e-04
2.940000000000000000e+03 1.255601787567138672e+01 1.688797187805175781e+01 -1.355023559881374240e-04 1.302798773394897580e-04 -1.566743321745889261e-06 1.969118311535567045e-04
2.941000000000000000e+03 3.290388107299804688e+01 1.658029556274414062e+01 -2.091902680695056915e-02 -1.216022111475467682e-02 -9.923774749040603638e-03 2.208521403372287750e-02
2.942000000000000000e+03 3.390070343017578125e+01 1.095967769622802734e+01 -1.962770009413361549e-03 -2.737982504186220467e-05 -5.970449419692158699e-04 1.056729466654360294e-03
2.943000000000000000e+03 1.858593368530273438e+01 4.996108531951904297e+00 -2.390590998402331024e-05 -1.174559292849153280e-05 -1.069545123755233362e-05 -1.038412574416724965e-05
2.944000000000000000e+03 1.797295570373535156e+01 5.925245761871337891e+00 4.406654261401854455e-05 -2.886730044338037260e-06 1.235394393006572500e-05 1.367047661915421486e-05
2.945000000000000000e+03 3.282566833496093750e+01 1.507939910888671875e+01 -1.133569423109292984e-02 -1.110143866389989853e-02 -6.731139961630105972e-03 1.412476319819688797e-02
2.946000000000000000e+03 3.315726852416992188e+01 1.613255882263183594e+01 -1.869259588420391083e-02 -9.282797574996948242e-03 -8.392618037760257721e-03 1.976762153208255768e-02
2.947000000000000000e+03 1.294533729553222656e+01 1.659535980224609375e+01 9.777594823390245438e-05 1.458723709220066667e-04 7.309449574677273631e-05 4.293873207643628120e-04
2.948000000000000000e+03 1.510847282409667969e+01 8.980419158935546875e+00 -6.051799937267787755e-05 5.983533992548473179e-05 -2.047976579433452571e-07 2.503875111870002002e-05
2.949000000000000000e+03 1.522796440124511719e+01 9.513463973999023438e+00 -7.796663703629747033e-05 6.304072303464636207e-05 -4.477775291888974607e-06 1.203984083986142650e-05
2.950000000000000000e+03 1.542928123474121094e+01 9.181330680847167969e+00 6.076656063669361174e-05 9.108844096772372723e-05 4.555650230031460524e-05 1.516519296274054796e-05
2.951000000000000000e+03 3.455152893066406250e+01 1.003790473937988281e+01 -6.663353997282683849e-04 -8.476205985061824322e-04 -4.541867820080369711e-04 3.375628730282187462e-04
2.952000000000000000e+03 3.383774948120117188e+01 1.337925148010253906e+01 -8.074100129306316376e-03 -3.350959625095129013e-03 -3.427518066018819809e-03 7.656615693122148514e-03
2.953000000000000000e+03 1.334993171691894531e+01 1.418798923492431641e+01 5.537910692510195076e-05 3.334976499900221825e-04 1.166630318039096892e-04 3.428837808314710855e-04
2.954000000000000000e+03 1.280504131317138672e+01 1.283358383178710938e+01 1.439418410882353783e-04 1.942224043887108564e-04 1.014492736430838704e-04 2.135139220627024770e-04
2.955000000000000000e+03 3.516917419433593750e+01 9.434232711791992188e+00 -3.618953051045536995e-04 -1.020773779600858688e-03 -4.148007137700915337e-04 1.153219855041243136e-04
2.956000000000000000e+03 3.398815917968750000e+01 1.009181022644042969e+01 -1.056377310305833817e-03 2.407738938927650452e-04 -2.446810249239206314e-04 4.411014670040458441e-04
2.957000000000000000e+03 3.317306518554687500e+01 1.484212779998779297e+01 -1.114875357598066330e-02 -6.793344393372535706e-03 -5.382629577070474625e-03 1.278476044535636902e-02
2.958000000000000000e+03 1.310332012176513672e+01 1.569009876251220703e+01 2.347513363929465413e-04 3.967557568103075027e-04 1.894521265057846904e-04 3.676957567222416401e-04
2.959000000000000000e+03 1.353881740570068359e+01 1.555601692199707031e+01 2.012735239986795932e-05 4.980608937330543995e-04 1.554564805701375008e-04 3.806298773270100355e-04
2.960000000000000000e+03 3.327078247070312500e+01 1.652817726135253906e+01 -2.526235207915306091e-02 -6.437222473323345184e-03 -9.509872645139694214e-03 2.188806049525737762e-02
2.961000000000000000e+03 1.487693691253662109e+01 1.088381195068359375e+01 -8.440000237897038460e-05 1.568144507473334670e-04 2.172433414671104401e-05 -9.929004590958356857e-06
2.962000000000000000e+03 1.926397323608398438e+01 5.257694244384765625e+00 -1.060440445144195110e-05 -1.325456196354934946e-05 -7.157689651648979634e-06 -1.124139203056984115e-06
2.963000000000000000e+03 3.373817825317382812e+01 1.294905376434326172e+01 -5.699357017874717712e-03 -2.440182492136955261e-03 -2.441861899569630623e-03 6.391275208443403244e-03
2.964000000000000000e+03 3.353532409667968750e+01 1.436218547821044922e+01 -1.128344982862472534e-02 -4.600243177264928818e-03 -4.765108227729797363e-03 1.145024131983518600e-02
2.965000000000000000e+03 3.581341552734375000e+01 6.817695140838623047e+00 1.703436835668981075e-03 -5.641797324642539024e-04 3.417771076783537865e-04 -2.381186204729601741e-04
2.966000000000000000e+03 2.085742187500000000e+01 2.408241462707519531e+01 -3.814506530761718750e-02 -6.971927359700202942e-03 -1.353509724140167236e-02 1.553222443908452988e-02
2.967000000000000000e+03 1.867778015136718750e+01 4.313165664672851562e+00 -8.108622751024086028e-06 -1.058588622981915250e-05 -5.608352694252971560e-06 -1.693661033641546965e-05
2.968000000000000000e+03 2.312078666687011719e+01 2.411859512329101562e+01 -4.696362465620040894e-02 -1.300283987075090408e-02 -1.798993907868862152e-02 2.069289237260818481e-02
2.969000000000000000e+03 1.802036094665527344e+01 5.514461040496826172e+00 -3.773735079448670149e-05 -6.274603492784081027e-06 -1.320358569500967860e-05 -2.265569492010399699e-05
2.970000000000000000e+03 2.677887725830078125e+01 2.332695770263671875e+01 -5.733249709010124207e-02 -2.343657054007053375e-02 -2.423072047531604767e-02 2.994998544454574585e-02
2.971000000000000000e+03 2.659653282165527344e+01 2.419450950622558594e+01 -4.324478656053543091e-02 -2.478531748056411743e-02 -2.040903083980083466e-02 2.744286693632602692e-02
2.972000000000000000e+03 1.316624736785888672e+01 1.378913307189941406e+01 1.390571123920381069e-04 3.835514944512397051e-04 1.567825820529833436e-04 2.409443986834958196e-04
2.973000000000000000e+03 3.293061065673828125e+01 1.735624122619628906e+01 -2.951171807944774628e-02 -1.026014052331447601e-02 -1.193155813962221146e-02 2.611180953681468964e-02
2.974000000000000000e+03 3.439880752563476562e+01 1.330748271942138672e+01 -9.313819929957389832e-03 -1.287588267587125301e-03 -3.180422354489564896e-03 8.183108642697334290e-03
2.975000000000000000e+03 3.412390899658203125e+01 1.243695640563964844e+01 -4.354225471615791321e-03 -1.527064014226198196e-03 -1.764386892318725586e-03 5.075924098491668701e-03
2.976000000000000000e+03 3.395737838745117188e+01 1.385249137878417969e+01 -1.036952808499336243e-02 -2.588140079751610756e-03 -3.887300379574298859e-03 9.974931366741657257e-03
2.977000000000000000e+03 1.610491561889648438e+01 8.622540473937988281e+00 -8.507548045599833131e-05 3.156195089104585350e-05 -1.605406032467726618e-05 -1.887738653749693185e-05
2.978000000000000000e+03 3.504031372070312500e+01 7.888159751892089844e+00 -5.490340408869087696e-04 -8.064023568294942379e-04 -4.066309193149209023e-04 -6.859751301817595959e-04
2.979000000000000000e+03 1.644307327270507812e+01 2.291714668273925781e+01 -1.874895021319389343e-02 1.332049258053302765e-03 -5.225070286542177200e-03 3.359850030392408371e-03
2.980000000000000000e+03 3.201822662353515625e+01 1.862585449218750000e+01 -4.018012061715126038e-02 -2.022315748035907745e-02 -1.812098361551761627e-02 3.259865194559097290e-02
2.981000000000000000e+03 3.215978240966796875e+01 1.814600181579589844e+01 -3.577561303973197937e-02 -1.860818825662136078e-02 -1.631513983011245728e-02 3.054148331284523010e-02
2.982000000000000000e+03 3.576548385620117188e+01 8.195977210998535156e+00 -6.890678778290748596e-04 -1.067700446583330631e-03 -5.270304973237216473e-04 -3.110210236627608538e-04
2.983000000000000000e+03 1.931998062133789062e+01 2.349623298645019531e+01 -3.305333107709884644e-02 -1.118466607294976711e-03 -1.025153882801532745e-02 8.649569936096668243e-03
2.984000000000000000e+03 1.382170200347900391e+01 2.120318984985351562e+01 -7.138105109333992004e-03 1.099535729736089706e-03 -1.811570720747113228e-03 7.832214032532647252e-05
2.985000000000000000e+03 1.263907718658447266e+01 1.400049114227294922e+01 6.093161209719255567e-05 5.583273377851583064e-05 3.502930485410615802e-05 4.066729452461004257e-04
2.986000000000000000e+03 2.671388053894042969e+01 -3.440123081207275391e+00 -1.009380221366882324e+00 -8.162425458431243896e-02 -3.273013532161712646e-01 -7.858411073684692383e-01
2.987000000000000000e+03 2.122625160217285156e+01 2.409281921386718750e+01 -4.009050875902175903e-02 -7.707157172262668610e-03 -1.433929987251758575e-02 1.658195443451404572e-02
2.988000000000000000e+03 1.459790325164794922e+01 2.231069374084472656e+01 -1.173594500869512558e-02 1.397929270751774311e-03 -3.101404756307601929e-03 2.034378005191683769e-03
2.989000000000000000e+03 1.273603248596191406e+01 1.623002624511718750e+01 1.380787289235740900e-04 2.571345830801874399e-04 1.185639921459369361e-04 2.851918688975274563e-04
2.990000000000000000e+03 2.163108062744140625e+01 2.428334617614746094e+01 -4.059835523366928101e-02 -1.035083737224340439e-02 -1.528475712984800339e-02 1.834255084395408630e-02
2.991000000000000000e+03 4.442244720458984375e+01 -1.058581542968750000e+01 8.804854154586791992e-01 -6.224847435951232910e-01 7.740021497011184692e-02 7.240554690361022949e-01
2.992000000000000000e+03 1.351466083526611328e+01 2.152280807495117188e+01 -7.620152086019515991e-03 1.484202221035957336e-03 -1.840784912928938866e-03 1.499832142144441605e-04
2.993000000000000000e+03 1.342079448699951172e+01 2.096605873107910156e+01 -5.920029245316982269e-03 1.165286288596689701e-03 -1.426422968506813049e-03 -5.170031799934804440e-04
2.994000000000000000e+03 1.441442012786865234e+01 9.955368995666503906e+00 3.317392474855296314e-05 1.531524612801149487e-04 5.589791544480249286e-05 6.134469731478020549e-05
2.995000000000000000e+03 3.117853736877441406e+01 2.141450119018554688e+01 -6.045060977339744568e-02 -1.758450828492641449e-02 -2.341053634881973267e-02 2.266943268477916718e-02
2.996000000000000000e+03 1.384149265289306641e+01 1.121452236175537109e+01 4.714417445939034224e-05 1.476847828598693013e-04 5.844868428539484739e-05 1.553154288558289409e-04
2.997000000000000000e+03 1.418796348571777344e+01 1.091131305694580078e+01 -6.822484283475205302e-05 1.802566839614883065e-04 3.360955088282935321e-05 5.362344018067233264e-05
2.998000000000000000e+03 2.071078681945800781e+01 2.481341552734375000e+01 -3.144977241754531860e-02 -7.868684828281402588e-03 -1.179553661495447159e-02 1.782113499939441681e-02
2.999000000000000000e+03 3.269644927978515625e+01 -4.957991123199462891e+00 -6.989976018667221069e-02 2.992873191833496094e-01 6.881626695394515991e-02 2.884158166125416756e-03
3.000000000000000000e+03 1.597566032409667969e+01 2.269553375244140625e+01 -1.607477106153964996e-02 8.446829742752015591e-04 -4.569026641547679901e-03 3.228727728128433228e-03
3.001000000000000000e+03 1.455650138854980469e+01 2.299041748046875000e+01 -1.283917576074600220e-02 1.240200595930218697e-03 -3.479692619293928146e-03 3.724191803485155106e-03
3.002000000000000000e+03 2.280953216552734375e+01 2.454178428649902344e+01 -4.002742841839790344e-02 -1.253402419388294220e-02 -1.576843671500682831e-02 1.980283483862876892e-02
3.003000000000000000e+03 2.206834220886230469e+01 2.460367965698242188e+01 -3.781366348266601562e-02 -1.105071976780891418e-02 -1.465931441634893417e-02 1.932613179087638855e-02
3.004000000000000000e+03 3.192171287536621094e+01 1.909682655334472656e+01 -4.728640988469123840e-02 -1.822855509817600250e-02 -1.965449005365371704e-02 3.330393508076667786e-02
3.005000000000000000e+03 3.339894866943359375e+01 1.992412757873535156e+01 -4.868993535637855530e-02 4.614146426320075989e-03 -1.322273630648851395e-02 2.450910583138465881e-02
3.006000000000000000e+03 3.750820159912109375e+01 -1.645392990112304688e+01 -5.393267869949340820e-01 2.764985084533691406e+00 6.676974892616271973e-01 2.442574650049209595e-01
3.007000000000000000e+03 2.870705795288085938e+01 2.198713493347167969e+01 -7.052877545356750488e-02 -3.842779248952865601e-02 -3.268697112798690796e-02 3.398902714252471924e-02
3.008000000000000000e+03 3.220367813110351562e+01 1.968543815612792969e+01 -5.116728320717811584e-02 -9.673732332885265350e-03 -1.825230568647384644e-02 2.929290197789669037e-02
3.009000000000000000e+03 3.043315315246582031e+01 -5.036523342132568359e+00 1.286612264811992645e-02 5.441296696662902832e-01 1.670987457036972046e-01 -2.994601428508758545e-01
3.010000000000000000e+03 3.291743087768554688e+01 1.784202957153320312e+01 -3.506557270884513855e-02 -8.893870748579502106e-03 -1.318783313035964966e-02 2.812786772847175598e-02
3.011000000000000000e+03 3.236848831176757812e+01 1.924024391174316406e+01 -4.673456400632858276e-02 -1.170552335679531097e-02 -1.753202639520168304e-02 3.044539131224155426e-02
3.012000000000000000e+03 1.317897224426269531e+01 1.216158866882324219e+01 8.000628440640866756e-05 2.128861233359202743e-04 8.786772377789020538e-05 1.438265026081353426e-04
3.013000000000000000e+03 1.376006031036376953e+01 1.194634246826171875e+01 -2.149536703655030578e-05 2.151203952962532640e-04 5.808750938740558922e-05 1.953026221599429846e-04
3.014000000000000000e+03 3.821975708007812500e+01 -1.696396446228027344e+01 -3.349162042140960693e-01 2.246295452117919922e+00 5.734137892723083496e-01 1.072215214371681213e-01
3.015000000000000000e+03 2.972208786010742188e+01 2.151713752746582031e+01 -6.887072324752807617e-02 -3.926741704344749451e-02 -3.244144096970558167e-02 2.872966229915618896e-02
3.016000000000000000e+03 1.526812744140625000e+01 2.360219955444335938e+01 -1.599883660674095154e-02 1.101451343856751919e-03 -4.469215869903564453e-03 5.994019098579883575e-03
3.017000000000000000e+03 4.542609786987304688e+01 -1.132074928283691406e+01 5.973971486091613770e-01 -4.596332609653472900e-01 4.132917150855064392e-02 6.939296126365661621e-01
3.018000000000000000e+03 4.537613677978515625e+01 -8.573493003845214844e+00 5.192082524299621582e-01 -7.451543211936950684e-01 -6.778381019830703735e-02 1.196803092956542969e+00
3.019000000000000000e+03 1.692951011657714844e+01 6.591669082641601562e+00 4.389884998090565205e-05 1.464656634198036045e-05 1.756362507876474410e-05 -4.275634182704379782e-06
3.020000000000000000e+03 2.985245895385742188e+01 2.225358581542968750e+01 -5.999634042382240295e-02 -2.950888313353061676e-02 -2.685156837105751038e-02 2.270638942718505859e-02
3.021000000000000000e+03 3.585794830322265625e+01 8.781947135925292969e+00 1.651633792789652944e-04 -1.124751172028481960e-03 -2.878763480111956596e-04 -1.425654481863602996e-04
3.022000000000000000e+03 3.029680442810058594e+01 2.206243705749511719e+01 -5.686404556035995483e-02 -2.921772375702857971e-02 -2.582453005015850067e-02 2.083178423345088959e-02
3.023000000000000000e+03 2.960046958923339844e+01 2.187524795532226562e+01 -6.311810016632080078e-02 -3.712122142314910889e-02 -3.007179498672485352e-02 2.568137273192405701e-02
3.024000000000000000e+03 4.655928039550781250e+01 -1.176920032501220703e+01 3.319766819477081299e-01 -2.986639738082885742e-01 9.993805550038814545e-03 7.237586379051208496e-01
3.025000000000000000e+03 4.526785659790039062e+01 -1.044930362701416016e+01 7.293242216110229492e-01 -5.951825976371765137e-01 4.024249315261840820e-02 8.272477388381958008e-01
3.026000000000000000e+03 1.336102581024169922e+01 2.044631958007812500e+01 -4.529164172708988190e-03 1.007328159175813198e-03 -1.056550885550677776e-03 -8.394134929403662682e-04
3.027000000000000000e+03 3.156945228576660156e+01 -3.301691293716430664e+00 -1.584959268569946289e+00 2.204439789056777954e-01 -4.093545973300933838e-01 -2.112149447202682495e-01
3.028000000000000000e+03 3.161931991577148438e+01 -3.815526485443115234e+00 -1.145724415779113770e+00 2.509520649909973145e-01 -2.684317231178283691e-01 -1.535909026861190796e-01
3.029000000000000000e+03 1.790873908996582031e+01 4.908320426940917969e+00 -2.164862598874606192e-05 -2.141539516742341220e-05 -1.291920580115402117e-05 -2.735350062721408904e-05
3.030000000000000000e+03 1.768422317504882812e+01 4.233018398284912109e+00 -3.512571493047289550e-05 -1.267814513994380832e-05 -1.434115893061971292e-05 -2.733376732066972181e-06
3.031000000000000000e+03 2.821868705749511719e+01 2.348224639892578125e+01 -4.822877794504165649e-02 -2.874881029129028320e-02 -2.309327572584152222e-02 2.501890808343887329e-02
3.032000000000000000e+03 2.743616676330566406e+01 2.268132400512695312e+01 -6.588855385780334473e-02 -2.960096672177314758e-02 -2.864685654640197754e-02 3.406500071287155151e-02
3.033000000000000000e+03 3.684864425659179688e+01 -4.137547016143798828e+00 -1.469213247299194336e+00 9.148485064506530762e-01 -1.663094311952590942e-01 4.999106228351593018e-01
3.034000000000000000e+03 1.559209728240966797e+01 2.390959930419921875e+01 -1.564044505357742310e-02 9.015557589009404182e-04 -4.421666730195283890e-03 6.406068801879882812e-03
3.035000000000000000e+03 2.055373954772949219e+01 4.168181419372558594e+00 -1.384380993840750307e-05 -9.103013326239306480e-06 -6.884046797495102510e-06 -1.570797758176922798e-05
3.036000000000000000e+03 1.534221935272216797e+01 4.826343059539794922e+00 1.495819287811173126e-05 1.478530066378880292e-05 8.923047971620690078e-06 -3.897699571098200977e-06
3.037000000000000000e+03 3.511839294433593750e+01 -3.644134759902954102e+00 -1.508093953132629395e+00 5.784279704093933105e-01 -2.788997888565063477e-01 4.241857230663299561e-01
3.038000000000000000e+03 1.705650329589843750e+01 5.126967906951904297e+00 -8.487436389259528369e-06 1.618486203369684517e-05 2.309227738805930130e-06 3.330300023662857711e-05
3.039000000000000000e+03 1.701570892333984375e+01 4.498100280761718750e+00 -3.216068580513820052e-05 5.240025075181620196e-06 -8.076198355411179364e-06 1.046953366312664002e-05
3.040000000000000000e+03 3.795989608764648438e+01 -1.558723163604736328e+01 -7.215855717658996582e-01 2.712752103805541992e+00 5.973500013351440430e-01 -3.221410512924194336e-02
3.041000000000000000e+03 3.477519226074218750e+01 5.053997039794921875e+00 1.234611612744629383e-03 -3.253549512010067701e-04 2.727769897319376469e-04 -2.428821608191356063e-04
3.042000000000000000e+03 1.178353214263916016e+01 5.721265792846679688e+00 7.945079414639621973e-05 2.165946170862298459e-05 3.033307621080894023e-05 5.110868733027018607e-05
3.043000000000000000e+03 1.463040161132812500e+01 4.908127784729003906e+00 -1.763136788213159889e-05 1.681814683252014220e-05 -2.439664115172490710e-07 2.745615711319260299e-05
3.044000000000000000e+03 3.063371849060058594e+01 -5.593845367431640625e+00 5.575701594352722168e-01 6.781081557273864746e-01 3.707034885883331299e-01 -3.124737441539764404e-01
3.045000000000000000e+03 2.955894660949707031e+01 -3.615416526794433594e+00 -1.280053615570068359e+00 3.340809941291809082e-01 -2.837917804718017578e-01 -3.428269326686859131e-01
3.046000000000000000e+03 2.407545852661132812e+01 -4.536069869995117188e+00 -2.500099241733551025e-01 -7.143115997314453125e-02 -9.643232077360153198e-02 -8.245487213134765625e-01
3.047000000000000000e+03 2.443966674804687500e+01 -3.876815795898437500e+00 -5.922023057937622070e-01 -9.638890624046325684e-03 -1.805523484945297241e-01 -8.671010732650756836e-01
3.048000000000000000e+03 2.198021697998046875e+01 -5.670611381530761719e+00 1.274050325155258179e-01 -1.570385992527008057e-01 -8.890070952475070953e-03 -5.816828012466430664e-01
3.049000000000000000e+03 2.406998443603515625e+01 2.384469223022460938e+01 -5.247893929481506348e-02 -1.329505071043968201e-02 -1.973219774663448334e-02 2.223377861082553864e-02
3.050000000000000000e+03 2.482345771789550781e+01 2.338784790039062500e+01 -6.093759834766387939e-02 -1.455431431531906128e-02 -2.264757268130779266e-02 2.600859105587005615e-02
3.051000000000000000e+03 1.243492603302001953e+01 5.304567337036132812e+00 1.592304943187627941e-05 -4.154776888753985986e-06 3.530481762936688028e-06 7.565059604530688375e-06
3.052000000000000000e+03 3.323779678344726562e+01 -4.348866939544677734e+00 -6.675605177879333496e-01 2.657453119754791260e-01 -1.205445677042007446e-01 1.085122376680374146e-01
3.053000000000000000e+03 3.219991683959960938e+01 -4.378453254699707031e+00 -6.373175382614135742e-01 2.590953707695007324e-01 -1.134666576981544495e-01 -4.467702284455299377e-02
3.054000000000000000e+03 2.445379066467285156e+01 2.372310638427734375e+01 -5.405956506729125977e-02 -1.453737635165452957e-02 -2.057908289134502411e-02 2.360114268958568573e-02
3.055000000000000000e+03 3.595300292968750000e+01 5.861808776855468750e+00 1.367830322124063969e-03 -4.083144594915211201e-04 2.878547529689967632e-04 -6.480297888629138470e-04
3.056000000000000000e+03 7.581764984130859375e+01 -9.480681419372558594e+00 -1.392263621091842651e-01 -1.795336455106735229e-01 -9.562800824642181396e-02 -3.189537823200225830e-01
3.057000000000000000e+03 5.312654495239257812e+00 4.796833992004394531e+00 5.469613824971020222e-05 -5.596251139650121331e-05 -3.799117109792859992e-07 5.745920861954800785e-05
3.058000000000000000e+03 5.571217060089111328e+00 5.475306987762451172e+00 2.085073720081709325e-05 4.545702176983468235e-05 1.989232805499341339e-05 -1.087809359887614846e-04
3.059000000000000000e+03 1.007724666595458984e+01 5.421983718872070312e+00 -1.513335746494703926e-06 -5.924985089222900569e-05 -1.822895683289971203e-05 2.872336335713043809e-05
3.060000000000000000e+03 8.713513374328613281e+00 5.203669548034667969e+00 4.526749307842692360e-06 -6.490466330433264375e-05 -1.811337278923019767e-05 1.555427115818019956e-05
3.061000000000000000e+03 2.550336647033691406e+01 -5.380872726440429688e+00 3.420803844928741455e-01 -1.246918663382530212e-01 6.521655619144439697e-02 -8.694081306457519531e-01
3.062000000000000000e+03 4.654893875122070312e+00 6.062200069427490234e+00 1.579988456796854734e-04 -2.385270454396959394e-05 4.024384179501794279e-05 -6.371366907842457294e-05
3.063000000000000000e+03 4.752287864685058594e+00 4.950400829315185547e+00 3.780345286941155791e-05 -3.024742909474298358e-06 1.043361316988011822e-05 -1.113458565669134259e-04
3.064000000000000000e+03 7.011619567871093750e+01 -9.571759223937988281e+00 -6.566529273986816406e-01 1.138158142566680908e-01 -1.628511250019073486e-01 -5.969661474227905273e-01
3.065000000000000000e+03 7.170703887939453125e+01 -1.151151084899902344e+01 -4.828074276447296143e-01 8.159594237804412842e-02 -1.203634515404701233e-01 -2.927692830562591553e-01
3.066000000000000000e+03 6.875244617462158203e+00 -7.199250698089599609e+00 -1.958109065890312195e-02 -1.013214960694313049e-01 -3.627077490091323853e-02 -7.408018410205841064e-02
3.067000000000000000e+03 8.461934089660644531e+00 -5.089229583740234375e+00 -4.860985279083251953e-02 -7.706503570079803467e-02 -3.770246729254722595e-02 -9.476479887962341309e-02
3.068000000000000000e+03 9.057006835937500000e+00 -5.274498462677001953e+00 -5.054482072591781616e-02 -9.174343943595886230e-02 -4.268647730350494385e-02 -1.129128411412239075e-01
3.069000000000000000e+03 1.518857288360595703e+01 -5.101322174072265625e+00 -1.003855466842651367e-01 -1.666030883789062500e-01 -8.009659498929977417e-02 -3.141861855983734131e-01
3.070000000000000000e+03 1.490985774993896484e+01 -6.815385341644287109e+00 2.628988213837146759e-02 -2.272957712411880493e-01 -6.030176579952239990e-02 -2.953322231769561768e-01
3.071000000000000000e+03 1.343270874023437500e+01 -5.711246013641357422e+00 -5.189793929457664490e-02 -1.716144829988479614e-01 -6.705372780561447144e-02 -2.535362839698791504e-01
3.072000000000000000e+03 2.744292640686035156e+01 2.330112075805664062e+01 -5.542799457907676697e-02 -2.748370729386806488e-02 -2.487351186573505402e-02 2.983876504004001617e-02
3.073000000000000000e+03 1.995288085937500000e+01 2.469228172302246094e+01 -3.024087101221084595e-02 -5.170906428247690201e-03 -1.062353327870368958e-02 1.592704094946384430e-02
3.074000000000000000e+03 1.821715927124023438e+01 -6.731757640838623047e+00 9.309074282646179199e-02 -2.013720870018005371e-01 -3.248440474271774292e-02 -3.807710111141204834e-01
3.075000000000000000e+03 1.963483428955078125e+01 -4.971929073333740234e+00 -1.159660816192626953e-01 -1.392040252685546875e-01 -7.655103504657745361e-02 -4.687685668468475342e-01
3.076000000000000000e+03 3.689990234375000000e+01 6.954330921173095703e+00 1.949265017174184322e-03 -3.662313974928110838e-04 4.749100771732628345e-04 2.162033924832940102e-04
3.077000000000000000e+03 3.555484008789062500e+01 7.654625892639160156e+00 1.090474659577012062e-03 -2.863069239538162947e-04 2.412503235973417759e-04 -6.052022945368662477e-05
3.078000000000000000e+03 2.824236297607421875e+01 -6.384936809539794922e+00 1.434605479240417480e+00 6.706616878509521484e-01 6.315801739692687988e-01 -7.911137938499450684e-01
3.079000000000000000e+03 1.806656074523925781e+01 -5.624643802642822266e+00 -4.798670485615730286e-02 -1.747741401195526123e-01 -6.682825088500976562e-02 -4.021702706813812256e-01
3.080000000000000000e+03 1.917060852050781250e+01 -5.564014434814453125e+00 -5.396876111626625061e-02 -1.617575436830520630e-01 -6.471789628267288208e-02 -4.388700127601623535e-01
3.081000000000000000e+03 3.770727157592773438e+01 -1.724320220947265625e+01 -2.619792819023132324e-01 2.449094772338867188e+00 6.561346650123596191e-01 2.239762544631958008e-01
3.082000000000000000e+03 3.714214324951171875e+01 5.788662433624267578e+00 1.412732992321252823e-03 -9.906431660056114197e-05 3.941006143577396870e-04 -5.346708348952233791e-04
3.083000000000000000e+03 2.261457824707031250e+01 -4.374861240386962891e+00 -3.033331930637359619e-01 -3.497892245650291443e-02 -1.014936342835426331e-01 -6.752629280090332031e-01
3.084000000000000000e+03 2.148047828674316406e+01 -4.337606430053710938e+00 -3.052032291889190674e-01 -5.453234538435935974e-02 -1.079206690192222595e-01 -5.784965157508850098e-01
3.085000000000000000e+03 3.145719909667968750e+01 -5.867818832397460938e+00 8.810868263244628906e-01 5.998331308364868164e-01 4.442759752273559570e-01 -1.677978783845901489e-01
3.086000000000000000e+03 3.090629768371582031e+01 -6.203320026397705078e+00 1.233615517616271973e+00 7.102214694023132324e-01 5.831511020660400391e-01 -2.191613614559173584e-01
3.087000000000000000e+03 7.377470397949218750e+01 -1.017579746246337891e+01 -3.058694601058959961e-01 -5.233266949653625488e-02 -1.074606403708457947e-01 -3.705562055110931396e-01
3.088000000000000000e+03 7.442912292480468750e+01 -1.101983356475830078e+01 -2.517527043819427490e-01 -5.755528807640075684e-02 -9.279239177703857422e-02 -2.674460411071777344e-01
3.089000000000000000e+03 4.373990631103515625e+01 -9.684933662414550781e+00 9.924397468566894531e-01 -7.327107787132263184e-01 7.791868597269058228e-02 8.674122095108032227e-01
3.090000000000000000e+03 4.292529296875000000e+01 -9.711085319519042969e+00 1.206467151641845703e+00 -6.786936521530151367e-01 1.583320647478103638e-01 7.883905172348022461e-01
3.091000000000000000e+03 3.480248641967773438e+01 -7.866086959838867188e+00 1.527475476264953613e+00 6.652005314826965332e-01 6.578028202056884766e-01 -1.043597102165222168e+00
3.092000000000000000e+03 3.500592803955078125e+01 -7.330889225006103516e+00 1.103048205375671387e+00 7.791648507118225098e-01 5.646639466285705566e-01 -7.480145096778869629e-01
3.093000000000000000e+03 7.052481842041015625e+01 -1.027287578582763672e+01 -6.662109494209289551e-01 1.267812699079513550e-01 -1.618289053440093994e-01 -4.297837913036346436e-01
3.094000000000000000e+03 6.701181030273437500e+01 -6.943779945373535156e+00 -3.951396048069000244e-01 3.720558434724807739e-02 -1.073802113533020020e-01 -7.404363751411437988e-01
3.095000000000000000e+03 6.672090911865234375e+01 -8.588261604309082031e+00 -7.010332942008972168e-01 -3.729583323001861572e-02 -2.214987426996231079e-01 -7.278024554252624512e-01
3.096000000000000000e+03 2.767124748229980469e+01 -6.106376171112060547e+00 1.202518105506896973e+00 3.252300024032592773e-01 4.583244323730468750e-01 -8.062974810600280762e-01
3.097000000000000000e+03 2.639705085754394531e+01 -5.675964355468750000e+00 6.567273139953613281e-01 -2.912362851202487946e-02 1.882811039686203003e-01 -8.357912302017211914e-01
3.098000000000000000e+03 9.634389877319335938e+00 -5.707885742187500000e+00 -4.503877088427543640e-02 -1.106720417737960815e-01 -4.671324416995048523e-02 -1.307235956192016602e-01
3.099000000000000000e+03 5.981834411621093750e+00 1.760994911193847656e+01 -5.801832303404808044e-04 -4.895495367236435413e-04 -3.209198184777051210e-04 -1.988089752558153123e-05
3.100000000000000000e+03 3.646161651611328125e+01 6.359272003173828125e+00 -9.952391264960169792e-04 -3.731755423359572887e-04 -4.105244006495922804e-04 3.170723211951553822e-04
3.101000000000000000e+03 5.927628517150878906e+00 1.390900421142578125e+01 7.166069553932175040e-05 -2.873648772947490215e-04 -6.471125379903241992e-05 -7.279911369550973177e-05
3.102000000000000000e+03 1.391479682922363281e+01 -8.859928131103515625e+00 8.510386198759078979e-02 -2.796602249145507812e-01 -5.836690962314605713e-02 -2.215211391448974609e-01
3.103000000000000000e+03 4.744940185546875000e+01 -1.094869422912597656e+01 1.883512139320373535e-01 -2.017152607440948486e-01 -4.009215161204338074e-03 9.772779345512390137e-01
3.104000000000000000e+03 3.804941558837890625e+01 -3.551947593688964844e+00 -1.797801971435546875e+00 7.458593249320983887e-01 -3.155828118324279785e-01 6.886541843414306641e-01
3.105000000000000000e+03 1.543179035186767578e+01 -6.132903575897216797e+00 -1.899411156773567200e-02 -2.045890092849731445e-01 -6.707493960857391357e-02 -3.227582871913909912e-01
3.106000000000000000e+03 1.870684051513671875e+01 -7.810932159423828125e+00 2.041607797145843506e-01 -2.015975266695022583e-01 7.689773919992148876e-04 -3.348314762115478516e-01
3.107000000000000000e+03 3.970179367065429688e+01 1.744393539428710938e+01 -4.285846650600433350e-02 1.877677999436855316e-02 -7.224505767226219177e-03 6.212868727743625641e-03
3.108000000000000000e+03 6.884915161132812500e+01 -9.467536926269531250e+00 -7.897776365280151367e-01 1.255178153514862061e-01 -1.992779523134231567e-01 -6.610906124114990234e-01
3.109000000000000000e+03 1.067726707458496094e+01 4.428575992584228516e+00 1.894575575533963274e-06 -4.346697096480056643e-05 -1.247171894647181034e-05 -9.152377060672733933e-07
3.110000000000000000e+03 5.610390663146972656e+00 2.340538978576660156e+01 -2.139637246727943420e-03 -1.100587309338152409e-03 -9.720673551782965660e-04 1.899187453091144562e-03
3.111000000000000000e+03 5.786246299743652344e+00 2.489078521728515625e+01 -1.570770400576293468e-03 -1.740251667797565460e-03 -9.933066321536898613e-04 2.824078779667615891e-03
3.112000000000000000e+03 3.735586547851562500e+01 9.352198600769042969e+00 -2.324437722563743591e-03 7.490558346034958959e-05 -6.748596788384020329e-04 -9.545149077894166112e-05
3.113000000000000000e+03 3.586112213134765625e+01 9.387417793273925781e+00 -1.849190797656774521e-03 -5.777395563200116158e-04 -7.280791178345680237e-04 7.883393845986574888e-05
3.114000000000000000e+03 5.294095611572265625e+01 -9.657070159912109375e+00 -3.485868871212005615e-01 7.530202865600585938e-01 1.213300228118896484e-01 7.910694479942321777e-01
3.115000000000000000e+03 4.062972640991210938e+01 -2.255556869506835938e+01 2.778502404689788818e-01 8.251803517341613770e-01 3.309091925621032715e-01 -5.034786835312843323e-02
3.116000000000000000e+03 7.495208740234375000e+01 -2.319242286682128906e+01 -1.577343755343463272e-05 -1.861003147496376187e-05 -1.031504052662057802e-05 -5.308971594786271453e-05
3.117000000000000000e+03 3.812309265136718750e+01 1.406949138641357422e+01 -2.361405082046985626e-02 9.544091299176216125e-03 -4.220988135784864426e-03 2.550453878939151764e-03
3.118000000000000000e+03 4.451024627685546875e+01 -9.846069335937500000e+00 8.497264981269836426e-01 -7.071025371551513672e-01 4.278719052672386169e-02 9.008921384811401367e-01
3.119000000000000000e+03 5.179819107055664062e+01 -1.190478706359863281e+01 -7.222557067871093750e-01 3.350670933723449707e-01 -1.161565780639648438e-01 6.902786493301391602e-01
3.120000000000000000e+03 4.982367515563964844e+00 -7.060780048370361328e+00 -1.453751325607299805e-02 -6.841427832841873169e-02 -2.488553710281848907e-02 -4.407024011015892029e-02
3.121000000000000000e+03 7.167046070098876953e+00 -5.109793186187744141e+00 -3.723483160138130188e-02 -6.447843462228775024e-02 -3.051397949457168579e-02 -6.934769451618194580e-02
3.122000000000000000e+03 1.144403076171875000e+01 -2.074372291564941406e+01 4.963501822203397751e-03 -2.537740170955657959e-01 -7.464315742254257202e-02 -1.274922937154769897e-01
3.123000000000000000e+03 5.976763248443603516e+00 -7.997848987579345703e+00 -1.387497689574956894e-02 -9.696538746356964111e-02 -3.325210884213447571e-02 -6.071092933416366577e-02
3.124000000000000000e+03 3.737156677246093750e+01 1.097737121582031250e+01 -7.952049374580383301e-03 -5.611820379272103310e-04 -2.553969388827681541e-03 8.981478749774396420e-04
3.125000000000000000e+03 6.018227386474609375e+01 -8.139720916748046875e+00 -5.147393941879272461e-01 3.218080401420593262e-01 -5.787941068410873413e-02 -2.996181370690464973e-03
3.126000000000000000e+03 2.331116294860839844e+01 -5.951926231384277344e+00 3.248876333236694336e-01 -1.827095299959182739e-01 4.265343397855758667e-02 -6.442712545394897461e-01
3.127000000000000000e+03 7.467461395263671875e+01 -2.213443756103515625e+01 -1.382051123073324561e-04 -2.559979329816997051e-04 -1.182609194074757397e-04 -1.025024321279488504e-04
3.128000000000000000e+03 3.891399002075195312e+01 -7.845205307006835938e+00 4.767391979694366455e-01 1.365666627883911133e+00 5.527217388153076172e-01 8.418859839439392090e-01
3.129000000000000000e+03 7.459780883789062500e+01 -2.985520601272583008e+00 -1.293431222438812256e-02 -5.341460704803466797e-01 -1.641241163015365601e-01 -6.443654298782348633e-01
3.130000000000000000e+03 7.450331878662109375e+01 -1.720704793930053711e+00 1.131107099354267120e-02 -5.959163904190063477e-01 -1.753815859556198120e-01 -6.415274143218994141e-01
3.131000000000000000e+03 5.890525341033935547e+00 1.535538101196289062e+01 1.562118268338963389e-04 -4.235621599946171045e-04 -8.020509994821622968e-05 -9.777233208296820521e-05
3.132000000000000000e+03 6.268202781677246094e+00 1.673103904724121094e+01 9.781853805179707706e-06 -5.125952302478253841e-04 -1.508440182078629732e-04 -1.407188683515414596e-04
3.133000000000000000e+03 5.162241458892822266e+00 -1.159878158569335938e+01 -1.294595282524824142e-02 -1.257524192333221436e-01 -4.160951077938079834e-02 -5.829683691263198853e-02
3.134000000000000000e+03 7.413661956787109375e+00 5.445490360260009766e+00 7.803619519108906388e-05 -6.361857231240719557e-05 4.325288500695023686e-06 2.674606912478338927e-05
3.135000000000000000e+03 3.996765899658203125e+01 1.635650253295898438e+01 -4.249011352658271790e-02 2.040571346879005432e-02 -6.625319831073284149e-03 2.846872957888990641e-04
3.136000000000000000e+03 4.837961673736572266e+00 9.800604820251464844e+00 3.364647272974252701e-05 -1.073108651326037943e-04 -2.209931881225202233e-05 -3.997845124104060233e-05
3.137000000000000000e+03 3.932160377502441406e+00 8.851979255676269531e+00 -6.098167796153575182e-05 -2.234163548564538360e-05 -2.499699439795222133e-05 -8.815096225589513779e-05
3.138000000000000000e+03 3.448084259033203125e+01 -5.198462009429931641e+00 -2.315279394388198853e-01 4.939559996128082275e-01 7.872841507196426392e-02 3.026297688484191895e-02
3.139000000000000000e+03 6.881549072265625000e+01 -1.085702610015869141e+01 -8.922820687294006348e-01 1.741376966238021851e-01 -2.154433131217956543e-01 -4.524787664413452148e-01
3.140000000000000000e+03 1.867058563232421875e+01 -6.114703178405761719e+00 4.937898367643356323e-02 -1.932925283908843994e-01 -4.317406192421913147e-02 -4.142983853816986084e-01
3.141000000000000000e+03 5.270248413085937500e+00 2.201762390136718750e+01 -9.311180328950285912e-04 -8.145946194417774677e-04 -5.237137665972113609e-04 9.765215218067169189e-04
3.142000000000000000e+03 5.771271896362304688e+01 -8.350683212280273438e+00 -3.053866624832153320e-01 6.471484899520874023e-01 1.025285348296165466e-01 2.373140305280685425e-01
3.143000000000000000e+03 5.593245697021484375e+01 -8.659584045410156250e+00 -2.671200037002563477e-01 7.863439917564392090e-01 1.557672023773193359e-01 3.818579912185668945e-01
3.144000000000000000e+03 6.753433227539062500e+01 1.103971481323242188e+01 5.103436112403869629e-01 1.608432173728942871e+00 6.356327533721923828e-01 -6.888711452484130859e-02
3.145000000000000000e+03 7.114399719238281250e+01 -2.584223937988281250e+01 -1.168420189060270786e-03 -2.465220459271222353e-04 -4.244826559443026781e-04 -7.501909567508846521e-05
3.146000000000000000e+03 4.137893676757812500e+01 -2.188487815856933594e+01 2.343797236680984497e-01 6.124774813652038574e-01 2.540571689605712891e-01 -1.475920900702476501e-02
3.147000000000000000e+03 4.054919433593750000e+01 -2.023405075073242188e+01 2.342513948678970337e-01 8.713242411613464355e-01 3.316726982593536377e-01 5.709387734532356262e-02
3.148000000000000000e+03 1.356505680084228516e+01 -6.964815616607666016e+00 1.064906176179647446e-02 -2.168866991996765137e-01 -6.187129020690917969e-02 -2.519650161266326904e-01
3.149000000000000000e+03 9.605418205261230469e+00 -1.137702465057373047e+01 -8.593231439590454102e-03 -2.143087238073348999e-01 -6.687058508396148682e-02 -9.472627192735671997e-02
3.150000000000000000e+03 6.446595764160156250e+01 -7.097235679626464844e+00 -3.751978278160095215e-01 -6.638509035110473633e-02 -1.324748843908309937e-01 -5.131819248199462891e-01
3.151000000000000000e+03 3.951264572143554688e+01 -4.812837600708007812e+00 -1.420330286026000977e+00 4.477734565734863281e-01 -2.917670607566833496e-01 7.539604902267456055e-01
3.152000000000000000e+03 9.398846626281738281e+00 -1.940582466125488281e+01 -2.326797880232334137e-02 -2.354876697063446045e-01 -7.762669771909713745e-02 -1.393131464719772339e-01
3.153000000000000000e+03 4.944720268249511719e+00 1.081544971466064453e+01 1.804909406928345561e-04 -4.665577580453827977e-05 4.015054946648888290e-05 -1.922494557220488787e-04
3.154000000000000000e+03 6.789841651916503906e+00 1.343153285980224609e+01 1.917546760523691773e-04 -3.509256930556148291e-04 -4.775130219059064984e-05 -1.686276664258912206e-04
3.155000000000000000e+03 7.470938873291015625e+01 -9.276082992553710938e+00 -2.279743999242782593e-01 -1.394103765487670898e-01 -1.102154329419136047e-01 -3.934856057167053223e-01
3.156000000000000000e+03 7.423809814453125000e+01 -2.444714164733886719e+01 -2.896400110330432653e-04 -3.494984412100166082e-05 -9.737695654621347785e-05 3.627067781053483486e-05
3.157000000000000000e+03 9.580615997314453125e+00 -1.508366870880126953e+01 -6.112968549132347107e-02 -2.243589907884597778e-01 -8.564660698175430298e-02 -1.036207824945449829e-01
3.158000000000000000e+03 4.383488845825195312e+01 -7.378674983978271484e+00 2.018991112709045410e-01 -8.750195503234863281e-01 -2.019361257553100586e-01 1.228008627891540527e+00
3.159000000000000000e+03 4.298255157470703125e+01 -3.155549049377441406e+01 2.967890119180083275e-03 3.780588507652282715e-01 1.143080219626426697e-01 -2.501182556152343750e-01
3.160000000000000000e+03 4.415795516967773438e+01 -2.922607040405273438e+01 4.367937520146369934e-02 1.194753274321556091e-01 4.894641041755676270e-02 -2.371348738670349121e-01
3.161000000000000000e+03 7.452760314941406250e+01 -6.864897727966308594e+00 -1.712038069963455200e-01 -2.681735455989837646e-01 -1.318132132291793823e-01 -5.494841933250427246e-01
3.162000000000000000e+03 7.298513031005859375e+01 -1.029122543334960938e+01 -3.716956377029418945e-01 -2.117822412401437759e-03 -1.121440380811691284e-01 -3.726156353950500488e-01
3.163000000000000000e+03 6.813261413574218750e+01 -1.020008468627929688e+01 -1.006016850471496582e+00 1.106278672814369202e-01 -2.686167061328887939e-01 -5.220671296119689941e-01
3.164000000000000000e+03 6.824407958984375000e+01 -8.705576896667480469e+00 -6.775387525558471680e-01 4.752288013696670532e-02 -1.890047639608383179e-01 -6.964836716651916504e-01
3.165000000000000000e+03 4.916506767272949219e+00 1.956835556030273438e+01 -3.223469248041510582e-04 -4.395211581140756607e-04 -2.285604277858510613e-04 1.596914225956425071e-04
3.166000000000000000e+03 5.672159194946289062e+01 -7.560552597045898438e+00 -8.644715882837772369e-03 8.352490067481994629e-01 2.479812800884246826e-01 3.638791739940643311e-01
3.167000000000000000e+03 7.465298461914062500e+01 -4.243200778961181641e+00 -6.478846818208694458e-02 -4.560076594352722168e-01 -1.562388390302658081e-01 -6.274441480636596680e-01
3.168000000000000000e+03 3.744308090209960938e+01 -6.648091793060302734e+00 -2.293624281883239746e-01 1.495564103126525879e+00 3.798605203628540039e-01 1.874502748250961304e-01
3.169000000000000000e+03 4.581122207641601562e+01 2.365684700012207031e+01 2.998916804790496826e-02 3.494349122047424316e-02 1.947979815304279327e-02 -2.391439490020275116e-02
3.170000000000000000e+03 6.104653930664062500e+01 -8.454524874687194824e-01 7.441913485527038574e-01 1.399811863899230957e+00 6.432009339332580566e-01 6.188549399375915527e-01
3.171000000000000000e+03 5.495438385009765625e+01 -7.883454322814941406e+00 4.993924126029014587e-02 9.588125944137573242e-01 3.026255369186401367e-01 5.459635853767395020e-01
3.172000000000000000e+03 7.277075195312500000e+01 -2.654582977294921875e+01 -9.942260803654789925e-04 -3.750899923034012318e-04 -4.107948334421962500e-04 2.416563074802979827e-04
3.173000000000000000e+03 7.166178894042968750e+01 -2.711754798889160156e+01 -1.381066511385142803e-03 9.771076292963698506e-05 -3.850067150779068470e-04 6.756657385267317295e-04
3.174000000000000000e+03 6.456525421142578125e+01 9.768776893615722656e+00 4.780083000659942627e-01 2.914956092834472656e+00 1.017889380455017090e+00 2.520290017127990723e-01
3.175000000000000000e+03 6.552458190917968750e+01 9.347398757934570312e+00 5.223365426063537598e-01 2.398678064346313477e+00 8.763043880462646484e-01 1.444008350372314453e-01
3.176000000000000000e+03 7.358166503906250000e+01 -2.093171882629394531e+01 -1.182059131679125130e-04 -1.389302342431619763e-04 -7.714084495091810822e-05 -7.714001549175009131e-05
3.177000000000000000e+03 7.310965728759765625e+01 -2.189226341247558594e+01 1.758302823873236775e-04 -2.976625401061028242e-04 -3.654968168120831251e-05 -5.160040745977312326e-05
3.178000000000000000e+03 4.141042327880859375e+01 -2.604972457885742188e+01 1.065843626856803894e-01 6.187753081321716309e-01 2.176079005002975464e-01 -2.619597911834716797e-01
3.179000000000000000e+03 3.942752456665039062e+01 -2.516538619995117188e+01 2.124320268630981445e-01 1.180688142776489258e+00 4.179360568523406982e-01 -2.072540372610092163e-01
3.180000000000000000e+03 3.783969640731811523e+00 3.461239242553710938e+01 1.591424806974828243e-04 -8.559433743357658386e-03 -2.520087407901883125e-03 3.656482556834816933e-03
3.181000000000000000e+03 7.518254852294921875e+01 1.769775962829589844e+01 1.537832766771316528e-01 -1.247639775276184082e+00 -3.281569480895996094e-01 2.319439053535461426e-01
3.182000000000000000e+03 7.377663421630859375e+01 1.752469062805175781e+01 2.403219044208526611e-01 -7.395656704902648926e-01 -1.497731357812881470e-01 2.524454593658447266e-01
3.183000000000000000e+03 7.511381530761718750e+01 -3.166486358642578125e+01 -4.327925853431224823e-04 -9.895692346617579460e-04 -4.267085460014641285e-04 1.296326867304742336e-03
3.184000000000000000e+03 4.020250320434570312e+01 -2.649158477783203125e+01 1.599002480506896973e-01 9.370052814483642578e-01 3.290716707706451416e-01 -2.542942464351654053e-01
3.185000000000000000e+03 1.888901519775390625e+01 -7.081310749053955078e+00 1.678989678621292114e-01 -2.088751941919326782e-01 -1.229286752641201019e-02 -3.716615438461303711e-01
3.186000000000000000e+03 1.588791751861572266e+01 -5.426018714904785156e+00 -7.142017036676406860e-02 -1.839018315076828003e-01 -7.659659534692764282e-02 -3.379011452198028564e-01
3.187000000000000000e+03 6.231966018676757812e+00 -2.367168426513671875e+01 1.715338230133056641e-02 -2.563886344432830811e-01 -7.177057862281799316e-02 -1.080589145421981812e-01
3.188000000000000000e+03 7.300789356231689453e+00 -2.251964187622070312e+01 1.772754266858100891e-02 -2.453612089157104492e-01 -6.829009950160980225e-02 -1.224619150161743164e-01
3.189000000000000000e+03 6.903375244140625000e+01 1.741792106628417969e+01 5.574359297752380371e-01 8.959262967109680176e-01 4.360086619853973389e-01 1.625874340534210205e-01
3.190000000000000000e+03 6.731211853027343750e+01 1.544514369964599609e+01 6.495032906532287598e-01 1.777810454368591309e+00 7.281941175460815430e-01 -3.480792418122291565e-02
3.191000000000000000e+03 7.419060516357421875e+01 1.201706314086914062e+01 2.086214870214462280e-01 -9.205198884010314941e-01 -2.135695368051528931e-01 -9.860792011022567749e-02
3.192000000000000000e+03 6.373702526092529297e+00 -1.928176689147949219e+01 -1.622443459928035736e-02 -2.123988866806030273e-01 -6.858699768781661987e-02 -1.169710457324981689e-01
3.193000000000000000e+03 5.927837371826171875e+00 -1.689166831970214844e+01 -2.549721114337444305e-02 -1.858424842357635498e-01 -6.340190768241882324e-02 -9.752526879310607910e-02
3.194000000000000000e+03 6.186399459838867188e+01 -4.285499572753906250e+00 3.368334770202636719e-01 6.212666630744934082e-01 2.874300479888916016e-01 7.237287610769271851e-02
3.195000000000000000e+03 7.495156860351562500e+01 2.061258888244628906e+01 1.077963784337043762e-01 -1.065109491348266602e+00 -2.871939539909362793e-01 3.732500076293945312e-01
3.196000000000000000e+03 4.943050765991210938e+01 -1.086403369903564453e+01 -1.385809630155563354e-01 1.242861971259117126e-01 -4.288432188332080841e-03 1.059614181518554688e+00
3.197000000000000000e+03 7.427141571044921875e+01 2.313834428787231445e+00 1.123363301157951355e-01 -7.372978925704956055e-01 -1.874884665012359619e-01 -5.702061057090759277e-01
3.198000000000000000e+03 6.941545867919921875e+01 -1.012934780120849609e+01 -8.039894700050354004e-01 1.380216032266616821e-01 -1.997903734445571899e-01 -4.830277264118194580e-01
3.199000000000000000e+03 6.531056976318359375e+01 1.211834812164306641e+01 4.497318863868713379e-01 2.781316995620727539e+00 9.693146347999572754e-01 9.980829060077667236e-02
3.200000000000000000e+03 6.696969604492187500e+01 1.254770755767822266e+01 5.298774242401123047e-01 2.041403055191040039e+00 7.713841199874877930e-01 -3.083193674683570862e-02
3.201000000000000000e+03 6.656540679931640625e+01 2.228148078918457031e+01 3.275007009506225586e-01 1.480229020118713379e+00 5.423189401626586914e-01 3.032677769660949707e-01
3.202000000000000000e+03 6.695110321044921875e+01 1.892628669738769531e+01 6.776397228240966797e-01 1.614754319190979004e+00 6.877182126045227051e-01 1.542242318391799927e-01
3.203000000000000000e+03 1.010477447509765625e+01 -2.339475059509277344e+01 4.518519714474678040e-02 -2.330329269170761108e-01 -5.635432153940200806e-02 -1.177685484290122986e-01
3.204000000000000000e+03 6.640461444854736328e+00 -2.637829017639160156e+01 3.125352039933204651e-02 -2.697513997554779053e-01 -7.154936343431472778e-02 -9.154583513736724854e-02
3.205000000000000000e+03 7.467111206054687500e+01 2.875452423095703125e+01 -6.225008144974708557e-02 -6.715673208236694336e-01 -2.201452255249023438e-01 4.262758493423461914e-01
3.206000000000000000e+03 1.103323364257812500e+01 -1.170184612274169922e+01 -8.438243530690670013e-04 -2.553052902221679688e-01 -7.684473693370819092e-02 -9.988821297883987427e-02
3.207000000000000000e+03 6.574587249755859375e+01 3.815762042999267578e+00 5.528847575187683105e-01 1.476579427719116211e+00 6.088392734527587891e-01 -5.429945141077041626e-02
3.208000000000000000e+03 6.504305267333984375e+01 5.011292934417724609e+00 5.857104659080505371e-01 1.820089101791381836e+00 7.217398881912231445e-01 1.153865605592727661e-01
3.209000000000000000e+03 1.276613521575927734e+01 -2.634189224243164062e+01 7.825666666030883789e-02 -1.558787524700164795e-01 -2.328662574291229248e-02 -6.835877150297164917e-02
3.210000000000000000e+03 6.120169639587402344e+00 -1.144581222534179688e+01 -1.547191198915243149e-02 -1.395754665136337280e-01 -4.651421308517456055e-02 -6.557075679302215576e-02
3.211000000000000000e+03 5.119042873382568359e+00 -9.188264846801757812e+00 -1.033166050910949707e-02 -9.891457110643386841e-02 -3.277386724948883057e-02 -5.256575345993041992e-02
3.212000000000000000e+03 6.537051200866699219e+00 1.469567584991455078e+01 2.273302379762753844e-05 -3.858408017549663782e-04 -1.089323341147974133e-04 -2.505683514755219221e-04
3.213000000000000000e+03 4.919720649719238281e+00 1.840905189514160156e+01 -6.466732011176645756e-04 -3.491721872705966234e-04 -2.987536136060953140e-04 -1.338131278316723183e-05
3.214000000000000000e+03 6.087367248535156250e+01 2.286258506774902344e+01 5.256018638610839844e-01 2.134837150573730469e+00 7.981317043304443359e-01 -7.449752688407897949e-01
3.215000000000000000e+03 7.346904754638671875e+01 -5.167211055755615234e+00 -1.364415735006332397e-01 -2.868248522281646729e-01 -1.269799321889877319e-01 -6.677347421646118164e-01
3.216000000000000000e+03 7.437895202636718750e+01 9.157921671867370605e-01 7.771126925945281982e-02 -7.092255353927612305e-01 -1.894542872905731201e-01 -6.046562194824218750e-01
3.217000000000000000e+03 7.313096618652343750e+01 8.042763471603393555e-01 1.127149090170860291e-01 -4.636401236057281494e-01 -1.052775681018829346e-01 -6.578851938247680664e-01
3.218000000000000000e+03 7.266840362548828125e+01 -2.984064292907714844e+01 -1.482770428992807865e-03 -1.788518420653417706e-04 -4.984866827726364136e-04 1.544444356113672256e-03
3.219000000000000000e+03 7.318759918212890625e+01 -3.132651138305664062e+01 -1.184966647997498512e-03 -9.824095759540796280e-04 -6.502128671854734421e-04 1.826230785809457302e-03
3.220000000000000000e+03 3.808416748046875000e+01 -2.583512306213378906e+01 2.841614782810211182e-01 1.558260202407836914e+00 5.527265071868896484e-01 -7.817308604717254639e-02
3.221000000000000000e+03 9.062490463256835938e+00 -1.418805503845214844e+01 -5.054457485675811768e-02 -2.102525681257247925e-01 -7.823914289474487305e-02 -9.328924119472503662e-02
3.222000000000000000e+03 2.809826469421386719e+01 -2.797649860382080078e+00 -1.854043722152709961e+00 -1.922731171362102032e-03 -5.567899346351623535e-01 -4.376385807991027832e-01
3.223000000000000000e+03 2.701649093627929688e+01 -2.797310590744018555e+00 -1.605835199356079102e+00 -1.657214313745498657e-01 -5.314669609069824219e-01 -6.121517419815063477e-01
3.224000000000000000e+03 2.722574615478515625e+01 -3.223185539245605469e+00 -1.269141077995300293e+00 -6.759665161371231079e-02 -4.010213017463684082e-01 -6.642068624496459961e-01
3.225000000000000000e+03 3.980223846435546875e+01 -9.281448364257812500e+00 1.860807061195373535e+00 6.619539260864257812e-01 7.568283081054687500e-01 1.155956268310546875e+00
3.226000000000000000e+03 2.647874450683593750e+01 -3.841650724411010742e+00 -7.139327526092529297e-01 -8.893589675426483154e-02 -2.408605962991714478e-01 -8.558374047279357910e-01
3.227000000000000000e+03 3.960531234741210938e+01 -9.557344436645507812e+00 2.102250576019287109e+00 7.324842214584350586e-01 8.504204750061035156e-01 1.160662531852722168e+00
3.228000000000000000e+03 1.316080474853515625e+01 1.527568244934082031e+01 -1.021300631691701710e-04 4.457061877474188805e-04 1.030728381010703743e-04 3.399907145649194717e-04
3.229000000000000000e+03 3.845856857299804688e+01 -8.233487129211425781e+00 6.877046823501586914e-01 1.815140962600708008e+00 7.508537173271179199e-01 7.462953329086303711e-01
3.230000000000000000e+03 4.045799636840820312e+01 -7.941915512084960938e+00 7.694470286369323730e-01 2.207677066326141357e-01 2.970644235610961914e-01 1.065151691436767578e+00
3.231000000000000000e+03 2.619777870178222656e+01 -4.312235355377197266e+00 -3.518814444541931152e-01 -4.449245706200599670e-02 -1.189121678471565247e-01 -9.022069573402404785e-01
3.232000000000000000e+03 1.824952316284179688e+01 5.217746734619140625e+00 2.493717147444840521e-05 1.928452002175617963e-05 1.326650726696243510e-05 2.189823135267943144e-05
3.233000000000000000e+03 4.161343002319335938e+01 -1.029461765289306641e+01 1.675148367881774902e+00 -4.361378252506256104e-01 3.717031776905059814e-01 5.448137521743774414e-01
3.234000000000000000e+03 1.299870491027832031e+01 1.332711791992187500e+01 -1.697043080639559776e-05 1.590564206708222628e-04 4.262579386704601347e-05 3.209588758181780577e-04
3.235000000000000000e+03 1.292948246002197266e+01 1.447677135467529297e+01 8.114992670016363263e-05 3.523228806443512440e-04 1.300418371101841331e-04 2.460278919897973537e-04
3.236000000000000000e+03 3.014112091064453125e+01 -3.082624673843383789e+00 -1.783503651618957520e+00 3.161509335041046143e-01 -4.402058124542236328e-01 -2.812937796115875244e-01
3.237000000000000000e+03 3.443680572509765625e+01 1.098567008972167969e+01 -1.949563855305314064e-03 -1.512549235485494137e-03 -1.038633985444903374e-03 1.854091067798435688e-03
3.238000000000000000e+03 3.972714614868164062e+01 -9.980612754821777344e+00 2.452381134033203125e+00 4.724180400371551514e-01 8.774397969245910645e-01 9.736675024032592773e-01
3.239000000000000000e+03 3.402898025512695312e+01 1.587466716766357422e+01 -2.210318297147750854e-02 -3.341820789501070976e-03 -7.633501198142766953e-03 1.857954449951648712e-02
3.240000000000000000e+03 1.513485336303710938e+01 8.459771156311035156e+00 -1.405528018949553370e-05 4.038175393361598253e-05 7.897941941337194294e-06 4.121318852412514389e-06
3.241000000000000000e+03 3.302825927734375000e+01 1.440458965301513672e+01 -9.211622178554534912e-03 -7.794817909598350525e-03 -5.101932212710380554e-03 1.180274412035942078e-02
3.242000000000000000e+03 1.723406410217285156e+01 5.463737964630126953e+00 2.001398752327077091e-05 -1.686678115220274776e-05 9.441617407901503611e-07 -1.709871867205947638e-05
3.243000000000000000e+03 1.845633506774902344e+01 5.553761482238769531e+00 4.777110007125884295e-06 3.917176854884019122e-06 2.608285967653500848e-06 -2.943916115327738225e-06
3.244000000000000000e+03 4.167736053466796875e+01 -9.748889923095703125e+00 1.590977787971496582e+00 -4.531585276126861572e-01 3.413457870483398438e-01 7.424915432929992676e-01
3.245000000000000000e+03 3.509631347656250000e+01 1.055981159210205078e+01 -2.488999394699931145e-03 -1.325516030192375183e-03 -1.144354697316884995e-03 1.328604295849800110e-03
3.246000000000000000e+03 3.522714614868164062e+01 1.182457447052001953e+01 -5.231815855950117111e-03 -1.466070243623107672e-04 -1.613526837900280952e-03 2.957662567496299744e-03
3.247000000000000000e+03 3.333445358276367188e+01 1.689262008666992188e+01 -2.612286433577537537e-02 -7.084120530635118484e-03 -9.962095879018306732e-03 2.389399148523807526e-02
3.248000000000000000e+03 3.291426849365234375e+01 1.693475532531738281e+01 -2.671709842979907990e-02 -1.029118243604898453e-02 -1.110248453915119171e-02 2.422140538692474365e-02
3.249000000000000000e+03 3.323942947387695312e+01 1.549137783050537109e+01 -1.534515246748924255e-02 -7.163404952734708786e-03 -6.752567365765571594e-03 1.634495705366134644e-02
3.250000000000000000e+03 3.516096115112304688e+01 1.000498199462890625e+01 -2.039540326222777367e-03 -5.715524312108755112e-04 -7.833277923054993153e-04 3.019664436578750610e-04
3.251000000000000000e+03 3.657526016235351562e+01 9.344335556030273438e+00 -4.677904944401234388e-04 -1.781513914465904236e-03 -6.747912848368287086e-04 2.649695088621228933e-04
3.252000000000000000e+03 3.451416015625000000e+01 1.052717113494873047e+01 -2.168504288420081139e-03 -2.707224630285054445e-04 -7.317680283449590206e-04 9.533967240713536739e-04
3.253000000000000000e+03 1.449777984619140625e+01 1.058192729949951172e+01 4.398085002321749926e-05 1.712934317765757442e-04 6.458228017436340451e-05 8.322620124090462923e-05
3.254000000000000000e+03 1.710208702087402344e+01 7.324365615844726562e+00 -6.410406786017119884e-05 1.149523359345039353e-05 -1.578264891577418894e-05 -1.215932479681214318e-05
3.255000000000000000e+03 1.660322761535644531e+01 7.940771102905273438e+00 -6.253304309211671352e-05 1.740391599014401436e-05 -1.353873904008651152e-05 -2.111347021127585322e-05
3.256000000000000000e+03 1.885649490356445312e+01 5.420844554901123047e+00 1.763793261488899589e-05 6.577603926416486502e-06 7.264660780492704362e-06 3.695693067129468545e-06
3.257000000000000000e+03 3.493828201293945312e+01 1.322426319122314453e+01 -1.202049665153026581e-02 -4.821945331059396267e-04 -3.750807372853159904e-03 6.706167478114366531e-03
3.258000000000000000e+03 3.428971099853515625e+01 1.284877777099609375e+01 -8.134372532367706299e-03 -1.935291686095297337e-03 -3.020899137482047081e-03 5.998760927468538284e-03
3.259000000000000000e+03 3.348731613159179688e+01 1.731615257263183594e+01 -3.220336884260177612e-02 -4.974720999598503113e-03 -1.115342695266008377e-02 2.532516792416572571e-02
3.260000000000000000e+03 3.520131301879882812e+01 8.353961944580078125e+00 3.528503875713795424e-04 -2.328516129637137055e-04 3.599963383749127388e-05 -1.624346914468333125e-04
3.261000000000000000e+03 3.523645019531250000e+01 7.182548522949218750e+00 -8.420992526225745678e-04 -3.399148408789187670e-04 -3.546042134985327721e-04 -4.662576830014586449e-04
3.262000000000000000e+03 3.450596237182617188e+01 1.380431556701660156e+01 -1.267843320965766907e-02 -1.683213282376527786e-03 -4.308493807911872864e-03 9.410439990460872650e-03
3.263000000000000000e+03 3.359571838378906250e+01 1.785439872741699219e+01 -3.512085974216461182e-02 -2.576378639787435532e-03 -1.130917109549045563e-02 2.546584606170654297e-02
3.264000000000000000e+03 3.767125320434570312e+01 -1.518721771240234375e+01 -8.867247700691223145e-01 3.152910470962524414e+00 6.798556447029113770e-01 2.251105755567550659e-02
3.265000000000000000e+03 1.207691287994384766e+01 1.596848487854003906e+01 1.434377772966399789e-04 -2.498566573194693774e-05 3.553563510649837554e-05 1.353029219899326563e-04
3.266000000000000000e+03 3.129495239257812500e+01 2.197853469848632812e+01 -5.159627273678779602e-02 -1.620038039982318878e-02 -2.033899538218975067e-02 1.786210760474205017e-02
3.267000000000000000e+03 2.104611396789550781e+01 2.447072029113769531e+01 -3.704629093408584595e-02 -8.470397442579269409e-03 -1.365500688552856445e-02 1.819619722664356232e-02
3.268000000000000000e+03 1.267215156555175781e+01 1.829209327697753906e+01 -4.478774499148130417e-04 1.687958319962490350e-05 -1.292993547394871712e-04 -1.360489986836910248e-04
3.269000000000000000e+03 1.322108745574951172e+01 1.933901596069335938e+01 -1.587397302500903606e-03 -1.755312696332111955e-04 -5.288785905577242374e-04 -2.280767803313210607e-04
3.270000000000000000e+03 3.997753524780273438e+01 -9.906701087951660156e+00 2.285319328308105469e+00 2.767166793346405029e-01 7.686107754707336426e-01 9.077702164649963379e-01
3.271000000000000000e+03 1.235242176055908203e+01 1.475817680358886719e+01 3.360151458764448762e-05 1.471469840907957405e-05 1.449486353521933779e-05 4.617761296685785055e-04
3.272000000000000000e+03 4.279806900024414062e+01 -1.051180171966552734e+01 1.312967419624328613e+00 -5.998893380165100098e-01 2.139234244823455811e-01 5.483586192131042480e-01
3.273000000000000000e+03 4.253176116943359375e+01 -1.009384536743164062e+01 1.357091188430786133e+00 -6.038945317268371582e-01 2.259590178728103638e-01 6.460894346237182617e-01
3.274000000000000000e+03 1.260228919982910156e+01 1.578665828704833984e+01 -3.720150562003254890e-05 1.004567020572721958e-04 1.897655965876765549e-05 4.690616042353212833e-04
3.275000000000000000e+03 2.694706344604492188e+01 -4.111461639404296875e+00 -5.275838971138000488e-01 4.541959986090660095e-02 -1.446492820978164673e-01 -8.341236114501953125e-01
3.276000000000000000e+03 2.676403808593750000e+01 -6.214488506317138672e+00 1.107808351516723633e+00 7.932002097368240356e-02 3.561384975910186768e-01 -8.021695613861083984e-01
3.277000000000000000e+03 1.649009895324707031e+01 7.420003890991210938e+00 -5.360966315492987633e-05 1.321757554251234978e-05 -1.211762719321995974e-05 -1.113512189476750791e-05
3.278000000000000000e+03 1.302185153961181641e+01 1.964088821411132812e+01 -2.780110109597444534e-03 3.632790467236191034e-04 -7.250493508763611317e-04 -2.838586224243044853e-04
3.279000000000000000e+03 1.385636520385742188e+01 2.239573097229003906e+01 -1.025399565696716309e-02 1.355349784716963768e-03 -2.669593784958124161e-03 2.184403827413916588e-03
3.280000000000000000e+03 2.248285102844238281e+01 2.498086357116699219e+01 -3.659872338175773621e-02 -1.321603916585445404e-02 -1.494442857801914215e-02 2.194182947278022766e-02
3.281000000000000000e+03 2.543063163757324219e+01 2.478753471374511719e+01 -4.049876704812049866e-02 -1.880825124680995941e-02 -1.779210567474365234e-02 2.606654167175292969e-02
3.282000000000000000e+03 2.517754554748535156e+01 2.403665161132812500e+01 -4.895422980189323425e-02 -1.800580509006977081e-02 -2.008801139891147614e-02 2.558007091283798218e-02
3.283000000000000000e+03 3.464345550537109375e+01 8.077775955200195312e+00 5.664175841957330704e-04 3.561044868547469378e-04 2.767566184047609568e-04 -2.737358445301651955e-04
3.284000000000000000e+03 3.270658493041992188e+01 1.989039230346679688e+01 -4.910955950617790222e-02 -6.039263214915990829e-03 -1.654464565217494965e-02 2.685481868684291840e-02
3.285000000000000000e+03 3.830318450927734375e+01 -1.593033504486083984e+01 -5.674743056297302246e-01 2.424954652786254883e+00 5.572441220283508301e-01 -4.825524240732192993e-02
3.286000000000000000e+03 3.808567047119140625e+01 -1.644009971618652344e+01 -5.024089217185974121e-01 2.427310943603515625e+00 5.774706006050109863e-01 7.217243313789367676e-02
3.287000000000000000e+03 1.424675559997558594e+01 2.203956794738769531e+01 -1.012561935931444168e-02 1.871616928838193417e-03 -2.476200694218277931e-03 8.865767740644514561e-04
3.288000000000000000e+03 1.388873577117919922e+01 2.177749633789062500e+01 -9.014333598315715790e-03 1.355589716695249081e-03 -2.297623315826058388e-03 8.795254980213940144e-04
3.289000000000000000e+03 3.347386932373046875e+01 -5.901581764221191406e+00 6.135466694831848145e-01 3.149461448192596436e-01 2.785478532314300537e-01 -1.980577409267425537e-01
3.290000000000000000e+03 3.166256904602050781e+01 2.155931854248046875e+01 -5.338396877050399780e-02 -1.228016149252653122e-02 -1.969924010336399078e-02 2.153104729950428009e-02
3.291000000000000000e+03 3.120404624938964844e+01 2.087083244323730469e+01 -5.909085273742675781e-02 -2.127542532980442047e-02 -2.410988323390483856e-02 2.733870036900043488e-02
3.292000000000000000e+03 1.219156837463378906e+01 1.299688339233398438e+01 1.716250335448421538e-05 1.479873481002869084e-05 9.588371540303342044e-06 3.242305829189717770e-04
3.293000000000000000e+03 2.355924987792968750e+01 2.440644836425781250e+01 -4.250942170619964600e-02 -1.408768631517887115e-02 -1.697913184762001038e-02 2.137167192995548248e-02
3.294000000000000000e+03 2.328037834167480469e+01 2.368034934997558594e+01 -5.314159020781517029e-02 -1.122178602963685989e-02 -1.930901221930980682e-02 2.012529782950878143e-02
3.295000000000000000e+03 1.264458274841308594e+01 1.898725128173828125e+01 -1.601874129846692085e-03 9.498392319073900580e-05 -4.520670627243816853e-04 -3.100501489825546741e-04
3.296000000000000000e+03 1.241745948791503906e+01 1.782306098937988281e+01 -5.013477639295160770e-04 -3.024942707270383835e-04 -2.411526074865832925e-04 1.651446800678968430e-04
3.297000000000000000e+03 1.342171764373779297e+01 1.147243404388427734e+01 5.126701125846011564e-06 2.085571759380400181e-04 6.410516652977094054e-05 8.875830098986625671e-05
3.298000000000000000e+03 1.661004447937011719e+01 6.699480056762695312e+00 3.051761450478807092e-05 4.404377614264376462e-05 2.236841828562319279e-05 -4.436414656083798036e-06
3.299000000000000000e+03 2.029937171936035156e+01 2.525718879699707031e+01 -2.857404574751853943e-02 -7.704376243054866791e-03 -1.088352594524621964e-02 1.895596273243427277e-02
3.300000000000000000e+03 1.383754730224609375e+01 1.055174446105957031e+01 5.549548950511962175e-05 1.147059592767618597e-04 5.106043317937292159e-05 1.316224515903741121e-04
3.301000000000000000e+03 2.682469940185546875e+01 -5.354435443878173828e+00 4.801754951477050781e-01 8.219137787818908691e-02 1.687100678682327271e-01 -9.117535948753356934e-01
3.302000000000000000e+03 1.527491188049316406e+01 2.288716697692871094e+01 -1.464252918958663940e-02 1.154909608885645866e-03 -4.046285990625619888e-03 3.725016722455620766e-03
3.303000000000000000e+03 4.405566787719726562e+01 -1.017897796630859375e+01 9.386391043663024902e-01 -6.659015417098999023e-01 8.182127773761749268e-02 7.801740765571594238e-01
3.304000000000000000e+03 4.481589126586914062e+01 -1.017063236236572266e+01 7.584605216979980469e-01 -6.158990263938903809e-01 4.276845231652259827e-02 8.533744215965270996e-01
3.305000000000000000e+03 1.824927330017089844e+01 2.418711090087890625e+01 -2.555466815829277039e-02 -1.713752397336065769e-03 -8.180526085197925568e-03 1.024003792554140091e-02
3.306000000000000000e+03 4.455586242675781250e+01 -8.171651840209960938e+00 5.489763021469116211e-01 -8.396491408348083496e-01 -8.720184862613677979e-02 1.194952368736267090e+00
3.307000000000000000e+03 4.326163482666015625e+01 -1.012882423400878906e+01 1.148802995681762695e+00 -6.635300517082214355e-01 1.455818861722946167e-01 7.001656293869018555e-01
3.308000000000000000e+03 1.940257453918457031e+01 2.525624465942382812e+01 -2.597521990537643433e-02 -5.544367246329784393e-03 -9.455876424908638000e-03 1.702301390469074249e-02
3.309000000000000000e+03 3.617837142944335938e+01 7.349933624267578125e+00 -7.930079009383916855e-04 -9.972656844183802605e-04 -5.370820872485637665e-04 -3.952010010834783316e-04
3.310000000000000000e+03 1.257919883728027344e+01 1.232611560821533203e+01 -1.235987110703717917e-05 9.153739665634930134e-05 2.375325675529893488e-05 2.728305989876389503e-04
3.311000000000000000e+03 1.350191688537597656e+01 1.080506992340087891e+01 -4.998504300601780415e-05 1.882152573671191931e-04 4.146906576352193952e-05 7.633044151589274406e-05
3.312000000000000000e+03 4.586303710937500000e+01 -1.064952182769775391e+01 5.538816452026367188e-01 -5.056247711181640625e-01 1.447706203907728195e-02 8.803335428237915039e-01
3.313000000000000000e+03 2.107305717468261719e+01 2.523426055908203125e+01 -3.049434721469879150e-02 -9.989974088966846466e-03 -1.214529667049646378e-02 2.039741352200508118e-02
3.314000000000000000e+03 3.291602706909179688e+01 -5.482836723327636719e+00 3.516721427440643311e-01 2.515296936035156250e-01 1.809605509042739868e-01 -3.495406359434127808e-02
3.315000000000000000e+03 3.404038619995117188e+01 -6.420918941497802734e+00 7.737309336662292480e-01 4.397179484367370605e-01 3.640346825122833252e-01 -3.545498251914978027e-01
3.316000000000000000e+03 1.309221839904785156e+01 2.127733802795410156e+01 -6.303001660853624344e-03 7.762638852000236511e-04 -1.658021355979144573e-03 4.359740705695003271e-04
3.317000000000000000e+03 1.320470523834228516e+01 2.183278083801269531e+01 -7.989361882209777832e-03 1.098162960261106491e-03 -2.067359630018472672e-03 1.005874248221516609e-03
3.318000000000000000e+03 3.057546424865722656e+01 2.256458091735839844e+01 -5.197282135486602783e-02 -2.171880751848220825e-02 -2.210748940706253052e-02 1.924144476652145386e-02
3.319000000000000000e+03 2.716013336181640625e+01 2.433723258972167969e+01 -4.005254060029983521e-02 -2.403358370065689087e-02 -1.922583766281604767e-02 2.614656463265419006e-02
3.320000000000000000e+03 1.605070495605468750e+01 2.350821685791015625e+01 -1.845578849315643311e-02 9.171971469186246395e-04 -5.261577200144529343e-03 6.338110193610191345e-03
3.321000000000000000e+03 2.943973159790039062e+01 2.284351158142089844e+01 -5.060704424977302551e-02 -2.939204499125480652e-02 -2.399972639977931976e-02 2.190525829792022705e-02
3.322000000000000000e+03 2.926669883728027344e+01 2.207444572448730469e+01 -6.451345235109329224e-02 -3.755091503262519836e-02 -3.061931021511554718e-02 2.818952314555644989e-02
3.323000000000000000e+03 3.586013793945312500e+01 -4.984961509704589844e+00 -8.120753169059753418e-01 8.378317356109619141e-01 7.726920302957296371e-03 2.416879236698150635e-01
3.324000000000000000e+03 3.739977645874023438e+01 -3.481715440750122070e+00 -1.847155451774597168e+00 8.762856125831604004e-01 -2.912609577178955078e-01 6.462284922599792480e-01
3.325000000000000000e+03 1.874884414672851562e+01 2.413950347900390625e+01 -2.823046036064624786e-02 -1.646287855692207813e-03 -8.963024243712425232e-03 1.128440815955400467e-02
3.326000000000000000e+03 1.897167015075683594e+01 2.471113777160644531e+01 -2.622706815600395203e-02 -2.935680793598294258e-03 -8.748824708163738251e-03 1.376910414546728134e-02
3.327000000000000000e+03 1.762845611572265625e+01 5.249592304229736328e+00 2.016197504417505115e-05 4.106848791707307100e-05 1.836913907027337700e-05 2.743009463301859796e-05
3.328000000000000000e+03 3.098782539367675781e+01 2.324435997009277344e+01 -3.882010281085968018e-02 -1.637651585042476654e-02 -1.655898615717887878e-02 1.358376070857048035e-02
3.329000000000000000e+03 2.941206169128417969e+01 2.239595031738281250e+01 -5.680707469582557678e-02 -3.426634147763252258e-02 -2.732202410697937012e-02 2.549670822918415070e-02
3.330000000000000000e+03 1.405763721466064453e+01 5.536162376403808594e+00 -1.741092091833706945e-05 1.659315967117436230e-05 -2.453286072068294743e-07 3.720357562997378409e-05
3.331000000000000000e+03 1.278911590576171875e+01 5.883424758911132812e+00 4.918298145639710128e-05 5.429413249657955021e-06 1.638371941226068884e-05 6.021848457749001682e-05
3.332000000000000000e+03 1.066914558410644531e+01 5.881582736968994141e+00 9.870592475635930896e-05 1.060334761859849095e-05 3.279278098489157856e-05 5.194281766307540238e-05
3.333000000000000000e+03 3.446057510375976562e+01 -4.391637802124023438e+00 -8.460355997085571289e-01 4.693287312984466553e-01 -1.130120679736137390e-01 2.323967963457107544e-01
3.334000000000000000e+03 1.477013397216796875e+01 5.508108615875244141e+00 3.770726834773086011e-05 2.229956771770957857e-05 1.800205063773319125e-05 6.694732292089611292e-06
3.335000000000000000e+03 1.227192497253417969e+01 6.229432582855224609e+00 -3.235778785892762244e-05 2.269292281198431738e-06 -9.026548468682449311e-06 3.318349990877322853e-05
3.336000000000000000e+03 3.616976547241210938e+01 -6.985854148864746094e+00 3.390206396579742432e-01 1.354697585105895996e+00 5.081154704093933105e-01 -4.090305864810943604e-01
3.337000000000000000e+03 3.539018249511718750e+01 -6.952739715576171875e+00 6.555218696594238281e-01 9.698026776313781738e-01 4.875973761081695557e-01 -5.678147077560424805e-01
3.338000000000000000e+03 4.567264556884765625e+01 -9.942023277282714844e+00 5.733179450035095215e-01 -5.672701001167297363e-01 1.814352814108133316e-03 1.001631498336791992e+00
3.339000000000000000e+03 9.416497230529785156e+00 5.240602016448974609e+00 8.127914770739153028e-05 1.613457061466760933e-05 2.922411476902198046e-05 -1.918017369462177157e-05
3.340000000000000000e+03 7.189675807952880859e+00 6.517857074737548828e+00 1.362490875180810690e-04 -7.843221828807145357e-05 1.734505895001348108e-05 2.249909630336333066e-05
3.341000000000000000e+03 4.817330169677734375e+01 -9.769950866699218750e+00 1.978254616260528564e-01 -1.767152249813079834e-01 6.333067547529935837e-03 1.209483265876770020e+00
3.342000000000000000e+03 2.878103828430175781e+01 2.319694519042968750e+01 -4.920283332467079163e-02 -3.051227889955043793e-02 -2.391453273594379425e-02 2.487975917756557465e-02
3.343000000000000000e+03 3.619600296020507812e+01 -3.744816303253173828e+00 -1.566847681999206543e+00 8.200587630271911621e-01 -2.240366935729980469e-01 5.009645223617553711e-01
3.344000000000000000e+03 3.511024475097656250e+01 -4.382395267486572266e+00 -9.854965806007385254e-01 5.924177765846252441e-01 -1.179236397147178650e-01 3.076042830944061279e-01
3.345000000000000000e+03 1.526973438262939453e+01 2.435068511962890625e+01 -1.553959026932716370e-02 4.385749052744358778e-04 -4.530304577201604843e-03 7.915352471172809601e-03
3.346000000000000000e+03 2.794250297546386719e+01 -5.571137905120849609e+00 6.332874894142150879e-01 4.986789226531982422e-01 3.395899236202239990e-01 -8.052656054496765137e-01
3.347000000000000000e+03 2.896171569824218750e+01 -5.870478630065917969e+00 9.174028038978576660e-01 6.332999467849731445e-01 4.652108252048492432e-01 -6.549729108810424805e-01
3.348000000000000000e+03 1.954248809814453125e+01 -7.139008045196533203e+00 2.047826200723648071e-01 -1.996392309665679932e-01 1.543017453514039516e-03 -3.836542665958404541e-01
3.349000000000000000e+03 3.010372161865234375e+01 -5.766512870788574219e+00 8.010786771774291992e-01 6.782221794128417969e-01 4.437902569770812988e-01 -3.835368454456329346e-01
3.350000000000000000e+03 1.667942237854003906e+01 5.163776397705078125e+00 3.414832463022321463e-05 1.510948277427814901e-05 1.477734167565358803e-05 -2.518173278076574206e-05
3.351000000000000000e+03 1.687386322021484375e+01 6.249732971191406250e+00 -3.961389666073955595e-05 1.803050690796226263e-05 -6.475017016782658175e-06 9.718664841784629971e-07
3.352000000000000000e+03 3.220554351806640625e+01 -4.918756961822509766e+00 -2.246416173875331879e-02 2.895256280899047852e-01 8.011844009160995483e-02 -7.144011557102203369e-02
3.353000000000000000e+03 3.192642593383789062e+01 -5.436666011810302734e+00 3.746739625930786133e-01 3.601282238960266113e-01 2.204406559467315674e-01 -5.740963667631149292e-02
3.354000000000000000e+03 9.598260879516601562e+00 5.844262599945068359e+00 7.563528197351843119e-05 -2.646049324539490044e-05 1.475243698223493993e-05 7.013395952526479959e-05
3.355000000000000000e+03 1.044956684112548828e+01 4.931578636169433594e+00 9.751597099239006639e-05 3.137569819955388084e-06 3.019606265297625214e-05 2.341127219551708549e-05
3.356000000000000000e+03 6.042368412017822266e+00 -6.310432434082031250e+00 -2.158531919121742249e-02 -7.183405756950378418e-02 -2.802581340074539185e-02 -5.547400563955307007e-02
3.357000000000000000e+03 9.725736618041992188e+00 -7.706706523895263672e+00 -1.165628060698509216e-02 -1.662088930606842041e-01 -5.335955321788787842e-02 -1.303059607744216919e-01
3.358000000000000000e+03 1.105447769165039062e+01 -5.967398166656494141e+00 -4.466577246785163879e-02 -1.391990780830383301e-01 -5.515945702791213989e-02 -1.698513329029083252e-01
3.359000000000000000e+03 5.955772399902343750e+00 6.214854240417480469e+00 1.170665927929803729e-04 -7.055220339680090547e-05 1.395431445416761562e-05 1.516062457085354254e-05
3.360000000000000000e+03 2.080739021301269531e+01 -4.884047031402587891e+00 -1.435834616422653198e-01 -1.095707193017005920e-01 -7.594625651836395264e-02 -5.269908308982849121e-01
3.361000000000000000e+03 2.639077758789062500e+01 -5.121878147125244141e+00 2.634932398796081543e-01 2.111624181270599365e-02 8.538284152746200562e-02 -8.731626868247985840e-01
3.362000000000000000e+03 2.580237579345703125e+01 -5.982131958007812500e+00 7.525278329849243164e-01 -5.708027258515357971e-02 2.086342573165893555e-01 -7.794169783592224121e-01
3.363000000000000000e+03 1.717266654968261719e+01 2.440751647949218750e+01 -2.019003964960575104e-02 -5.948890466243028641e-04 -6.235478445887565613e-03 9.528293274343013763e-03
3.364000000000000000e+03 1.775570106506347656e+01 2.415988349914550781e+01 -2.325979620218276978e-02 -7.407666998915374279e-04 -7.200168911367654800e-03 9.756933897733688354e-03
3.365000000000000000e+03 7.200279998779296875e+01 -9.632231712341308594e+00 -4.519759416580200195e-01 2.606549486517906189e-02 -1.277731359004974365e-01 -4.701482355594635010e-01
3.366000000000000000e+03 8.312040328979492188e+00 -7.266843795776367188e+00 -2.188504673540592194e-02 -1.264997273683547974e-01 -4.451543465256690979e-02 -1.007731407880783081e-01
3.367000000000000000e+03 2.116786766052246094e+01 -6.680336952209472656e+00 2.818289995193481445e-01 -2.041667252779006958e-01 2.329868637025356293e-02 -4.681968390941619873e-01
3.368000000000000000e+03 2.031899833679199219e+01 -5.507421016693115234e+00 -1.677119173109531403e-02 -1.460690498352050781e-01 -4.885207116603851318e-02 -4.847868382930755615e-01
3.369000000000000000e+03 7.186952972412109375e+01 -2.415013313293457031e+01 -4.803201882168650627e-04 -3.796266682911664248e-04 -2.579840656835585833e-04 -7.507354894187301397e-05
3.370000000000000000e+03 3.841685485839843750e+01 1.838368034362792969e+01 -4.213365167379379272e-02 2.234817296266555786e-02 -5.935643799602985382e-03 1.252303924411535263e-02
3.371000000000000000e+03 6.694393157958984375e+00 5.798995018005371094e+00 4.944974989484762773e-06 -5.977184628136456013e-06 -3.096629370702430606e-07 -4.721479490399360657e-05
3.372000000000000000e+03 1.463879489898681641e+01 -4.772536754608154297e+00 -1.159158721566200256e-01 -1.531900763511657715e-01 -8.073178678750991821e-02 -2.919667661190032959e-01
3.373000000000000000e+03 1.622235107421875000e+01 -6.559791088104248047e+00 3.489492461085319519e-02 -2.229845821857452393e-01 -5.642689764499664307e-02 -3.390924334526062012e-01
3.374000000000000000e+03 1.412461566925048828e+01 -5.206310272216796875e+00 -8.909375965595245361e-02 -1.617159843444824219e-01 -7.524292171001434326e-02 -2.771131098270416260e-01
3.375000000000000000e+03 4.100379562377929688e+01 -6.503880023956298828e+00 -2.018997073173522949e-01 -2.209413349628448486e-01 -1.268523186445236206e-01 1.054615616798400879e+00
3.376000000000000000e+03 4.226811981201171875e+01 -7.279761314392089844e+00 3.138074278831481934e-01 -6.231467723846435547e-01 -9.280180931091308594e-02 1.158121705055236816e+00
3.377000000000000000e+03 2.598470878601074219e+01 2.467734146118164062e+01 -3.966274857521057129e-02 -2.187032438814640045e-02 -1.845992170274257660e-02 2.632919140160083771e-02
3.378000000000000000e+03 2.465044403076171875e+01 2.432089996337890625e+01 -4.642948508262634277e-02 -1.631852611899375916e-02 -1.882440410554409027e-02 2.518802508711814880e-02
3.379000000000000000e+03 3.688873291015625000e+01 -7.890976428985595703e+00 4.995413422584533691e-01 1.988406896591186523e+00 7.463845014572143555e-01 -2.871198952198028564e-01
3.380000000000000000e+03 1.923975944519042969e+01 -6.562461376190185547e+00 1.098937466740608215e-01 -1.923275738954544067e-01 -2.473014965653419495e-02 -4.060412943363189697e-01
3.381000000000000000e+03 3.294491195678710938e+01 -6.518518447875976562e+00 1.270941019058227539e+00 2.179733812808990479e-01 4.466743171215057373e-01 -2.850319445133209229e-01
3.382000000000000000e+03 5.825902462005615234e+00 1.858155822753906250e+01 -2.957133983727544546e-04 -5.259673343971371651e-04 -2.465042343828827143e-04 -9.253339158021844923e-06
3.383000000000000000e+03 6.215494918823242188e+01 -5.817578315734863281e+00 -2.431067696306854486e-04 3.218750357627868652e-01 9.648957848548889160e-02 -1.171346753835678101e-01
3.384000000000000000e+03 6.349561309814453125e+01 -7.568250656127929688e+00 -4.380317628383636475e-01 -6.328656524419784546e-02 -1.503954976797103882e-01 -3.786963820457458496e-01
3.385000000000000000e+03 5.843369007110595703e+00 1.959132766723632812e+01 -1.133947982452809811e-03 -5.837651551701128483e-04 -5.153139354661107063e-04 3.311603213660418987e-04
3.386000000000000000e+03 6.262184619903564453e+00 2.178394126892089844e+01 -1.875394256785511971e-03 -8.513311040587723255e-04 -8.180176373571157455e-04 1.236363896168768406e-03
3.387000000000000000e+03 7.979812145233154297e+00 -6.470370769500732422e+00 -2.666248381137847900e-02 -1.046521142125129700e-01 -3.939437866210937500e-02 -9.352081269025802612e-02
3.388000000000000000e+03 4.035545349121093750e+01 -6.620205879211425781e+00 -1.692816913127899170e-01 1.500760316848754883e-01 -5.761696025729179382e-03 9.550129771232604980e-01
3.389000000000000000e+03 3.946319961547851562e+01 -8.677948951721191406e+00 1.274729013442993164e+00 1.040996193885803223e+00 6.947175860404968262e-01 1.106702685356140137e+00
3.390000000000000000e+03 7.035176086425781250e+01 -5.987375259399414062e+00 -2.520535588264465332e-01 -2.218687720596790314e-02 -8.227212727069854736e-02 -7.531602978706359863e-01
3.391000000000000000e+03 6.795815277099609375e+01 -6.268704414367675781e+00 -3.248696029186248779e-01 6.232345476746559143e-02 -7.876384258270263672e-02 -7.575155496597290039e-01
3.392000000000000000e+03 7.047797203063964844e+00 -5.735089302062988281e+00 -3.118016384541988373e-02 -7.462102174758911133e-02 -3.174035623669624329e-02 -7.189565896987915039e-02
3.393000000000000000e+03 5.950407505035400391e+00 -7.122098445892333984e+00 -1.961722411215305328e-02 -8.247706294059753418e-02 -3.062828630208969116e-02 -5.759912356734275818e-02
3.394000000000000000e+03 6.498699188232421875e+00 6.959366321563720703e+00 3.438600970184779726e-06 -1.645914744585752487e-05 -3.906164238287601620e-06 -6.528000085381790996e-05
3.395000000000000000e+03 5.833516120910644531e+00 9.663117408752441406e+00 1.710324722807854414e-04 -5.081299241282977164e-05 3.606584505178034306e-05 -1.654395164223387837e-04
3.396000000000000000e+03 3.643989181518554688e+01 7.964349746704101562e+00 7.871930138207972050e-04 -5.564577295444905758e-04 6.922058673808351159e-05 -6.779019167879596353e-05
3.397000000000000000e+03 7.184918212890625000e+01 -5.697239041328430176e-01 1.124615892767906189e-01 -1.971881091594696045e-01 -2.541795559227466583e-02 -7.166526317596435547e-01
3.398000000000000000e+03 7.343213653564453125e+01 -3.049188137054443359e+00 -3.156376630067825317e-02 -3.744864463806152344e-01 -1.218150705099105835e-01 -7.002277374267578125e-01
3.399000000000000000e+03 1.021806144714355469e+01 -1.224457550048828125e+01 -2.083389833569526672e-02 -2.368084043264389038e-01 -7.729268819093704224e-02 -9.319889545440673828e-02
3.400000000000000000e+03 6.605352020263671875e+01 -7.612059593200683594e+00 -5.640605092048645020e-01 -5.189345404505729675e-02 -1.847861856222152710e-01 -6.976931691169738770e-01
3.401000000000000000e+03 6.543446350097656250e+01 -6.564994812011718750e+00 -2.770628035068511963e-01 2.191928401589393616e-02 -7.654305547475814819e-02 -6.128022670745849609e-01
3.402000000000000000e+03 7.807630062103271484e+00 -5.157213687896728516e+00 -4.069337248802185059e-02 -7.275111228227615356e-02 -3.403334692120552063e-02 -8.281844109296798706e-02
3.403000000000000000e+03 2.434794425964355469e+01 -5.491965770721435547e+00 2.440708428621292114e-01 -1.571547091007232666e-01 2.607484161853790283e-02 -7.967292070388793945e-01
3.404000000000000000e+03 2.504891967773437500e+01 -6.309657573699951172e+00 7.505847215652465820e-01 -1.959905177354812622e-01 1.663782596588134766e-01 -6.934024095535278320e-01
3.405000000000000000e+03 3.657503509521484375e+01 8.642943382263183594e+00 -1.267371582798659801e-03 -8.719986071810126305e-04 -6.418110569939017296e-04 1.525422703707590699e-04
3.406000000000000000e+03 7.849502563476562500e+00 6.117185115814208984e+00 8.327853720402345061e-06 -1.870099731604568660e-05 -3.111942760369856842e-06 -4.433892172528430820e-05
3.407000000000000000e+03 1.414957523345947266e+01 -6.295836925506591797e+00 -1.968636363744735718e-02 -2.016412317752838135e-01 -6.639827787876129150e-02 -2.763593792915344238e-01
3.408000000000000000e+03 4.389220046997070312e+01 -8.027562141418457031e+00 5.239760875701904297e-01 -8.637385368347167969e-01 -1.019287258386611938e-01 1.142120122909545898e+00
3.409000000000000000e+03 7.945287704467773438e+00 -1.253847217559814453e+01 -2.376817725598812103e-02 -1.821292340755462646e-01 -6.176922097802162170e-02 -8.264915645122528076e-02
3.410000000000000000e+03 6.683187866210937500e+01 7.310064792633056641e+00 5.137998461723327637e-01 1.585908889770507812e+00 6.299126148223876953e-01 -5.289455875754356384e-02
3.411000000000000000e+03 3.714369964599609375e+01 1.011948108673095703e+01 -2.302990527823567390e-03 -2.003746340051293373e-03 -1.292021013796329498e-03 1.085431431420147419e-03
3.412000000000000000e+03 1.276526165008544922e+01 -6.422164916992187500e+00 -2.367594093084335327e-02 -1.870132088661193848e-01 -6.320674717426300049e-02 -2.290814220905303955e-01
3.413000000000000000e+03 4.662602233886718750e+01 -1.084556961059570312e+01 4.070255160331726074e-01 -4.062083959579467773e-01 2.451345208100974560e-04 9.447835087776184082e-01
3.414000000000000000e+03 3.877186203002929688e+01 -4.863522052764892578e+00 -1.417461037635803223e+00 7.270868420600891113e-01 -2.071122676134109497e-01 6.870334148406982422e-01
3.415000000000000000e+03 6.534352874755859375e+01 2.001895904541015625e-01 4.135023057460784912e-01 9.574871659278869629e-01 4.112968444824218750e-01 -1.855908483266830444e-01
3.416000000000000000e+03 6.262751007080078125e+01 1.149073600769042969e+00 6.497846841812133789e-01 1.624560832977294922e+00 6.823036074638366699e-01 4.602749645709991455e-01
3.417000000000000000e+03 4.313403701782226562e+01 -8.371938705444335938e+00 7.628934979438781738e-01 -7.666999101638793945e-01 -1.141926390118896961e-03 1.050630688667297363e+00
3.418000000000000000e+03 4.194851303100585938e+01 -9.497305870056152344e+00 1.399222970008850098e+00 -5.239674448966979980e-01 2.625766396522521973e-01 7.985625267028808594e-01
3.419000000000000000e+03 6.138704776763916016e+00 1.165678501129150391e+01 2.181956078857183456e-04 -1.886980171548202634e-04 8.849277946865186095e-06 -1.496599579695612192e-04
3.420000000000000000e+03 6.670781612396240234e+00 1.597691917419433594e+01 -2.704804646782577038e-04 -4.541674861684441566e-04 -2.173943794332444668e-04 -1.705351460259407759e-04
3.421000000000000000e+03 2.208697509765625000e+01 -6.564428329467773438e+00 2.898892164230346680e-01 -1.925836801528930664e-01 2.919165976345539093e-02 -5.086008906364440918e-01
3.422000000000000000e+03 3.737972259521484375e+01 -4.151123046875000000e+00 -1.501789331436157227e+00 9.437003731727600098e-01 -1.674266904592514038e-01 5.630576014518737793e-01
3.423000000000000000e+03 3.800910186767578125e+01 -4.234877109527587891e+00 -1.599462032318115234e+00 8.788977265357971191e-01 -2.161692827939987183e-01 6.531350016593933105e-01
3.424000000000000000e+03 4.025507354736328125e+01 -5.898907661437988281e+00 -7.266077995300292969e-01 4.705761373043060303e-02 -2.038650661706924438e-01 8.665866255760192871e-01
3.425000000000000000e+03 3.879849624633789062e+01 -5.611922264099121094e+00 -8.993633389472961426e-01 8.408692479133605957e-01 -1.754823699593544006e-02 6.548866033554077148e-01
3.426000000000000000e+03 1.205023670196533203e+01 -9.876988410949707031e+00 3.834104910492897034e-02 -2.707292139530181885e-01 -6.971645355224609375e-02 -1.437355428934097290e-01
3.427000000000000000e+03 1.255494499206542969e+01 -1.058458614349365234e+01 4.690084978938102722e-02 -2.970385253429412842e-01 -7.504130154848098755e-02 -1.291057467460632324e-01
3.428000000000000000e+03 6.422128677368164062e+00 1.258044624328613281e+01 7.128333527361974120e-05 -2.748067199718207121e-04 -6.105702050263062119e-05 -6.206701073097065091e-05
3.429000000000000000e+03 7.358437347412109375e+01 -8.215620994567871094e+00 -2.746473848819732666e-01 -1.276114583015441895e-01 -1.206776574254035950e-01 -5.267147421836853027e-01
3.430000000000000000e+03 1.753475761413574219e+01 -8.311873435974121094e+00 1.779564917087554932e-01 -2.273174822330474854e-01 -1.480829622596502304e-02 -3.108445107936859131e-01
3.431000000000000000e+03 2.211616134643554688e+01 -4.926978111267089844e+00 -1.464422941207885742e-01 -8.318189531564712524e-02 -6.888725608587265015e-02 -6.111038327217102051e-01
3.432000000000000000e+03 3.501305389404296875e+01 -6.514290809631347656e+00 5.084096789360046387e-01 7.474112510681152344e-01 3.767462968826293945e-01 -3.847298324108123779e-01
3.433000000000000000e+03 3.453953170776367188e+01 -6.963406085968017578e+00 9.964881539344787598e-01 5.853798985481262207e-01 4.745604097843170166e-01 -5.855342745780944824e-01
3.434000000000000000e+03 5.938847064971923828e+00 2.777081298828125000e+01 -1.276061986573040485e-03 -3.384282812476158142e-03 -1.398103428073227406e-03 4.696072079241275787e-03
3.435000000000000000e+03 7.223136901855468750e+01 -1.048907184600830078e+01 -4.488334059715270996e-01 4.253210127353668213e-02 -1.218903884291648865e-01 -3.998132348060607910e-01
3.436000000000000000e+03 9.383462905883789062e+00 -1.279259872436523438e+01 -2.817013300955295563e-02 -2.158849537372589111e-01 -7.321652770042419434e-02 -8.928529918193817139e-02
3.437000000000000000e+03 7.478899383544921875e+01 -2.519806480407714844e+01 -2.475610235705971718e-04 -2.170223597204312682e-04 -1.393750135321170092e-04 3.118619133601896465e-05
3.438000000000000000e+03 7.397024536132812500e+01 -2.349974632263183594e+01 -1.869527040980756283e-04 -4.021190397907048464e-04 -1.767215289874002337e-04 -4.783458280144259334e-05
3.439000000000000000e+03 7.390131378173828125e+01 -2.595301628112792969e+01 -4.422499332576990128e-04 -1.739341096254065633e-04 -1.848552201408892870e-04 2.598449354991316795e-04
3.440000000000000000e+03 1.477764225006103516e+01 -8.743337631225585938e+00 1.127703636884689331e-01 -2.866689562797546387e-01 -5.216958001255989075e-02 -2.491883337497711182e-01
3.441000000000000000e+03 1.575408554077148438e+01 -7.285268783569335938e+00 6.343719363212585449e-02 -2.405233234167098999e-01 -5.312583968043327332e-02 -3.080936670303344727e-01
3.442000000000000000e+03 8.321868896484375000e+00 3.500161743164062500e+01 1.953052589669823647e-03 -8.901238441467285156e-03 -2.084455685690045357e-03 6.598045118153095245e-03
3.443000000000000000e+03 1.000814437866210938e+01 -1.833409118652343750e+01 -4.684301465749740601e-02 -2.435283213853836060e-01 -8.711139857769012451e-02 -1.390975713729858398e-01
3.444000000000000000e+03 8.635026931762695312e+00 -2.034389305114746094e+01 -8.551563136279582977e-03 -2.325694262981414795e-01 -7.233629375696182251e-02 -1.369545310735702515e-01
3.445000000000000000e+03 7.643765258789062500e+01 2.067235755920410156e+01 6.231215968728065491e-02 -1.565970420837402344e+00 -4.510974586009979248e-01 3.037541806697845459e-01
3.446000000000000000e+03 5.855386734008789062e+01 -9.165226936340332031e+00 -7.173818945884704590e-01 4.727108776569366455e-01 -7.340130209922790527e-02 2.822188101708889008e-02
3.447000000000000000e+03 7.226213836669921875e+01 -2.537351417541503906e+01 -5.386593984439969063e-04 -8.250356040662154555e-05 -1.863489014795050025e-04 2.044540015049278736e-04
3.448000000000000000e+03 5.983545684814453125e+01 -7.091626167297363281e+00 -1.117585599422454834e-01 4.843496680259704590e-01 1.117773279547691345e-01 1.179780960083007812e-01
3.449000000000000000e+03 7.107963562011718750e+01 -3.479547119140625000e+01 -3.873973037116229534e-04 -2.260655630379915237e-03 -7.944158278405666351e-04 3.830854780972003937e-03
3.450000000000000000e+03 7.253303527832031250e+01 1.712353706359863281e+01 3.206445276737213135e-01 -3.451487720012664795e-01 -7.351269479840993881e-03 2.236435264348983765e-01
3.451000000000000000e+03 9.755379676818847656e+00 -2.496590614318847656e+01 5.309232696890830994e-02 -2.263304740190505981e-01 -5.197144299745559692e-02 -1.069429069757461548e-01
3.452000000000000000e+03 7.233993530273437500e+01 4.822546482086181641e+00 2.425408363342285156e-01 -2.792748510837554932e-01 -1.102020498365163803e-02 -4.968318939208984375e-01
3.453000000000000000e+03 6.207349777221679688e+01 -1.627535462379455566e+00 5.952306985855102539e-01 1.055578827857971191e+00 4.952428638935089111e-01 2.919054627418518066e-01
3.454000000000000000e+03 5.932934951782226562e+01 -8.565608978271484375e+00 -5.498412847518920898e-01 3.941490948200225830e-01 -4.670765623450279236e-02 5.701723694801330566e-02
3.455000000000000000e+03 4.550703430175781250e+01 -3.338025283813476562e+01 1.783413439989089966e-02 1.880879700183868408e-01 6.177663058042526245e-02 -1.495327949523925781e-01
3.456000000000000000e+03 4.358294677734375000e+01 2.383596038818359375e+01 1.090780273079872131e-02 3.740071505308151245e-02 1.449255552142858505e-02 -8.999274112284183502e-03
3.457000000000000000e+03 3.551694393157958984e+00 -2.493932151794433594e+01 8.792412467300891876e-03 -2.949824035167694092e-01 -8.585699647665023804e-02 -7.147464156150817871e-02
3.458000000000000000e+03 7.362623596191406250e+01 -4.171878337860107422e+00 -6.686193495988845825e-02 -3.500740230083465576e-01 -1.250807940959930420e-01 -6.868504881858825684e-01
3.459000000000000000e+03 7.185974884033203125e+01 7.773951292037963867e-01 1.510254591703414917e-01 -2.033904045820236206e-01 -1.570948585867881775e-02 -6.626673340797424316e-01
3.460000000000000000e+03 7.923889160156250000e+00 -3.175997924804687500e+01 3.631595894694328308e-02 -2.508546411991119385e-01 -6.436160206794738770e-02 -5.521996319293975830e-02
3.461000000000000000e+03 6.912556457519531250e+01 1.369814586639404297e+01 5.553013682365417480e-01 9.756286144256591797e-01 4.592790007591247559e-01 -4.350113868713378906e-02
3.462000000000000000e+03 7.092560291290283203e+00 -1.317705821990966797e+01 -2.786288596689701080e-02 -1.706724315881729126e-01 -5.956059694290161133e-02 -7.847820222377777100e-02
3.463000000000000000e+03 7.665506839752197266e+00 -1.384539508819580078e+01 -3.704030439257621765e-02 -1.851096153259277344e-01 -6.664497405290603638e-02 -8.690980821847915649e-02
3.464000000000000000e+03 7.121118927001953125e+01 1.439052867889404297e+01 4.138205349445343018e-01 1.486324369907379150e-01 1.687358915805816650e-01 3.698447719216346741e-02
3.465000000000000000e+03 7.276596069335937500e+01 1.324416542053222656e+01 3.048490285873413086e-01 -4.333562850952148438e-01 -3.855217620730400085e-02 -2.573466300964355469e-02
3.466000000000000000e+03 6.904650878906250000e+01 2.510461616516113281e+01 -1.015647500753402710e-02 6.332180500030517578e-01 1.869184672832489014e-01 5.222917795181274414e-01
3.467000000000000000e+03 4.020544815063476562e+01 1.973316955566406250e+01 -4.381586238741874695e-02 3.166023269295692444e-02 -3.646689234301447868e-03 6.551683414727449417e-03
3.468000000000000000e+03 5.750796890258789062e+01 2.779010772705078125e+01 4.230697825551033020e-02 8.525159955024719238e-01 2.684468924999237061e-01 -5.448358058929443359e-01
3.469000000000000000e+03 2.835804557800292969e+01 -3.222757577896118164e+00 -1.513267993927001953e+00 9.572675824165344238e-02 -4.252623617649078369e-01 -4.672000706195831299e-01
3.470000000000000000e+03 4.192350387573242188e+01 -1.004829597473144531e+01 1.551517605781555176e+00 -5.028028488159179688e-01 3.146144151687622070e-01 6.256165504455566406e-01
3.471000000000000000e+03 2.936116600036621094e+01 -3.174237251281738281e+00 -1.701451659202575684e+00 2.499576658010482788e-01 -4.354481995105743408e-01 -3.447408080101013184e-01
3.472000000000000000e+03 4.041738128662109375e+01 -9.993866920471191406e+00 2.154414176940917969e+00 -2.323110960423946381e-02 6.393549442291259766e-01 7.511834502220153809e-01
3.473000000000000000e+03 3.467227172851562500e+01 1.544520950317382812e+01 -2.215958014130592346e-02 3.053545078728348017e-04 -6.556267850100994110e-03 1.601792685687541962e-02
3.474000000000000000e+03 3.365895843505859375e+01 1.667260551452636719e+01 -2.705036662518978119e-02 -5.696642212569713593e-03 -9.824102744460105896e-03 2.344919927418231964e-02
3.475000000000000000e+03 2.967151451110839844e+01 -3.330717802047729492e+00 -1.518660783767700195e+00 3.326168954372406006e-01 -3.558131754398345947e-01 -3.570657968521118164e-01
3.476000000000000000e+03 3.570248031616210938e+01 1.062680721282958984e+01 -3.710078308358788490e-03 -5.093720974400639534e-04 -1.265835133381187916e-03 4.002327041234821081e-04
3.477000000000000000e+03 3.352933120727539062e+01 1.518424892425537109e+01 -1.591117680072784424e-02 -7.437763735651969910e-03 -7.004682440310716629e-03 1.625377871096134186e-02
3.478000000000000000e+03 3.409970474243164062e+01 1.484904193878173828e+01 -1.623961888253688812e-02 -2.703612670302391052e-03 -5.682969465851783752e-03 1.410251576453447342e-02
3.479000000000000000e+03 3.505779647827148438e+01 1.373925018310546875e+01 -1.387738902121782303e-02 9.134962456300854683e-04 -3.889167914167046547e-03 9.815809316933155060e-03
3.480000000000000000e+03 1.453270435333251953e+01 9.021827697753906250e+00 -6.351383490255102515e-05 5.635922934743575752e-05 -2.146382485079811886e-06 5.961345959804020822e-05
3.481000000000000000e+03 1.551523494720458984e+01 7.089405536651611328e+00 3.993447535322047770e-05 4.629031900549307466e-05 2.586743903520982713e-05 1.349821832263842225e-05
3.482000000000000000e+03 3.406086349487304688e+01 1.536150455474853516e+01 -1.934282667934894562e-02 -2.238182816654443741e-03 -6.474302615970373154e-03 1.676278188824653625e-02
3.483000000000000000e+03 1.553118038177490234e+01 8.242550849914550781e+00 -1.753932519932277501e-05 7.751357043161988258e-05 1.799227356968913227e-05 3.766909503610804677e-05
3.484000000000000000e+03 3.464685440063476562e+01 1.219989871978759766e+01 -7.754516322165727615e-03 -1.121377456001937389e-03 -2.662768121808767319e-03 4.196530207991600037e-03
3.485000000000000000e+03 3.646649551391601562e+01 1.003006267547607422e+01 -3.329397877678275108e-03 -8.565803000237792730e-05 -1.024516765028238297e-03 -2.573282690718770027e-04
3.486000000000000000e+03 1.224957847595214844e+01 1.648305511474609375e+01 -2.118116208293940872e-05 -2.226399083156138659e-04 -7.314632239285856485e-05 4.322544846218079329e-04
3.487000000000000000e+03 2.842074966430664062e+01 -5.756481647491455078e+00 7.959101200103759766e-01 4.829365015029907227e-01 3.836539983749389648e-01 -6.680471897125244141e-01
3.488000000000000000e+03 1.252659893035888672e+01 1.528282642364501953e+01 2.902701671700924635e-04 1.458234910387545824e-04 1.308281061938032508e-04 2.213749103248119354e-04
3.489000000000000000e+03 1.207036018371582031e+01 1.423535823822021484e+01 2.086633030558004975e-04 4.643969441531226039e-05 7.653090142412111163e-05 2.142574667232111096e-04
3.490000000000000000e+03 1.487908172607421875e+01 9.288659095764160156e+00 3.568870670278556645e-05 1.269139611395075917e-04 4.878079926129430532e-05 2.251417754450812936e-05
3.491000000000000000e+03 3.579420852661132812e+01 1.417582798004150391e+01 -1.844777353107929230e-02 3.838081844151020050e-03 -4.382907878607511520e-03 9.907068684697151184e-03
3.492000000000000000e+03 3.405348968505859375e+01 1.434606742858886719e+01 -1.331459172070026398e-02 -3.306665457785129547e-03 -4.986376967281103134e-03 1.201192196458578110e-02
3.493000000000000000e+03 1.190940570831298828e+01 1.547500705718994141e+01 2.123639887940953486e-06 -1.935066247824579477e-04 -5.741489803767763078e-05 4.816978180315345526e-04
3.494000000000000000e+03 1.839343643188476562e+01 2.527262687683105469e+01 -2.309935912489891052e-02 -3.694133833050727844e-03 -8.038047701120376587e-03 1.521725766360759735e-02
3.495000000000000000e+03 1.232666015625000000e+01 1.730488586425781250e+01 -2.687477353902067989e-05 -4.441910277819260955e-05 -2.138816307706292719e-05 1.120497472584247589e-04
3.496000000000000000e+03 1.175635147094726562e+01 1.732553863525390625e+01 -4.788278602063655853e-04 -4.265413735993206501e-04 -2.716107701417058706e-04 2.959153789561241865e-04
3.497000000000000000e+03 1.671925926208496094e+01 7.144919395446777344e+00 5.151424920768477023e-05 3.348636164446361363e-05 2.550018325564451516e-05 7.804967935953754932e-06
3.498000000000000000e+03 1.550921058654785156e+01 5.435214042663574219e+00 -1.226519907504552975e-05 1.507681099610636011e-05 8.434835763182491064e-07 2.501218841644003987e-05
3.499000000000000000e+03 3.983353042602539062e+01 -7.390384197235107422e+00 3.298252522945404053e-01 5.981763005256652832e-01 2.784004807472229004e-01 9.801023602485656738e-01
3.500000000000000000e+03 1.430593681335449219e+01 9.355690002441406250e+00 3.076747452723793685e-05 1.434763835277408361e-04 5.227315705269575119e-05 3.713803744176402688e-05
3.501000000000000000e+03 1.414226627349853516e+01 1.026782608032226562e+01 -6.181168282637372613e-05 1.302757300436496735e-04 2.053921161859761924e-05 5.408706419984810054e-05
3.502000000000000000e+03 3.064915084838867188e+01 -3.442395687103271484e+00 -1.511601328849792480e+00 3.398893177509307861e-01 -3.515135943889617920e-01 -2.656462192535400391e-01
3.503000000000000000e+03 1.241183948516845703e+01 1.350769042968750000e+01 1.801471953513100743e-04 1.433547295164316893e-04 9.705057891551405191e-05 2.295363519806414843e-04
3.504000000000000000e+03 1.196321201324462891e+01 1.246766757965087891e+01 1.823734783101826906e-04 2.385416519246064126e-05 6.186829705256968737e-05 1.955760526470839977e-04
3.505000000000000000e+03 3.518185806274414062e+01 1.428273200988769531e+01 -1.751270703971385956e-02 7.955780019983649254e-04 -5.015138536691665649e-03 1.082694530487060547e-02
3.506000000000000000e+03 3.671747207641601562e+01 1.300614738464355469e+01 -1.673155091702938080e-02 2.083921339362859726e-03 -4.394288640469312668e-03 4.451614338904619217e-03
3.507000000000000000e+03 3.485858917236328125e+01 1.270018005371093750e+01 -7.755266036838293076e-03 -9.912586538121104240e-04 -2.623957348987460136e-03 6.234918721020221710e-03
3.508000000000000000e+03 1.182043552398681641e+01 1.370981979370117188e+01 4.930136492475867271e-05 -8.638647705083712935e-05 -1.112553400162141770e-05 3.734364581760019064e-04
3.509000000000000000e+03 3.281473159790039062e+01 1.939519309997558594e+01 -4.670274257659912109e-02 -4.592731595039367676e-03 -1.538864243775606155e-02 2.795821987092494965e-02
3.510000000000000000e+03 3.276045989990234375e+01 1.833519172668457031e+01 -3.876376897096633911e-02 -1.061484776437282562e-02 -1.481358520686626434e-02 2.949155867099761963e-02
3.511000000000000000e+03 3.520230102539062500e+01 8.874864578247070312e+00 -7.580852834507822990e-04 -4.210993065498769283e-04 -3.537553711794316769e-04 -2.499532129149883986e-04
3.512000000000000000e+03 3.288280487060546875e+01 2.206601715087890625e+01 -4.328196868300437927e-02 1.501280930824577808e-04 -1.293955184519290924e-02 1.701156795024871826e-02
3.513000000000000000e+03 1.302472114562988281e+01 2.066698265075683594e+01 -4.908270668238401413e-03 5.885886494070291519e-04 -1.295904512517154217e-03 -1.381879555992782116e-04
3.514000000000000000e+03 1.292374610900878906e+01 2.027177619934082031e+01 -3.326276782900094986e-03 1.823378406697884202e-04 -9.431816870346665382e-04 -4.773965629283338785e-04
3.515000000000000000e+03 2.484252357482910156e+01 2.504213142395019531e+01 -3.605884686112403870e-02 -1.835184730589389801e-02 -1.632320694625377655e-02 2.479051053524017334e-02
3.516000000000000000e+03 1.633443450927734375e+01 2.405112266540527344e+01 -1.770462282001972198e-02 4.026212263852357864e-04 -5.190600175410509109e-03 7.378995884209871292e-03
3.517000000000000000e+03 1.279913616180419922e+01 2.165060806274414062e+01 -7.152063306421041489e-03 1.120039494708180428e-03 -1.809607143513858318e-03 6.327177397906780243e-04
3.518000000000000000e+03 1.291909503936767578e+01 1.167328834533691406e+01 -2.140594233424053527e-06 1.004490550258196890e-04 2.949253939732443541e-05 2.345956309000030160e-04
3.519000000000000000e+03 1.312004089355468750e+01 1.102624320983886719e+01 4.051261566928587854e-05 6.320684042293578386e-05 3.111583646386861801e-05 2.041887200903147459e-04
3.520000000000000000e+03 1.246640396118164062e+01 1.947011184692382812e+01 -1.794546493329107761e-03 -1.438220788259059191e-04 -5.815105978399515152e-04 -4.201539268251508474e-04
3.521000000000000000e+03 1.169824123382568359e+01 1.498525905609130859e+01 2.297607861692085862e-04 -1.049764468916691840e-04 3.743530396604910493e-05 1.885503152152523398e-04
3.522000000000000000e+03 1.145502758026123047e+01 1.446353530883789062e+01 5.789900751551613212e-05 -1.980150409508496523e-04 -4.203481148579157889e-05 3.955042047891765833e-04
3.523000000000000000e+03 9.448242187500000000e+00 6.805089473724365234e+00 1.255053648492321372e-04 -5.214282282395288348e-05 2.200876406277529895e-05 6.485707854153588414e-05
3.524000000000000000e+03 2.953760528564453125e+01 -5.867360115051269531e+00 8.003948330879211426e-01 7.276121377944946289e-01 4.584020972251892090e-01 -5.028485059738159180e-01
3.525000000000000000e+03 1.614299964904785156e+01 7.180871486663818359e+00 3.473792821750976145e-05 4.450172127690166235e-05 2.377189412072766572e-05 1.951102967723272741e-05
3.526000000000000000e+03 1.616898155212402344e+01 5.419878005981445312e+00 4.540394729701802135e-05 1.497105222370009869e-05 1.811249967431649566e-05 1.042127132677705958e-05
3.527000000000000000e+03 3.698261260986328125e+01 -7.039715766906738281e+00 6.794467568397521973e-02 1.560823559761047363e+00 4.886304736137390137e-01 -3.395487368106842041e-02
3.528000000000000000e+03 3.654584884643554688e+01 -7.428912162780761719e+00 3.703499734401702881e-01 1.772653937339782715e+00 6.429011821746826172e-01 -3.912449181079864502e-01
3.529000000000000000e+03 2.720520210266113281e+01 -5.735127449035644531e+00 7.603148818016052246e-01 2.452419698238372803e-01 3.016670644283294678e-01 -8.189008235931396484e-01
3.530000000000000000e+03 2.803455734252929688e+01 -5.057057857513427734e+00 1.341213136911392212e-01 3.442858457565307617e-01 1.435221433639526367e-01 -6.940192580223083496e-01
3.531000000000000000e+03 1.283862495422363281e+01 1.059966564178466797e+01 -1.154336860054172575e-05 1.419083710061386228e-04 3.910950181307271123e-05 9.452665835851803422e-05
3.532000000000000000e+03 3.110193061828613281e+01 -3.352938413619995117e+00 -1.593651771545410156e+00 2.987464070320129395e-01 -3.884716033935546875e-01 -2.473261505365371704e-01
3.533000000000000000e+03 3.119095993041992188e+01 -3.858474969863891602e+00 -1.086544036865234375e+00 3.501555025577545166e-01 -2.209165543317794800e-01 -2.175439149141311646e-01
3.534000000000000000e+03 2.179853820800781250e+01 2.513776588439941406e+01 -3.212545812129974365e-02 -1.189772132784128189e-02 -1.320695318281650543e-02 2.116341888904571533e-02
3.535000000000000000e+03 2.941012954711914062e+01 2.344207382202148438e+01 -4.249254986643791199e-02 -2.841123566031455994e-02 -2.127113565802574158e-02 2.056267671287059784e-02
3.536000000000000000e+03 2.829860496520996094e+01 2.393129348754882812e+01 -4.086887463927268982e-02 -2.915640547871589661e-02 -2.100758440792560577e-02 2.444519847631454468e-02
3.537000000000000000e+03 2.618857383728027344e+01 2.536776161193847656e+01 -3.066899441182613373e-02 -2.103758417069911957e-02 -1.551197376102209091e-02 2.484671957790851593e-02
3.538000000000000000e+03 1.798938751220703125e+01 2.472621536254882812e+01 -2.252204157412052155e-02 -1.549758017063140869e-03 -7.221539504826068878e-03 1.202645432204008102e-02
3.539000000000000000e+03 1.309188938140869141e+01 2.241660690307617188e+01 -8.961352519690990448e-03 1.187039306387305260e-03 -2.332293894141912460e-03 2.185923745855689049e-03
3.540000000000000000e+03 1.351797199249267578e+01 2.210913276672363281e+01 -8.749660104513168335e-03 1.524611725471913815e-03 -2.167514525353908539e-03 1.037934562191367149e-03
3.541000000000000000e+03 1.985047340393066406e+01 2.585147666931152344e+01 -2.279241755604743958e-02 -7.216199301183223724e-03 -9.002584964036941528e-03 1.896348595619201660e-02
3.542000000000000000e+03 1.016566371917724609e+01 -6.381339550018310547e+00 -3.478435054421424866e-02 -1.397542208433151245e-01 -5.236157029867172241e-02 -1.469483822584152222e-01
3.543000000000000000e+03 7.851932525634765625e+00 -5.772138118743896484e+00 -3.756775707006454468e-02 -8.689596503973007202e-02 -3.733911737799644470e-02 -8.891718834638595581e-02
3.544000000000000000e+03 3.222023010253906250e+01 2.189453506469726562e+01 -4.861201718449592590e-02 -2.866277005523443222e-03 -1.544348895549774170e-02 1.699227839708328247e-02
3.545000000000000000e+03 2.313120079040527344e+01 2.604885482788085938e+01 -2.611539140343666077e-02 -1.614201813936233521e-02 -1.267722249031066895e-02 2.329569496214389801e-02
3.546000000000000000e+03 4.504538726806640625e+01 -9.684099197387695312e+00 6.943892240524291992e-01 -6.700567007064819336e-01 7.299768272787332535e-03 1.018169522285461426e+00
3.547000000000000000e+03 4.486099243164062500e+01 -9.140399932861328125e+00 6.722922325134277344e-01 -7.203781008720397949e-01 -1.442576199769973755e-02 1.072421073913574219e+00
3.548000000000000000e+03 1.375900650024414062e+01 2.377019882202148438e+01 -1.153398770838975906e-02 6.977018201723694801e-04 -3.250885754823684692e-03 5.362910218536853790e-03
3.549000000000000000e+03 1.491189575195312500e+01 2.329799652099609375e+01 -1.410257164388895035e-02 1.788221998140215874e-03 -3.694304963573813438e-03 4.098670557141304016e-03
3.550000000000000000e+03 3.378223037719726562e+01 -5.165878295898437500e+00 -1.092805191874504089e-01 3.972797691822052002e-01 8.639977872371673584e-02 4.461076110601425171e-03
3.551000000000000000e+03 3.319726562500000000e+01 -4.980867385864257812e+00 -8.452008664608001709e-02 2.408352941274642944e-01 4.689456149935722351e-02 -2.549572288990020752e-02
3.552000000000000000e+03 4.155831146240234375e+01 -7.816018104553222656e+00 6.605278849601745605e-01 -3.587328195571899414e-01 9.053850919008255005e-02 1.098608851432800293e+00
3.553000000000000000e+03 4.100938796997070312e+01 -7.212289810180664062e+00 2.809327542781829834e-01 -1.417197287082672119e-01 4.176390543580055237e-02 1.059999465942382812e+00
3.554000000000000000e+03 4.239393997192382812e+01 -8.643045425415039062e+00 1.009743690490722656e+00 -6.269712448120117188e-01 1.148317083716392517e-01 9.982914328575134277e-01
3.555000000000000000e+03 1.344176387786865234e+01 2.274028587341308594e+01 -9.657403454184532166e-03 1.446146517992019653e-03 -2.463377080857753754e-03 2.166171325370669365e-03
3.556000000000000000e+03 1.420813083648681641e+01 2.268646812438964844e+01 -1.128491479903459549e-02 1.831354573369026184e-03 -2.836067928001284599e-03 2.279773354530334473e-03
3.557000000000000000e+03 2.589462089538574219e+01 -4.871742248535156250e+00 3.035649843513965607e-02 -6.450641900300979614e-02 -1.024497672915458679e-02 -9.134427905082702637e-01
3.558000000000000000e+03 1.391543388366699219e+01 4.978973865509033203e+00 3.044417462660931051e-05 1.185476139653474092e-05 1.268968026124639437e-05 1.190943112305831164e-05
3.559000000000000000e+03 2.459711456298828125e+01 -4.807672023773193359e+00 -7.679927349090576172e-02 -1.019135862588882446e-01 -5.361386016011238098e-02 -8.774936199188232422e-01
3.560000000000000000e+03 3.673770904541015625e+01 -3.578100681304931641e+00 -1.693395733833312988e+00 8.379663825035095215e-01 -2.566288113594055176e-01 5.588499903678894043e-01
3.561000000000000000e+03 3.631344985961914062e+01 -4.281065940856933594e+00 -1.345888733863830566e+00 8.510847687721252441e-01 -1.484412103891372681e-01 4.443041682243347168e-01
3.562000000000000000e+03 1.339811611175537109e+01 5.653866291046142578e+00 1.699588938208762556e-05 1.605683974048588425e-05 9.915818736772052944e-06 8.052187695284374058e-06
3.563000000000000000e+03 3.519205474853515625e+01 -5.080426692962646484e+00 -5.410513877868652344e-01 7.332220673561096191e-01 5.765119940042495728e-02 8.980434387922286987e-02
3.564000000000000000e+03 3.115711975097656250e+01 -4.609609127044677734e+00 -3.971259891986846924e-01 4.052302837371826172e-01 2.431285567581653595e-03 -1.880624592304229736e-01
3.565000000000000000e+03 1.286917400360107422e+01 -8.821939468383789062e+00 5.708052590489387512e-02 -2.688802182674407959e-01 -6.353990733623504639e-02 -1.884825676679611206e-01
3.566000000000000000e+03 1.304494380950927734e+01 -7.805659770965576172e+00 3.522140532732009888e-02 -2.377264797687530518e-01 -6.075152382254600525e-02 -2.175158858299255371e-01
3.567000000000000000e+03 4.428514480590820312e+01 -9.381852149963378906e+00 8.376681208610534668e-01 -7.437356114387512207e-01 2.817975543439388275e-02 9.775052070617675781e-01
3.568000000000000000e+03 4.333956909179687500e+01 -9.233913421630859375e+00 9.832628369331359863e-01 -7.409471869468688965e-01 7.269468903541564941e-02 9.206184148788452148e-01
3.569000000000000000e+03 8.346898078918457031e+00 6.702473163604736328e+00 1.386620133416727185e-04 -7.071338768582791090e-05 2.038458660535980016e-05 4.857984094996936619e-05
3.570000000000000000e+03 3.573723983764648438e+01 -4.365046024322509766e+00 -1.167602181434631348e+00 7.803535461425781250e-01 -1.161746010184288025e-01 3.509811758995056152e-01
3.571000000000000000e+03 1.227717971801757812e+01 2.004272460937500000e+01 -3.373638726770877838e-03 2.452082408126443624e-04 -9.385291486978530884e-04 -3.183560911566019058e-04
3.572000000000000000e+03 2.864944839477539062e+01 2.557292747497558594e+01 -2.213117480278015137e-02 -2.142188139259815216e-02 -1.306591741740703583e-02 1.812249049544334412e-02
3.573000000000000000e+03 2.782272148132324219e+01 2.454649543762207031e+01 -3.494505211710929871e-02 -2.555803395807743073e-02 -1.815092563629150391e-02 2.425323612987995148e-02
3.574000000000000000e+03 3.017845344543457031e+01 2.356818008422851562e+01 -4.031619429588317871e-02 -2.023568935692310333e-02 -1.816556602716445923e-02 1.537811569869518280e-02
3.575000000000000000e+03 1.471870517730712891e+01 -5.697700977325439453e+00 -5.019592866301536560e-02 -1.864910721778869629e-01 -7.100609689950942993e-02 -2.975415289402008057e-01
3.576000000000000000e+03 1.662969017028808594e+01 -7.792177200317382812e+00 1.298210024833679199e-01 -2.512596249580383301e-01 -3.643158450722694397e-02 -3.197373747825622559e-01
3.577000000000000000e+03 2.371825408935546875e+01 -5.219441413879394531e+00 1.012806445360183716e-01 -1.259310096502304077e-01 -7.395107764750719070e-03 -7.792416810989379883e-01
3.578000000000000000e+03 2.314555358886718750e+01 -4.825298786163330078e+00 -1.137989014387130737e-01 -8.244067430496215820e-02 -5.887187272310256958e-02 -7.196910381317138672e-01
3.579000000000000000e+03 3.707287216186523438e+01 -8.428079605102539062e+00 7.408209443092346191e-01 2.623898267745971680e+00 1.009415745735168457e+00 -3.473760187625885010e-01
3.580000000000000000e+03 7.372211456298828125e+01 -9.261082649230957031e+00 -2.857961952686309814e-01 -8.468062430620193481e-02 -1.111430451273918152e-01 -4.389899075031280518e-01
3.581000000000000000e+03 3.252824020385742188e+01 1.879258537292480469e+01 -4.301124066114425659e-02 -1.008815970271825790e-02 -1.592982001602649689e-02 2.996009215712547302e-02
3.582000000000000000e+03 3.296675109863281250e+01 1.901292037963867188e+01 -4.413055628538131714e-02 -5.703862290829420090e-03 -1.495032478123903275e-02 2.882597967982292175e-02
3.583000000000000000e+03 3.256983566284179688e+01 2.048863029479980469e+01 -5.241411924362182617e-02 -2.391750691458582878e-03 -1.644176058471202850e-02 2.447706460952758789e-02
3.584000000000000000e+03 3.370741653442382812e+01 1.843103981018066406e+01 -4.038656875491142273e-02 8.206721977330744267e-04 -1.186976861208677292e-02 2.637927047908306122e-02
3.585000000000000000e+03 1.574608612060546875e+01 2.436495208740234375e+01 -1.715291477739810944e-02 6.022439920343458652e-04 -4.965201485902070999e-03 8.205255493521690369e-03
3.586000000000000000e+03 1.451636600494384766e+01 2.373432350158691406e+01 -1.345634646713733673e-02 8.465991704724729061e-04 -3.782924031838774681e-03 5.776487290859222412e-03
3.587000000000000000e+03 1.639761734008789062e+01 6.219976425170898438e+00 4.010683551314286888e-05 1.323189644608646631e-05 1.600162067916244268e-05 5.724868060497101396e-06
3.588000000000000000e+03 1.177578258514404297e+01 1.911073875427246094e+01 -1.916673267260193825e-03 -2.169585204683244228e-04 -6.400895072147250175e-04 -1.368903031107038260e-04
3.589000000000000000e+03 3.242618942260742188e+01 -5.950385570526123047e+00 8.520037531852722168e-01 3.454218506813049316e-01 3.592276871204376221e-01 -1.569147109985351562e-01
3.590000000000000000e+03 3.181437492370605469e+01 -4.601846694946289062e+00 -3.578139543533325195e-01 3.109603822231292725e-01 -1.405606511980295181e-02 -7.775413244962692261e-02
3.591000000000000000e+03 3.149936294555664062e+01 -5.001678466796875000e+00 -2.767140977084636688e-02 4.647792279720306396e-01 1.311323493719100952e-01 -1.398863047361373901e-01
3.592000000000000000e+03 8.380112648010253906e+00 1.286101436614990234e+01 2.713786670938134193e-04 -3.580436459742486477e-04 -2.599949766590725631e-05 1.291293870053777937e-06
3.593000000000000000e+03 3.576034164428710938e+01 -7.367599010467529297e+00 7.543121576309204102e-01 1.302005648612976074e+00 6.168953180313110352e-01 -6.973345875740051270e-01
3.594000000000000000e+03 3.648337936401367188e+01 -4.849553108215332031e+00 -1.034590482711791992e+00 9.779356122016906738e-01 -1.699646748602390289e-02 3.192509114742279053e-01
3.595000000000000000e+03 7.275708770751953125e+01 -5.913942337036132812e+00 -1.906460076570510864e-01 -1.842916458845138550e-01 -1.124812960624694824e-01 -6.881512403488159180e-01
3.596000000000000000e+03 4.288124084472656250e+01 -7.500231742858886719e+00 4.293861389160156250e-01 -7.366697788238525391e-01 -9.218509495258331299e-02 1.150311708450317383e+00
3.597000000000000000e+03 4.286041259765625000e+01 -8.904743194580078125e+00 1.007576823234558105e+00 -7.200443744659423828e-01 8.625972270965576172e-02 9.811859726905822754e-01
3.598000000000000000e+03 4.038951492309570312e+01 -7.324654102325439453e+00 3.273658454418182373e-01 1.942817121744155884e-01 1.564942598342895508e-01 1.028950214385986328e+00
3.599000000000000000e+03 3.894662857055664062e+01 -6.347194194793701172e+00 -4.776485860347747803e-01 9.403654932975769043e-01 1.388150751590728760e-01 7.194281816482543945e-01
3.600000000000000000e+03 1.749761009216308594e+01 -6.227148056030273438e+00 2.685062400996685028e-02 -2.020685225725173950e-01 -5.256536975502967834e-02 -3.822357654571533203e-01
3.601000000000000000e+03 2.362018585205078125e+01 2.554990768432617188e+01 -3.028941527009010315e-02 -1.688818633556365967e-02 -1.415328029543161392e-02 2.316361851990222931e-02
3.602000000000000000e+03 4.429724121093750000e+01 -8.831712722778320312e+00 7.128089666366577148e-01 -7.785658240318298340e-01 -1.972704008221626282e-02 1.072065591812133789e+00
3.603000000000000000e+03 3.758453369140625000e+01 -5.769571781158447266e+00 -7.736967206001281738e-01 1.190111517906188965e+00 1.249244436621665955e-01 3.844047784805297852e-01
3.604000000000000000e+03 3.703244018554687500e+01 -6.096534729003906250e+00 -4.853485822677612305e-01 1.249680280685424805e+00 2.292995154857635498e-01 1.726350635290145874e-01
3.605000000000000000e+03 3.708482360839843750e+01 1.367148685455322266e+01 -1.856165565550327301e-02 6.258931476622819901e-03 -3.690817393362522125e-03 5.006704479455947876e-03
3.606000000000000000e+03 6.206939697265625000e+00 -8.953329086303710938e+00 -1.344176288694143295e-02 -1.148501858115196228e-01 -3.848758712410926819e-02 -6.479091197252273560e-02
3.607000000000000000e+03 2.507022285461425781e+01 2.580081176757812500e+01 -2.734608389437198639e-02 -1.884827017784118652e-02 -1.385830622166395187e-02 2.466428279876708984e-02
3.608000000000000000e+03 5.783121585845947266e+00 7.417989730834960938e+00 1.499936479376628995e-04 -8.809298014966771007e-05 1.857020106399431825e-05 -4.203486696496838704e-07
3.609000000000000000e+03 4.004029846191406250e+01 -5.171238899230957031e+00 -1.204407215118408203e+00 1.761892288923263550e-01 -3.084653913974761963e-01 7.924976348876953125e-01
3.610000000000000000e+03 3.805039978027343750e+01 -4.950803756713867188e+00 -1.249835729598999023e+00 9.596159458160400391e-01 -8.706595003604888916e-02 5.719854831695556641e-01
3.611000000000000000e+03 3.466222763061523438e+01 -5.942733287811279297e+00 2.342760562896728516e-01 6.038705110549926758e-01 2.514439821243286133e-01 -1.908926367759704590e-01
3.612000000000000000e+03 7.070887088775634766e+00 1.717972183227539062e+01 -5.500059924088418484e-04 -6.097853765822947025e-04 -3.479373990558087826e-04 -2.031067378993611783e-05
3.613000000000000000e+03 7.527296543121337891e+00 -7.619775772094726562e+00 -1.757556013762950897e-02 -1.188176348805427551e-01 -4.091795906424522400e-02 -8.640629053115844727e-02
3.614000000000000000e+03 7.010067939758300781e+00 -6.476806163787841797e+00 -2.601324021816253662e-02 -8.955422043800354004e-02 -3.467023745179176331e-02 -7.425799220800399780e-02
3.615000000000000000e+03 3.738859176635742188e+01 1.440478134155273438e+01 -2.561955340206623077e-02 7.122787181288003922e-03 -5.549029912799596786e-03 6.679057609289884567e-03
3.616000000000000000e+03 1.414261817932128906e+01 6.037514209747314453e+00 3.924892371287569404e-05 3.768218084587715566e-05 2.307933027623221278e-05 2.113279379045707174e-06
3.617000000000000000e+03 7.133304119110107422e+00 2.769936561584472656e+01 -2.770016668364405632e-03 -3.158953040838241577e-03 -1.778690842911601067e-03 5.192781798541545868e-03
3.618000000000000000e+03 1.648676490783691406e+01 2.480141830444335938e+01 -1.871558092534542084e-02 -5.987023469060659409e-04 -5.794284865260124207e-03 1.072128210216760635e-02
3.619000000000000000e+03 3.632091140747070312e+01 1.068671131134033203e+01 -3.528831992298364639e-03 -1.369304372929036617e-03 -1.469440991058945656e-03 1.824003062210977077e-03
3.620000000000000000e+03 3.631562805175781250e+01 1.199948024749755859e+01 -8.976120501756668091e-03 1.107728225179016590e-03 -2.360517624765634537e-03 3.795595606788992882e-03
3.621000000000000000e+03 3.665914154052734375e+01 1.464774131774902344e+01 -2.340800687670707703e-02 7.447660900652408600e-03 -4.788103513419628143e-03 8.742028847336769104e-03
3.622000000000000000e+03 4.209418487548828125e+01 -7.913019657135009766e+00 7.172420620918273926e-01 -5.594558715820312500e-01 4.733584821224212646e-02 1.103187680244445801e+00
3.623000000000000000e+03 7.722575187683105469e+00 7.159739017486572266e+00 3.535098585416562855e-06 -3.742997068911790848e-05 -1.016846181300934404e-05 -4.382791303214617074e-05
3.624000000000000000e+03 8.862703323364257812e+00 -6.198310375213623047e+00 -3.478841111063957214e-02 -1.143381893634796143e-01 -4.473797976970672607e-02 -1.133175119757652283e-01
3.625000000000000000e+03 7.073864936828613281e+00 7.656239509582519531e+00 1.736376725602895021e-04 -1.022985015879385173e-04 2.140175092790741473e-05 1.613150379853323102e-05
3.626000000000000000e+03 7.123497009277343750e+01 -5.467751026153564453e+00 -2.075173705816268921e-01 -7.254435122013092041e-02 -8.401851356029510498e-02 -7.567620873451232910e-01
3.627000000000000000e+03 7.391243457794189453e+00 1.649115371704101562e+01 -1.036947651300579309e-05 -6.349058239720761776e-04 -1.935826003318652511e-04 -5.496407902683131397e-05
3.628000000000000000e+03 2.109451484680175781e+01 -5.712130546569824219e+00 2.475872449576854706e-02 -1.489880681037902832e-01 -3.726880252361297607e-02 -5.215054154396057129e-01
3.629000000000000000e+03 3.706853103637695312e+01 -4.615454673767089844e+00 -1.292061448097229004e+00 9.890156388282775879e-01 -9.091374278068542480e-02 4.788213968276977539e-01
3.630000000000000000e+03 6.808221340179443359e+00 9.670025825500488281e+00 6.864923761895624921e-06 -1.496114564361050725e-04 -4.282396184862591326e-05 1.035143850458553061e-05
3.631000000000000000e+03 7.617106914520263672e+00 1.046304035186767578e+01 9.229781426256522536e-05 -1.922036608448252082e-04 -2.997175397467799485e-05 2.179652437916956842e-05
3.632000000000000000e+03 6.641949462890625000e+01 -5.991091728210449219e+00 -2.428517937660217285e-01 7.716351002454757690e-02 -4.970648512244224548e-02 -6.795166134834289551e-01
3.633000000000000000e+03 1.287014865875244141e+01 -9.804925918579101562e+00 6.461994349956512451e-02 -2.922507226467132568e-01 -6.828923523426055908e-02 -1.595981121063232422e-01
3.634000000000000000e+03 1.432855319976806641e+01 -7.412786483764648438e+00 4.392016306519508362e-02 -2.415988594293594360e-01 -5.930360779166221619e-02 -2.660819590091705322e-01
3.635000000000000000e+03 1.614544486999511719e+01 -8.382426261901855469e+00 1.328003555536270142e-01 -2.637265026569366455e-01 -3.927784040570259094e-02 -2.853527367115020752e-01
3.636000000000000000e+03 8.186160087585449219e+00 -1.116965103149414062e+01 -1.411538757383823395e-02 -1.782610863447189331e-01 -5.771294236183166504e-02 -8.495280891656875610e-02
3.637000000000000000e+03 8.741151809692382812e+00 -8.172117233276367188e+00 -1.040892023593187332e-02 -1.522255241870880127e-01 -4.879033192992210388e-02 -1.055061519145965576e-01
3.638000000000000000e+03 9.060016632080078125e+00 -1.629992103576660156e+01 -5.470769852399826050e-02 -2.170700728893280029e-01 -8.153332769870758057e-02 -1.166890487074851990e-01
3.639000000000000000e+03 9.985662460327148438e+00 -1.368457698822021484e+01 -4.616789147257804871e-02 -2.339285761117935181e-01 -8.402893692255020142e-02 -9.014597535133361816e-02
3.640000000000000000e+03 5.862112426757812500e+01 -7.514441013336181641e+00 -1.777583956718444824e-01 6.224087476730346680e-01 1.333951056003570557e-01 1.912227272987365723e-01
3.641000000000000000e+03 1.469326972961425781e+01 -7.999247550964355469e+00 7.760698348283767700e-02 -2.594623267650604248e-01 -5.455660074949264526e-02 -2.674486637115478516e-01
3.642000000000000000e+03 6.111609649658203125e+01 -8.153466224670410156e+00 -5.283541083335876465e-01 1.885137259960174561e-01 -1.019521132111549377e-01 -8.798075467348098755e-02
3.643000000000000000e+03 6.132492446899414062e+01 -5.167891502380371094e+00 2.146862894296646118e-01 5.176051855087280273e-01 2.196874469518661499e-01 6.680669635534286499e-02
3.644000000000000000e+03 6.855078125000000000e+01 6.923590660095214844e+00 4.482952654361724854e-01 9.572705030441284180e-01 4.216697216033935547e-01 -2.489122897386550903e-01
3.645000000000000000e+03 8.785060882568359375e+00 -1.195377826690673828e+01 -2.123429253697395325e-02 -1.997846215963363647e-01 -6.630567461252212524e-02 -8.717202395200729370e-02
3.646000000000000000e+03 7.166051483154296875e+01 1.633249473571777344e+01 3.885460197925567627e-01 4.772127140313386917e-03 1.179954484105110168e-01 1.685638874769210815e-01
3.647000000000000000e+03 7.084096527099609375e+01 1.724399757385253906e+01 4.376030266284942627e-01 2.458873987197875977e-01 2.050471305847167969e-01 2.086599469184875488e-01
3.648000000000000000e+03 7.151327133178710938e+00 -1.791649627685546875e+01 -2.899164147675037384e-02 -2.040187120437622070e-01 -6.990310549736022949e-02 -1.166664883494377136e-01
3.649000000000000000e+03 7.260511016845703125e+01 -8.438363075256347656e+00 -3.408896028995513916e-01 -6.127542629837989807e-02 -1.206495091319084167e-01 -5.573941469192504883e-01
3.650000000000000000e+03 7.052777099609375000e+01 -2.761600685119628906e+01 -1.971900695934891701e-03 -4.098631688975729048e-05 -6.038661231286823750e-04 2.904688881244510412e-04
3.651000000000000000e+03 7.334426879882812500e+01 -2.766398048400878906e+01 -1.085777534171938896e-03 -1.487308909418061376e-04 -3.703525289893150330e-04 6.191547727212309837e-04
3.652000000000000000e+03 7.370772552490234375e+01 -2.252645492553710938e+01 -7.103681855369359255e-05 -3.182012733304873109e-06 -2.226564902230165899e-05 -8.473944944853428751e-06
3.653000000000000000e+03 7.279399871826171875e+01 -2.280711364746093750e+01 -2.160131116397678852e-04 -3.737221122719347477e-04 -1.769205700838938355e-04 -9.067644714377820492e-05
3.654000000000000000e+03 6.627291107177734375e+01 5.604914188385009766e+00 5.330402255058288574e-01 1.586584687232971191e+00 6.358874440193176270e-01 -5.055140331387519836e-02
3.655000000000000000e+03 6.352884292602539062e+01 -4.056077003479003906e+00 2.112846523523330688e-01 4.776442945003509521e-01 2.066786885261535645e-01 -1.970219910144805908e-01
3.656000000000000000e+03 6.290145874023437500e+01 -6.643744468688964844e+00 -1.865973770618438721e-01 1.463271677494049072e-01 -1.208106148988008499e-02 -2.383909374475479126e-01
3.657000000000000000e+03 7.305437469482421875e+01 2.070020675659179688e+00 1.475843638181686401e-01 -4.689050316810607910e-01 -9.639620035886764526e-02 -6.150676012039184570e-01
3.658000000000000000e+03 7.861464023590087891e+00 -1.961928558349609375e+01 -1.666894182562828064e-02 -2.250566929578781128e-01 -7.251769304275512695e-02 -1.320180445909500122e-01
3.659000000000000000e+03 6.905515289306640625e+01 1.557741928100585938e+01 5.504548549652099609e-01 9.900864958763122559e-01 4.621624052524566650e-01 5.842659622430801392e-02
3.660000000000000000e+03 6.383195400238037109e+00 8.223776817321777344e+00 5.243467057880479842e-06 -3.268738510087132454e-05 -8.233175321947783232e-06 -8.571128273615613580e-05
3.661000000000000000e+03 7.050888824462890625e+01 -2.088043212890625000e+00 5.442138761281967163e-02 -1.886711269617080688e-02 1.066628191620111465e-02 -7.446309924125671387e-01
3.662000000000000000e+03 6.360720825195312500e+01 2.751142978668212891e-01 5.217731595039367676e-01 1.275679111480712891e+00 5.392356514930725098e-01 1.270052939653396606e-01
3.663000000000000000e+03 7.227767181396484375e+01 -7.432922840118408203e+00 -3.196817636489868164e-01 -7.217217236757278442e-02 -1.175561845302581787e-01 -6.482043862342834473e-01
3.664000000000000000e+03 6.725647449493408203e+00 2.302003097534179688e+01 -2.093270653858780861e-03 -9.934909176081418991e-04 -9.260284132324159145e-04 1.750492840074002743e-03
3.665000000000000000e+03 3.899154663085937500e+01 2.097396850585937500e+01 -3.386529907584190369e-02 3.308690339326858521e-02 -2.335182798560708761e-04 9.802639484405517578e-03
3.666000000000000000e+03 6.162876129150390625e+01 -9.606255531311035156e+00 -1.095579504966735840e+00 -4.686993733048439026e-02 -3.427348136901855469e-01 -2.117107510566711426e-01
3.667000000000000000e+03 6.281326293945312500e+01 -6.605391502380371094e-01 5.809751749038696289e-01 1.194034814834594727e+00 5.325029492378234863e-01 2.590920925140380859e-01
3.668000000000000000e+03 3.431917953491210938e+01 1.771411895751953125e+01 -3.689892590045928955e-02 4.164364654570817947e-03 -9.820368140935897827e-03 2.380262501537799835e-02
3.669000000000000000e+03 7.282762145996093750e+01 -9.398993492126464844e+00 -3.744394481182098389e-01 -2.621228806674480438e-02 -1.201955229043960571e-01 -4.784705936908721924e-01
3.670000000000000000e+03 8.476151466369628906e+00 -2.797117614746093750e+01 4.639784246683120728e-02 -2.416664958000183105e-01 -5.858059599995613098e-02 -8.161367475986480713e-02
3.671000000000000000e+03 3.867268753051757812e+01 1.729339218139648438e+01 -4.172055050730705261e-02 2.264741435647010803e-02 -5.721941124647855759e-03 7.192371878772974014e-03
3.672000000000000000e+03 1.125743675231933594e+01 -1.030811882019042969e+01 2.318691462278366089e-02 -2.491818666458129883e-01 -6.779848784208297729e-02 -1.236191764473915100e-01
3.673000000000000000e+03 6.899922180175781250e+01 1.161082267761230469e+01 5.000088214874267578e-01 1.060397148132324219e+00 4.681217968463897705e-01 -1.111452057957649231e-01
3.674000000000000000e+03 6.998246765136718750e+01 1.247124862670898438e+01 4.633461236953735352e-01 6.556861400604248047e-01 3.357096910476684570e-01 -7.633888721466064453e-02
3.675000000000000000e+03 7.747285366058349609e+00 3.065919303894042969e+01 -1.509968307800590992e-03 -5.368093959987163544e-03 -2.063418738543987274e-03 6.876178551465272903e-03
3.676000000000000000e+03 7.413651943206787109e+00 2.908579444885253906e+01 -1.397493644617497921e-03 -4.284837283194065094e-03 -1.704699359834194183e-03 6.316463463008403778e-03
3.677000000000000000e+03 4.802738952636718750e+01 2.287202453613281250e+01 4.149956628680229187e-02 5.890835542231798172e-03 1.421711966395378113e-02 -3.773653134703636169e-02
3.678000000000000000e+03 4.224213790893554688e+01 2.487884330749511719e+01 2.039649523794651031e-02 4.050803557038307190e-02 1.827135868370532990e-02 -1.182580459862947464e-02
3.679000000000000000e+03 4.157180404663085938e+01 2.360519599914550781e+01 -1.766390982083976269e-03 4.045603051781654358e-02 1.160689163953065872e-02 -2.911079209297895432e-03
3.680000000000000000e+03 6.634763336181640625e+01 2.566127395629882812e+01 -9.121139347553253174e-02 1.235895872116088867e+00 3.434053361415863037e-01 3.177198767662048340e-01
3.681000000000000000e+03 8.427684783935546875e+00 -2.207438087463378906e+01 1.841568946838378906e-02 -2.394395023584365845e-01 -6.630714237689971924e-02 -1.307574063539505005e-01
3.682000000000000000e+03 6.243125534057617188e+01 -7.509935379028320312e+00 -3.699896633625030518e-01 5.846909061074256897e-02 -9.345617145299911499e-02 -2.208242118358612061e-01
3.683000000000000000e+03 6.381147384643554688e+01 -5.986173629760742188e+00 -8.265006542205810547e-02 1.780459135770797729e-01 2.861875668168067932e-02 -3.476377129554748535e-01
3.684000000000000000e+03 6.956770324707031250e+01 1.064591598510742188e+01 4.673253297805786133e-01 7.308413982391357422e-01 3.594500124454498291e-01 -1.739458441734313965e-01
3.685000000000000000e+03 7.004446411132812500e+01 1.824280929565429688e+01 4.381168186664581299e-01 4.814103841781616211e-01 2.758581638336181641e-01 2.887765467166900635e-01
3.686000000000000000e+03 7.001987457275390625e+01 1.465781307220458984e+01 4.680730998516082764e-01 6.060681343078613281e-01 3.222423791885375977e-01 5.146517604589462280e-02
3.687000000000000000e+03 4.123696517944335938e+01 -3.223241424560546875e+01 -4.845696315169334412e-02 6.081625223159790039e-01 1.679116636514663696e-01 -2.104939371347427368e-01
3.688000000000000000e+03 3.995231246948242188e+01 -2.864200782775878906e+01 2.890438400208950043e-02 9.082967638969421387e-01 2.811603546142578125e-01 -2.430112957954406738e-01
3.689000000000000000e+03 7.075724029541015625e+01 -2.885308837890625000e+01 -2.276320941746234894e-03 2.713836729526519775e-04 -6.014812388457357883e-04 1.599300070665776730e-03
3.690000000000000000e+03 3.817679214477539062e+01 1.952456283569335938e+01 -4.082790762186050415e-02 2.866778150200843811e-02 -3.648038487881422043e-03 1.202073227614164352e-02
3.691000000000000000e+03 3.918498992919921875e+01 1.968464469909667969e+01 -4.072280600666999817e-02 2.753318101167678833e-02 -3.956887405365705490e-03 1.229098066687583923e-02
3.692000000000000000e+03 8.739380836486816406e+00 -2.333523368835449219e+01 3.323095664381980896e-02 -2.406702637672424316e-01 -6.223179027438163757e-02 -1.239696145057678223e-01
3.693000000000000000e+03 7.968331336975097656e+00 -2.574048042297363281e+01 4.035573452711105347e-02 -2.516731321811676025e-01 -6.339521706104278564e-02 -1.010010764002799988e-01
3.694000000000000000e+03 7.197096252441406250e+01 6.000938415527343750e+00 2.682965099811553955e-01 -1.726570278406143188e-01 2.869184687733650208e-02 -4.346901476383209229e-01
3.695000000000000000e+03 2.872942352294921875e+01 -2.927825450897216797e+00 -1.822036266326904297e+00 1.296320408582687378e-01 -5.077212452888488770e-01 -3.933539986610412598e-01
3.696000000000000000e+03 2.984418869018554688e+01 -4.588786125183105469e+00 -4.066961407661437988e-01 4.631719291210174561e-01 1.694273762404918671e-02 -4.092054069042205811e-01
3.697000000000000000e+03 4.105133819580078125e+01 -9.805286407470703125e+00 1.806843757629394531e+00 -2.515772283077239990e-01 4.665799736976623535e-01 7.496864199638366699e-01
3.698000000000000000e+03 4.022609710693359375e+01 -9.703411102294921875e+00 2.084546089172363281e+00 1.555851399898529053e-01 6.720393896102905273e-01 9.270545244216918945e-01
3.699000000000000000e+03 2.896010589599609375e+01 -3.397007226943969727e+00 -1.425604104995727539e+00 2.115784734487533569e-01 -3.642077147960662842e-01 -4.109078347682952881e-01
3.700000000000000000e+03 2.802047157287597656e+01 -4.497356414794921875e+00 -2.871574163436889648e-01 2.764768302440643311e-01 -3.204177133738994598e-03 -7.266810536384582520e-01
3.701000000000000000e+03 4.089678573608398438e+01 -1.021563911437988281e+01 2.017752885818481445e+00 -2.443233579397201538e-01 5.320288538932800293e-01 5.898575186729431152e-01
3.702000000000000000e+03 3.616252136230468750e+01 1.339856719970703125e+01 -1.470303349196910858e-02 3.491083392873406410e-03 -3.363585099577903748e-03 6.868403404951095581e-03
3.703000000000000000e+03 1.235697078704833984e+01 1.181980800628662109e+01 1.226188469445332885e-04 9.202377259498462081e-05 6.439278513425961137e-05 1.677399995969608426e-04
3.704000000000000000e+03 1.256967258453369141e+01 1.020411872863769531e+01 1.093915052479133010e-04 -1.493898525950498879e-05 2.833575490512885153e-05 1.462953077862039208e-04
3.705000000000000000e+03 1.301453781127929688e+01 2.310682296752929688e+01 -9.450463578104972839e-03 9.245612891390919685e-04 -2.557770581915974617e-03 3.580664750188589096e-03
3.706000000000000000e+03 1.415341758728027344e+01 8.717183113098144531e+00 6.121413025539368391e-05 9.790962940314784646e-05 4.773712862515822053e-05 3.186048343195579946e-05
3.707000000000000000e+03 1.408273220062255859e+01 9.677131652832031250e+00 -4.799446105607785285e-05 6.798809044994413853e-05 5.998089363856706768e-06 6.654054595855996013e-05
3.708000000000000000e+03 1.489422607421875000e+01 8.163757324218750000e+00 -1.027147391141625121e-05 8.024158159969374537e-05 2.099103221553377807e-05 5.186106136534363031e-05
3.709000000000000000e+03 1.476251506805419922e+01 6.073839664459228516e+00 -5.559619603445753455e-05 9.930344276654068381e-06 -1.369975598208839074e-05 3.726107388501986861e-05
3.710000000000000000e+03 3.936631774902343750e+01 -7.521522045135498047e+00 3.451291322708129883e-01 9.150751233100891113e-01 3.780612647533416748e-01 9.069275259971618652e-01
3.711000000000000000e+03 3.833754348754882812e+01 -6.720462322235107422e+00 -2.657434344291687012e-01 1.313949584960937500e+00 3.144618570804595947e-01 5.553417801856994629e-01
3.712000000000000000e+03 1.480401229858398438e+01 8.717538833618164062e+00 3.090391692239791155e-05 8.716939919395372272e-05 3.542199556250125170e-05 3.762176129384897649e-05
3.713000000000000000e+03 3.643192672729492188e+01 1.397370243072509766e+01 -2.036596089601516724e-02 3.706606803461909294e-03 -4.997806157916784286e-03 7.548805326223373413e-03
3.714000000000000000e+03 1.133557605743408203e+01 1.261429500579833984e+01 4.430642729857936502e-05 -1.042160802171565592e-04 -1.797289587557315826e-05 2.876790531445294619e-04
3.715000000000000000e+03 3.561297988891601562e+01 1.362548065185546875e+01 -1.593572832643985748e-02 1.007853541523218155e-03 -4.478362388908863068e-03 7.600619457662105560e-03
3.716000000000000000e+03 3.919417190551757812e+01 -8.287540435791015625e+00 8.908315300941467285e-01 1.207741379737854004e+00 6.295718550682067871e-01 1.014643549919128418e+00
3.717000000000000000e+03 1.108285713195800781e+01 1.525524425506591797e+01 1.350000366073800251e-05 -3.599883348215371370e-04 -1.039464987115934491e-04 3.905232006218284369e-04
3.718000000000000000e+03 1.136874198913574219e+01 1.572181034088134766e+01 5.224878623266704381e-05 -2.174861583625897765e-04 -4.957120836479589343e-05 6.805206066928803921e-05
3.719000000000000000e+03 1.639078903198242188e+01 6.945463657379150391e+00 -3.663327152025885880e-05 -1.004879891297605354e-06 -1.129144584410823882e-05 3.468486966085038148e-06
3.720000000000000000e+03 1.591299057006835938e+01 7.991492748260498047e+00 -3.971873229602351785e-05 1.897760921565350145e-05 -6.222337106009945273e-06 -1.093156970455311239e-05
3.721000000000000000e+03 3.391233062744140625e+01 1.631529235839843750e+01 -2.462954632937908173e-02 -2.083422150462865829e-03 -8.013890124857425690e-03 1.988038048148155212e-02
3.722000000000000000e+03 2.852808189392089844e+01 -5.203791618347167969e+00 2.164069861173629761e-01 4.752058088779449463e-01 2.074838429689407349e-01 -7.051305770874023438e-01
3.723000000000000000e+03 3.556222915649414062e+01 1.124976539611816406e+01 -5.793828051537275314e-03 -9.462690213695168495e-04 -2.022029133513569832e-03 2.567125251516699791e-03
3.724000000000000000e+03 1.120609951019287109e+01 1.392047405242919922e+01 2.366827393416315317e-04 -1.586199941812083125e-04 2.341882463952060789e-05 1.765027700457721949e-04
3.725000000000000000e+03 3.021756553649902344e+01 -3.537020683288574219e+00 -1.409013986587524414e+00 3.570728003978729248e-01 -3.155823349952697754e-01 -3.094507455825805664e-01
3.726000000000000000e+03 1.611023139953613281e+01 6.727781772613525391e+00 2.359038990107364953e-05 6.265547563089057803e-05 2.587376002338714898e-05 -1.442346911062486470e-05
3.727000000000000000e+03 1.574051475524902344e+01 5.954933166503906250e+00 -1.835862349253147840e-05 9.899115866573993117e-06 -2.537851969464099966e-06 -1.141287339123664424e-05
3.728000000000000000e+03 1.183356475830078125e+01 1.801511383056640625e+01 -5.111119826324284077e-04 -2.385942498221993446e-04 -2.249118697363883257e-04 -1.306608319282531738e-04
3.729000000000000000e+03 1.108921718597412109e+01 1.673715400695800781e+01 -4.048275877721607685e-04 -5.058973329141736031e-04 -2.732174762059003115e-04 2.287616662215441465e-04
3.730000000000000000e+03 3.964130020141601562e+01 -9.034898757934570312e+00 1.579781889915466309e+00 8.273701071739196777e-01 7.221456170082092285e-01 1.155684828758239746e+00
3.731000000000000000e+03 4.058807373046875000e+01 -8.415836334228515625e+00 1.104771375656127930e+00 1.246067658066749573e-01 3.688134253025054932e-01 1.095183014869689941e+00
3.732000000000000000e+03 4.224232101440429688e+01 -9.756359100341796875e+00 1.403051495552062988e+00 -5.815478563308715820e-01 2.464510947465896606e-01 7.514202594757080078e-01
3.733000000000000000e+03 4.125614166259765625e+01 -9.331296920776367188e+00 1.560809135437011719e+00 -3.050448596477508545e-01 3.767292797565460205e-01 8.899535536766052246e-01
3.734000000000000000e+03 3.733959197998046875e+01 -7.571074962615966797e+00 2.527344822883605957e-01 1.935308098793029785e+00 6.564127802848815918e-01 -2.578666433691978455e-02
3.735000000000000000e+03 3.781461715698242188e+01 -7.177159309387207031e+00 -5.544900428503751755e-03 1.691364765167236328e+00 5.057459473609924316e-01 3.263664841651916504e-01
3.736000000000000000e+03 1.351422786712646484e+01 8.939717292785644531e+00 8.472832996631041169e-05 1.107892676373012364e-04 5.865527782589197159e-05 1.581485230417456478e-05
3.737000000000000000e+03 1.157959651947021484e+01 1.317261791229248047e+01 2.163048775400966406e-04 -5.286592204356566072e-05 4.903168519376777112e-05 1.965798292076215148e-04
3.738000000000000000e+03 3.145197677612304688e+01 -4.245462417602539062e+00 -6.795312166213989258e-01 3.409285545349121094e-01 -1.015808060765266418e-01 -1.906625777482986450e-01
3.739000000000000000e+03 3.418398284912109375e+01 1.996306228637695312e+01 -4.416232183575630188e-02 7.652749773114919662e-03 -1.095287222415208817e-02 2.222017757594585419e-02
3.740000000000000000e+03 1.260697078704833984e+01 2.276317977905273438e+01 -8.117306977510452271e-03 9.386805468238890171e-04 -2.153587760403752327e-03 2.081923419609665871e-03
3.741000000000000000e+03 1.261072254180908203e+01 2.095986175537109375e+01 -5.180217791348695755e-03 7.415257277898490429e-04 -1.331607578322291374e-03 -1.547493884572759271e-04
3.742000000000000000e+03 1.153697109222412109e+01 1.971748161315917969e+01 -2.169717801734805107e-03 -3.404194721952080727e-04 -7.530411821790039539e-04 -7.088368147378787398e-05
3.743000000000000000e+03 1.215959072113037109e+01 1.860732269287109375e+01 -1.026621554046869278e-03 -4.101070808246731758e-04 -4.310185904614627361e-04 -1.155475092673441395e-05
3.744000000000000000e+03 4.255621337890625000e+01 -9.371621131896972656e+00 1.202121853828430176e+00 -6.398825049400329590e-01 1.686718016862869263e-01 8.401470780372619629e-01
3.745000000000000000e+03 4.216762542724609375e+01 -9.111085891723632812e+00 1.230526447296142578e+00 -5.703957080841064453e-01 1.980392187833786011e-01 9.188915491104125977e-01
3.746000000000000000e+03 1.227224159240722656e+01 2.142796897888183594e+01 -5.734553560614585876e-03 5.287538515403866768e-04 -1.561739831231534481e-03 7.850474794395267963e-04
3.747000000000000000e+03 1.200151348114013672e+01 2.059428787231445312e+01 -3.832964692264795303e-03 6.620360363740473986e-05 -1.130028278566896915e-03 1.640101691009476781e-04
3.748000000000000000e+03 1.083673000335693359e+01 1.469413471221923828e+01 2.304522640770301223e-04 -2.951563510578125715e-04 -1.941122354764956981e-05 1.208479225169867277e-04
3.749000000000000000e+03 2.995374488830566406e+01 -5.153645992279052734e+00 9.213845431804656982e-02 5.887705683708190918e-01 2.042727023363113403e-01 -4.232093691825866699e-01
3.750000000000000000e+03 3.602902221679687500e+01 -5.621802806854248047e+00 -4.774849414825439453e-01 1.024597048759460449e+00 1.641336083412170410e-01 5.488555505871772766e-02
3.751000000000000000e+03 1.174805736541748047e+01 1.192324352264404297e+01 9.883494385576341301e-06 -2.965925705211702734e-05 -5.932728981861146167e-06 2.456690126564353704e-04
3.752000000000000000e+03 3.551239776611328125e+01 -6.238914489746093750e+00 9.942888468503952026e-02 9.029617309570312500e-01 3.007171750068664551e-01 -2.227605134248733521e-01
3.753000000000000000e+03 3.603922271728515625e+01 1.547724533081054688e+01 -2.640186995267868042e-02 6.813562940806150436e-03 -5.876491777598857880e-03 1.297564897686243057e-02
3.754000000000000000e+03 3.172960090637207031e+01 2.260463333129882812e+01 -4.634885489940643311e-02 -9.116899222135543823e-03 -1.663972623646259308e-02 1.677247695624828339e-02
3.755000000000000000e+03 2.277873802185058594e+01 2.545692825317382812e+01 -2.910668030381202698e-02 -1.389285363256931305e-02 -1.289986073970794678e-02 2.164552174508571625e-02
3.756000000000000000e+03 2.983818817138671875e+01 -4.073297023773193359e+00 -9.020485281944274902e-01 3.812757134437561035e-01 -1.562318503856658936e-01 -3.757501542568206787e-01
3.757000000000000000e+03 1.775316238403320312e+01 2.584655952453613281e+01 -1.786359585821628571e-02 -3.342733718454837799e-03 -6.361898500472307205e-03 1.489088498055934906e-02
3.758000000000000000e+03 2.150114822387695312e+01 2.564561271667480469e+01 -2.655108459293842316e-02 -1.124616805464029312e-02 -1.133917551487684250e-02 2.038720250129699707e-02
3.759000000000000000e+03 1.627741432189941406e+01 5.853098392486572266e+00 -3.748494782485067844e-05 4.297527630114927888e-05 1.647099452384281904e-06 1.203348892886424437e-05
3.760000000000000000e+03 1.370659828186035156e+01 7.117463111877441406e+00 -6.200017378432676196e-05 7.135604391805827618e-05 2.806759312079520896e-06 -2.038964157691225410e-05
3.761000000000000000e+03 1.534819889068603516e+01 6.314528942108154297e+00 5.535515447263605893e-05 5.589010470430366695e-05 3.337357702548615634e-05 1.280518972635036334e-05
3.762000000000000000e+03 3.077215003967285156e+01 -4.456773757934570312e+00 -5.392280817031860352e-01 4.539201557636260986e-01 -2.559237740933895111e-02 -2.649223208427429199e-01
3.763000000000000000e+03 2.807464218139648438e+01 -3.241677284240722656e+00 -1.385385870933532715e+00 6.927394121885299683e-02 -3.948335647583007812e-01 -5.331899523735046387e-01
3.764000000000000000e+03 2.362731742858886719e+01 2.740983581542968750e+01 -1.283072214573621750e-02 -1.795206964015960693e-02 -9.234837256371974945e-03 2.350336499512195587e-02
3.765000000000000000e+03 2.336614227294921875e+01 2.885485649108886719e+01 -4.938603844493627548e-03 -1.539190392941236496e-02 -6.099152378737926483e-03 2.147407457232475281e-02
3.766000000000000000e+03 1.416135120391845703e+01 2.339178466796875000e+01 -1.211770344525575638e-02 1.631114631891250610e-03 -3.145976690575480461e-03 3.984437789767980576e-03
3.767000000000000000e+03 1.295433521270751953e+01 2.476851081848144531e+01 -9.286371991038322449e-03 1.997532490349840373e-05 -2.779918955639004707e-03 6.186173763126134872e-03
3.768000000000000000e+03 3.466344070434570312e+01 1.487843608856201172e+01 -1.871223747730255127e-02 -2.005334681598469615e-04 -5.673830863088369370e-03 1.410044077783823013e-02
3.769000000000000000e+03 3.656042480468750000e+01 -6.527994155883789062e+00 -1.343517154455184937e-01 1.362037181854248047e+00 3.683056533336639404e-01 -7.123390585184097290e-02
3.770000000000000000e+03 2.998853683471679688e+01 2.456455421447753906e+01 -3.012902103364467621e-02 -2.050396613776683807e-02 -1.518989633768796921e-02 1.622189208865165710e-02
3.771000000000000000e+03 4.193366241455078125e+01 -8.460408210754394531e+00 9.778037667274475098e-01 -4.845943450927734375e-01 1.479628235101699829e-01 1.049176454544067383e+00
3.772000000000000000e+03 4.101496887207031250e+01 -7.821588039398193359e+00 6.903143525123596191e-01 -1.461621820926666260e-01 1.632456481456756592e-01 1.095720887184143066e+00
3.773000000000000000e+03 2.421759223937988281e+01 2.527609062194824219e+01 -3.483607247471809387e-02 -1.701242849230766296e-02 -1.555455010384321213e-02 2.424413338303565979e-02
3.774000000000000000e+03 4.368021774291992188e+01 -8.652506828308105469e+00 7.856661677360534668e-01 -8.229460716247558594e-01 -1.118396688252687454e-02 1.069907069206237793e+00
3.775000000000000000e+03 3.741772842407226562e+01 1.821166992187500000e+01 -4.078132659196853638e-02 2.287194877862930298e-02 -5.372813437134027481e-03 1.318637374788522720e-02
3.776000000000000000e+03 8.153552055358886719e+00 1.018398284912109375e+01 9.491022501606494188e-05 -1.796991709852591157e-04 -2.543668597354553640e-05 3.141211345791816711e-05
3.777000000000000000e+03 1.488121891021728516e+01 2.407193756103515625e+01 -1.414352655410766602e-02 1.110850251279771328e-03 -3.909802995622158051e-03 6.540926638990640640e-03
3.778000000000000000e+03 1.306432819366455078e+01 2.378539466857910156e+01 -9.822022169828414917e-03 5.508602480404078960e-04 -2.781348535791039467e-03 4.909661132842302322e-03
3.779000000000000000e+03 1.129614353179931641e+01 6.299568176269531250e+00 -2.851258432201575488e-05 -3.610308340284973383e-05 -1.938470086315646768e-05 2.732219218160025775e-05
3.780000000000000000e+03 3.328644180297851562e+01 2.061297607421875000e+01 -4.689003899693489075e-02 2.004655776545405388e-03 -1.346561498939990997e-02 2.218602597713470459e-02
3.781000000000000000e+03 3.235178375244140625e+01 2.335251235961914062e+01 -3.502010181546211243e-02 -1.459313090890645981e-03 -1.094382442533969879e-02 1.114091463387012482e-02
3.782000000000000000e+03 3.960444259643554688e+01 -6.116830825805664062e+00 -6.158411502838134766e-01 5.695222020149230957e-01 -1.389568205922842026e-02 7.963304519653320312e-01
3.783000000000000000e+03 3.814998245239257812e+01 -5.657001495361328125e+00 -8.780443072319030762e-01 1.080163359642028809e+00 6.063571944832801819e-02 5.383155345916748047e-01
3.784000000000000000e+03 3.571139144897460938e+01 1.221794605255126953e+01 -9.943952783942222595e-03 -6.595975719392299652e-04 -3.181064967066049576e-03 4.673570394515991211e-03
3.785000000000000000e+03 8.966773986816406250e+00 6.235743522644042969e+00 8.964575499703641981e-06 -3.314505011076107621e-05 -7.254142019519349560e-06 -1.775960845407098532e-05
3.786000000000000000e+03 1.008689117431640625e+01 6.380660057067871094e+00 1.751527452142909169e-05 -4.149959931964986026e-05 -7.195297257567290217e-06 -1.734570787448319606e-06
3.787000000000000000e+03 1.214380645751953125e+01 -7.297175407409667969e+00 9.276615455746650696e-03 -2.081307470798492432e-01 -5.965624004602432251e-02 -1.969374269247055054e-01
3.788000000000000000e+03 1.394261646270751953e+01 -8.041983604431152344e+00 6.325252354145050049e-02 -2.611964344978332520e-01 -5.938317254185676575e-02 -2.397445291280746460e-01
3.789000000000000000e+03 3.446454238891601562e+01 1.663718414306640625e+01 -2.965399436652660370e-02 2.424937702016904950e-04 -8.823450654745101929e-03 2.159342169761657715e-02
3.790000000000000000e+03 3.405784225463867188e+01 1.709989356994628906e+01 -2.997628785669803619e-02 6.043651374056935310e-04 -8.811577223241329193e-03 2.217133343219757080e-02
3.791000000000000000e+03 3.670561599731445312e+01 -5.467626571655273438e+00 -7.354697585105895996e-01 1.099450826644897461e+00 1.091943308711051941e-01 2.557407319545745850e-01
3.792000000000000000e+03 8.283665657043457031e+00 7.737767696380615234e+00 1.861569908214733005e-04 -1.048330595949664712e-04 2.439717900415416807e-05 4.502547017182223499e-05
3.793000000000000000e+03 3.578246688842773438e+01 -6.621401309967041016e+00 2.792151868343353271e-01 1.124825716018676758e+00 4.212122559547424316e-01 -3.457123637199401855e-01
3.794000000000000000e+03 1.740723037719726562e+01 2.514795494079589844e+01 -2.090712264180183411e-02 -1.967353513464331627e-03 -6.862342823296785355e-03 1.320532243698835373e-02
3.795000000000000000e+03 1.668454551696777344e+01 2.559379959106445312e+01 -1.645633578300476074e-02 -1.770720118656754494e-03 -5.468117073178291321e-03 1.251989137381315231e-02
3.796000000000000000e+03 3.110970497131347656e+01 -5.342665672302246094e+00 2.778533101081848145e-01 5.350896120071411133e-01 2.438828647136688232e-01 -1.909751147031784058e-01
3.797000000000000000e+03 1.176153564453125000e+01 -8.951304435729980469e+00 3.114389814436435699e-02 -2.403461337089538574e-01 -6.276066601276397705e-02 -1.572196632623672485e-01
3.798000000000000000e+03 7.128973484039306641e+00 8.868833541870117188e+00 2.749354171101003885e-04 -1.521082158433273435e-04 3.684816329041495919e-05 -3.108647797489538789e-05
3.799000000000000000e+03 7.917878627777099609e+00 9.298039436340332031e+00 -1.388273904012748972e-05 -1.053489177138544619e-04 -3.576949529815465212e-05 2.856783430615905672e-05
3.800000000000000000e+03 3.768828582763671875e+01 1.522661495208740234e+01 -2.881387807428836823e-02 1.155265327543020248e-02 -5.178367253392934799e-03 6.452356930822134018e-03
3.801000000000000000e+03 3.366989135742187500e+01 1.898311424255371094e+01 -4.325752705335617065e-02 7.417705492116510868e-04 -1.275472622364759445e-02 2.659013867378234863e-02
3.802000000000000000e+03 3.324453735351562500e+01 1.863980674743652344e+01 -4.126138985157012939e-02 -2.416694769635796547e-03 -1.310342550277709961e-02 2.628353051841259003e-02
3.803000000000000000e+03 7.788098335266113281e+00 1.590214633941650391e+01 -2.273689169669523835e-04 -5.296980380080640316e-04 -2.271200937684625387e-04 -1.329631922999396920e-04
3.804000000000000000e+03 1.045727348327636719e+01 1.732353401184082031e+01 -6.351125775836408138e-04 -6.639930070377886295e-04 -3.897316928487271070e-04 1.086732518160715699e-04
3.805000000000000000e+03 1.168553161621093750e+01 1.668966102600097656e+01 9.126339864451438189e-05 -2.140315045835450292e-04 -3.683043178170919418e-05 9.090839012060314417e-05
3.806000000000000000e+03 3.304280471801757812e+01 2.414475250244140625e+01 -2.810878306627273560e-02 4.396867938339710236e-03 -7.113574072718620300e-03 1.102203689515590668e-02
3.807000000000000000e+03 7.087557983398437500e+01 -6.929197311401367188e+00 -3.533868789672851562e-01 -1.048135664314031601e-02 -1.091604679822921753e-01 -7.281599044799804688e-01
3.808000000000000000e+03 7.088207244873046875e+01 -9.123964309692382812e+00 -5.317938327789306641e-01 5.608251690864562988e-02 -1.427133977413177490e-01 -5.605741739273071289e-01
3.809000000000000000e+03 7.703929901123046875e+00 8.257381439208984375e+00 -1.210176014865282923e-05 -5.652028630720451474e-05 -2.058661448245402426e-05 -3.733810808626003563e-05
3.810000000000000000e+03 3.403546142578125000e+01 2.075299072265625000e+01 -4.605551436543464661e-02 1.194293517619371414e-02 -1.023377291858196259e-02 1.945848949253559113e-02
3.811000000000000000e+03 2.964180755615234375e+01 2.580247497558593750e+01 -1.799902692437171936e-02 -1.595097035169601440e-02 -1.018499862402677536e-02 1.286647282540798187e-02
3.812000000000000000e+03 3.917402267456054688e+01 -6.983716487884521484e+00 -3.638508170843124390e-02 9.923567175865173340e-01 2.867915034294128418e-01 7.939698100090026855e-01
3.813000000000000000e+03 7.740480422973632812e+00 1.484433269500732422e+01 4.045414607389830053e-05 -4.881719651166349649e-04 -1.343153417110443115e-04 -1.568689913256093860e-04
3.814000000000000000e+03 7.170671463012695312e+00 1.535333538055419922e+01 1.095646075555123389e-04 -5.479463725350797176e-04 -1.315145345870405436e-04 -3.078534064115956426e-06
3.815000000000000000e+03 4.339465332031250000e+01 -7.819532871246337891e+00 4.832082092761993408e-01 -8.466804027557373047e-01 -1.090416610240936279e-01 1.160290837287902832e+00
3.816000000000000000e+03 7.064208030700683594e+00 -8.573782920837402344e+00 -1.399978995323181152e-02 -1.223260536789894104e-01 -4.089775308966636658e-02 -7.540954649448394775e-02
3.817000000000000000e+03 1.268008422851562500e+01 6.672469139099121094e+00 8.525230077793821692e-05 5.555078587349271402e-06 2.724221485550515354e-05 5.691489059245213866e-05
3.818000000000000000e+03 1.310155391693115234e+01 6.367919445037841797e+00 -2.629038863233290613e-05 3.417469633859582245e-05 2.365292630202020518e-06 1.991343742702156305e-05
3.819000000000000000e+03 6.376816940307617188e+01 -1.454423666000366211e+00 4.398178160190582275e-01 8.992556333541870117e-01 4.017220437526702881e-01 -3.924030810594558716e-02
3.820000000000000000e+03 8.565789222717285156e+00 1.787008476257324219e+01 -8.939174585975706577e-04 -7.649024482816457748e-04 -4.976459895260632038e-04 1.389320386806502938e-04
3.821000000000000000e+03 2.674833297729492188e+01 2.592536354064941406e+01 -2.331169135868549347e-02 -2.062575146555900574e-02 -1.318123284727334976e-02 2.130010724067687988e-02
3.822000000000000000e+03 2.551189994812011719e+01 2.640144348144531250e+01 -1.932002045214176178e-02 -1.925218291580677032e-02 -1.157166063785552979e-02 2.238715998828411102e-02
3.823000000000000000e+03 2.037025260925292969e+01 2.629992485046386719e+01 -2.147292532026767731e-02 -9.414160624146461487e-03 -9.266125969588756561e-03 2.101906575262546539e-02
3.824000000000000000e+03 1.817848205566406250e+01 2.657807540893554688e+01 -1.744803600013256073e-02 -5.567662417888641357e-03 -6.904709152877330780e-03 1.754205115139484406e-02
3.825000000000000000e+03 9.260402679443359375e+00 -6.894653320312500000e+00 -2.331314235925674438e-02 -1.338362842798233032e-01 -4.714483022689819336e-02 -1.212754100561141968e-01
3.826000000000000000e+03 2.564535331726074219e+01 2.560001945495605469e+01 -2.763534523546695709e-02 -2.039061486721038818e-02 -1.440778840333223343e-02 2.465688623487949371e-02
3.827000000000000000e+03 7.609390735626220703e+00 1.831327247619628906e+01 -9.578980389051139355e-04 -7.282622391358017921e-04 -5.058480892330408096e-04 1.551051682326942682e-04
3.828000000000000000e+03 6.451790618896484375e+01 -5.917548537254333496e-01 4.566268026828765869e-01 9.457645416259765625e-01 4.207174181938171387e-01 -8.233599364757537842e-02
3.829000000000000000e+03 6.827880859375000000e+01 1.475041103363037109e+01 5.822857022285461426e-01 1.281872510910034180e+00 5.592474937438964844e-01 -7.780123036354780197e-03
3.830000000000000000e+03 7.278993988037109375e+01 -4.383562564849853516e+00 -1.072959974408149719e-01 -2.386900633573532104e-01 -1.037958189845085144e-01 -7.205719351768493652e-01
3.831000000000000000e+03 3.682489395141601562e+01 1.539597892761230469e+01 -2.949952520430088043e-02 9.863809682428836823e-03 -5.890714470297098160e-03 1.121791172772645950e-02
3.832000000000000000e+03 2.777672004699707031e+01 2.536568832397460938e+01 -2.691164426505565643e-02 -2.172229252755641937e-02 -1.459018141031265259e-02 2.102804929018020630e-02
3.833000000000000000e+03 2.856963348388671875e+01 2.457517433166503906e+01 -3.365045413374900818e-02 -2.379319258034229279e-02 -1.723309420049190521e-02 2.051946893334388733e-02
3.834000000000000000e+03 7.961423397064208984e+00 2.641866493225097656e+01 -3.822633530944585800e-03 -2.132768975570797920e-03 -1.786620705388486385e-03 4.884263500571250916e-03
3.835000000000000000e+03 7.362073898315429688e+00 1.228470611572265625e+01 2.562552981544286013e-04 -2.867199655156582594e-04 -9.139404937741346657e-06 -7.155568891903385520e-05
3.836000000000000000e+03 6.909799194335937500e+01 -8.038245201110839844e+00 -5.702653527259826660e-01 7.155701518058776855e-02 -1.496125012636184692e-01 -7.346897721290588379e-01
3.837000000000000000e+03 3.462403869628906250e+01 1.602998352050781250e+01 -2.558942139148712158e-02 2.388753928244113922e-03 -6.960200145840644836e-03 1.832051388919353485e-02
3.838000000000000000e+03 6.742689514160156250e+01 6.238129138946533203e+00 5.032822489738464355e-01 1.236785531044006348e+00 5.220203399658203125e-01 -1.777825206518173218e-01
3.839000000000000000e+03 6.897304534912109375e+01 8.728334426879882812e+00 4.433596730232238770e-01 9.104443788528442383e-01 4.061412215232849121e-01 -1.896359175443649292e-01
3.840000000000000000e+03 7.204747009277343750e+01 -4.919343471527099609e+00 -1.366428583860397339e-01 -1.760216355323791504e-01 -9.379934519529342651e-02 -7.477815151214599609e-01
3.841000000000000000e+03 1.127397155761718750e+01 -8.016462326049804688e+00 1.052089687436819077e-02 -2.112147659063339233e-01 -6.020816043019294739e-02 -1.633699983358383179e-01
3.842000000000000000e+03 6.714410400390625000e+01 9.987833976745605469e+00 5.228359699249267578e-01 1.784256458282470703e+00 6.921277046203613281e-01 -1.261796895414590836e-02
3.843000000000000000e+03 7.005352783203125000e+01 9.507021903991699219e+00 4.198870360851287842e-01 5.465996861457824707e-01 2.899460196495056152e-01 -2.313710600137710571e-01
3.844000000000000000e+03 1.704035186767578125e+01 -7.024543285369873047e+00 8.064465969800949097e-02 -2.222361415624618530e-01 -4.247744753956794739e-02 -3.481928706169128418e-01
3.845000000000000000e+03 7.170929718017578125e+01 -8.748329162597656250e+00 -4.465100765228271484e-01 1.666728965938091278e-02 -1.289528310298919678e-01 -5.884811282157897949e-01
3.846000000000000000e+03 6.175760746002197266e+00 -1.053153133392333984e+01 -1.346639823168516159e-02 -1.319967657327651978e-01 -4.363894835114479065e-02 -6.586091965436935425e-02
3.847000000000000000e+03 7.076743316650390625e+01 2.263230085372924805e+00 2.441454678773880005e-01 3.631091117858886719e-02 8.413691073656082153e-02 -5.967528820037841797e-01
3.848000000000000000e+03 7.196638488769531250e+01 1.967981696128845215e+00 2.027189284563064575e-01 -2.065344750881195068e-01 -1.144663197919726372e-03 -6.229815483093261719e-01
3.849000000000000000e+03 6.292915725708007812e+01 -5.023916721343994141e+00 9.767465293407440186e-02 3.532795011997222900e-01 1.352862417697906494e-01 -1.899589449167251587e-01
3.850000000000000000e+03 6.588767242431640625e+01 -5.055154800415039062e+00 -6.006435304880142212e-02 1.824086606502532959e-01 3.670329228043556213e-02 -5.802482962608337402e-01
3.851000000000000000e+03 8.594204902648925781e+00 -1.551592922210693359e+01 -5.177646875381469727e-02 -2.046056389808654785e-01 -7.691463083028793335e-02 -1.049125418066978455e-01
3.852000000000000000e+03 7.654121875762939453e+00 -1.609253311157226562e+01 -4.030106589198112488e-02 -1.964858323335647583e-01 -7.103607058525085449e-02 -1.066184192895889282e-01
3.853000000000000000e+03 8.521473884582519531e+00 -1.333130836486816406e+01 -3.573792800307273865e-02 -2.000559419393539429e-01 -7.073816657066345215e-02 -8.746469765901565552e-02
3.854000000000000000e+03 6.074334335327148438e+01 -8.908296585083007812e+00 -8.119114041328430176e-01 1.676071286201477051e-01 -1.932912915945053101e-01 -6.311920285224914551e-02
3.855000000000000000e+03 3.515662002563476562e+01 1.844153785705566406e+01 -4.084407538175582886e-02 1.228799577802419662e-02 -8.566822856664657593e-03 2.119260095059871674e-02
3.856000000000000000e+03 1.042919445037841797e+01 -1.082266235351562500e+01 7.878210162743926048e-04 -2.343330532312393188e-01 -7.006356865167617798e-02 -1.066024899482727051e-01
3.857000000000000000e+03 9.236492156982421875e+00 -9.091294288635253906e+00 -5.844297353178262711e-03 -1.794387251138687134e-01 -5.558490380644798279e-02 -1.088963896036148071e-01
3.858000000000000000e+03 7.054717254638671875e+01 -5.600470304489135742e-01 1.448412686586380005e-01 1.700808852910995483e-02 4.855480790138244629e-02 -6.862241625785827637e-01
3.859000000000000000e+03 6.545266723632812500e+01 1.958129763603210449e+00 4.730237424373626709e-01 1.225240230560302734e+00 5.094792246818542480e-01 -9.950894117355346680e-02
3.860000000000000000e+03 8.329678535461425781e+00 2.320882225036621094e+01 -3.519913647323846817e-03 -7.377872243523597717e-04 -1.277310191653668880e-03 2.121343277394771576e-03
3.861000000000000000e+03 7.136219024658203125e+01 4.410376548767089844e+00 2.809610962867736816e-01 -4.114381223917007446e-02 7.194518297910690308e-02 -5.103870630264282227e-01
3.862000000000000000e+03 6.963074493408203125e+01 -8.835553169250488281e+00 -6.049639582633972168e-01 6.946636736392974854e-02 -1.606492847204208374e-01 -6.328026056289672852e-01
3.863000000000000000e+03 6.767726135253906250e+01 -2.263998746871948242e+00 1.519886106252670288e-01 2.949320971965789795e-01 1.340762078762054443e-01 -6.114719510078430176e-01
3.864000000000000000e+03 7.069072723388671875e+01 -4.519058227539062500e+00 -1.187626495957374573e-01 -5.267410352826118469e-02 -5.143102630972862244e-02 -7.666710615158081055e-01
3.865000000000000000e+03 4.205431747436523438e+01 2.164558410644531250e+01 -2.637596428394317627e-02 3.302591666579246521e-02 1.994985621422529221e-03 4.657035227864980698e-03
3.866000000000000000e+03 7.359020996093750000e+01 1.902567863464355469e+01 2.070862650871276855e-01 -6.614567041397094727e-01 -1.363111287355422974e-01 3.289249539375305176e-01
3.867000000000000000e+03 3.693054962158203125e+01 2.047600746154785156e+01 -3.850875049829483032e-02 2.641236782073974609e-02 -3.628914942964911461e-03 1.427248865365982056e-02
3.868000000000000000e+03 6.120275878906250000e+01 -7.153380870819091797e+00 -2.627070844173431396e-01 2.527477145195007324e-01 -2.987812738865613937e-03 -2.548497729003429413e-02
3.869000000000000000e+03 7.110240936279296875e+01 1.887899971008300781e+01 3.842211663722991943e-01 1.764270365238189697e-01 1.681944578886032104e-01 3.260772526264190674e-01
3.870000000000000000e+03 7.014250946044921875e+01 2.150460243225097656e+01 2.464765757322311401e-01 4.014907181262969971e-01 1.943901777267456055e-01 4.731488227844238281e-01
3.871000000000000000e+03 8.661918640136718750e+00 2.878919219970703125e+01 -3.001128556206822395e-03 -3.961349837481975555e-03 -2.088743494823575020e-03 7.028837688267230988e-03
3.872000000000000000e+03 6.623683929443359375e+01 2.399429321289062500e+01 1.132460683584213257e-01 1.442963600158691406e+00 4.668628871440887451e-01 3.377690613269805908e-01
3.873000000000000000e+03 6.115377426147460938e+01 -6.096916675567626953e+00 8.426381275057792664e-03 3.708857595920562744e-01 1.137936413288116455e-01 1.148166973143815994e-02
3.874000000000000000e+03 4.549327087402343750e+01 2.708761596679687500e+01 6.958268582820892334e-02 8.162654191255569458e-02 4.536277055740356445e-02 -7.186695933341979980e-02
3.875000000000000000e+03 7.702420234680175781e+00 -2.109329414367675781e+01 1.586936530657112598e-03 -2.351889610290527344e-01 -7.008060812950134277e-02 -1.308792680501937866e-01
3.876000000000000000e+03 1.081104946136474609e+01 3.118446159362792969e+01 -5.703084170818328857e-04 -6.495351437479257584e-03 -2.119697863236069679e-03 1.005716621875762939e-02
3.877000000000000000e+03 9.644968032836914062e+00 3.189550018310546875e+01 -3.637087647803127766e-04 -6.941278930753469467e-03 -2.191496314480900764e-03 8.817501366138458252e-03
3.878000000000000000e+03 3.866781997680664062e+01 2.252304267883300781e+01 -2.356165461242198944e-02 3.179658949375152588e-02 2.470481209456920624e-03 9.648333303630352020e-03
3.879000000000000000e+03 8.420297622680664062e+00 -1.887062454223632812e+01 -3.062793798744678497e-02 -2.232869714498519897e-01 -7.617447525262832642e-02 -1.334463506937026978e-01
3.880000000000000000e+03 8.387403488159179688e+00 -1.673526191711425781e+01 -4.624090343713760376e-02 -2.077206671237945557e-01 -7.618847489356994629e-02 -1.166259944438934326e-01
3.881000000000000000e+03 6.655757141113281250e+01 2.668828725814819336e+00 4.500894844532012939e-01 1.055376172065734863e+00 4.516397118568420410e-01 -2.378041893243789673e-01
3.882000000000000000e+03 7.223426818847656250e+01 2.589754486083984375e+01 -3.855633363127708435e-02 -1.488521844148635864e-01 -5.622255429625511169e-02 5.391291379928588867e-01
3.883000000000000000e+03 1.787805747985839844e+01 -3.211083984375000000e+01 7.954753935337066650e-02 9.811026975512504578e-03 2.680756896734237671e-02 -4.309827834367752075e-02
3.884000000000000000e+03 2.745644187927246094e+01 -4.354372024536132812e+00 -3.704114556312561035e-01 1.267546564340591431e-01 -7.309704273939132690e-02 -7.707021236419677734e-01
3.885000000000000000e+03 2.774889945983886719e+01 -3.296503543853759766e+00 -1.350683212280273438e+00 -8.190263994038105011e-03 -4.076620340347290039e-01 -5.579161047935485840e-01
3.886000000000000000e+03 4.147966384887695312e+01 -8.357833862304687500e+00 1.015040397644042969e+00 -3.498360812664031982e-01 1.995612978935241699e-01 1.070760726928710938e+00
3.887000000000000000e+03 2.944890213012695312e+01 -5.241890907287597656e+00 2.890187799930572510e-01 5.530599951744079590e-01 2.526236474514007568e-01 -5.133718252182006836e-01
3.888000000000000000e+03 3.527769088745117188e+01 1.486843776702880859e+01 -2.087310142815113068e-02 2.853337209671735764e-03 -5.405929405242204666e-03 1.300624012947082520e-02
3.889000000000000000e+03 4.162041854858398438e+01 -9.387419700622558594e+00 1.477604985237121582e+00 -4.112328886985778809e-01 3.199115991592407227e-01 8.502857685089111328e-01
3.890000000000000000e+03 1.377796077728271484e+01 9.432100296020507812e+00 4.108882058062590659e-05 1.430573029210790992e-04 5.524383959709666669e-05 6.436827243305742741e-05
3.891000000000000000e+03 1.339641380310058594e+01 6.780563831329345703e+00 6.524795026052743196e-05 1.484380163674359210e-06 2.001969914999790490e-05 7.133746839826926589e-05
3.892000000000000000e+03 3.963483047485351562e+01 -7.895339488983154297e+00 6.675130128860473633e-01 7.771790623664855957e-01 4.334076046943664551e-01 1.003490924835205078e+00
3.893000000000000000e+03 3.992889404296875000e+01 -8.264476776123046875e+00 9.619973897933959961e-01 5.903478860855102539e-01 4.657035768032073975e-01 1.088977456092834473e+00
3.894000000000000000e+03 1.023686885833740234e+01 1.491911411285400391e+01 -1.138286643254105002e-05 -4.025288508273661137e-04 -1.241735153598710895e-04 2.934386429842561483e-04
3.895000000000000000e+03 4.261906051635742188e+01 -8.105846405029296875e+00 7.117132544517517090e-01 -6.772753000259399414e-01 1.033139135688543320e-02 1.110543012619018555e+00
3.896000000000000000e+03 9.770811080932617188e+00 1.240026664733886719e+01 2.029932220466434956e-04 -2.233022241853177547e-04 -6.092699550208635628e-06 1.034519300446845591e-04
3.897000000000000000e+03 1.267877292633056641e+01 1.120813179016113281e+01 5.376795525080524385e-05 1.399901957483962178e-04 5.812744348077103496e-05 1.156329890363849699e-04
3.898000000000000000e+03 1.355881500244140625e+01 9.648661613464355469e+00 -1.549621265439782292e-05 9.759335080161690712e-05 2.462914198986254632e-05 3.697781721712090075e-05
3.899000000000000000e+03 3.580519866943359375e+01 1.000533103942871094e+01 -1.566931605339050293e-03 -1.540271565318107605e-03 -9.321609395556151867e-04 9.213094017468392849e-04
3.900000000000000000e+03 2.919346618652343750e+01 -4.208590984344482422e+00 -6.762791275978088379e-01 3.420742750167846680e-01 -1.002614647150039673e-01 -4.965623915195465088e-01
3.901000000000000000e+03 1.586579322814941406e+01 7.420367717742919922e+00 -4.610532778315246105e-05 2.259898064949084073e-05 -7.051904503896366805e-06 4.671750502893701196e-06
3.902000000000000000e+03 1.632525444030761719e+01 6.500467300415039062e+00 -5.698264430975541472e-05 1.087478358385851607e-05 -1.383235849061748013e-05 2.042321648332290351e-05
3.903000000000000000e+03 1.157785224914550781e+01 1.614912033081054688e+01 -8.908252493711188436e-05 -3.704570408444851637e-04 -1.378618762828409672e-04 4.379415477160364389e-04
3.904000000000000000e+03 1.047774219512939453e+01 1.547837829589843750e+01 2.630348899401724339e-04 -4.615027864929288626e-04 -5.954036532784812152e-05 7.292257942026481032e-05
3.905000000000000000e+03 1.394053840637207031e+01 9.106339454650878906e+00 -6.054852201486937702e-05 3.280911914771422744e-05 -8.321821042045485228e-06 9.022124868351966143e-05
3.906000000000000000e+03 3.438495254516601562e+01 1.843163299560546875e+01 -3.888349980115890503e-02 5.574809387326240540e-03 -9.992606937885284424e-03 2.355264127254486084e-02
3.907000000000000000e+03 1.244659233093261719e+01 1.076478004455566406e+01 3.679766450659371912e-05 2.927224613813450560e-07 1.112711561290780082e-05 2.273436257382854819e-04
3.908000000000000000e+03 1.342311286926269531e+01 7.411113262176513672e+00 9.478347783442586660e-05 4.116781201446428895e-05 4.078538768226280808e-05 3.763231870834715664e-05
3.909000000000000000e+03 3.028404235839843750e+01 -4.029798030853271484e+00 -9.204098582267761230e-01 4.257843494415283203e-01 -1.483876556158065796e-01 -3.204857707023620605e-01
3.910000000000000000e+03 4.021139907836914062e+01 -9.200325965881347656e+00 1.711493492126464844e+00 2.772194147109985352e-01 5.966138839721679688e-01 1.058812260627746582e+00
3.911000000000000000e+03 1.110051059722900391e+01 1.202072238922119141e+01 2.148001221939921379e-04 -9.073030378203839064e-05 3.722094697877764702e-05 1.536628697067499161e-04
3.912000000000000000e+03 2.717726325988769531e+01 -4.885189533233642578e+00 7.810694724321365356e-02 1.884171515703201294e-01 7.995723187923431396e-02 -8.279024362564086914e-01
3.913000000000000000e+03 1.031368923187255859e+01 1.357710838317871094e+01 2.429973683319985867e-04 -2.829948789440095425e-04 -1.199925281980540603e-05 1.230364869115874171e-04
3.914000000000000000e+03 1.225371742248535156e+01 2.233387947082519531e+01 -7.580725476145744324e-03 7.970132865011692047e-04 -2.035113750025629997e-03 1.885008881799876690e-03
3.915000000000000000e+03 1.262437725067138672e+01 2.354915237426757812e+01 -9.269797243177890778e-03 8.963794680312275887e-04 -2.512025181204080582e-03 3.498363541439175606e-03
3.916000000000000000e+03 1.057945919036865234e+01 1.413962841033935547e+01 6.330228643491864204e-05 -3.036241396330296993e-04 -7.209655450424179435e-05 3.102107148151844740e-04
3.917000000000000000e+03 1.095515251159667969e+01 1.336490154266357422e+01 7.033355359453707933e-05 -1.970753655768930912e-04 -3.802254650508984923e-05 3.081970498897135258e-04
3.918000000000000000e+03 1.130393505096435547e+01 2.029110336303710938e+01 -3.392847022041678429e-03 -2.077980752801522613e-05 -1.024088007397949696e-03 1.442709253751672804e-05
3.919000000000000000e+03 1.102634239196777344e+01 6.878323554992675781e+00 1.247002801392227411e-04 3.195188128302106634e-06 3.836864198092371225e-05 7.142580579966306686e-05
3.920000000000000000e+03 3.032655906677246094e+01 -4.522387027740478516e+00 -5.248728990554809570e-01 4.557601809501647949e-01 -2.073382027447223663e-02 -3.447189927101135254e-01
3.921000000000000000e+03 1.579138183593750000e+01 6.562354087829589844e+00 -5.905723810428753495e-05 -1.160987267212476581e-05 -2.120013232342898846e-05 4.660643753595650196e-05
3.922000000000000000e+03 1.011919403076171875e+01 2.115269470214843750e+01 -3.702332032844424248e-03 -2.590165822766721249e-04 -1.188404625281691551e-03 1.061799004673957825e-03
3.923000000000000000e+03 1.080802917480468750e+01 1.944355583190917969e+01 -2.364479238167405128e-03 -3.278903895989060402e-04 -8.077109232544898987e-04 6.705158739350736141e-05
3.924000000000000000e+03 1.045123767852783203e+01 6.928873538970947266e+00 8.471035107504576445e-05 -4.593498670146800578e-05 1.163260913017438725e-05 6.810908234911039472e-05
3.925000000000000000e+03 1.557761383056640625e+01 7.680961608886718750e+00 2.371691698499489576e-05 6.404927262337878346e-05 2.632985706441104412e-05 1.492308729211799800e-05
3.926000000000000000e+03 3.605300521850585938e+01 1.619881629943847656e+01 -3.155936673283576965e-02 1.035964954644441605e-02 -6.359915714710950851e-03 1.563695631921291351e-02
3.927000000000000000e+03 3.529600143432617188e+01 1.615075302124023438e+01 -2.788890711963176727e-02 4.253616556525230408e-03 -7.090587168931961060e-03 1.725653186440467834e-02
3.928000000000000000e+03 3.604458618164062500e+01 -6.204113006591796875e+00 -1.397254914045333862e-01 1.096257925033569336e+00 2.869597375392913818e-01 -8.528428524732589722e-02
3.929000000000000000e+03 3.974733352661132812e+01 -6.768798351287841797e+00 -1.391193866729736328e-01 5.042809247970581055e-01 1.095484569668769836e-01 8.822291493415832520e-01
3.930000000000000000e+03 2.016887664794921875e+01 2.798897171020507812e+01 -1.015911344438791275e-02 -1.116619445383548737e-02 -6.397592369467020035e-03 2.131315506994724274e-02
3.931000000000000000e+03 2.115748405456542969e+01 2.608665275573730469e+01 -2.491466514766216278e-02 -1.113860215991735458e-02 -1.081597991287708282e-02 2.184914611279964447e-02
3.932000000000000000e+03 1.428941535949707031e+01 7.476189613342285156e+00 7.023410580586642027e-05 5.076472007203847170e-05 3.629964703577570617e-05 -2.330538882233668119e-05
3.933000000000000000e+03 1.569854164123535156e+01 2.511917686462402344e+01 -1.482155080884695053e-02 -6.935266428627073765e-04 -4.654522985219955444e-03 1.001014653593301773e-02
3.934000000000000000e+03 1.445452690124511719e+01 2.461416053771972656e+01 -1.295407209545373917e-02 -4.473317676456645131e-05 -3.899641567841172218e-03 7.761226035654544830e-03
3.935000000000000000e+03 1.359057140350341797e+01 6.140665531158447266e+00 1.741846608638297766e-05 4.639699454855872318e-06 6.617449798795860261e-06 5.932324347668327391e-05
3.936000000000000000e+03 8.326926231384277344e+00 -9.741456031799316406e+00 -6.970075424760580063e-03 -1.666774004697799683e-01 -5.209424346685409546e-02 -9.116054326295852661e-02
3.937000000000000000e+03 2.828370857238769531e+01 2.681847572326660156e+01 -1.079778280109167099e-02 -1.601416058838367462e-02 -8.043583482503890991e-03 1.512748654931783676e-02
3.938000000000000000e+03 2.175152206420898438e+01 2.750310897827148438e+01 -1.455316785722970963e-02 -1.349235605448484421e-02 -8.413657546043395996e-03 2.280664630234241486e-02
3.939000000000000000e+03 3.736063003540039062e+01 -5.157695770263671875e+00 -1.047065258026123047e+00 1.093414068222045898e+00 1.390466373413801193e-02 4.203734993934631348e-01
3.940000000000000000e+03 1.102874565124511719e+01 1.879889488220214844e+01 -1.067307312041521072e-03 -5.502026178874075413e-04 -4.852529673371464014e-04 -9.328937449026852846e-05
3.941000000000000000e+03 3.863978958129882812e+01 -7.316230773925781250e+00 1.115973517298698425e-01 1.342705607414245605e+00 4.362908899784088135e-01 6.983897686004638672e-01
3.942000000000000000e+03 1.408423328399658203e+01 2.417308807373046875e+01 -1.209186948835849762e-02 1.084588817320764065e-03 -3.302184166386723518e-03 5.852643400430679321e-03
3.943000000000000000e+03 1.386856555938720703e+01 2.511529350280761719e+01 -1.105191837996244431e-02 6.982651393627747893e-05 -3.294627415016293526e-03 7.531337440013885498e-03
3.944000000000000000e+03 1.168050003051757812e+01 2.112320327758789062e+01 -4.814433399587869644e-03 2.923480351455509663e-04 -1.356625580228865147e-03 4.519508802331984043e-04
3.945000000000000000e+03 3.329848480224609375e+01 1.935645103454589844e+01 -4.413287341594696045e-02 5.268015083856880665e-04 -1.308182161301374435e-02 2.487367764115333557e-02
3.946000000000000000e+03 3.569562149047851562e+01 2.122571182250976562e+01 -3.875301778316497803e-02 2.237461507320404053e-02 -4.913521464914083481e-03 1.445263903588056564e-02
3.947000000000000000e+03 3.688489532470703125e+01 1.620174980163574219e+01 -3.209164366126060486e-02 1.124381460249423981e-02 -6.254348438233137131e-03 1.223750226199626923e-02
3.948000000000000000e+03 3.681432342529296875e+01 1.704839706420898438e+01 -3.731750696897506714e-02 1.738113351166248322e-02 -5.980912595987319946e-03 1.426007784903049469e-02
3.949000000000000000e+03 1.113076877593994141e+01 1.808307266235351562e+01 -1.049240119755268097e-03 -5.584706668742001057e-04 -4.823132185265421867e-04 8.199668081942945719e-05
3.950000000000000000e+03 3.431578445434570312e+01 1.917240715026855469e+01 -4.393036291003227234e-02 9.427846409380435944e-03 -1.035075541585683823e-02 2.287698164582252502e-02
3.951000000000000000e+03 9.387094497680664062e+00 7.788853168487548828e+00 1.690155331743881106e-04 -8.668949158163741231e-05 2.469781247782520950e-05 6.671463779639452696e-05
3.952000000000000000e+03 1.335408687591552734e+01 2.409017753601074219e+01 -1.043779496103525162e-02 8.965267334133386612e-04 -2.862380351871252060e-03 4.989704117178916931e-03
3.953000000000000000e+03 7.045896148681640625e+01 -8.303631782531738281e+00 -5.126168131828308105e-01 5.577819794416427612e-02 -1.370515823364257812e-01 -6.778427362442016602e-01
3.954000000000000000e+03 3.089471626281738281e+01 2.493173217773437500e+01 -2.363400161266326904e-02 -1.172915473580360413e-02 -1.060894690454006195e-02 9.766362607479095459e-03
3.955000000000000000e+03 7.613177299499511719e+00 1.309155082702636719e+01 7.505786925321444869e-05 -3.405471215955913067e-04 -7.964677206473425031e-05 1.794503077690023929e-05
3.956000000000000000e+03 1.069743347167968750e+01 1.278865814208984375e+01 2.255934959976002574e-04 -1.706509210634976625e-04 1.648277429922018200e-05 1.468580449000000954e-04
3.957000000000000000e+03 6.738117980957031250e+01 -5.354067802429199219e+00 -1.615515649318695068e-01 1.094551309943199158e-01 -1.562893204391002655e-02 -7.131709456443786621e-01
3.958000000000000000e+03 3.312029266357421875e+01 2.590080451965332031e+01 -1.257171295583248138e-02 7.089686580002307892e-03 -1.644607982598245144e-03 7.654664106667041779e-03
3.959000000000000000e+03 6.038697242736816406e+00 -1.815952682495117188e+01 -2.140965685248374939e-02 -2.001157253980636597e-01 -6.645761430263519287e-02 -1.074214428663253784e-01
3.960000000000000000e+03 3.454635620117187500e+01 2.179285240173339844e+01 -3.951854631304740906e-02 1.695528626441955566e-02 -6.768978200852870941e-03 1.466898713260889053e-02
3.961000000000000000e+03 3.487799835205078125e+01 2.300519561767578125e+01 -3.024811670184135437e-02 1.988962665200233459e-02 -3.107546828687191010e-03 1.030887570232152939e-02
3.962000000000000000e+03 3.532345199584960938e+01 2.213343238830566406e+01 -3.699891269207000732e-02 1.874352246522903442e-02 -5.476616322994232178e-03 1.477722451090812683e-02
3.963000000000000000e+03 1.065684986114501953e+01 -7.193547248840332031e+00 -1.194896362721920013e-02 -1.714677512645721436e-01 -5.502501502633094788e-02 -1.583068519830703735e-01
3.964000000000000000e+03 6.981381988525390625e+01 -4.990218162536621094e+00 -1.803649961948394775e-01 -4.105511587113142014e-03 -5.534115061163902283e-02 -7.736869454383850098e-01
3.965000000000000000e+03 7.139868259429931641e+00 2.147083473205566406e+01 -1.852141926065087318e-03 -7.288318010978400707e-04 -7.742921006865799427e-04 1.036432804539799690e-03
3.966000000000000000e+03 8.225082397460937500e+00 2.194890022277832031e+01 -2.787616569548845291e-03 -6.204005912877619267e-04 -1.022405223920941353e-03 1.486816094256937504e-03
3.967000000000000000e+03 6.488495635986328125e+01 -3.598085403442382812e+00 2.023491561412811279e-01 4.324466884136199951e-01 1.904387623071670532e-01 -3.457518815994262695e-01
3.968000000000000000e+03 1.079745769500732422e+01 7.376638412475585938e+00 -3.015315451193600893e-05 -1.629789221624378115e-05 -1.393531329085817561e-05 3.462537642917595804e-05
3.969000000000000000e+03 9.014549255371093750e+00 9.266139984130859375e+00 8.935050573199987411e-06 -9.099426824832335114e-05 -2.461776421114336699e-05 3.841175566776655614e-05
3.970000000000000000e+03 8.860132217407226562e+00 7.258998870849609375e+00 5.124874405737500638e-06 -4.549967343336902559e-05 -1.211243943544104695e-05 -1.182404866995057091e-05
3.971000000000000000e+03 1.870660781860351562e+01 2.738336944580078125e+01 -1.278723310679197311e-02 -7.730196695774793625e-03 -6.155228707939386368e-03 1.906464248895645142e-02
3.972000000000000000e+03 2.004612350463867188e+01 2.706748580932617188e+01 -1.624693721532821655e-02 -9.096298366785049438e-03 -7.602970581501722336e-03 2.029064111411571503e-02
3.973000000000000000e+03 6.483879852294921875e+01 -5.479052543640136719e+00 -7.807431370019912720e-02 1.742080450057983398e-01 2.884011715650558472e-02 -4.730824828147888184e-01
3.974000000000000000e+03 6.457444000244140625e+01 -4.434671401977539062e+00 9.867864847183227539e-02 3.120805919170379639e-01 1.232277676463127136e-01 -3.802037537097930908e-01
3.975000000000000000e+03 1.005136108398437500e+01 1.922440910339355469e+01 -1.360073219984769821e-03 -6.493486580438911915e-04 -6.028265343047678471e-04 3.903770630131475627e-05
3.976000000000000000e+03 7.820339202880859375e+00 1.757452392578125000e+01 -3.455350524745881557e-04 -6.362938438542187214e-04 -2.945486630778759718e-04 -4.886558235739357769e-05
3.977000000000000000e+03 2.444356155395507812e+01 2.614614295959472656e+01 -2.355631627142429352e-02 -1.895502954721450806e-02 -1.275340374559164047e-02 2.333404123783111572e-02
3.978000000000000000e+03 2.263299942016601562e+01 2.686688232421875000e+01 -1.752411201596260071e-02 -1.385007984936237335e-02 -9.412257932126522064e-03 2.237151004374027252e-02
3.979000000000000000e+03 3.589344406127929688e+01 1.768090248107910156e+01 -3.866416588425636292e-02 1.448764558881521225e-02 -7.252956274896860123e-03 1.800667867064476013e-02
3.980000000000000000e+03 8.248877525329589844e+00 1.541039848327636719e+01 7.440221816068515182e-05 -5.959594273008406162e-04 -1.564671692904084921e-04 7.515192555729299784e-05
3.981000000000000000e+03 9.065711021423339844e+00 3.026922416687011719e+01 -1.223270432092249393e-03 -5.254103802144527435e-03 -1.943212235346436501e-03 7.888832129538059235e-03
3.982000000000000000e+03 1.004310131072998047e+01 1.299809074401855469e+01 1.021053394651971757e-04 -2.752326836343854666e-04 -5.193820106796920300e-05 2.177653514081612229e-04
3.983000000000000000e+03 8.752774238586425781e+00 1.589853763580322266e+01 -1.997355284402146935e-04 -5.441117682494223118e-04 -2.231541875516995788e-04 -5.546781903831288218e-05
3.984000000000000000e+03 7.590115070343017578e+00 -9.132066726684570312e+00 -1.293413620442152023e-02 -1.440843045711517334e-01 -4.710553586483001709e-02 -8.583971112966537476e-02
3.985000000000000000e+03 6.831596374511718750e+01 -5.545421838760375977e-01 2.246117889881134033e-01 3.569208383560180664e-01 1.744597852230072021e-01 -5.760921835899353027e-01
3.986000000000000000e+03 6.627462005615234375e+01 9.158091545104980469e-01 4.102690219879150391e-01 8.688137531280517578e-01 3.837248384952545166e-01 -2.828246355056762695e-01
3.987000000000000000e+03 7.133500671386718750e+01 -7.845181941986083984e+00 -3.876030147075653076e-01 -1.763562113046646118e-02 -1.215715929865837097e-01 -6.509052515029907227e-01
3.988000000000000000e+03 8.822137832641601562e+00 2.242693519592285156e+01 -3.379036905243992805e-03 -5.825320840813219547e-04 -1.188470632769167423e-03 2.029272494837641716e-03
3.989000000000000000e+03 1.699829673767089844e+01 2.639031982421875000e+01 -1.596840657293796539e-02 -3.640870330855250359e-03 -5.882783327251672745e-03 1.509092748165130615e-02
3.990000000000000000e+03 1.496490573883056641e+01 2.504075813293457031e+01 -1.373467780649662018e-02 6.456607661675661802e-05 -4.101033322513103485e-03 8.957748301327228546e-03
3.991000000000000000e+03 7.227329254150390625e+01 -3.308691978454589844e+00 -3.934361785650253296e-02 -2.268555313348770142e-01 -7.985974103212356567e-02 -7.465829849243164062e-01
3.992000000000000000e+03 8.989547729492187500e+00 -1.054757785797119141e+01 -9.620998986065387726e-03 -1.940243244171142578e-01 -6.109359860420227051e-02 -9.559065103530883789e-02
3.993000000000000000e+03 5.154302597045898438e+00 -1.038304138183593750e+01 -1.136108674108982086e-02 -1.127973794937133789e-01 -3.724753856658935547e-02 -5.468757450580596924e-02
3.994000000000000000e+03 1.075534915924072266e+01 -9.422611236572265625e+00 1.148081570863723755e-02 -2.231896817684173584e-01 -6.351266056299209595e-02 -1.301994919776916504e-01
3.995000000000000000e+03 2.588676834106445312e+01 3.040608024597167969e+01 9.748203679919242859e-03 -1.370404660701751709e-02 -1.186752808280289173e-03 1.628856547176837921e-02
3.996000000000000000e+03 6.917313385009765625e+01 5.874035358428955078e+00 4.186442196369171143e-01 6.462860703468322754e-01 3.194790780544281006e-01 -3.416982293128967285e-01
3.997000000000000000e+03 2.476634025573730469e+01 2.715048408508300781e+01 -1.546921581029891968e-02 -1.841046102344989777e-02 -1.016390323638916016e-02 2.358922176063060760e-02
3.998000000000000000e+03 7.133131408691406250e+01 3.376833915710449219e+00 2.501795887947082520e-01 -5.568438395857810974e-02 5.834856256842613220e-02 -5.533071160316467285e-01
3.999000000000000000e+03 6.921459197998046875e+01 -1.855939745903015137e+00 1.106445640325546265e-01 1.366547793149948120e-01 7.418980449438095093e-02 -6.867078542709350586e-01
4.000000000000000000e+03 8.375330924987792969e+00 1.636218070983886719e+01 8.783656994637567550e-06 -7.079805363900959492e-04 -2.097590768244117498e-04 5.298581527313217521e-05
4.001000000000000000e+03 8.652775764465332031e+00 1.721525573730468750e+01 -2.388995926594361663e-04 -6.433084490709006786e-04 -2.646624052431434393e-04 -4.509983409661799669e-05
4.002000000000000000e+03 8.573832511901855469e+00 9.741234779357910156e+00 2.322040090803056955e-04 -1.655490777920931578e-04 1.999647793127223849e-05 3.177914186380803585e-05
4.003000000000000000e+03 7.837109565734863281e+00 -8.396914482116699219e+00 -1.433044578880071640e-02 -1.397008001804351807e-01 -4.620937258005142212e-02 -9.024100750684738159e-02
4.004000000000000000e+03 9.363825798034667969e+00 2.704751396179199219e+01 -4.603574518114328384e-03 -2.528111683204770088e-03 -2.139505697414278984e-03 6.674529053270816803e-03
4.005000000000000000e+03 8.025539398193359375e+00 2.551509284973144531e+01 -3.270450513809919357e-03 -1.868704217486083508e-03 -1.541746431030333042e-03 4.403195343911647797e-03
4.006000000000000000e+03 8.088645935058593750e+00 -1.468369388580322266e+01 -4.484963044524192810e-02 -1.963149756193161011e-01 -7.234937697649002075e-02 -9.606028348207473755e-02
4.007000000000000000e+03 6.787952423095703125e+01 1.316615390777587891e+01 5.203682780265808105e-01 1.572996735572814941e+00 6.280094981193542480e-01 -4.989118129014968872e-02
4.008000000000000000e+03 7.263655090332031250e+01 1.462301063537597656e+01 3.226004838943481445e-01 -3.717070221900939941e-01 -1.473195943981409073e-02 5.801143869757652283e-02
4.009000000000000000e+03 7.080573272705078125e+01 2.542871856689453125e+01 -1.341947074979543686e-02 1.781961619853973389e-01 4.943300783634185791e-02 5.433002710342407227e-01
4.010000000000000000e+03 6.980005645751953125e+01 4.835652351379394531e+00 3.615157604217529297e-01 4.182761609554290771e-01 2.339375764131546021e-01 -4.263819158077239990e-01
4.011000000000000000e+03 7.434462547302246094e+00 -1.883289527893066406e+01 -2.691060490906238556e-02 -2.122967392206192017e-01 -7.176220417022705078e-02 -1.242437884211540222e-01
4.012000000000000000e+03 7.224385833740234375e+01 1.905133056640625000e+01 3.060280382633209229e-01 -2.756158411502838135e-01 9.123658761382102966e-03 3.532324135303497314e-01
4.013000000000000000e+03 7.202780151367187500e+01 2.040213203430175781e+01 2.211244255304336548e-01 -1.689092069864273071e-01 1.566456444561481476e-02 4.346967041492462158e-01
4.014000000000000000e+03 3.504698944091796875e+01 2.010049057006835938e+01 -4.343743994832038879e-02 1.683146320283412933e-02 -7.981793023645877838e-03 1.909346878528594971e-02
4.015000000000000000e+03 3.611388397216796875e+01 1.925162887573242188e+01 -4.208572953939437866e-02 2.024433203041553497e-02 -6.552419625222682953e-03 1.794148050248622894e-02
4.016000000000000000e+03 6.944745635986328125e+01 -6.548932552337646484e+00 -3.541055917739868164e-01 2.870916388928890228e-02 -9.761893004179000854e-02 -7.686467766761779785e-01
4.017000000000000000e+03 6.997583770751953125e+01 -7.449967861175537109e+00 -4.174920618534088135e-01 2.127292566001415253e-02 -1.188657358288764954e-01 -7.172870039939880371e-01
4.018000000000000000e+03 6.612474822998046875e+01 -6.964524388313293457e-01 3.524295389652252197e-01 6.785188913345336914e-01 3.092845380306243896e-01 -3.454958200454711914e-01
4.019000000000000000e+03 3.870289611816406250e+01 2.533846473693847656e+01 -1.910343184135854244e-03 3.762787580490112305e-02 1.071526017040014267e-02 -1.923434319905936718e-03
4.020000000000000000e+03 6.341943740844726562e+01 2.190336227416992188e+01 5.705571174621582031e-01 2.478662729263305664e+00 9.147658944129943848e-01 -2.195905745029449463e-01
4.021000000000000000e+03 7.134516143798828125e+01 2.354537010192871094e+01 8.725537359714508057e-02 4.661241918802261353e-02 4.016033932566642761e-02 5.406342148780822754e-01
4.022000000000000000e+03 1.210464191436767578e+01 3.073719787597656250e+01 -2.401188248768448830e-03 -6.138784345239400864e-03 -2.561991801485419273e-03 1.110771670937538147e-02
4.023000000000000000e+03 1.259407329559326172e+01 3.230591583251953125e+01 1.573053654283285141e-03 -8.488724939525127411e-03 -2.074701245874166489e-03 1.108263712376356125e-02
4.024000000000000000e+03 7.330466461181640625e+01 5.109519481658935547e+00 1.784865707159042358e-01 -5.732042789459228516e-01 -1.184153109788894653e-01 -4.740798473358154297e-01
4.025000000000000000e+03 6.734386444091796875e+01 1.562726736068725586e+00 3.750562369823455811e-01 7.537103295326232910e-01 3.386299610137939453e-01 -3.773871362209320068e-01
4.026000000000000000e+03 6.855382537841796875e+01 2.174704313278198242e+00 3.376588523387908936e-01 5.249609351158142090e-01 2.587859332561492920e-01 -4.820365309715270996e-01
4.027000000000000000e+03 2.762372398376464844e+01 -3.790547370910644531e+00 -8.878765106201171875e-01 1.000624373555183411e-01 -2.363442331552505493e-01 -6.843008995056152344e-01
4.028000000000000000e+03 2.985140037536621094e+01 -3.621642112731933594e+00 -1.299064874649047852e+00 3.331025838851928711e-01 -2.897886931896209717e-01 -3.445351719856262207e-01
4.029000000000000000e+03 4.138182449340820312e+01 -8.848747253417968750e+00 1.274569511413574219e+00 -2.995600402355194092e-01 2.925028204917907715e-01 9.925432801246643066e-01
4.030000000000000000e+03 2.714796447753906250e+01 -3.640289783477783203e+00 -9.470765590667724609e-01 -3.673504665493965149e-02 -2.951434850692749023e-01 -7.274215817451477051e-01
4.031000000000000000e+03 2.931729698181152344e+01 -4.673900604248046875e+00 -3.751235604286193848e-01 4.710187613964080811e-01 2.876855432987213135e-02 -4.915372133255004883e-01
4.032000000000000000e+03 3.074793624877929688e+01 -3.968403100967407227e+00 -1.009894013404846191e+00 3.668965101242065430e-01 -1.928992569446563721e-01 -2.677376866340637207e-01
4.033000000000000000e+03 1.448970985412597656e+01 8.389224052429199219e+00 -3.959371315431781113e-05 6.761938129784539342e-05 8.407700079260393977e-06 1.309008257521782070e-05
4.034000000000000000e+03 1.367901802062988281e+01 8.490649223327636719e+00 -8.562640869058668613e-05 3.837234908132813871e-05 -1.417621842847438529e-05 1.082307862816378474e-04
4.035000000000000000e+03 1.344774436950683594e+01 9.323337554931640625e+00 -3.897568603861145675e-05 1.523759328847518191e-05 -7.121427643141942099e-06 1.410080149071291089e-04
4.036000000000000000e+03 1.323375892639160156e+01 9.801663398742675781e+00 5.420740126282908022e-05 2.573959500296041369e-05 2.398409924353472888e-05 1.831891422625631094e-04
4.037000000000000000e+03 3.994978332519531250e+01 -8.991988182067871094e+00 1.554177403450012207e+00 5.693228244781494141e-01 6.370500922203063965e-01 1.121838212013244629e+00
4.038000000000000000e+03 1.217252922058105469e+01 1.133534431457519531e+01 1.635650551179423928e-05 -1.046918077918235213e-05 1.766197556207771413e-06 2.282793429912999272e-04
4.039000000000000000e+03 9.906023979187011719e+00 7.333098411560058594e+00 4.502270712691824883e-06 -3.762734922929666936e-05 -9.937523827829863876e-06 1.980782690225169063e-05
4.040000000000000000e+03 1.061494731903076172e+01 2.004480171203613281e+01 -2.377892145887017250e-03 -3.951179096475243568e-04 -8.319030748680233955e-04 2.007077855523675680e-04
4.041000000000000000e+03 1.026288127899169922e+01 1.860581588745117188e+01 -1.523270737379789352e-03 -5.349419079720973969e-04 -6.174637819640338421e-04 1.113183461711741984e-04
4.042000000000000000e+03 2.880639266967773438e+01 -4.840627193450927734e+00 -9.392419457435607910e-02 3.893848657608032227e-01 8.863820135593414307e-02 -5.885128974914550781e-01
4.043000000000000000e+03 4.063262939453125000e+01 -9.113781929016113281e+00 1.585385203361511230e+00 1.828574202954769135e-02 4.811012744903564453e-01 1.008789062500000000e+00
4.044000000000000000e+03 8.770380020141601562e+00 1.499376487731933594e+01 7.197679224191233516e-05 -5.241176113486289978e-04 -1.356422435492277145e-04 -6.019106876919977367e-05
4.045000000000000000e+03 1.159436893463134766e+01 1.138221359252929688e+01 1.730520598357543349e-04 1.551423338241875172e-05 5.656988651026040316e-05 1.644315634621307254e-04
4.046000000000000000e+03 9.219566345214843750e+00 1.788135719299316406e+01 -7.219730759970843792e-04 -4.431569250300526619e-04 -3.495389828458428383e-04 -1.564255653647705913e-04
4.047000000000000000e+03 1.415636444091796875e+01 6.473585128784179688e+00 -5.712134588975459337e-05 2.673547169251833111e-05 -9.115762622968759388e-06 5.379866706789471209e-05
4.048000000000000000e+03 1.523807334899902344e+01 7.390038967132568359e+00 -4.365751374280080199e-05 2.279876389366108924e-05 -6.257625500438734889e-06 2.271514313179068267e-05
4.049000000000000000e+03 1.109576606750488281e+01 1.614854431152343750e+01 2.302263019373640418e-04 -4.028358380310237408e-04 -5.178285937290638685e-05 1.953575265360996127e-04
4.050000000000000000e+03 3.532184219360351562e+01 1.549076652526855469e+01 -2.487293072044849396e-02 4.402198828756809235e-03 -6.141219288110733032e-03 1.530751306563615799e-02
4.051000000000000000e+03 3.594659042358398438e+01 1.479821777343750000e+01 -2.312785573303699493e-02 4.712449852377176285e-03 -5.524621345102787018e-03 1.145854499191045761e-02
4.052000000000000000e+03 3.515758895874023438e+01 1.924886512756347656e+01 -4.142369329929351807e-02 1.252016797661781311e-02 -8.671057410538196564e-03 2.106895111501216888e-02
4.053000000000000000e+03 4.103055953979492188e+01 -8.335086822509765625e+00 1.028841137886047363e+00 -1.187946945428848267e-01 2.730139493942260742e-01 1.066750407218933105e+00
4.054000000000000000e+03 9.659211158752441406e+00 1.381596469879150391e+01 8.344610250787809491e-05 -3.624726086854934692e-04 -8.370794967049732804e-05 2.057872770819813013e-04
4.055000000000000000e+03 9.956007003784179688e+00 1.437526798248291016e+01 2.345588727621361613e-04 -4.068138659931719303e-04 -5.167649578652344644e-05 7.055447349557653069e-05
4.056000000000000000e+03 8.357730865478515625e+00 1.443072414398193359e+01 8.354018063982948661e-05 -4.716204421129077673e-04 -1.164240748039446771e-04 9.372765634907409549e-05
4.057000000000000000e+03 8.368263244628906250e+00 8.770506858825683594e+00 2.385341358603909612e-04 -1.502787490608170629e-04 2.647661494847852737e-05 3.144068250549025834e-05
4.058000000000000000e+03 9.478158950805664062e+00 8.778608322143554688e+00 2.005386777454987168e-04 -1.157975930254906416e-04 2.542232687119394541e-05 7.515960896853357553e-05
4.059000000000000000e+03 1.485657119750976562e+01 7.162816524505615234e+00 7.030980486888438463e-05 4.098219869774766266e-05 3.338760143378749490e-05 7.601358902320498601e-06
4.060000000000000000e+03 3.510574340820312500e+01 1.764816093444824219e+01 -3.532599657773971558e-02 7.625692058354616165e-03 -8.310090750455856323e-03 2.117012068629264832e-02
4.061000000000000000e+03 3.517540359497070312e+01 1.686810493469238281e+01 -3.304767608642578125e-02 8.145434781908988953e-03 -7.470672950148582458e-03 1.898877695202827454e-02
4.062000000000000000e+03 1.376278972625732422e+01 6.546674251556396484e+00 -2.724316618696320802e-05 6.056579150026664138e-05 9.996787412092089653e-06 3.774455080929328687e-06
4.063000000000000000e+03 1.140269184112548828e+01 2.165283775329589844e+01 -4.932071547955274582e-03 1.070640064426697791e-04 -1.447502290830016136e-03 1.165701774880290031e-03
4.064000000000000000e+03 1.255744075775146484e+01 9.559036254882812500e+00 1.465617242502048612e-04 -4.014768273918889463e-05 3.192420990671962500e-05 1.669281336944550276e-04
4.065000000000000000e+03 1.156615829467773438e+01 7.159042835235595703e+00 -3.035092595382593572e-05 -3.410557110328227282e-05 -1.933694875333458185e-05 3.479266524664126337e-05
4.066000000000000000e+03 1.469694614410400391e+01 7.519207954406738281e+00 -6.157718598842620850e-05 2.964704253827221692e-05 -9.579043762641958892e-06 6.396581011358648539e-05
4.067000000000000000e+03 1.024381637573242188e+01 -8.555863380432128906e+00 4.893602803349494934e-03 -1.946121305227279663e-01 -5.691555887460708618e-02 -1.316328942775726318e-01
4.068000000000000000e+03 3.659249877929687500e+01 1.790310859680175781e+01 -3.943018987774848938e-02 1.527740713208913803e-02 -7.245833985507488251e-03 1.747533865272998810e-02
4.069000000000000000e+03 3.598995590209960938e+01 1.694825553894042969e+01 -3.355577588081359863e-02 9.407013654708862305e-03 -7.244628388434648514e-03 1.738618500530719757e-02
4.070000000000000000e+03 9.840793609619140625e+00 -9.956492424011230469e+00 4.558051005005836487e-03 -2.067490518093109131e-01 -6.065730005502700806e-02 -1.093029081821441650e-01
4.071000000000000000e+03 1.237237453460693359e+01 2.411259078979492188e+01 -8.460881188511848450e-03 2.325535606360062957e-04 -2.468498190864920616e-03 4.997454117983579636e-03
4.072000000000000000e+03 1.509868335723876953e+01 6.772444248199462891e+00 -7.274271774804219604e-05 2.898406273743603379e-05 -1.312759559368714690e-05 2.114560447807889432e-05
4.073000000000000000e+03 9.273580551147460938e+00 1.633552932739257812e+01 1.882013930298853666e-05 -6.961698527447879314e-04 -2.032049087574705482e-04 5.121127469465136528e-05
4.074000000000000000e+03 1.055285739898681641e+01 1.608378791809082031e+01 -2.975115785375237465e-04 -4.765829653479158878e-04 -2.322283544344827533e-04 2.590454532764852047e-04
4.075000000000000000e+03 9.886086463928222656e+00 1.987374114990234375e+01 -2.527021802961826324e-03 -4.751406377181410789e-04 -9.006487671285867691e-04 3.624210949055850506e-04
4.076000000000000000e+03 1.279828548431396484e+01 2.205408096313476562e+01 -7.197527680546045303e-03 1.043377327732741833e-03 -1.846245140768587589e-03 1.192669034935534000e-03
4.077000000000000000e+03 9.174829483032226562e+00 1.548768615722656250e+01 2.796859189402312040e-05 -5.838319193571805954e-04 -1.667590113356709480e-04 1.250968634849414229e-04
4.078000000000000000e+03 1.203035449981689453e+01 1.089591121673583984e+01 7.134483894333243370e-05 9.803089051274582744e-05 5.081271956441923976e-05 1.016066817101091146e-04
4.079000000000000000e+03 7.961307048797607422e+00 1.379752922058105469e+01 2.029574388870969415e-04 -4.365200875326991081e-04 -7.006878877291455865e-05 -9.205428796121850610e-05
4.080000000000000000e+03 8.188060760498046875e+00 1.218844699859619141e+01 4.596401413436979055e-05 -3.091274120379239321e-04 -7.894901500549167395e-05 -1.543373855383833870e-06
4.081000000000000000e+03 9.061681747436523438e+00 1.976341247558593750e+01 -1.576096052303910255e-03 -6.271784659475088120e-04 -6.609823321923613548e-04 2.774979220703244209e-04
4.082000000000000000e+03 8.871642112731933594e+00 8.269607543945312500e+00 -1.020452600641874596e-06 -6.066028799978084862e-05 -1.850422268034890294e-05 5.882964615011587739e-06
4.083000000000000000e+03 3.793539810180664062e+01 -6.230403423309326172e+00 -5.303024053573608398e-01 1.240721940994262695e+00 2.131258696317672729e-01 4.318461120128631592e-01
4.084000000000000000e+03 1.357098293304443359e+01 2.454792976379394531e+01 -1.140777394175529480e-02 1.880621130112558603e-04 -3.365913638845086098e-03 6.783820223063230515e-03
4.085000000000000000e+03 1.310523033142089844e+01 2.546073341369628906e+01 -1.039330381900072098e-02 -5.201071035116910934e-04 -3.274023067206144333e-03 7.940666750073432922e-03
4.086000000000000000e+03 1.431106472015380859e+01 2.575671005249023438e+01 -1.213079690933227539e-02 -1.093388884328305721e-03 -3.967255819588899612e-03 9.998012334108352661e-03
4.087000000000000000e+03 6.681204223632812500e+01 -4.477825164794921875e+00 -5.826162174344062805e-02 1.821598410606384277e-01 3.716946393251419067e-02 -6.539623141288757324e-01
4.088000000000000000e+03 6.403807067871093750e+01 -3.055729389190673828e+00 2.877669930458068848e-01 5.894711017608642578e-01 2.631714344024658203e-01 -2.143072485923767090e-01
4.089000000000000000e+03 8.843322753906250000e+00 1.208093643188476562e+01 1.857656461652368307e-04 -2.461276017129421234e-04 -1.810858702810946852e-05 6.139332981547340751e-05
4.090000000000000000e+03 7.935467243194580078e+00 1.110668468475341797e+01 1.780164893716573715e-04 -2.414284099359065294e-04 -1.902357507788110524e-05 -3.647592529887333512e-05
4.091000000000000000e+03 8.432111740112304688e+00 1.162343883514404297e+01 2.423966070637106895e-04 -2.493818174116313457e-04 -2.095563331749872304e-06 9.153829887509346008e-05
4.092000000000000000e+03 9.191197395324707031e+00 1.725338745117187500e+01 -5.165461916476488113e-04 -8.851216407492756844e-04 -4.205003497190773487e-04 2.426642895443364978e-04
4.093000000000000000e+03 6.724895000457763672e+00 1.953298950195312500e+01 -8.579139248467981815e-04 -6.101227481849491596e-04 -4.404110077302902937e-04 1.806774234864860773e-04
4.094000000000000000e+03 7.588822841644287109e+00 2.243420791625976562e+01 -2.785312943160533905e-03 -8.699319441802799702e-04 -1.096573425456881523e-03 1.818938297219574451e-03
4.095000000000000000e+03 1.131613254547119141e+01 7.714354991912841797e+00 1.407870149705559015e-04 -6.878643489471869543e-06 4.017251194454729557e-05 7.857276796130463481e-05
4.096000000000000000e+03 1.039749717712402344e+01 7.819479465484619141e+00 1.591155159985646605e-04 -6.401318387361243367e-05 2.853070145647507161e-05 7.910653221188113093e-05
4.097000000000000000e+03 1.918515777587890625e+01 2.835916519165039062e+01 -9.874840267002582550e-03 -9.783793240785598755e-03 -5.897589959204196930e-03 2.025650255382061005e-02
4.098000000000000000e+03 3.387307739257812500e+01 2.486694335937500000e+01 -1.749953441321849823e-02 1.468805968761444092e-02 -8.434425108134746552e-04 5.899474956095218658e-03
4.099000000000000000e+03 3.232114410400390625e+01 2.496104812622070312e+01 -1.954373531043529510e-02 5.450602620840072632e-04 -5.699602421373128891e-03 7.020285353064537048e-03
4.100000000000000000e+03 1.833655738830566406e+01 2.877952003479003906e+01 -6.710030604153871536e-03 -9.145302698016166687e-03 -4.756599664688110352e-03 1.893039792776107788e-02
4.101000000000000000e+03 1.741033935546875000e+01 2.719247436523437500e+01 -1.239040028303861618e-02 -5.354433786123991013e-03 -5.323450081050395966e-03 1.677017845213413239e-02
4.102000000000000000e+03 1.655396842956542969e+01 2.785025024414062500e+01 -1.017052028328180313e-02 -5.694733001291751862e-03 -4.759576171636581421e-03 1.619663089513778687e-02
4.103000000000000000e+03 2.707216835021972656e+01 2.895072174072265625e+01 1.594710280187427998e-03 -1.481135934591293335e-02 -3.964994568377733231e-03 1.729806885123252869e-02
4.104000000000000000e+03 2.373936271667480469e+01 2.631888580322265625e+01 -2.482147887349128723e-02 -1.681049540638923645e-02 -1.248959172517061234e-02 2.326614409685134888e-02
4.105000000000000000e+03 8.494751930236816406e+00 2.471638488769531250e+01 -4.052880685776472092e-03 -1.137320883572101593e-03 -1.557060400955379009e-03 3.561317920684814453e-03
4.106000000000000000e+03 6.889202880859375000e+01 -5.602797508239746094e+00 -2.195374518632888794e-01 4.959265887737274170e-02 -5.098343640565872192e-02 -7.695377469062805176e-01
4.107000000000000000e+03 3.757612991333007812e+01 2.200614166259765625e+01 -2.943474799394607544e-02 3.094514273107051849e-02 4.531187296379357576e-04 9.640622884035110474e-03
4.108000000000000000e+03 2.188103294372558594e+01 2.881414794921875000e+01 -5.437556654214859009e-03 -1.493199076503515244e-02 -6.110864225775003433e-03 2.220475301146507263e-02
4.109000000000000000e+03 7.291087341308593750e+01 7.684905052185058594e+00 2.425645589828491211e-01 -4.463536143302917480e-01 -6.113671883940696716e-02 -3.472006916999816895e-01
4.110000000000000000e+03 7.085923767089843750e+01 5.483838558197021484e+00 3.200236260890960693e-01 1.174578070640563965e-01 1.312444359064102173e-01 -4.510965049266815186e-01
4.111000000000000000e+03 6.968791961669921875e+01 7.659366130828857422e+00 4.137088358402252197e-01 5.705804824829101562e-01 2.952868044376373291e-01 -2.995453774929046631e-01
4.112000000000000000e+03 6.545536804199218750e+01 -4.212814331054687500e+00 4.336206242442131042e-02 2.699336111545562744e-01 9.398870170116424561e-02 -5.121614336967468262e-01
4.113000000000000000e+03 9.303604125976562500e+00 2.543589401245117188e+01 -4.567860160022974014e-03 -1.658114604651927948e-03 -1.867792452685534954e-03 5.050058476626873016e-03
4.114000000000000000e+03 7.102951812744140625e+01 1.015583038330078125e+01 3.758057951927185059e-01 2.081561982631683350e-01 1.751886010169982910e-01 -1.972611248493194580e-01
4.115000000000000000e+03 7.170672607421875000e+01 1.168078708648681641e+01 3.646366596221923828e-01 -2.982725016772747040e-02 1.004428192973136902e-01 -1.272285878658294678e-01
4.116000000000000000e+03 7.045664978027343750e+01 3.900341033935546875e+00 3.083425164222717285e-01 1.784067153930664062e-01 1.460247784852981567e-01 -5.068746209144592285e-01
4.117000000000000000e+03 6.466977691650390625e+01 -2.195315599441528320e+00 3.414654135704040527e-01 6.666824817657470703e-01 3.024443686008453369e-01 -2.193795442581176758e-01
4.118000000000000000e+03 6.549736022949218750e+01 -2.903606414794921875e+00 2.052374631166458130e-01 4.560188651084899902e-01 1.983769088983535767e-01 -4.138638675212860107e-01
4.119000000000000000e+03 6.499524688720703125e+01 2.206304740905761719e+01 4.077567458152770996e-01 1.977990269660949707e+00 7.157241106033325195e-01 1.730270683765411377e-01
4.120000000000000000e+03 4.104162216186523438e+01 2.606392478942871094e+01 2.094393409788608551e-02 5.106740444898605347e-02 2.160340175032615662e-02 -1.674388721585273743e-02
4.121000000000000000e+03 6.832148742675781250e+01 -4.658726215362548828e+00 -1.241996958851814270e-01 1.044339612126350403e-01 -5.929719656705856323e-03 -7.402060031890869141e-01
4.122000000000000000e+03 7.169702148437500000e+01 2.186699104309082031e+01 1.907283812761306763e-01 -7.532201707363128662e-02 3.462190926074981689e-02 4.852931201457977295e-01
4.123000000000000000e+03 9.932349205017089844e+00 2.830960464477539062e+01 -3.382310271263122559e-03 -3.472816199064254761e-03 -2.056537894532084465e-03 7.789892610162496567e-03
4.124000000000000000e+03 6.304215621948242188e+01 2.568884086608886719e+01 -1.141088455915451050e-01 1.574636697769165039e+00 4.381583631038665771e-01 -1.236141026020050049e-01
4.125000000000000000e+03 5.015788078308105469e+00 -2.646928405761718750e+01 1.803481020033359528e-02 -2.930530905723571777e-01 -8.250548690557479858e-02 -7.992549240589141846e-02
4.126000000000000000e+03 4.177074432373046875e+01 -8.944386482238769531e+00 1.271592497825622559e+00 -4.633360505104064941e-01 2.424769103527069092e-01 9.590824246406555176e-01
4.127000000000000000e+03 4.101279067993164062e+01 -8.792643547058105469e+00 1.323374629020690918e+00 -1.482965797185897827e-01 3.525234162807464600e-01 1.034035801887512207e+00
4.128000000000000000e+03 4.091980361938476562e+01 -9.221693992614746094e+00 1.586967587471008301e+00 -1.279935240745544434e-01 4.376921951770782471e-01 9.504695534706115723e-01
4.129000000000000000e+03 1.379775428771972656e+01 7.982028961181640625e+00 6.303843838395550847e-05 7.960689981700852513e-05 4.279359927750192583e-05 6.533152372867334634e-06
4.130000000000000000e+03 1.170083332061767578e+01 9.626342773437500000e+00 1.887738762889057398e-04 -4.327285569161176682e-05 4.365030326880514622e-05 1.472457661293447018e-04
4.131000000000000000e+03 1.288529872894287109e+01 9.988149642944335938e+00 -7.764418114675208926e-05 1.596994407009333372e-04 2.461657823005225509e-05 6.701182428514584899e-05
4.132000000000000000e+03 2.854874992370605469e+01 -4.431750297546386719e+00 -4.594705998897552490e-01 3.634625077247619629e-01 -2.880242466926574707e-02 -6.015211939811706543e-01
4.133000000000000000e+03 4.018030166625976562e+01 -8.654508590698242188e+00 1.294693827629089355e+00 4.067409634590148926e-01 5.104303956031799316e-01 1.097035288810729980e+00
4.134000000000000000e+03 1.196951866149902344e+01 8.353431701660156250e+00 -1.362057992082554847e-05 1.317628539254656062e-05 -1.332885091187563376e-07 3.862107041641138494e-05
4.135000000000000000e+03 4.067663192749023438e+01 -8.792307853698730469e+00 1.376899838447570801e+00 5.310574918985366821e-02 4.290016889572143555e-01 1.051093101501464844e+00
4.136000000000000000e+03 1.499944591522216797e+01 7.669185638427734375e+00 1.545272425573784858e-05 7.049894338706508279e-05 2.578550083853770047e-05 2.092978138534817845e-05
4.137000000000000000e+03 1.190191936492919922e+01 2.189818191528320312e+01 -6.119976285845041275e-03 6.091023678891360760e-04 -1.653262181207537651e-03 1.142211840488016605e-03
4.138000000000000000e+03 9.636188507080078125e+00 9.778136253356933594e+00 2.181469026254490018e-04 -1.365952339256182313e-04 2.446550024615135044e-05 9.275304182665422559e-05
4.139000000000000000e+03 1.304492664337158203e+01 7.091996669769287109e+00 -4.938238998875021935e-05 3.207883855793625116e-05 -5.191065156395779923e-06 4.126493877265602350e-05
4.140000000000000000e+03 1.328123855590820312e+01 7.864719867706298828e+00 -5.348787090042605996e-05 5.125998086441541091e-06 -1.450856143492273986e-05 8.948869071900844574e-05
4.141000000000000000e+03 1.043581867218017578e+01 1.217543315887451172e+01 9.424956078873947263e-05 -1.998320221900939941e-04 -3.167473914800211787e-05 2.304918307345360518e-04
4.142000000000000000e+03 1.301161766052246094e+01 9.359534263610839844e+00 3.785693115787580609e-05 1.045681856339797378e-04 4.272753358236514032e-05 1.180497747554909438e-05
4.143000000000000000e+03 1.244830703735351562e+01 8.698893547058105469e+00 1.583631383255124092e-04 1.153329594671959057e-05 5.096893073641695082e-05 8.194569090846925974e-05
4.144000000000000000e+03 9.257647514343261719e+00 1.896240043640136719e+01 -1.607649261131882668e-03 -6.082521285861730576e-04 -6.647704285569489002e-04 1.971536985365673900e-04
4.145000000000000000e+03 1.154963588714599609e+01 8.717108726501464844e+00 1.518205972388386726e-04 -3.761549669434316456e-05 3.426153125474229455e-05 1.205769804073497653e-04
4.146000000000000000e+03 1.220006179809570312e+01 1.033122444152832031e+01 1.154265628429129720e-04 3.816906246356666088e-05 4.607868686434812844e-05 6.180372292874380946e-05
4.147000000000000000e+03 1.183305454254150391e+01 7.898985385894775391e+00 -2.129537460859864950e-05 -4.872455610893666744e-05 -2.100597885146271437e-05 1.130795135395601392e-04
4.148000000000000000e+03 1.269635868072509766e+01 7.373472213745117188e+00 6.478054274339228868e-05 1.407104991812957451e-05 2.365547697991132736e-05 8.219614392146468163e-05
4.149000000000000000e+03 9.346345901489257812e+00 1.465066337585449219e+01 5.232391049503348768e-05 -4.653534269891679287e-04 -1.239088596776127815e-04 1.835947041399776936e-04
4.150000000000000000e+03 8.670310974121093750e+00 1.349575138092041016e+01 8.478128438582643867e-05 -3.742178087122738361e-04 -8.683095802552998066e-05 1.014553345157764852e-04
4.151000000000000000e+03 1.069568538665771484e+01 9.738265991210937500e+00 1.928870769916102290e-04 -7.880612247390672565e-05 3.422428926569409668e-05 1.480276114307343960e-04
4.152000000000000000e+03 1.157214355468750000e+01 1.088775730133056641e+01 -1.952222373802214861e-05 -6.694818875985220075e-05 -2.594112447695806623e-05 1.866271486505866051e-04
4.153000000000000000e+03 9.002824783325195312e+00 1.409425258636474609e+01 2.094161027343943715e-04 -4.511835868470370770e-04 -7.253024523379281163e-05 -4.191449079371523112e-06
4.154000000000000000e+03 1.090269088745117188e+01 1.136340522766113281e+01 1.383687776979058981e-05 -1.153055854956619442e-04 -3.044061304535716772e-05 1.926611003000289202e-04
4.155000000000000000e+03 1.015848445892333984e+01 1.149305438995361328e+01 1.702238514553755522e-04 -1.375439605908468366e-04 9.803963621379807591e-06 9.438082634005695581e-05
4.156000000000000000e+03 1.941793060302734375e+01 2.954596710205078125e+01 -3.165297443047165871e-03 -1.190604735165834427e-02 -4.521403461694717407e-03 1.990032754838466644e-02
4.157000000000000000e+03 8.922965049743652344e+00 1.676158332824707031e+01 -4.443446232471615076e-04 -5.476905498653650284e-04 -2.976105315610766411e-04 -9.504811896476894617e-05
4.158000000000000000e+03 1.110900688171386719e+01 1.737211990356445312e+01 -1.229188201250508428e-04 -4.660335544031113386e-04 -1.766857167240232229e-04 -3.409844850921217585e-07
4.159000000000000000e+03 9.560581207275390625e+00 1.589109897613525391e+01 -1.224554143846035004e-04 -5.708538810722529888e-04 -2.079927944578230381e-04 3.457683851593174040e-05
4.160000000000000000e+03 9.868196487426757812e+00 1.660944938659667969e+01 -4.680376732721924782e-04 -6.063538603484630585e-04 -3.223174717277288437e-04 1.672928483458235860e-04
4.161000000000000000e+03 1.097354221343994141e+01 8.259902000427246094e+00 -4.250874553690664470e-05 -9.234950994141399860e-06 -1.552310823171865195e-05 5.279969627736136317e-05
4.162000000000000000e+03 9.064647674560546875e+00 1.121638774871826172e+01 1.412759738741442561e-04 -2.157643757527694106e-04 -2.234652311017271131e-05 2.319091072422452271e-05
4.163000000000000000e+03 9.671964645385742188e+00 1.516204738616943359e+01 1.669958437560126185e-04 -5.233546835370361805e-04 -1.069076461135409772e-04 2.272310302942059934e-05
4.164000000000000000e+03 9.939063072204589844e+00 1.562337303161621094e+01 -1.334685512119904160e-04 -5.104713491164147854e-04 -1.931819715537130833e-04 2.129728673025965691e-04
4.165000000000000000e+03 1.049537181854248047e+01 1.670090866088867188e+01 4.293464735383167863e-05 -5.434459890238940716e-04 -1.501534134149551392e-04 2.739034789556171745e-05
4.166000000000000000e+03 1.173919296264648438e+01 2.391057395935058594e+01 -8.036789484322071075e-03 2.686250081751495600e-04 -2.330449409782886505e-03 3.749302821233868599e-03
4.167000000000000000e+03 1.290801715850830078e+01 2.420925521850585938e+01 -1.037050876766443253e-02 6.222989177331328392e-04 -2.924463013187050819e-03 5.241304636001586914e-03
4.168000000000000000e+03 8.596097946166992188e+00 1.068307495117187500e+01 1.691178622422739863e-04 -1.723713357932865620e-04 -9.760432249095174484e-07 7.780408486723899841e-05
4.169000000000000000e+03 1.104292392730712891e+01 2.087504577636718750e+01 -3.604962723329663277e-03 -1.032697982736863196e-04 -1.112469821237027645e-03 5.767162656411528587e-04
4.170000000000000000e+03 9.146190643310546875e+00 2.062994194030761719e+01 -2.812933409586548805e-03 -5.033311317674815655e-04 -9.948794031515717506e-04 7.202407578006386757e-04
4.171000000000000000e+03 7.854321479797363281e+00 2.042392921447753906e+01 -1.605817931704223156e-03 -6.897547864355146885e-04 -6.886718329042196274e-04 6.279349909164011478e-04
4.172000000000000000e+03 8.129089355468750000e+00 1.954048156738281250e+01 -1.685106311924755573e-03 -6.574381841346621513e-04 -7.027633255347609520e-04 3.306642465759068727e-04
4.173000000000000000e+03 1.334958267211914062e+01 2.625673103332519531e+01 -8.869252167642116547e-03 -1.369868987239897251e-03 -3.071736311540007591e-03 9.271284565329551697e-03
4.174000000000000000e+03 7.879507064819335938e+00 2.122199249267578125e+01 -2.527772914618253708e-03 -7.063127704896032810e-04 -9.702257229946553707e-04 1.002160017378628254e-03
4.175000000000000000e+03 1.457888793945312500e+01 2.936019325256347656e+01 -5.028288345783948898e-03 -6.121756974607706070e-03 -3.345013596117496490e-03 1.398423966020345688e-02
4.176000000000000000e+03 1.513278007507324219e+01 2.757978057861328125e+01 -9.738569147884845734e-03 -3.985325805842876434e-03 -4.117168486118316650e-03 1.375168841332197189e-02
4.177000000000000000e+03 9.569263458251953125e+00 1.835873413085937500e+01 -7.111961022019386292e-04 -7.959055947139859200e-04 -4.521305090747773647e-04 1.006466918624937534e-04
4.178000000000000000e+03 9.792345046997070312e+00 1.722793960571289062e+01 -2.794755273498594761e-04 -5.680278991349041462e-04 -2.542510337661951780e-04 -6.125619984231889248e-05
4.179000000000000000e+03 1.072990417480468750e+01 2.151562881469726562e+01 -4.652287811040878296e-03 4.920912397210486233e-05 -1.380923553369939327e-03 8.870061719790101051e-04
4.180000000000000000e+03 1.208276844024658203e+01 2.324128341674804688e+01 -7.979087531566619873e-03 5.795598262920975685e-04 -2.219858346506953239e-03 3.544171340763568878e-03
4.181000000000000000e+03 1.102756786346435547e+01 2.381484222412109375e+01 -6.194856017827987671e-03 -1.761331805028021336e-04 -1.911296742036938667e-03 3.903749631717801094e-03
4.182000000000000000e+03 9.936970710754394531e+00 2.335702896118164062e+01 -4.723871592432260513e-03 -4.560864763334393501e-04 -1.553987385705113411e-03 2.830997807905077934e-03
4.183000000000000000e+03 1.769602203369140625e+01 2.940359687805175781e+01 -4.842647351324558258e-03 -9.399878792464733124e-03 -4.272757563740015030e-03 1.830339990556240082e-02
4.184000000000000000e+03 7.301842498779296875e+01 1.052980422973632812e+01 2.633754014968872070e-01 -4.842861592769622803e-01 -6.627322733402252197e-02 -2.018763273954391479e-01
4.185000000000000000e+03 6.536894226074218750e+01 -1.417204141616821289e+00 3.306633830070495605e-01 6.956501603126525879e-01 3.078940510749816895e-01 -2.938733696937561035e-01
4.186000000000000000e+03 7.290726470947265625e+01 9.118641853332519531e+00 2.699697911739349365e-01 -4.359190165996551514e-01 -4.978476837277412415e-02 -2.789776921272277832e-01
4.187000000000000000e+03 6.769832611083984375e+01 3.355459213256835938e+00 4.364117980003356934e-01 8.791103363037109375e-01 3.946566283702850342e-01 -3.287472128868103027e-01
4.188000000000000000e+03 6.963434600830078125e+01 2.993822336196899414e+00 3.175570666790008545e-01 3.596250712871551514e-01 2.031546384096145630e-01 -5.090742111206054688e-01
4.189000000000000000e+03 6.687155914306640625e+01 -1.524674415588378906e+00 2.358102500438690186e-01 4.817374050617218018e-01 2.152643054723739624e-01 -4.948190152645111084e-01
4.190000000000000000e+03 6.822406005859375000e+01 -1.466881036758422852e+00 1.687213629484176636e-01 2.952165603637695312e-01 1.391813755035400391e-01 -6.262876391410827637e-01
4.191000000000000000e+03 3.484082794189453125e+01 2.095870399475097656e+01 -4.195330664515495300e-02 1.418950967490673065e-02 -8.329139091074466705e-03 1.817222312092781067e-02
4.192000000000000000e+03 3.596482086181640625e+01 2.025982475280761719e+01 -4.027471318840980530e-02 1.905427128076553345e-02 -6.366132292896509171e-03 1.790717616677284241e-02
4.193000000000000000e+03 3.660169601440429688e+01 2.156887245178222656e+01 -3.541905060410499573e-02 2.377664670348167419e-02 -3.492721123620867729e-03 1.463753357529640198e-02
4.194000000000000000e+03 1.474745845794677734e+01 2.658390617370605469e+01 -1.064094156026840210e-02 -1.950458157807588577e-03 -3.777419915422797203e-03 1.142022758722305298e-02
4.195000000000000000e+03 2.054899787902832031e+01 2.914549827575683594e+01 -5.651467945426702499e-03 -1.224181614816188812e-02 -5.367985460907220840e-03 2.119141444563865662e-02
4.196000000000000000e+03 1.845470046997070312e+01 2.970585632324218750e+01 -4.172412678599357605e-03 -9.996830485761165619e-03 -4.250772763043642044e-03 1.895331591367721558e-02
4.197000000000000000e+03 6.858983612060546875e+01 -2.970588207244873047e+00 3.754567727446556091e-02 1.516742557287216187e-01 5.676598101854324341e-02 -7.073037624359130859e-01
4.198000000000000000e+03 2.078586387634277344e+01 2.739240264892578125e+01 -1.380648743361234665e-02 -1.217183936387300491e-02 -7.793497759848833084e-03 2.200684323906898499e-02
4.199000000000000000e+03 9.133082389831542969e+00 2.394054985046386719e+01 -4.426525440067052841e-03 -9.385968442074954510e-04 -1.609536586329340935e-03 3.460085019469261169e-03
4.200000000000000000e+03 1.162888240814208984e+01 2.930965805053710938e+01 -3.079677931964397430e-03 -4.784568212926387787e-03 -2.359273843467235565e-03 1.017846353352069855e-02
4.201000000000000000e+03 3.064463996887207031e+01 2.597105407714843750e+01 -1.510061696171760559e-02 -1.274748425930738449e-02 -8.354430086910724640e-03 1.143077947199344635e-02
4.202000000000000000e+03 3.077379798889160156e+01 2.735710144042968750e+01 -5.956756882369518280e-03 -5.422218237072229385e-03 -3.413692582398653030e-03 8.021428249776363373e-03
4.203000000000000000e+03 6.620823669433593750e+01 -3.654653787612915039e+00 9.413703531026840210e-02 2.947555482387542725e-01 1.166677772998809814e-01 -5.411204695701599121e-01
4.204000000000000000e+03 7.043080329895019531e+00 -2.786136627197265625e+01 3.442537784576416016e-02 -2.720085382461547852e-01 -7.127494364976882935e-02 -8.277540653944015503e-02
4.205000000000000000e+03 6.326062202453613281e+00 -2.496059036254882812e+01 2.220272086560726166e-02 -2.653863430023193359e-01 -7.295507937669754028e-02 -1.010546013712882996e-01
4.206000000000000000e+03 6.915135192871093750e+01 8.577276468276977539e-01 2.653845548629760742e-01 3.143600225448608398e-01 1.739233732223510742e-01 -5.725008845329284668e-01
4.207000000000000000e+03 6.933748626708984375e+01 -5.185955166816711426e-01 1.835719197988510132e-01 1.879334300756454468e-01 1.114516034722328186e-01 -6.489122509956359863e-01
4.208000000000000000e+03 3.527863693237304688e+01 2.429035186767578125e+01 -1.739049702882766724e-02 2.307539060711860657e-02 1.705468050204217434e-03 6.150224711745977402e-03
4.209000000000000000e+03 3.613946151733398438e+01 2.255652236938476562e+01 -2.998387627303600311e-02 2.571937069296836853e-02 -1.279352116398513317e-03 9.551120921969413757e-03
4.210000000000000000e+03 1.221411323547363281e+01 9.918892860412597656e+00 -1.306740159634500742e-04 8.071677439147606492e-05 -1.498717119829962030e-05 1.377300650347024202e-04
4.211000000000000000e+03 1.299724197387695312e+01 8.866413116455078125e+00 -9.134166612057015300e-05 2.440444586682133377e-05 -2.008116643992252648e-05 1.626000303076580167e-04
4.212000000000000000e+03 1.384246730804443359e+01 7.490478992462158203e+00 -4.307329436414875090e-05 1.282704761251807213e-05 -9.073874025489203632e-06 1.171732146758586168e-04
4.213000000000000000e+03 1.429787540435791016e+01 7.960922241210937500e+00 -2.453932211210485548e-05 2.533464976295363158e-05 2.385980906183249317e-07 8.752178109716624022e-05
4.214000000000000000e+03 9.468446731567382812e+00 1.179115867614746094e+01 1.544464466860517859e-04 -2.507573517505079508e-04 -2.889327333832625300e-05 1.379138557240366936e-04
4.215000000000000000e+03 9.091403961181640625e+00 1.264691925048828125e+01 1.135532947955653071e-04 -3.100382164120674133e-04 -5.894547575735487044e-05 1.052682346198707819e-04
4.216000000000000000e+03 1.267470741271972656e+01 8.235869407653808594e+00 -5.662514377036131918e-05 2.270120603498071432e-06 -1.630650695005897433e-05 8.643751061754301190e-05
4.217000000000000000e+03 8.417981147766113281e+00 1.865707015991210938e+01 -7.841560873202979565e-04 -6.773574277758598328e-04 -4.384540661703795195e-04 4.679689300246536732e-05
4.218000000000000000e+03 1.053462314605712891e+01 8.763532638549804688e+00 1.778561418177559972e-04 -7.539358921349048615e-05 3.073876359849236906e-05 1.112497047870419919e-04
4.219000000000000000e+03 9.723402023315429688e+00 1.082272624969482422e+01 1.790277310647070408e-04 -1.622731797397136688e-04 5.026363851357018575e-06 1.566186838317662477e-04
4.220000000000000000e+03 9.154476165771484375e+00 1.024971961975097656e+01 6.167883111629635096e-05 -1.401144691044464707e-04 -2.353069066884927452e-05 4.177231312496587634e-05
4.221000000000000000e+03 1.112206935882568359e+01 9.212179183959960938e+00 -3.385613308637402952e-05 -1.128249277826398611e-05 -1.354158848698716611e-05 6.699884397676214576e-05
4.222000000000000000e+03 1.136405372619628906e+01 2.218360710144042969e+01 -6.315597798675298691e-03 3.622729273047298193e-04 -1.785997417755424976e-03 1.713551231659948826e-03
4.223000000000000000e+03 9.854296684265136719e+00 2.053871917724609375e+01 -2.518450375646352768e-03 -3.933532861992716789e-04 -8.735411101952195168e-04 4.092322196811437607e-04
4.224000000000000000e+03 1.044371795654296875e+01 2.062914466857910156e+01 -3.376187058165669441e-03 -2.670859103091061115e-04 -1.092981896363198757e-03 3.754028293769806623e-04
4.225000000000000000e+03 3.600206756591796875e+01 1.838744354248046875e+01 -3.833829611539840698e-02 1.574400253593921661e-02 -6.778288632631301880e-03 1.871306449174880981e-02
4.226000000000000000e+03 1.026787281036376953e+01 1.031330585479736328e+01 2.108294211211614311e-05 -1.115289705921895802e-04 -2.713380854402203113e-05 9.114770364249125123e-05
4.227000000000000000e+03 1.225355911254882812e+01 2.561740493774414062e+01 -7.702700793743133545e-03 -9.498236468061804771e-04 -2.595757367089390755e-03 7.231640163809061050e-03
4.228000000000000000e+03 1.157883834838867188e+01 2.470223236083984375e+01 -7.193941157311201096e-03 -4.377203586045652628e-04 -2.289498457685112953e-03 5.684739444404840469e-03
4.229000000000000000e+03 1.057890224456787109e+01 2.525935745239257812e+01 -6.166674196720123291e-03 -1.045890967361629009e-03 -2.163769444450736046e-03 5.808571353554725647e-03
4.230000000000000000e+03 9.493005752563476562e+00 2.149353027343750000e+01 -3.126185620203614235e-03 -4.357493307907134295e-04 -1.068580430001020432e-03 9.821082931011915207e-04
4.231000000000000000e+03 1.083133506774902344e+01 2.306789970397949219e+01 -6.596072111278772354e-03 1.531482994323596358e-04 -1.932877115905284882e-03 2.710153348743915558e-03
4.232000000000000000e+03 6.753801727294921875e+01 -8.947460055351257324e-01 2.556390166282653809e-01 4.530083537101745605e-01 2.125942111015319824e-01 -5.283163189888000488e-01
4.233000000000000000e+03 6.696141815185546875e+01 -2.992997884750366211e+00 1.018727198243141174e-01 3.017117977142333984e-01 1.210753545165061951e-01 -5.936144590377807617e-01
4.234000000000000000e+03 6.877420043945312500e+01 4.084494590759277344e+00 4.061312377452850342e-01 6.448166966438293457e-01 3.152844011783599854e-01 -3.944735825061798096e-01
4.235000000000000000e+03 2.478126907348632812e+01 2.933631134033203125e+01 -1.591581036336719990e-03 -1.693866774439811707e-02 -5.559074226766824722e-03 2.151592075824737549e-02
4.236000000000000000e+03 2.182398033142089844e+01 3.019070816040039062e+01 2.062098123133182526e-03 -1.423675287514925003e-02 -3.652396379038691521e-03 2.043957822024822235e-02
4.237000000000000000e+03 1.562382888793945312e+01 2.858689498901367188e+01 -6.534349173307418823e-03 -5.586527753621339798e-03 -3.636263078078627586e-03 1.477320771664381027e-02
4.238000000000000000e+03 1.405893898010253906e+01 2.822343826293945312e+01 -6.515742279589176178e-03 -4.040458239614963531e-03 -3.166859969496726990e-03 1.228748355060815811e-02
4.239000000000000000e+03 1.526423454284667969e+01 3.052215576171875000e+01 -1.436258433386683464e-03 -7.882474921643733978e-03 -2.795619890093803406e-03 1.436654105782508850e-02
4.240000000000000000e+03 6.618057250976562500e+01 -2.210083723068237305e+00 2.438565045595169067e-01 4.733665883541107178e-01 2.151669263839721680e-01 -4.421016573905944824e-01
4.241000000000000000e+03 7.086552429199218750e+01 8.432897567749023438e+00 3.588063716888427734e-01 2.020338326692581177e-01 1.682520657777786255e-01 -2.890693843364715576e-01
4.242000000000000000e+03 7.155096435546875000e+01 7.265819549560546875e+00 3.159460723400115967e-01 -4.081597924232482910e-02 8.253902941942214966e-02 -3.690400421619415283e-01
4.243000000000000000e+03 3.441361999511718750e+01 2.389185333251953125e+01 -2.670307643711566925e-02 1.547298114746809006e-02 -3.369028680026531219e-03 9.955812245607376099e-03
4.244000000000000000e+03 3.153344154357910156e+01 2.568054580688476562e+01 -1.851179264485836029e-02 -5.014743190258741379e-03 -7.057961076498031616e-03 1.034422405064105988e-02
4.245000000000000000e+03 3.790846252441406250e+01 2.395772361755371094e+01 -1.087651122361421585e-02 3.281845524907112122e-02 6.582582835108041763e-03 3.594611305743455887e-03
4.246000000000000000e+03 3.601282119750976562e+01 2.600006294250488281e+01 -1.734139397740364075e-03 3.042638115584850311e-02 8.607672527432441711e-03 1.842379861045628786e-04
4.247000000000000000e+03 1.227159976959228516e+01 2.480666732788085938e+01 -9.253376163542270660e-03 3.494693009997718036e-05 -2.765528624877333641e-03 5.750783719122409821e-03
4.248000000000000000e+03 1.708566665649414062e+01 2.869777679443359375e+01 -6.652758922427892685e-03 -7.232289295643568039e-03 -4.165514372289180756e-03 1.704809442162513733e-02
4.249000000000000000e+03 1.210092258453369141e+01 9.150641441345214844e+00 -9.260806109523400664e-05 6.396962271537631750e-05 -8.591530786361545324e-06 6.843351729912683368e-05
4.250000000000000000e+03 1.095760631561279297e+01 1.070269012451171875e+01 2.398942742729559541e-04 -6.825264426879584789e-05 5.149248681846074760e-05 1.467374822823330760e-04
4.251000000000000000e+03 1.008717823028564453e+01 9.272929191589355469e+00 6.679227226413786411e-06 -7.105965050868690014e-05 -1.931412771227769554e-05 6.132128328317776322e-05
4.252000000000000000e+03 1.091224861145019531e+01 2.450992584228515625e+01 -7.086458615958690643e-03 -2.677922020666301250e-04 -2.206275239586830139e-03 4.460721742361783981e-03
4.253000000000000000e+03 9.694650650024414062e+00 2.242583274841308594e+01 -4.743233788758516312e-03 -2.976645191665738821e-04 -1.512269489467144012e-03 1.960486639291048050e-03
4.254000000000000000e+03 1.231180477142333984e+01 2.655447387695312500e+01 -8.165338076651096344e-03 -1.754282508045434952e-03 -2.975886221975088120e-03 8.718115277588367462e-03
4.255000000000000000e+03 1.000056552886962891e+01 1.608054542541503906e+01 1.875939487945288420e-04 -5.962744471617043018e-04 -1.226041495101526380e-04 4.774556146003305912e-05
4.256000000000000000e+03 1.130762672424316406e+01 1.013916587829589844e+01 -4.700268982560373843e-05 3.515851290103455540e-07 -1.399533175572287291e-05 8.310480916406959295e-05
4.257000000000000000e+03 9.778316497802734375e+00 1.784412765502929688e+01 -8.948816685006022453e-04 -7.396379369311034679e-04 -4.903558874502778053e-04 7.497619662899523973e-05
4.258000000000000000e+03 1.366399192810058594e+01 2.717505073547363281e+01 -8.924704045057296753e-03 -2.690654247999191284e-03 -3.484607674181461334e-03 1.110161375254392624e-02
4.259000000000000000e+03 3.698448944091796875e+01 2.314543342590332031e+01 -2.637665718793869019e-02 2.767820097506046295e-02 3.904630139004439116e-04 1.037835422903299332e-02
4.260000000000000000e+03 3.489774703979492188e+01 2.546041870117187500e+01 -1.209235750138759613e-02 2.051318623125553131e-02 2.526248339563608170e-03 4.197665490210056305e-03
4.261000000000000000e+03 7.193898010253906250e+01 1.048545551300048828e+01 3.107292950153350830e-01 -1.480935066938400269e-01 4.879073426127433777e-02 -1.959750354290008545e-01
4.262000000000000000e+03 1.250867462158203125e+01 2.762886619567871094e+01 -6.148723419755697250e-03 -2.900382503867149353e-03 -2.714731730520725250e-03 9.951977990567684174e-03
4.263000000000000000e+03 1.124079227447509766e+01 2.792243194580078125e+01 -5.599471740424633026e-03 -3.127808682620525360e-03 -2.618184080347418785e-03 8.852212689816951752e-03
4.264000000000000000e+03 3.724702072143554688e+01 2.607942771911621094e+01 3.181838663294911385e-03 3.421595692634582520e-02 1.121933851391077042e-02 -2.811871003359556198e-03
4.265000000000000000e+03 3.543260955810546875e+01 2.764183807373046875e+01 5.420644301921129227e-03 2.787242084741592407e-02 9.987919591367244720e-03 -3.385456046089529991e-03
4.266000000000000000e+03 3.432230377197265625e+01 2.973836326599121094e+01 1.591830141842365265e-02 2.809355221688747406e-02 1.320355664938688278e-02 -5.477973725646734238e-03
4.267000000000000000e+03 1.950822448730468750e+01 3.101500511169433594e+01 1.409519696608185768e-03 -1.223137136548757553e-02 -3.246555570513010025e-03 1.896004006266593933e-02
4.268000000000000000e+03 1.617125129699707031e+01 3.161905479431152344e+01 1.086402451619505882e-03 -1.025915332138538361e-02 -2.751825144514441490e-03 1.584927551448345184e-02
4.269000000000000000e+03 2.241673469543457031e+01 3.202156066894531250e+01 1.115598157048225403e-02 -1.396486815065145493e-02 -8.426658459939062595e-04 1.690036058425903320e-02
4.270000000000000000e+03 2.073953056335449219e+01 3.042222785949707031e+01 2.492164960131049156e-03 -1.438870653510093689e-02 -3.568962682038545609e-03 1.993116736412048340e-02
4.271000000000000000e+03 1.287806510925292969e+01 2.881600952148437500e+01 -5.550173576921224594e-03 -4.399945028126239777e-03 -2.985035534948110580e-03 1.142688933759927750e-02
4.272000000000000000e+03 3.560699844360351562e+01 2.340451431274414062e+01 -2.980284951627254486e-02 2.246214449405670166e-02 -2.202211180701851845e-03 1.137578487396240234e-02
4.273000000000000000e+03 1.139531898498535156e+01 2.556755256652832031e+01 -7.701783441007137299e-03 -7.606315193697810173e-04 -2.538724569603800774e-03 6.185836624354124069e-03
4.274000000000000000e+03 1.818250083923339844e+01 3.105939674377441406e+01 1.393696642480790615e-03 -1.203879248350858688e-02 -3.193528857082128525e-03 1.818786747753620148e-02
4.275000000000000000e+03 1.734715270996093750e+01 3.255548095703125000e+01 5.095830652862787247e-03 -1.201260928064584732e-02 -2.075033495202660561e-03 1.565080881118774414e-02
4.276000000000000000e+03 2.403437805175781250e+01 3.246423339843750000e+01 1.422209944576025009e-02 -1.400749664753675461e-02 6.438068521674722433e-05 1.697891764342784882e-02
4.277000000000000000e+03 4.962572574615478516e+00 -2.501533126831054688e+01 1.683704182505607605e-02 -2.784968018531799316e-01 -7.849793136119842529e-02 -8.960665762424468994e-02
4.278000000000000000e+03 4.799448394775390625e+01 -3.313792419433593750e+01 2.462000027298927307e-02 5.172555521130561829e-02 2.290366776287555695e-02 -6.359236687421798706e-02
4.279000000000000000e+03 3.248059844970703125e+01 -3.426168441772460938e+01 -5.705495923757553101e-02 8.236955404281616211e-01 2.299921661615371704e-01 1.953772604465484619e-01
4.280000000000000000e+03 2.533779716491699219e+01 -3.383966064453125000e+01 1.538543850183486938e-01 2.215394675731658936e-01 1.126181557774543762e-01 1.034489125013351440e-01
4.281000000000000000e+03 7.194873046875000000e+01 2.938056564331054688e+01 -1.518531143665313721e-01 -8.227603882551193237e-02 -7.023874670267105103e-02 4.798053801059722900e-01
4.282000000000000000e+03 7.702149868011474609e+00 -2.919788551330566406e+01 3.952061384916305542e-02 -2.581889927387237549e-01 -6.560051441192626953e-02 -7.010256499052047729e-02
4.283000000000000000e+03 3.370146036148071289e+00 -3.703932571411132812e+01 1.133601181209087372e-02 -4.202107489109039307e-01 -1.226624250411987305e-01 -6.885303184390068054e-03
4.284000000000000000e+03 6.835688018798828125e+01 -2.949988365173339844e+01 -4.181112162768840790e-03 4.334902914706617594e-04 -1.124286558479070663e-03 1.583089586347341537e-03
4.285000000000000000e+03 3.115849876403808594e+01 2.918901443481445312e+01 8.890868164598941803e-03 6.573703722096979618e-04 2.864471636712551117e-03 4.712890367954969406e-03
4.286000000000000000e+03 1.302749919891357422e+01 -2.971492958068847656e+01 6.855711340904235840e-02 -1.298480778932571411e-01 -1.838728971779346466e-02 -5.184281617403030396e-02
4.287000000000000000e+03 6.226030731201171875e+01 2.795228958129882812e+01 -2.459232062101364136e-01 1.319751739501953125e+00 3.221485614776611328e-01 -1.644171178340911865e-01
4.288000000000000000e+03 7.543042755126953125e+01 3.690750885009765625e+01 -6.665603816509246826e-02 -5.607392191886901855e-01 -1.882185786962509155e-01 1.556089222431182861e-01
4.289000000000000000e+03 4.260207748413085938e+01 2.647813224792480469e+01 3.536853194236755371e-02 5.687450990080833435e-02 2.767291292548179626e-02 -3.033261373639106750e-02
4.290000000000000000e+03 4.299169921875000000e+01 2.881015777587890625e+01 5.113419145345687866e-02 8.247363567352294922e-02 4.008235037326812744e-02 -5.707068368792533875e-02
4.291000000000000000e+03 6.901396942138671875e+01 -3.574758529663085938e+01 6.338357343338429928e-04 -4.095798823982477188e-03 -1.038588932715356350e-03 5.386948119848966599e-03
4.292000000000000000e+03 6.636338710784912109e+00 -3.802797317504882812e+01 2.039233036339282990e-02 -2.947231531143188477e-01 -8.229924738407135010e-02 -2.390462346374988556e-02
4.293000000000000000e+03 1.821745491027832031e+01 3.401150512695312500e+01 8.976021781563758850e-03 -1.323200296610593796e-02 -1.276794238947331905e-03 1.432068366557359695e-02
4.294000000000000000e+03 6.674870300292968750e+01 2.774208641052246094e+01 -2.309049367904663086e-01 9.367136359214782715e-01 2.117426097393035889e-01 3.091261386871337891e-01
4.295000000000000000e+03 7.029551696777343750e+01 2.745070838928222656e+01 -1.229689568281173706e-01 3.054760396480560303e-01 5.475212261080741882e-02 5.172080397605895996e-01
4.296000000000000000e+03 7.622882080078125000e+01 2.757300949096679688e+01 -2.761487476527690887e-02 -1.057086825370788574e+00 -3.254104852676391602e-01 3.772926330566406250e-01
4.297000000000000000e+03 3.518888854980468750e+01 -3.472134399414062500e+01 -1.247728615999221802e-01 8.793678283691406250e-01 2.263784855604171753e-01 5.443648621439933777e-02
4.298000000000000000e+03 7.003425598144531250e+01 3.237834167480468750e+01 -2.674503326416015625e-01 1.860615760087966919e-01 -2.441662736237049103e-02 3.495457172393798828e-01
4.299000000000000000e+03 7.008494567871093750e+01 2.971406936645507812e+01 -2.087468951940536499e-01 2.777304053306579590e-01 2.069505117833614349e-02 4.374314546585083008e-01
4.300000000000000000e+03 7.186887359619140625e+01 2.754623603820800781e+01 -8.313032984733581543e-02 -4.056973010301589966e-02 -3.711001947522163391e-02 5.182028412818908691e-01
4.301000000000000000e+03 2.360362243652343750e+01 -4.170803427696228027e-01 -1.280709147453308105e+00 2.868269979953765869e-01 -2.981646358966827393e-01 3.810578212141990662e-02
4.302000000000000000e+03 3.839158630371093750e+01 4.210968494415283203e+00 -7.446276140399277210e-05 5.013211048208177090e-04 1.280575088458135724e-04 1.431787532055750489e-04
4.303000000000000000e+03 3.058720397949218750e+01 -1.719522118568420410e+00 -3.069087266921997070e+00 3.211221098899841309e-01 -8.243895173072814941e-01 -1.199088171124458313e-01
4.304000000000000000e+03 3.084509658813476562e+01 -1.940730571746826172e+00 -2.916290521621704102e+00 3.196678757667541504e-01 -7.789868116378784180e-01 -1.743718981742858887e-01
4.305000000000000000e+03 3.038762664794921875e+01 -1.750342965126037598e+00 -3.015923261642456055e+00 2.924744188785552979e-01 -8.170346617698669434e-01 -1.575516015291213989e-01
4.306000000000000000e+03 2.262268829345703125e+01 3.657027482986450195e+00 9.465375114814378321e-06 2.167811908293515444e-05 9.343048077425919473e-06 5.626249276247108355e-06
4.307000000000000000e+03 3.000992965698242188e+01 -2.080897808074951172e+00 -2.708171367645263672e+00 2.527113854885101318e-01 -7.366380095481872559e-01 -1.917604357004165649e-01
4.308000000000000000e+03 3.021310997009277344e+01 -2.085104227066040039e+00 -2.738121271133422852e+00 2.818595170974731445e-01 -7.368785738945007324e-01 -1.925712674856185913e-01
4.309000000000000000e+03 2.919034767150878906e+01 -1.869441270828247070e+00 -2.824124336242675781e+00 1.340457648038864136e-01 -8.070235252380371094e-01 -2.417335063219070435e-01
4.310000000000000000e+03 2.899111938476562500e+01 -1.891803145408630371e+00 -2.772070407867431641e+00 8.968717604875564575e-02 -8.047149777412414551e-01 -2.785985469818115234e-01
4.311000000000000000e+03 2.878262901306152344e+01 -1.913949489593505859e+00 -2.752062559127807617e+00 6.162688881158828735e-02 -8.071306943893432617e-01 -2.794899642467498779e-01
4.312000000000000000e+03 2.849671936035156250e+01 -2.122680425643920898e+00 -2.513329744338989258e+00 1.182055193930864334e-02 -7.504527568817138672e-01 -3.149764835834503174e-01
4.313000000000000000e+03 2.150635910034179688e+01 4.774457454681396484e+00 1.651393540669232607e-05 2.274718281114473939e-05 1.177833564725005999e-05 1.417870134901022539e-05
4.314000000000000000e+03 2.740251159667968750e+01 -2.045415639877319336e+00 -2.412087917327880859e+00 -2.128807753324508667e-01 -7.874906063079833984e-01 -3.830473721027374268e-01
4.315000000000000000e+03 2.685028648376464844e+01 -2.399427890777587891e+00 -1.923675179481506348e+00 -2.672387659549713135e-01 -6.572741866111755371e-01 -5.591744780540466309e-01
4.316000000000000000e+03 3.464552307128906250e+01 -1.342501759529113770e+00 -2.963682651519775391e+00 4.291061162948608398e-01 -7.603729367256164551e-01 7.589504867792129517e-02
4.317000000000000000e+03 3.408455657958984375e+01 -2.183072328567504883e+00 -2.698676586151123047e+00 5.848301202058792114e-02 -7.920580506324768066e-01 5.115415453910827637e-01
4.318000000000000000e+03 3.535175323486328125e+01 -1.315055489540100098e+00 -2.571037292480468750e+00 4.541274309158325195e-01 -6.350729465484619141e-01 9.005006402730941772e-02
4.319000000000000000e+03 1.822688865661621094e+01 7.432260036468505859e+00 4.963150058756582439e-05 1.822249396354891360e-05 2.035619945672806352e-05 2.845518247340805829e-05
4.320000000000000000e+03 3.321744537353515625e+01 1.863478302955627441e+00 3.276612551417201757e-04 -3.191006544511765242e-04 2.568179297668393701e-06 1.999374362640082836e-04
4.321000000000000000e+03 3.314968109130859375e+01 2.173223018646240234e+00 -8.322544745169579983e-04 9.067564678844064474e-05 -2.224736526841297746e-04 3.613483204389922321e-05
4.322000000000000000e+03 3.479141998291015625e+01 2.053030490875244141e+00 1.138984298449940979e-04 -3.185672685503959656e-04 -6.140064942883327603e-05 1.258316769963130355e-04
4.323000000000000000e+03 1.436458969116210938e+01 1.895652389526367188e+01 -3.618991468101739883e-04 1.301194657571613789e-03 2.817886415868997574e-04 -4.516472472460009158e-05
4.324000000000000000e+03 6.926435089111328125e+01 -1.846016120910644531e+01 2.735292582656256855e-05 1.574620400788262486e-04 5.544448868022300303e-05 6.731053872499614954e-05
4.325000000000000000e+03 4.094633865356445312e+01 -1.166609477996826172e+01 1.728362917900085449e+00 -1.591473072767257690e-01 4.707646965980529785e-01 -1.530436873435974121e-01
4.326000000000000000e+03 3.865343475341796875e+01 -1.456170558929443359e+01 -5.288333296775817871e-01 2.300992488861083984e+00 5.316477417945861816e-01 -6.088607311248779297e-01
4.327000000000000000e+03 3.775651168823242188e+01 -1.411338520050048828e+01 -9.707973599433898926e-01 3.805617094039916992e+00 8.504459261894226074e-01 -4.661267399787902832e-01
4.328000000000000000e+03 2.031894302368164062e+01 2.211487960815429688e+01 -4.168893396854400635e-02 7.912605651654303074e-04 -1.226930227130651474e-02 -4.117569886147975922e-03
4.329000000000000000e+03 2.515726852416992188e+01 2.170218849182128906e+01 -9.319145232439041138e-02 -6.661157589405775070e-03 -2.995578199625015259e-02 2.411150746047496796e-02
4.330000000000000000e+03 2.534888458251953125e+01 2.222995185852050781e+01 -8.210988342761993408e-02 -1.218356844037771225e-02 -2.828803658485412598e-02 2.657454274594783783e-02
4.331000000000000000e+03 2.608329391479492188e+01 2.199616050720214844e+01 -8.747847378253936768e-02 -1.524084340780973434e-02 -3.081579506397247314e-02 3.009772486984729767e-02
4.332000000000000000e+03 3.850125503540039062e+01 -9.805402755737304688e+00 2.231600761413574219e+00 2.775848150253295898e+00 1.502234697341918945e+00 1.524145960807800293e+00
4.333000000000000000e+03 3.911848068237304688e+01 -1.018305969238281250e+01 2.980838298797607422e+00 1.087479710578918457e+00 1.220495343208312988e+00 1.263286471366882324e+00
4.334000000000000000e+03 3.952664566040039062e+01 -1.044565963745117188e+01 2.956416606903076172e+00 4.165798127651214600e-01 1.011898875236511230e+00 8.113328814506530762e-01
4.335000000000000000e+03 3.953688049316406250e+01 -1.087999153137207031e+01 3.061693429946899414e+00 1.771738380193710327e-01 9.716601371765136719e-01 3.472545146942138672e-01
4.336000000000000000e+03 3.986907577514648438e+01 -1.069273376464843750e+01 2.737387418746948242e+00 8.750887960195541382e-02 8.474688529968261719e-01 4.437171816825866699e-01
4.337000000000000000e+03 4.060282897949218750e+01 -1.149539661407470703e+01 1.980680227279663086e+00 -1.363346278667449951e-01 5.533036589622497559e-01 -1.284752041101455688e-01
4.338000000000000000e+03 6.892040252685546875e+01 -1.895316123962402344e+01 -8.458374395559076220e-06 3.194063901901245117e-05 7.044679023238131776e-06 1.868057552201207727e-05
4.339000000000000000e+03 6.843003082275390625e+01 -1.882978630065917969e+01 -4.095640906598418951e-05 1.673998303886037320e-05 -7.264927717187674716e-06 -6.258703797357156873e-05
4.340000000000000000e+03 3.345225524902343750e+01 1.012292957305908203e+01 8.132396760629490018e-05 8.567504701204597950e-04 2.814223407767713070e-04 -2.591361408121883869e-04
4.341000000000000000e+03 3.355482864379882812e+01 9.043378829956054688e+00 3.499242011457681656e-04 1.250896137207746506e-03 4.802461189683526754e-04 -7.361884345300495625e-04
4.342000000000000000e+03 4.563898849487304688e+01 -2.004834747314453125e+01 1.085630967281758785e-03 -7.576481103897094727e-01 -2.269687354564666748e-01 5.339916795492172241e-03
4.343000000000000000e+03 4.837585830688476562e+01 -1.411701202392578125e+01 -3.291289508342742920e-01 2.103166095912456512e-02 -9.242918342351913452e-02 3.697176277637481689e-01
4.344000000000000000e+03 4.743458747863769531e+00 -3.749481582641601562e+01 1.356548536568880081e-02 -3.717530667781829834e-01 -1.074562743306159973e-01 -2.820645645260810852e-02
4.345000000000000000e+03 4.105882263183593750e+01 -1.131795883178710938e+01 1.869400382041931152e+00 -2.554924786090850830e-01 4.841723442077636719e-01 3.866776823997497559e-02
4.346000000000000000e+03 4.151164245605468750e+01 -1.148801326751708984e+01 1.575341939926147461e+00 -2.970715761184692383e-01 3.834811151027679443e-01 4.040038958191871643e-02
4.347000000000000000e+03 4.129101181030273438e+01 -1.139243793487548828e+01 1.750859856605529785e+00 -2.796812653541564941e-01 4.413535892963409424e-01 2.451574429869651794e-02
4.348000000000000000e+03 4.163016510009765625e+01 -1.100666236877441406e+01 1.674406528472900391e+00 -3.853407800197601318e-01 3.867197036743164062e-01 2.247497439384460449e-01
4.349000000000000000e+03 2.286021041870117188e+01 -1.810964703559875488e+00 -1.146610975265502930e+00 2.419542670249938965e-01 -2.713969945907592773e-01 -3.284885585308074951e-01
4.350000000000000000e+03 2.149700641632080078e+00 -3.704436111450195312e+01 1.513358904048800468e-03 -4.490641057491302490e-01 -1.342652291059494019e-01 -5.790422670543193817e-03
4.351000000000000000e+03 2.224485397338867188e+01 3.316236734390258789e+00 -7.422448561555938795e-06 -1.957059248525183648e-05 -8.097912541416008025e-06 -1.074745159712620080e-05
4.352000000000000000e+03 4.164139556884765625e+01 -1.124243259429931641e+01 1.615939021110534668e+00 -3.664446771144866943e-01 3.748483061790466309e-01 1.404375135898590088e-01
4.353000000000000000e+03 3.809450531005859375e+01 -1.496341419219970703e+01 -8.534006476402282715e-01 3.009480953216552734e+00 6.468241214752197266e-01 -2.533332109451293945e-01
4.354000000000000000e+03 1.609944534301757812e+01 -2.569796943664550781e+01 8.753184229135513306e-02 -8.444812148809432983e-03 2.372610755264759064e-02 -5.378839373588562012e-02
4.355000000000000000e+03 2.660983657836914062e+01 -2.874959230422973633e+00 -1.416172385215759277e+00 -1.923765987157821655e-01 -4.825646877288818359e-01 -7.183548212051391602e-01
4.356000000000000000e+03 7.266803741455078125e+01 3.541770172119140625e+01 -1.882396936416625977e-01 -1.944260448217391968e-01 -1.147997230291366577e-01 2.611740231513977051e-01
4.357000000000000000e+03 2.679750251770019531e+01 -2.647906780242919922e+00 -1.725676298141479492e+00 -2.713856101036071777e-01 -5.991185307502746582e-01 -5.842907428741455078e-01
4.358000000000000000e+03 4.142688751220703125e+01 -1.115923595428466797e+01 1.724396347999572754e+00 -3.258452415466308594e-01 4.195653200149536133e-01 1.494638770818710327e-01
4.359000000000000000e+03 3.832096481323242188e+01 -1.431645298004150391e+01 -6.372105479240417480e-01 2.878060579299926758e+00 6.722550392150878906e-01 -7.205432653427124023e-01
4.360000000000000000e+03 2.269131278991699219e+01 -2.369054555892944336e+00 -9.957342147827148438e-01 1.856296509504318237e-01 -2.430313676595687866e-01 -4.459036588668823242e-01
4.361000000000000000e+03 1.341380977630615234e+01 -1.104889297485351562e+01 5.708521232008934021e-02 -3.279637396335601807e-01 -8.126355707645416260e-02 -1.308403462171554565e-01
4.362000000000000000e+03 2.715941047668457031e+01 -2.562314748764038086e+00 -1.883278489112854004e+00 -2.379949986934661865e-01 -6.363820433616638184e-01 -4.961184561252593994e-01
4.363000000000000000e+03 3.133128356933593750e+01 -2.025844812393188477e+00 -3.015144109725952148e+00 2.886751294136047363e-01 -8.179406523704528809e-01 -3.191062211990356445e-01
4.364000000000000000e+03 3.103939056396484375e+01 -1.873824834823608398e+00 -3.090168714523315430e+00 3.762040734291076660e-01 -8.141893744468688965e-01 -2.335356771945953369e-01
4.365000000000000000e+03 3.832064819335937500e+01 -1.524471473693847656e+01 -6.819157004356384277e-01 2.579055786132812500e+00 5.691420435905456543e-01 -2.369121760129928589e-01
4.366000000000000000e+03 4.067559432983398438e+01 -1.067904472351074219e+01 2.175772190093994141e+00 -2.245976477861404419e-01 5.853523612022399902e-01 3.380773663520812988e-01
4.367000000000000000e+03 4.008972549438476562e+01 -1.052350234985351562e+01 2.566277027130126953e+00 8.994923904538154602e-03 7.725815773010253906e-01 5.344800353050231934e-01
4.368000000000000000e+03 3.975414657592773438e+01 -1.028267860412597656e+01 2.698111534118652344e+00 3.175297975540161133e-01 9.046923518180847168e-01 8.217964172363281250e-01
4.369000000000000000e+03 3.946823883056640625e+01 -9.908039093017578125e+00 2.489037275314331055e+00 7.393652200698852539e-01 9.685207605361938477e-01 1.112410664558410645e+00
4.370000000000000000e+03 5.305939674377441406e+00 -3.427781677246093750e+01 1.704737730324268341e-02 -3.347747921943664551e-01 -9.531822800636291504e-02 -3.356015309691429138e-02
4.371000000000000000e+03 3.411109685897827148e+00 -3.031156730651855469e+01 9.270424954593181610e-03 -3.606308996677398682e-01 -1.054081469774246216e-01 -4.289114475250244141e-02
4.372000000000000000e+03 4.797446250915527344e+00 -2.777466583251953125e+01 1.867492869496345520e-02 -3.070892691612243652e-01 -8.652430027723312378e-02 -7.131708413362503052e-02
4.373000000000000000e+03 3.094329071044921875e+01 -2.178805351257324219e+00 -2.701067209243774414e+00 3.278457224369049072e-01 -7.119664549827575684e-01 -2.253640592098236084e-01
4.374000000000000000e+03 4.114640808105468750e+01 -1.032194423675537109e+01 1.895059108734130859e+00 -3.212116062641143799e-01 4.721542298793792725e-01 5.325109958648681641e-01
4.375000000000000000e+03 2.864098358154296875e+01 -2.293543100357055664e+00 -2.419780492782592773e+00 7.314825803041458130e-02 -7.039896249771118164e-01 -3.178575336933135986e-01
4.376000000000000000e+03 2.875881385803222656e+01 -2.615622997283935547e+00 -2.056462287902832031e+00 1.243212744593620300e-01 -5.796422958374023438e-01 -3.581914305686950684e-01
4.377000000000000000e+03 2.935926437377929688e+01 -2.409255266189575195e+00 -2.329162836074829102e+00 1.992378681898117065e-01 -6.389774680137634277e-01 -2.837810814380645752e-01
4.378000000000000000e+03 2.090921020507812500e+01 4.159583568572998047e+00 -2.222267175966408104e-05 -6.622089472330117133e-07 -6.865464001748478040e-06 1.755402627168223262e-05
4.379000000000000000e+03 1.908666801452636719e+01 5.860365390777587891e+00 -1.172749580291565508e-05 -1.619091744942124933e-05 -8.375523975701071322e-06 -2.434630459902109578e-06
4.380000000000000000e+03 1.882789611816406250e+01 6.824828624725341797e+00 1.998790503421332687e-05 1.925155083881691098e-05 1.177183639811119065e-05 3.742601620615459979e-05
4.381000000000000000e+03 2.289290618896484375e+01 2.317622947692871094e+01 -6.018138676881790161e-02 -8.466419763863086700e-03 -2.059434168040752411e-02 1.618788950145244598e-02
4.382000000000000000e+03 2.244653320312500000e+01 2.272052574157714844e+01 -6.639453768730163574e-02 -6.844106595963239670e-03 -2.197159454226493835e-02 1.095008105039596558e-02
4.383000000000000000e+03 2.715224266052246094e+01 2.231770706176757812e+01 -7.987422496080398560e-02 -2.391317859292030334e-02 -3.113622032105922699e-02 3.758376836776733398e-02
4.384000000000000000e+03 3.342975616455078125e+01 1.390987014770507812e+01 -8.768969215452671051e-03 -5.373342428356409073e-03 -4.242693539708852768e-03 9.772349148988723755e-03
4.385000000000000000e+03 2.090751457214355469e+01 2.288120651245117188e+01 -5.020580813288688660e-02 -4.248953424394130707e-03 -1.633642986416816711e-02 8.818809874355792999e-03
4.386000000000000000e+03 1.387412071228027344e+01 1.783957099914550781e+01 -2.169392246287316084e-04 9.674741304479539394e-04 2.251604601042345166e-04 3.432652447372674942e-04
4.387000000000000000e+03 4.092664241790771484e+00 -3.248050689697265625e+00 -1.385425217449665070e-02 -1.498309615999460220e-02 -8.651204407215118408e-03 -1.106447819620370865e-02
4.388000000000000000e+03 3.956924819946289062e+01 -4.043739795684814453e+00 -1.840925812721252441e+00 3.402956128120422363e-01 -4.501890838146209717e-01 8.568673729896545410e-01
4.389000000000000000e+03 3.865993499755859375e+01 -3.539797306060791016e+00 -1.941964149475097656e+00 7.018022537231445312e-01 -3.720485568046569824e-01 7.735871672630310059e-01
4.390000000000000000e+03 1.499213409423828125e+01 -9.509500503540039062e+00 1.296186298131942749e-01 -2.939574718475341797e-01 -4.930165410041809082e-02 -2.304390817880630493e-01
4.391000000000000000e+03 1.475479316711425781e+01 -2.931756019592285156e+01 7.513865828514099121e-02 -7.708501070737838745e-02 -5.839051445946097374e-04 -4.856402426958084106e-02
4.392000000000000000e+03 1.241304206848144531e+01 -1.205517101287841797e+01 9.004527702927589417e-03 -2.990553677082061768e-01 -8.701525628566741943e-02 -1.002796739339828491e-01
4.393000000000000000e+03 1.634020042419433594e+01 3.421701812744140625e+01 8.209209889173507690e-03 -1.281563099473714828e-02 -1.381926238536834717e-03 1.320287678390741348e-02
4.394000000000000000e+03 6.402259063720703125e+01 -9.731937408447265625e+00 -1.261381268501281738e+00 -5.252900123596191406e-01 -5.360013842582702637e-01 -5.169485211372375488e-01
4.395000000000000000e+03 3.689888381958007812e+01 -1.423101425170898438e+01 -1.282875418663024902e+00 4.122388362884521484e+00 8.518539071083068848e-01 5.158295035362243652e-01
4.396000000000000000e+03 3.844351959228515625e+01 -1.492459583282470703e+01 -6.776499748229980469e-01 2.475628137588500977e+00 5.393934249877929688e-01 -4.294916093349456787e-01
4.397000000000000000e+03 3.540741205215454102e+00 -2.871953010559082031e+00 -8.744558319449424744e-03 -9.286226704716682434e-03 -5.409235600382089615e-03 -4.460403230041265488e-03
4.398000000000000000e+03 2.840390205383300781e+01 -2.844321250915527344e+00 -1.822120904922485352e+00 9.406951069831848145e-02 -5.184153914451599121e-01 -4.287581145763397217e-01
4.399000000000000000e+03 6.987024688720703125e+01 -1.330307865142822266e+01 -5.036572217941284180e-01 1.079346910119056702e-01 -1.187167614698410034e-01 -1.389698963612318039e-02
4.400000000000000000e+03 2.743791198730468750e+01 -2.887655973434448242e+00 -1.637678146362304688e+00 -9.003806114196777344e-02 -5.183148384094238281e-01 -5.609627962112426758e-01
4.401000000000000000e+03 2.723905754089355469e+01 -2.911467313766479492e+00 -1.588221430778503418e+00 -1.607555150985717773e-01 -5.246930718421936035e-01 -5.744773149490356445e-01
4.402000000000000000e+03 6.475977325439453125e+01 8.757985115051269531e+00 5.285184979438781738e-01 2.694231510162353516e+00 9.668250083923339844e-01 2.634556591510772705e-01
4.403000000000000000e+03 6.375932312011718750e+01 -3.385049438476562500e+01 -7.576585747301578522e-03 -1.483849599026143551e-03 -2.718130592256784439e-03 1.276050228625535965e-02
4.404000000000000000e+03 1.727400016784667969e+01 -9.180729866027832031e+00 2.097521275281906128e-01 -2.540968358516693115e-01 -1.330341119319200516e-02 -2.776490151882171631e-01
4.405000000000000000e+03 3.780183410644531250e+01 1.036458301544189453e+01 -3.187315072864294052e-03 5.188166978769004345e-04 -8.005495183169841766e-04 -1.521818805485963821e-03
4.406000000000000000e+03 3.775950622558593750e+01 1.147209167480468750e+01 -7.226618472486734390e-03 1.622281502932310104e-03 -1.681301160715520382e-03 -1.995856146095320582e-04
4.407000000000000000e+03 1.707972145080566406e+01 3.041683578491210938e+01 -1.426516100764274597e-03 -9.297328069806098938e-03 -3.217153251171112061e-03 1.659880205988883972e-02
4.408000000000000000e+03 6.216186523437500000e+01 -8.579081535339355469e+00 -7.397868633270263672e-01 -4.997351765632629395e-02 -2.369281202554702759e-01 -1.879819482564926147e-01
4.409000000000000000e+03 1.621320533752441406e+01 -3.243386077880859375e+01 7.061820477247238159e-02 -3.077519126236438751e-02 1.195290405303239822e-02 -3.653120622038841248e-02
4.410000000000000000e+03 1.883341789245605469e+01 -3.383646392822265625e+01 8.452715724706649780e-02 4.998623207211494446e-02 4.035401716828346252e-02 -2.199729159474372864e-02
4.411000000000000000e+03 2.071982002258300781e+01 3.815113782882690430e+00 3.091729377047158778e-05 2.230953032267279923e-05 1.596804759174119681e-05 -9.881561709335073829e-06
4.412000000000000000e+03 2.896412277221679688e+01 -2.502130985260009766e+00 -2.186187744140625000e+00 1.600469201803207397e-01 -6.078422665596008301e-01 -3.214021027088165283e-01
4.413000000000000000e+03 1.969017982482910156e+01 2.341546058654785156e+01 -3.527501970529556274e-02 -1.755487290211021900e-03 -1.110915187746286392e-02 8.579435758292675018e-03
4.414000000000000000e+03 7.362220001220703125e+01 -1.992052459716796875e+01 2.492705534677952528e-04 -6.536420551128685474e-05 5.517190220416523516e-05 4.995225026505067945e-06
4.415000000000000000e+03 7.165673828125000000e+01 -2.181481170654296875e+01 -1.721352746244519949e-04 -2.633308176882565022e-04 -1.306398335145786405e-04 -1.285803009523078799e-04
4.416000000000000000e+03 7.605657958984375000e+01 3.030822181701660156e+01 -3.854665905237197876e-02 -8.733138442039489746e-01 -2.735581696033477783e-01 3.289469778537750244e-01
4.417000000000000000e+03 7.239926910400390625e+01 -2.144777870178222656e+01 -1.177969243144616485e-04 9.179452717944514006e-06 -3.258524156990461051e-05 -6.102651241235435009e-06
4.418000000000000000e+03 1.393012714385986328e+01 1.893262672424316406e+01 -2.561911242082715034e-04 7.990689482539892197e-04 1.628633472137153149e-04 -2.829368750099092722e-04
4.419000000000000000e+03 1.365958690643310547e+01 1.595138931274414062e+01 2.524051815271377563e-04 7.832150440663099289e-04 3.106860676780343056e-04 2.530296333134174347e-04
4.420000000000000000e+03 1.459734821319580078e+01 2.167335128784179688e+01 -1.007153838872909546e-02 1.456820406019687653e-03 -2.584415487945079803e-03 5.260055186226963997e-04
4.421000000000000000e+03 2.343492126464843750e+01 -3.488534927368164062e+01 1.146539151668548584e-01 1.799497902393341064e-01 8.838111162185668945e-02 4.545898362994194031e-02
4.422000000000000000e+03 4.137207412719726562e+01 -1.000615596771240234e+01 1.723874092102050781e+00 -3.760481476783752441e-01 4.043477773666381836e-01 6.456068158149719238e-01
4.423000000000000000e+03 1.786238861083984375e+01 -7.479867935180664062e+00 1.513953953981399536e-01 -2.197646647691726685e-01 -2.051078155636787415e-02 -3.468212187290191650e-01
4.424000000000000000e+03 1.137961578369140625e+01 -2.942768096923828125e+01 6.310706585645675659e-02 -1.645234525203704834e-01 -3.042491339147090912e-02 -6.293778866529464722e-02
4.425000000000000000e+03 2.496920967102050781e+01 -5.588401794433593750e+00 4.169962108135223389e-01 -1.428551673889160156e-01 8.224231004714965820e-02 -8.174737691879272461e-01
4.426000000000000000e+03 1.319023036956787109e+01 -2.808072471618652344e+01 7.894720137119293213e-02 -1.279391646385192871e-01 -1.469758804887533188e-02 -5.792558193206787109e-02
4.427000000000000000e+03 2.269336128234863281e+01 -3.462845802307128906e+00 -6.344753503799438477e-01 5.963438376784324646e-02 -1.724523007869720459e-01 -6.370248794555664062e-01
4.428000000000000000e+03 6.348282337188720703e+00 -2.986518669128417969e+01 2.760352939367294312e-02 -2.850642800331115723e-01 -7.723822444677352905e-02 -6.439504027366638184e-02
4.429000000000000000e+03 5.782979011535644531e+00 -2.850821113586425781e+01 2.561580389738082886e-02 -2.909727394580841064e-01 -7.960707694292068481e-02 -7.104738801717758179e-02
4.430000000000000000e+03 6.754901123046875000e+01 2.448024940490722656e+01 5.921197310090065002e-02 1.007200837135314941e+00 3.199238479137420654e-01 4.170539379119873047e-01
4.431000000000000000e+03 3.085313796997070312e+01 -4.886272430419921875e+00 -1.216626539826393127e-01 5.348056554794311523e-01 1.239429041743278503e-01 -2.479666322469711304e-01
4.432000000000000000e+03 3.533792877197265625e+01 -7.702123165130615234e+00 1.161239147186279297e+00 1.089364647865295410e+00 6.751810908317565918e-01 -9.960079789161682129e-01
4.433000000000000000e+03 2.375219917297363281e+01 -8.096989631652832031e+00 1.028356432914733887e+00 -2.465904206037521362e-01 2.345298081636428833e-01 -1.965984553098678589e-01
4.434000000000000000e+03 4.001903915405273438e+01 -9.469219207763671875e+00 1.977187633514404297e+00 4.081116318702697754e-01 7.155897617340087891e-01 1.056131362915039062e+00
4.435000000000000000e+03 3.982638931274414062e+01 -9.709017753601074219e+00 2.201369762420654297e+00 4.963580071926116943e-01 8.093183040618896484e-01 1.071346521377563477e+00
4.436000000000000000e+03 3.054434585571289062e+01 -2.436455011367797852e+00 -2.433015346527099609e+00 3.311401009559631348e-01 -6.305625438690185547e-01 -2.443231940269470215e-01
4.437000000000000000e+03 3.075312995910644531e+01 -2.768316745758056641e+00 -2.105108737945556641e+00 2.874829769134521484e-01 -5.452877879142761230e-01 -2.368010878562927246e-01
4.438000000000000000e+03 4.071012115478515625e+01 -3.028967475891113281e+01 -1.077586133033037186e-02 7.015978097915649414e-01 2.072465866804122925e-01 -2.620603144168853760e-01
4.439000000000000000e+03 3.514485549926757812e+01 5.117649078369140625e+00 3.268231230322271585e-04 1.717382692731916904e-04 1.495684264227747917e-04 -7.696422399021685123e-04
4.440000000000000000e+03 2.959737014770507812e+01 -2.568622589111328125e+00 -2.242482662200927734e+00 2.376186698675155640e-01 -6.014591455459594727e-01 -2.624707818031311035e-01
4.441000000000000000e+03 3.690922546386718750e+01 1.074374675750732422e+01 -5.487674847245216370e-03 5.418353830464184284e-04 -1.483751926571130753e-03 -9.306250722147524357e-04
4.442000000000000000e+03 3.705773544311523438e+01 1.187673854827880859e+01 -1.179129630327224731e-02 8.923715795390307903e-04 -3.269677516072988510e-03 9.824876906350255013e-04
4.443000000000000000e+03 4.072459030151367188e+01 -9.641218185424804688e+00 1.870779275894165039e+00 -1.200861632823944092e-01 5.252079367637634277e-01 8.441208600997924805e-01
4.444000000000000000e+03 1.829032897949218750e+01 2.358443260192871094e+01 -2.729412727057933807e-02 -8.417607023147866130e-05 -8.213491179049015045e-03 8.011655882000923157e-03
4.445000000000000000e+03 2.762618064880371094e+01 -2.768261432647705078e+00 -1.781423807144165039e+00 -7.388838380575180054e-02 -5.565936565399169922e-01 -4.689879715442657471e-01
4.446000000000000000e+03 3.411226272583007812e+01 8.683669090270996094e+00 -2.740410272963345051e-04 2.610676747281104326e-04 -3.892005224770400673e-06 -3.222652885597199202e-04
4.447000000000000000e+03 7.400488281250000000e+01 2.976970863342285156e+01 -8.786746859550476074e-02 -5.014770627021789551e-01 -1.768033504486083984e-01 4.297001957893371582e-01
4.448000000000000000e+03 6.949271392822265625e+01 -1.203955936431884766e+01 -7.878555655479431152e-01 1.759498566389083862e-01 -1.835717260837554932e-01 -1.401213407516479492e-01
4.449000000000000000e+03 4.215431213378906250e+01 -1.037679958343505859e+01 1.504977583885192871e+00 -5.341483950614929199e-01 2.912487685680389404e-01 5.382462739944458008e-01
4.450000000000000000e+03 3.434922409057617188e+01 1.139803695678710938e+01 -3.515861229971051216e-03 -3.695341292768716812e-04 -1.165618654340505600e-03 1.774509670212864876e-03
4.451000000000000000e+03 3.438378906250000000e+01 1.178069019317626953e+01 -2.921128412708640099e-03 -1.525045139715075493e-03 -1.333852065727114677e-03 3.445317037403583527e-03
4.452000000000000000e+03 4.013128662109375000e+01 2.101470947265625000e+01 -3.357939794659614563e-02 3.032791987061500549e-02 -9.754433413036167622e-04 1.092049386352300644e-02
4.453000000000000000e+03 2.232697105407714844e+01 -7.414663791656494141e+00 6.227647066116333008e-01 -2.456466704607009888e-01 1.131354048848152161e-01 -3.723316788673400879e-01
4.454000000000000000e+03 1.330811500549316406e+01 1.675002288818359375e+01 -2.169932267861440778e-04 5.362011143006384373e-04 9.576236334396526217e-05 4.353054391685873270e-04
4.455000000000000000e+03 1.290481758117675781e+01 1.765602874755859375e+01 -5.704933573724702001e-05 2.856952487491071224e-04 6.859377026557922363e-05 1.294429966947063804e-04
4.456000000000000000e+03 6.533578872680664062e+00 -3.125891494750976562e+01 3.016574494540691376e-02 -2.856666147708892822e-01 -7.665025442838668823e-02 -5.589146167039871216e-02
4.457000000000000000e+03 7.529638767242431641e+00 -2.470520019531250000e+01 3.116361238062381744e-02 -2.556617558002471924e-01 -6.734944134950637817e-02 -1.100355237722396851e-01
4.458000000000000000e+03 8.593108177185058594e+00 -2.466494178771972656e+01 4.334641993045806885e-02 -2.420926392078399658e-01 -5.962386354804039001e-02 -1.123458072543144226e-01
4.459000000000000000e+03 1.565621852874755859e+01 2.317279815673828125e+01 -1.611587963998317719e-02 1.667216653004288673e-03 -4.334598779678344727e-03 3.811010625213384628e-03
4.460000000000000000e+03 3.249934005737304688e+01 1.598914241790771484e+01 -1.426682621240615845e-02 -1.445026788860559464e-02 -8.615127764642238617e-03 1.854813471436500549e-02
4.461000000000000000e+03 2.821048927307128906e+01 2.301119422912597656e+01 -5.596328154206275940e-02 -3.289203345775604248e-02 -2.665659412741661072e-02 2.977067418396472931e-02
4.462000000000000000e+03 2.649849700927734375e+01 2.482494354248046875e+01 -3.631517663598060608e-02 -2.140468172729015350e-02 -1.731595769524574280e-02 2.527248486876487732e-02
4.463000000000000000e+03 1.545970916748046875e+01 -7.973475933074951172e+00 9.979645907878875732e-02 -2.631091773509979248e-01 -4.899381846189498901e-02 -2.887730598449707031e-01
4.464000000000000000e+03 3.534252548217773438e+01 -5.715124130249023438e+00 -1.848823130130767822e-01 7.849573493003845215e-01 1.800225228071212769e-01 -3.997104614973068237e-02
4.465000000000000000e+03 5.577042007446289062e+01 2.863573455810546875e+01 4.494244605302810669e-02 6.336367130279541016e-01 2.035737484693527222e-01 -4.750366210937500000e-01
4.466000000000000000e+03 4.113158798217773438e+01 2.234752082824707031e+01 -1.631583645939826965e-02 3.554764389991760254e-02 5.769541952759027481e-03 5.603951402008533478e-03
4.467000000000000000e+03 3.981759262084960938e+01 -1.887209892272949219e+01 1.611484885215759277e-01 1.285313367843627930e+00 4.339385628700256348e-01 1.117951422929763794e-01
4.468000000000000000e+03 2.808105278015136719e+01 -3.942805528640747070e+00 -8.712605237960815430e-01 1.492057293653488159e-01 -2.166164368391036987e-01 -6.059540510177612305e-01
4.469000000000000000e+03 2.984184646606445312e+01 -2.713069677352905273e+00 -2.084960937500000000e+00 2.794900238513946533e-01 -5.416412353515625000e-01 -2.919647693634033203e-01
4.470000000000000000e+03 2.772304916381835938e+01 -2.993690490722656250e+00 -1.594972372055053711e+00 -5.093828216195106506e-02 -4.937731921672821045e-01 -5.359078645706176758e-01
4.471000000000000000e+03 4.046294021606445312e+01 -1.838672065734863281e+01 1.185436174273490906e-01 9.180736541748046875e-01 3.109851777553558350e-01 8.303094655275344849e-02
4.472000000000000000e+03 2.668024253845214844e+01 -4.597437381744384766e+00 -1.816540807485580444e-01 3.878753865137696266e-03 -5.333260074257850647e-02 -8.828437924385070801e-01
4.473000000000000000e+03 4.045801544189453125e+01 -9.422318458557128906e+00 1.844015955924987793e+00 7.386925816535949707e-02 5.753656029701232910e-01 9.724576473236083984e-01
4.474000000000000000e+03 3.486674880981445312e+01 5.351631641387939453e+00 -1.314764376729726791e-03 3.172205178998410702e-04 -2.992631343659013510e-04 -9.348872117698192596e-05
4.475000000000000000e+03 7.273981475830078125e+01 3.069006919860839844e+01 -1.453670263290405273e-01 -1.946236342191696167e-01 -1.019971966743469238e-01 4.223189651966094971e-01
4.476000000000000000e+03 4.142889022827148438e+01 -1.967123413085937500e+01 2.096861749887466431e-01 5.147802233695983887e-01 2.173399180173873901e-01 1.049728021025657654e-01
4.477000000000000000e+03 3.007785987854003906e+01 -2.725994825363159180e+00 -2.147251844406127930e+00 2.903465926647186279e-01 -5.570715665817260742e-01 -2.748669683933258057e-01
4.478000000000000000e+03 7.081436920166015625e+01 -1.098152828216552734e+01 -6.094543933868408203e-01 1.198752224445343018e-01 -1.468737572431564331e-01 -3.699402213096618652e-01
4.479000000000000000e+03 7.242439270019531250e+01 -1.132013034820556641e+01 -4.184042811393737793e-01 4.874321445822715759e-02 -1.108983159065246582e-01 -2.731103599071502686e-01
4.480000000000000000e+03 2.751414108276367188e+01 -3.149305105209350586e+00 -1.380213975906372070e+00 -1.351846661418676376e-02 -4.181197285652160645e-01 -5.860322117805480957e-01
4.481000000000000000e+03 2.823768043518066406e+01 -3.539696455001831055e+00 -1.150963306427001953e+00 1.316954791545867920e-01 -3.057803511619567871e-01 -5.540527105331420898e-01
4.482000000000000000e+03 2.847504043579101562e+01 -4.035166740417480469e+00 -7.563342452049255371e-01 2.788392901420593262e-01 -1.432484984397888184e-01 -5.762329697608947754e-01
4.483000000000000000e+03 4.087866973876953125e+01 -2.112935829162597656e+01 2.591889202594757080e-01 7.323524355888366699e-01 2.974624037742614746e-01 2.894262596964836121e-02
4.484000000000000000e+03 1.625568962097167969e+01 2.955980110168457031e+01 -4.531941842287778854e-03 -7.940173149108886719e-03 -3.741634543985128403e-03 1.631042733788490295e-02
4.485000000000000000e+03 3.477772140502929688e+01 8.430183410644531250e+00 -7.841942419872793835e-07 -1.073291408829391003e-03 -3.222226805519312620e-04 -3.889661456923931837e-04
4.486000000000000000e+03 3.446796417236328125e+01 8.541784286499023438e+00 5.492839045473374426e-05 7.408268866129219532e-04 2.387265849392861128e-04 -8.114705560728907585e-04
4.487000000000000000e+03 1.845544052124023438e+01 3.766774177551269531e+00 -2.798549758153967559e-06 -8.916433216654695570e-06 -3.514495119816274382e-06 4.618372713593998924e-06
4.488000000000000000e+03 5.691132545471191406e+00 4.020715236663818359e+00 2.997089359269011766e-05 -4.215638909954577684e-05 -3.655648697531432845e-06 1.281722416024422273e-05
4.489000000000000000e+03 4.004909515380859375e+01 -1.784832382202148438e+01 6.958973128348588943e-03 1.137542009353637695e+00 3.433502912521362305e-01 6.089019775390625000e-02
4.490000000000000000e+03 7.910735607147216797e+00 -1.743865776062011719e+01 -3.816222399473190308e-02 -2.100352644920349121e-01 -7.445924729108810425e-02 -1.206902116537094116e-01
4.491000000000000000e+03 2.706132698059082031e+01 2.510130882263183594e+01 -3.167876601219177246e-02 -2.466598898172378540e-02 -1.690342649817466736e-02 2.423209324479103088e-02
4.492000000000000000e+03 2.409327125549316406e+01 2.449230003356933594e+01 -4.257358238101005554e-02 -1.621496677398681641e-02 -1.763656549155712128e-02 2.369118854403495789e-02
4.493000000000000000e+03 2.865206718444824219e+01 -3.303991317749023438e+00 -1.453977584838867188e+00 1.837210357189178467e-01 -3.810769915580749512e-01 -4.518169164657592773e-01
4.494000000000000000e+03 2.881058311462402344e+01 -4.146894454956054688e+00 -6.961252093315124512e-01 3.312448561191558838e-01 -1.094641163945198059e-01 -5.131839513778686523e-01
4.495000000000000000e+03 2.918844223022460938e+01 -3.843883514404296875e+00 -1.045585513114929199e+00 2.752577662467956543e-01 -2.310983389616012573e-01 -4.154736399650573730e-01
4.496000000000000000e+03 2.947745704650878906e+01 -3.977018594741821289e+00 -9.190484285354614258e-01 4.211023747920989990e-01 -1.493838280439376831e-01 -4.355954527854919434e-01
4.497000000000000000e+03 2.773276901245117188e+01 2.303901290893554688e+01 -5.896034091711044312e-02 -2.971211448311805725e-02 -2.660173736512660980e-02 3.071205876767635345e-02
4.498000000000000000e+03 1.737397003173828125e+01 5.874188423156738281e+00 -3.603633012971840799e-05 2.631977622513659298e-05 -2.914966444222955033e-06 -2.241913307443610393e-06
4.499000000000000000e+03 1.672123146057128906e+01 5.493618488311767578e+00 -3.309836392872966826e-05 2.452546141284983605e-05 -2.571871164036565460e-06 7.044228368613403291e-06
4.500000000000000000e+03 3.687171936035156250e+01 1.127900981903076172e+01 -5.551637150347232819e-03 -1.619016256881877780e-05 -1.670348108746111393e-03 1.790553680621087551e-03
4.501000000000000000e+03 3.622829055786132812e+01 1.134409427642822266e+01 -7.309325970709323883e-03 1.137817671406082809e-04 -2.158663235604763031e-03 6.753045599907636642e-04
4.502000000000000000e+03 2.898199081420898438e+01 2.229521560668945312e+01 -6.049418449401855469e-02 -3.721328079700469971e-02 -2.931223995983600616e-02 2.881405316293239594e-02
4.503000000000000000e+03 6.742702007293701172e+00 -1.407913875579833984e+01 -3.027233108878135681e-02 -1.697440743446350098e-01 -6.000492349267005920e-02 -8.327949792146682739e-02
4.504000000000000000e+03 6.860764026641845703e+00 -1.105889511108398438e+01 -1.498272921890020370e-02 -1.521730870008468628e-01 -5.014674738049507141e-02 -7.397855818271636963e-02
4.505000000000000000e+03 6.792352676391601562e+00 -9.766015052795410156e+00 -1.091900281608104706e-02 -1.354842483997344971e-01 -4.392097517848014832e-02 -7.148361206054687500e-02
4.506000000000000000e+03 6.727081298828125000e+01 8.955688476562500000e+00 4.854000806808471680e-01 1.595051527023315430e+00 6.241354942321777344e-01 -4.815439507365226746e-02
4.507000000000000000e+03 2.436152267456054688e+01 3.071189308166503906e+01 8.607027120888233185e-03 -1.393872220069169998e-02 -1.599508337676525116e-03 1.831293292343616486e-02
4.508000000000000000e+03 1.492964076995849609e+01 2.259928894042968750e+01 -1.290726475417613983e-02 2.068365458399057388e-03 -3.251669695600867271e-03 2.189960097894072533e-03
4.509000000000000000e+03 7.429897308349609375e+01 -2.821088600158691406e+01 -5.620958982035517693e-04 -3.288666775915771723e-04 -2.672887640073895454e-04 8.001661626622080803e-04
4.510000000000000000e+03 4.040952301025390625e+01 -8.934012413024902344e+00 1.496101260185241699e+00 1.951823383569717407e-01 5.073850750923156738e-01 1.072376847267150879e+00
4.511000000000000000e+03 2.856126785278320312e+01 -3.665853261947631836e+00 -1.123346924781799316e+00 2.138328701257705688e-01 -2.728542089462280273e-01 -5.066756606101989746e-01
4.512000000000000000e+03 2.888121795654296875e+01 -3.764659643173217773e+00 -1.050634741783142090e+00 2.861059308052062988e-01 -2.293586283922195435e-01 -4.656775593757629395e-01
4.513000000000000000e+03 3.147076034545898438e+01 1.901128768920898438e+01 -4.439058527350425720e-02 -2.776385657489299774e-02 -2.164633199572563171e-02 3.553267195820808411e-02
4.514000000000000000e+03 3.851392364501953125e+01 -1.661770820617675781e+01 -3.924715816974639893e-01 2.107842445373535156e+00 5.146112442016601562e-01 -1.568300090730190277e-02
4.515000000000000000e+03 2.780950355529785156e+01 2.345166969299316406e+01 -5.083386972546577454e-02 -3.053032606840133667e-02 -2.440925873816013336e-02 2.918258309364318848e-02
4.516000000000000000e+03 2.864186668395996094e+01 2.367911720275878906e+01 -4.412463679909706116e-02 -3.040826320648193359e-02 -2.235987037420272827e-02 2.474398165941238403e-02
4.517000000000000000e+03 3.477405548095703125e+01 1.151579093933105469e+01 -4.912145901471376419e-03 -1.790156238712370396e-03 -2.010690746828913689e-03 3.462632885202765465e-03
4.518000000000000000e+03 1.568097019195556641e+01 8.567317962646484375e+00 5.168270945432595909e-05 5.953710206085816026e-05 3.336594454594887793e-05 -8.462508844786498230e-07
4.519000000000000000e+03 1.317996501922607422e+01 1.996217536926269531e+01 -2.978607779368758202e-03 6.030562799423933029e-04 -7.126654381863772869e-04 -8.460110984742641449e-04
4.520000000000000000e+03 1.732212257385253906e+01 4.956911563873291016e+00 -2.969994056911673397e-05 -1.078644709195941687e-05 -1.214591611642390490e-05 -1.273089947062544525e-05
4.521000000000000000e+03 1.749764442443847656e+01 4.638184070587158203e+00 3.929430022253654897e-05 1.834416434576269239e-05 1.729154064378235489e-05 1.527524364064447582e-05
4.522000000000000000e+03 3.622213745117187500e+01 1.255562019348144531e+01 -1.081109419465065002e-02 2.047147601842880249e-03 -2.629183931276202202e-03 3.196606645360589027e-03
4.523000000000000000e+03 2.779177474975585938e+01 2.391422080993652344e+01 -4.331459105014801025e-02 -2.650541067123413086e-02 -2.094599977135658264e-02 2.513219416141510010e-02
4.524000000000000000e+03 2.630642318725585938e+01 2.692415809631347656e+01 -1.420787163078784943e-02 -1.923414319753646851e-02 -1.003260444849729538e-02 2.299430035054683685e-02
4.525000000000000000e+03 2.752195358276367188e+01 2.628414154052734375e+01 -1.919835992157459259e-02 -2.229763008654117584e-02 -1.244879700243473053e-02 2.081993594765663147e-02
4.526000000000000000e+03 1.689286613464355469e+01 6.875627994537353516e+00 -6.109627429395914078e-05 9.400744602316990495e-06 -1.550865817989688367e-05 8.386580702790524811e-06
4.527000000000000000e+03 1.318974685668945312e+01 1.039946365356445312e+01 8.460208482574671507e-05 2.780551949399523437e-05 3.372228093212470412e-05 1.731019292492419481e-04
4.528000000000000000e+03 1.382198333740234375e+01 9.952930450439453125e+00 3.983751594205386937e-05 1.087204436771571636e-04 4.456738679436966777e-05 1.168342496384866536e-04
4.529000000000000000e+03 2.138780212402343750e+01 2.478125190734863281e+01 -3.342229500412940979e-02 -9.636123664677143097e-03 -1.291752513498067856e-02 1.892768591642379761e-02
4.530000000000000000e+03 2.071574592590332031e+01 2.570866012573242188e+01 -2.509197592735290527e-02 -9.423072449862957001e-03 -1.035451516509056091e-02 1.970415189862251282e-02
4.531000000000000000e+03 2.093328475952148438e+01 2.661238479614257812e+01 -1.942791417241096497e-02 -1.106120552867650986e-02 -9.146736003458499908e-03 2.155179157853126526e-02
4.532000000000000000e+03 3.077390480041503906e+01 2.205209350585937500e+01 -5.551141127943992615e-02 -1.958676055073738098e-02 -2.252945117652416229e-02 1.943071000277996063e-02
4.533000000000000000e+03 3.497797012329101562e+01 1.107560729980468750e+01 -3.701912472024559975e-03 -2.671455440577119589e-04 -1.190717448480427265e-03 1.710267039015889168e-03
4.534000000000000000e+03 1.788803100585937500e+01 2.799332427978515625e+01 -1.068476215004920959e-02 -7.558445911854505539e-03 -5.472962278872728348e-03 1.836957782506942749e-02
4.535000000000000000e+03 8.723445892333984375e+00 2.610877990722656250e+01 -4.029087256640195847e-03 -1.736817066557705402e-03 -1.729771378450095654e-03 4.930244758725166321e-03
4.536000000000000000e+03 6.992056274414062500e+01 1.643808937072753906e+01 5.068880915641784668e-01 5.789061784744262695e-01 3.257382810115814209e-01 1.553906351327896118e-01
4.537000000000000000e+03 3.542021560668945312e+01 1.269633293151855469e+01 -9.487293660640716553e-03 5.800617509521543980e-04 -2.672169357538223267e-03 4.407770000398159027e-03
4.538000000000000000e+03 1.179023838043212891e+01 1.050375938415527344e+01 1.519296056358143687e-04 -5.773345401394180954e-05 2.825884621415752918e-05 2.207367506343871355e-04
4.539000000000000000e+03 1.535326671600341797e+01 8.716979980468750000e+00 1.039538892655400559e-05 7.796218415023759007e-05 2.650727219588588923e-05 1.526467895018868148e-05
4.540000000000000000e+03 1.699220085144042969e+01 4.834661960601806641e+00 3.625013414421118796e-05 5.089107617095578462e-06 1.240177243744255975e-05 -2.104552731907460839e-05
4.541000000000000000e+03 1.649622344970703125e+01 4.505039215087890625e+00 1.716942097118590027e-05 5.990587851556483656e-06 6.948002464923774824e-06 -6.810402283008443192e-06
4.542000000000000000e+03 1.660928726196289062e+01 4.861405372619628906e+00 -1.283830533793661743e-05 2.003667395911179483e-05 2.159510586352553219e-06 4.007613097201101482e-05
4.543000000000000000e+03 6.213580608367919922e+00 5.176932811737060547e+00 1.382443151669576764e-04 -6.480633601313456893e-05 2.203139229095540941e-05 7.870845365687273443e-06
4.544000000000000000e+03 1.627371597290039062e+01 5.041862487792968750e+00 -5.058933311374858022e-05 4.552214249997632578e-06 -1.381113634124631062e-05 -2.878246050386223942e-06
4.545000000000000000e+03 3.584753799438476562e+01 1.295522785186767578e+01 -1.427514199167490005e-02 6.387213943526148796e-04 -4.090926144272089005e-03 5.745097994804382324e-03
4.546000000000000000e+03 2.150549507141113281e+01 2.660040092468261719e+01 -1.952398940920829773e-02 -1.301552262157201767e-02 -9.761854074895381927e-03 2.211095578968524933e-02
4.547000000000000000e+03 2.916903877258300781e+01 2.415201187133789062e+01 -3.477546945214271545e-02 -2.445626258850097656e-02 -1.776952110230922699e-02 1.797991804778575897e-02
4.548000000000000000e+03 3.366225433349609375e+01 2.336938667297363281e+01 -3.093498200178146362e-02 1.118685957044363022e-02 -5.924436729401350021e-03 1.019921340048313141e-02
4.549000000000000000e+03 3.416161727905273438e+01 2.260193061828613281e+01 -3.769198805093765259e-02 1.262133847922086716e-02 -7.521195337176322937e-03 1.444088760763406754e-02
4.550000000000000000e+03 3.351947021484375000e+01 2.222498512268066406e+01 -4.048940911889076233e-02 1.019669696688652039e-02 -9.087813086807727814e-03 1.481081824749708176e-02
4.551000000000000000e+03 7.123519134521484375e+01 -9.928478240966796875e+00 -5.517050623893737793e-01 8.310063928365707397e-02 -1.405813246965408325e-01 -4.995070397853851318e-01
4.552000000000000000e+03 3.355957031250000000e+01 1.593353652954101562e+01 -2.144072204828262329e-02 -6.984191015362739563e-03 -8.527473546564579010e-03 2.069363556802272797e-02
4.553000000000000000e+03 3.310112762451171875e+01 2.131632995605468750e+01 -4.876150563359260559e-02 4.894725978374481201e-03 -1.316003408282995224e-02 1.898771524429321289e-02
4.554000000000000000e+03 1.603120040893554688e+01 6.297940731048583984e+00 5.027977385907433927e-05 2.355171091039665043e-05 2.214944652223493904e-05 4.215010903863003477e-06
4.555000000000000000e+03 7.174223327636718750e+01 9.374273300170898438e+00 3.287274241447448730e-01 -8.010746538639068604e-02 7.458598911762237549e-02 -2.599491775035858154e-01
4.556000000000000000e+03 7.269175720214843750e+01 1.594347286224365234e+01 3.231605887413024902e-01 -3.875706195831298828e-01 -1.932301186025142670e-02 1.425687670707702637e-01
4.557000000000000000e+03 1.596454048156738281e+01 4.658378124237060547e+00 1.157052429334726185e-05 1.498663459642557427e-05 7.967147212184499949e-06 1.586604594194795936e-05
4.558000000000000000e+03 1.622098922729492188e+01 7.698221683502197266e+00 4.072645242558792233e-05 5.228698501014150679e-05 2.790403232211247087e-05 2.078814941341988742e-05
4.559000000000000000e+03 9.835825920104980469e+00 2.469223213195800781e+01 -5.401544272899627686e-03 -7.952013984322547913e-04 -1.859023701399564743e-03 4.278368782252073288e-03
4.560000000000000000e+03 3.003175544738769531e+01 2.281552314758300781e+01 -4.641047492623329163e-02 -2.740565687417984009e-02 -2.214483916759490967e-02 1.966232806444168091e-02
4.561000000000000000e+03 1.584006786346435547e+01 6.888780593872070312e+00 -8.402063031098805368e-06 2.040640902123413980e-05 3.601304115363745950e-06 -5.972921826469246298e-06
4.562000000000000000e+03 1.525953483581542969e+01 7.937131881713867188e+00 -1.652934042795095593e-05 2.850243254215456545e-05 3.591927907109493390e-06 3.542033255143905990e-06
4.563000000000000000e+03 1.315570354461669922e+01 8.371129989624023438e+00 1.096966298064216971e-04 5.618026261799968779e-05 4.976306809112429619e-05 2.383014543738681823e-05
4.564000000000000000e+03 8.558531761169433594e+00 -5.631171703338623047e+00 -3.953252360224723816e-02 -9.437721967697143555e-02 -4.017292335629463196e-02 -1.029825359582901001e-01
4.565000000000000000e+03 1.161881351470947266e+01 2.275841331481933594e+01 -6.405785679817199707e-03 3.778565442189574242e-04 -1.808378729037940502e-03 2.279239939525723457e-03
4.566000000000000000e+03 1.061134815216064453e+01 2.227106285095214844e+01 -4.744605626910924911e-03 -5.777290061814710498e-05 -1.440713647753000259e-03 1.825623796321451664e-03
4.567000000000000000e+03 1.040740394592285156e+01 1.797442245483398438e+01 -5.531023489311337471e-04 -5.929794861003756523e-04 -3.438245621509850025e-04 -2.569759453763253987e-05
4.568000000000000000e+03 1.037767982482910156e+01 2.408884811401367188e+01 -6.056293379515409470e-03 -5.318603361956775188e-04 -1.976446248590946198e-03 4.081320948898792267e-03
4.569000000000000000e+03 3.544015121459960938e+01 1.315048694610595703e+01 -1.208917703479528427e-02 1.288895378820598125e-03 -3.240084508433938026e-03 7.933728396892547607e-03
4.570000000000000000e+03 6.853135585784912109e+00 1.057251262664794922e+01 2.344575477764010429e-04 -1.678951230132952332e-04 1.996872924792114645e-05 -1.051634026225656271e-04
4.571000000000000000e+03 3.380429458618164062e+01 2.151157760620117188e+01 -4.333050549030303955e-02 8.247439749538898468e-03 -1.052492018789052963e-02 1.799259334802627563e-02
4.572000000000000000e+03 9.946769714355468750e+00 8.291065216064453125e+00 -5.615418103843694553e-06 -4.551696474663913250e-05 -1.533971590106375515e-05 3.727167495526373386e-05
4.573000000000000000e+03 7.140315246582031250e+01 -3.920033693313598633e+00 -7.338010519742965698e-02 -1.090038046240806580e-01 -5.471517145633697510e-02 -7.683976292610168457e-01
4.574000000000000000e+03 6.638129234313964844e+00 1.873430061340332031e+01 -9.478754946030676365e-04 -6.070518284104764462e-04 -4.664782027248293161e-04 2.224850031780079007e-04
4.575000000000000000e+03 1.442146015167236328e+01 7.018451690673828125e+00 -1.024607408908195794e-04 6.014838436385616660e-05 -1.269370568479644135e-05 6.057878999854438007e-05
4.576000000000000000e+03 1.461376094818115234e+01 6.570250511169433594e+00 8.598295971751213074e-05 2.239543755422346294e-05 3.251351881772279739e-05 5.734581009164685383e-06
4.577000000000000000e+03 8.797346115112304688e+00 2.166554069519042969e+01 -3.557943506166338921e-03 -4.420595942065119743e-04 -1.200000871904194355e-03 1.201996812596917152e-03
4.578000000000000000e+03 1.470924091339111328e+01 7.849207401275634766e+00 1.858752511907368898e-05 5.220888488111086190e-05 2.123892409144900739e-05 9.256147677660919726e-06
4.579000000000000000e+03 1.203196048736572266e+01 7.423079490661621094e+00 1.034922825056128204e-04 3.186427056789398193e-05 4.060696664964780211e-05 6.018108615535311401e-05
4.580000000000000000e+03 1.225834274291992188e+01 8.035456657409667969e+00 5.125821917317807674e-05 8.067047019721940160e-05 3.957860826631076634e-05 5.733887883252464235e-05
4.581000000000000000e+03 1.281919670104980469e+01 7.782542705535888672e+00 5.467881783260963857e-05 8.437315409537404776e-05 4.171559339738450944e-05 2.251198384328745306e-05
4.582000000000000000e+03 7.328729152679443359e+00 1.908607673645019531e+01 -8.915688958950340748e-04 -7.203937275335192680e-04 -4.835887812077999115e-04 1.856671733548864722e-04
4.583000000000000000e+03 1.401920223236083984e+01 6.844492912292480469e+00 1.067824487108737230e-04 -7.469644515367690474e-06 2.979384225909598172e-05 4.410453402670100331e-05
4.584000000000000000e+03 1.242845535278320312e+01 7.659132480621337891e+00 -3.375277628947515041e-06 -3.915640263585373759e-05 -1.275950398849090561e-05 8.277262531919404864e-05
4.585000000000000000e+03 1.232031631469726562e+01 7.020578384399414062e+00 -4.218567846692167222e-05 6.307534476945875213e-07 -1.246647752850549296e-05 4.184962381259538233e-05
4.586000000000000000e+03 3.365373611450195312e+01 1.576640963554382324e+00 5.418711225502192974e-04 9.483738540438935161e-05 1.910125429276376963e-04 2.355987089686095715e-04
4.587000000000000000e+03 3.496414566040039062e+01 5.133104324340820312e-01 -8.487770628562429920e-07 7.695511885685846210e-05 2.283190224261488765e-05 2.964172927022445947e-05
4.588000000000000000e+03 3.455622100830078125e+01 1.531800985336303711e+00 -3.601047210395336151e-04 -3.816659154836088419e-04 -2.225311909569427371e-04 2.447117549309041351e-05
4.589000000000000000e+03 3.492177963256835938e+01 7.063324451446533203e-01 -5.058201350038871169e-05 -3.170412674080580473e-04 -1.102869864553213120e-04 -3.212541560060344636e-05
4.590000000000000000e+03 3.478488922119140625e+01 1.781563878059387207e+00 -2.707959210965782404e-04 -3.561903140507638454e-04 -1.880958734545856714e-04 -2.446568687446415424e-04
4.591000000000000000e+03 3.458167266845703125e+01 1.753330111503601074e+00 3.276686766184866428e-04 2.700051118154078722e-04 1.793021365301683545e-04 -1.872904686024412513e-04
4.592000000000000000e+03 3.462108230590820312e+01 1.320459365844726562e+00 -1.330040977336466312e-04 -2.648231165949255228e-04 -1.193481584778055549e-04 1.567057042848318815e-04
4.593000000000000000e+03 3.486197280883789062e+01 1.055792212486267090e+00 -1.742915483191609383e-04 1.023293443722650409e-04 -2.158865936507936567e-05 -5.166714545339345932e-04
4.594000000000000000e+03 3.320969009399414062e+01 1.529959678649902344e+00 -4.077203047927469015e-04 -1.347278739558532834e-04 -1.627344609005376697e-04 1.306936028413474560e-04
4.595000000000000000e+03 3.334902191162109375e+01 1.622598052024841309e+00 6.273368489928543568e-05 -7.058808932924875990e-06 1.670246274443343282e-05 -1.848282554419711232e-04
4.596000000000000000e+03 3.350032043457031250e+01 1.674203872680664062e+00 1.690159842837601900e-04 -4.867136303801089525e-04 -9.530929673928767443e-05 2.105615067193866707e-06
4.597000000000000000e+03 3.483629989624023438e+01 1.236152768135070801e+00 4.749307699967175722e-04 7.684484444325789809e-05 1.655326777836307883e-04 4.178451781626790762e-04
4.598000000000000000e+03 3.479904937744140625e+01 1.588803052902221680e+00 4.438967152964323759e-04 1.970626472029834986e-04 1.922878145705908537e-04 -5.261277328827418387e-05
4.599000000000000000e+03 3.483137130737304688e+01 1.411675333976745605e+00 -3.740240645129233599e-04 4.468546103453263640e-05 -9.880158177111297846e-05 -6.214627501321956515e-05
4.600000000000000000e+03 3.490541458129882812e+01 8.838708996772766113e-01 2.476241206750273705e-04 2.068062749458476901e-04 1.363291230518370867e-04 3.133318386971950531e-04
4.601000000000000000e+03 3.373072814941406250e+01 1.148025155067443848e+00 2.732918655965477228e-04 1.251273934030905366e-04 1.195257718791253865e-04 -8.725688530830666423e-05
4.602000000000000000e+03 3.400005722045898438e+01 1.656924128532409668e+00 -2.687353407964110374e-04 -3.984081558883190155e-04 -2.001430548261851072e-04 1.067742778104729950e-04
4.603000000000000000e+03 3.350587081909179688e+01 1.435347199440002441e+00 -3.338223905302584171e-04 1.817445263441186398e-05 -9.469438373344019055e-05 2.545415482018142939e-04
4.604000000000000000e+03 3.422412490844726562e+01 1.719584941864013672e+00 1.167961308965459466e-04 3.850160283036530018e-04 1.505436521256342530e-04 -5.605888436548411846e-04
4.605000000000000000e+03 3.407532882690429688e+01 5.203839540481567383e-01 2.119411801686510444e-04 7.478368934243917465e-05 8.601746230851858854e-05 -7.342472235905006528e-05
4.606000000000000000e+03 3.442555618286132812e+01 6.639856696128845215e-01 3.094198473263531923e-04 1.951722369994968176e-04 1.513776223873719573e-04 4.740849544759839773e-05
4.607000000000000000e+03 3.364273452758789062e+01 1.700774073600769043e+00 -3.600506897782906890e-05 1.741582236718386412e-04 4.144594640820287168e-05 -4.506453024077927694e-06
4.608000000000000000e+03 3.433422088623046875e+01 1.559625267982482910e+00 3.137675230391323566e-04 7.218344835564494133e-04 3.106805961579084396e-04 -2.477549132890999317e-04
4.609000000000000000e+03 3.474470520019531250e+01 5.020679235458374023e-01 -6.568538810824975371e-05 -2.865756105165928602e-04 -1.056783003150485456e-04 -3.164157533319666982e-05
4.610000000000000000e+03 3.438750457763671875e+01 1.119982838630676270e+00 4.137129872106015682e-04 2.023000124609097838e-04 1.848039100877940655e-04 -1.225725573021918535e-04
4.611000000000000000e+03 3.410485458374023438e+01 1.378117084503173828e+00 -1.734412508085370064e-04 -3.201535728294402361e-04 -1.480784412706270814e-04 1.456892932765185833e-04
4.612000000000000000e+03 3.466735839843750000e+01 9.404675364494323730e-01 -6.105455104261636734e-04 -1.978252403205260634e-04 -2.425112324999645352e-04 -7.836848817532882094e-05
4.613000000000000000e+03 3.411146926879882812e+01 8.511812090873718262e-01 -5.090020713396370411e-04 -2.020718529820442200e-04 -2.133221860276535153e-04 4.870009888691129163e-06
4.614000000000000000e+03 3.379204177856445312e+01 1.664782166481018066e+00 6.123206112533807755e-04 6.384406588040292263e-04 3.752283810172230005e-04 -5.919631075812503695e-05
4.615000000000000000e+03 3.455142974853515625e+01 4.722054898738861084e-01 -8.045911090448498726e-05 6.195178139023482800e-04 1.617176167201250792e-04 -1.218442412209697068e-04
4.616000000000000000e+03 3.465433502197265625e+01 7.233890891075134277e-01 2.774621534626930952e-04 2.241940092062577605e-04 1.504968531662598252e-04 1.028473052429035306e-04
4.617000000000000000e+03 3.435990142822265625e+01 4.721285998821258545e-01 -6.502813630504533648e-05 -4.498538037296384573e-04 -1.544645783724263310e-04 2.995135437231510878e-04
4.618000000000000000e+03 3.439619827270507812e+01 1.747237682342529297e+00 -5.896947113797068596e-04 -3.866275073960423470e-04 -2.928966714534908533e-04 5.442631663754582405e-04
4.619000000000000000e+03 3.355002593994140625e+01 -1.336139678955078125e+00 -2.876870632171630859e+00 -4.665359854698181152e-01 -1.003021955490112305e+00 2.636864185333251953e-01
4.620000000000000000e+03 3.387998962402343750e+01 -1.357542157173156738e+00 -3.630479335784912109e+00 -5.593857727944850922e-03 -1.090821981430053711e+00 1.727387607097625732e-01
4.621000000000000000e+03 3.400633621215820312e+01 -1.437711238861083984e+00 -3.332447767257690430e+00 1.977387070655822754e-01 -9.404127001762390137e-01 4.533090293407440186e-01
4.622000000000000000e+03 3.359782409667968750e+01 -1.530442714691162109e+00 -2.926893711090087891e+00 -4.794679880142211914e-01 -1.021908521652221680e+00 6.319667100906372070e-01
4.623000000000000000e+03 3.337884902954101562e+01 -1.355730533599853516e+00 -4.241033554077148438e+00 -1.037366390228271484e+00 -1.583520054817199707e+00 -2.028455585241317749e-01
4.624000000000000000e+03 3.318160629272460938e+01 -1.385946512222290039e+00 -3.625212192535400391e+00 -7.469109296798706055e-01 -1.311636924743652344e+00 1.234347105026245117e+00
4.625000000000000000e+03 3.272080612182617188e+01 -1.474612951278686523e+00 -3.720328569412231445e+00 -1.052024483680725098e+00 -1.431705951690673828e+00 -5.721106529235839844e-01
4.626000000000000000e+03 3.291108322143554688e+01 -1.866258263587951660e+00 -2.686723709106445312e+00 -7.091134190559387207e-01 -1.018751144409179688e+00 7.953906059265136719e-02
4.627000000000000000e+03 3.251934814453125000e+01 -1.439323782920837402e+00 -3.860809564590454102e+00 -4.663867354393005371e-01 -1.298158884048461914e+00 -4.962305724620819092e-01
4.628000000000000000e+03 3.221598434448242188e+01 -1.447337150573730469e+00 -3.564886808395385742e+00 -2.259167134761810303e-01 -1.137241125106811523e+00 -4.894971549510955811e-01
4.629000000000000000e+03 3.226885986328125000e+01 -1.600857377052307129e+00 -3.668095350265502930e+00 -3.565087914466857910e-01 -1.207381248474121094e+00 -5.487016439437866211e-01
4.630000000000000000e+03 3.204936599731445312e+01 -1.485772848129272461e+00 -3.545645475387573242e+00 -9.107208997011184692e-02 -1.091015219688415527e+00 -4.357193410396575928e-01
4.631000000000000000e+03 3.211537170410156250e+01 -1.726776599884033203e+00 -3.355005025863647461e+00 -1.214688792824745178e-01 -1.042942166328430176e+00 -5.653024315834045410e-01
4.632000000000000000e+03 3.182605171203613281e+01 -1.507937312126159668e+00 -3.300309658050537109e+00 2.265823483467102051e-01 -9.221181869506835938e-01 -1.937034875154495239e-01
4.633000000000000000e+03 3.372217178344726562e+01 -1.337684988975524902e+00 -4.151347637176513672e+00 -5.818407516926527023e-03 -1.247149825096130371e+00 4.155133366584777832e-01
4.634000000000000000e+03 3.351655578613281250e+01 -1.788771152496337891e+00 -3.121901750564575195e+00 -4.202933013439178467e-01 -1.062658548355102539e+00 3.113247752189636230e-01
4.635000000000000000e+03 3.296868133544921875e+01 -1.440663218498229980e+00 -2.517575740814208984e+00 -1.571351885795593262e+00 -1.226678252220153809e+00 2.564423084259033203e-01
4.636000000000000000e+03 3.250159835815429688e+01 -1.746093511581420898e+00 -3.350317001342773438e+00 -6.578993797302246094e-01 -1.202464938163757324e+00 -4.776311814785003662e-01
4.637000000000000000e+03 3.236406326293945312e+01 -1.501782178878784180e+00 -3.580630302429199219e+00 -4.450194537639617920e-01 -1.207694888114929199e+00 -5.925381183624267578e-01
4.638000000000000000e+03 3.312557220458984375e+01 -1.569985032081604004e+00 -3.687351465225219727e+00 -1.030228018760681152e+00 -1.415273904800415039e+00 -1.861165761947631836e-01
4.639000000000000000e+03 3.236862182617187500e+01 -1.424049139022827148e+00 -3.944039583206176758e+00 -4.796417355537414551e-01 -1.327104330062866211e+00 -4.668510854244232178e-01
4.640000000000000000e+03 3.340180206298828125e+01 -1.497046351432800293e+00 -3.986772060394287109e+00 -4.904108047485351562e-01 -1.343154907226562500e+00 7.537599802017211914e-01
4.641000000000000000e+03 3.482025527954101562e+01 2.317851334810256958e-01 -2.512419700622558594e+00 -7.023726124316453934e-03 -7.558330297470092773e-01 -3.623346388339996338e-01
4.642000000000000000e+03 3.502776718139648438e+01 -3.995346128940582275e-01 -2.534369945526123047e+00 1.261715143918991089e-01 -7.224595546722412109e-01 -4.258792996406555176e-01
4.643000000000000000e+03 3.520851898193359375e+01 -9.952967762947082520e-01 -2.705919981002807617e+00 4.109338819980621338e-01 -6.884958148002624512e-01 -4.242514073848724365e-02
4.644000000000000000e+03 3.487051010131835938e+01 -9.423822760581970215e-01 -2.730266809463500977e+00 3.384022116661071777e-01 -7.175593376159667969e-01 -2.219316810369491577e-01
4.645000000000000000e+03 3.501298904418945312e+01 2.663194239139556885e-01 -2.691451549530029297e+00 -1.329463720321655273e-01 -8.473193645477294922e-01 -3.956260979175567627e-01
4.646000000000000000e+03 3.488112640380859375e+01 -1.439139619469642639e-02 -2.470720529556274414e+00 -1.008177176117897034e-01 -7.714614272117614746e-01 -4.609212577342987061e-01
4.647000000000000000e+03 3.504684829711914062e+01 -1.377833038568496704e-01 -2.416898250579833984e+00 1.005378458648920059e-02 -7.220533490180969238e-01 -3.619793057441711426e-01
4.648000000000000000e+03 3.448436355590820312e+01 -4.451995790004730225e-01 -2.652119636535644531e+00 2.314683943986892700e-01 -7.261953353881835938e-01 -7.275888323783874512e-01
4.649000000000000000e+03 3.444835281372070312e+01 1.789149492979049683e-01 -2.305856704711914062e+00 1.971116103231906891e-02 -6.858436465263366699e-01 -3.260573446750640869e-01
4.650000000000000000e+03 3.445236587524414062e+01 -9.279549121856689453e-01 -3.253730773925781250e+00 3.899139165878295898e-01 -8.591450452804565430e-01 -3.188586235046386719e-01
4.651000000000000000e+03 3.472159957885742188e+01 -4.574835002422332764e-01 -2.609664916992187500e+00 1.373306661844253540e-01 -7.417002916336059570e-01 -5.360724329948425293e-01
4.652000000000000000e+03 3.504224777221679688e+01 -9.963615536689758301e-01 -2.727229833602905273e+00 3.551430404186248779e-01 -7.116260528564453125e-01 -1.293354928493499756e-01
4.653000000000000000e+03 3.508397293090820312e+01 -6.545739173889160156e-01 -2.643049001693725586e+00 2.228735834360122681e-01 -7.260525822639465332e-01 -2.512000203132629395e-01
4.654000000000000000e+03 3.463124084472656250e+01 1.983687281608581543e-01 -2.408663272857666016e+00 -1.080857664346694946e-01 -7.550247311592102051e-01 -3.093789219856262207e-01
4.655000000000000000e+03 3.448096847534179688e+01 -8.303236216306686401e-02 -2.054307222366333008e+00 -5.561448261141777039e-02 -6.329765319824218750e-01 -6.337671279907226562e-01
4.656000000000000000e+03 3.466226196289062500e+01 -9.147076010704040527e-01 -2.994137048721313477e+00 4.133540987968444824e-01 -7.742348909378051758e-01 -2.889591157436370850e-01
4.657000000000000000e+03 3.429238891601562500e+01 1.145092993974685669e-01 -2.035310029983520508e+00 3.400690108537673950e-02 -6.003909707069396973e-01 -4.320815205574035645e-01
4.658000000000000000e+03 3.505037689208984375e+01 5.978215858340263367e-02 -2.433772802352905273e+00 -8.312910795211791992e-02 -7.550705671310424805e-01 -4.051624834537506104e-01
4.659000000000000000e+03 3.517032241821289062e+01 -8.236765265464782715e-01 -2.561394453048706055e+00 3.133641183376312256e-01 -6.744090914726257324e-01 -1.147826537489891052e-01
4.660000000000000000e+03 3.469303894042968750e+01 -8.869820088148117065e-02 -2.306774616241455078e+00 -1.270928047597408295e-02 -6.958451867103576660e-01 -5.679467320442199707e-01
4.661000000000000000e+03 3.400199890136718750e+01 -1.481593251228332520e-01 -1.989332914352416992e+00 1.045862957835197449e-01 -5.654239654541015625e-01 -8.771102428436279297e-01
4.662000000000000000e+03 3.396210098266601562e+01 -1.021292924880981445e+00 -3.929916858673095703e+00 3.204779028892517090e-01 -1.082831740379333496e+00 -3.567153587937355042e-02
4.663000000000000000e+03 3.408905029296875000e+01 9.776008874177932739e-02 -1.689745903015136719e+00 1.115432307124137878e-01 -4.734607934951782227e-01 -5.818095803260803223e-01
4.664000000000000000e+03 3.364619064331054688e+01 1.042624264955520630e-01 -5.570020079612731934e-01 -1.511752754449844360e-01 -2.124531865119934082e-01 -4.058009684085845947e-01
4.665000000000000000e+03 3.314983367919921875e+01 -7.385936975479125977e-01 -8.527544021606445312e+00 -2.013264656066894531e+00 -3.162242412567138672e+00 -7.006707191467285156e-01
4.666000000000000000e+03 3.311226272583007812e+01 4.197925329208374023e-02 1.063932538032531738e+00 1.097196117043495178e-01 3.520956337451934814e-01 -2.727495133876800537e-01
4.667000000000000000e+03 3.293719100952148438e+01 -1.020196080207824707e-02 2.933281362056732178e-01 -6.865105628967285156e-01 -1.179547384381294250e-01 6.543277502059936523e-01
4.668000000000000000e+03 3.265475845336914062e+01 -1.659001111984252930e-01 2.409124970436096191e-01 9.406235814094543457e-01 3.544608056545257568e-01 -4.887441694736480713e-01
4.669000000000000000e+03 3.276617813110351562e+01 -5.367523804306983948e-02 -5.122508406639099121e-01 -4.794398695230484009e-02 -1.680584400892257690e-01 7.293024659156799316e-01
4.670000000000000000e+03 3.156710624694824219e+01 -1.139999270439147949e+00 -3.808095455169677734e+00 5.202095508575439453e-01 -9.863657951354980469e-01 2.852635690942406654e-03
4.671000000000000000e+03 3.131309318542480469e+01 -1.084291040897369385e-01 -2.217772722244262695e+00 -6.454097479581832886e-02 -6.846941113471984863e-01 -2.707420289516448975e-01
4.672000000000000000e+03 3.112607002258300781e+01 -1.395439654588699341e-01 -2.913221120834350586e+00 -2.591317594051361084e-01 -9.517058134078979492e-01 1.568718701601028442e-01
4.673000000000000000e+03 3.097275543212890625e+01 -1.923964768648147583e-01 -2.934520244598388672e+00 2.678557038307189941e-01 -7.999993562698364258e-01 -3.007574081420898438e-01
4.674000000000000000e+03 3.189393234252929688e+01 -1.208927392959594727e+00 -3.788884878158569336e+00 5.501251816749572754e-01 -9.716278910636901855e-01 -1.811280399560928345e-01
4.675000000000000000e+03 3.421673583984375000e+01 -9.602398872375488281e-01 -3.398102998733520508e+00 4.841966927051544189e-01 -8.741718530654907227e-01 -4.760147333145141602e-01
4.676000000000000000e+03 3.332613754272460938e+01 -1.090211391448974609e+00 -3.759479999542236328e+00 -6.849333643913269043e-01 -1.333323955535888672e+00 8.519439101219177246e-01
4.677000000000000000e+03 3.293823623657226562e+01 -8.090336322784423828e-01 -8.206761360168457031e+00 -3.376798868179321289e+00 -3.475068092346191406e+00 2.634048759937286377e-01
4.678000000000000000e+03 3.271237182617187500e+01 -1.201809287071228027e+00 -4.255836009979248047e+00 -7.850334048271179199e-01 -1.512260794639587402e+00 -6.763880252838134766e-01
4.679000000000000000e+03 3.169081687927246094e+01 -5.910111069679260254e-01 -3.528729915618896484e+00 6.595744490623474121e-01 -8.607466220855712891e-01 2.919563055038452148e-01
4.680000000000000000e+03 3.331299209594726562e+01 -2.003788948059082031e-01 -1.844315528869628906e+00 -3.336419463157653809e-01 -6.533872485160827637e-01 -1.173373818397521973e+00
4.681000000000000000e+03 3.383176803588867188e+01 -6.687225103378295898e-01 -3.451159000396728516e+00 3.624494075775146484e-01 -9.266129136085510254e-01 -1.148895382881164551e+00
4.682000000000000000e+03 3.385493087768554688e+01 1.196751296520233154e-01 -1.043579936027526855e+00 -1.562514305114746094e-01 -3.599494099617004395e-01 -5.449255108833312988e-01
4.683000000000000000e+03 3.342586898803710938e+01 -5.869226902723312378e-02 -7.190780639648437500e-01 -3.244493007659912109e-01 -3.130581974983215332e-01 -8.211340904235839844e-01
4.684000000000000000e+03 3.086922454833984375e+01 -3.279412388801574707e-01 -3.545344114303588867e+00 -1.799573451280593872e-01 -1.117590427398681641e+00 7.564295828342437744e-02
4.685000000000000000e+03 3.162461662292480469e+01 -1.862830966711044312e-01 -1.641760826110839844e+00 2.404445558786392212e-01 -4.203948676586151123e-01 4.139986336231231689e-01
4.686000000000000000e+03 3.416860198974609375e+01 -5.028523802757263184e-01 -2.955493450164794922e+00 2.038770169019699097e-01 -8.254849314689636230e-01 -7.526374459266662598e-01
4.687000000000000000e+03 3.360907745361328125e+01 -8.425797224044799805e-01 -5.381201267242431641e+00 1.026179715991020203e-01 -1.583575010299682617e+00 -4.579723179340362549e-01
4.688000000000000000e+03 3.276919937133789062e+01 -8.749681711196899414e-01 -5.069999217987060547e+00 -9.618716835975646973e-01 -1.809561371803283691e+00 -1.959185451269149780e-01
4.689000000000000000e+03 3.195477485656738281e+01 -3.696976304054260254e-01 -3.501572608947753906e+00 3.474711477756500244e-01 -9.462304115295410156e-01 1.133730769157409668e+00
4.690000000000000000e+03 3.252721786499023438e+01 -1.251863598823547363e+00 -4.180531501770019531e+00 -7.770211100578308105e-01 -1.487265825271606445e+00 -3.853548765182495117e-01
4.691000000000000000e+03 3.239929962158203125e+01 -9.122696518898010254e-01 -4.675055503845214844e+00 1.580729931592941284e-01 -1.355094790458679199e+00 -3.546256422996520996e-01
4.692000000000000000e+03 3.327270507812500000e+01 9.752890467643737793e-02 4.906471073627471924e-01 -1.457038819789886475e-01 1.034829691052436829e-01 -1.023957058787345886e-01
4.693000000000000000e+03 3.181629562377929688e+01 -2.469906955957412720e-02 -1.340452671051025391e+00 2.272033542394638062e-01 -3.339747786521911621e-01 9.005218744277954102e-02
4.694000000000000000e+03 3.197904205322265625e+01 -2.844978496432304382e-02 -9.996191859245300293e-01 -2.589308321475982666e-01 -3.775649964809417725e-01 -6.728298217058181763e-02
4.695000000000000000e+03 3.235213851928710938e+01 -1.281953215599060059e+00 -4.008362293243408203e+00 -1.638944447040557861e-01 -1.251676917076110840e+00 -5.708369612693786621e-01
4.696000000000000000e+03 3.244567871093750000e+01 -7.290428280830383301e-01 -4.707796573638916016e+00 -3.687961995601654053e-01 -1.522977828979492188e+00 1.043989062309265137e-01
4.697000000000000000e+03 3.355311584472656250e+01 -1.092567682266235352e+00 -4.769605159759521484e+00 -3.057925999164581299e-01 -1.522619366645812988e+00 4.648481011390686035e-01
4.698000000000000000e+03 3.296784591674804688e+01 -4.096782803535461426e-01 -5.238810777664184570e-01 -1.847362995147705078e+00 -7.113732099533081055e-01 -8.240892887115478516e-01
4.699000000000000000e+03 3.131776237487792969e+01 -6.395704746246337891e-01 -3.311434030532836914e+00 4.713127911090850830e-01 -8.520363569259643555e-01 2.408121228218078613e-01
4.700000000000000000e+03 3.368114471435546875e+01 -1.669717580080032349e-01 -1.742156982421875000e+00 -1.283252984285354614e-01 -5.611447095870971680e-01 -1.099403500556945801e+00
4.701000000000000000e+03 3.358239364624023438e+01 -4.102739095687866211e-01 -2.974983930587768555e+00 -1.721186488866806030e-01 -9.441307783126831055e-01 -9.537294507026672363e-01
4.702000000000000000e+03 3.337776565551757812e+01 -6.060455441474914551e-01 -3.744484186172485352e+00 -1.466678380966186523e-01 -1.167345523834228516e+00 -1.483461618423461914e+00
4.703000000000000000e+03 3.123846626281738281e+01 -3.502001464366912842e-01 -3.483690977096557617e+00 1.046170368790626526e-01 -1.013722181320190430e+00 4.237576946616172791e-02
4.704000000000000000e+03 3.214323425292968750e+01 -7.637282460927963257e-02 -9.379111230373382568e-02 6.805938482284545898e-01 1.760408282279968262e-01 6.788033246994018555e-01
4.705000000000000000e+03 3.233746719360351562e+01 -2.876764535903930664e-01 -2.299923419952392578e+00 -2.618654966354370117e-01 -7.685366272926330566e-01 1.156738162040710449e+00
4.706000000000000000e+03 3.215012741088867188e+01 -8.154843449592590332e-01 -4.627953052520751953e+00 2.124329805374145508e-01 -1.324656009674072266e+00 2.807634472846984863e-01
4.707000000000000000e+03 3.147759437561035156e+01 -6.211524456739425659e-02 -2.300020456314086914e+00 2.895160019397735596e-01 -6.031513214111328125e-01 -2.477614283561706543e-01
4.708000000000000000e+03 3.163834381103515625e+01 -3.776077926158905029e-02 -1.935305953025817871e+00 -2.013858556747436523e-01 -6.410075426101684570e-01 8.648818731307983398e-02
4.709000000000000000e+03 3.183118247985839844e+01 -1.824834942817687988e-01 -1.512817263603210449e+00 -1.173835769295692444e-01 -4.890602529048919678e-01 4.322391152381896973e-01
4.710000000000000000e+03 3.344159317016601562e+01 1.166179478168487549e-01 -1.118478458374738693e-02 -4.901986941695213318e-02 -1.806139573454856873e-02 -3.190273046493530273e-01
4.711000000000000000e+03 3.375662612915039062e+01 -1.085907697677612305e+00 -3.808581590652465820e+00 2.066898047924041748e-01 -1.080567598342895508e+00 1.917731314897537231e-01
4.712000000000000000e+03 3.311204147338867188e+01 -1.131238102912902832e+00 -3.786928653717041016e+00 -2.155403137207031250e+00 -1.782699465751647949e+00 1.486625224351882935e-01
4.713000000000000000e+03 3.291574096679687500e+01 -1.168885946273803711e+00 -5.063319206237792969e+00 -2.472099304199218750e+00 -2.260625600814819336e+00 -5.781020522117614746e-01
4.714000000000000000e+03 3.215005874633789062e+01 -1.031110167503356934e+00 -4.092494010925292969e+00 2.905066907405853271e-01 -1.140596151351928711e+00 -1.578821837902069092e-01
4.715000000000000000e+03 3.214545440673828125e+01 -1.263760447502136230e+00 -4.042924404144287109e+00 -2.183759212493896484e-01 -1.278390169143676758e+00 -3.203046321868896484e-01
4.716000000000000000e+03 3.192040824890136719e+01 -8.839121460914611816e-01 -4.190816879272460938e+00 3.975040018558502197e-01 -1.137993812561035156e+00 9.782898426055908203e-02
4.717000000000000000e+03 3.315047454833984375e+01 -3.186087310314178467e-01 -2.136532068252563477e+00 -1.303611874580383301e+00 -1.032043218612670898e+00 -9.460909366607666016e-01
4.718000000000000000e+03 3.148613548278808594e+01 -3.122936487197875977e-01 -3.290350675582885742e+00 4.622310698032379150e-01 -8.484358787536621094e-01 5.723462700843811035e-01
4.719000000000000000e+03 3.237022781372070312e+01 -1.101313352584838867e+00 -4.381883621215820312e+00 -4.467635750770568848e-01 -1.448594212532043457e+00 -4.514124691486358643e-01
4.720000000000000000e+03 3.256470108032226562e+01 -6.016697287559509277e-01 -5.615833282470703125e+00 -9.430911540985107422e-01 -1.967677354812622070e+00 4.016510844230651855e-01
4.721000000000000000e+03 3.260083007812500000e+01 -9.403727054595947266e-01 -5.119689941406250000e+00 -1.206915497779846191e+00 -1.897981643676757812e+00 -1.884269565343856812e-01
4.722000000000000000e+03 3.262161254882812500e+01 -4.030735492706298828e-01 -3.416989326477050781e+00 -1.450615286827087402e+00 -1.460281372070312500e+00 1.354840040206909180e+00
4.723000000000000000e+03 3.219610214233398438e+01 -5.578918457031250000e-01 -4.119528770446777344e+00 6.074903011322021484e-01 -1.053611636161804199e+00 1.963808238506317139e-01
4.724000000000000000e+03 3.048606872558593750e+01 2.310402989387512207e-01 -2.677787961147259921e-05 -6.331710756057873368e-05 -2.702849633351434022e-05 3.053068576264195144e-05
4.725000000000000000e+03 3.067443084716796875e+01 8.053497970104217529e-02 5.853803941135993227e-06 3.721663688338594511e-06 2.872640152418171056e-06 3.180096609867177904e-05
4.726000000000000000e+03 3.083256912231445312e+01 7.534402608871459961e-02 -3.145768278045579791e-05 5.915293877478688955e-05 8.308576980198267847e-06 9.138868335867300630e-06
4.727000000000000000e+03 3.146447753906250000e+01 1.434350162744522095e-01 6.975256383157102391e-06 1.357552605441014748e-06 2.499842594261281192e-06 -5.461122782435268164e-06
4.728000000000000000e+03 3.169309043884277344e+01 2.968901693820953369e-01 -8.948931281338445842e-06 1.686235805209435057e-06 -2.178808699682122096e-06 3.712810666911536828e-06
4.729000000000000000e+03 3.156153106689453125e+01 5.812429189682006836e-01 3.453162207733839750e-06 9.352446795674040914e-06 3.841682428173953667e-06 -5.391767444962169975e-06
4.730000000000000000e+03 3.117042160034179688e+01 1.019975543022155762e-01 -6.332967586786253378e-06 1.892133514047600329e-05 3.776510311581660062e-06 3.273387619628920220e-06
4.731000000000000000e+03 3.075090408325195312e+01 3.309426605701446533e-01 4.759110197483096272e-06 5.177104685571976006e-05 1.695904757070820779e-05 -2.357455559831578285e-05
4.732000000000000000e+03 3.095979499816894531e+01 2.792930305004119873e-01 5.104070805828087032e-05 3.253485601817374118e-06 1.628825702937319875e-05 -4.336979600338963792e-06
4.733000000000000000e+03 3.131006622314453125e+01 2.190151810646057129e-01 2.876787766581401229e-05 2.352844148845179006e-06 9.336216862720903009e-06 -4.150540007685776800e-06
4.734000000000000000e+03 3.163131332397460938e+01 1.642359793186187744e-01 -5.692170361726311967e-07 -9.695676453702617437e-06 -3.079468115174677223e-06 7.012839887465815991e-06
4.735000000000000000e+03 3.180051803588867188e+01 1.577325165271759033e-01 -1.476844886383332778e-06 3.744980404007947072e-06 6.804406780247518327e-07 9.498695021648018155e-07
4.736000000000000000e+03 3.122459983825683594e+01 4.408085644245147705e-01 -1.167494338005781174e-05 -1.505832278780872002e-05 -8.019979759410489351e-06 1.132057241193251684e-05
4.737000000000000000e+03 3.100239944458007812e+01 9.454712271690368652e-02 -3.314837522339075804e-05 -4.348699803813360631e-05 -2.299061270605307072e-05 -2.871957258321344852e-05
4.738000000000000000e+03 3.131899452209472656e+01 9.043892472982406616e-02 -1.249879733222769573e-05 -9.578010576660744846e-06 -6.623042281717061996e-06 -5.345584668248193339e-06
4.739000000000000000e+03 3.191551780700683594e+01 2.150069624185562134e-01 6.151602747195283882e-07 5.312494067766238004e-06 1.778296336851781234e-06 -3.967858901887666434e-06
4.740000000000000000e+03 3.196529197692871094e+01 3.894459009170532227e-01 -5.755046004196628928e-07 -5.778444574389141053e-06 -1.906184706967906095e-06 2.427525714665534906e-06
4.741000000000000000e+03 3.252656173706054688e+01 1.474916934967041016e+00 -2.250391553388908505e-04 1.853714347817003727e-04 -1.190031525766244158e-05 5.863846308784559369e-05
4.742000000000000000e+03 3.277453613281250000e+01 3.826866447925567627e-01 -2.730967753450386226e-05 1.353357038169633597e-05 -4.132832145842257887e-06 -1.477344449085649103e-05
4.743000000000000000e+03 3.231996536254882812e+01 1.288083195686340332e+00 -1.013364017126150429e-04 -1.299908326473087072e-04 -6.939817103557288647e-05 6.955702701816335320e-05
4.744000000000000000e+03 3.247399902343750000e+01 7.846297025680541992e-01 -6.180971831781789660e-05 -1.302842429140582681e-04 -5.762818909715861082e-05 6.055716585251502693e-05
4.745000000000000000e+03 3.306614303588867188e+01 1.100092530250549316e+00 4.097338241990655661e-04 1.484148669987916946e-04 1.674446102697402239e-04 5.572344889515079558e-05
4.746000000000000000e+03 3.320626068115234375e+01 3.682013154029846191e-01 -6.415213192667579278e-06 -6.712680624332278967e-05 -2.206260614912025630e-05 3.915140405297279358e-05
4.747000000000000000e+03 3.299676895141601562e+01 7.458893656730651855e-01 -2.399217773927375674e-04 -1.228681412612786517e-05 -7.566257409052923322e-05 4.884641020908020437e-05
4.748000000000000000e+03 3.355887222290039062e+01 3.570089340209960938e-01 2.014044002862647176e-04 -3.044831682927906513e-04 -3.092362749157473445e-05 2.501290509826503694e-06
4.749000000000000000e+03 3.384705734252929688e+01 4.833906590938568115e-01 6.408834451576694846e-05 9.561202023178339005e-05 4.791010724147781730e-05 -8.990524520413600840e-07
4.750000000000000000e+03 3.371740341186523438e+01 4.005685746669769287e-01 1.481010403949767351e-04 1.340214021183783188e-05 4.845095463679172099e-05 1.059851419995538890e-04
4.751000000000000000e+03 3.209313583374023438e+01 9.748304486274719238e-01 9.863323066383600235e-05 4.613426062860526145e-05 4.343024556874297559e-05 -5.858999793417751789e-05
4.752000000000000000e+03 3.339539337158203125e+01 3.439426422119140625e-01 1.213037103298120201e-04 2.861447865143418312e-04 1.222345599671825767e-04 -1.309395156567916274e-04
4.753000000000000000e+03 3.342350387573242188e+01 8.909338712692260742e-01 -1.944989635376259685e-04 -1.544011320220306516e-04 -1.046700272127054632e-04 1.401560148224234581e-04
4.754000000000000000e+03 3.273265075683593750e+01 7.511296272277832031e-01 -9.729385965329129249e-06 1.289671054109930992e-04 3.577131428755819798e-05 7.429267134284600616e-05
4.755000000000000000e+03 3.299393081665039062e+01 3.836881220340728760e-01 4.904765955870971084e-05 -1.789272027963306755e-05 9.346481419925112277e-06 -2.951836177089717239e-05
4.756000000000000000e+03 3.326683044433593750e+01 6.439960002899169922e-01 -2.932063034677412361e-05 2.140936703654006124e-04 5.543191218748688698e-05 -1.551282766740769148e-04
4.757000000000000000e+03 3.272225189208984375e+01 1.501854300498962402e+00 1.312263193540275097e-04 4.729201828013174236e-05 5.355550092644989491e-05 -2.191389939980581403e-04
4.758000000000000000e+03 3.258716964721679688e+01 1.023952603340148926e+00 2.156120026484131813e-04 9.240577128366567194e-06 6.745577411493286490e-05 -6.305831630015745759e-05
4.759000000000000000e+03 3.220250701904296875e+01 4.758601486682891846e-01 -5.682948903995566070e-05 -2.386917731200810522e-05 -2.420960117888171226e-05 3.318175367894582450e-05
4.760000000000000000e+03 3.345799636840820312e+01 5.111693739891052246e-01 -7.649237522855401039e-05 -7.705454481765627861e-05 -4.606407674145884812e-05 -3.936926441383548081e-05
4.761000000000000000e+03 3.253543472290039062e+01 3.972842991352081299e-01 1.574223642819561064e-05 3.367952012922614813e-05 1.482652714912546799e-05 -1.518678436696063727e-05
4.762000000000000000e+03 3.273504638671875000e+01 1.226690053939819336e+00 -2.117735857609659433e-04 -1.758786675054579973e-04 -1.162956759799271822e-04 2.922846033470705152e-05
4.763000000000000000e+03 3.299623489379882812e+01 1.477275013923645020e+00 -8.256927685579285026e-05 9.583994688000530005e-05 3.981201643910026178e-06 -1.607496960787102580e-04
4.764000000000000000e+03 3.361579895019531250e+01 6.195395588874816895e-01 -2.837759966496378183e-04 -3.042520256713032722e-04 -1.764084008755162358e-04 -1.192076670122332871e-04
4.765000000000000000e+03 2.781990051269531250e+01 -2.360724806785583496e-01 -3.371802158653736115e-03 2.446572063490748405e-03 -2.775690227281302214e-04 -1.881220086943358183e-04
4.766000000000000000e+03 2.646029090881347656e+01 7.749882936477661133e-01 -4.553345218300819397e-02 6.808008998632431030e-02 6.763991899788379669e-03 -1.127602383494377136e-01
4.767000000000000000e+03 2.671755599975585938e+01 8.129853606224060059e-01 4.852360580116510391e-03 1.104509010910987854e-01 3.459097817540168762e-02 -1.101810261607170105e-01
4.768000000000000000e+03 2.685140991210937500e+01 5.993382930755615234e-01 -8.363034576177597046e-02 1.238843873143196106e-01 1.207621209323406219e-02 -6.691684573888778687e-02
4.769000000000000000e+03 2.615445137023925781e+01 6.092628836631774902e-01 -1.706451624631881714e-01 -8.675011247396469116e-02 -7.721857726573944092e-02 -5.266495421528816223e-02
4.770000000000000000e+03 2.578784370422363281e+01 5.081817507743835449e-01 -3.032053709030151367e-01 -2.849051654338836670e-01 -1.764331609010696411e-01 1.188364103436470032e-01
4.771000000000000000e+03 2.515849876403808594e+01 3.271711468696594238e-01 -6.287056803703308105e-01 -2.388978153467178345e-01 -2.602810561656951904e-01 3.949554860591888428e-01
4.772000000000000000e+03 2.528490638732910156e+01 -1.167485713958740234e+00 -2.439066886901855469e+00 9.187570959329605103e-02 -7.041573524475097656e-01 -2.655083835124969482e-01
4.773000000000000000e+03 2.597053718566894531e+01 -1.693393230438232422e+00 -2.282086133956909180e+00 -4.986421465873718262e-01 -8.342185020446777344e-01 -5.794693827629089355e-01
4.774000000000000000e+03 2.837369155883789062e+01 -1.667419314384460449e+00 -2.946039199829101562e+00 -1.283235475420951843e-02 -8.876614570617675781e-01 -3.062750101089477539e-01
4.775000000000000000e+03 2.616794013977050781e+01 -1.584699869155883789e+00 -2.462724685668945312e+00 -5.459017753601074219e-01 -9.025878906250000000e-01 -4.801191091537475586e-01
4.776000000000000000e+03 2.545707130432128906e+01 -1.382107138633728027e+00 -2.445202589035034180e+00 -5.275581777095794678e-02 -7.493875622749328613e-01 -4.313381016254425049e-01
4.777000000000000000e+03 2.507384490966796875e+01 -2.928588986396789551e-01 -1.607127189636230469e+00 -3.203423460945487022e-03 -4.830991923809051514e-01 4.837046563625335693e-01
4.778000000000000000e+03 2.553544807434082031e+01 3.138064444065093994e-01 -4.695145785808563232e-01 -3.668435811996459961e-01 -2.509074509143829346e-01 3.096561431884765625e-01
4.779000000000000000e+03 2.596484184265136719e+01 5.645281076431274414e-01 -2.007835060358047485e-01 -1.925081759691238403e-01 -1.179875060915946960e-01 1.106869895011186600e-02
4.780000000000000000e+03 2.878841018676757812e+01 -7.704266905784606934e-02 -5.530352063942700624e-05 7.227158057503402233e-04 2.002236869884654880e-04 -4.397896191221661866e-05
4.781000000000000000e+03 2.790844726562500000e+01 2.747163772583007812e-01 1.348538673482835293e-03 7.093186024576425552e-03 2.532517537474632263e-03 -2.434010530123487115e-04
4.782000000000000000e+03 2.716904640197753906e+01 -9.880415350198745728e-02 1.484137121587991714e-02 5.282862856984138489e-02 2.030099928379058838e-02 6.009213998913764954e-02
4.783000000000000000e+03 2.750106239318847656e+01 6.892876625061035156e-01 7.789234630763530731e-03 1.963927038013935089e-02 8.228551596403121948e-03 -1.483934186398983002e-02
4.784000000000000000e+03 2.659551811218261719e+01 9.028003811836242676e-01 5.598131939768791199e-02 1.068310067057609558e-01 4.884370043873786926e-02 -1.233038380742073059e-01
4.785000000000000000e+03 2.561998748779296875e+01 4.662799537181854248e-01 -3.667233288288116455e-01 -2.910292148590087891e-01 -1.973257660865783691e-01 1.897497773170471191e-01
4.786000000000000000e+03 2.546137046813964844e+01 4.314995408058166504e-01 -4.648500084877014160e-01 -2.950785458087921143e-01 -2.279785722494125366e-01 2.670966088771820068e-01
4.787000000000000000e+03 2.541918945312500000e+01 2.043535113334655762e-01 -7.697845101356506348e-01 -3.147070109844207764e-01 -3.253474533557891846e-01 3.975311219692230225e-01
4.788000000000000000e+03 2.514461708068847656e+01 1.484151929616928101e-01 -8.217322826385498047e-01 -1.577658206224441528e-01 -2.938494384288787842e-01 3.247630000114440918e-01
4.789000000000000000e+03 3.124060249328613281e+01 -1.303454041481018066e+00 -3.525638103485107422e+00 4.232858419418334961e-01 -9.307057261466979980e-01 -5.346418917179107666e-02
4.790000000000000000e+03 3.089070892333984375e+01 -1.371482610702514648e+00 -3.323559761047363281e+00 3.417053520679473877e-01 -8.945563435554504395e-01 -5.731259286403656006e-02
4.791000000000000000e+03 3.008119964599609375e+01 -2.816029489040374756e-01 -3.854289770126342773e+00 -4.750592168420553207e-03 -1.157712101936340332e+00 -3.298859000205993652e-01
4.792000000000000000e+03 2.892089462280273438e+01 -1.029202699661254883e+00 -3.572723627090454102e+00 7.101269438862800598e-03 -1.069686770439147949e+00 -2.909874022006988525e-01
4.793000000000000000e+03 2.867807006835937500e+01 -7.479233145713806152e-01 -3.836647510528564453e+00 -1.161803770810365677e-02 -1.154479622840881348e+00 -3.449994027614593506e-01
4.794000000000000000e+03 2.775576591491699219e+01 -1.722179293632507324e+00 -2.891324758529663086e+00 -1.214529797434806824e-01 -9.038333296775817871e-01 -2.936897277832031250e-01
4.795000000000000000e+03 2.707432937622070312e+01 -1.548220634460449219e+00 -2.982223272323608398e+00 -3.314565420150756836e-01 -9.941039681434631348e-01 -2.057194262742996216e-01
4.796000000000000000e+03 3.027514839172363281e+01 -2.667401432991027832e-01 -3.755301713943481445e+00 8.132822811603546143e-03 -1.124150633811950684e+00 -2.890142500400543213e-01
4.797000000000000000e+03 2.954090499877929688e+01 -1.550057530403137207e+00 -3.077294588088989258e+00 1.407154053449630737e-01 -8.809737563133239746e-01 -1.940732151269912720e-01
4.798000000000000000e+03 2.804059028625488281e+01 -4.530044198036193848e-01 -4.244875431060791016e+00 -3.241977095603942871e-02 -1.283188581466674805e+00 -4.172805249691009521e-01
4.799000000000000000e+03 2.824248123168945312e+01 -4.449058473110198975e-01 -4.216889858245849609e+00 -5.444694682955741882e-02 -1.281401038169860840e+00 -4.178460836410522461e-01
4.800000000000000000e+03 2.719761276245117188e+01 -9.446302652359008789e-01 -3.908874034881591797e+00 -1.424114257097244263e-01 -1.215385556221008301e+00 -2.075447887182235718e-01
4.801000000000000000e+03 2.722833442687988281e+01 -7.250214219093322754e-01 -4.225283145904541016e+00 -6.854555755853652954e-02 -1.288148522377014160e+00 -3.096070289611816406e-01
4.802000000000000000e+03 2.723756790161132812e+01 -5.151501893997192383e-01 -4.427776813507080078e+00 -5.109167844057083130e-02 -1.343660473823547363e+00 -4.044374227523803711e-01
4.803000000000000000e+03 2.515667152404785156e+01 -8.476480245590209961e-01 -2.179744720458984375e+00 1.885811388492584229e-01 -5.973490476608276367e-01 -7.138091325759887695e-02
4.804000000000000000e+03 2.675755500793457031e+01 -1.431399822235107422e+00 -3.008734941482543945e+00 -4.767762720584869385e-01 -1.045653343200683594e+00 -1.536376625299453735e-01
4.805000000000000000e+03 2.721723747253417969e+01 -3.033818006515502930e-01 4.929804056882858276e-02 1.248922478407621384e-02 1.853618025779724121e-02 3.037172928452491760e-02
4.806000000000000000e+03 2.635912895202636719e+01 5.831415057182312012e-01 -1.498371958732604980e-01 2.594196237623691559e-02 -3.716856986284255981e-02 -9.135701507329940796e-02
4.807000000000000000e+03 2.528482055664062500e+01 2.188069820404052734e-01 -7.762063741683959961e-01 -2.699442505836486816e-01 -3.138451874256134033e-01 3.905521333217620850e-01
4.808000000000000000e+03 2.822923660278320312e+01 -1.914909631013870239e-01 -1.562920399010181427e-03 -2.113497885147808120e-06 -4.695101815741509199e-04 -5.089488113299012184e-04
4.809000000000000000e+03 2.966212654113769531e+01 4.668440297245979309e-02 -3.953886334784328938e-05 -1.084011819330044091e-04 -4.438201358425430954e-05 -7.849935741433000658e-07
4.810000000000000000e+03 3.001603126525878906e+01 2.810606360435485840e-01 1.579536728968378156e-05 1.088756980607286096e-04 3.740132160601206124e-05 -1.744885594234801829e-05
4.811000000000000000e+03 3.014229011535644531e+01 3.720963746309280396e-02 -7.403250634752112092e-08 -1.962907163033378311e-06 -6.110818731031031348e-07 -1.774785232555586845e-05
4.812000000000000000e+03 2.529310226440429688e+01 8.253997564315795898e-02 -8.602640628814697266e-01 -2.609131634235382080e-01 -3.363531827926635742e-01 4.172859787940979004e-01
4.813000000000000000e+03 2.677220344543457031e+01 4.099597036838531494e-01 -1.478159725666046143e-01 1.489181518554687500e-01 3.306517901364713907e-04 -3.974421694874763489e-02
4.814000000000000000e+03 2.790239715576171875e+01 5.528707504272460938e-01 -1.297590555623173714e-03 4.529109690338373184e-03 9.694556938484311104e-04 -1.179303508251905441e-03
4.815000000000000000e+03 2.709368515014648438e+01 9.841948002576828003e-02 -4.640712961554527283e-02 1.075380444526672363e-01 1.833927631378173828e-02 4.918343201279640198e-02
4.816000000000000000e+03 2.739620018005371094e+01 -4.905321821570396423e-02 4.555051214993000031e-03 3.151835873723030090e-02 1.082202326506376266e-02 3.050137124955654144e-02
4.817000000000000000e+03 2.778038978576660156e+01 -2.680426090955734253e-02 4.106263630092144012e-03 1.800397294573485851e-03 1.771998242475092411e-03 1.212460454553365707e-03
4.818000000000000000e+03 2.504582786560058594e+01 -6.777805089950561523e-01 -1.900137662887573242e+00 1.591702848672866821e-01 -5.222902297973632812e-01 1.987240612506866455e-01
4.819000000000000000e+03 2.517080116271972656e+01 -5.117816478013992310e-02 -1.307266712188720703e+00 -7.377021014690399170e-02 -4.143110513687133789e-01 4.154008328914642334e-01
4.820000000000000000e+03 2.726543045043945312e+01 4.595450162887573242e-01 -3.081181645393371582e-02 7.685255259275436401e-02 1.381221972405910492e-02 -2.177376113831996918e-02
4.821000000000000000e+03 2.696632385253906250e+01 2.802588045597076416e-01 -1.071200817823410034e-01 1.417941600084304810e-01 1.040222309529781342e-02 1.171019859611988068e-02
4.822000000000000000e+03 2.656919479370117188e+01 -1.512916088104248047e+00 -2.723977327346801758e+00 -5.311111211776733398e-01 -9.765265583992004395e-01 -2.216303497552871704e-01
4.823000000000000000e+03 2.524217987060546875e+01 -1.495204806327819824e+00 -2.173204183578491211e+00 8.920957148075103760e-02 -6.251984238624572754e-01 -5.226166248321533203e-01
4.824000000000000000e+03 2.580084037780761719e+01 -1.548887729644775391e+00 -2.362260341644287109e+00 -4.377979338169097900e-01 -8.400174379348754883e-01 -5.290240645408630371e-01
4.825000000000000000e+03 2.591897010803222656e+01 -1.845341563224792480e+00 -2.092047214508056641e+00 -4.096778929233551025e-01 -7.505175471305847168e-01 -6.145153045654296875e-01
4.826000000000000000e+03 2.644226455688476562e+01 -1.709385395050048828e+00 -2.408056497573852539e+00 -4.640850424766540527e-01 -8.616424798965454102e-01 -3.586127161979675293e-01
4.827000000000000000e+03 2.816950225830078125e+01 -1.683254241943359375e+00 -2.950663805007934570e+00 -5.602912604808807373e-02 -9.020078778266906738e-01 -2.901747822761535645e-01
4.828000000000000000e+03 2.744405555725097656e+01 -7.266522645950317383e-01 -4.140027046203613281e+00 -6.457440555095672607e-02 -1.261380434036254883e+00 -3.277553319931030273e-01
4.829000000000000000e+03 2.512719154357910156e+01 -7.094663977622985840e-01 -2.085442781448364258e+00 1.359150260686874390e-01 -5.848582983016967773e-01 2.234499454498291016e-01
4.830000000000000000e+03 2.637152290344238281e+01 -1.564704656600952148e+00 -2.623502731323242188e+00 -5.272664427757263184e-01 -9.452307820320129395e-01 -3.356818854808807373e-01
4.831000000000000000e+03 2.559491157531738281e+01 -1.626361131668090820e+00 -2.186868429183959961e+00 -1.399804800748825073e-01 -6.980546712875366211e-01 -5.004674196243286133e-01
4.832000000000000000e+03 2.519227409362792969e+01 -9.742129445075988770e-01 -2.357016324996948242e+00 1.706282347440719604e-01 -6.559163928031921387e-01 -1.414634734392166138e-01
4.833000000000000000e+03 2.694959831237792969e+01 -1.828551173210144043e+00 -2.558780431747436523e+00 -3.782193362712860107e-01 -8.810999393463134766e-01 -3.139004707336425781e-01
4.834000000000000000e+03 3.071470832824707031e+01 -7.099655270576477051e-01 -3.549874782562255859e+00 2.082811444997787476e-01 -1.002478122711181641e+00 -9.167159907519817352e-03
4.835000000000000000e+03 2.735287666320800781e+01 -1.777114272117614746e+00 -2.737767219543457031e+00 -2.514170706272125244e-01 -8.967553377151489258e-01 -2.833423912525177002e-01
4.836000000000000000e+03 2.755428123474121094e+01 -1.753542184829711914e+00 -2.810395956039428711e+00 -1.755765080451965332e-01 -8.957917690277099609e-01 -3.017141222953796387e-01
4.837000000000000000e+03 3.135067749023437500e+01 -1.199893712997436523e+00 -3.561880826950073242e+00 3.535841107368469238e-01 -9.624890685081481934e-01 9.987264126539230347e-02
4.838000000000000000e+03 3.106115722656250000e+01 -9.513271450996398926e-01 -3.418326139450073242e+00 2.440239638090133667e-01 -9.522906541824340820e-01 1.507957875728607178e-01
4.839000000000000000e+03 3.107223701477050781e+01 -1.337526679039001465e+00 -3.382652759552001953e+00 3.472853899002075195e-01 -9.106101989746093750e-01 -2.487511083018034697e-04
4.840000000000000000e+03 2.715109252929687500e+01 -1.798541426658630371e+00 -2.615947723388671875e+00 -2.944478392601013184e-01 -8.731186389923095703e-01 -3.269283473491668701e-01
4.841000000000000000e+03 2.674503326416015625e+01 -1.859190106391906738e+00 -2.397460937500000000e+00 -4.009259343147277832e-01 -8.395160436630249023e-01 -3.830848336219787598e-01
4.842000000000000000e+03 2.906841278076171875e+01 -3.854454159736633301e-01 -4.125499725341796875e+00 -5.566567182540893555e-02 -1.254349589347839355e+00 -3.974094390869140625e-01
4.843000000000000000e+03 2.910834693908691406e+01 -1.358438611030578613e+00 -3.262345552444458008e+00 7.259923964738845825e-02 -9.569238424301147461e-01 -2.463948726654052734e-01
4.844000000000000000e+03 2.915472984313964844e+01 -1.597915291786193848e+00 -3.023250818252563477e+00 7.602436095476150513e-02 -8.841679692268371582e-01 -2.532815337181091309e-01
4.845000000000000000e+03 2.968448257446289062e+01 -3.178385496139526367e-01 -3.991833448410034180e+00 -2.063131658360362053e-03 -1.198168992996215820e+00 -3.778667449951171875e-01
4.846000000000000000e+03 2.865559959411621094e+01 -4.283179044723510742e-01 -4.176267147064208984e+00 -5.000631883740425110e-02 -1.267881989479064941e+00 -4.132624566555023193e-01
4.847000000000000000e+03 2.826641464233398438e+01 2.519997358322143555e-01 2.025065943598747253e-03 -2.401122124865651131e-03 -1.128168150899000466e-04 -1.972395257325842977e-04
4.848000000000000000e+03 2.842575073242187500e+01 -1.913074105978012085e-01 -3.215586184523999691e-04 2.877177612390369177e-04 -1.015226189338136464e-05 -9.773428319022059441e-04
4.849000000000000000e+03 2.944804954528808594e+01 -8.972559869289398193e-02 -4.761245872941799462e-05 -8.828433055896311998e-05 -4.076903496752493083e-05 -4.648083631764166057e-05
4.850000000000000000e+03 3.029812240600585938e+01 1.053279787302017212e-01 3.914542321581393480e-05 -8.477306437271181494e-06 9.200434760714415461e-06 -4.113463728572241962e-05
4.851000000000000000e+03 2.950048637390136719e+01 3.034934401512145996e-01 -4.377973891678266227e-05 -9.095730638364329934e-05 -4.042111322632990777e-05 -5.476095611811615527e-05
4.852000000000000000e+03 2.944606971740722656e+01 7.450585067272186279e-02 6.420464342227205634e-05 1.054871390806511045e-04 5.090753620606847107e-05 2.435658097965642810e-05
4.853000000000000000e+03 2.802137947082519531e+01 -2.082492411136627197e-01 -2.587188035249710083e-03 -9.838598780333995819e-04 -1.071314327418804169e-03 -1.163475681096315384e-03
4.854000000000000000e+03 2.904725456237792969e+01 -2.856845781207084656e-02 1.990464079426601529e-05 -2.747626858763396740e-04 -7.645741425221785903e-05 -7.469897536793723702e-05
4.855000000000000000e+03 3.051279258728027344e+01 -1.431428551673889160e+00 -3.233342409133911133e+00 3.001312017440795898e-01 -8.799633383750915527e-01 -1.077855452895164490e-01
4.856000000000000000e+03 2.844971275329589844e+01 -7.393308877944946289e-01 -3.893122196197509766e+00 -3.863397240638732910e-02 -1.179526805877685547e+00 -3.606342673301696777e-01
4.857000000000000000e+03 2.844795036315917969e+01 -4.390898346900939941e-01 -4.196054935455322266e+00 -3.050481155514717102e-02 -1.267967939376831055e+00 -4.178979098796844482e-01
4.858000000000000000e+03 2.784181976318359375e+01 -6.897981166839599609e-01 -4.050540924072265625e+00 -3.926008939743041992e-02 -1.226940393447875977e+00 -3.687092065811157227e-01
4.859000000000000000e+03 2.784101295471191406e+01 -4.653589725494384766e-01 -4.276221752166748047e+00 -4.904822632670402527e-02 -1.297580957412719727e+00 -4.210766851902008057e-01
4.860000000000000000e+03 2.764116668701171875e+01 -4.829903542995452881e-01 -4.312731742858886719e+00 -3.786836564540863037e-02 -1.305179953575134277e+00 -4.208679497241973877e-01
4.861000000000000000e+03 2.927213668823242188e+01 -3.567369878292083740e-01 -4.089607715606689453e+00 -8.771527558565139771e-03 -1.229513645172119141e+00 -3.948045969009399414e-01
4.862000000000000000e+03 2.882881164550781250e+01 -1.215668559074401855e+00 -3.339969396591186523e+00 2.803376875817775726e-02 -9.935806989669799805e-01 -2.830400466918945312e-01
4.863000000000000000e+03 2.858909034729003906e+01 1.528998911380767822e-01 -3.689358127303421497e-04 -7.199760875664651394e-04 -3.266735875513404608e-04 5.670401733368635178e-04
4.864000000000000000e+03 2.688063049316406250e+01 7.684969902038574219e-01 -1.293028146028518677e-02 1.110350489616394043e-01 2.943143062293529510e-02 -1.036360338330268860e-01
4.865000000000000000e+03 2.871318817138671875e+01 3.976906836032867432e-01 8.019912638701498508e-05 2.970117202494293451e-04 1.131632598116993904e-04 -2.357602788833901286e-04
4.866000000000000000e+03 2.493860626220703125e+01 -9.964184761047363281e-01 -2.069841623306274414e+00 2.607583999633789062e-01 -5.427249073982238770e-01 -7.603912800550460815e-02
4.867000000000000000e+03 2.857298660278320312e+01 -1.650406837463378906e+00 -2.982550621032714844e+00 2.739970572292804718e-02 -8.865453004837036133e-01 -2.795109748840332031e-01
4.868000000000000000e+03 2.875557708740234375e+01 -1.394296050071716309e+00 -3.223594665527343750e+00 2.997119165956974030e-02 -9.580870270729064941e-01 -2.702960073947906494e-01
4.869000000000000000e+03 2.694132995605468750e+01 -1.321903228759765625e+00 -3.226414680480957031e+00 -3.537477254867553711e-01 -1.074048757553100586e+00 -1.368339955806732178e-01
4.870000000000000000e+03 2.973933601379394531e+01 -1.530803084373474121e+00 -3.113485813140869141e+00 1.854421943426132202e-01 -8.784130811691284180e-01 -1.826595515012741089e-01
4.871000000000000000e+03 3.013170623779296875e+01 -1.486040472984313965e+00 -3.162159204483032227e+00 2.469721585512161255e-01 -8.745560646057128906e-01 -1.337898373603820801e-01
4.872000000000000000e+03 2.962875556945800781e+01 -1.063020944595336914e+00 -3.428478002548217773e+00 9.960042685270309448e-02 -9.986632466316223145e-01 -2.016586810350418091e-01
4.873000000000000000e+03 3.039701271057128906e+01 -1.152016401290893555e+00 -3.387936353683471680e+00 2.432961016893386841e-01 -9.433920979499816895e-01 -4.639515653252601624e-02
4.874000000000000000e+03 2.796207809448242188e+01 -1.698634266853332520e+00 -2.889567136764526367e+00 -9.138691425323486328e-02 -8.942862749099731445e-01 -3.029294312000274658e-01
4.875000000000000000e+03 3.057217597961425781e+01 -1.112314343452453613e+00 -3.411199331283569336e+00 2.736107110977172852e-01 -9.412766098976135254e-01 -7.635755836963653564e-02
4.876000000000000000e+03 2.993740844726562500e+01 -1.510368824005126953e+00 -3.124320030212402344e+00 1.897311806678771973e-01 -8.803766965866088867e-01 -1.471872627735137939e-01
4.877000000000000000e+03 2.947127151489257812e+01 -1.292900323867797852e+00 -3.278225421905517578e+00 1.144219189882278442e-01 -9.491410851478576660e-01 -2.168982326984405518e-01
4.878000000000000000e+03 2.892973709106445312e+01 -1.382635354995727539e+00 -3.213897228240966797e+00 4.344621673226356506e-02 -9.511353373527526855e-01 -2.634625136852264404e-01
4.879000000000000000e+03 2.927618789672851562e+01 -6.425587832927703857e-02 5.597887866315431893e-05 2.152592642232775688e-04 8.137144322972744703e-05 1.267234329134225845e-04
4.880000000000000000e+03 2.765856552124023438e+01 1.621758788824081421e-01 -1.392721314914524555e-03 1.943161897361278534e-02 5.411669611930847168e-03 3.661092370748519897e-03
4.881000000000000000e+03 2.976152038574218750e+01 -6.182944774627685547e-01 -3.731432199478149414e+00 1.738773286342620850e-02 -1.114213347434997559e+00 -2.453653961420059204e-01
4.882000000000000000e+03 2.947806930541992188e+01 -3.339114189147949219e-01 -4.045613765716552734e+00 -5.802702903747558594e-02 -1.231092214584350586e+00 -3.748840093612670898e-01
4.883000000000000000e+03 3.009435653686523438e+01 -9.150875210762023926e-01 -3.508620023727416992e+00 1.244260370731353760e-01 -1.015258193016052246e+00 -1.080171167850494385e-01
4.884000000000000000e+03 2.856544685363769531e+01 -1.390156388282775879e+00 -3.230675220489501953e+00 -4.087388049811124802e-03 -9.704287648200988770e-01 -2.954469323158264160e-01
4.885000000000000000e+03 3.034239959716796875e+01 -5.648652315139770508e-01 -3.566237449645996094e+00 8.343785256147384644e-02 -1.044839859008789062e+00 -1.431551426649093628e-01
4.886000000000000000e+03 2.734449577331542969e+01 -1.325474739074707031e+00 -3.312667608261108398e+00 -2.052503079175949097e-01 -1.055375337600708008e+00 -2.106876522302627563e-01
4.887000000000000000e+03 2.710558700561523438e+01 -1.159500002861022949e+00 -3.591774225234985352e+00 -2.283126562833786011e-01 -1.146026134490966797e+00 -1.569001674652099609e-01
4.888000000000000000e+03 2.664535522460937500e+01 6.655923128128051758e-01 -1.004864871501922607e-01 1.194858402013778687e-01 5.699806381016969681e-03 -9.755864739418029785e-02
4.889000000000000000e+03 2.739227104187011719e+01 2.043175101280212402e-01 -1.562400907278060913e-02 5.070676654577255249e-02 1.052482798695564270e-02 1.305043138563632965e-02
4.890000000000000000e+03 2.934688377380371094e+01 -1.574162364006042480e+00 -3.063915014266967773e+00 1.278174370527267456e-01 -8.808292746543884277e-01 -2.125377058982849121e-01
4.891000000000000000e+03 3.032261085510253906e+01 -1.459050178527832031e+00 -3.208594560623168945e+00 2.599735260009765625e-01 -8.845863342285156250e-01 -9.065113961696624756e-02
4.892000000000000000e+03 2.978258132934570312e+01 -8.587885499000549316e-01 -3.589261531829833984e+00 6.909111142158508301e-02 -1.056051135063171387e+00 -2.154738306999206543e-01
4.893000000000000000e+03 2.852941322326660156e+01 -1.134404420852661133e+00 -3.499296426773071289e+00 -1.103567192330956459e-03 -1.050119996070861816e+00 -3.122689425945281982e-01
4.894000000000000000e+03 2.913703918457031250e+01 -1.132955670356750488e+00 -3.432004928588867188e+00 5.432910472154617310e-02 -1.013302803039550781e+00 -2.685351371765136719e-01
4.895000000000000000e+03 2.891152954101562500e+01 -7.358937859535217285e-01 -3.800826549530029297e+00 -3.010105900466442108e-02 -1.149278283119201660e+00 -3.398903310298919678e-01
4.896000000000000000e+03 2.925645446777343750e+01 -9.566388726234436035e-01 -3.582199096679687500e+00 4.913469310849905014e-03 -1.073185682296752930e+00 -2.592085897922515869e-01
4.897000000000000000e+03 2.933537292480468750e+01 -6.373291015625000000e-01 -3.819106817245483398e+00 -2.986951544880867004e-02 -1.154692888259887695e+00 -3.115604519844055176e-01
4.898000000000000000e+03 2.800453186035156250e+01 -9.263651967048645020e-01 -3.791732549667358398e+00 -5.039208382368087769e-02 -1.152637362480163574e+00 -3.400556743144989014e-01
4.899000000000000000e+03 2.729001426696777344e+01 -1.531453728675842285e+00 -3.046182870864868164e+00 -2.355953156948089600e-01 -9.845334887504577637e-01 -2.446879744529724121e-01
4.900000000000000000e+03 2.997507095336914062e+01 -6.148938536643981934e-01 -3.665027856826782227e+00 5.971850827336311340e-02 -1.081592798233032227e+00 -2.254990786314010620e-01
4.901000000000000000e+03 2.745512580871582031e+01 -9.636750221252441406e-01 -3.829312562942504883e+00 -9.908514469861984253e-02 -1.178519368171691895e+00 -2.721209824085235596e-01
4.902000000000000000e+03 2.823396110534667969e+01 -7.079256176948547363e-01 -3.971483945846557617e+00 -3.222026675939559937e-02 -1.201111316680908203e+00 -3.729989528656005859e-01
4.903000000000000000e+03 2.755640602111816406e+01 -1.198829770088195801e+00 -3.530839204788208008e+00 -1.204744428396224976e-01 -1.095394134521484375e+00 -2.467365562915802002e-01
4.904000000000000000e+03 2.944159126281738281e+01 -1.064152121543884277e+00 -3.442559242248535156e+00 7.540044933557510376e-02 -1.010147571563720703e+00 -2.102127820253372192e-01
4.905000000000000000e+03 2.815221786499023438e+01 -1.422696471214294434e+00 -3.210386514663696289e+00 -4.561088234186172485e-02 -9.767992496490478516e-01 -3.024685084819793701e-01
4.906000000000000000e+03 3.059735870361328125e+01 -7.972539067268371582e-01 -3.548339128494262695e+00 2.428771257400512695e-01 -9.916386008262634277e-01 -6.796057522296905518e-02
4.907000000000000000e+03 2.995605850219726562e+01 -5.597616545855998993e-03 -4.690621790359728038e-05 6.314705387922003865e-05 4.872251338383648545e-06 -3.390795245650224388e-05
4.908000000000000000e+03 2.979190826416015625e+01 -6.038608029484748840e-02 -4.434454240254126489e-05 -6.909840885782614350e-05 -3.403288428671658039e-05 8.213675755541771650e-05
4.909000000000000000e+03 2.962926292419433594e+01 -8.498704433441162109e-02 2.949359077319968492e-05 5.969192716293036938e-05 2.675565519894007593e-05 -3.568165993783622980e-05
4.910000000000000000e+03 2.978279876708984375e+01 1.970997005701065063e-01 6.529499660246074200e-05 4.435104983713245019e-06 2.091902933898381889e-05 7.508198905270546675e-05
4.911000000000000000e+03 3.070292282104492188e+01 -1.402674555778503418e+00 -3.278900384902954102e+00 3.040784895420074463e-01 -8.924465179443359375e-01 -3.667701408267021179e-02
4.912000000000000000e+03 3.090387916564941406e+01 -1.005632758140563965e+00 -3.466004610061645508e+00 2.919997870922088623e-01 -9.522014260292053223e-01 1.198201280203647912e-04
4.913000000000000000e+03 3.022185134887695312e+01 -1.190913677215576172e+00 -3.328766345977783203e+00 2.272234261035919189e-01 -9.304628968238830566e-01 -1.068421155214309692e-01
4.914000000000000000e+03 2.859870910644531250e+01 -1.620338261127471924e-01 7.914240995887666941e-05 -1.124352915212512016e-03 -3.135631559416651726e-04 4.489869752433151007e-04
4.915000000000000000e+03 2.798626136779785156e+01 2.405132167041301727e-02 2.096818992868065834e-03 1.830323366448283195e-03 1.178142731077969074e-03 1.166492933407425880e-03
4.916000000000000000e+03 2.760408020019531250e+01 -4.810364171862602234e-02 1.570326974615454674e-03 1.985577121376991272e-02 6.427829619497060776e-03 9.296514093875885010e-03
4.917000000000000000e+03 2.762227249145507812e+01 -2.580721676349639893e-01 1.044153817929327488e-03 3.740310901775956154e-03 1.435339450836181641e-03 5.155177321285009384e-03
4.918000000000000000e+03 2.742092132568359375e+01 -2.755425572395324707e-01 1.659952662885189056e-02 9.708721190690994263e-03 7.892474532127380371e-03 1.489076577126979828e-02
4.919000000000000000e+03 3.004961967468261719e+01 -1.233764171600341797e+00 -3.319712638854980469e+00 1.677178889513015747e-01 -9.455984234809875488e-01 -1.152391135692596436e-01
4.920000000000000000e+03 2.987006568908691406e+01 -1.269569873809814453e+00 -3.298660278320312500e+00 1.752517372369766235e-01 -9.370225667953491211e-01 -1.617022901773452759e-01
4.921000000000000000e+03 2.967793273925781250e+01 -1.289007782936096191e+00 -3.271375894546508789e+00 1.251216530799865723e-01 -9.438762664794921875e-01 -1.730009466409683228e-01
4.922000000000000000e+03 2.928291893005371094e+01 -1.328910589218139648e+00 -3.270861864089965820e+00 5.571185797452926636e-02 -9.645450115203857422e-01 -2.371879369020462036e-01
4.923000000000000000e+03 2.896192741394042969e+01 -1.619267821311950684e+00 -3.037498712539672852e+00 7.937482744455337524e-02 -8.874372243881225586e-01 -2.577227950096130371e-01
4.924000000000000000e+03 2.876846885681152344e+01 -1.636580586433410645e+00 -2.999102592468261719e+00 3.651056066155433655e-02 -8.887776136398315430e-01 -2.803795039653778076e-01
4.925000000000000000e+03 2.836238670349121094e+01 -1.414757847785949707e+00 -3.238839149475097656e+00 -1.793757639825344086e-02 -9.770330190658569336e-01 -2.944164872169494629e-01
4.926000000000000000e+03 2.792315673828125000e+01 -1.418533086776733398e+00 -3.235390424728393555e+00 -9.077426046133041382e-02 -9.978494644165039062e-01 -2.747781872749328613e-01
4.927000000000000000e+03 2.775188255310058594e+01 -1.074229359626770020e+00 -3.622964382171630859e+00 -8.819480985403060913e-02 -1.113347768783569336e+00 -2.976897358894348145e-01
4.928000000000000000e+03 2.768674468994140625e+01 -1.447214603424072266e+00 -3.154974699020385742e+00 -1.334875822067260742e-01 -9.865387082099914551e-01 -2.801099717617034912e-01
4.929000000000000000e+03 2.744003677368164062e+01 -5.022587180137634277e-01 -4.356650829315185547e+00 -4.975023120641708374e-02 -1.321920275688171387e+00 -4.194819927215576172e-01
4.930000000000000000e+03 2.764735794067382812e+01 -7.030430436134338379e-01 -4.082696914672851562e+00 -4.699237644672393799e-02 -1.238906741142272949e+00 -3.620277345180511475e-01
4.931000000000000000e+03 2.803458213806152344e+01 -6.944524645805358887e-01 -4.015874862670898438e+00 -4.924835264682769775e-02 -1.219536900520324707e+00 -3.822439014911651611e-01
4.932000000000000000e+03 2.716103935241699219e+01 8.718845844268798828e-01 6.029643863439559937e-02 4.805590957403182983e-02 3.250570595264434814e-02 -5.977766960859298706e-02
4.933000000000000000e+03 2.656223297119140625e+01 4.945255815982818604e-01 -1.693995296955108643e-01 1.082549691200256348e-01 -1.834336668252944946e-02 -8.192516118288040161e-02
4.934000000000000000e+03 2.686352920532226562e+01 -1.615345478057861328e+00 -2.759224176406860352e+00 -3.996463716030120850e-01 -9.476611614227294922e-01 -2.479201704263687134e-01
4.935000000000000000e+03 2.653672027587890625e+01 -1.884754896163940430e+00 -2.312787294387817383e+00 -4.884778261184692383e-01 -8.403795361518859863e-01 -4.073951542377471924e-01
4.936000000000000000e+03 2.632029342651367188e+01 -1.903447628021240234e+00 -2.145421028137207031e+00 -3.416758179664611816e-01 -7.461290955543518066e-01 -5.117172002792358398e-01
4.937000000000000000e+03 2.542119216918945312e+01 2.913774251937866211e-01 -6.002338528633117676e-01 -2.989208996295928955e-01 -2.697464227676391602e-01 3.528302013874053955e-01
4.938000000000000000e+03 2.530577659606933594e+01 3.775547146797180176e-01 -5.460404753684997559e-01 -2.390249073505401611e-01 -2.355196177959442139e-01 3.301443159580230713e-01
4.939000000000000000e+03 2.673913955688476562e+01 9.652376174926757812e-01 1.215469092130661011e-01 1.197608560323715210e-01 7.239232957363128662e-02 -1.403512656688690186e-01
4.940000000000000000e+03 2.691065597534179688e+01 9.572267532348632812e-01 1.235084384679794312e-01 8.123310655355453491e-02 6.142246350646018982e-02 -1.149391382932662964e-01
4.941000000000000000e+03 2.502824020385742188e+01 2.314311861991882324e-01 -7.394269108772277832e-01 -1.220231279730796814e-01 -2.584350109100341797e-01 3.128080666065216064e-01
4.942000000000000000e+03 2.507358169555664062e+01 -5.470762252807617188e-01 -1.802523136138916016e+00 9.800638258457183838e-02 -5.113550424575805664e-01 2.701114714145660400e-01
4.943000000000000000e+03 2.704986381530761719e+01 6.634962558746337891e-01 -3.357895836234092712e-02 1.044256836175918579e-01 2.125401794910430908e-02 -7.131472229957580566e-02
4.944000000000000000e+03 2.487689590454101562e+01 -1.669925600290298462e-01 -1.317818403244018555e+00 3.849012032151222229e-02 -3.837985098361968994e-01 3.628026247024536133e-01
4.945000000000000000e+03 2.913160896301269531e+01 -6.978766322135925293e-01 -3.806991338729858398e+00 1.717134006321430206e-02 -1.136946082115173340e+00 -3.295955657958984375e-01
4.946000000000000000e+03 2.886347579956054688e+01 -4.104328453540802002e-01 -4.153985977172851562e+00 -1.996008865535259247e-02 -1.252183794975280762e+00 -4.077958464622497559e-01
4.947000000000000000e+03 2.954154586791992188e+01 -6.111316680908203125e-01 -3.801167726516723633e+00 1.981128752231597900e-02 -1.134406924247741699e+00 -3.026025891304016113e-01
4.948000000000000000e+03 2.988592720031738281e+01 -3.011800348758697510e-01 -3.937792062759399414e+00 -3.280884027481079102e-02 -1.191180229187011719e+00 -3.429909646511077881e-01
4.949000000000000000e+03 3.047628402709960938e+01 -2.706106901168823242e-01 -3.617754697799682617e+00 3.511844202876091003e-02 -1.074790835380554199e+00 -2.346831113100051880e-01
4.950000000000000000e+03 2.831880378723144531e+01 4.833793938159942627e-01 -1.144662965089082718e-03 -1.934164203703403473e-03 -9.236481855623424053e-04 1.479423372074961662e-03
4.951000000000000000e+03 2.911303520202636719e+01 3.305088281631469727e-01 -4.131278728891629726e-06 3.132126585114747286e-05 8.156996045727282763e-06 7.131350866984575987e-05
4.952000000000000000e+03 2.596808815002441406e+01 -1.566657185554504395e+00 -2.455106973648071289e+00 -5.020086169242858887e-01 -8.871346712112426758e-01 -5.366234183311462402e-01
4.953000000000000000e+03 2.621855926513671875e+01 -1.727860927581787109e+00 -2.337391138076782227e+00 -4.365409314632415771e-01 -8.321796059608459473e-01 -4.881893098354339600e-01
4.954000000000000000e+03 2.665574264526367188e+01 -1.670958757400512695e+00 -2.614767551422119141e+00 -5.055816173553466797e-01 -9.361047148704528809e-01 -2.876518368721008301e-01
4.955000000000000000e+03 2.846273994445800781e+01 -2.514259889721870422e-02 9.048269712366163731e-04 -1.378780347295105457e-03 -1.421860069967806339e-04 -5.941850831732153893e-04
4.956000000000000000e+03 2.823483848571777344e+01 2.807835116982460022e-02 9.135378058999776840e-04 1.954311155714094639e-04 3.326906880829483271e-04 -1.864182529971003532e-03
4.957000000000000000e+03 2.766182136535644531e+01 -9.075917005538940430e-01 -3.848811864852905273e+00 -6.616261601448059082e-02 -1.174492359161376953e+00 -3.096957802772521973e-01
4.958000000000000000e+03 3.074271583557128906e+01 -1.065460920333862305e+00 -3.433423757553100586e+00 2.673363089561462402e-01 -9.498261809349060059e-01 -1.193557283841073513e-03
4.959000000000000000e+03 3.027247810363769531e+01 -8.734555840492248535e-01 -3.488666057586669922e+00 1.746502667665481567e-01 -9.942046999931335449e-01 -1.030403226613998413e-01
4.960000000000000000e+03 2.492745590209960938e+01 -6.808144450187683105e-01 -1.884577274322509766e+00 2.364317476749420166e-01 -4.944436550140380859e-01 8.786435425281524658e-02
4.961000000000000000e+03 2.994399070739746094e+01 -9.906327724456787109e-01 -3.453146934509277344e+00 1.502889990806579590e-01 -9.908573627471923828e-01 -1.544566750526428223e-01
4.962000000000000000e+03 2.980185317993164062e+01 -1.050683498382568359e+00 -3.423105239868164062e+00 1.066169887781143188e-01 -9.949464797973632812e-01 -1.493081450462341309e-01
4.963000000000000000e+03 2.816070175170898438e+01 -1.180420279502868652e+00 -3.462479352951049805e+00 -4.414917528629302979e-02 -1.051988601684570312e+00 -3.040586113929748535e-01
4.964000000000000000e+03 2.835287284851074219e+01 -1.187522649765014648e+00 -3.427780389785766602e+00 -2.597301267087459564e-02 -1.036126017570495605e+00 -3.070001900196075439e-01
4.965000000000000000e+03 2.819769477844238281e+01 -9.494147300720214844e-01 -3.735589504241943359e+00 -3.807806223630905151e-02 -1.132100224494934082e+00 -3.459048867225646973e-01
4.966000000000000000e+03 2.871496963500976562e+01 -1.038137078285217285e+00 -3.579748392105102539e+00 -1.936846226453781128e-02 -1.079735040664672852e+00 -3.205723464488983154e-01
4.967000000000000000e+03 3.079138374328613281e+01 -5.324212312698364258e-01 -3.475598812103271484e+00 1.956051737070083618e-01 -9.839980602264404297e-01 -9.331931173801422119e-02
4.968000000000000000e+03 2.940887069702148438e+01 -8.685036301612854004e-01 -3.642928361892700195e+00 4.076591506600379944e-02 -1.080648779869079590e+00 -2.800384163856506348e-01
4.969000000000000000e+03 3.016384696960449219e+01 -5.854021906852722168e-01 -3.630465745925903320e+00 5.779827758669853210e-02 -1.071800231933593750e+00 -1.661301106214523315e-01
4.970000000000000000e+03 3.051674270629882812e+01 -5.657013654708862305e-01 -3.477612972259521484e+00 1.711800247430801392e-01 -9.919298887252807617e-01 -2.810620889067649841e-02
4.971000000000000000e+03 2.748492050170898438e+01 -1.515446901321411133e+00 -3.106585025787353516e+00 -1.808361113071441650e-01 -9.862263202667236328e-01 -2.626666128635406494e-01
4.972000000000000000e+03 3.044175529479980469e+01 -8.363916277885437012e-01 -3.513542175292968750e+00 2.110262960195541382e-01 -9.907547235488891602e-01 -2.221067063510417938e-02
4.973000000000000000e+03 2.958901405334472656e+01 -8.487625122070312500e-01 -3.625990629196166992e+00 4.139435663819313049e-02 -1.075378894805908203e+00 -2.288096696138381958e-01
4.974000000000000000e+03 2.782859802246093750e+01 -8.955772519111633301e-01 -3.836682081222534180e+00 -5.148735269904136658e-02 -1.166450858116149902e+00 -3.471533358097076416e-01
4.975000000000000000e+03 2.839513969421386719e+01 -9.859659671783447266e-01 -3.667763710021972656e+00 -2.597006037831306458e-02 -1.108120203018188477e+00 -3.385323286056518555e-01
4.976000000000000000e+03 2.794436264038085938e+01 -1.159523010253906250e+00 -3.518114328384399414e+00 -6.359847635030746460e-02 -1.074513792991638184e+00 -3.069881796836853027e-01
4.977000000000000000e+03 2.647685241699218750e+01 9.727759361267089844e-01 9.257686883211135864e-02 8.050490170717239380e-02 5.192453041672706604e-02 -1.498299092054367065e-01
4.978000000000000000e+03 2.610982894897460938e+01 9.217603206634521484e-01 -1.161554083228111267e-02 -2.170655131340026855e-02 -9.996627457439899445e-03 -7.635538280010223389e-02
4.979000000000000000e+03 2.501363372802734375e+01 4.009114503860473633e-01 -5.742458701133728027e-01 -2.231581360101699829e-01 -2.392212003469467163e-01 3.402680158615112305e-01
4.980000000000000000e+03 2.524869537353515625e+01 6.084479093551635742e-01 -3.727284967899322510e-01 -1.914003491401672363e-01 -1.692386567592620850e-01 2.383476346731185913e-01
4.981000000000000000e+03 2.596435928344726562e+01 7.445604801177978516e-01 -1.555300951004028320e-01 -1.308435201644897461e-01 -8.591208606958389282e-02 2.568722469732165337e-03
4.982000000000000000e+03 2.529867744445800781e+01 5.080273151397705078e-01 -4.752491712570190430e-01 -2.424561083316802979e-01 -2.153115868568420410e-01 3.030827343463897705e-01
4.983000000000000000e+03 2.514510345458984375e+01 4.417403340339660645e-01 -5.757105350494384766e-01 -1.786464601755142212e-01 -2.263070940971374512e-01 3.284769952297210693e-01
4.984000000000000000e+03 2.574004173278808594e+01 8.379517197608947754e-01 -1.666091382503509521e-01 -1.772546172142028809e-01 -1.031591296195983887e-01 3.510670363903045654e-02
4.985000000000000000e+03 2.540418624877929688e+01 6.995720267295837402e-01 -2.879083156585693359e-01 -2.095347642898559570e-01 -1.492329239845275879e-01 2.285357117652893066e-01
4.986000000000000000e+03 2.562668418884277344e+01 6.353848576545715332e-01 -2.756910920143127441e-01 -2.652157545089721680e-01 -1.622720509767532349e-01 1.494687944650650024e-01
4.987000000000000000e+03 2.546116828918457031e+01 5.738193392753601074e-01 -3.515865802764892578e-01 -2.150760591030120850e-01 -1.699987947940826416e-01 2.069878131151199341e-01
4.988000000000000000e+03 2.579438400268554688e+01 6.921237111091613770e-01 -1.457973122596740723e-01 -1.832097470760345459e-01 -9.870211780071258545e-02 4.445661604404449463e-02
4.989000000000000000e+03 2.630865478515625000e+01 9.588830471038818359e-01 5.198139697313308716e-02 5.184402316808700562e-02 3.114762715995311737e-02 -1.248939856886863708e-01
4.990000000000000000e+03 2.633842658996582031e+01 8.784570097923278809e-01 -1.907823607325553894e-02 4.555429890751838684e-02 7.942819036543369293e-03 -1.131059899926185608e-01
4.991000000000000000e+03 2.510928726196289062e+01 5.076749920845031738e-01 -5.689882040023803711e-01 -1.835041493177413940e-01 -2.257477045059204102e-01 3.325312733650207520e-01
4.992000000000000000e+03 2.614974594116210938e+01 8.036559820175170898e-01 -4.053963348269462585e-02 -2.876195870339870453e-02 -2.079047821462154388e-02 -8.165259659290313721e-02
4.993000000000000000e+03 2.591700744628906250e+01 8.839657902717590332e-01 -3.313259780406951904e-02 -9.507263451814651489e-02 -3.846156969666481018e-02 -3.517871350049972534e-02
4.994000000000000000e+03 2.556867980957031250e+01 7.764952182769775391e-01 -1.909976750612258911e-01 -1.428741663694381714e-01 -1.001615524291992188e-01 1.119989752769470215e-01
4.995000000000000000e+03 3.925119400024414062e+01 3.659583628177642822e-01 -4.362469911575317383e-01 -5.300350114703178406e-02 -1.467751413583755493e-01 2.877092361450195312e-01
4.996000000000000000e+03 3.926422500610351562e+01 -6.637467443943023682e-02 -8.735929727554321289e-01 -9.384582191705703735e-02 -2.902316451072692871e-01 5.868014693260192871e-01
4.997000000000000000e+03 3.853815841674804688e+01 8.006714582443237305e-01 -4.685023128986358643e-01 -4.778400529175996780e-03 -1.419842094182968140e-01 5.413326248526573181e-02
4.998000000000000000e+03 3.856700515747070312e+01 2.940661311149597168e-01 -8.772249221801757812e-01 7.896966487169265747e-02 -2.394765764474868774e-01 3.378160595893859863e-01
4.999000000000000000e+03 3.863258743286132812e+01 -1.873374730348587036e-01 -1.202753543853759766e+00 1.333002150058746338e-01 -3.208360075950622559e-01 5.616207122802734375e-01
5.000000000000000000e+03 3.940476989746093750e+01 9.400728940963745117e-01 -6.692808866500854492e-02 2.698629349470138550e-02 -1.198253966867923737e-02 5.238124355673789978e-02
5.001000000000000000e+03 4.009798812866210938e+01 4.773842692375183105e-01 8.159758895635604858e-02 -1.913637667894363403e-02 1.873836480081081390e-02 -5.893501266837120056e-02
5.002000000000000000e+03 3.978098297119140625e+01 1.255261451005935669e-01 -3.182820975780487061e-01 -3.220303952693939209e-01 -1.920937597751617432e-01 3.647502064704895020e-01
5.003000000000000000e+03 2.643321990966796875e+01 -4.614933729171752930e-01 1.406499624252319336e+00 1.062309667468070984e-01 4.538191854953765869e-01 3.948355615139007568e-01
5.004000000000000000e+03 2.662815284729003906e+01 -4.212739467620849609e-01 5.324065685272216797e-01 4.614533483982086182e-02 1.735655665397644043e-01 1.648072749376296997e-01
5.005000000000000000e+03 2.682308387756347656e+01 -3.810544908046722412e-01 2.453618049621582031e-01 2.552324347198009491e-02 8.126551657915115356e-02 9.183946996927261353e-02
5.006000000000000000e+03 2.701801681518554688e+01 -3.408350646495819092e-01 1.138497516512870789e-01 2.018485218286514282e-02 4.021038115024566650e-02 5.356742814183235168e-02
5.007000000000000000e+03 2.641584777832031250e+01 -4.056465029716491699e-01 7.237992882728576660e-01 2.373388409614562988e-01 2.883414328098297119e-01 5.349183678627014160e-01
5.008000000000000000e+03 2.659919929504394531e+01 -3.281958401203155518e-01 3.268089592456817627e-01 1.931554377079010010e-01 1.559893190860748291e-01 3.053716719150543213e-01
5.009000000000000000e+03 2.678255081176757812e+01 -2.507451474666595459e-01 1.282100826501846313e-01 9.226822853088378906e-02 6.614349782466888428e-02 1.765762418508529663e-01
5.010000000000000000e+03 2.696590232849121094e+01 -1.732944548130035400e-01 4.460909217596054077e-02 8.302836865186691284e-02 3.829123824834823608e-02 1.079849526286125183e-01
5.011000000000000000e+03 2.638792037963867188e+01 -3.542579412460327148e-01 2.685625553131103516e-01 3.259362280368804932e-01 1.783496290445327759e-01 5.033405423164367676e-01
5.012000000000000000e+03 2.655265426635742188e+01 -2.425482273101806641e-01 4.402883350849151611e-02 2.713913023471832275e-01 9.462603926658630371e-02 2.783453464508056641e-01
5.013000000000000000e+03 2.671738815307617188e+01 -1.308384984731674194e-01 -2.803516574203968048e-02 1.910924464464187622e-01 4.891718178987503052e-02 1.929328739643096924e-01
5.014000000000000000e+03 2.688212394714355469e+01 -1.912877708673477173e-02 -6.023689359426498413e-02 1.405843198299407959e-01 2.410422638058662415e-02 1.083993613719940186e-01
5.015000000000000000e+03 2.635051155090332031e+01 -3.092997670173645020e-01 -9.219112992286682129e-02 3.399798870086669922e-01 7.433662563562393188e-02 3.672399520874023438e-01
5.016000000000000000e+03 2.649030685424804688e+01 -1.676179021596908569e-01 -1.510064303874969482e-01 2.718389630317687988e-01 3.624975308775901794e-02 1.949689239263534546e-01
5.017000000000000000e+03 2.663010215759277344e+01 -2.593605220317840576e-02 -1.803558468818664551e-01 2.192213088274002075e-01 1.165963895618915558e-02 1.240760236978530884e-01
5.018000000000000000e+03 2.676989746093750000e+01 1.157457977533340454e-01 -1.580310165882110596e-01 1.860612481832504272e-01 8.409069851040840149e-03 6.883097440004348755e-02
5.019000000000000000e+03 2.630505752563476562e+01 -2.724972069263458252e-01 -3.035858273506164551e-01 2.432070076465606689e-01 -1.811364293098449707e-02 1.785663664340972900e-01
5.020000000000000000e+03 2.641454887390136719e+01 -1.062803491950035095e-01 -2.894291579723358154e-01 1.787719726562500000e-01 -3.319715708494186401e-02 9.343269467353820801e-02
5.021000000000000000e+03 2.652403831481933594e+01 5.993652343750000000e-02 -2.688419520854949951e-01 1.870039999485015869e-01 -2.455138042569160461e-02 4.168086498975753784e-02
5.022000000000000000e+03 2.663352775573730469e+01 2.261533886194229126e-01 -2.253639549016952515e-01 1.631534844636917114e-01 -1.866314373910427094e-02 9.101452887989580631e-04
5.023000000000000000e+03 2.625329971313476562e+01 -2.452626526355743408e-01 -4.001596570014953613e-01 -1.523155253380537033e-02 -1.246173605322837830e-01 3.154426813125610352e-02
5.024000000000000000e+03 2.632828330993652344e+01 -6.088940799236297607e-02 -3.445884585380554199e-01 4.221446812152862549e-02 -9.071219712495803833e-02 7.064342498779296875e-03
5.025000000000000000e+03 2.640326881408691406e+01 1.234838366508483887e-01 -3.230733275413513184e-01 6.144481152296066284e-02 -7.848855853080749512e-02 -1.907378062605857849e-02
5.026000000000000000e+03 2.647825241088867188e+01 3.078570663928985596e-01 -2.449762523174285889e-01 1.004749312996864319e-01 -4.335039481520652771e-02 -5.510274693369865417e-02
5.027000000000000000e+03 2.619722366333007812e+01 -2.286412119865417480e-01 -3.675274848937988281e-01 -3.298607766628265381e-01 -2.092164754867553711e-01 -3.278677910566329956e-02
5.028000000000000000e+03 2.623482513427734375e+01 -3.318699449300765991e-02 -3.924323916435241699e-01 -1.778586655855178833e-01 -1.710873246192932129e-01 -6.476904265582561493e-03
5.029000000000000000e+03 2.627242660522460938e+01 1.622672230005264282e-01 -3.147994577884674072e-01 -7.457572221755981445e-02 -1.168125569820404053e-01 -4.932652041316032410e-02
5.030000000000000000e+03 2.631002807617187500e+01 3.577214479446411133e-01 -2.721993923187255859e-01 -4.017016664147377014e-02 -9.371086955070495605e-02 -6.295260041952133179e-02
5.031000000000000000e+03 2.613898468017578125e+01 -2.232707291841506958e-01 -3.763401508331298828e-01 -6.967114210128784180e-01 -3.219154775142669678e-01 6.446825712919235229e-02
5.032000000000000000e+03 2.613776016235351562e+01 -2.423619106411933899e-02 -3.759204149246215820e-01 -3.754793703556060791e-01 -2.254199385643005371e-01 3.089480102062225342e-02
5.033000000000000000e+03 2.613653564453125000e+01 1.747983545064926147e-01 -3.573823273181915283e-01 -2.608065903186798096e-01 -1.854566633701324463e-01 6.179930642247200012e-04
5.034000000000000000e+03 2.613531112670898438e+01 3.738328814506530762e-01 -2.530762255191802979e-01 -1.549254357814788818e-01 -1.224004998803138733e-01 -3.290383517742156982e-02
5.035000000000000000e+03 2.608081626892089844e+01 -2.293573021888732910e-01 -3.655693531036376953e-01 -9.624198079109191895e-01 -3.983967602252960205e-01 2.673405110836029053e-01
5.036000000000000000e+03 2.604081344604492188e+01 -3.438049182295799255e-02 -4.677079617977142334e-01 -5.772509574890136719e-01 -3.134876787662506104e-01 1.603881269693374634e-01
5.037000000000000000e+03 2.600080871582031250e+01 1.605963259935379028e-01 -3.607099354267120361e-01 -3.955591619014739990e-01 -2.268807291984558105e-01 8.769340068101882935e-02
5.038000000000000000e+03 2.596080589294433594e+01 3.555731475353240967e-01 -3.170235455036163330e-01 -2.988092899322509766e-01 -1.847498416900634766e-01 7.020354270935058594e-02
5.039000000000000000e+03 2.602495002746582031e+01 -2.466673702001571655e-01 -5.693843960762023926e-01 -1.129116892814636230e+00 -5.095503926277160645e-01 5.553500652313232422e-01
5.040000000000000000e+03 2.594770240783691406e+01 -6.323059648275375366e-02 -5.313937067985534668e-01 -6.906831860542297363e-01 -3.666230738162994385e-01 3.249230682849884033e-01
5.041000000000000000e+03 2.587045478820800781e+01 1.202061772346496582e-01 -5.070420503616333008e-01 -5.067863464355468750e-01 -3.041485249996185303e-01 2.365735322237014771e-01
5.042000000000000000e+03 2.579320716857910156e+01 3.036429584026336670e-01 -3.621574938297271729e-01 -3.797354102134704590e-01 -2.225678712129592896e-01 1.764263957738876343e-01
5.043000000000000000e+03 2.597352981567382812e+01 -2.745366394519805908e-01 -8.067921400070190430e-01 -1.121969461441040039e+00 -5.786284804344177246e-01 8.418951034545898438e-01
5.044000000000000000e+03 2.586200332641601562e+01 -1.096793785691261292e-01 -7.792644500732421875e-01 -7.395409941673278809e-01 -4.556416273117065430e-01 5.059897899627685547e-01
5.045000000000000000e+03 2.575047492980957031e+01 5.517788231372833252e-02 -6.233631372451782227e-01 -5.430398583412170410e-01 -3.499208986759185791e-01 3.899669349193572998e-01
5.046000000000000000e+03 2.563894844055175781e+01 2.200351357460021973e-01 -5.800940990447998047e-01 -4.111159741878509521e-01 -2.973630130290985107e-01 3.181948959827423096e-01
5.047000000000000000e+03 2.592853164672851562e+01 -3.118956089019775391e-01 -1.237412929534912109e+00 -1.017891168594360352e+00 -6.765912175178527832e-01 1.039274215698242188e+00
5.048000000000000000e+03 2.578700256347656250e+01 -1.719443351030349731e-01 -1.017200231552124023e+00 -6.939062476158142090e-01 -5.133319497108459473e-01 6.857094764709472656e-01
5.049000000000000000e+03 2.564547729492187500e+01 -3.199306875467300415e-02 -9.211707115173339844e-01 -5.031029582023620605e-01 -4.272820949554443359e-01 5.107769370079040527e-01
5.050000000000000000e+03 2.550395011901855469e+01 1.079582050442695618e-01 -7.455932497978210449e-01 -3.941687643527984619e-01 -3.419286012649536133e-01 4.351195096969604492e-01
5.051000000000000000e+03 2.589167785644531250e+01 -3.573106229305267334e-01 -1.670605540275573730e+00 -8.270171880722045898e-01 -7.492868304252624512e-01 1.139757394790649414e+00
5.052000000000000000e+03 2.572558212280273438e+01 -2.476360350847244263e-01 -1.365661740303039551e+00 -5.964157581329345703e-01 -5.886232852935791016e-01 7.892186641693115234e-01
5.053000000000000000e+03 2.555948638916015625e+01 -1.379614472389221191e-01 -1.220453262329101562e+00 -4.062462449073791504e-01 -4.880098402500152588e-01 6.304661631584167480e-01
5.054000000000000000e+03 2.539339256286621094e+01 -2.828685194253921509e-02 -1.096416354179382324e+00 -2.725259661674499512e-01 -4.106826782226562500e-01 4.684058725833892822e-01
5.055000000000000000e+03 2.586438560485839844e+01 -4.090388715267181396e-01 -2.112716197967529297e+00 -6.394075751304626465e-01 -8.256371617317199707e-01 1.114975214004516602e+00
5.056000000000000000e+03 2.568009567260742188e+01 -3.338497877120971680e-01 -1.725775837898254395e+00 -4.624837636947631836e-01 -6.564778685569763184e-01 8.329317569732666016e-01
5.057000000000000000e+03 2.549580574035644531e+01 -2.586606740951538086e-01 -1.553722023963928223e+00 -2.741843163967132568e-01 -5.483719110488891602e-01 6.661206483840942383e-01
5.058000000000000000e+03 2.531151580810546875e+01 -1.834715753793716431e-01 -1.487192153930664062e+00 -1.433217823505401611e-01 -4.891541600227355957e-01 5.509306788444519043e-01
5.059000000000000000e+03 2.584770202636718750e+01 -4.650952517986297607e-01 -2.497070550918579102e+00 -5.082908272743225098e-01 -9.016084074974060059e-01 1.008486390113830566e+00
5.060000000000000000e+03 2.565229034423828125e+01 -4.272770583629608154e-01 -2.086274623870849609e+00 -3.109042942523956299e-01 -7.191537022590637207e-01 7.888495326042175293e-01
5.061000000000000000e+03 2.545687675476074219e+01 -3.894588649272918701e-01 -1.881686687469482422e+00 -1.568417549133300781e-01 -6.115584969520568848e-01 6.378868222236633301e-01
5.062000000000000000e+03 2.526146507263183594e+01 -3.516406714916229248e-01 -1.756296873092651367e+00 -4.466849565505981445e-02 -5.402895808219909668e-01 5.577201247215270996e-01
5.063000000000000000e+03 2.584226799011230469e+01 -5.233285427093505859e-01 -2.801633834838867188e+00 -4.191672801971435547e-01 -9.662403464317321777e-01 8.564366102218627930e-01
5.064000000000000000e+03 2.564323234558105469e+01 -5.243325233459472656e-01 -2.423492193222045898e+00 -2.053167968988418579e-01 -7.886427044868469238e-01 6.768445372581481934e-01
5.065000000000000000e+03 2.544419670104980469e+01 -5.253365635871887207e-01 -2.170604705810546875e+00 -4.635385051369667053e-02 -6.650875210762023926e-01 5.236572027206420898e-01
5.066000000000000000e+03 2.524516105651855469e+01 -5.263405442237854004e-01 -1.947449088096618652e+00 1.756052300333976746e-02 -5.789665579795837402e-01 4.323677718639373779e-01
5.067000000000000000e+03 2.584828948974609375e+01 -5.815040469169616699e-01 -3.059099197387695312e+00 -4.203635156154632568e-01 -1.043838858604431152e+00 7.010564208030700684e-01
5.068000000000000000e+03 2.565326881408691406e+01 -6.212916970252990723e-01 -2.694651842117309570e+00 -1.153724417090415955e-01 -8.430072665214538574e-01 5.033579468727111816e-01
5.069000000000000000e+03 2.545824813842773438e+01 -6.610794067382812500e-01 -2.422180414199829102e+00 -7.755677681416273117e-03 -7.289808392524719238e-01 3.535793125629425049e-01
5.070000000000000000e+03 2.526322746276855469e+01 -7.008671164512634277e-01 -2.159997940063476562e+00 1.092278212308883667e-01 -6.152310371398925781e-01 2.001061439514160156e-01
5.071000000000000000e+03 2.586553764343261719e+01 -6.373892426490783691e-01 -3.253299713134765625e+00 -4.096807241439819336e-01 -1.098894119262695312e+00 5.504282712936401367e-01
5.072000000000000000e+03 2.568201637268066406e+01 -7.144337892532348633e-01 -2.925810098648071289e+00 -1.308655291795730591e-01 -9.170026779174804688e-01 3.068372309207916260e-01
5.073000000000000000e+03 2.549849319458007812e+01 -7.914782762527465820e-01 -2.596510410308837891e+00 1.900745928287506104e-02 -7.732508778572082520e-01 1.331408023834228516e-01
5.074000000000000000e+03 2.531497192382812500e+01 -8.685227036476135254e-01 -2.409814357757568359e+00 1.228515282273292542e-01 -6.860888004302978516e-01 3.626425052061676979e-03
5.075000000000000000e+03 2.589335060119628906e+01 -6.888395547866821289e-01 -3.453741788864135742e+00 -4.899646937847137451e-01 -1.183111906051635742e+00 4.140667915344238281e-01
5.076000000000000000e+03 2.572836875915527344e+01 -8.001842498779296875e-01 -3.052320003509521484e+00 -1.518270373344421387e-01 -9.612441062927246094e-01 1.027696132659912109e-01
5.077000000000000000e+03 2.556338882446289062e+01 -9.115288853645324707e-01 -2.765138864517211914e+00 -5.321858450770378113e-02 -8.455072045326232910e-01 -7.389178872108459473e-02
5.078000000000000000e+03 2.539840888977050781e+01 -1.022873520851135254e+00 -2.524422883987426758e+00 7.059273123741149902e-02 -7.361490130424499512e-01 -1.777019351720809937e-01
5.079000000000000000e+03 2.593066024780273438e+01 -7.338804602622985840e-01 -3.594893693923950195e+00 -5.125114917755126953e-01 -1.232221603393554688e+00 2.627908587455749512e-01
5.080000000000000000e+03 2.579055213928222656e+01 -8.752524256706237793e-01 -3.150495767593383789e+00 -3.135860264301300049e-01 -1.039224505424499512e+00 -6.590077280998229980e-02
5.081000000000000000e+03 2.565044403076171875e+01 -1.016624450683593750e+00 -2.827862024307250977e+00 -1.119219586253166199e-01 -8.819351792335510254e-01 -2.297684103250503540e-01
5.082000000000000000e+03 2.551033592224121094e+01 -1.157996416091918945e+00 -2.634366035461425781e+00 -7.050845026969909668e-02 -8.114623427391052246e-01 -3.564536869525909424e-01
5.083000000000000000e+03 2.597603416442871094e+01 -7.707836031913757324e-01 -3.728516817092895508e+00 -6.589986681938171387e-01 -1.316254615783691406e+00 1.371198296546936035e-01
5.084000000000000000e+03 2.586617469787597656e+01 -9.367576241493225098e-01 -3.173673391342163086e+00 -4.317865073680877686e-01 -1.081637978553771973e+00 -1.990450471639633179e-01
5.085000000000000000e+03 2.575631713867187500e+01 -1.102731585502624512e+00 -2.855492115020751953e+00 -3.226391673088073730e-01 -9.534394145011901855e-01 -3.269743323326110840e-01
5.086000000000000000e+03 2.564645767211914062e+01 -1.268705606460571289e+00 -2.641452789306640625e+00 -1.231150105595588684e-01 -8.293703198432922363e-01 -4.150124788284301758e-01
5.087000000000000000e+03 2.602773094177246094e+01 -7.981326580047607422e-01 -3.788629293441772461e+00 -7.839508652687072754e-01 -1.371774077415466309e+00 7.716095540672540665e-03
5.088000000000000000e+03 2.595233917236328125e+01 -9.823395013809204102e-01 -3.186511754989624023e+00 -6.489348411560058594e-01 -1.150633931159973145e+00 -2.337387651205062866e-01
5.089000000000000000e+03 2.587694549560546875e+01 -1.166546225547790527e+00 -2.858271121978759766e+00 -4.584860205650329590e-01 -9.950271248817443848e-01 -3.868481814861297607e-01
5.090000000000000000e+03 2.580155181884765625e+01 -1.350752949714660645e+00 -2.551679372787475586e+00 -3.895269334316253662e-01 -8.823618888854980469e-01 -4.157997965812683105e-01
5.091000000000000000e+03 2.608376884460449219e+01 -8.148782849311828613e-01 -3.814292669296264648e+00 -1.005556106567382812e+00 -1.445954680442810059e+00 -1.949895918369293213e-02
5.092000000000000000e+03 2.604573440551757812e+01 -1.010248780250549316e+00 -3.205612421035766602e+00 -7.935848832130432129e-01 -1.199759125709533691e+00 -2.339900135993957520e-01
5.093000000000000000e+03 2.600769996643066406e+01 -1.205619215965270996e+00 -2.854328155517578125e+00 -6.453378796577453613e-01 -1.049899816513061523e+00 -3.353449106216430664e-01
5.094000000000000000e+03 2.596966552734375000e+01 -1.400989651679992676e+00 -2.567322969436645508e+00 -5.620093345642089844e-01 -9.387997388839721680e-01 -4.887585043907165527e-01
5.095000000000000000e+03 2.614199638366699219e+01 -8.203776478767395020e-01 -3.811788797378540039e+00 -1.192588686943054199e+00 -1.501313209533691406e+00 -1.554652408231049776e-04
5.096000000000000000e+03 2.614278030395507812e+01 -1.019414424896240234e+00 -3.277995586395263672e+00 -9.299789667129516602e-01 -1.262392401695251465e+00 -1.144791543483734131e-01
5.097000000000000000e+03 2.614356422424316406e+01 -1.218451261520385742e+00 -2.895829200744628906e+00 -7.525573968887329102e-01 -1.094515919685363770e+00 -2.984606623649597168e-01
5.098000000000000000e+03 2.614434814453125000e+01 -1.417487978935241699e+00 -2.669449329376220703e+00 -6.249212622642517090e-01 -9.883111715316772461e-01 -3.992008268833160400e-01
5.099000000000000000e+03 2.620017814636230469e+01 -8.144198656082153320e-01 -3.912287712097167969e+00 -1.342100024223327637e+00 -1.576316356658935547e+00 1.728417873382568359e-01
5.100000000000000000e+03 2.623974990844726562e+01 -1.009484767913818359e+00 -3.364815235137939453e+00 -9.749794602394104004e-01 -1.301938414573669434e+00 -8.359100669622421265e-03
5.101000000000000000e+03 2.627932167053222656e+01 -1.204549789428710938e+00 -3.068107366561889648e+00 -7.853454947471618652e-01 -1.156035900115966797e+00 -1.632413119077682495e-01
5.102000000000000000e+03 2.631889343261718750e+01 -1.399614572525024414e+00 -2.755191087722778320e+00 -6.453352570533752441e-01 -1.020157933235168457e+00 -2.991110086441040039e-01
5.103000000000000000e+03 2.625608253479003906e+01 -7.972335815429687500e-01 -4.020833969116210938e+00 -1.354750275611877441e+00 -1.612675309181213379e+00 3.742736876010894775e-01
5.104000000000000000e+03 2.633292388916015625e+01 -9.808409214019775391e-01 -3.631632089614868164e+00 -9.331291317939758301e-01 -1.369428396224975586e+00 1.398783475160598755e-01
5.105000000000000000e+03 2.640976524353027344e+01 -1.164448261260986328e+00 -3.217669486999511719e+00 -7.454167604446411133e-01 -1.188925862312316895e+00 -5.175820365548133850e-02
5.106000000000000000e+03 2.648660659790039062e+01 -1.348055601119995117e+00 -2.996536970138549805e+00 -6.134158968925476074e-01 -1.082985877990722656e+00 -1.629067212343215942e-01
5.107000000000000000e+03 2.630756378173828125e+01 -7.694782018661499023e-01 -4.391325473785400391e+00 -1.220887660980224609e+00 -1.683663845062255859e+00 5.767649412155151367e-01
5.108000000000000000e+03 2.641872596740722656e+01 -9.345819354057312012e-01 -3.847661733627319336e+00 -7.992772459983825684e-01 -1.394081711769104004e+00 2.445230633020401001e-01
5.109000000000000000e+03 2.652988815307617188e+01 -1.099685668945312500e+00 -3.555092573165893555e+00 -6.358850598335266113e-01 -1.257293343544006348e+00 4.306520521640777588e-02
5.110000000000000000e+03 2.664105033874511719e+01 -1.264789462089538574e+00 -3.192850589752197266e+00 -5.399546027183532715e-01 -1.119841575622558594e+00 -7.871513813734054565e-02
5.111000000000000000e+03 2.635264587402343750e+01 -7.322189211845397949e-01 -4.761955261230468750e+00 -9.152975678443908691e-01 -1.703175783157348633e+00 6.953414082527160645e-01
5.112000000000000000e+03 2.649386215209960938e+01 -8.724831342697143555e-01 -4.229465007781982422e+00 -6.117935180664062500e-01 -1.452377557754516602e+00 2.574135065078735352e-01
5.113000000000000000e+03 2.663508033752441406e+01 -1.012747406959533691e+00 -3.799155950546264648e+00 -4.861530661582946777e-01 -1.285592675209045410e+00 9.559248387813568115e-02
5.114000000000000000e+03 2.677629661560058594e+01 -1.153011679649353027e+00 -3.584445714950561523e+00 -4.224999547004699707e-01 -1.202083706855773926e+00 -5.071718618273735046e-02
5.115000000000000000e+03 2.638959884643554688e+01 -6.868855953216552734e-01 -5.268335342407226562e+00 -5.413750410079956055e-01 -1.742913126945495605e+00 6.175006628036499023e-01
5.116000000000000000e+03 2.655545234680175781e+01 -7.969276309013366699e-01 -4.516250610351562500e+00 -3.941093087196350098e-01 -1.473107933998107910e+00 2.010867297649383545e-01
5.117000000000000000e+03 2.672130393981933594e+01 -9.069696068763732910e-01 -4.140327453613281250e+00 -3.284990191459655762e-01 -1.340647935867309570e+00 3.969793021678924561e-02
5.118000000000000000e+03 2.688715744018554688e+01 -1.017011642456054688e+00 -3.852347135543823242e+00 -2.905797660350799561e-01 -1.242878079414367676e+00 -4.854673147201538086e-02
5.119000000000000000e+03 2.641700553894042969e+01 -6.352178454399108887e-01 -5.646814346313476562e+00 -1.829090863466262817e-01 -1.748916983604431152e+00 3.646519780158996582e-01
5.120000000000000000e+03 2.660112953186035156e+01 -7.108147740364074707e-01 -4.810052394866943359e+00 -2.024989277124404907e-01 -1.503765344619750977e+00 2.935186773538589478e-02
5.121000000000000000e+03 2.678525352478027344e+01 -7.864116430282592773e-01 -4.379377365112304688e+00 -2.052339017391204834e-01 -1.375383377075195312e+00 -6.260983645915985107e-02
5.122000000000000000e+03 2.696937561035156250e+01 -8.620085120201110840e-01 -4.145275115966796875e+00 -1.438941657543182373e-01 -1.286750793457031250e+00 -1.392278969287872314e-01
5.123000000000000000e+03 2.643381309509277344e+01 -5.791985392570495605e-01 -5.873343467712402344e+00 8.558828383684158325e-02 -1.736326575279235840e+00 -8.401074260473251343e-02
5.124000000000000000e+03 2.662914276123046875e+01 -6.174492239952087402e-01 -4.942684650421142578e+00 -1.397468000650405884e-01 -1.524729490280151367e+00 -1.643351912498474121e-01
5.125000000000000000e+03 2.682447052001953125e+01 -6.556999087333679199e-01 -4.628772735595703125e+00 -7.261287420988082886e-02 -1.410415649414062500e+00 -2.166341990232467651e-01
5.126000000000000000e+03 2.701979827880859375e+01 -6.939505934715270996e-01 -4.360170841217041016e+00 -6.920982152223587036e-02 -1.328814148902893066e+00 -2.716267406940460205e-01
5.127000000000000000e+03 2.643937683105468750e+01 -5.209773778915405273e-01 -5.735680580139160156e+00 3.256289660930633545e-02 -1.710935235023498535e+00 -4.987539350986480713e-01
5.128000000000000000e+03 2.663841629028320312e+01 -5.204139947891235352e-01 -5.104249954223632812e+00 -6.732366234064102173e-02 -1.551472067832946777e+00 -3.634969294071197510e-01
5.129000000000000000e+03 2.683745193481445312e+01 -5.198506116867065430e-01 -4.714274883270263672e+00 -4.129797592759132385e-02 -1.426671862602233887e+00 -4.122848510742187500e-01
5.130000000000000000e+03 2.703648948669433594e+01 -5.192871689796447754e-01 -4.543080329895019531e+00 -3.404788672924041748e-02 -1.373138427734375000e+00 -4.022780358791351318e-01
5.131000000000000000e+03 3.784771728515625000e+01 1.573838591575622559e-01 -1.332646608352661133e+00 1.713296622037887573e-01 -3.483950793743133545e-01 2.486887872219085693e-01
5.132000000000000000e+03 3.725452804565429688e+01 -4.614862799644470215e-01 -1.879554510116577148e+00 3.348146975040435791e-01 -4.634219408035278320e-01 3.523034155368804932e-01
5.133000000000000000e+03 3.576796340942382812e+01 -2.034789621829986572e-01 -2.232833623886108398e+00 3.612527623772621155e-02 -6.590124964714050293e-01 -1.776834130287170410e-01
5.134000000000000000e+03 3.773318862915039062e+01 6.399024128913879395e-01 -1.056506514549255371e+00 6.146487966179847717e-02 -2.985124886035919189e-01 -2.690730057656764984e-02
5.135000000000000000e+03 3.793711853027343750e+01 -3.290801048278808594e-01 -1.582958579063415527e+00 2.743328213691711426e-01 -3.925877511501312256e-01 5.199214816093444824e-01
5.136000000000000000e+03 3.579476928710937500e+01 1.557014137506484985e-01 -2.354615449905395508e+00 1.727849803864955902e-02 -7.012010812759399414e-01 -3.041736483573913574e-01
5.137000000000000000e+03 3.544619369506835938e+01 -5.567274093627929688e-01 -2.452760934829711914e+00 2.234392017126083374e-01 -6.687965393066406250e-01 -1.597120463848114014e-01
5.138000000000000000e+03 3.542301177978515625e+01 -3.483869433403015137e-01 -2.353964567184448242e+00 7.861673831939697266e-02 -6.826043128967285156e-01 -1.628444641828536987e-01
5.139000000000000000e+03 3.557382965087890625e+01 -9.237620830535888672e-01 -2.463584661483764648e+00 3.212773799896240234e-01 -6.426921486854553223e-01 6.284716539084911346e-03
5.140000000000000000e+03 3.620565032958984375e+01 -5.708550214767456055e-01 -2.239086866378784180e+00 2.592885494232177734e-01 -5.939394831657409668e-01 1.305141896009445190e-01
5.141000000000000000e+03 3.543449020385742188e+01 -7.468969821929931641e-01 -2.580717325210571289e+00 3.018687963485717773e-01 -6.836545467376708984e-01 -9.950354695320129395e-02
5.142000000000000000e+03 3.575466537475585938e+01 -7.140525579452514648e-01 -2.397399425506591797e+00 3.016172051429748535e-01 -6.287346482276916504e-01 -2.280987240374088287e-02
5.143000000000000000e+03 3.536248397827148438e+01 8.274657279253005981e-02 -2.466207265853881836e+00 -1.459369063377380371e-02 -7.442402839660644531e-01 -2.994388937950134277e-01
5.144000000000000000e+03 3.537422180175781250e+01 -1.330137997865676880e-01 -2.454238891601562500e+00 1.478753890842199326e-02 -7.318354249000549316e-01 -3.390308320522308350e-01
5.145000000000000000e+03 3.720196914672851562e+01 2.339655533432960510e-02 -1.681508064270019531e+00 1.422823965549468994e-01 -4.617677032947540283e-01 1.832453459501266479e-01
5.146000000000000000e+03 3.633927154541015625e+01 3.176230490207672119e-01 -2.112835168838500977e+00 8.318887092173099518e-03 -6.313549280166625977e-01 -2.284283488988876343e-01
5.147000000000000000e+03 3.702178573608398438e+01 4.951345026493072510e-01 -1.602424740791320801e+00 -1.436052750796079636e-02 -4.850355684757232666e-01 -1.255911290645599365e-01
5.148000000000000000e+03 3.670540237426757812e+01 -2.419523298740386963e-01 -1.939493179321289062e+00 1.775536090135574341e-01 -5.285818576812744141e-01 1.472339779138565063e-01
5.149000000000000000e+03 3.540359497070312500e+01 3.248628079891204834e-01 -2.509596347808837891e+00 -5.598072707653045654e-02 -7.696731090545654297e-01 -4.094699323177337646e-01
5.150000000000000000e+03 2.680468750000000000e+01 1.088164567947387695e+00 2.010619789361953735e-01 8.892764151096343994e-02 8.699688315391540527e-02 -1.209738403558731079e-01
5.151000000000000000e+03 3.282873153686523438e+01 1.759412050247192383e+00 2.473040331096854061e-05 -1.865004742285236716e-04 -4.853101927437819541e-05 -7.139068475225940347e-05
5.152000000000000000e+03 3.256165695190429688e+01 1.791955471038818359e+00 3.159938787575811148e-04 3.306179423816502094e-04 1.939835492521524429e-04 -1.247890177182853222e-04
5.153000000000000000e+03 3.268337631225585938e+01 1.737726449966430664e+00 -2.550643985159695148e-04 2.489415928721427917e-04 -1.836843239289009944e-06 2.085746928059961647e-05
5.154000000000000000e+03 3.273002243041992188e+01 1.890288829803466797e+00 9.464964969083666801e-04 2.064582367893308401e-04 3.458864230196923018e-04 -2.909637987613677979e-04
5.155000000000000000e+03 3.914461517333984375e+01 2.359752893447875977e+00 5.385989206843078136e-04 -3.726258291862905025e-04 4.979191726306453347e-05 -1.324998156633228064e-04
5.156000000000000000e+03 3.842591857910156250e+01 1.450954198837280273e+00 1.001218188321217895e-04 1.834936410887166858e-04 8.508464088663458824e-05 -1.428761606803163886e-04
5.157000000000000000e+03 3.827068328857421875e+01 2.174587726593017578e+00 -1.888729457277804613e-04 9.206025424646213651e-05 -2.904380744439549744e-05 8.588531636632978916e-05
5.158000000000000000e+03 3.930421447753906250e+01 1.637129545211791992e+00 -6.207842961885035038e-04 -3.860703436657786369e-04 -3.020564035978168249e-04 4.286224720999598503e-04
5.159000000000000000e+03 3.970756530761718750e+01 2.307757139205932617e+00 7.118766079656779766e-04 9.537550504319369793e-04 4.996894858777523041e-04 -2.651068207342177629e-04
5.160000000000000000e+03 3.532656478881835938e+01 1.218266010284423828e+00 9.450832731090486050e-04 -1.692448277026414871e-04 2.327515394426882267e-04 -2.034073986578732729e-05
5.161000000000000000e+03 3.516021347045898438e+01 1.843163371086120605e+00 6.336244987323880196e-04 9.063592733582481742e-05 2.172781387344002724e-04 1.586700673215091228e-04
5.162000000000000000e+03 3.509786987304687500e+01 1.261741042137145996e+00 -3.144421498291194439e-04 -1.112015379476360977e-04 -1.276931143365800381e-04 -4.459138144738972187e-04
5.163000000000000000e+03 3.551464080810546875e+01 1.057103157043457031e+00 -3.255934861954301596e-04 -2.857348881661891937e-04 -1.833985152188688517e-04 4.388113738968968391e-04
5.164000000000000000e+03 3.518862915039062500e+01 9.300561547279357910e-01 -1.419970158167416230e-05 8.528725447831675410e-05 2.132626468664966524e-05 -1.999410596909001470e-04
5.165000000000000000e+03 3.561892700195312500e+01 7.942531704902648926e-01 -3.700591914821416140e-04 -3.060391754843294621e-04 -2.028295130003243685e-04 7.582450052723288536e-05
5.166000000000000000e+03 3.683752059936523438e+01 1.132660150527954102e+00 -5.934935325058177114e-05 -3.059381015191320330e-07 -1.789658745110500604e-05 -9.354612848255783319e-05
5.167000000000000000e+03 3.744252777099609375e+01 2.003676176071166992e+00 7.135321357054635882e-05 -3.763564109249273315e-06 2.027689515671227127e-05 -4.553783946903422475e-05
5.168000000000000000e+03 3.758993148803710938e+01 1.278456091880798340e+00 -4.798187001142650843e-05 -1.330053200945258141e-04 -5.429615703178569674e-05 6.556793232448399067e-05
5.169000000000000000e+03 3.510199737548828125e+01 1.635613560676574707e+00 -2.337172190891578794e-04 7.132659811759367585e-05 -4.871718920185230672e-05 3.518439552863128483e-05
5.170000000000000000e+03 3.585155868530273438e+01 1.316713333129882812e+00 1.008494989946484566e-03 1.864098157966509461e-04 3.584714431781321764e-04 -6.425473839044570923e-05
5.171000000000000000e+03 3.670141983032226562e+01 1.860043287277221680e+00 2.362567029194906354e-04 -7.574045412184204906e-06 6.860480061732232571e-05 1.660697162151336670e-04
5.172000000000000000e+03 3.535565185546875000e+01 5.763555169105529785e-01 2.750923740677535534e-04 -3.055848537769634277e-06 8.161096047842875123e-05 -5.364217940950766206e-05
5.173000000000000000e+03 3.511064147949218750e+01 1.445441007614135742e+00 3.089029924012720585e-04 2.875527134165167809e-04 1.789367233868688345e-04 1.044829405145719647e-04
5.174000000000000000e+03 3.613363647460937500e+01 9.247913360595703125e-01 -1.075531399692408741e-04 1.419388863723725080e-04 1.031572355714160949e-05 2.298946856171824038e-05
5.175000000000000000e+03 3.546948623657226562e+01 1.730145692825317383e+00 6.469359504990279675e-05 -8.431359310634434223e-05 -5.886000508326105773e-06 1.780386810423806310e-05
5.176000000000000000e+03 3.545494842529296875e+01 1.439249277114868164e+00 -4.766786878462880850e-04 -4.432401328813284636e-04 -2.759756462182849646e-04 -3.562314959708601236e-04
5.177000000000000000e+03 3.598669815063476562e+01 1.795895457267761230e+00 -6.296496721915900707e-04 4.337340214988216758e-05 -1.758828730089589953e-04 -8.796381735010072589e-05
5.178000000000000000e+03 3.523711776733398438e+01 7.485983967781066895e-01 -1.222092250827699900e-04 2.547357580624520779e-04 3.975796062150038779e-05 -6.429292261600494385e-05
5.179000000000000000e+03 3.512268447875976562e+01 1.098272919654846191e+00 -9.433547529624775052e-05 5.060841886006528512e-06 -2.678239070519339293e-05 5.468928138725459576e-04
5.180000000000000000e+03 7.138031005859375000e+01 -1.674990081787109375e+01 8.948593313107267022e-05 -2.322646832908503711e-05 1.987783980439417064e-05 3.290271706646308303e-05
5.181000000000000000e+03 7.211955261230468750e+01 -1.671120262145996094e+01 1.455983583582565188e-04 -2.548227087117993506e-07 4.360306047601625323e-05 1.276900547964032739e-05
5.182000000000000000e+03 7.071197509765625000e+01 -1.752739334106445312e+01 4.230698323226533830e-05 -4.861521301791071892e-05 -1.892468503683630843e-06 8.501289994455873966e-05
5.183000000000000000e+03 7.287363433837890625e+01 -1.741421890258789062e+01 1.725786714814603329e-04 -1.406954993399267551e-06 5.135151513968594372e-05 2.565001159382518381e-05
5.184000000000000000e+03 7.215311431884765625e+01 -1.745045852661132812e+01 6.313025369308888912e-05 -3.235909389331936836e-05 9.231349395122379065e-06 4.275896208127960563e-05
5.185000000000000000e+03 7.143251037597656250e+01 -1.748818206787109375e+01 1.365480566164478660e-04 2.211813261965289712e-05 4.759985677083022892e-05 2.476401095918845385e-05
5.186000000000000000e+03 7.285870361328125000e+01 -1.667398834228515625e+01 1.294598041567951441e-04 2.649556790856877342e-06 3.963280687457881868e-05 6.416897122107911855e-06
5.187000000000000000e+03 7.064115142822265625e+01 -1.679008674621582031e+01 7.550006557721644640e-05 4.837171945837326348e-05 3.716153514687903225e-05 1.128199983213562518e-05
5.188000000000000000e+03 7.509190368652343750e+01 -1.672233772277832031e+01 1.518690842203795910e-04 2.125768151017837226e-05 5.193803008296526968e-05 -2.024434252234641463e-06
5.189000000000000000e+03 7.507875823974609375e+01 -1.746236038208007812e+01 8.423121471423655748e-05 -3.053687032661400735e-05 1.610830258869100362e-05 -5.841217353008687496e-05
5.190000000000000000e+03 7.583750152587890625e+01 -1.675157546997070312e+01 1.120571178034879267e-04 -3.372136416146531701e-05 2.350072645640466362e-05 -2.482280797266867012e-05
5.191000000000000000e+03 7.360292816162109375e+01 -1.740974807739257812e+01 8.430023444816470146e-05 -2.962504186143632978e-05 1.640255686652380973e-05 -1.749683178786654025e-05
5.192000000000000000e+03 7.434651947021484375e+01 -1.669533538818359375e+01 1.415315346093848348e-04 -1.059189526131376624e-05 3.928189107682555914e-05 -2.024825880653224885e-05
5.193000000000000000e+03 7.581685638427734375e+01 -1.749131965637207031e+01 1.110592202167026699e-04 1.879001683846581727e-05 3.895477129844948649e-05 -2.189138831454329193e-05
5.194000000000000000e+03 7.434088134765625000e+01 -1.743563652038574219e+01 1.593494089320302010e-04 2.589311804968019715e-07 4.788250225828960538e-05 1.652751052461098880e-05
5.195000000000000000e+03 7.360105895996093750e+01 -1.666916847229003906e+01 1.643092982703819871e-04 -8.871971658663824201e-06 4.663119761971756816e-05 7.780541636748239398e-06
5.196000000000000000e+03 7.968632507324218750e+01 -1.742419242858886719e+01 7.420143811032176018e-05 5.878039155504666269e-05 3.989454853581264615e-05 2.910877265094313771e-05
5.197000000000000000e+03 7.850669860839843750e+01 -1.755505180358886719e+01 4.524110408965498209e-05 1.541261372040025890e-05 1.819611497921869159e-05 -2.892035081458743662e-05
5.198000000000000000e+03 7.652082824707031250e+01 -1.751028823852539062e+01 5.652565960190258920e-05 -2.583470632089301944e-05 9.207285984302870929e-06 -4.678359618992544711e-05
5.199000000000000000e+03 7.873721313476562500e+01 -1.681438636779785156e+01 2.559758740972029045e-06 1.415877159161027521e-05 5.015559054299956188e-06 1.105159299186198041e-06
5.200000000000000000e+03 7.785486602783203125e+01 -1.753419113159179688e+01 1.915057737278402783e-06 8.496688678860664368e-06 3.123523811154882424e-06 -3.337606540299020708e-05
5.201000000000000000e+03 7.802648925781250000e+01 -1.679383087158203125e+01 3.630453647929243743e-05 6.831182417954551056e-06 1.294071626034565270e-05 -1.571608845551963896e-05
5.202000000000000000e+03 7.718931579589843750e+01 -1.751985740661621094e+01 8.627792703919112682e-05 1.823287311708554626e-05 3.135324004688300192e-05 -5.483003042172640562e-05
5.203000000000000000e+03 7.657466888427734375e+01 -1.677053260803222656e+01 9.731690806802362204e-05 3.281214230810292065e-05 3.903871765942312777e-05 -1.727749622659757733e-05
5.204000000000000000e+03 7.909966278076171875e+01 -1.758989524841308594e+01 4.572068428387865424e-05 -2.595596379251219332e-05 5.929416602157289162e-06 -9.158447028312366456e-06
5.205000000000000000e+03 7.938906860351562500e+01 -1.684892654418945312e+01 -6.145983934402465820e-05 -4.958014324074611068e-05 -3.331199332023970783e-05 -5.848463842994533479e-05
5.206000000000000000e+03 7.730204772949218750e+01 -1.677979850769042969e+01 4.450048436410725117e-05 -1.790520764188840985e-05 7.978582289069890976e-06 -1.538319520477671176e-05
5.207000000000000000e+03 7.943219757080078125e+01 -1.525699043273925781e+01 -8.568813093006610870e-03 -2.294256584718823433e-03 -3.258920973166823387e-03 3.685029223561286926e-03
5.208000000000000000e+03 7.838642120361328125e+01 -1.516350746154785156e+01 -7.376931025646626949e-04 -6.084330379962921143e-03 -2.046606969088315964e-03 -4.978791112080216408e-04
5.209000000000000000e+03 7.780564117431640625e+01 -1.512424659729003906e+01 -1.009244192391633987e-02 -2.096403203904628754e-02 -9.316942654550075531e-03 -8.926488459110260010e-03
5.210000000000000000e+03 7.662574768066406250e+01 -1.525570678710937500e+01 -3.075949102640151978e-02 -1.715937256813049316e-02 -1.437565870583057404e-02 -1.856242492794990540e-02
5.211000000000000000e+03 7.725820159912109375e+01 -1.518011665344238281e+01 -1.607891172170639038e-02 3.760020714253187180e-03 -3.695667022839188576e-03 -1.196760684251785278e-02
5.212000000000000000e+03 7.888636779785156250e+01 -1.611222648620605469e+01 6.404025014489889145e-03 -5.869695451110601425e-03 1.602987904334440827e-04 2.567228861153125763e-03
5.213000000000000000e+03 7.888313293457031250e+01 -1.558502388000488281e+01 5.967917852103710175e-03 5.888961255550384521e-03 3.557063639163970947e-03 2.568669617176055908e-03
5.214000000000000000e+03 7.663484954833984375e+01 -1.599727630615234375e+01 3.589614294469356537e-03 6.454271264374256134e-03 3.013165667653083801e-03 -4.935987293720245361e-03
5.215000000000000000e+03 7.962244415283203125e+01 -1.590537452697753906e+01 1.321396906860172749e-03 5.193204618990421295e-03 1.954380422830581665e-03 2.551655983552336693e-03
5.216000000000000000e+03 7.827157592773437500e+01 -1.562149429321289062e+01 -1.169922416011104360e-05 -5.088241305202245712e-03 -1.529982080683112144e-03 5.938679911196231842e-03
5.217000000000000000e+03 7.741748809814453125e+01 -1.606798362731933594e+01 1.210897322744131088e-02 -8.564015850424766541e-03 1.063487143255770206e-03 -4.156294744461774826e-03
5.218000000000000000e+03 7.816462707519531250e+01 -1.613920974731445312e+01 1.471282541751861572e-02 5.296695977449417114e-03 6.002856418490409851e-03 2.860392443835735321e-03
5.219000000000000000e+03 7.763186645507812500e+01 -1.553283691406250000e+01 -9.572487324476242065e-03 -7.251852191984653473e-03 -5.047301761806011200e-03 -5.243363790214061737e-03
5.220000000000000000e+03 7.896445465087890625e+01 -1.517584800720214844e+01 -5.191065371036529541e-03 7.012153975665569305e-03 5.463264533318579197e-04 1.051453128457069397e-02
5.221000000000000000e+03 7.435244750976562500e+01 -1.591604232788085938e+01 -5.749092623591423035e-02 -1.064924709498882294e-02 -2.044205181300640106e-02 -1.010913774371147156e-02
5.222000000000000000e+03 7.588006591796875000e+01 -1.523305606842041016e+01 -4.884745180606842041e-02 5.135137122124433517e-03 -1.311369426548480988e-02 -2.594173140823841095e-02
5.223000000000000000e+03 7.359722137451171875e+01 -1.514822292327880859e+01 -1.225107312202453613e-01 -1.519521698355674744e-03 -3.720907494425773621e-02 -3.056465834379196167e-02
5.224000000000000000e+03 7.510590362548828125e+01 -1.594404602050781250e+01 -3.335351496934890747e-02 1.105781365185976028e-02 -6.688710767775774002e-03 -1.027053594589233398e-02
5.225000000000000000e+03 7.359909057617187500e+01 -1.588880252838134766e+01 -8.524444699287414551e-02 9.019366465508937836e-03 -2.286752313375473022e-02 -1.323330681771039963e-02
5.226000000000000000e+03 7.435808563232421875e+01 -1.517574119567871094e+01 -9.863218665122985840e-02 5.938610993325710297e-03 -2.780807204544544220e-02 -3.958735615015029907e-02
5.227000000000000000e+03 7.585942077636718750e+01 -1.597279930114746094e+01 -1.205217372626066208e-02 -1.078534219413995743e-02 -6.851254962384700775e-03 -9.697902016341686249e-03
5.228000000000000000e+03 7.511904144287109375e+01 -1.520402336120605469e+01 -6.929901987314224243e-02 -1.052763964980840683e-02 -2.394799701869487762e-02 -3.133818879723548889e-02
5.229000000000000000e+03 7.132652282714843750e+01 -1.597409629821777344e+01 -1.033754125237464905e-01 7.243957370519638062e-04 -3.079530596733093262e-02 1.264975988306105137e-03
5.230000000000000000e+03 7.056670379638671875e+01 -1.601350212097167969e+01 -8.088079839944839478e-02 1.027611736208200455e-02 -2.118140459060668945e-02 1.018727757036685944e-02
5.231000000000000000e+03 7.208541107177734375e+01 -1.593443489074707031e+01 -1.076697036623954773e-01 6.299573928117752075e-03 -3.041104041039943695e-02 -7.258585188537836075e-03
5.232000000000000000e+03 7.284317016601562500e+01 -1.589438438415527344e+01 -1.048429682850837708e-01 -5.024285521358251572e-03 -3.296017646789550781e-02 -8.307470008730888367e-03
5.233000000000000000e+03 7.282823944091796875e+01 -1.515415287017822266e+01 -1.433844864368438721e-01 8.656762540340423584e-03 -4.041831940412521362e-02 -3.256874531507492065e-02
5.234000000000000000e+03 7.049587249755859375e+01 -1.527619743347167969e+01 -1.730759739875793457e-01 3.580953180789947510e-02 -4.117993265390396118e-02 2.603951282799243927e-02
5.235000000000000000e+03 7.127433013916015625e+01 -1.523581504821777344e+01 -1.679232120513916016e-01 1.209619082510471344e-02 -4.674810916185379028e-02 -1.074581290595233440e-03
5.236000000000000000e+03 7.205184173583984375e+01 -1.519517898559570312e+01 -1.660288721323013306e-01 1.270968466997146606e-02 -4.599575698375701904e-02 -1.047150697559118271e-02
5.237000000000000000e+03 6.817024993896484375e+01 -1.550610160827636719e+01 -4.292320087552070618e-02 -7.746509462594985962e-02 -3.611648827791213989e-02 7.341818511486053467e-02
5.238000000000000000e+03 6.846852111816406250e+01 -1.537384891510009766e+01 -8.629664778709411621e-02 -4.931499809026718140e-02 -4.068349301815032959e-02 7.839633524417877197e-02
5.239000000000000000e+03 6.969725036621093750e+01 -1.535203933715820312e+01 -1.646003127098083496e-01 -1.296105980873107910e-02 -5.326841026544570923e-02 2.797377854585647583e-02
5.240000000000000000e+03 6.900823211669921875e+01 -1.536187553405761719e+01 -7.127792388200759888e-02 1.429289765655994415e-02 -1.709550805389881134e-02 7.296019792556762695e-02
5.241000000000000000e+03 6.970433807373046875e+01 -1.610097312927246094e+01 -3.506314009428024292e-02 1.412221579812467098e-03 -1.009527593851089478e-02 1.932361535727977753e-02
5.242000000000000000e+03 6.807101440429687500e+01 -1.580119132995605469e+01 6.571331620216369629e-02 7.163854688405990601e-02 4.120555892586708069e-02 -2.278183959424495697e-02
5.243000000000000000e+03 6.868652343750000000e+01 -1.567752170562744141e+01 -1.845347136259078979e-02 -1.368477009236812592e-02 -9.641472250223159790e-03 7.571997493505477905e-02
5.244000000000000000e+03 6.877530670166015625e+01 -1.623340034484863281e+01 -1.337899453938007355e-02 -2.821686677634716034e-02 -1.247875858098268509e-02 -1.327414531260728836e-02
5.245000000000000000e+03 6.846734619140625000e+01 -1.765766716003417969e+01 -9.115995453612413257e-06 -2.165298974432516843e-05 -9.230695468431804329e-06 5.353976666810922325e-05
5.246000000000000000e+03 6.902794647216796875e+01 -1.774423980712890625e+01 -3.200515493517741561e-05 -1.092926822821027599e-06 -9.929424777510575950e-06 -5.578741820499999449e-06
5.247000000000000000e+03 6.989218139648437500e+01 -1.761616897583007812e+01 6.170284177642315626e-05 6.655847391812130809e-05 3.847839616355486214e-05 5.010035602026619017e-05
5.248000000000000000e+03 6.980416870117187500e+01 -1.688065528869628906e+01 8.586196599935647100e-06 -4.389668902149423957e-05 -1.059314763551810756e-05 2.990401662827935070e-05
5.249000000000000000e+03 6.892420196533203125e+01 -1.701133537292480469e+01 3.865819235215894878e-05 6.821287388447672129e-05 3.206131805200129747e-05 -2.102110920532140881e-05
5.250000000000000000e+03 1.639982223510742188e+01 -2.317397296428680420e-01 -6.433506011962890625e-01 -2.031321451067924500e-02 -1.990991383790969849e-01 -9.825108945369720459e-02
5.251000000000000000e+03 1.798723983764648438e+01 -8.314419388771057129e-01 -7.226375937461853027e-01 -4.708220064640045166e-02 -2.309159338474273682e-01 -2.152932137250900269e-01
5.252000000000000000e+03 1.645354080200195312e+01 -9.699125885963439941e-01 -5.552566051483154297e-01 -4.119414836168289185e-02 -1.789352297782897949e-01 -1.739461123943328857e-01
5.253000000000000000e+03 1.875374794006347656e+01 -7.599936723709106445e-01 -7.816292643547058105e-01 -6.311788409948348999e-02 -2.534241378307342529e-01 -2.261170297861099243e-01
5.254000000000000000e+03 1.790756225585937500e+01 -9.563824534416198730e-02 -8.317126035690307617e-01 -2.232538722455501556e-02 -2.562114000320434570e-01 -1.298915892839431763e-01
5.255000000000000000e+03 1.866109085083007812e+01 -2.537456899881362915e-02 -9.541833996772766113e-01 -3.279246762394905090e-02 -2.960927486419677734e-01 -1.577265560626983643e-01
5.256000000000000000e+03 1.715376663208007812e+01 -1.644264459609985352e-01 -7.305136322975158691e-01 -1.546943653374910355e-02 -2.237949073314666748e-01 -1.150079667568206787e-01
5.257000000000000000e+03 1.722046470642089844e+01 -9.014146924018859863e-01 -6.395308375358581543e-01 -4.259697720408439636e-02 -2.046383470296859741e-01 -1.932095587253570557e-01
5.258000000000000000e+03 1.941230964660644531e+01 7.625918835401535034e-02 -1.026522040367126465e+00 -4.902239143848419189e-02 -3.226633369922637939e-01 -1.893514990806579590e-01
5.259000000000000000e+03 2.090952491760253906e+01 3.449267148971557617e-01 -1.053756356239318848e+00 -2.776574902236461639e-02 -3.244566321372985840e-01 -1.855691075325012207e-01
5.260000000000000000e+03 1.952174568176269531e+01 -6.559218764305114746e-01 -8.526608943939208984e-01 -4.983104765415191650e-02 -2.707475721836090088e-01 -2.147927731275558472e-01
5.261000000000000000e+03 2.106011390686035156e+01 -3.798714280128479004e-01 -9.618514776229858398e-01 8.158355951309204102e-03 -2.861079573631286621e-01 -1.840593367815017700e-01
5.262000000000000000e+03 2.183077621459960938e+01 -2.417316585779190063e-01 -9.700338840484619141e-01 5.830545723438262939e-02 -2.735185325145721436e-01 -1.117933988571166992e-01
5.263000000000000000e+03 2.165959548950195312e+01 4.794237911701202393e-01 -1.034999847412109375e+00 -1.520812511444091797e-02 -3.150624036788940430e-01 -1.675375401973724365e-01
5.264000000000000000e+03 2.016033744812011719e+01 2.105962187051773071e-01 -1.042542219161987305e+00 -2.762698940932750702e-02 -3.210507929325103760e-01 -1.996496021747589111e-01
5.265000000000000000e+03 2.029035186767578125e+01 -5.178933739662170410e-01 -9.225099086761474609e-01 -2.500779367983341217e-02 -2.842553257942199707e-01 -2.045599222183227539e-01
5.266000000000000000e+03 2.655191993713378906e+01 1.211927890777587891e+00 2.756280899047851562e-01 1.047484278678894043e-01 1.141129508614540100e-01 -1.804658472537994385e-01
5.267000000000000000e+03 2.642835426330566406e+01 1.133576512336730957e+00 1.497783660888671875e-01 8.196265250444412231e-02 6.952230632305145264e-02 -1.433726847171783447e-01
5.268000000000000000e+03 2.606766891479492188e+01 1.098246335983276367e+00 1.056451424956321716e-01 2.723870985209941864e-02 3.986515477299690247e-02 -9.151463210582733154e-02
5.269000000000000000e+03 2.582571220397949219e+01 1.493316173553466797e+00 2.679480314254760742e-01 3.273566439747810364e-02 9.020511060953140259e-02 -1.208083480596542358e-01
5.270000000000000000e+03 2.501582145690917969e+01 5.861303806304931641e-01 -4.969777762889862061e-01 -2.093114107847213745e-01 -2.118867486715316772e-01 3.120462298393249512e-01
5.271000000000000000e+03 2.419348907470703125e+01 1.309267878532409668e+00 -1.015422269701957703e-01 4.291870072484016418e-02 -1.758705824613571167e-02 1.076329648494720459e-01
5.272000000000000000e+03 2.509922599792480469e+01 7.193784713745117188e-01 -4.807992875576019287e-01 -1.473403126001358032e-01 -1.884418725967407227e-01 2.332375794649124146e-01
5.273000000000000000e+03 2.335133743286132812e+01 9.742200970649719238e-01 -4.408741593360900879e-01 6.219866126775741577e-02 -1.136026456952095032e-01 2.673340588808059692e-02
5.274000000000000000e+03 2.246587944030761719e+01 6.890802979469299316e-01 -8.217291831970214844e-01 2.686863951385021210e-02 -2.384581565856933594e-01 -9.406916797161102295e-02
5.275000000000000000e+03 2.265129470825195312e+01 -3.019443526864051819e-02 -1.007754921913146973e+00 1.735996305942535400e-01 -2.502465844154357910e-01 -1.161865983158349991e-02
5.276000000000000000e+03 2.354462623596191406e+01 2.551128566265106201e-01 -9.395083189010620117e-01 1.923447996377944946e-01 -2.241490483283996582e-01 1.318582445383071899e-01
5.277000000000000000e+03 2.584380340576171875e+01 1.124831318855285645e+00 7.235813885927200317e-02 -6.138463318347930908e-02 3.292051842436194420e-03 -2.718196995556354523e-02
5.278000000000000000e+03 2.487414550781250000e+01 4.951079189777374268e-01 -5.986335277557373047e-01 -1.695969104766845703e-01 -2.304691225290298462e-01 3.414884507656097412e-01
5.279000000000000000e+03 2.494935035705566406e+01 1.589968442916870117e+00 1.527826189994812012e-01 -4.435956478118896484e-02 3.252691403031349182e-02 5.015301331877708435e-02
5.280000000000000000e+03 2.549102401733398438e+01 1.621851563453674316e+00 1.833629906177520752e-01 -2.575653232634067535e-02 4.728193953633308411e-02 -4.965147003531455994e-02
5.281000000000000000e+03 2.559309387207031250e+01 1.118039727210998535e+00 5.484377220273017883e-02 -1.035795509815216064e-01 -1.462073437869548798e-02 2.393429540097713470e-02
5.282000000000000000e+03 2.540032577514648438e+01 1.009757041931152344e+00 -5.242620408535003662e-02 -1.449438929557800293e-01 -5.921102687716484070e-02 6.321443617343902588e-02
5.283000000000000000e+03 2.625621414184570312e+01 1.101973772048950195e+00 1.424039155244827271e-01 4.587899520993232727e-02 5.648487433791160583e-02 -1.333514004945755005e-01
5.284000000000000000e+03 2.504071807861328125e+01 1.115116357803344727e+00 -7.140310853719711304e-02 -1.270411461591720581e-01 -5.953327566385269165e-02 8.771584182977676392e-02
5.285000000000000000e+03 2.523330116271972656e+01 8.552555441856384277e-01 -2.662435173988342285e-01 -1.626691818237304688e-01 -1.286738067865371704e-01 1.245776116847991943e-01
5.286000000000000000e+03 2.457161521911621094e+01 8.719542026519775391e-01 -4.051208794116973877e-01 9.309502202086150646e-04 -1.212569773197174072e-01 1.591840237379074097e-01
5.287000000000000000e+03 2.627415084838867188e+01 1.360334515571594238e+00 3.473345339298248291e-01 9.289404749870300293e-02 1.320685744285583496e-01 -1.830108910799026489e-01
5.288000000000000000e+03 2.609403038024902344e+01 1.311385989189147949e+00 2.690515816211700439e-01 6.644874811172485352e-02 1.006501019001007080e-01 -1.413945108652114868e-01
5.289000000000000000e+03 2.439571952819824219e+01 4.309497177600860596e-01 -7.423382997512817383e-01 7.774915546178817749e-02 -1.993767321109771729e-01 2.140195667743682861e-01
5.290000000000000000e+03 2.488675880432128906e+01 6.897756457328796387e-01 -5.385681390762329102e-01 -1.614274680614471436e-01 -2.099986970424652100e-01 2.861640751361846924e-01
5.291000000000000000e+03 2.337566375732421875e+01 2.629750251770019531e+00 7.187286428234074265e-06 1.039686230797087774e-05 5.275244348013075069e-06 -6.982709805924969260e-07
5.292000000000000000e+03 2.201377296447753906e+01 2.125266075134277344e+00 1.870644268819887657e-06 1.335046727035660297e-05 4.566333245747955516e-06 -1.991198587347753346e-06
5.293000000000000000e+03 2.225197982788085938e+01 1.423350930213928223e+00 -5.795373567707429174e-07 -1.126302504417253658e-05 -3.552768703229958192e-06 1.728604161144176032e-06
5.294000000000000000e+03 2.309097290039062500e+01 1.672813296318054199e+00 9.097735755858593620e-07 7.432658549078041688e-06 2.502729557818383910e-06 -1.114513338507094886e-06
5.295000000000000000e+03 2.428779029846191406e+01 2.625434398651123047e+00 7.111097602319205180e-06 -2.144679228877066635e-06 1.489925466557906475e-06 -2.065202352241612971e-06
5.296000000000000000e+03 2.478089141845703125e+01 2.056442260742187500e+00 2.038367711065802723e-06 2.368100922467419878e-06 1.321940544585231692e-06 1.461742044739366975e-06
5.297000000000000000e+03 2.395736885070800781e+01 2.308834791183471680e+00 -9.655268513597548008e-06 -3.636896963143954054e-06 -3.987649506598245353e-06 -8.269375939562451094e-07
5.298000000000000000e+03 2.392651367187500000e+01 2.926619052886962891e+00 2.955306172225391492e-06 -2.249104682050528936e-06 2.118603958933817921e-07 3.375397909621824510e-06
5.299000000000000000e+03 2.456351280212402344e+01 2.352871417999267578e+00 -7.131771326385205612e-06 4.718054640306945657e-07 -1.997989784285891801e-06 -3.254218427173327655e-06
5.300000000000000000e+03 2.273927497863769531e+01 2.339991807937622070e+00 -3.700915385707048699e-06 -1.062707178789423779e-05 -4.298396106605650857e-06 2.530512801968143322e-06
5.301000000000000000e+03 2.395885276794433594e+01 1.871361255645751953e+00 1.729711698317260016e-06 -4.762738171848468482e-06 -9.099078965846274514e-07 2.973025630126358010e-07
5.302000000000000000e+03 2.075237083435058594e+01 1.106616377830505371e+00 -2.252249259981908835e-06 -1.793535375327337533e-05 -6.056281108612893149e-06 2.768396598185063340e-06
5.303000000000000000e+03 2.060178184509277344e+01 1.831414580345153809e+00 1.937594106493634172e-06 1.652293212828226388e-05 5.538157893170136958e-06 -3.156307457174989395e-06
5.304000000000000000e+03 2.130817413330078125e+01 1.960395336151123047e+00 -6.458495818151277490e-07 -1.582491677254438400e-05 -4.941229690302861854e-06 1.268651544705790002e-06
5.305000000000000000e+03 1.918785858154296875e+01 1.579434752464294434e+00 2.356324330321513116e-06 2.052331728918943554e-05 6.863892394903814420e-06 -2.445835889375302941e-06
5.306000000000000000e+03 1.989505195617675781e+01 1.704050064086914062e+00 -3.053638010896975175e-06 -1.889892882900312543e-05 -6.585769824596354738e-06 1.264477305085165426e-06
5.307000000000000000e+03 1.929729461669921875e+01 8.472537398338317871e-01 -3.596542001105262898e-06 -2.177586975449230522e-05 -7.611723503941902891e-06 2.005689793804776855e-06
5.308000000000000000e+03 2.147934150695800781e+01 1.239288687705993652e+00 4.423868062986002769e-07 1.556652205181308091e-05 4.802672719961265102e-06 -3.326427531646913849e-06
5.309000000000000000e+03 2.002506446838378906e+01 9.755603671073913574e-01 -3.261633594320301199e-07 1.943915412994101644e-05 5.733897523896303028e-06 -3.737156703209620900e-06
5.310000000000000000e+03 1.701650238037109375e+01 1.350294589996337891e+00 -3.543162392816157080e-06 -2.427530125714838505e-05 -8.345538844878319651e-06 2.095745912811253220e-06
5.311000000000000000e+03 1.708320045471191406e+01 6.133062839508056641e-01 -2.367465413044556044e-06 2.743756704148836434e-05 7.521030511270510033e-06 -2.555392939029843546e-06
5.312000000000000000e+03 1.634315681457519531e+01 5.465459823608398438e-01 -4.323176653997506946e-06 -2.875046448025386781e-05 -9.922092431224882603e-06 2.080835884044063278e-06
5.313000000000000000e+03 1.782329559326171875e+01 6.808430552482604980e-01 -4.495266693993471563e-06 -2.554870661697350442e-05 -9.013191629492212087e-06 2.013365246966714039e-06
5.314000000000000000e+03 1.847070503234863281e+01 1.483781576156616211e+00 -3.106623125859186985e-06 -2.171158666897099465e-05 -7.445462870236951858e-06 8.106081850201007910e-07
5.315000000000000000e+03 1.856336212158203125e+01 7.491624951362609863e-01 -1.883442791950074024e-06 2.366396438446827233e-05 6.534156455018091947e-06 -3.117410869890591130e-06
5.316000000000000000e+03 1.628943824768066406e+01 1.284718871116638184e+00 3.226305580028565601e-06 2.752924410742707551e-05 9.226665497408248484e-06 -3.755206705591263017e-07
5.317000000000000000e+03 1.774361801147460938e+01 1.416646718978881836e+00 1.535074034109129570e-06 2.388533357589039952e-05 7.626122169313021004e-06 -2.075880729535128921e-06
5.318000000000000000e+03 1.408120155334472656e+01 1.187072157859802246e+00 1.709321622911375016e-06 -2.806370866892393678e-05 -7.906315659056417644e-06 7.082483534759376198e-06
5.319000000000000000e+03 1.410851097106933594e+01 4.475762248039245605e-01 3.788046115005272441e-06 3.228324203519150615e-05 1.082138714991742745e-05 -3.815475793089717627e-07
5.320000000000000000e+03 1.336430931091308594e+01 4.183164834976196289e-01 4.107026143174152821e-06 -3.219454447389580309e-05 -8.426255590165965259e-06 3.416769231989746913e-06
5.321000000000000000e+03 1.485382461547851562e+01 4.748390913009643555e-01 -1.179810055873531383e-06 -3.109547469648532569e-05 -9.682586096459999681e-06 3.145642267554649152e-06
5.322000000000000000e+03 1.555697250366210938e+01 1.239178419113159180e+00 -1.466190497012576088e-06 -2.605315967230126262e-05 -8.255805369117297232e-06 4.209199687466025352e-06
5.323000000000000000e+03 1.560021686553955078e+01 5.002670884132385254e-01 -9.772721796252881177e-07 3.067549550905823708e-05 8.909466487239114940e-06 -1.221527895722829271e-06
5.324000000000000000e+03 1.334496879577636719e+01 1.158104777336120605e+00 1.258500469702994451e-05 3.064779593842104077e-05 1.296984009968582541e-05 2.712637979129794985e-06
5.325000000000000000e+03 1.481854820251464844e+01 1.214042663574218750e+00 5.827308086736593395e-06 2.921007035183720291e-05 1.051121398631948978e-05 1.088971202989341691e-06
5.326000000000000000e+03 1.111325168609619141e+01 1.138490676879882812e+00 1.268189953407272696e-05 -3.284607373643666506e-05 -6.049252078810241073e-06 7.269732577697141096e-06
5.327000000000000000e+03 1.186833381652832031e+01 4.020517766475677490e-01 1.208868343383073807e-05 -3.311982800369150937e-05 -6.309343007160350680e-06 3.479937731754034758e-06
5.328000000000000000e+03 1.037295722961425781e+01 3.924405574798583984e-01 1.944345785886980593e-05 -3.597047543735243380e-05 -4.958104909746907651e-06 1.975257418962428346e-06
5.329000000000000000e+03 1.260390949249267578e+01 1.143149375915527344e+00 7.462744633812690154e-06 -2.996194052684586495e-05 -6.749758995283627883e-06 8.279786015918944031e-06
5.330000000000000000e+03 1.261756992340087891e+01 4.032067656517028809e-01 1.071272708941251040e-05 3.280110468040220439e-05 1.305414934904547408e-05 7.515174047512118705e-07
5.331000000000000000e+03 1.036947441101074219e+01 1.132432341575622559e+00 2.681550540728494525e-05 3.164548252243548632e-05 1.753829565132036805e-05 3.434462314544362016e-06
5.332000000000000000e+03 1.185806560516357422e+01 1.142010807991027832e+00 1.962941678357310593e-05 3.122436464764177799e-05 1.525613424746552482e-05 3.867640316457254812e-06
5.333000000000000000e+03 1.112012767791748047e+01 3.985152244567871094e-01 1.958113534783478826e-05 3.403559821890667081e-05 1.608501952432561666e-05 1.224202492267068010e-06
5.334000000000000000e+03 8.771651268005371094e+00 3.881228864192962646e-01 2.374922587478067726e-05 -3.529804962454363704e-05 -3.464647306827828288e-06 -3.705752646965265740e-07
5.335000000000000000e+03 8.818146705627441406e+00 1.128122925758361816e+00 3.126590672763995826e-05 2.883680826926138252e-05 1.803081431717146188e-05 -3.283714704593876377e-07
5.336000000000000000e+03 7.953170776367187500e+00 3.921383917331695557e-01 2.878466693800874054e-05 3.420140637899748981e-05 1.889582199510186911e-05 1.296988557442091405e-06
5.337000000000000000e+03 6.319846630096435547e+00 3.892590403556823730e-01 2.551486250013113022e-05 3.195638782926835120e-05 1.724137473502196372e-05 2.388224402238847688e-06
5.338000000000000000e+03 5.502897262573242188e+00 3.910058438777923584e-01 1.326498841081047431e-05 -3.120562178082764149e-05 -5.382189556257799268e-06 -7.119544534361921251e-06
5.339000000000000000e+03 4.685476779937744141e+00 3.909447193145751953e-01 1.718239400361198932e-05 2.990446228068321943e-05 1.412605706718750298e-05 3.645772949312231503e-06
5.340000000000000000e+03 3.050973415374755859e+00 3.907458484172821045e-01 2.589983978396048769e-06 2.147937993868254125e-05 7.220809038699371740e-06 -1.254212975254631601e-06
5.341000000000000000e+03 2.234469175338745117e+00 3.876248300075531006e-01 1.171989242720883340e-05 -4.999787961423862725e-06 2.016031430684961379e-06 1.123847687267698348e-05
5.342000000000000000e+03 2.538473606109619141e+00 1.127624869346618652e+00 -1.444585541321430355e-05 1.938437162607442588e-05 1.481555045756977051e-06 -2.239562491013202816e-05
5.343000000000000000e+03 1.768125653266906738e+00 1.127171397209167480e+00 1.735792466206476092e-05 -1.449381215934408829e-05 8.592338076596206520e-07 3.047567588509991765e-05
5.344000000000000000e+03 1.067988038063049316e+00 1.148616075515747070e+00 -3.382003706065006554e-05 3.455363548710010946e-05 2.200792863504830166e-07 -2.520390444260556251e-05
5.345000000000000000e+03 6.996063590049743652e-01 4.086160361766815186e-01 7.015341543592512608e-05 5.366827099351212382e-05 3.714650665642693639e-05 6.122203922132030129e-05
5.346000000000000000e+03 3.732481598854064941e-01 9.636608362197875977e-01 -6.819719419581815600e-05 -4.249764242558740079e-05 -3.320845280541107059e-05 -3.328009188408032060e-05
5.347000000000000000e+03 3.322789192199707031e+00 1.130745887756347656e+00 1.477799378335475922e-05 -1.331000203208532184e-05 4.403975140121474396e-07 6.239146841835463420e-06
5.348000000000000000e+03 3.868146419525146484e+00 3.889868557453155518e-01 3.986867795902071521e-06 -2.756005778792314231e-05 -7.071957043081056327e-06 -7.332902441703481600e-06
5.349000000000000000e+03 5.678146839141845703e+00 1.131005883216857910e+00 2.695551302167586982e-05 2.259129723825026304e-05 1.486404289607889950e-05 -7.518000984418904409e-06
5.350000000000000000e+03 7.247090816497802734e+00 1.132560849189758301e+00 3.223840758437290788e-05 2.679874160094186664e-05 1.771114511939231306e-05 -4.657594217860605568e-06
5.351000000000000000e+03 7.136218547821044922e+00 3.925608992576599121e-01 2.150189720850903541e-05 -3.378077963134273887e-05 -3.683664999698521569e-06 -3.652824489108752459e-06
5.352000000000000000e+03 8.031854629516601562e+00 1.132138371467590332e+00 1.887017242552246898e-05 -3.134373037028126419e-05 -3.742067519851843826e-06 1.428754103471874259e-06
5.353000000000000000e+03 9.590107917785644531e+00 3.879971206188201904e-01 2.631851020851172507e-05 3.403103255550377071e-05 1.810486355680041015e-05 1.404204340360593051e-06
5.354000000000000000e+03 9.604414939880371094e+00 1.127997159957885742e+00 1.812758637242950499e-05 -3.217010817024856806e-05 -4.212756266497308388e-06 4.634833203454036266e-06
5.355000000000000000e+03 6.462907791137695312e+00 1.129258990287780762e+00 1.380796584271593019e-05 -2.751164356595836580e-05 -4.111103407922200859e-06 -2.762748636087053455e-06
5.356000000000000000e+03 4.892915248870849609e+00 1.130944728851318359e+00 7.640321200597099960e-06 -2.037980630120728165e-05 -3.821845439233584329e-06 -3.967442808061605319e-06
5.357000000000000000e+03 4.107773303985595703e+00 1.128986835479736328e+00 1.405815328325843439e-05 1.696891558822244406e-05 9.308120752393733710e-06 -1.155796962848398834e-05
5.358000000000000000e+03 1.431932568550109863e+00 3.871713578701019287e-01 -1.009968218568246812e-05 -1.701977089396677911e-05 -8.135835741995833814e-06 -2.378805402258876711e-05
5.359000000000000000e+03 1.338494110107421875e+01 -3.624081611633300781e-01 -2.972173690795898438e-01 -5.757507868111133575e-03 -9.089246392250061035e-02 -4.158468171954154968e-02
5.360000000000000000e+03 1.492772197723388672e+01 -1.047161340713500977e+00 -4.113954305648803711e-01 -2.793584950268268585e-02 -1.317993849515914917e-01 -1.381005197763442993e-01
5.361000000000000000e+03 1.340428161621093750e+01 -1.102196455001831055e+00 -2.830080986022949219e-01 -2.022103592753410339e-02 -9.096873551607131958e-02 -1.002762615680694580e-01
5.362000000000000000e+03 1.489244556427001953e+01 -3.079577088356018066e-01 -4.469457864761352539e-01 -7.620730902999639511e-03 -1.363699585199356079e-01 -6.064917147159576416e-02
5.363000000000000000e+03 1.568929195404052734e+01 -1.018365263938903809e+00 -4.778954088687896729e-01 -3.737080097198486328e-02 -1.545798629522323608e-01 -1.605777293443679810e-01
5.364000000000000000e+03 1.564604759216308594e+01 -2.794539332389831543e-01 -5.478303432464599609e-01 -1.339258532971143723e-02 -1.683668792247772217e-01 -7.642780989408493042e-02
5.365000000000000000e+03 1.413872909545898438e+01 -3.356079757213592529e-01 -3.654657900333404541e-01 -6.516582332551479340e-03 -1.115947142243385315e-01 -5.048318952322006226e-02
5.366000000000000000e+03 1.416603755950927734e+01 -1.075103878974914551e+00 -3.437097072601318359e-01 -2.186000347137451172e-02 -1.096709072589874268e-01 -1.175327897071838379e-01
5.367000000000000000e+03 1.037684440612792969e+01 -3.884835243225097656e-01 -9.606003761291503906e-02 -1.268044463358819485e-03 -2.919842302799224854e-02 -1.690100505948066711e-02
5.368000000000000000e+03 1.189073276519775391e+01 -1.121461629867553711e+00 -1.860236674547195435e-01 -1.294237468391656876e-02 -5.968981236219406128e-02 -7.139615714550018311e-02
5.369000000000000000e+03 1.038032817840576172e+01 -1.128475308418273926e+00 -1.120615452527999878e-01 -9.148165583610534668e-03 -3.636291250586509705e-02 -4.834902659058570862e-02
5.370000000000000000e+03 1.264584636688232422e+01 -1.117530822753906250e+00 -2.302510440349578857e-01 -1.588184200227260590e-02 -7.383986562490463257e-02 -8.613239973783493042e-02
5.371000000000000000e+03 1.188046455383300781e+01 -3.815026283264160156e-01 -1.782518029212951660e-01 -2.124789869412779808e-03 -5.411297827959060669e-02 -2.554019540548324585e-02
5.372000000000000000e+03 1.263218593597412109e+01 -3.775882422924041748e-01 -2.348263263702392578e-01 -4.990085493773221970e-03 -7.194492220878601074e-02 -3.235501423478126526e-02
5.373000000000000000e+03 1.112868118286132812e+01 -3.851337432861328125e-01 -1.331147253513336182e-01 -2.774442080408334732e-03 -4.076674953103065491e-02 -2.074475400149822235e-02
5.374000000000000000e+03 1.113555717468261719e+01 -1.125109195709228516e+00 -1.455637812614440918e-01 -9.347840212285518646e-03 -4.647348821163177490e-02 -5.902440845966339111e-02
5.375000000000000000e+03 9.624593734741210938e+00 -1.131355285644531250e+00 -8.366133272647857666e-02 -6.754881702363491058e-03 -2.712486498057842255e-02 -3.945390135049819946e-02
5.376000000000000000e+03 9.636611938476562500e+00 -3.913553059101104736e-01 -6.643617153167724609e-02 -2.163074444979429245e-03 -2.057977393269538879e-02 -1.355658005923032761e-02
5.377000000000000000e+03 8.908035278320312500e+00 -3.932945430278778076e-01 -4.295872151851654053e-02 -7.777396240271627903e-04 -1.312093809247016907e-02 -1.073709595948457718e-02
5.378000000000000000e+03 8.179648399353027344e+00 -3.947979807853698730e-01 -2.465324290096759796e-02 -1.753305317834019661e-03 -7.921964861452579498e-03 -8.344492875039577484e-03
5.379000000000000000e+03 7.451354026794433594e+00 -3.965992927551269531e-01 -1.064035110175609589e-02 -5.874851485714316368e-04 -3.368350910022854805e-03 -6.034059915691614151e-03
5.380000000000000000e+03 6.723036766052246094e+00 -3.981454968452453613e-01 -6.570830009877681732e-04 -1.255994779057800770e-03 -5.739233456552028656e-04 -4.346228670328855515e-03
5.381000000000000000e+03 5.994731426239013672e+00 -3.993945717811584473e-01 6.359485909342765808e-03 -3.788533504121005535e-04 1.794189796783030033e-03 -2.683215541765093803e-03
5.382000000000000000e+03 5.266466140747070312e+00 -4.014726877212524414e-01 1.044362224638462067e-02 -1.041459152474999428e-03 2.820649184286594391e-03 -1.456006662920117378e-03
5.383000000000000000e+03 4.538172721862792969e+00 -4.045463800430297852e-01 1.241186540573835373e-02 -2.134634996764361858e-05 3.717155894264578819e-03 -2.398534415988251567e-04
5.384000000000000000e+03 3.810027122497558594e+00 -4.076895117759704590e-01 1.232587266713380814e-02 -1.048911246471107006e-03 3.383088624104857445e-03 4.856644663959741592e-04
5.385000000000000000e+03 3.082192897796630859e+00 -4.105251729488372803e-01 1.078070327639579773e-02 8.334563608514145017e-05 3.259214572608470917e-03 1.706617884337902069e-03
5.386000000000000000e+03 2.355662584304809570e+00 -4.111475944519042969e-01 7.557037286460399628e-03 -2.849287411663681269e-04 2.181632677093148232e-03 1.787684392184019089e-03
5.387000000000000000e+03 1.642585277557373047e+00 -4.047921001911163330e-01 4.387019202113151550e-03 7.484154193662106991e-04 1.540630357339978218e-03 1.733849057927727699e-03
5.388000000000000000e+03 6.508445143699645996e-01 -1.120625138282775879e+00 9.691445156931877136e-04 1.704381196759641171e-03 8.020576788112521172e-04 1.852140063419938087e-03
5.389000000000000000e+03 8.868407249450683594e+00 -1.133294582366943359e+00 -6.043006852269172668e-02 -7.125511299818754196e-03 -2.026667445898056030e-02 -3.138141334056854248e-02
5.390000000000000000e+03 8.112410545349121094e+00 -1.134797930717468262e+00 -4.153205454349517822e-02 -5.229188129305839539e-03 -1.402837224304676056e-02 -2.403749711811542511e-02
5.391000000000000000e+03 7.356505870819091797e+00 -1.136599302291870117e+00 -2.722535096108913422e-02 -5.290158558636903763e-03 -9.754653088748455048e-03 -1.801602169871330261e-02
5.392000000000000000e+03 6.600578308105468750e+00 -1.138145565986633301e+00 -1.585734821856021881e-02 -3.637693356722593307e-03 -5.848512519150972366e-03 -1.255187112838029861e-02
5.393000000000000000e+03 5.844663143157958984e+00 -1.139394640922546387e+00 -8.227205835282802582e-03 -3.702636575326323509e-03 -3.578952513635158539e-03 -8.248088881373405457e-03
5.394000000000000000e+03 5.088787555694580078e+00 -1.141472697257995605e+00 -2.428306266665458679e-03 -2.477989764884114265e-03 -1.471888856031000614e-03 -4.636756610125303268e-03
5.395000000000000000e+03 4.332883834838867188e+00 -1.144546389579772949e+00 8.124681771732866764e-04 -2.670110436156392097e-03 -5.572927184402942657e-04 -1.433134661056101322e-03
5.396000000000000000e+03 3.577128171920776367e+00 -1.147689461708068848e+00 2.455996582284569740e-03 -1.681604539044201374e-03 2.323175722267478704e-04 1.119917724281549454e-03
5.397000000000000000e+03 2.821683883666992188e+00 -1.150525212287902832e+00 2.973993076011538506e-03 -1.884950790554285049e-03 3.267126739956438541e-04 2.925541950389742851e-03
5.398000000000000000e+03 2.067543268203735352e+00 -1.151147603988647461e+00 3.093984210863709450e-03 7.519085775129497051e-04 1.153767807409167290e-03 4.650596063584089279e-03
5.399000000000000000e+03 1.326855897903442383e+00 -1.144792079925537109e+00 1.260740682482719421e-03 1.552347326651215553e-03 8.439264493063092232e-04 3.603665856644511223e-03
5.400000000000000000e+03 9.941840171813964844e-01 -3.806251585483551025e-01 1.524834078736603260e-03 -2.709600084926933050e-04 3.761622065212577581e-04 9.380426490679383278e-04
5.401000000000000000e+03 3.480942845344543457e-01 -5.610816478729248047e-01 2.019386301981285214e-04 8.214458939619362354e-04 3.070153470616787672e-04 3.928356163669377565e-04
5.402000000000000000e+03 2.623828697204589844e+01 -5.017127990722656250e-01 2.572937965393066406e+00 -7.688862085342407227e-02 7.488147616386413574e-01 2.393315732479095459e-01
5.403000000000000000e+03 2.623249626159667969e+01 -4.830971956253051758e-01 2.401650190353393555e+00 -2.333514988422393799e-01 6.504896283149719238e-01 3.659723103046417236e-01
5.404000000000000000e+03 2.622318840026855469e+01 -4.659676551818847656e-01 1.991087794303894043e+00 -3.664058148860931396e-01 4.874046146869659424e-01 5.860370397567749023e-01
5.405000000000000000e+03 2.621071815490722656e+01 -4.509815871715545654e-01 1.504543542861938477e+00 -5.290963649749755859e-01 2.926341593265533447e-01 7.484084963798522949e-01
5.406000000000000000e+03 2.619556617736816406e+01 -4.387140870094299316e-01 9.863548278808593750e-01 -7.631185054779052734e-01 6.697089970111846924e-02 8.722391128540039062e-01
5.407000000000000000e+03 2.617831420898437500e+01 -4.296358823776245117e-01 5.046824812889099121e-01 -1.021495103836059570e+00 -1.550437808036804199e-01 9.751977920532226562e-01
5.408000000000000000e+03 2.615962219238281250e+01 -4.240954220294952393e-01 2.384770894423127174e-03 -1.333011269569396973e+00 -3.991879522800445557e-01 1.126791596412658691e+00
5.409000000000000000e+03 2.614020919799804688e+01 -4.223052561283111572e-01 -4.443370699882507324e-01 -1.566630601882934570e+00 -6.032903194427490234e-01 1.296242594718933105e+00
5.410000000000000000e+03 2.612081909179687500e+01 -4.243341088294982910e-01 -1.006124973297119141e+00 -1.738905668258666992e+00 -8.235091567039489746e-01 1.510042190551757812e+00
5.411000000000000000e+03 2.610219764709472656e+01 -4.301041364669799805e-01 -1.512917041778564453e+00 -1.748602747917175293e+00 -9.784559607505798340e-01 1.690924882888793945e+00
5.412000000000000000e+03 2.608505821228027344e+01 -4.393938779830932617e-01 -2.145707845687866211e+00 -1.660307645797729492e+00 -1.141804695129394531e+00 1.796600461006164551e+00
5.413000000000000000e+03 2.607005882263183594e+01 -4.518468976020812988e-01 -2.672161340713500977e+00 -1.448301196098327637e+00 -1.236138701438903809e+00 1.802274703979492188e+00
5.414000000000000000e+03 2.605777359008789062e+01 -4.669852256774902344e-01 -3.164708375930786133e+00 -1.232389807701110840e+00 -1.319129467010498047e+00 1.671643137931823730e+00
5.415000000000000000e+03 2.604867744445800781e+01 -4.842279851436614990e-01 -3.505273580551147461e+00 -1.040498971939086914e+00 -1.363731741905212402e+00 1.453906893730163574e+00
5.416000000000000000e+03 2.604311561584472656e+01 -5.029134154319763184e-01 -3.691312074661254883e+00 -9.138876199722290039e-01 -1.381559967994689941e+00 1.193107247352600098e+00
5.417000000000000000e+03 2.604130363464355469e+01 -5.223245024681091309e-01 -3.747904539108276367e+00 -8.965497016906738281e-01 -1.393336296081542969e+00 9.546912312507629395e-01
5.418000000000000000e+03 2.604331207275390625e+01 -5.417163372039794922e-01 -3.703618049621582031e+00 -9.146490097045898438e-01 -1.385480165481567383e+00 7.800679802894592285e-01
5.419000000000000000e+03 2.604906082153320312e+01 -5.603447556495666504e-01 -3.660770416259765625e+00 -1.025502800941467285e+00 -1.405882000923156738e+00 6.915934681892395020e-01
5.420000000000000000e+03 2.605833053588867188e+01 -5.774948596954345703e-01 -3.625580072402954102e+00 -1.083816766738891602e+00 -1.412819027900695801e+00 6.665285229682922363e-01
5.421000000000000000e+03 2.607076835632324219e+01 -5.925084948539733887e-01 -3.695312976837158203e+00 -1.238526225090026855e+00 -1.480151772499084473e+00 7.041733264923095703e-01
5.422000000000000000e+03 2.608589172363281250e+01 -6.048095226287841797e-01 -3.808896303176879883e+00 -1.330944538116455078e+00 -1.541952252388000488e+00 7.440538406372070312e-01
5.423000000000000000e+03 2.610312461853027344e+01 -6.139258742332458496e-01 -4.020689010620117188e+00 -1.525625467300415039e+00 -1.663894414901733398e+00 8.365631699562072754e-01
5.424000000000000000e+03 2.612180519104003906e+01 -6.195077300071716309e-01 -4.286355018615722656e+00 -1.697169899940490723e+00 -1.795057535171508789e+00 9.241957664489746094e-01
5.425000000000000000e+03 2.614121246337890625e+01 -6.213409304618835449e-01 -4.652221202850341797e+00 -1.900659084320068359e+00 -1.965864062309265137e+00 1.105880379676818848e+00
5.426000000000000000e+03 2.616060638427734375e+01 -6.193549633026123047e-01 -5.062796115875244141e+00 -2.023477554321289062e+00 -2.125882148742675781e+00 1.275521993637084961e+00
5.427000000000000000e+03 2.617924118041992188e+01 -6.136261820793151855e-01 -5.691827774047851562e+00 -2.049490928649902344e+00 -2.322395563125610352e+00 1.486964702606201172e+00
5.428000000000000000e+03 2.619640159606933594e+01 -6.043744087219238281e-01 -6.310781955718994141e+00 -1.901316046714782715e+00 -2.463629484176635742e+00 1.627084016799926758e+00
5.429000000000000000e+03 2.621142959594726562e+01 -5.919546484947204590e-01 -7.119113922119140625e+00 -1.631419777870178223e+00 -2.625160217285156250e+00 1.621308803558349609e+00
5.430000000000000000e+03 2.622374725341796875e+01 -5.768435597419738770e-01 -7.827085494995117188e+00 -1.232543826103210449e+00 -2.717888832092285156e+00 1.444675922393798828e+00
5.431000000000000000e+03 2.623288345336914062e+01 -5.596209764480590820e-01 -8.474003791809082031e+00 -8.089092969894409180e-01 -2.784873962402343750e+00 1.028305530548095703e+00
5.432000000000000000e+03 2.623848533630371094e+01 -5.409478545188903809e-01 -8.867768287658691406e+00 -4.662530124187469482e-01 -2.800206422805786133e+00 4.508939087390899658e-01
5.433000000000000000e+03 2.624034118652343750e+01 -5.215408205986022949e-01 -8.958512306213378906e+00 -1.471804678440093994e-01 -2.731707811355590820e+00 -3.750625252723693848e-01
5.434000000000000000e+03 3.765390396118164062e+01 -1.172738933563232422e+01 1.156230068206787109e+01 9.225851297378540039e-01 3.745465755462646484e+00 -1.854261159896850586e+00
5.435000000000000000e+03 3.765988922119140625e+01 -1.170886230468750000e+01 1.495591735839843750e+01 6.937130689620971680e-01 4.694889068603515625e+00 1.872584223747253418e+00
5.436000000000000000e+03 3.766214752197265625e+01 -1.168952655792236328e+01 1.651445007324218750e+01 2.628534555435180664e+00 5.742895603179931641e+00 4.287537574768066406e+00
5.437000000000000000e+03 3.766060256958007812e+01 -1.167011928558349609e+01 1.703530120849609375e+01 5.208957672119140625e+00 6.673277378082275391e+00 6.537275314331054688e+00
5.438000000000000000e+03 3.765530776977539062e+01 -1.165138435363769531e+01 1.681514358520507812e+01 8.553251266479492188e+00 7.610518455505371094e+00 8.175377845764160156e+00
5.439000000000000000e+03 3.764646530151367188e+01 -1.163403987884521484e+01 1.575280475616455078e+01 1.209446907043457031e+01 8.354182243347167969e+00 9.191174507141113281e+00
5.440000000000000000e+03 3.763441848754882812e+01 -1.161874771118164062e+01 1.433537101745605469e+01 1.580852699279785156e+01 9.043169021606445312e+00 9.303641319274902344e+00
5.441000000000000000e+03 3.761962127685546875e+01 -1.160609340667724609e+01 1.268406105041503906e+01 1.917517662048339844e+01 9.557770729064941406e+00 8.533619880676269531e+00
5.442000000000000000e+03 3.760264587402343750e+01 -1.159656238555908203e+01 1.126037406921386719e+01 2.175411796569824219e+01 9.904347419738769531e+00 7.015003204345703125e+00
5.443000000000000000e+03 3.758414077758789062e+01 -1.159051895141601562e+01 1.050562381744384766e+01 2.360006904602050781e+01 1.023170757293701172e+01 4.832548141479492188e+00
5.444000000000000000e+03 3.756481170654296875e+01 -1.158819293975830078e+01 1.022488498687744141e+01 2.425226593017578125e+01 1.034314537048339844e+01 2.543439149856567383e+00
5.445000000000000000e+03 3.754539871215820312e+01 -1.158967494964599609e+01 1.066416072845458984e+01 2.393383407592773438e+01 1.037939834594726562e+01 3.170630931854248047e-01
5.446000000000000000e+03 3.752664566040039062e+01 -1.159490776062011719e+01 1.185040283203125000e+01 2.301263236999511719e+01 1.045891094207763672e+01 -1.305054903030395508e+00
5.447000000000000000e+03 3.750927352905273438e+01 -1.160369110107421875e+01 1.349319648742675781e+01 2.132125473022460938e+01 1.044433498382568359e+01 -2.535431623458862305e+00
5.448000000000000000e+03 3.749394226074218750e+01 -1.161568927764892578e+01 1.481785011291503906e+01 1.951295089721679688e+01 1.029924011230468750e+01 -3.018189668655395508e+00
5.449000000000000000e+03 3.748123931884765625e+01 -1.163044261932373047e+01 1.662995719909667969e+01 1.809312057495117188e+01 1.041692256927490234e+01 -2.692211627960205078e+00
5.450000000000000000e+03 3.747164916992187500e+01 -1.164738655090332031e+01 1.806483078002929688e+01 1.661448669433593750e+01 1.040379524230957031e+01 -1.823396325111389160e+00
5.451000000000000000e+03 3.746554565429687500e+01 -1.166587257385253906e+01 1.896437835693359375e+01 1.551824569702148438e+01 1.034478664398193359e+01 -5.389617085456848145e-01
5.452000000000000000e+03 3.746315383911132812e+01 -1.168519401550292969e+01 1.942512130737304688e+01 1.539286231994628906e+01 1.044539451599121094e+01 9.112076759338378906e-01
5.453000000000000000e+03 3.746457290649414062e+01 -1.170461082458496094e+01 1.931112289428710938e+01 1.609793281555175781e+01 1.062271690368652344e+01 2.872980833053588867e+00
5.454000000000000000e+03 3.746974563598632812e+01 -1.172338008880615234e+01 1.827031326293945312e+01 1.669822120666503906e+01 1.049056053161621094e+01 4.419227600097656250e+00
5.455000000000000000e+03 3.747846984863281250e+01 -1.174078273773193359e+01 1.681684494018554688e+01 1.866005706787109375e+01 1.064307117462158203e+01 5.567201614379882812e+00
5.456000000000000000e+03 3.749041748046875000e+01 -1.175615406036376953e+01 1.475617504119873047e+01 2.092356681823730469e+01 1.070392227172851562e+01 6.077908039093017578e+00
5.457000000000000000e+03 3.750512695312500000e+01 -1.176890659332275391e+01 1.197324943542480469e+01 2.298050689697265625e+01 1.048612689971923828e+01 5.881912708282470703e+00
5.458000000000000000e+03 3.752204132080078125e+01 -1.177855014801025391e+01 9.820960044860839844e+00 2.503482246398925781e+01 1.045673465728759766e+01 4.668643951416015625e+00
5.459000000000000000e+03 3.754050445556640625e+01 -1.178471660614013672e+01 7.540802478790283203e+00 2.634724235534667969e+01 1.016641330718994141e+01 2.621385335922241211e+00
5.460000000000000000e+03 3.755981826782226562e+01 -1.178717041015625000e+01 5.972233295440673828e+00 2.666783142089843750e+01 9.792019844055175781e+00 2.900844067335128784e-02
5.461000000000000000e+03 3.757923889160156250e+01 -1.178581714630126953e+01 5.189696311950683594e+00 2.580060386657714844e+01 9.297089576721191406e+00 -2.811956405639648438e+00
5.462000000000000000e+03 3.759802627563476562e+01 -1.178070926666259766e+01 5.245374679565429688e+00 2.369108009338378906e+01 8.680936813354492188e+00 -5.521640777587890625e+00
5.463000000000000000e+03 3.761545562744140625e+01 -1.177204132080078125e+01 6.107386589050292969e+00 2.030397987365722656e+01 7.923409938812255859e+00 -7.807332992553710938e+00
5.464000000000000000e+03 3.763086700439453125e+01 -1.176014518737792969e+01 7.494693279266357422e+00 1.603407096862792969e+01 7.058629512786865234e+00 -9.185807228088378906e+00
5.465000000000000000e+03 3.764366912841796875e+01 -1.174547672271728516e+01 1.090044975280761719e+01 9.570419311523437500e+00 6.141260623931884766e+00 -9.201469421386718750e+00
