# el_label, x, y, sXX, sYY, sZZ, sXY
1.000000000000000000e+00 4.411272430419921875e+01 -5.919963717460632324e-01 -1.438237309455871582e+00 -2.718483805656433105e-01 -5.130257010459899902e-01 -1.993880748748779297e+00
2.000000000000000000e+00 4.391948699951171875e+01 -5.442956089973449707e-01 3.635181427001953125e+00 7.502171397209167480e-01 1.315619587898254395e+00 -6.944638490676879883e-01
3.000000000000000000e+00 4.372624588012695312e+01 -4.965948760509490967e-01 2.889115095138549805e+00 3.793109953403472900e-02 8.781138658523559570e-01 -1.135200619697570801e+00
4.000000000000000000e+00 4.353300476074218750e+01 -4.488941431045532227e-01 2.876878499984741211e+00 3.601029217243194580e-01 9.710944294929504395e-01 -7.541546225547790527e-01
5.000000000000000000e+00 4.410434341430664062e+01 -6.497967243194580078e-01 8.252349853515625000e+00 -3.975477516651153564e-01 2.356440782546997070e+00 -3.168489694595336914e+00
6.000000000000000000e+00 4.390551376342773438e+01 -6.406295299530029297e-01 5.157470226287841797e+00 1.019065752625465393e-01 1.577813029289245605e+00 -1.556078433990478516e+00
7.000000000000000000e+00 4.370668411254882812e+01 -6.314623951911926270e-01 5.692759037017822266e+00 4.613485932350158691e-01 1.846232295036315918e+00 -7.857891321182250977e-01
8.000000000000000000e+00 4.350785446166992188e+01 -6.222952604293823242e-01 4.621221542358398438e+00 -3.634952306747436523e-01 1.277318000793457031e+00 -7.854825854301452637e-01
9.000000000000000000e+00 4.410737228393554688e+01 -7.081233263015747070e-01 1.363212299346923828e+01 -7.652277350425720215e-01 3.860068559646606445e+00 -4.675268530845642090e-01
1.000000000000000000e+01 4.391056442260742188e+01 -7.378405332565307617e-01 9.581331253051757812e+00 1.457518786191940308e-01 2.918125152587890625e+00 -8.022915124893188477e-01
1.100000000000000000e+01 4.371375274658203125e+01 -7.675577402114868164e-01 7.428338050842285156e+00 -2.319601029157638550e-01 2.158913373947143555e+00 -2.484623491764068604e-01
1.200000000000000000e+01 4.351694107055664062e+01 -7.972750067710876465e-01 6.940357208251953125e+00 8.874820917844772339e-02 2.108731746673583984e+00 9.847040474414825439e-02
1.300000000000000000e+01 4.412170028686523438e+01 -7.647440433502197266e-01 1.734054374694824219e+01 1.509372949600219727e+00 5.654975414276123047e+00 2.702889680862426758e+00
1.400000000000000000e+01 4.393444061279296875e+01 -8.322084546089172363e-01 1.183209133148193359e+01 6.208980828523635864e-02 3.568254232406616211e+00 1.502743601799011230e+00
1.500000000000000000e+01 4.374718093872070312e+01 -8.996728658676147461e-01 9.972180366516113281e+00 6.371741890907287598e-01 3.182806253433227539e+00 1.087151169776916504e+00
1.600000000000000000e+01 4.355992507934570312e+01 -9.671372771263122559e-01 8.208819389343261719e+00 -3.490428328514099121e-01 2.357932806015014648e+00 1.369205474853515625e+00
1.700000000000000000e+01 4.414677810668945312e+01 -8.174921870231628418e-01 1.789722824096679688e+01 3.610609531402587891e+00 6.452351570129394531e+00 6.280940055847167969e+00
1.800000000000000000e+01 4.397623443603515625e+01 -9.201220870018005371e-01 1.358279705047607422e+01 2.664988279342651367e+00 4.874335765838623047e+00 3.658224821090698242e+00
1.900000000000000000e+01 4.380569458007812500e+01 -1.022751927375793457e+00 1.064262294769287109e+01 1.047259807586669922e+00 3.506964921951293945e+00 3.145745754241943359e+00
2.000000000000000000e+01 4.363515090942382812e+01 -1.125381827354431152e+00 9.561254501342773438e+00 1.223507285118103027e+00 3.235428333282470703e+00 2.659118652343750000e+00
2.100000000000000000e+01 4.418164062500000000e+01 -8.643492460250854492e-01 1.785574150085449219e+01 8.553838729858398438e+00 7.922873973846435547e+00 8.539198875427246094e+00
2.200000000000000000e+01 4.403434371948242188e+01 -9.982171058654785156e-01 1.294984531402587891e+01 4.727514266967773438e+00 5.303207874298095703e+00 5.968041896820068359e+00
2.300000000000000000e+01 4.388704299926757812e+01 -1.132084965705871582e+00 1.123012733459472656e+01 3.908116340637207031e+00 4.541473388671875000e+00 4.491097450256347656e+00
2.400000000000000000e+01 4.373974609375000000e+01 -1.265952825546264648e+00 9.077951431274414062e+00 2.204000711441040039e+00 3.384585618972778320e+00 4.249854087829589844e+00
2.500000000000000000e+01 4.422496032714843750e+01 -9.035219550132751465e-01 1.532179546356201172e+01 1.285798835754394531e+01 8.453935623168945312e+00 1.005471134185791016e+01
2.600000000000000000e+01 4.410654449462890625e+01 -1.063504934310913086e+00 1.260613822937011719e+01 8.772998809814453125e+00 6.413741111755371094e+00 6.806049346923828125e+00
2.700000000000000000e+01 4.398812484741210938e+01 -1.223487973213195801e+00 9.863594055175781250e+00 6.135640144348144531e+00 4.799770355224609375e+00 5.831982135772705078e+00
2.800000000000000000e+01 4.386970901489257812e+01 -1.383471012115478516e+00 8.961841583251953125e+00 5.245714664459228516e+00 4.262266635894775391e+00 4.841020107269287109e+00
2.900000000000000000e+01 4.427507781982421875e+01 -9.335113763809204102e-01 1.372265148162841797e+01 1.811755180358886719e+01 9.552061080932617188e+00 9.571191787719726562e+00
3.000000000000000000e+01 4.419007492065429688e+01 -1.113487243652343750e+00 1.055844402313232422e+01 1.213727569580078125e+01 6.808715820312500000e+00 7.075180530548095703e+00
3.100000000000000000e+01 4.410506820678710938e+01 -1.293463230133056641e+00 9.172574996948242188e+00 9.547232627868652344e+00 5.615942001342773438e+00 5.734019756317138672e+00
3.200000000000000000e+01 4.402006149291992188e+01 -1.473439216613769531e+00 7.466864585876464844e+00 7.473893642425537109e+00 4.482227325439453125e+00 5.165883541107177734e+00
3.300000000000000000e+01 4.433007812500000000e+01 -9.531697630882263184e-01 1.141671276092529297e+01 2.217483711242675781e+01 1.007746505737304688e+01 7.889864444732666016e+00
3.400000000000000000e+01 4.428173828125000000e+01 -1.146251320838928223e+00 9.497520446777343750e+00 1.575498676300048828e+01 7.575752258300781250e+00 6.010643482208251953e+00
3.500000000000000000e+01 4.423339462280273438e+01 -1.339332818984985352e+00 7.629115104675292969e+00 1.231873893737792969e+01 5.984356403350830078e+00 5.016990661621093750e+00
3.600000000000000000e+01 4.418505477905273438e+01 -1.532414436340332031e+00 6.502586364746093750e+00 1.018823146820068359e+01 5.007245063781738281e+00 4.174717903137207031e+00
3.700000000000000000e+01 4.438784790039062500e+01 -9.617449045181274414e-01 1.056547546386718750e+01 2.528643989562988281e+01 1.075557422637939453e+01 5.188287258148193359e+00
3.800000000000000000e+01 4.437802124023437500e+01 -1.160543203353881836e+00 8.395037651062011719e+00 1.842500495910644531e+01 8.046012878417968750e+00 4.194963455200195312e+00
3.900000000000000000e+01 4.436819458007812500e+01 -1.359341621398925781e+00 6.853953361511230469e+00 1.483709716796875000e+01 6.507315158843994141e+00 3.322339534759521484e+00
4.000000000000000000e+01 4.435837173461914062e+01 -1.558139801025390625e+00 5.578652858734130859e+00 1.242536640167236328e+01 5.401206016540527344e+00 2.848050117492675781e+00
4.100000000000000000e+01 4.444618606567382812e+01 -9.589086771011352539e-01 1.075225639343261719e+01 2.691831398010253906e+01 1.130117130279541016e+01 2.103142499923706055e+00
4.200000000000000000e+01 4.447525024414062500e+01 -1.155816197395324707e+00 8.139062881469726562e+00 2.017412567138671875e+01 8.493956565856933594e+00 1.827813744544982910e+00
4.300000000000000000e+01 4.450431442260742188e+01 -1.352723598480224609e+00 6.646451950073242188e+00 1.654996109008789062e+01 6.958923816680908203e+00 1.332189559936523438e+00
4.400000000000000000e+01 4.453337860107421875e+01 -1.549631118774414062e+00 5.361126899719238281e+00 1.397827053070068359e+01 5.801819324493408203e+00 8.379858136177062988e-01
4.500000000000000000e+01 4.450285339355468750e+01 -9.447695612907409668e-01 1.174432277679443359e+01 2.707081222534179688e+01 1.164454078674316406e+01 -7.877780199050903320e-01
4.600000000000000000e+01 4.456969833374023438e+01 -1.132250905036926270e+00 9.014307022094726562e+00 2.096030998229980469e+01 8.992384910583496094e+00 -5.215133428573608398e-01
4.700000000000000000e+01 4.463653945922851562e+01 -1.319732308387756348e+00 6.993238925933837891e+00 1.718983840942382812e+01 7.254923343658447266e+00 -8.624181151390075684e-01
4.800000000000000000e+01 4.470338439941406250e+01 -1.507213711738586426e+00 5.973687648773193359e+00 1.494430446624755859e+01 6.275397777557373047e+00 -1.013852715492248535e+00
4.900000000000000000e+01 4.455568313598632812e+01 -9.198685884475708008e-01 1.405388164520263672e+01 2.642901802062988281e+01 1.214486980438232422e+01 -2.867425441741943359e+00
5.000000000000000000e+01 4.465774917602539062e+01 -1.090749382972717285e+00 1.017113494873046875e+01 2.051828002929687500e+01 9.206824302673339844e+00 -2.666004419326782227e+00
5.100000000000000000e+01 4.475981140136718750e+01 -1.261630058288574219e+00 8.516537666320800781e+00 1.723065376281738281e+01 7.724157333374023438e+00 -2.590074300765991211e+00
5.200000000000000000e+01 4.486187744140625000e+01 -1.432510852813720703e+00 6.878740310668945312e+00 1.460187721252441406e+01 6.444185256958007812e+00 -2.779712200164794922e+00
5.300000000000000000e+01 4.460265731811523438e+01 -8.851587772369384766e-01 1.627942276000976562e+01 2.474907112121582031e+01 1.230854797363281250e+01 -4.227972507476806641e+00
5.400000000000000000e+01 4.473603439331054688e+01 -1.032899618148803711e+00 1.233630752563476562e+01 1.969985771179199219e+01 9.610849380493164062e+00 -3.876588344573974609e+00
5.500000000000000000e+01 4.486941528320312500e+01 -1.180640459060668945e+00 1.002446174621582031e+01 1.621026611328125000e+01 7.870418548583984375e+00 -3.939256191253662109e+00
5.600000000000000000e+01 4.500279235839843750e+01 -1.328381299972534180e+00 8.739861488342285156e+00 1.425561141967773438e+01 6.898641586303710938e+00 -3.920166969299316406e+00
5.700000000000000000e+01 4.464197158813476562e+01 -8.419682979583740234e-01 1.873903083801269531e+01 2.325679588317871094e+01 1.259874820709228516e+01 -4.462739467620849609e+00
5.800000000000000000e+01 4.480156326293945312e+01 -9.609155654907226562e-01 1.442385101318359375e+01 1.812928199768066406e+01 9.765939712524414062e+00 -4.374973773956298828e+00
5.900000000000000000e+01 4.496115112304687500e+01 -1.079862713813781738e+00 1.197508239746093750e+01 1.519045066833496094e+01 8.149660110473632812e+00 -4.339115619659423828e+00
6.000000000000000000e+01 4.512074279785156250e+01 -1.198809981346130371e+00 1.027923297882080078e+01 1.315444087982177734e+01 7.030102252960205078e+00 -4.308888912200927734e+00
6.100000000000000000e+01 4.467212677001953125e+01 -7.919500470161437988e-01 2.078865242004394531e+01 2.169886016845703125e+01 1.274625396728515625e+01 -3.847480297088623047e+00
6.200000000000000000e+01 4.485182189941406250e+01 -8.775517940521240234e-01 1.635122108459472656e+01 1.674981880187988281e+01 9.930312156677246094e+00 -3.977350950241088867e+00
6.300000000000000000e+01 4.503151321411132812e+01 -9.631534814834594727e-01 1.369575309753417969e+01 1.403005599975585938e+01 8.317742347717285156e+00 -3.915494203567504883e+00
6.400000000000000000e+01 4.521120834350585938e+01 -1.048755168914794922e+00 1.183518123626708984e+01 1.184528636932373047e+01 7.104140281677246094e+00 -3.915240526199340820e+00
6.500000000000000000e+01 4.469197082519531250e+01 -7.370181679725646973e-01 2.215094566345214844e+01 2.054157257080078125e+01 1.280775547027587891e+01 -2.608054399490356445e+00
6.600000000000000000e+01 4.488489151000976562e+01 -7.859986424446105957e-01 1.771644401550292969e+01 1.579631233215332031e+01 1.005382728576660156e+01 -2.793542146682739258e+00
6.700000000000000000e+01 4.507780838012695312e+01 -8.349791169166564941e-01 1.492511272430419922e+01 1.302236652374267578e+01 8.384243965148925781e+00 -2.849053859710693359e+00
6.800000000000000000e+01 4.527072906494140625e+01 -8.839595913887023926e-01 1.310966777801513672e+01 1.120010185241699219e+01 7.292931079864501953e+00 -3.075266361236572266e+00
6.900000000000000000e+01 4.470073699951171875e+01 -6.792747974395751953e-01 2.277386665344238281e+01 2.013993263244628906e+01 1.287413978576660156e+01 -8.925347924232482910e-01
7.000000000000000000e+01 4.489950180053710938e+01 -6.897596716880798340e-01 1.817283821105957031e+01 1.531766700744628906e+01 1.004715156555175781e+01 -1.183248281478881836e+00
7.100000000000000000e+01 4.509826278686523438e+01 -7.002446055412292480e-01 1.546614265441894531e+01 1.272715377807617188e+01 8.457988739013671875e+00 -1.420690774917602539e+00
7.200000000000000000e+01 4.529702758789062500e+01 -7.107294797897338867e-01 1.349091434478759766e+01 1.108967876434326172e+01 7.374177932739257812e+00 -1.752209186553955078e+00
7.300000000000000000e+01 4.469808959960937500e+01 -6.209295988082885742e-01 2.236420631408691406e+01 2.027004051208496094e+01 1.279027366638183594e+01 9.269478917121887207e-01
7.400000000000000000e+01 4.489509201049804688e+01 -5.925176739692687988e-01 1.776837539672851562e+01 1.575280761718750000e+01 1.005635452270507812e+01 5.529371500015258789e-01
7.500000000000000000e+01 4.509209442138671875e+01 -5.641057491302490234e-01 1.497534942626953125e+01 1.301346683502197266e+01 8.396644592285156250e+00 4.661183431744575500e-02
7.600000000000000000e+01 4.528910064697265625e+01 -5.356938242912292480e-01 1.310333156585693359e+01 1.151827526092529297e+01 7.386482238769531250e+00 -2.456659078598022461e-01
7.700000000000000000e+01 4.468413925170898438e+01 -5.642152428627014160e-01 2.107163047790527344e+01 2.140473747253417969e+01 1.274291038513183594e+01 2.600102663040161133e+00
7.800000000000000000e+01 4.487184143066406250e+01 -4.979937672615051270e-01 1.634539222717285156e+01 1.664971160888671875e+01 9.898530960083007812e+00 1.949445962905883789e+00
7.900000000000000000e+01 4.505954360961914062e+01 -4.317723214626312256e-01 1.370612239837646484e+01 1.415674304962158203e+01 8.358859062194824219e+00 1.331866383552551270e+00
8.000000000000000000e+01 4.524724578857421875e+01 -3.655508458614349365e-01 1.182970619201660156e+01 1.221115112304687500e+01 7.212257385253906250e+00 9.106630682945251465e-01
8.100000000000000000e+01 4.465941619873046875e+01 -5.113021135330200195e-01 1.879810142517089844e+01 2.289543914794921875e+01 1.250806236267089844e+01 3.735505580902099609e+00
8.200000000000000000e+01 4.483063507080078125e+01 -4.098052680492401123e-01 1.424962520599365234e+01 1.835074806213378906e+01 9.780111312866210938e+00 2.712363004684448242e+00
8.300000000000000000e+01 4.500185394287109375e+01 -3.083083927631378174e-01 1.174070835113525391e+01 1.539088249206542969e+01 8.139477729797363281e+00 2.042221546173095703e+00
8.400000000000000000e+01 4.517306900024414062e+01 -2.068115174770355225e-01 1.009362697601318359e+01 1.363324832916259766e+01 7.118062496185302734e+00 1.561941385269165039e+00
8.500000000000000000e+01 4.462486267089843750e+01 -4.642151296138763428e-01 1.595838069915771484e+01 2.506156921386718750e+01 1.230598449707031250e+01 3.948794841766357422e+00
8.600000000000000000e+01 4.477304458618164062e+01 -3.313269019126892090e-01 1.166981697082519531e+01 1.994301223754882812e+01 9.483848571777343750e+00 2.657535791397094727e+00
8.700000000000000000e+01 4.492122650146484375e+01 -1.984386891126632690e-01 9.501891136169433594e+00 1.699634933471679688e+01 7.949471950531005859e+00 1.925240635871887207e+00
8.800000000000000000e+01 4.506940841674804688e+01 -6.555046141147613525e-02 8.082815170288085938e+00 1.484734249114990234e+01 6.879047393798828125e+00 1.491359233856201172e+00
8.900000000000000000e+01 4.458180236816406250e+01 -4.247561097145080566e-01 1.276806926727294922e+01 2.700167655944824219e+01 1.193092346191406250e+01 3.101476669311523438e+00
9.000000000000000000e+01 4.470127868652343750e+01 -2.655618786811828613e-01 9.144847869873046875e+00 2.149006462097167969e+01 9.190473556518554688e+00 1.600689291954040527e+00
9.100000000000000000e+01 4.482075500488281250e+01 -1.063676476478576660e-01 7.291633129119873047e+00 1.811270523071289062e+01 7.621301651000976562e+00 1.029238224029541016e+00
9.200000000000000000e+01 4.494023132324218750e+01 5.282658338546752930e-02 6.056996345520019531e+00 1.602581024169921875e+01 6.624842166900634766e+00 6.004430055618286133e-01
9.300000000000000000e+01 4.453188705444335938e+01 -3.944351077079772949e-01 9.886520385742187500e+00 2.851144027709960938e+01 1.151938819885253906e+01 1.038616538047790527e+00
9.400000000000000000e+01 4.461808395385742188e+01 -2.150268703699111938e-01 6.994569301605224609e+00 2.221299552917480469e+01 8.762269973754882812e+00 -2.213296890258789062e-01
9.500000000000000000e+01 4.470428085327148438e+01 -3.561862930655479431e-02 5.484337806701660156e+00 1.875180244445800781e+01 7.270842075347900391e+00 -6.596000790596008301e-01
9.600000000000000000e+01 4.479047775268554688e+01 1.437896043062210083e-01 4.453345298767089844e+00 1.642646980285644531e+01 6.263944625854492188e+00 -7.966353297233581543e-01
9.700000000000000000e+01 4.447702026367187500e+01 -3.744124174118041992e-01 7.747389793395996094e+00 2.885815620422363281e+01 1.098166370391845703e+01 -1.932179093360900879e+00
9.800000000000000000e+01 4.452664184570312500e+01 -1.816557347774505615e-01 5.615540027618408203e+00 2.193712234497070312e+01 8.265798568725585938e+00 -2.650274038314819336e+00
9.900000000000000000e+01 4.457625961303710938e+01 1.110095158219337463e-02 4.366685867309570312e+00 1.839508247375488281e+01 6.828530788421630859e+00 -2.652577877044677734e+00
1.000000000000000000e+02 4.462588119506835938e+01 2.038576304912567139e-01 3.474892377853393555e+00 1.612504577636718750e+01 5.879981517791748047e+00 -2.657251596450805664e+00
1.010000000000000000e+02 4.441930389404296875e+01 -3.654542863368988037e-01 6.718596458435058594e+00 2.761002922058105469e+01 1.029858779907226562e+01 -5.367867469787597656e+00
1.020000000000000000e+02 4.443045043945312500e+01 -1.667255312204360962e-01 5.234207153320312500e+00 2.045861244201660156e+01 7.707845687866210938e+00 -5.162065505981445312e+00
1.030000000000000000e+02 4.444159317016601562e+01 3.200324997305870056e-02 4.037332057952880859e+00 1.690802955627441406e+01 6.283608436584472656e+00 -4.717494487762451172e+00
1.040000000000000000e+02 4.445273971557617188e+01 2.307320237159729004e-01 3.286585092544555664e+00 1.488362979888916016e+01 5.451064586639404297e+00 -4.332823753356933594e+00
1.050000000000000000e+02 4.436095046997070312e+01 -3.679035305976867676e-01 7.199441909790039062e+00 2.471147918701171875e+01 9.573276519775390625e+00 -8.642220497131347656e+00
1.060000000000000000e+02 4.433319091796875000e+01 -1.708075702190399170e-01 5.592416286468505859e+00 1.761884117126464844e+01 6.963376998901367188e+00 -7.256287097930908203e+00
1.070000000000000000e+02 4.430543518066406250e+01 2.628837525844573975e-02 4.631995677947998047e+00 1.454956912994384766e+01 5.754469394683837891e+00 -6.333908557891845703e+00
1.080000000000000000e+02 4.427767562866210938e+01 2.233843207359313965e-01 3.650911808013916016e+00 1.256008529663085938e+01 4.863298892974853516e+00 -5.699943065643310547e+00
1.090000000000000000e+02 4.430419158935546875e+01 -3.816663920879364014e-01 8.445426940917968750e+00 2.005662155151367188e+01 8.550614356994628906e+00 -1.095400428771972656e+01
1.100000000000000000e+02 4.423859405517578125e+01 -1.937456727027893066e-01 6.925577640533447266e+00 1.393583679199218750e+01 6.258424282073974609e+00 -8.496262550354003906e+00
1.110000000000000000e+02 4.417299652099609375e+01 -5.824973806738853455e-03 5.455057621002197266e+00 1.125511550903320312e+01 5.013051986694335938e+00 -7.131606101989746094e+00
1.120000000000000000e+02 4.410739517211914062e+01 1.820957362651824951e-01 4.596520423889160156e+00 9.979513168334960938e+00 4.372809886932373047e+00 -6.331463336944580078e+00
1.130000000000000000e+02 4.425119781494140625e+01 -4.062162041664123535e-01 1.074220943450927734e+01 1.438218021392822266e+01 7.537317276000976562e+00 -1.175484561920166016e+01
1.140000000000000000e+02 4.415026855468750000e+01 -2.346620410680770874e-01 7.970816612243652344e+00 9.537798881530761719e+00 5.252584457397460938e+00 -8.443156242370605469e+00
1.150000000000000000e+02 4.404933929443359375e+01 -6.310788542032241821e-02 6.675692558288574219e+00 7.995258331298828125e+00 4.401285171508789062e+00 -6.951583385467529297e+00
1.160000000000000000e+02 4.394841003417968750e+01 1.084462702274322510e-01 5.299293041229248047e+00 6.928826332092285156e+00 3.668435811996459961e+00 -6.063952922821044922e+00
1.170000000000000000e+02 4.420399475097656250e+01 -4.406135082244873047e-01 1.206321716308593750e+01 8.104557991027832031e+00 6.050332546234130859e+00 -1.060019302368164062e+01
1.180000000000000000e+02 4.407159805297851562e+01 -2.919909060001373291e-01 9.084641456604003906e+00 5.513843059539794922e+00 4.379545211791992188e+00 -7.084854125976562500e+00
1.190000000000000000e+02 4.393920135498046875e+01 -1.433682888746261597e-01 6.874388694763183594e+00 4.848211765289306641e+00 3.516780138015747070e+00 -5.691702842712402344e+00
1.200000000000000000e+02 4.380680847167968750e+01 5.254332441836595535e-03 5.927736282348632812e+00 4.631637573242187500e+00 3.167812108993530273e+00 -5.200682163238525391e+00
1.210000000000000000e+02 4.416439056396484375e+01 -4.835419952869415283e-01 1.270003890991210938e+01 2.139667510986328125e+00 4.451911926269531250e+00 -7.320417404174804688e+00
1.220000000000000000e+02 4.400559616088867188e+01 -3.635383844375610352e-01 7.948115825653076172e+00 2.615485668182373047e+00 3.169080495834350586e+00 -4.496893405914306641e+00
1.230000000000000000e+02 4.384679794311523438e+01 -2.435347735881805420e-01 6.822697162628173828e+00 3.078426122665405273e+00 2.970336914062500000e+00 -4.373139858245849609e+00
1.240000000000000000e+02 4.368800354003906250e+01 -1.235311552882194519e-01 5.647979259490966797e+00 2.115664243698120117e+00 2.329092979431152344e+00 -3.742924690246582031e+00
1.250000000000000000e+02 4.413390731811523438e+01 -5.333589315414428711e-01 7.264579772949218750e+00 -1.302942872047424316e+00 1.788491010665893555e+00 -2.136197328567504883e+00
1.260000000000000000e+02 4.395478439331054688e+01 -4.465665519237518311e-01 6.993826389312744141e+00 2.266931295394897461e+00 2.778227329254150391e+00 -3.222391843795776367e+00
1.270000000000000000e+02 4.377566146850585938e+01 -3.597742021083831787e-01 5.599777698516845703e+00 7.401118278503417969e-01 1.901966929435729980e+00 -2.553159952163696289e+00
1.280000000000000000e+02 4.359654235839843750e+01 -2.729818522930145264e-01 4.748165130615234375e+00 1.178117632865905762e+00 1.777884840965270996e+00 -2.160311937332153320e+00
1.290000000000000000e+02 1.777486610412597656e+01 1.073900461196899414e+00 -7.653839588165283203e-01 4.870951771736145020e-01 -8.348663151264190674e-02 -4.804510250687599182e-02
1.300000000000000000e+02 1.792778015136718750e+01 4.714254438877105713e-01 -5.732448697090148926e-01 -3.282410502433776855e-01 -2.704457938671112061e-01 -1.537465956062078476e-02
1.310000000000000000e+02 1.644459342956542969e+01 1.723731011152267456e-01 -5.282569527626037598e-01 -2.570445537567138672e-01 -2.355904579162597656e-01 -8.223253488540649414e-02
1.320000000000000000e+02 1.848871994018554688e+01 6.747622489929199219e-01 -5.343967080116271973e-01 3.823682367801666260e-01 -4.560853540897369385e-02 2.026391960680484772e-02
1.330000000000000000e+02 1.726383209228515625e+01 2.464335858821868896e-01 -4.417018592357635498e-01 3.266557753086090088e-01 -3.451382368803024292e-02 -1.051502451300621033e-01
1.340000000000000000e+02 1.847787094116210938e+01 1.163098692893981934e+00 -7.642425894737243652e-01 -5.476007461547851562e-01 -3.935529887676239014e-01 -5.152056366205215454e-02
1.350000000000000000e+02 1.630637359619140625e+01 9.048026204109191895e-01 -6.203529238700866699e-01 2.437892258167266846e-01 -1.129691079258918762e-01 -1.329650580883026123e-01
1.360000000000000000e+02 1.839068794250488281e+01 1.810296177864074707e-01 -7.918126583099365234e-01 9.451159089803695679e-02 -2.091903239488601685e-01 -1.008923277258872986e-01
1.370000000000000000e+02 1.705963325500488281e+01 9.744657874107360840e-01 -7.499460577964782715e-01 -3.236466944217681885e-01 -3.220778107643127441e-01 -6.755113601684570312e-02
1.380000000000000000e+02 2.069370651245117188e+01 3.904900848865509033e-01 -1.014697432518005371e+00 8.189565539360046387e-01 -5.872226506471633911e-02 6.351386904716491699e-01
1.390000000000000000e+02 2.311314582824707031e+01 -1.502791643142700195e-01 -2.038999557495117188e+00 3.705449104309082031e-01 -5.005363821983337402e-01 4.367675259709358215e-02
1.400000000000000000e+02 2.569888687133789062e+01 -5.156913399696350098e-01 -3.907962083816528320e+00 5.352181196212768555e-01 -1.011823177337646484e+00 1.028208732604980469e+00
1.410000000000000000e+02 2.401404762268066406e+01 3.338841721415519714e-02 -1.317341566085815430e+00 1.060286641120910645e+00 -7.711646705865859985e-02 -4.298552572727203369e-01
1.420000000000000000e+02 2.763137626647949219e+01 -1.746285796165466309e+00 1.378528475761413574e+00 1.853656768798828125e+00 9.696555733680725098e-01 -9.560717344284057617e-01
1.430000000000000000e+02 2.771944427490234375e+01 -1.175511240959167480e+00 -3.018627643585205078e+00 -8.247647285461425781e-01 -1.153017759323120117e+00 1.333361625671386719e+00
1.440000000000000000e+02 2.848646163940429688e+01 -2.198873519897460938e+00 2.235831469297409058e-01 -8.607898354530334473e-01 -1.911620050668716431e-01 -7.952731102705001831e-03
1.450000000000000000e+02 2.930397224426269531e+01 -2.423318624496459961e+00 -6.775592565536499023e-01 1.876089870929718018e-01 -1.469850838184356689e-01 5.956228822469711304e-02
1.460000000000000000e+02 1.982421684265136719e+01 3.275624811649322510e-01 -7.545934319496154785e-01 2.023517042398452759e-01 -1.656725108623504639e-01 -1.523455232381820679e-01
1.470000000000000000e+02 1.909939575195312500e+01 1.000163033604621887e-01 -3.821419775485992432e-01 1.029976308345794678e-01 -8.374330401420593262e-02 -1.184719726443290710e-01
1.480000000000000000e+02 1.978351783752441406e+01 -9.413920342922210693e-02 -3.530156239867210388e-02 -2.208973169326782227e-01 -7.685966044664382935e-02 -3.335144370794296265e-02
1.490000000000000000e+02 2.930961036682128906e+01 -1.660121440887451172e+00 -1.596684813499450684e+00 -5.110098123550415039e-01 -6.323083639144897461e-01 5.137711763381958008e-01
1.500000000000000000e+02 3.012296295166015625e+01 -2.638345956802368164e+00 -5.434571504592895508e-01 -1.108860611915588379e+00 -4.956953227519989014e-01 -1.247227787971496582e-01
1.510000000000000000e+02 3.009844779968261719e+01 -1.867299437522888184e+00 -1.845025658607482910e+00 -5.307673662900924683e-02 -5.694307088851928711e-01 1.162348389625549316e-01
1.520000000000000000e+02 2.688036918640136719e+01 -8.299868702888488770e-01 -4.700427532196044922e+00 -2.268080860376358032e-01 -1.478170752525329590e+00 1.856338024139404297e+00
1.530000000000000000e+02 2.669494247436523438e+01 -1.065739393234252930e+00 2.788079738616943359e+00 6.820353865623474121e-01 1.041034460067749023e+00 -2.114567518234252930e+00
1.540000000000000000e+02 2.604942893981933594e+01 -5.149537920951843262e-01 -6.979749202728271484e+00 -1.068896532058715820e+00 -2.414593696594238281e+00 1.631817460060119629e+00
1.550000000000000000e+02 2.534797477722167969e+01 -2.902369797229766846e-01 -4.098460674285888672e+00 1.639630794525146484e+00 -7.376489043235778809e-01 1.174757599830627441e+00
1.560000000000000000e+02 2.502335357666015625e+01 -2.417187690734863281e-01 -1.538910961151123047e+01 -2.160933971405029297e+00 -5.265013217926025391e+00 5.992251396179199219e+00
1.570000000000000000e+02 2.246835899353027344e+01 1.378261744976043701e-01 -1.133510708808898926e+00 1.804595708847045898e+00 2.013255208730697632e-01 -5.741409659385681152e-01
1.580000000000000000e+02 2.035116004943847656e+01 -1.736120879650115967e-01 6.536070723086595535e-03 1.294421911239624023e+00 3.902873694896697998e-01 -4.060987830162048340e-01
1.590000000000000000e+02 1.996188163757324219e+01 8.227458000183105469e-01 -1.218315839767456055e+00 -6.524413824081420898e-01 -5.612271428108215332e-01 9.497429244220256805e-03
1.600000000000000000e+02 1.914756202697753906e+01 5.841042995452880859e-01 -9.331150054931640625e-01 -1.363199502229690552e-01 -3.208304941654205322e-01 -4.988951608538627625e-02
1.610000000000000000e+02 1.921282958984375000e+01 1.082078099250793457e+00 -7.441379427909851074e-01 5.797725915908813477e-01 -4.930961132049560547e-02 1.883275061845779419e-01
1.620000000000000000e+02 2.161278152465820312e+01 8.425430953502655029e-02 -8.502801656723022461e-01 -1.188919544219970703e+00 -6.117599010467529297e-01 2.375123351812362671e-01
1.630000000000000000e+02 2.852224922180175781e+01 -1.443525433540344238e+00 -2.064100980758666992e+00 -2.053545266389846802e-01 -6.808366775512695312e-01 8.970343470573425293e-01
1.640000000000000000e+02 2.421053886413574219e+01 -1.071830093860626221e-01 -1.035854625701904297e+01 -4.459166526794433594e-01 -3.241338968276977539e+00 8.013538122177124023e-01
1.650000000000000000e+02 2.475981521606445312e+01 -1.221572384238243103e-01 -1.160235023498535156e+01 -3.128373384475708008e+00 -4.419217109680175781e+00 3.496645689010620117e+00
1.660000000000000000e+02 2.316209220886230469e+01 1.658043712377548218e-01 -1.743205428123474121e+00 -1.311344027519226074e+00 -9.163648486137390137e-01 1.104155778884887695e+00
1.670000000000000000e+02 3.171501731872558594e+01 -2.317536830902099609e+00 -1.099876403808593750e+00 -9.471812248229980469e-01 -6.141172647476196289e-01 -6.287909150123596191e-01
1.680000000000000000e+02 3.159167480468750000e+01 -1.573781251907348633e+00 -1.816244125366210938e+00 -1.289093047380447388e-01 -5.835460424423217773e-01 -9.006540775299072266e-01
1.690000000000000000e+02 3.092625236511230469e+01 -2.603541374206542969e+00 -6.920197606086730957e-01 -4.933401346206665039e-01 -3.556079566478729248e-01 -4.026941359043121338e-01
1.700000000000000000e+02 3.329127502441406250e+01 -1.721204519271850586e+00 -1.426800489425659180e+00 -7.989730238914489746e-01 -6.677320599555969238e-01 -9.651740193367004395e-01
1.710000000000000000e+02 3.305626296997070312e+01 -1.019069790840148926e+00 -2.495505571365356445e+00 -3.031690418720245361e-01 -8.396023511886596680e-01 -1.270384788513183594e+00
1.720000000000000000e+02 3.232479095458984375e+01 -1.299670934677124023e+00 -2.137137889862060547e+00 -7.444234490394592285e-01 -8.644683957099914551e-01 -9.472489356994628906e-01
1.730000000000000000e+02 3.250396728515625000e+01 -2.022616147994995117e+00 -1.181111335754394531e+00 -3.664446175098419189e-01 -4.642668068408966064e-01 -1.078696966171264648e+00
1.740000000000000000e+02 3.085874366760253906e+01 -1.838975429534912109e+00 -1.925492405891418457e+00 -7.983270883560180664e-01 -8.171458244323730469e-01 -4.494251608848571777e-01
1.750000000000000000e+02 3.381026458740234375e+01 -7.248246073722839355e-01 -2.942244291305541992e+00 -7.646894454956054688e-01 -1.112080097198486328e+00 -1.241956472396850586e+00
1.760000000000000000e+02 3.458703231811523438e+01 -4.199312925338745117e-01 -3.191877603530883789e+00 -3.540555536746978760e-01 -1.063779950141906738e+00 -1.442005872726440430e+00
1.770000000000000000e+02 3.405215835571289062e+01 -1.424708485603332520e+00 -1.591989755630493164e+00 -3.265170156955718994e-01 -5.755520462989807129e-01 -1.200063109397888184e+00
1.780000000000000000e+02 3.536509704589843750e+01 -1.194015666842460632e-01 -3.402870178222656250e+00 -6.790384650230407715e-01 -1.224572539329528809e+00 -1.309852957725524902e+00
1.790000000000000000e+02 3.691955184936523438e+01 4.870322942733764648e-01 -3.121232748031616211e+00 -4.111221730709075928e-01 -1.059706449508666992e+00 -1.015349507331848145e+00
1.800000000000000000e+02 3.769688415527343750e+01 7.879440784454345703e-01 -2.585947275161743164e+00 5.923930928111076355e-02 -7.580123543739318848e-01 -7.056713700294494629e-01
1.810000000000000000e+02 3.846224212646484375e+01 2.872591614723205566e-01 -2.138525485992431641e+00 9.055055975914001465e-01 -3.699059486389160156e-01 1.762509644031524658e-01
1.820000000000000000e+02 3.847284317016601562e+01 1.084994435310363770e+00 -1.756203055381774902e+00 8.087211102247238159e-02 -5.025992393493652344e-01 -1.967356503009796143e-01
1.830000000000000000e+02 3.699311447143554688e+01 -2.780858278274536133e-01 -2.202827215194702148e+00 3.797409236431121826e-01 -5.469258427619934082e-01 -5.010983943939208984e-01
1.840000000000000000e+02 3.614285659790039062e+01 1.828823834657669067e-01 -3.346961498260498047e+00 -2.574621140956878662e-01 -1.081327080726623535e+00 -1.293399930000305176e+00
1.850000000000000000e+02 3.478684234619140625e+01 -1.136123776435852051e+00 -1.940525770187377930e+00 -5.198169350624084473e-01 -7.381027936935424805e-01 -1.001456379890441895e+00
1.860000000000000000e+02 3.552282333374023438e+01 -8.519025444984436035e-01 -2.041619777679443359e+00 -6.192669644951820374e-02 -6.310639381408691406e-01 -9.903194308280944824e-01
1.870000000000000000e+02 3.625850296020507812e+01 -5.659272074699401855e-01 -2.211424589157104492e+00 -1.028712913393974304e-01 -6.942887902259826660e-01 -6.835044622421264648e-01
1.880000000000000000e+02 3.772836685180664062e+01 6.517409812659025192e-03 -2.204915761947631836e+00 4.545067548751831055e-01 -5.251227021217346191e-01 -1.253298968076705933e-01
1.890000000000000000e+02 4.005228424072265625e+01 -2.796356081962585449e-01 -8.388288617134094238e-01 2.874592840671539307e-01 -1.654108762741088867e-01 8.960999250411987305e-01
1.900000000000000000e+02 4.025378417968750000e+01 1.755250394344329834e-01 -1.282716035842895508e+00 -3.522509336471557617e-01 -4.904900789260864258e-01 8.049384951591491699e-01
1.910000000000000000e+02 4.103388977050781250e+01 -5.241028070449829102e-01 3.193613588809967041e-01 -5.452433228492736816e-01 -6.776459515094757080e-02 1.454960465431213379e+00
1.920000000000000000e+02 3.916754531860351562e+01 2.850208282470703125e-01 -1.762398004531860352e+00 4.914563298225402832e-01 -3.812824785709381104e-01 4.464581608772277832e-01
1.930000000000000000e+02 4.098278045654296875e+01 -6.916238069534301758e-01 9.212352633476257324e-01 -5.515851974487304688e-01 1.108950227499008179e-01 1.552170157432556152e+00
1.940000000000000000e+02 4.106289291381835938e+01 -3.242270648479461670e-01 4.900523275136947632e-02 -6.035654544830322266e-01 -1.663680672645568848e-01 1.200635433197021484e+00
1.950000000000000000e+02 4.113388061523437500e+01 -9.282039105892181396e-02 -5.259063839912414551e-01 -5.717395544052124023e-01 -3.292937874794006348e-01 1.133414268493652344e+00
1.960000000000000000e+02 4.069022369384765625e+01 2.665233425796031952e-02 -1.155352830886840820e+00 -3.100095391273498535e-01 -4.396086931228637695e-01 9.628224968910217285e-01
1.970000000000000000e+02 4.123146057128906250e+01 1.229454204440116882e-01 -1.092758297920227051e+00 -4.298387169837951660e-01 -4.567790925502777100e-01 9.809396266937255859e-01
1.980000000000000000e+02 4.058582305908203125e+01 -3.531250953674316406e-01 -2.984205484390258789e-01 -1.891043037176132202e-01 -1.462574452161788940e-01 1.279505491256713867e+00
1.990000000000000000e+02 4.125985336303710938e+01 3.602244555950164795e-01 -2.042474031448364258e+00 -5.313881039619445801e-01 -7.721586227416992188e-01 1.052230238914489746e+00
2.000000000000000000e+02 3.982404327392578125e+01 8.554812073707580566e-01 -2.105402946472167969e+00 -2.865060269832611084e-01 -7.175726890563964844e-01 8.148869872093200684e-01
2.010000000000000000e+02 3.918552780151367188e+01 1.097479462623596191e+00 -1.588176727294921875e+00 2.858332097530364990e-01 -3.907030820846557617e-01 3.452269732952117920e-01
2.020000000000000000e+02 4.069651412963867188e+01 -6.012381911277770996e-01 3.733348250389099121e-01 -2.051938623189926147e-01 5.044228956103324890e-02 1.525236248970031738e+00
2.030000000000000000e+02 4.087313079833984375e+01 3.423426747322082520e-01 -1.882444143295288086e+00 -5.784398317337036133e-01 -7.382652163505554199e-01 9.480708837509155273e-01
2.040000000000000000e+02 4.043569564819335938e+01 6.150345206260681152e-01 -2.166392564773559570e+00 -3.922549784183502197e-01 -7.675942778587341309e-01 1.089836478233337402e+00
2.050000000000000000e+02 3.976627349853515625e+01 2.039913982152938843e-01 -1.396887540817260742e+00 3.232047855854034424e-01 -3.221048116683959961e-01 5.803575515747070312e-01
2.060000000000000000e+02 4.078523635864257812e+01 -8.136291503906250000e-01 7.337319850921630859e-01 -2.912063598632812500e-01 1.327576935291290283e-01 1.632548093795776367e+00
2.070000000000000000e+02 4.573017883300781250e+01 -3.571412861347198486e-01 9.787923812866210938e+00 9.297622680664062500e+00 5.725664138793945312e+00 -4.104267358779907227e-01
2.080000000000000000e+02 4.570337677001953125e+01 -1.512098461389541626e-01 8.874879837036132812e+00 9.729368209838867188e+00 5.581274509429931641e+00 4.091793596744537354e-01
2.090000000000000000e+02 4.248381042480468750e+01 1.774124205112457275e-01 1.705390572547912598e+00 5.010620951652526855e-01 6.619358062744140625e-01 -8.570391535758972168e-01
2.100000000000000000e+02 4.172494506835937500e+01 4.370355904102325439e-01 6.972238421440124512e-01 3.087657690048217773e-01 3.017968833446502686e-01 -2.220614552497863770e-01
2.110000000000000000e+02 4.460973739624023438e+01 7.354003190994262695e-01 1.906285166740417480e+00 1.246822261810302734e+01 4.312352180480957031e+00 -3.172980785369873047e+00
2.120000000000000000e+02 4.113782119750976562e+01 -9.674282670021057129e-01 1.659369230270385742e+00 -4.370332658290863037e-01 3.667007982730865479e-01 2.189405679702758789e+00
2.130000000000000000e+02 4.151655197143554688e+01 -1.116565704345703125e+00 2.294732332229614258e+00 -8.051044940948486328e-01 4.468883275985717773e-01 2.378558158874511719e+00
2.140000000000000000e+02 4.164883422851562500e+01 -2.701175212860107422e-01 3.123937249183654785e-01 -7.516180872917175293e-01 -1.317673027515411377e-01 1.064915657043457031e+00
2.150000000000000000e+02 4.216372680664062500e+01 -1.058740615844726562e+00 3.319128751754760742e+00 -1.143948078155517578e+00 6.525542140007019043e-01 1.997149705886840820e+00
2.160000000000000000e+02 4.300063323974609375e+01 -6.438585519790649414e-01 3.691778659820556641e+00 -6.252078413963317871e-01 9.199712872505187988e-01 1.851382255554199219e-01
2.170000000000000000e+02 4.383827972412109375e+01 -1.910786151885986328e+00 5.256171226501464844e+00 4.756037712097167969e+00 3.003662586212158203e+00 4.046503543853759766e+00
2.180000000000000000e+02 4.327904129028320312e+01 -1.728712081909179688e+00 6.598787307739257812e+00 8.476281166076660156e-01 2.233924627304077148e+00 3.570918083190917969e+00
2.190000000000000000e+02 4.312617492675781250e+01 -3.212836086750030518e-01 2.178213596343994141e+00 1.094016656279563904e-01 6.862846016883850098e-01 -3.069711327552795410e-01
2.200000000000000000e+02 4.308837890625000000e+01 -1.632476806640625000e+00 6.288773059844970703e+00 -5.973945856094360352e-01 1.707413434982299805e+00 3.606552124023437500e+00
2.210000000000000000e+02 4.330575942993164062e+01 -8.290040493011474609e-01 5.735913753509521484e+00 -6.665216088294982910e-01 1.520817637443542480e+00 3.849848508834838867e-01
2.220000000000000000e+02 4.288059997558593750e+01 -1.559259533882141113e+00 5.851458549499511719e+00 -6.049949526786804199e-01 1.573939085006713867e+00 3.149327516555786133e+00
2.230000000000000000e+02 4.133010101318359375e+01 -1.040538430213928223e+00 1.820851922035217285e+00 -8.113108873367309570e-01 3.028622865676879883e-01 2.044715404510498047e+00
2.240000000000000000e+02 4.529127883911132812e+01 3.659380674362182617e-01 4.902245998382568359e+00 1.256049728393554688e+01 5.238822937011718750e+00 4.125274121761322021e-01
2.250000000000000000e+02 4.532069015502929688e+01 -6.222545355558395386e-02 8.420271873474121094e+00 1.241538619995117188e+01 6.250697612762451172e+00 1.252533912658691406e+00
2.260000000000000000e+02 4.544453811645507812e+01 6.294701993465423584e-02 7.515269279479980469e+00 1.178182125091552734e+01 5.789127349853515625e+00 9.748352169990539551e-01
2.270000000000000000e+02 4.549239730834960938e+01 -6.893227100372314453e-01 1.194679260253906250e+01 9.912720680236816406e+00 6.557854175567626953e+00 -1.608666896820068359e+00
2.280000000000000000e+02 4.575944519042968750e+01 -9.075154662132263184e-01 1.015573787689208984e+01 8.531314849853515625e+00 5.606115818023681641e+00 -2.921882867813110352e+00
2.290000000000000000e+02 4.542094039916992188e+01 -1.046135306358337402e+00 1.117658138275146484e+01 1.061710929870605469e+01 6.538106918334960938e+00 -3.873537063598632812e+00
2.300000000000000000e+02 4.478692626953125000e+01 -1.705417752265930176e+00 4.862125873565673828e+00 1.276159191131591797e+01 5.287115573883056641e+00 -1.390608310699462891e+00
2.310000000000000000e+02 4.430302047729492188e+01 -1.734430551528930664e+00 4.965584278106689453e+00 1.102646350860595703e+01 4.797614574432373047e+00 2.564162254333496094e+00
2.320000000000000000e+02 4.221327590942382812e+01 1.607109189033508301e+00 6.321486234664916992e-01 2.818371772766113281e+00 1.035156130790710449e+00 -2.394180297851562500e+00
2.330000000000000000e+02 4.400583648681640625e+01 6.093069911003112793e-01 2.927758932113647461e+00 8.622267723083496094e+00 3.465008020401000977e+00 -5.254786014556884766e+00
2.340000000000000000e+02 4.200091171264648438e+01 5.611150264739990234e-01 1.038327932357788086e+00 6.364306211471557617e-01 5.024275779724121094e-01 -7.379431724548339844e-01
2.350000000000000000e+02 4.189849472045898438e+01 8.262516260147094727e-01 8.549245595932006836e-01 8.357095122337341309e-01 5.071902275085449219e-01 -1.178169965744018555e+00
2.360000000000000000e+02 4.226786804199218750e+01 1.154131770133972168e+00 1.087417006492614746e+00 1.917856931686401367e+00 9.015821814537048340e-01 -2.169465541839599609e+00
2.370000000000000000e+02 4.266645431518554688e+01 9.709650278091430664e-02 2.072840213775634766e+00 4.588009417057037354e-01 7.594923377037048340e-01 -1.085131764411926270e+00
2.380000000000000000e+02 4.301306533813476562e+01 1.140058040618896484e+00 1.849124789237976074e+00 3.718986511230468750e+00 1.670433402061462402e+00 -3.528878450393676758e+00
2.390000000000000000e+02 4.385556793212890625e+01 2.972154021263122559e-01 4.465697288513183594e+00 6.729308605194091797e+00 3.358501672744750977e+00 -5.563693523406982422e+00
2.400000000000000000e+02 4.335180282592773438e+01 1.596245914697647095e-01 4.069793224334716797e+00 2.014368772506713867e+00 1.825248599052429199e+00 -3.176359891891479492e+00
2.410000000000000000e+02 4.341623687744140625e+01 -1.824255287647247314e-01 3.976375818252563477e+00 7.629344463348388672e-01 1.421793103218078613e+00 -1.961838364601135254e+00
2.420000000000000000e+02 4.542650222778320312e+01 -2.596046328544616699e-01 1.027088546752929688e+01 1.114834785461425781e+01 6.425769805908203125e+00 6.810322999954223633e-01
2.430000000000000000e+02 4.504161071777343750e+01 2.430908679962158203e-01 4.939016819000244141e+00 1.443392181396484375e+01 5.811881542205810547e+00 1.680426001548767090e-01
2.440000000000000000e+02 4.443091964721679688e+01 8.026639819145202637e-01 1.762585163116455078e+00 1.134715175628662109e+01 3.932921171188354492e+00 -4.135785579681396484e+00
2.450000000000000000e+02 4.421670150756835938e+01 6.169110536575317383e-01 2.449566602706909180e+00 1.050378608703613281e+01 3.886005640029907227e+00 -4.952628135681152344e+00
2.460000000000000000e+02 4.352653884887695312e+01 9.566958062350749969e-03 4.885008335113525391e+00 2.354950666427612305e+00 2.171987533569335938e+00 -3.388422966003417969e+00
2.470000000000000000e+02 4.331838226318359375e+01 -4.010464251041412354e-01 2.485289812088012695e+00 -7.206307351589202881e-02 7.239680290222167969e-01 -6.616854071617126465e-01
2.480000000000000000e+02 4.308307647705078125e+01 -8.767604231834411621e-01 5.543206691741943359e+00 -4.942352175712585449e-01 1.514691352844238281e+00 6.345779299736022949e-01
2.490000000000000000e+02 4.358342742919921875e+01 -1.401561141014099121e+00 8.437664031982421875e+00 1.960300922393798828e+00 3.119389295578002930e+00 3.822252273559570312e+00
2.500000000000000000e+02 4.392876815795898438e+01 -1.672744035720825195e+00 6.594765663146972656e+00 6.280162811279296875e+00 3.862478494644165039e+00 4.436173915863037109e+00
2.510000000000000000e+02 4.513039398193359375e+01 -1.506826400756835938e+00 7.139585494995117188e+00 1.230879688262939453e+01 5.834514617919921875e+00 -3.821064472198486328e+00
2.520000000000000000e+02 4.170388412475585938e+01 -1.184976100921630859e+00 2.839057922363281250e+00 -1.139198660850524902e+00 5.099577903747558594e-01 2.271342039108276367e+00
2.530000000000000000e+02 4.237757873535156250e+01 -1.132792115211486816e+00 4.074618816375732422e+00 -1.156958580017089844e+00 8.752980828285217285e-01 1.926799774169921875e+00
2.540000000000000000e+02 4.138057327270507812e+01 -3.842231631278991699e-01 3.779379725456237793e-01 -7.256423830986022949e-01 -1.043113246560096741e-01 1.287418007850646973e+00
2.550000000000000000e+02 4.154517745971679688e+01 4.420738667249679565e-03 -6.496024131774902344e-01 -7.762830257415771484e-01 -4.277656376361846924e-01 9.461918473243713379e-01
2.560000000000000000e+02 4.162710571289062500e+01 2.032120078802108765e-01 -1.520799756050109863e+00 -4.290395677089691162e-01 -5.849518179893493652e-01 8.370926380157470703e-01
2.570000000000000000e+02 4.404843139648437500e+01 3.779876530170440674e-01 3.708025932312011719e+00 9.000746726989746094e+00 3.812631845474243164e+00 -5.767049312591552734e+00
2.580000000000000000e+02 4.239814376831054688e+01 1.531659841537475586e+00 7.651973366737365723e-01 2.697507858276367188e+00 1.038811564445495605e+00 -2.748434782028198242e+00
2.590000000000000000e+02 4.229409790039062500e+01 2.464031428098678589e-01 1.349802613258361816e+00 3.072606325149536133e-01 4.971189796924591064e-01 -8.055804371833801270e-01
2.600000000000000000e+02 4.365386962890625000e+01 1.054285287857055664e+00 1.986430883407592773e+00 6.330293655395507812e+00 2.495017290115356445e+00 -4.536651611328125000e+00
2.610000000000000000e+02 4.478363037109375000e+01 6.609427928924560547e-01 2.254363775253295898e+00 1.308123016357421875e+01 4.600678443908691406e+00 -2.335111379623413086e+00
2.620000000000000000e+02 4.580544281005859375e+01 -7.096168994903564453e-01 1.023067760467529297e+01 8.535707473754882812e+00 5.629915237426757812e+00 -1.959028840065002441e+00
2.630000000000000000e+02 4.519473648071289062e+01 1.133459582924842834e-01 6.617020606994628906e+00 1.360570049285888672e+01 6.066816329956054688e+00 9.495000839233398438e-01
2.640000000000000000e+02 4.424116516113281250e+01 4.139840900897979736e-01 3.111775636672973633e+00 1.147426033020019531e+01 4.375810623168945312e+00 -5.297852039337158203e+00
2.650000000000000000e+02 4.439471435546875000e+01 6.011200547218322754e-01 2.277900218963623047e+00 1.178677272796630859e+01 4.219401836395263672e+00 -4.331697463989257812e+00
2.660000000000000000e+02 4.549618148803710938e+01 -4.657836258411407471e-01 1.134416103363037109e+01 1.010318470001220703e+01 6.434203624725341797e+00 -3.014285564422607422e-01
2.670000000000000000e+02 4.367549896240234375e+01 1.721357107162475586e-01 4.871648788452148438e+00 3.980653285980224609e+00 2.655690670013427734e+00 -4.679941654205322266e+00
2.680000000000000000e+02 4.329864883422851562e+01 1.211113929748535156e+00 1.687875747680664062e+00 4.900349140167236328e+00 1.976467490196228027e+00 -3.961819648742675781e+00
2.690000000000000000e+02 4.469873428344726562e+01 4.208821356296539307e-01 2.832054615020751953e+00 1.445614337921142578e+01 5.186459541320800781e+00 -2.423880815505981445e+00
2.700000000000000000e+02 4.487425994873046875e+01 3.449042439460754395e-01 3.586784124374389648e+00 1.489917850494384766e+01 5.545788764953613281e+00 -1.083316326141357422e+00
2.710000000000000000e+02 4.460475540161132812e+01 -1.761751651763916016e+00 4.551758289337158203e+00 1.251384925842285156e+01 5.119682312011718750e+00 2.790262401103973389e-01
2.720000000000000000e+02 4.524096298217773438e+01 -1.739921212196350098e+00 5.825021743774414062e+00 1.128742694854736328e+01 5.133734703063964844e+00 -3.667719602584838867e+00
2.730000000000000000e+02 4.527222061157226562e+01 -1.349708199501037598e+00 8.877803802490234375e+00 1.187109756469726562e+01 6.224670410156250000e+00 -4.481652259826660156e+00
2.740000000000000000e+02 4.344692230224609375e+01 -1.238594412803649902e+00 7.865741729736328125e+00 1.950060017406940460e-02 2.365572690963745117e+00 2.861284494400024414e+00
2.750000000000000000e+02 4.373909378051757812e+01 -1.553171873092651367e+00 7.320887565612792969e+00 3.373284816741943359e+00 3.208251714706420898e+00 4.604276657104492188e+00
2.760000000000000000e+02 4.496354293823242188e+01 -1.620862483978271484e+00 5.939345836639404297e+00 1.320300388336181641e+01 5.742704868316650391e+00 -2.842625379562377930e+00
2.770000000000000000e+02 4.553834533691406250e+01 -1.324683070182800293e+00 8.800700187683105469e+00 1.004296112060546875e+01 5.653098583221435547e+00 -4.247607231140136719e+00
2.780000000000000000e+02 4.413231658935546875e+01 -1.714340329170227051e+00 5.636489391326904297e+00 8.429669380187988281e+00 4.219847679138183594e+00 3.879367351531982422e+00
2.790000000000000000e+02 4.436083221435546875e+01 -2.084145307540893555e+00 3.528045177459716797e+00 8.499304771423339844e+00 3.608204841613769531e+00 1.584173321723937988e+00
2.800000000000000000e+02 4.453168106079101562e+01 -2.046352386474609375e+00 3.263337850570678711e+00 1.008822441101074219e+01 4.005468845367431641e+00 6.263320446014404297e-01
2.810000000000000000e+02 4.471176528930664062e+01 -1.995989441871643066e+00 3.451054096221923828e+00 1.034546184539794922e+01 4.138954639434814453e+00 -5.671334266662597656e-01
2.820000000000000000e+02 4.489278030395507812e+01 -1.933553576469421387e+00 4.054065704345703125e+00 1.157215690612792969e+01 4.687866687774658203e+00 -1.816919207572937012e+00
2.830000000000000000e+02 4.506996536254882812e+01 -1.848909378051757812e+00 4.672185420989990234e+00 1.134727859497070312e+01 4.805839061737060547e+00 -2.756119966506958008e+00
2.840000000000000000e+02 4.512959289550781250e+01 4.858703911304473877e-01 3.703858613967895508e+00 1.316759586334228516e+01 5.061436176300048828e+00 -3.475703001022338867e-01
2.850000000000000000e+02 4.578477478027343750e+01 -5.428550839424133301e-01 1.040047073364257812e+01 8.645997047424316406e+00 5.713940143585205078e+00 -1.119197726249694824e+00
2.860000000000000000e+02 4.552493667602539062e+01 -1.546371340751647949e+00 7.274248123168945312e+00 9.788223266601562500e+00 5.118741512298583984e+00 -4.387159347534179688e+00
2.870000000000000000e+02 4.546233749389648438e+01 -1.190610051155090332e+00 9.902638435363769531e+00 1.018906116485595703e+01 6.027509689331054688e+00 -3.978765010833740234e+00
2.880000000000000000e+02 4.569335937500000000e+01 -1.264148831367492676e+00 8.921374320983886719e+00 8.959758758544921875e+00 5.364340305328369141e+00 -4.122056961059570312e+00
2.890000000000000000e+02 4.541078186035156250e+01 -1.468165040016174316e+00 7.826593875885009766e+00 1.043945598602294922e+01 5.479815006256103516e+00 -4.301304340362548828e+00
2.900000000000000000e+02 4.571616363525390625e+01 -1.101489067077636719e+00 1.004936218261718750e+01 9.022793769836425781e+00 5.721646785736083984e+00 -3.744741439819335938e+00
2.910000000000000000e+02 4.565262985229492188e+01 1.468374114483594894e-02 7.626109123229980469e+00 1.041386032104492188e+01 5.411990642547607422e+00 6.684378385543823242e-01
2.920000000000000000e+02 4.285270309448242188e+01 3.840230032801628113e-02 2.535423994064331055e+00 7.200124859809875488e-01 9.766309261322021484e-01 -1.243695259094238281e+00
2.930000000000000000e+02 4.304345703125000000e+01 -1.765456423163414001e-02 2.955228328704833984e+00 6.343511939048767090e-01 1.076873898506164551e+00 -1.514059185981750488e+00
2.940000000000000000e+02 4.323268127441406250e+01 -9.207477420568466187e-02 3.439955949783325195e+00 9.016364216804504395e-01 1.302477717399597168e+00 -1.652656793594360352e+00
2.950000000000000000e+02 4.198430633544921875e+01 1.020727753639221191e+00 8.184232711791992188e-01 1.243041038513183594e+00 6.184393167495727539e-01 -1.603273630142211914e+00
2.960000000000000000e+02 4.242494583129882812e+01 8.236954808235168457e-01 1.435368180274963379e+00 1.586302399635314941e+00 9.065011739730834961e-01 -2.062451362609863281e+00
2.970000000000000000e+02 4.146223831176757812e+01 -1.903263181447982788e-01 -2.502154931426048279e-02 -6.262388229370117188e-01 -1.953781098127365112e-01 9.452676773071289062e-01
2.980000000000000000e+02 4.260573577880859375e+01 -1.513539254665374756e-01 7.870867848396301270e-01 -3.356845378875732422e-01 1.354206800460815430e-01 -3.315356001257896423e-02
2.990000000000000000e+02 4.142328262329101562e+01 -8.508572578430175781e-01 1.745668053627014160e+00 -7.867639660835266113e-01 2.876712381839752197e-01 1.950143098831176758e+00
3.000000000000000000e+02 4.181669235229492188e+01 1.299102604389190674e-01 -1.044563651084899902e+00 -3.298832178115844727e-01 -4.123340845108032227e-01 6.424480676651000977e-01
3.010000000000000000e+02 4.248065948486328125e+01 -1.444049596786499023e+00 4.757293224334716797e+00 -1.181813240051269531e+00 1.072643995285034180e+00 2.601720333099365234e+00
3.020000000000000000e+02 4.358068847656250000e+01 -1.689811944961547852e+00 7.058325290679931641e+00 2.782845973968505859e+00 2.952351331710815430e+00 4.091238975524902344e+00
3.030000000000000000e+02 4.363022994995117188e+01 -1.866322159767150879e+00 5.815342426300048828e+00 3.239741325378417969e+00 2.716525077819824219e+00 4.134502410888671875e+00
3.040000000000000000e+02 4.416845321655273438e+01 -1.852719545364379883e+00 4.636593818664550781e+00 8.018696784973144531e+00 3.796587228775024414e+00 3.290101051330566406e+00
3.050000000000000000e+02 4.345225143432617188e+01 -1.818458676338195801e+00 5.984629631042480469e+00 1.250537395477294922e+00 2.170550107955932617e+00 4.180830955505371094e+00
3.060000000000000000e+02 4.189832305908203125e+01 -1.241806745529174805e+00 3.094214200973510742e+00 -1.152310967445373535e+00 5.825709700584411621e-01 2.406987428665161133e+00
3.070000000000000000e+02 4.220058059692382812e+01 -2.376394905149936676e-02 -6.446449458599090576e-02 -2.546124756336212158e-01 -9.572309255599975586e-02 3.736740052700042725e-01
3.080000000000000000e+02 4.403580474853515625e+01 -1.997841477394104004e+00 4.307964801788330078e+00 6.753798484802246094e+00 3.318528890609741211e+00 3.241462469100952148e+00
3.090000000000000000e+02 4.429059600830078125e+01 -1.956974387168884277e+00 3.938928842544555664e+00 8.865946769714355469e+00 3.841462612152099609e+00 2.245290517807006836e+00
3.100000000000000000e+02 4.205850219726562500e+01 1.216018199920654297e+00 9.701215028762817383e-01 1.567943930625915527e+00 7.614195942878723145e-01 -1.832045197486877441e+00
3.110000000000000000e+02 4.181053161621093750e+01 6.321511864662170410e-01 3.484753668308258057e-01 3.917388916015625000e-01 2.220642715692520142e-01 -7.976849079132080078e-01
3.120000000000000000e+02 4.173468780517578125e+01 -7.695808261632919312e-02 -2.751019597053527832e-01 -5.487818121910095215e-01 -2.471651285886764526e-01 8.868488073348999023e-01
3.130000000000000000e+02 4.258501434326171875e+01 1.438798308372497559e+00 1.222362160682678223e+00 3.146704196929931641e+00 1.310719966888427734e+00 -3.015577316284179688e+00
3.140000000000000000e+02 4.403829574584960938e+01 8.919537067413330078e-01 2.018979072570800781e+00 8.637515068054199219e+00 3.196948051452636719e+00 -4.835284233093261719e+00
3.150000000000000000e+02 4.313364410400390625e+01 1.290843963623046875e+00 1.612301826477050781e+00 4.360106945037841797e+00 1.791722655296325684e+00 -3.810810804367065430e+00
3.160000000000000000e+02 4.259655761718750000e+01 1.019233822822570801e+00 1.640962243080139160e+00 2.339699268341064453e+00 1.194198489189147949e+00 -2.571102619171142578e+00
3.170000000000000000e+02 4.351010894775390625e+01 8.243808150291442871e-01 2.481188058853149414e+00 5.102527141571044922e+00 2.275114536285400391e+00 -4.412628650665283203e+00
3.180000000000000000e+02 4.367062377929687500e+01 7.173777222633361816e-01 3.008563280105590820e+00 6.161521911621093750e+00 2.751025676727294922e+00 -4.830849170684814453e+00
3.190000000000000000e+02 4.317105865478515625e+01 1.014150023460388184e+00 2.003482818603515625e+00 3.976869106292724609e+00 1.794105529785156250e+00 -3.794427394866943359e+00
3.200000000000000000e+02 4.260606002807617188e+01 6.745721101760864258e-01 2.167234420776367188e+00 1.590126752853393555e+00 1.127208352088928223e+00 -2.099311351776123047e+00
3.210000000000000000e+02 4.278227233886718750e+01 -1.858703345060348511e-01 1.100735187530517578e+00 1.570505648851394653e-01 3.773357272148132324e-01 -3.006583750247955322e-01
3.220000000000000000e+02 4.200714111328125000e+01 5.472739785909652710e-02 -5.612372159957885742e-01 -2.446523159742355347e-01 -2.417668551206588745e-01 5.281111001968383789e-01
3.230000000000000000e+02 4.324784469604492188e+01 -1.402303814888000488e+00 7.279474258422851562e+00 2.374709993600845337e-01 2.255083560943603516e+00 2.921552419662475586e+00
3.240000000000000000e+02 4.212104034423828125e+01 -2.619200646877288818e-01 6.945091485977172852e-01 -5.071182250976562500e-01 5.621727555990219116e-02 6.956065297126770020e-01
3.250000000000000000e+02 4.272650146484375000e+01 -1.290197968482971191e+00 5.303486347198486328e+00 -1.102028131484985352e+00 1.260437488555908203e+00 2.173974275588989258e+00
3.260000000000000000e+02 4.256124877929687500e+01 -5.359190702438354492e-01 2.455273151397705078e+00 -6.844342350959777832e-01 5.312516689300537109e-01 6.098182201385498047e-01
3.270000000000000000e+02 4.150151062011718750e+01 -6.527170538902282715e-01 1.267542719841003418e+00 -8.482651114463806152e-01 1.257832795381546021e-01 1.556000947952270508e+00
3.280000000000000000e+02 4.345003128051757812e+01 5.918281674385070801e-01 3.316290855407714844e+00 4.161451339721679688e+00 2.243322610855102539e+00 -4.222893238067626953e+00
3.290000000000000000e+02 4.313440704345703125e+01 2.635687589645385742e-01 3.395006179809570312e+00 1.919020056724548340e+00 1.594207882881164551e+00 -2.677897691726684570e+00
3.300000000000000000e+02 4.353871536254882812e+01 3.652654290199279785e-01 4.073046207427978516e+00 3.962315559387207031e+00 2.410608530044555664e+00 -4.268363952636718750e+00
3.310000000000000000e+02 4.320085906982421875e+01 5.643165707588195801e-01 3.162114858627319336e+00 2.858658075332641602e+00 1.806231856346130371e+00 -3.485935211181640625e+00
3.320000000000000000e+02 4.278343200683593750e+01 1.368140816688537598e+00 1.255282044410705566e+00 3.320688486099243164e+00 1.372791171073913574e+00 -3.274922609329223633e+00
3.330000000000000000e+02 4.291733169555664062e+01 2.737777531147003174e-01 2.766603946685791016e+00 1.340679645538330078e+00 1.232185125350952148e+00 -2.022042751312255859e+00
3.340000000000000000e+02 4.210077667236328125e+01 7.493170499801635742e-01 9.624211192131042480e-01 9.911302924156188965e-01 5.860654115676879883e-01 -1.427040815353393555e+00
3.350000000000000000e+02 4.233378219604492188e+01 -3.719530999660491943e-01 1.391046166419982910e+00 -5.393763780593872070e-01 2.555009424686431885e-01 5.112827420234680176e-01
3.360000000000000000e+02 4.192584991455078125e+01 -1.643561869859695435e-01 1.924625635147094727e-01 -5.226023197174072266e-01 -9.904193133115768433e-02 7.699739336967468262e-01
3.370000000000000000e+02 4.173786926269531250e+01 -8.527076244354248047e-01 2.106228113174438477e+00 -1.066215991973876953e+00 3.120036423206329346e-01 1.802934408187866211e+00
3.380000000000000000e+02 4.268155288696289062e+01 -1.097931265830993652e+00 4.849559783935546875e+00 -8.915643095970153809e-01 1.187398672103881836e+00 1.669022321701049805e+00
3.390000000000000000e+02 4.267340469360351562e+01 -1.508597254753112793e+00 5.250612258911132812e+00 -1.319508314132690430e+00 1.179331183433532715e+00 2.951839923858642578e+00
3.400000000000000000e+02 4.274412918090820312e+01 -7.557677626609802246e-01 3.774807453155517578e+00 -5.982347130775451660e-01 9.529718160629272461e-01 6.434015035629272461e-01
3.410000000000000000e+02 4.246280288696289062e+01 1.215674877166748047e+00 1.178738832473754883e+00 2.296725749969482422e+00 1.042639374732971191e+00 -2.591641426086425781e+00
3.420000000000000000e+02 4.281087112426757812e+01 1.091052055358886719e+00 1.832170724868774414e+00 2.958654642105102539e+00 1.437247633934020996e+00 -3.151031494140625000e+00
3.430000000000000000e+02 4.297726058959960938e+01 6.776936054229736328e-01 2.683151721954345703e+00 2.450913667678833008e+00 1.540219664573669434e+00 -2.946532249450683594e+00
3.440000000000000000e+02 4.237862014770507812e+01 -7.335743308067321777e-01 3.007253170013427734e+00 -8.231089115142822266e-01 6.552432775497436523e-01 1.087969541549682617e+00
3.450000000000000000e+02 4.122168731689453125e+01 -7.737365365028381348e-01 1.004936099052429199e+00 -5.975908637046813965e-01 1.222035586833953857e-01 1.711024522781372070e+00
3.460000000000000000e+02 4.159505462646484375e+01 -9.470827579498291016e-01 2.051841259002685547e+00 -9.195142388343811035e-01 3.396981358528137207e-01 1.893591642379760742e+00
3.470000000000000000e+02 4.194424057006835938e+01 -1.034281373023986816e+00 2.957336187362670898e+00 -1.174808502197265625e+00 5.347583293914794922e-01 1.992825388908386230e+00
3.480000000000000000e+02 4.175286483764648438e+01 -1.014379978179931641e+00 2.514990091323852539e+00 -1.007713913917541504e+00 4.521828889846801758e-01 2.132511854171752930e+00
3.490000000000000000e+02 4.130215454101562500e+01 -5.791535973548889160e-01 9.169380068778991699e-01 -7.288182973861694336e-01 5.643590912222862244e-02 1.443821907043457031e+00
3.500000000000000000e+02 4.156652069091796875e+01 -4.572916626930236816e-01 8.673508763313293457e-01 -7.586115002632141113e-01 3.262181207537651062e-02 1.193273782730102539e+00
3.510000000000000000e+02 4.191313171386718750e+01 3.676356375217437744e-01 7.398215532302856445e-01 1.502494513988494873e-01 2.670212984085083008e-01 -4.805436134338378906e-01
3.520000000000000000e+02 4.210060119628906250e+01 3.008902072906494141e-01 1.048230767250061035e+00 4.284548461437225342e-01 4.430056810379028320e-01 -5.451458692550659180e-01
3.530000000000000000e+02 4.227600097656250000e+01 6.488373279571533203e-01 1.635402441024780273e+00 9.996431469917297363e-01 7.905136942863464355e-01 -1.446575164794921875e+00
3.540000000000000000e+02 4.274732589721679688e+01 2.898980081081390381e-01 2.264726638793945312e+00 9.683603048324584961e-01 9.699260592460632324e-01 -1.595447301864624023e+00
3.550000000000000000e+02 4.221268081665039062e+01 9.484865665435791016e-01 1.254285812377929688e+00 1.497952699661254883e+00 8.256715536117553711e-01 -1.820292592048645020e+00
3.560000000000000000e+02 4.231266784667968750e+01 1.337468266487121582e+00 1.042923569679260254e+00 2.460677623748779297e+00 1.051080346107482910e+00 -2.376826763153076172e+00
3.570000000000000000e+02 4.213215255737304688e+01 1.410154342651367188e+00 6.890656352043151855e-01 2.088701248168945312e+00 8.333300352096557617e-01 -2.194763898849487305e+00
3.580000000000000000e+02 4.297275161743164062e+01 1.342552542686462402e+00 1.418569922447204590e+00 3.864542007446289062e+00 1.584933638572692871e+00 -3.502351999282836914e+00
3.590000000000000000e+02 4.334442520141601562e+01 9.221228361129760742e-01 2.382370471954345703e+00 4.687936305999755859e+00 2.121092081069946289e+00 -4.067971706390380859e+00
3.600000000000000000e+02 4.316155242919921875e+01 8.135231137275695801e-01 2.473865509033203125e+00 3.651473283767700195e+00 1.837601661682128906e+00 -3.686027288436889648e+00
3.610000000000000000e+02 4.347536087036132812e+01 1.134384989738464355e+00 1.782646656036376953e+00 5.496923923492431641e+00 2.183871269226074219e+00 -4.284331321716308594e+00
3.620000000000000000e+02 4.383742523193359375e+01 9.617026448249816895e-01 2.045732259750366211e+00 7.307750701904296875e+00 2.806044816970825195e+00 -4.797875881195068359e+00
3.630000000000000000e+02 4.377440643310546875e+01 5.198268294334411621e-01 3.455799341201782227e+00 6.425897121429443359e+00 2.964509010314941406e+00 -5.218335628509521484e+00
3.640000000000000000e+02 4.424269104003906250e+01 8.533925414085388184e-01 1.866293191909790039e+00 1.004417324066162109e+01 3.573139905929565430e+00 -4.536227703094482422e+00
3.650000000000000000e+02 4.454264831542968750e+01 5.204579830169677734e-01 2.406160116195678711e+00 1.341461086273193359e+01 4.746231555938720703e+00 -3.578209877014160156e+00
3.660000000000000000e+02 4.495849609375000000e+01 5.821375250816345215e-01 2.900779247283935547e+00 1.328360080718994141e+01 4.855313777923583984e+00 -1.263644576072692871e+00
3.670000000000000000e+02 4.543837356567382812e+01 2.661387622356414795e-01 5.806486129760742188e+00 1.198067283630371094e+01 5.336147785186767578e+00 7.343439459800720215e-01
3.680000000000000000e+02 4.555693435668945312e+01 1.593846380710601807e-01 6.789159297943115234e+00 1.089243888854980469e+01 5.304479598999023438e+00 6.801911592483520508e-01
3.690000000000000000e+02 4.555204010009765625e+01 -1.085108071565628052e-01 8.792268753051757812e+00 1.069564247131347656e+01 5.846373558044433594e+00 8.101358413696289062e-01
3.700000000000000000e+02 4.565008544921875000e+01 -6.946961879730224609e-01 1.106422710418701172e+01 8.991714477539062500e+00 6.016782283782958984e+00 -1.779309988021850586e+00
3.710000000000000000e+02 4.558076095581054688e+01 -9.006651639938354492e-01 1.109622383117675781e+01 9.383265495300292969e+00 6.143846988677978516e+00 -2.788633823394775391e+00
3.720000000000000000e+02 4.562862777709960938e+01 -1.407853245735168457e+00 7.837633132934570312e+00 9.368583679199218750e+00 5.161865234375000000e+00 -4.451543331146240234e+00
3.730000000000000000e+02 4.539889526367187500e+01 -1.647242069244384766e+00 6.653023242950439453e+00 1.033977699279785156e+01 5.097840309143066406e+00 -4.232894420623779297e+00
3.740000000000000000e+02 4.327745437622070312e+01 -6.150066852569580078e-01 4.217307567596435547e+00 2.873448282480239868e-02 1.273812651634216309e+00 -4.026150405406951904e-01
3.750000000000000000e+02 4.315294265747070312e+01 -1.084012866020202637e+00 6.435055255889892578e+00 -8.016325831413269043e-01 1.690026760101318359e+00 1.615579605102539062e+00
3.760000000000000000e+02 4.169995498657226562e+01 -6.858423948287963867e-01 1.753643631935119629e+00 -8.367184400558471680e-01 2.750775516033172607e-01 1.563939452171325684e+00
3.770000000000000000e+02 4.420085525512695312e+01 -2.071300983428955078e+00 3.691691875457763672e+00 7.295030593872070312e+00 3.296016693115234375e+00 2.813156604766845703e+00
3.780000000000000000e+02 4.342045974731445312e+01 -1.548576593399047852e+00 7.162166595458984375e+00 7.714461684226989746e-01 2.380083799362182617e+00 3.906187772750854492e+00
3.790000000000000000e+02 4.335570526123046875e+01 -1.042159438133239746e+00 7.520843505859375000e+00 -6.932184100151062012e-02 2.235456466674804688e+00 1.553317666053771973e+00
3.800000000000000000e+02 4.292229080200195312e+01 -1.317402124404907227e+00 6.082749366760253906e+00 -8.622333407402038574e-01 1.566154837608337402e+00 2.454287767410278320e+00
3.810000000000000000e+02 4.310231018066406250e+01 -1.264333009719848633e+00 6.597196102142333984e+00 -9.067807197570800781e-01 1.707124590873718262e+00 2.275234460830688477e+00
3.820000000000000000e+02 4.229044342041015625e+01 -1.368241429328918457e+00 4.116529941558837891e+00 -1.393695712089538574e+00 8.168501853942871094e-01 2.711121797561645508e+00
3.830000000000000000e+02 4.255331039428710938e+01 -1.241018414497375488e+00 4.591000080108642578e+00 -1.361336588859558105e+00 9.688990712165832520e-01 2.347908735275268555e+00
3.840000000000000000e+02 4.209589767456054688e+01 -1.299346923828125000e+00 3.771539688110351562e+00 -1.205562472343444824e+00 7.697931528091430664e-01 2.539400815963745117e+00
3.850000000000000000e+02 4.240759277343750000e+01 -1.093518659472465515e-01 4.151219129562377930e-01 -1.791870594024658203e-01 7.078045606613159180e-02 2.336156666278839111e-01
3.860000000000000000e+02 4.270928573608398438e+01 -3.524978756904602051e-01 1.977934598922729492e+00 -3.250294625759124756e-01 4.958715438842773438e-01 8.141524344682693481e-02
3.870000000000000000e+02 4.296092987060546875e+01 -2.446321994066238403e-01 1.353471517562866211e+00 7.451382279396057129e-02 4.283956289291381836e-01 -2.942030429840087891e-01
3.880000000000000000e+02 4.294674301147460938e+01 -4.223343729972839355e-01 2.501991748809814453e+00 -2.504126355051994324e-02 7.430851459503173828e-01 -1.361956447362899780e-01
3.890000000000000000e+02 4.441986846923828125e+01 4.198968112468719482e-01 2.692976236343383789e+00 1.320350265502929688e+01 4.768943786621093750e+00 -4.303650856018066406e+00
3.900000000000000000e+02 4.544616699218750000e+01 -8.911749124526977539e-01 1.199167823791503906e+01 1.028413391113281250e+01 6.682743549346923828e+00 -3.098291873931884766e+00
3.910000000000000000e+02 4.443572998046875000e+01 -1.848939776420593262e+00 4.263697147369384766e+00 1.044951343536376953e+01 4.413962841033935547e+00 1.569206357002258301e+00
3.920000000000000000e+02 4.217324066162109375e+01 4.910403788089752197e-01 1.121074914932250977e+00 5.356934666633605957e-01 4.970304965972900391e-01 -9.469358325004577637e-01
3.930000000000000000e+02 4.234843826293945312e+01 4.752030670642852783e-01 1.498743772506713867e+00 8.726823925971984863e-01 7.114278674125671387e-01 -1.246963143348693848e+00
3.940000000000000000e+02 4.183440017700195312e+01 -3.587642312049865723e-01 7.721393704414367676e-01 -7.141745090484619141e-01 1.738945394754409790e-02 1.050108909606933594e+00
3.950000000000000000e+02 4.201669692993164062e+01 -4.775726795196533203e-01 1.486206650733947754e+00 -7.490208745002746582e-01 2.211557328701019287e-01 9.691898226737976074e-01
3.960000000000000000e+02 4.174170303344726562e+01 -5.239905714988708496e-01 1.185877323150634766e+00 -8.128182291984558105e-01 1.119177266955375671e-01 1.240124940872192383e+00
3.970000000000000000e+02 4.220995712280273438e+01 -5.894808769226074219e-01 2.105248928070068359e+00 -8.408427834510803223e-01 3.793218433856964111e-01 9.963473081588745117e-01
3.980000000000000000e+02 4.287230682373046875e+01 -9.788691401481628418e-01 4.970279693603515625e+00 -1.101902484893798828e+00 1.160513043403625488e+00 1.334823250770568848e+00
3.990000000000000000e+02 4.298815155029296875e+01 -1.146015644073486328e+00 5.753682136535644531e+00 -7.009030580520629883e-01 1.515833735466003418e+00 1.863368153572082520e+00
4.000000000000000000e+02 4.217077636718750000e+01 -8.109841942787170410e-01 2.887786865234375000e+00 -1.171536684036254883e+00 5.148750543594360352e-01 1.479751706123352051e+00
4.010000000000000000e+02 4.194502639770507812e+01 -8.188800811767578125e-01 2.373498439788818359e+00 -9.224023222923278809e-01 4.353288710117340088e-01 1.618257403373718262e+00
4.020000000000000000e+02 4.277526473999023438e+01 8.485160470008850098e-01 1.959111452102661133e+00 2.346698760986328125e+00 1.291743159294128418e+00 -2.843707323074340820e+00
4.030000000000000000e+02 4.259577178955078125e+01 3.612220883369445801e-01 1.849025726318359375e+00 9.494761228561401367e-01 8.395505547523498535e-01 -1.525767326354980469e+00
4.040000000000000000e+02 4.253060531616210938e+01 -9.236930608749389648e-01 3.774856805801391602e+00 -1.168454766273498535e+00 7.819206118583679199e-01 1.468133687973022461e+00
4.050000000000000000e+02 4.187776947021484375e+01 -6.328846216201782227e-01 1.851742982864379883e+00 -1.019181847572326660e+00 2.497683465480804443e-01 1.381845831871032715e+00
4.060000000000000000e+02 4.252112960815429688e+01 5.031480789184570312e-01 1.873923540115356445e+00 1.053823232650756836e+00 8.783240318298339844e-01 -1.579486012458801270e+00
4.070000000000000000e+02 4.284440612792968750e+01 4.634324312210083008e-01 2.464254856109619141e+00 1.545408964157104492e+00 1.202899217605590820e+00 -2.333383321762084961e+00
4.080000000000000000e+02 4.267557525634765625e+01 5.224411487579345703e-01 2.311280488967895508e+00 1.525151491165161133e+00 1.150929570198059082e+00 -2.090975761413574219e+00
4.090000000000000000e+02 3.933619689941406250e+01 2.695218801498413086e+00 -1.458194136619567871e+00 -1.944386065006256104e-01 -4.957898259162902832e-01 -1.171557784080505371e+00
4.100000000000000000e+02 4.028724670410156250e+01 1.228490591049194336e+00 -1.050288915634155273e+00 -2.189891338348388672e-01 -3.807834088802337646e-01 1.814946681261062622e-01
4.110000000000000000e+02 4.014524078369140625e+01 2.364990472793579102e+00 -1.963099122047424316e+00 9.005307555198669434e-01 -3.187705278396606445e-01 -1.259095311164855957e+00
4.120000000000000000e+02 4.086568450927734375e+01 1.505735993385314941e+00 -7.703738808631896973e-01 7.504810094833374023e-01 -5.967875476926565170e-03 -6.901474595069885254e-01
4.130000000000000000e+02 4.179990386962890625e+01 1.107495546340942383e+00 8.155193328857421875e-01 1.131245136260986328e+00 5.840293765068054199e-01 -1.468239545822143555e+00
4.140000000000000000e+02 4.146413803100585938e+01 1.724916934967041016e+00 -2.549514174461364746e-01 1.719359755516052246e+00 4.393225014209747314e-01 -1.688149571418762207e+00
4.150000000000000000e+02 4.024113082885742188e+01 1.726418495178222656e+00 -1.709921598434448242e+00 5.958278179168701172e-01 -3.342281281948089600e-01 -1.110177040100097656e-01
4.160000000000000000e+02 3.980876922607421875e+01 1.545071244239807129e+00 -1.913403511047363281e+00 3.895927965641021729e-02 -5.623332262039184570e-01 6.029686331748962402e-01
4.170000000000000000e+02 4.182477951049804688e+01 1.288975358009338379e+00 6.655139923095703125e-01 1.376664876937866211e+00 6.126536726951599121e-01 -1.687895774841308594e+00
4.180000000000000000e+02 4.153664779663085938e+01 8.674298524856567383e-01 3.231236636638641357e-01 5.711943507194519043e-01 2.682954072952270508e-01 -6.558785438537597656e-01
4.190000000000000000e+02 4.170722579956054688e+01 9.749477505683898926e-01 4.540399014949798584e-01 1.033049345016479492e+00 4.461267590522766113e-01 -1.143535256385803223e+00
4.200000000000000000e+02 4.182362365722656250e+01 1.771356821060180664e+00 5.215765163302421570e-02 2.040418148040771484e+00 6.277726888656616211e-01 -2.117588043212890625e+00
4.210000000000000000e+02 4.082662200927734375e+01 9.863194823265075684e-01 -4.979441463947296143e-01 2.374909371137619019e-01 -7.813596725463867188e-02 8.218039572238922119e-02
4.220000000000000000e+02 4.137121582031250000e+01 6.579340696334838867e-01 -3.830566257238388062e-02 7.118026912212371826e-02 9.862381964921951294e-03 -2.581756412982940674e-01
4.230000000000000000e+02 4.090408325195312500e+01 2.062552213668823242e+00 -6.465724706649780273e-01 1.478876829147338867e+00 2.496913224458694458e-01 -1.273028373718261719e+00
4.240000000000000000e+02 4.138199615478515625e+01 1.308998465538024902e+00 -4.694081470370292664e-02 1.084587097167968750e+00 3.112938702106475830e-01 -1.010163307189941406e+00
4.250000000000000000e+02 3.923878097534179688e+01 1.920956015586853027e+00 -4.190141201019287109e+00 -7.212468385696411133e-01 -1.473416447639465332e+00 -1.038272827863693237e-01
4.260000000000000000e+02 4.185161209106445312e+01 1.499079465866088867e+00 4.609263837337493896e-01 1.642959594726562500e+00 6.311658024787902832e-01 -1.801188588142395020e+00
4.270000000000000000e+02 4.165649032592773438e+01 1.206677317619323730e+00 4.989718496799468994e-01 1.196592926979064941e+00 5.086694359779357910e-01 -1.455615758895874023e+00
4.280000000000000000e+02 3.316690444946289062e+01 7.908318638801574707e-01 -2.106688737869262695e+00 9.859752655029296875e-02 -6.024273633956909180e-01 -6.551111936569213867e-01
4.290000000000000000e+02 3.399934387207031250e+01 6.623410582542419434e-01 -2.720489978790283203e+00 -2.066837847232818604e-01 -8.781521320343017578e-01 -1.089030504226684570e+00
4.300000000000000000e+02 3.436914443969726562e+01 1.189764857292175293e+00 -3.014367580413818359e+00 -2.153786867856979370e-01 -9.689239263534545898e-01 -4.174308180809020996e-01
4.310000000000000000e+02 3.783919525146484375e+01 2.484255313873291016e+00 -1.517720460891723633e+00 3.998576104640960693e-01 -3.353588581085205078e-01 -1.221201419830322266e-01
4.320000000000000000e+02 3.703740692138671875e+01 1.373660683631896973e+00 -3.578809738159179688e+00 -7.210323214530944824e-02 -1.095273852348327637e+00 -7.200812697410583496e-01
4.330000000000000000e+02 3.334777450561523438e+01 3.404574692249298096e-01 -1.678787469863891602e+00 -1.451105326414108276e-01 -5.471693873405456543e-01 -7.898924350738525391e-01
4.340000000000000000e+02 3.353592681884765625e+01 -1.197979226708412170e-01 -2.069390058517456055e+00 -1.980526447296142578e-01 -6.802328228950500488e-01 -8.143275380134582520e-01
4.350000000000000000e+02 3.501575469970703125e+01 1.059977054595947266e+00 -3.573954820632934570e+00 -6.333780884742736816e-01 -1.262199878692626953e+00 -1.095484018325805664e+00
4.360000000000000000e+02 3.555833053588867188e+01 6.905598640441894531e-01 -1.688148140907287598e+00 1.867929473519325256e-02 -5.008406639099121094e-01 -5.230274796485900879e-01
4.370000000000000000e+02 3.575750350952148438e+01 1.575511693954467773e+00 -4.891918182373046875e+00 -5.101374983787536621e-01 -1.620616793632507324e+00 -1.018658041954040527e+00
4.380000000000000000e+02 3.622613906860351562e+01 1.030777692794799805e+00 -2.494448423385620117e+00 -2.497295290231704712e-01 -8.232533931732177734e-01 -4.866527318954467773e-01
4.390000000000000000e+02 3.782004547119140625e+01 1.683207035064697266e+00 -4.320296764373779297e+00 5.746676027774810791e-02 -1.278849005699157715e+00 -1.411198735237121582e+00
4.400000000000000000e+02 3.853881835937500000e+01 1.949121356010437012e+00 -5.101141929626464844e+00 -1.258847236633300781e+00 -1.907996773719787598e+00 -1.301238179206848145e+00
4.410000000000000000e+02 3.856629180908203125e+01 2.753397226333618164e+00 -6.749782562255859375e-01 -9.629650712013244629e-01 -4.913830161094665527e-01 -9.779874980449676514e-02
4.420000000000000000e+02 3.379653930664062500e+01 1.053609251976013184e+00 -2.038519382476806641e+00 -3.893142938613891602e-02 -6.232352852821350098e-01 -3.255421221256256104e-01
4.430000000000000000e+02 3.424254989624023438e+01 2.046553343534469604e-01 -1.573045969009399414e+00 -3.577653765678405762e-01 -5.792434215545654297e-01 -9.107002019882202148e-01
4.440000000000000000e+02 3.494199752807617188e+01 4.520132541656494141e-01 -1.388262987136840820e+00 -5.432033538818359375e-01 -5.794399380683898926e-01 -4.904699623584747314e-01
4.450000000000000000e+02 3.690625000000000000e+01 2.049182176589965820e+00 -2.870881795883178711e+00 -1.645942330360412598e-01 -9.106428027153015137e-01 -9.872473478317260742e-01
4.460000000000000000e+02 3.083432960510253906e+01 -2.170480340719223022e-01 -1.620757699012756348e+00 2.981536388397216797e-01 -3.967812359333038330e-01 -8.587387204170227051e-02
4.470000000000000000e+02 3.085270309448242188e+01 -9.999262094497680664e-01 -1.241576790809631348e+00 1.390625983476638794e-01 -3.307542502880096436e-01 -1.866412162780761719e-01
4.480000000000000000e+02 3.216926574707031250e+01 -6.736713051795959473e-01 -1.942386388778686523e+00 -1.461611092090606689e-01 -6.265642642974853516e-01 -7.041136026382446289e-01
4.490000000000000000e+02 3.193232536315917969e+01 -3.087860345840454102e-01 -1.688123106956481934e+00 4.433860257267951965e-02 -4.931353628635406494e-01 -3.832808434963226318e-01
4.500000000000000000e+02 3.283817291259765625e+01 -3.977768719196319580e-01 -2.055415391921997070e+00 -3.310258984565734863e-01 -7.159323692321777344e-01 -7.020078897476196289e-01
4.510000000000000000e+02 3.245020675659179688e+01 5.051715970039367676e-01 -1.605544447898864746e+00 1.287083178758621216e-01 -4.430508613586425781e-01 -3.974882066249847412e-01
4.520000000000000000e+02 3.264751434326171875e+01 4.808262735605239868e-02 -1.897235631942749023e+00 -9.688302129507064819e-02 -5.982356071472167969e-01 -5.429805517196655273e-01
4.530000000000000000e+02 3.166022682189941406e+01 1.470156908035278320e-01 -1.658103585243225098e+00 2.434984594583511353e-01 -4.243815243244171143e-01 -2.241117358207702637e-01
4.540000000000000000e+02 3.155240631103515625e+01 -8.315400481224060059e-01 -1.652096748352050781e+00 -1.230077594518661499e-01 -5.325313210487365723e-01 -4.409146606922149658e-01
4.550000000000000000e+02 1.934751129150390625e+01 2.503270149230957031e+00 -1.615380525588989258e+00 -2.001892179250717163e-01 -5.446708798408508301e-01 2.456026524305343628e-01
4.560000000000000000e+02 2.005071449279785156e+01 1.556203603744506836e+00 -2.109647035598754883e+00 -1.131533086299896240e-01 -6.668400764465332031e-01 5.029468536376953125e-01
4.570000000000000000e+02 1.928076744079589844e+01 1.755981087684631348e+00 -2.383392095565795898e+00 -2.051635831594467163e-01 -7.765666842460632324e-01 4.141773879528045654e-01
4.580000000000000000e+02 2.158644676208496094e+01 1.168239593505859375e+00 -1.971449255943298340e+00 -1.270397305488586426e-01 -6.295467019081115723e-01 5.015226006507873535e-01
4.590000000000000000e+02 2.307723426818847656e+01 1.624484539031982422e+00 -1.602787256240844727e+00 -1.348296850919723511e-01 -5.212850570678710938e-01 4.111199676990509033e-01
4.600000000000000000e+02 2.233542251586914062e+01 9.922933578491210938e-01 -1.950182080268859863e+00 -1.399165838956832886e-01 -6.270295977592468262e-01 5.043827891349792480e-01
4.610000000000000000e+02 2.398313713073730469e+01 4.381691217422485352e-01 -1.988831639289855957e+00 -1.445075720548629761e-01 -6.400017738342285156e-01 5.367583036422729492e-01
4.620000000000000000e+02 2.469855880737304688e+01 3.134082555770874023e-01 -2.013837575912475586e+00 -1.312440633773803711e-01 -6.435245275497436523e-01 5.332719683647155762e-01
4.630000000000000000e+02 2.544886207580566406e+01 1.369469165802001953e-01 -2.022946596145629883e+00 -1.514668315649032593e-01 -6.523240208625793457e-01 5.348809957504272461e-01
4.640000000000000000e+02 2.621602630615234375e+01 -5.633327364921569824e-02 -2.028123140335083008e+00 -1.269614845514297485e-01 -6.465253829956054688e-01 5.334086418151855469e-01
4.650000000000000000e+02 2.698558807373046875e+01 -2.541643083095550537e-01 -2.013360500335693359e+00 -1.296248733997344971e-01 -6.428956389427185059e-01 5.140975713729858398e-01
4.660000000000000000e+02 2.852584266662597656e+01 -6.537437438964843750e-01 -1.824353694915771484e+00 -7.510288059711456299e-02 -5.698369741439819336e-01 3.990653157234191895e-01
4.670000000000000000e+02 2.929613304138183594e+01 -8.536532521247863770e-01 -1.600613236427307129e+00 7.652473635971546173e-03 -4.778882265090942383e-01 2.838068604469299316e-01
4.680000000000000000e+02 2.926754379272460938e+01 -8.154577016830444336e-02 -1.574889779090881348e+00 1.622373163700103760e-01 -4.237957596778869629e-01 1.220660954713821411e-01
4.690000000000000000e+02 3.006602287292480469e+01 -1.052662253379821777e+00 -1.231163263320922852e+00 7.021651417016983032e-02 -3.482840061187744141e-01 1.008802056312561035e-01
4.700000000000000000e+02 3.003009986877441406e+01 -2.786456644535064697e-01 -1.569090962409973145e+00 3.116005063056945801e-01 -3.772471547126770020e-01 -2.139348164200782776e-02
4.710000000000000000e+02 2.011012649536132812e+01 2.305401802062988281e+00 -1.781005859375000000e+00 -1.398722976446151733e-01 -5.762634873390197754e-01 2.925160229206085205e-01
4.720000000000000000e+02 2.087202072143554688e+01 2.110936641693115234e+00 -1.698513150215148926e+00 -1.049490123987197876e-01 -5.410386323928833008e-01 3.782408833503723145e-01
4.730000000000000000e+02 2.163119125366210938e+01 1.921256065368652344e+00 -1.670311212539672852e+00 -1.274345368146896362e-01 -5.393237471580505371e-01 3.889834582805633545e-01
4.740000000000000000e+02 2.237283515930175781e+01 1.747218847274780273e+00 -1.618500590324401855e+00 -1.223272308707237244e-01 -5.222483277320861816e-01 4.132990241050720215e-01
4.750000000000000000e+02 2.399707603454589844e+01 1.007387638092041016e+00 -1.723588109016418457e+00 -1.319720000028610229e-01 -5.566680431365966797e-01 4.603413939476013184e-01
4.760000000000000000e+02 2.471397018432617188e+01 1.074061155319213867e+00 -1.642123699188232422e+00 -1.336025148630142212e-01 -5.327178835868835449e-01 4.647854864597320557e-01
4.770000000000000000e+02 2.545693969726562500e+01 8.995088934898376465e-01 -1.645735740661621094e+00 -1.147601455450057983e-01 -5.281487703323364258e-01 4.583157300949096680e-01
4.780000000000000000e+02 2.697899818420410156e+01 5.122158527374267578e-01 -1.648988962173461914e+00 -4.718220233917236328e-02 -5.088513493537902832e-01 4.011391103267669678e-01
4.790000000000000000e+02 2.775563621520996094e+01 -4.536604583263397217e-01 -1.952809810638427734e+00 -8.465667068958282471e-02 -6.112399101257324219e-01 4.691188931465148926e-01
4.800000000000000000e+02 2.081994247436523438e+01 1.359829425811767578e+00 -2.022581577301025391e+00 -1.405464708805084229e-01 -6.489384174346923828e-01 4.935726523399353027e-01
4.810000000000000000e+02 2.621677017211914062e+01 7.081378102302551270e-01 -1.652751564979553223e+00 -9.915243834257125854e-02 -5.255712270736694336e-01 4.381691217422485352e-01
4.820000000000000000e+02 2.366904449462890625e+01 1.446964621543884277e+00 -1.613598346710205078e+00 -1.217145919799804688e-01 -5.205938816070556641e-01 4.464819431304931641e-01
4.830000000000000000e+02 2.850458717346191406e+01 1.164546683430671692e-01 -1.616444945335388184e+00 8.450765162706375122e-02 -4.595811963081359863e-01 2.410715967416763306e-01
4.840000000000000000e+02 2.774171447753906250e+01 3.146288096904754639e-01 -1.641829133033752441e+00 1.016804380924440920e-04 -4.925182163715362549e-01 3.406819403171539307e-01
4.850000000000000000e+02 2.338090705871582031e+01 6.175161004066467285e-01 -1.965008497238159180e+00 -1.425804793834686279e-01 -6.322767138481140137e-01 5.188872814178466797e-01
4.860000000000000000e+02 2.305155563354492188e+01 1.057019233703613281e+00 -1.866967678070068359e+00 -1.366463750600814819e-01 -6.010842323303222656e-01 4.988120496273040771e-01
4.870000000000000000e+02 1.611225318908691406e+01 2.416136503219604492e+00 -1.022033452987670898e+00 3.249300643801689148e-02 -2.968621253967285156e-01 3.410104811191558838e-01
4.880000000000000000e+02 1.692862129211425781e+01 2.473628282546997070e+00 -1.277287364006042480e+00 3.967500105500221252e-02 -3.712837100028991699e-01 3.097587823867797852e-01
4.890000000000000000e+02 1.619552993774414062e+01 1.680045008659362793e+00 -1.194939613342285156e+00 6.586108356714248657e-03 -3.565060496330261230e-01 5.586405098438262939e-02
4.900000000000000000e+02 1.774459457397460938e+01 2.528052330017089844e+00 -1.523475408554077148e+00 -2.872583642601966858e-02 -4.656603634357452393e-01 3.646181523799896240e-01
4.910000000000000000e+02 1.851055526733398438e+01 1.834378838539123535e+00 -2.295037269592285156e+00 -1.334176659584045410e-01 -7.285364866256713867e-01 1.752613484859466553e-01
4.920000000000000000e+02 1.855901145935058594e+01 2.579250097274780273e+00 -1.509056568145751953e+00 -1.970119923353195190e-01 -5.118205547332763672e-01 3.739254474639892578e-01
4.930000000000000000e+02 1.696798706054687500e+01 1.734610080718994141e+00 -1.485263824462890625e+00 -7.798944134265184402e-04 -4.458131194114685059e-01 5.816861614584922791e-02
4.940000000000000000e+02 1.774004745483398438e+01 1.786107659339904785e+00 -1.809926986694335938e+00 1.572854258120059967e-02 -5.382595658302307129e-01 5.020412057638168335e-02
4.950000000000000000e+02 1.307423973083496094e+01 1.803115367889404297e+00 -1.954622268676757812e-01 4.504116252064704895e-03 -5.728743597865104675e-02 1.817698478698730469e-01
4.960000000000000000e+02 1.322374725341796875e+01 1.078295350074768066e+00 -8.069801144301891327e-03 2.527832612395286560e-02 5.162557587027549744e-03 7.281722128391265869e-02
4.970000000000000000e+02 1.396254444122314453e+01 1.243136167526245117e+00 -1.953111588954925537e-01 1.236645970493555069e-02 -5.488340929150581360e-02 6.915174424648284912e-02
4.980000000000000000e+02 1.470126342773437500e+01 1.407449364662170410e+00 -4.516915082931518555e-01 3.115695528686046600e-02 -1.261603683233261108e-01 4.822294041514396667e-02
4.990000000000000000e+02 1.544029712677001953e+01 1.569983482360839844e+00 -8.269044756889343262e-01 -3.104996867477893829e-03 -2.490028440952301025e-01 4.678117111325263977e-02
5.000000000000000000e+02 1.532874107360839844e+01 2.303210496902465820e+00 -8.012239933013916016e-01 5.522007122635841370e-02 -2.238011658191680908e-01 3.443691134452819824e-01
5.010000000000000000e+02 1.382568740844726562e+01 1.970758438110351562e+00 -3.689476549625396729e-01 4.897989705204963684e-02 -9.599032253026962280e-02 2.235896587371826172e-01
5.020000000000000000e+02 1.457705688476562500e+01 2.137874126434326172e+00 -5.946599245071411133e-01 3.890895470976829529e-02 -1.667252928018569946e-01 2.878883481025695801e-01
5.030000000000000000e+02 1.104393005371093750e+01 6.161050796508789062e-01 2.383377552032470703e-01 1.636206754483282566e-03 7.199218869209289551e-02 6.151353940367698669e-02
5.040000000000000000e+02 1.093760776519775391e+01 1.349887132644653320e+00 8.283044397830963135e-02 -1.711033657193183899e-02 1.971603184938430786e-02 5.535847321152687073e-02
5.050000000000000000e+02 1.032133674621582031e+01 4.645727574825286865e-01 2.418443560600280762e-01 -3.439136082306504250e-03 7.152156531810760498e-02 3.914292529225349426e-02
5.060000000000000000e+02 1.176770782470703125e+01 7.675349712371826172e-01 1.996111869812011719e-01 1.668418012559413910e-02 6.488861143589019775e-02 6.752016395330429077e-02
5.070000000000000000e+02 1.234649181365966797e+01 1.644436478614807129e+00 -6.567884981632232666e-02 1.326854713261127472e-02 -1.572309061884880066e-02 1.289427429437637329e-01
5.080000000000000000e+02 1.249242305755615234e+01 9.189449548721313477e-01 1.191263869404792786e-01 6.471004802733659744e-03 3.767921775579452515e-02 7.660168409347534180e-02
5.090000000000000000e+02 1.023481845855712891e+01 1.202500104904174805e+00 1.316093206405639648e-01 -2.938701957464218140e-02 3.066668845713138580e-02 3.847976401448249817e-02
5.100000000000000000e+02 1.164158153533935547e+01 1.497171759605407715e+00 1.928628236055374146e-02 -1.411603949964046478e-02 1.551073160953819752e-03 1.003506481647491455e-01
5.110000000000000000e+02 7.887229919433593750e+00 3.867234289646148682e-01 2.600129842758178711e-01 -1.409695134498178959e-03 7.758098095655441284e-02 -7.267476525157690048e-03
5.120000000000000000e+02 8.716233253479003906e+00 3.873925805091857910e-01 2.692850530147552490e-01 -3.481377381831407547e-03 7.974110543727874756e-02 -1.725983223877847195e-03
5.130000000000000000e+02 7.056899547576904297e+00 3.878324329853057861e-01 2.388901859521865845e-01 -2.732243388891220093e-03 7.084738463163375854e-02 -1.208552625030279160e-02
5.140000000000000000e+02 6.178035259246826172e+00 1.128378868103027344e+00 1.274971514940261841e-01 -5.418282002210617065e-03 3.662366047501564026e-02 -3.577183559536933899e-02
5.150000000000000000e+02 4.565147399902343750e+00 3.867084681987762451e-01 1.398988515138626099e-01 9.460645378567278385e-04 4.225347563624382019e-02 -1.685595512390136719e-02
5.160000000000000000e+02 3.734298944473266602e+00 3.859201967716217041e-01 1.026175767183303833e-01 -2.155625697923824191e-04 3.072060458362102509e-02 -1.618025638163089752e-02
5.170000000000000000e+02 2.903336763381958008e+00 3.870553672313690186e-01 6.649477034807205200e-02 5.931853083893656731e-04 2.012638747692108154e-02 -1.564820110797882080e-02
5.180000000000000000e+02 2.880990266799926758e+00 1.127055406570434570e+00 4.941802844405174255e-02 3.357702866196632385e-03 1.583272032439708710e-02 -3.910967707633972168e-02
5.190000000000000000e+02 2.073071718215942383e+00 3.892002105712890625e-01 3.460357338190078735e-02 2.307103946805000305e-03 1.107320375740528107e-02 -1.261962670832872391e-02
5.200000000000000000e+02 2.057110071182250977e+00 1.129200220108032227e+00 3.176262602210044861e-02 7.791027426719665527e-03 1.186609640717506409e-02 -3.305727988481521606e-02
5.210000000000000000e+02 1.234333992004394531e+00 1.129331231117248535e+00 1.407964061945676804e-02 1.269689109176397324e-02 8.032958954572677612e-03 -2.190532721579074860e-02
5.220000000000000000e+02 4.116423428058624268e-01 1.129539847373962402e+00 2.495387336239218712e-03 9.613724425435066223e-03 3.632733365520834923e-03 -6.460119038820266724e-03
5.230000000000000000e+02 4.148346781730651855e-01 3.895398080348968506e-01 2.354816999286413193e-03 1.783480402082204819e-03 1.241489197127521038e-03 -2.086680848151445389e-03
5.240000000000000000e+02 4.530031204223632812e+00 1.126708507537841797e+00 9.146077185869216919e-02 -2.247798023745417595e-03 2.676389180123806000e-02 -4.169650003314018250e-02
5.250000000000000000e+02 5.353859424591064453e+00 1.127378344535827637e+00 1.099186837673187256e-01 -1.059641130268573761e-03 3.265771269798278809e-02 -4.003999754786491394e-02
5.260000000000000000e+02 6.225920200347900391e+00 3.883788883686065674e-01 2.097156345844268799e-01 8.606623741798102856e-04 6.317289173603057861e-02 -1.427426747977733612e-02
5.270000000000000000e+02 7.002630233764648438e+00 1.127832412719726562e+00 1.394715309143066406e-01 -5.233475472778081894e-03 4.027141630649566650e-02 -2.750028856098651886e-02
5.280000000000000000e+02 7.826575756072998047e+00 1.126723408699035645e+00 1.480155587196350098e-01 -1.116988901048898697e-02 4.105370119214057922e-02 -1.850344426929950714e-02
5.290000000000000000e+02 9.544963836669921875e+00 3.890661597251892090e-01 2.511591911315917969e-01 -1.130414474755525589e-02 7.195651531219482422e-02 1.591075770556926727e-02
5.300000000000000000e+02 9.471539497375488281e+00 1.129066109657287598e+00 1.510903239250183105e-01 -2.777337282896041870e-02 3.699508681893348694e-02 1.869032904505729675e-02
5.310000000000000000e+02 3.705567836761474609e+00 1.125920176506042480e+00 7.043456286191940308e-02 1.849303022027015686e-03 2.168516069650650024e-02 -4.334688186645507812e-02
5.320000000000000000e+02 1.243910908699035645e+00 3.893312513828277588e-01 1.251828577369451523e-02 2.636039629578590393e-03 4.546297714114189148e-03 -6.908744573593139648e-03
5.330000000000000000e+02 5.395359992980957031e+00 3.873783648014068604e-01 1.763784587383270264e-01 -2.019233303144574165e-03 5.230776965618133545e-02 -1.562554761767387390e-02
5.340000000000000000e+02 8.649193763732910156e+00 1.127392530441284180e+00 1.445368379354476929e-01 -1.639655977487564087e-02 3.844208270311355591e-02 2.136314054951071739e-03
5.350000000000000000e+02 1.338139057159423828e+01 3.142086565494537354e-01 -4.981113672256469727e-01 2.137360572814941406e-01 -8.531259000301361084e-02 -1.766740977764129639e-01
5.360000000000000000e+02 1.410687160491943359e+01 4.760258793830871582e-01 -5.473524928092956543e-01 -2.889157533645629883e-01 -2.508804798126220703e-01 -8.449374139308929443e-02
5.370000000000000000e+02 1.353089809417724609e+01 -4.106113612651824951e-01 -3.598929345607757568e-01 -2.775891125202178955e-01 -1.912446171045303345e-01 -1.156191155314445496e-01
5.380000000000000000e+02 1.483218193054199219e+01 6.374483108520507812e-01 -5.585104823112487793e-01 2.192073762416839600e-01 -1.017909348011016846e-01 -1.942786872386932373e-01
5.390000000000000000e+02 1.495638942718505859e+01 -9.297639876604080200e-02 -4.433056414127349854e-01 -2.958084046840667725e-01 -2.217342257499694824e-01 -6.308180093765258789e-02
5.400000000000000000e+02 1.566942024230957031e+01 6.387124955654144287e-02 -4.419065415859222412e-01 3.033078610897064209e-01 -4.157960414886474609e-02 -1.913163363933563232e-01
5.410000000000000000e+02 1.555786418914794922e+01 7.970982789993286133e-01 -5.948798060417175293e-01 -2.485511302947998047e-01 -2.530292868614196777e-01 -7.634528726339340210e-02
5.420000000000000000e+02 1.424372863769531250e+01 -2.515964508056640625e-01 -4.165248274803161621e-01 2.278095930814743042e-01 -5.661457031965255737e-02 -1.915478855371475220e-01
5.430000000000000000e+02 3.207842588424682617e+00 -1.946041584014892578e+00 -1.498763449490070343e-02 1.336190290749073029e-02 -4.877194296568632126e-04 -5.239116959273815155e-03
5.440000000000000000e+02 4.662449359893798828e+00 -1.866899609565734863e+00 -3.539099916815757751e-02 2.700765989720821381e-02 -2.515000989660620689e-03 -1.830327883362770081e-02
5.450000000000000000e+02 9.678696632385253906e+00 -2.440981388092041016e+00 -1.053726449608802795e-01 1.710493117570877075e-02 -2.648031525313854218e-02 -8.650001883506774902e-02
5.460000000000000000e+02 1.790707588195800781e+01 -3.004312515258789062e+00 1.449457257986068726e-01 3.245589137077331543e-01 1.408513933420181274e-01 1.287147998809814453e-01
5.470000000000000000e+02 1.697893905639648438e+01 -1.968978881835937500e+00 -1.161951199173927307e-02 -8.733420819044113159e-02 -2.968611568212509155e-02 -8.111223578453063965e-02
5.480000000000000000e+02 2.011651420593261719e+01 -9.020159840583801270e-01 1.879319697618484497e-01 3.483124673366546631e-01 1.608733236789703369e-01 -1.795824170112609863e-01
5.490000000000000000e+02 1.740450286865234375e+01 -4.654205143451690674e-01 -4.695456326007843018e-01 -1.313290297985076904e-01 -1.802624017000198364e-01 -7.522269152104854584e-03
5.500000000000000000e+02 5.253920555114746094e-01 -1.056562995910644531e+01 7.318329066038131714e-03 -5.036355555057525635e-02 -1.291356794536113739e-02 4.653194046113640070e-04
5.510000000000000000e+02 6.690182685852050781e+00 -1.486224937438964844e+01 -1.882448196411132812e-01 -3.064134418964385986e-01 -1.483974754810333252e-01 -1.906439661979675293e-01
5.520000000000000000e+02 1.018188762664794922e+01 -1.256752109527587891e+01 -1.401310116052627563e-01 -1.737788505852222443e-02 -4.725266620516777039e-02 -6.985241174697875977e-02
5.530000000000000000e+02 8.955420494079589844e+00 -1.299180984497070312e+01 -2.230231612920761108e-01 -1.665646582841873169e-01 -1.168763488531112671e-01 -1.428586542606353760e-01
5.540000000000000000e+02 1.289375019073486328e+01 -1.197601222991943359e+01 3.710024058818817139e-02 1.600427627563476562e-01 5.914289876818656921e-02 -1.012478321790695190e-01
5.550000000000000000e+02 1.947681999206542969e+01 -1.505839252471923828e+01 -2.498057186603546143e-01 1.036361008882522583e-01 -4.385088384151458740e-02 -3.195995986461639404e-01
5.560000000000000000e+02 1.565756797790527344e+01 -9.894061088562011719e+00 4.153589159250259399e-02 3.282148241996765137e-01 1.109252125024795532e-01 8.447116706520318985e-04
5.570000000000000000e+02 1.702779769897460938e+01 -8.462167739868164062e+00 6.549724936485290527e-02 4.704393148422241211e-01 1.607809662818908691e-01 -4.189861193299293518e-02
5.580000000000000000e+02 1.709508514404296875e+01 -5.583903789520263672e+00 8.906945586204528809e-02 4.393285512924194336e-01 1.585194021463394165e-01 6.525865942239761353e-02
5.590000000000000000e+02 3.609646320343017578e+00 -2.070774841308593750e+01 1.021819338202476501e-01 -2.276154011487960815e-01 -3.763004019856452942e-02 -1.607732027769088745e-01
5.600000000000000000e+02 6.271368980407714844e+00 -2.199130630493164062e+01 2.575804889202117920e-01 1.738482862710952759e-01 1.294286251068115234e-01 -1.825440973043441772e-01
5.610000000000000000e+02 9.028376579284667969e+00 -2.314621543884277344e+01 1.985626071691513062e-01 2.513648010790348053e-02 6.710972636938095093e-02 -1.056099161505699158e-01
5.620000000000000000e+02 7.542155265808105469e+00 -2.282220840454101562e+01 3.226016163825988770e-01 1.337671726942062378e-01 1.369106322526931763e-01 -1.701419502496719360e-01
5.630000000000000000e+02 4.311958312988281250e+00 -2.416390800476074219e+01 6.469622999429702759e-02 -1.930688172578811646e-01 -3.851177915930747986e-02 -2.666044048964977264e-02
5.640000000000000000e+02 6.669194698333740234e-01 -3.048904800415039062e+01 2.163947094231843948e-03 -5.642791390419006348e-01 -1.686345636844635010e-01 3.054382279515266418e-03
5.650000000000000000e+02 1.230397701263427734e+01 -3.619109344482421875e+01 8.287166804075241089e-02 3.022762238979339600e-01 1.155443638563156128e-01 -6.270002573728561401e-02
5.660000000000000000e+02 1.345158767700195312e+01 -3.693367767333984375e+01 1.114183142781257629e-01 3.347547352313995361e-01 1.338519155979156494e-01 -1.192268729209899902e-01
5.670000000000000000e+02 1.269675254821777344e+01 -3.505360031127929688e+01 2.318655140697956085e-02 3.863851726055145264e-01 1.228715181350708008e-01 -3.996861353516578674e-02
5.680000000000000000e+02 1.257440853118896484e+01 -3.063229179382324219e+01 4.377579316496849060e-02 2.072069346904754639e-01 7.529481500387191772e-02 3.840670362114906311e-02
5.690000000000000000e+02 1.416203498840332031e+01 -2.985336494445800781e+01 7.743638753890991211e-02 2.038683593273162842e-01 8.439142256975173950e-02 1.219429969787597656e-01
5.700000000000000000e+02 1.493966293334960938e+01 -2.861344528198242188e+01 1.879166811704635620e-01 1.794662475585937500e-01 1.102148741483688354e-01 1.448602676391601562e-01
5.710000000000000000e+02 1.193492412567138672e+01 -2.261417961120605469e+01 -1.578067839145660400e-01 -6.375422328710556030e-02 -6.646829843521118164e-02 -1.046909168362617493e-01
5.720000000000000000e+02 1.052120399475097656e+01 -2.302545547485351562e+01 8.418703451752662659e-03 -1.256398763507604599e-02 -1.243585254997014999e-03 -7.497022300958633423e-02
5.730000000000000000e+02 1.092749786376953125e+01 -2.417307281494140625e+01 6.843921542167663574e-02 -3.812420740723609924e-02 9.094502776861190796e-03 -1.528874933719635010e-01
5.740000000000000000e+02 8.182258605957031250e+00 -3.657411575317382812e+01 1.186988409608602524e-02 -4.624238610267639160e-02 -1.031174976378679276e-02 1.140530686825513840e-02
5.750000000000000000e+02 6.747963428497314453e-01 -3.190283584594726562e+01 -2.123350510373711586e-03 -5.587166547775268555e-01 -1.682519912719726562e-01 2.906199544668197632e-03
5.760000000000000000e+02 7.455863952636718750e-01 -3.737422561645507812e+01 1.180220115929841995e-02 -5.128363370895385742e-01 -1.503102332353591919e-01 1.435632538050413132e-02
5.770000000000000000e+02 2.749684333801269531e+00 -3.790586090087890625e+01 1.401450764387845993e-02 -4.007103443145751953e-01 -1.160087510943412781e-01 2.790015563368797302e-02
5.780000000000000000e+02 2.216250610351562500e+01 -3.978618621826171875e+01 5.880905664525926113e-04 2.383583337068557739e-01 7.168392837047576904e-02 1.345070004463195801e-01
5.790000000000000000e+02 2.255046844482421875e+01 -4.151177215576171875e+01 3.341379342600703239e-04 3.178927302360534668e-01 9.546805918216705322e-02 9.826334565877914429e-02
5.800000000000000000e+02 2.513475990295410156e+01 -4.042607116699218750e+01 -1.190154775977134705e-01 9.456743597984313965e-01 2.479976713657379150e-01 -1.106171475839801133e-05
5.810000000000000000e+02 2.897189140319824219e+01 -3.909027099609375000e+01 -7.420247048139572144e-02 1.484665274620056152e+00 4.231388270854949951e-01 9.882047027349472046e-02
5.820000000000000000e+02 2.637112426757812500e+01 -3.853315734863281250e+01 7.394731044769287109e-03 1.266009211540222168e+00 3.820211887359619141e-01 -3.810584172606468201e-02
5.830000000000000000e+02 3.965678024291992188e+01 -3.516823196411132812e+01 3.260426223278045654e-01 3.352448701858520508e+00 1.103547334671020508e+00 -8.812771439552307129e-01
5.840000000000000000e+02 3.907910537719726562e+01 -3.217344665527343750e+01 1.232848048210144043e+00 7.927974700927734375e+00 2.748246669769287109e+00 1.715763568878173828e+00
5.850000000000000000e+02 3.820476913452148438e+01 -3.553578186035156250e+01 -2.233436703681945801e-01 3.629158258438110352e+00 1.021744370460510254e+00 9.306264519691467285e-01
5.860000000000000000e+02 3.610477447509765625e+01 -2.948209381103515625e+01 2.705319821834564209e-01 1.219594001770019531e+00 4.470377862453460693e-01 9.340001344680786133e-01
5.870000000000000000e+02 3.674399185180664062e+01 -3.094556427001953125e+01 1.295573592185974121e+00 2.433498859405517578e+00 1.118721723556518555e+00 1.085404634475708008e+00
5.880000000000000000e+02 3.019864463806152344e+01 -2.525737380981445312e+01 3.175265789031982422e-01 1.113482713699340820e+00 4.293027818202972412e-01 -6.183496713638305664e-01
5.890000000000000000e+02 2.938626670837402344e+01 -2.424332427978515625e+01 4.364387094974517822e-01 2.394082307815551758e+00 8.491563200950622559e-01 -6.984090805053710938e-01
5.900000000000000000e+02 2.941164398193359375e+01 -2.601716995239257812e+01 -2.117978781461715698e-01 1.703458189964294434e+00 4.474980831146240234e-01 -3.343308269977569580e-01
5.910000000000000000e+02 2.245461082458496094e+01 -2.806246185302734375e+01 -1.071774065494537354e-01 1.552205383777618408e-01 1.441293675452470779e-02 5.385442078113555908e-02
5.920000000000000000e+02 2.320697593688964844e+01 -2.710790634155273438e+01 -6.084323301911354065e-02 5.016992688179016113e-01 1.322568058967590332e-01 -6.875380873680114746e-02
5.930000000000000000e+02 2.341307067871093750e+01 -2.904942512512207031e+01 -3.403697162866592407e-02 4.802481830120086670e-01 1.338633596897125244e-01 -1.679313927888870239e-01
5.940000000000000000e+02 2.506336212158203125e+01 -2.886921119689941406e+01 -2.382793575525283813e-01 1.187441587448120117e+00 2.847486734390258789e-01 -1.949476078152656555e-02
5.950000000000000000e+02 3.011969184875488281e+01 -3.144598770141601562e+01 2.863017618656158447e-01 1.025163412094116211e+00 3.934395611286163330e-01 -2.495255768299102783e-01
5.960000000000000000e+02 2.509060859680175781e+01 -3.345977020263671875e+01 3.541917726397514343e-02 1.503787159919738770e+00 4.617618918418884277e-01 -5.540879070758819580e-02
5.970000000000000000e+02 2.355071067810058594e+01 -3.894593811035156250e+01 1.118011549115180969e-01 4.788495004177093506e-01 1.771952062845230103e-01 2.413555830717086792e-01
5.980000000000000000e+02 3.900846862792968750e+01 -3.847366714477539062e+01 -1.228050589561462402e+00 2.427334547042846680e+00 3.597851991653442383e-01 -3.386521711945533752e-02
5.990000000000000000e+02 4.035201263427734375e+01 -3.627288436889648438e+01 -3.889285326004028320e-01 1.542591810226440430e+00 3.460989892482757568e-01 -4.210126996040344238e-01
6.000000000000000000e+02 4.640335845947265625e+01 -3.791595840454101562e+01 -1.117372751235961914e+00 8.624353408813476562e-01 -7.648122310638427734e-02 3.299272656440734863e-01
6.010000000000000000e+02 4.851979064941406250e+01 -3.899373626708984375e+01 -1.302329301834106445e+00 3.682190179824829102e+00 7.139582633972167969e-01 1.134630441665649414e+00
6.020000000000000000e+02 4.836108016967773438e+01 -3.587821578979492188e+01 1.319172382354736328e+00 3.358674049377441406e+00 1.403353929519653320e+00 2.002961158752441406e+00
6.030000000000000000e+02 5.703200912475585938e+01 -3.692005157470703125e+01 4.234865605831146240e-01 4.729968547821044922e+00 1.546036601066589355e+00 -9.483011364936828613e-01
6.040000000000000000e+02 5.917448043823242188e+01 -4.067548370361328125e+01 -1.946177005767822266e+00 1.710752248764038086e+00 -7.062743604183197021e-02 -7.831779122352600098e-02
6.050000000000000000e+02 5.887155914306640625e+01 -3.891526412963867188e+01 -2.078734159469604492e+00 1.151647686958312988e+00 -2.781259119510650635e-01 -5.725232958793640137e-01
6.060000000000000000e+02 5.811776351928710938e+01 -3.761618041992187500e+01 -1.249759912490844727e+00 1.168587565422058105e+00 -2.435171976685523987e-02 -7.514202594757080078e-01
6.070000000000000000e+02 6.142086029052734375e+01 -3.870840072631835938e+01 -3.685661077499389648e+00 -9.408183097839355469e-01 -1.387943863868713379e+00 1.242278367280960083e-01
6.080000000000000000e+02 6.423143768310546875e+01 -3.736391830444335938e+01 -1.406692028045654297e+00 1.221288084983825684e+00 -5.562116205692291260e-02 6.812708079814910889e-02
6.090000000000000000e+02 6.893546295166015625e+01 -3.410897445678710938e+01 1.156844258308410645e+00 6.039541244506835938e+00 2.158915758132934570e+00 -1.684095263481140137e+00
6.100000000000000000e+02 7.790956878662109375e+01 -4.163391113281250000e+01 -3.754352033138275146e-02 7.995598793029785156e+00 2.387416601181030273e+00 -1.045197620987892151e-02
6.110000000000000000e+02 7.758479309082031250e+01 -3.670820617675781250e+01 3.811937943100929260e-02 7.533132076263427734e+00 2.271375417709350586e+00 -1.819094270467758179e-01
6.120000000000000000e+02 7.817760467529296875e+01 -3.027668762207031250e+01 -7.199699431657791138e-02 7.520089626312255859e+00 2.234427690505981445e+00 6.657031178474426270e-02
6.130000000000000000e+02 7.464319610595703125e+01 -2.056040954589843750e+01 1.283058404922485352e+00 1.029183673858642578e+01 3.472468376159667969e+00 -1.018717885017395020e-02
6.140000000000000000e+02 7.227141571044921875e+01 -1.782719612121582031e+01 1.423576116561889648e+00 3.747106790542602539e+00 1.551204919815063477e+00 -2.012332439422607422e+00
6.150000000000000000e+02 7.696445465087890625e+01 -1.075328350067138672e+01 -6.666427850723266602e-01 9.402218818664550781e+00 2.620672702789306641e+00 -9.306942224502563477e-01
6.160000000000000000e+02 7.935974121093750000e+01 -1.257903480529785156e+01 -7.045990973711013794e-02 1.004384231567382812e+01 2.992014646530151367e+00 -1.193496063351631165e-01
6.170000000000000000e+02 7.306759643554687500e+01 -1.145562362670898438e+01 -2.460790395736694336e+00 5.468029975891113281e-01 -5.741962790489196777e-01 -1.607160866260528564e-01
6.180000000000000000e+02 7.099988555908203125e+01 -1.210426807403564453e+01 -2.326553106307983398e+00 -2.857182025909423828e-01 -7.836813926696777344e-01 -9.770063757896423340e-01
6.190000000000000000e+02 6.949044799804687500e+01 -1.323125743865966797e+01 -3.580381870269775391e-01 3.009433746337890625e-01 -1.712844707071781158e-02 -1.887321233749389648e+00
6.200000000000000000e+02 6.955328369140625000e+01 -1.529958152770996094e+01 -7.476773262023925781e-01 2.789810001850128174e-01 -1.406089067459106445e-01 -1.357290625572204590e+00
6.210000000000000000e+02 7.226425170898437500e+01 -1.658474922180175781e+01 1.218826398253440857e-01 3.766929626464843750e+00 1.166643738746643066e+00 -1.135931253433227539e+00
6.220000000000000000e+02 7.045761108398437500e+01 -1.631054496765136719e+01 -2.896368503570556641e-01 6.498687863349914551e-01 1.080695763230323792e-01 -9.516156315803527832e-01
6.230000000000000000e+02 7.345640563964843750e+01 -1.948078918457031250e+01 1.453503489494323730e+00 9.977711677551269531e+00 3.429364442825317383e+00 -2.210947990417480469e+00
6.240000000000000000e+02 7.827394866943359375e+01 -1.815895843505859375e+01 7.646834850311279297e-02 8.085174560546875000e+00 2.448493003845214844e+00 9.306355714797973633e-01
6.250000000000000000e+02 7.531032562255859375e+01 -8.058101654052734375e+00 6.872594356536865234e-01 1.426137542724609375e+01 4.484590530395507812e+00 5.112572312355041504e-01
6.260000000000000000e+02 7.671876525878906250e+01 -6.906623840332031250e+00 1.100323796272277832e+00 1.046816539764404297e+01 3.470546722412109375e+00 -2.877250611782073975e-01
6.270000000000000000e+02 7.686875915527343750e+01 -5.565259933471679688e+00 8.245165944099426270e-01 9.980000495910644531e+00 3.241355180740356445e+00 2.345547080039978027e-01
6.280000000000000000e+02 7.936341094970703125e+01 2.764369726181030273e+00 -2.394494228065013885e-02 8.703185081481933594e+00 2.603771924972534180e+00 -2.421554327011108398e-01
6.290000000000000000e+02 6.916210174560546875e+01 4.229564189910888672e+00 2.090094089508056641e-01 2.618566274642944336e+00 8.482726812362670898e-01 2.285944223403930664e+00
6.300000000000000000e+02 6.705461883544921875e+01 5.893929004669189453e+00 -1.023890972137451172e+00 5.353655219078063965e-01 -1.465576440095901489e-01 1.204973936080932617e+00
6.310000000000000000e+02 6.324025726318359375e+01 5.797973632812500000e+00 -7.672143578529357910e-01 2.751348257064819336e+00 5.952401757240295410e-01 -1.390306472778320312e+00
6.320000000000000000e+02 6.234002685546875000e+01 9.230131149291992188e+00 5.851604342460632324e-01 1.914844512939453125e+00 7.500014901161193848e-01 -1.288469672203063965e+00
6.330000000000000000e+02 6.097977066040039062e+01 -3.398793935775756836e+00 1.724266648292541504e+00 1.175282764434814453e+01 4.043128490447998047e+00 -2.377325057983398438e+00
6.340000000000000000e+02 6.490608215332031250e+01 -3.209195852279663086e+00 1.595278143882751465e+00 7.591608047485351562e+00 2.756065845489501953e+00 1.394083857536315918e+00
6.350000000000000000e+02 6.122711944580078125e+01 -4.771778106689453125e+00 3.557167053222656250e-01 1.082378482818603516e+01 3.353850364685058594e+00 -6.926780343055725098e-01
6.360000000000000000e+02 6.334605026245117188e+01 -6.723870754241943359e+00 1.791562318801879883e+00 9.352326393127441406e+00 3.343166589736938477e+00 5.130792856216430664e-01
6.370000000000000000e+02 6.165739440917968750e+01 -1.030751609802246094e+01 -4.550902545452117920e-01 7.066339969635009766e+00 1.983374953269958496e+00 1.137966275215148926e+00
6.380000000000000000e+02 6.125944519042968750e+01 -9.002321243286132812e+00 1.418184518814086914e+00 8.358528137207031250e+00 2.933013677597045898e+00 1.904354572296142578e+00
6.390000000000000000e+02 5.799325942993164062e+01 -1.079976844787597656e+01 -6.047656387090682983e-02 1.228605508804321289e+00 3.504386842250823975e-01 -7.516942173242568970e-02
6.400000000000000000e+02 5.956812667846679688e+01 -1.104576778411865234e+01 2.381711751222610474e-01 4.569971561431884766e+00 1.442442774772644043e+00 2.191808938980102539e+00
6.410000000000000000e+02 5.691065216064453125e+01 -1.017879104614257812e+01 9.845779091119766235e-02 6.184534430503845215e-01 2.150733768939971924e-01 -1.048628807067871094e+00
6.420000000000000000e+02 5.423938751220703125e+01 -9.977842330932617188e+00 2.036802053451538086e+00 4.127290248870849609e+00 1.849227666854858398e+00 -2.981278657913208008e+00
6.430000000000000000e+02 4.685260772705078125e+01 -6.740951538085937500e+00 1.103774070739746094e+00 7.501382827758789062e+00 2.581547021865844727e+00 -3.017230033874511719e+00
6.440000000000000000e+02 4.774834823608398438e+01 -6.349850654602050781e+00 -3.441670238971710205e-01 1.034872150421142578e+01 3.001366138458251953e+00 -1.166359424591064453e+00
6.450000000000000000e+02 4.592407226562500000e+01 -1.528631210327148438e+00 6.858411788940429688e+00 8.429310798645019531e+00 4.586316585540771484e+00 -4.502538204193115234e+00
6.460000000000000000e+02 4.929122543334960938e+01 -7.961690902709960938e+00 2.445164918899536133e+00 9.878006935119628906e+00 3.696951627731323242e+00 5.249143242835998535e-01
6.470000000000000000e+02 4.769596862792968750e+01 -9.786343574523925781e+00 1.718468308448791504e+00 1.689013099670410156e+01 5.582579612731933594e+00 1.845079779624938965e+00
6.480000000000000000e+02 4.968642807006835938e+01 -1.342960262298583984e+01 -2.328336536884307861e-01 5.441146850585937500e+00 1.562494039535522461e+00 2.488032281398773193e-01
6.490000000000000000e+02 4.540930175781250000e+01 -1.297392463684082031e+01 -1.693689823150634766e-02 3.703968763351440430e+00 1.106109499931335449e+00 2.609457254409790039e+00
6.500000000000000000e+02 4.286545944213867188e+01 -1.376555156707763672e+01 -5.730989933013916016e+00 -2.732533812522888184e-01 -1.801272869110107422e+00 3.502409160137176514e-01
6.510000000000000000e+02 4.071465301513671875e+01 -1.988768959045410156e+01 7.584747672080993652e-01 1.898921847343444824e+00 7.972189784049987793e-01 3.488222360610961914e-01
6.520000000000000000e+02 4.665178680419921875e+01 -2.066624259948730469e+01 1.415748953819274902e+00 1.146715831756591797e+01 3.864872217178344727e+00 3.271697163581848145e-01
6.530000000000000000e+02 4.415487670898437500e+01 -2.283822631835937500e+01 1.546335697174072266e+00 3.710680484771728516e+00 1.577104926109313965e+00 1.800547838211059570e+00
6.540000000000000000e+02 4.007436752319335938e+01 -2.472897720336914062e+01 1.634497165679931641e+00 6.604671478271484375e+00 2.471750497817993164e+00 2.552295446395874023e+00
6.550000000000000000e+02 4.703120040893554688e+01 -2.216812324523925781e+01 1.820928454399108887e+00 8.221616744995117188e+00 3.012763738632202148e+00 -1.855015754699707031e+00
6.560000000000000000e+02 4.489751052856445312e+01 -2.774308013916015625e+01 -2.432614326477050781e+00 7.029448747634887695e-01 -5.189008116722106934e-01 -4.610291868448257446e-02
6.570000000000000000e+02 4.891632080078125000e+01 -2.444222640991210938e+01 -1.430974721908569336e+00 1.929299831390380859e+00 1.494975537061691284e-01 -8.525273799896240234e-01
6.580000000000000000e+02 4.158324432373046875e+01 -2.560998535156250000e+01 1.177734136581420898e+00 2.767188072204589844e+00 1.183476686477661133e+00 2.036091566085815430e+00
6.590000000000000000e+02 4.053111648559570312e+01 -1.652287483215332031e+01 -4.480605125427246094e-01 5.599914193153381348e-01 3.357927128672599792e-02 -3.877589404582977295e-01
6.600000000000000000e+02 4.751947402954101562e+01 -1.661939811706542969e+01 -2.247299432754516602e+00 7.074661731719970703e+00 1.448208570480346680e+00 2.767633438110351562e+00
6.610000000000000000e+02 4.890762710571289062e+01 -1.664186477661132812e+01 -3.187191963195800781e+00 2.549829721450805664e+00 -1.912086606025695801e-01 1.196904182434082031e+00
6.620000000000000000e+02 5.013405990600585938e+01 -1.632877349853515625e+01 -6.491040229797363281e+00 1.056756358593702316e-03 -1.946995139122009277e+00 -1.078018069267272949e+00
6.630000000000000000e+02 7.807181549072265625e+01 4.103660106658935547e+00 -8.948927372694015503e-02 7.661204338073730469e+00 2.271514415740966797e+00 -7.500908970832824707e-01
6.640000000000000000e+02 7.935121917724609375e+01 8.340509414672851562e+00 2.844704128801822662e-02 6.021542549133300781e+00 1.814996838569641113e+00 -3.001798987388610840e-01
6.650000000000000000e+02 7.196170043945312500e+01 1.375709819793701172e+01 4.177476465702056885e-01 1.367827701568603516e+01 4.228807449340820312e+00 -1.023929238319396973e+00
6.660000000000000000e+02 7.198499298095703125e+01 1.044746971130371094e+01 1.884356498718261719e+00 1.299532890319824219e+01 4.463905811309814453e+00 2.533254861831665039e+00
6.670000000000000000e+02 7.137230682373046875e+01 9.365444183349609375e+00 2.487030267715454102e+00 8.963033676147460938e+00 3.435019016265869141e+00 3.511160850524902344e+00
6.680000000000000000e+02 7.220042419433593750e+01 8.483066558837890625e+00 6.549304127693176270e-01 9.280155181884765625e+00 2.980525493621826172e+00 1.128322601318359375e+00
6.690000000000000000e+02 7.009507751464843750e+01 7.930991172790527344e+00 2.185060977935791016e+00 3.971193790435791016e+00 1.846876382827758789e+00 2.568825244903564453e+00
6.700000000000000000e+02 7.932588958740234375e+01 1.257425117492675781e+01 1.102545410394668579e-01 5.201788425445556641e+00 1.593612909317016602e+00 1.042305678129196167e-01
6.710000000000000000e+02 7.937085723876953125e+01 1.679608726501464844e+01 -3.540605306625366211e-02 6.826699733734130859e+00 2.037388086318969727e+00 3.388326168060302734e-01
6.720000000000000000e+02 7.014575195312500000e+01 1.757015800476074219e+01 -2.734121084213256836e-01 2.487363100051879883e+00 6.641852855682373047e-01 -1.039603948593139648e+00
6.730000000000000000e+02 7.174932098388671875e+01 1.513522911071777344e+01 1.117528557777404785e+00 1.155650997161865234e+01 3.802211761474609375e+00 -2.026255130767822266e+00
6.740000000000000000e+02 7.813735198974609375e+01 1.833262634277343750e+01 -1.321504563093185425e-01 7.548967361450195312e+00 2.225044965744018555e+00 7.231432199478149414e-01
6.750000000000000000e+02 7.942079162597656250e+01 2.371363067626953125e+01 -4.146077483892440796e-02 8.386336326599121094e+00 2.503462791442871094e+00 -5.060963332653045654e-02
6.760000000000000000e+02 7.067860412597656250e+01 2.977219772338867188e+01 1.021367430686950684e+00 5.165799617767333984e+00 1.856150150299072266e+00 3.358912765979766846e-01
6.770000000000000000e+02 6.356025695800781250e+01 3.071552848815917969e+01 3.468001186847686768e-01 7.594586372375488281e+00 2.382416009902954102e+00 -1.272494345903396606e-01
6.780000000000000000e+02 6.374890899658203125e+01 2.812603759765625000e+01 9.113880991935729980e-01 9.286819458007812500e+00 3.059462308883666992e+00 1.335788011550903320e+00
6.790000000000000000e+02 6.427355957031250000e+01 2.698764610290527344e+01 2.456724405288696289e+00 8.546580314636230469e+00 3.300991296768188477e+00 2.243561744689941406e+00
6.800000000000000000e+02 6.323800659179687500e+01 2.615188217163085938e+01 2.894709110260009766e+00 1.052478313446044922e+01 4.025847911834716797e+00 3.891271591186523438e+00
6.810000000000000000e+02 6.483365631103515625e+01 2.125177764892578125e+01 -1.756803393363952637e+00 2.122499227523803711e+00 1.097087338566780090e-01 3.403738498687744141e+00
6.820000000000000000e+02 6.226570129394531250e+01 2.389385986328125000e+01 5.627602711319923401e-02 6.084270000457763672e+00 1.842163801193237305e+00 3.444983482360839844e+00
6.830000000000000000e+02 5.842210006713867188e+01 2.325654220581054688e+01 -7.326416015625000000e+00 -1.471192240715026855e-01 -2.242060661315917969e+00 -4.780278801918029785e-01
6.840000000000000000e+02 5.716672897338867188e+01 2.329343414306640625e+01 -4.634030342102050781e+00 5.511682629585266113e-01 -1.224858641624450684e+00 -6.807386279106140137e-01
6.850000000000000000e+02 5.547570800781250000e+01 2.440884590148925781e+01 1.508318004198372364e-03 3.144610881805419922e+00 9.438357949256896973e-01 -1.780693650245666504e+00
6.860000000000000000e+02 5.468231201171875000e+01 2.541884994506835938e+01 1.971351504325866699e+00 5.636155128479003906e+00 2.282252073287963867e+00 -3.127396345138549805e+00
6.870000000000000000e+02 4.884002304077148438e+01 2.344412422180175781e+01 5.550609827041625977e-01 3.563033342361450195e+00 1.235428333282470703e+00 1.175329089164733887e-01
6.880000000000000000e+02 4.579491043090820312e+01 2.483982276916503906e+01 1.952615499496459961e+00 7.474367618560791016e+00 2.828094959259033203e+00 2.482563972473144531e+00
6.890000000000000000e+02 4.954986190795898438e+01 2.263819885253906250e+01 -2.046904861927032471e-01 3.466651201248168945e+00 9.785882234573364258e-01 -5.200492143630981445e-01
6.900000000000000000e+02 4.583261489868164062e+01 2.329141807556152344e+01 4.436242580413818359e-01 5.369655132293701172e+00 1.743983745574951172e+00 1.880977869033813477e+00
6.910000000000000000e+02 4.626597976684570312e+01 2.148688507080078125e+01 -1.556744098663330078e+00 4.516894817352294922e+00 8.880451917648315430e-01 1.805866241455078125e+00
6.920000000000000000e+02 4.086005020141601562e+01 2.040745353698730469e+01 -9.955269694328308105e-01 7.856855392456054688e-01 -6.295242160558700562e-02 -9.841744899749755859e-01
6.930000000000000000e+02 4.072749328613281250e+01 2.169244956970214844e+01 -3.844788074493408203e+00 -2.948837913572788239e-02 -1.162282943725585938e+00 -2.601818144321441650e-01
6.940000000000000000e+02 3.938114929199218750e+01 2.185005187988281250e+01 -1.666750311851501465e+00 8.460924029350280762e-01 -2.461973875761032104e-01 -7.678007483482360840e-01
6.950000000000000000e+02 3.949338912963867188e+01 2.040610313415527344e+01 -9.661759734153747559e-01 1.298163056373596191e+00 9.959610551595687866e-02 -1.931381821632385254e+00
6.960000000000000000e+02 3.755797576904296875e+01 1.119019889831542969e+01 1.476687669754028320e+00 1.539118289947509766e+00 9.047417640686035156e-01 -1.272444844245910645e+00
6.970000000000000000e+02 3.562176895141601562e+01 1.233092021942138672e+01 1.262323260307312012e+00 6.382083296775817871e-01 5.701594352722167969e-01 -8.679671883583068848e-01
6.980000000000000000e+02 3.906583786010742188e+01 8.802044868469238281e+00 7.752783894538879395e-01 3.793078422546386719e+00 1.370507121086120605e+00 -1.163438677787780762e+00
6.990000000000000000e+02 3.944032287597656250e+01 7.432908535003662109e+00 2.926623523235321045e-01 4.243132114410400391e+00 1.360738277435302734e+00 -6.601095199584960938e-01
7.000000000000000000e+02 3.954972839355468750e+01 6.088853836059570312e+00 4.572882130742073059e-02 3.456955671310424805e+00 1.050805330276489258e+00 -3.823374807834625244e-01
7.010000000000000000e+02 4.029850769042968750e+01 2.935572624206542969e+00 -1.038875937461853027e+00 1.193093776702880859e+00 4.626535624265670776e-02 -1.904594063758850098e+00
7.020000000000000000e+02 7.718937683105468750e+01 2.244594955444335938e+01 -2.338194847106933594e-01 7.590406417846679688e+00 2.206976175308227539e+00 -8.300083130598068237e-02
7.030000000000000000e+02 7.929656982421875000e+01 2.927380561828613281e+01 5.809647496789693832e-03 7.673986911773681641e+00 2.303939104080200195e+00 -4.440712928771972656e-02
7.040000000000000000e+02 7.116838073730468750e+01 3.686219024658203125e+01 -2.094751745462417603e-01 5.908424854278564453e+00 1.709684967994689941e+00 4.048267900943756104e-01
7.050000000000000000e+02 5.838111877441406250e+01 3.575675201416015625e+01 -2.561392545700073242e+00 5.780311767011880875e-04 -7.682443857192993164e-01 2.632584273815155029e-01
7.060000000000000000e+02 5.762883758544921875e+01 3.713019561767578125e+01 -6.549079418182373047e-01 1.263124823570251465e+00 1.824650913476943970e-01 1.030511021614074707e+00
7.070000000000000000e+02 5.725668334960937500e+01 3.535065460205078125e+01 -1.324525237083435059e+00 1.231476441025733948e-01 -3.604132831096649170e-01 2.110301852226257324e-01
7.080000000000000000e+02 5.625894546508789062e+01 3.616020584106445312e+01 -1.214339017868041992e+00 2.545565605163574219e+00 3.993679285049438477e-01 1.338177204132080078e+00
7.090000000000000000e+02 5.938005447387695312e+01 3.675617218017578125e+01 -1.665391325950622559e+00 2.590965032577514648e-01 -4.218884408473968506e-01 4.708101227879524231e-02
7.100000000000000000e+02 6.183555603027343750e+01 3.478011703491210938e+01 -7.260060906410217285e-01 1.407731771469116211e+00 2.045176923274993896e-01 -2.544925212860107422e-01
7.110000000000000000e+02 6.268591690063476562e+01 3.373229217529296875e+01 -3.489251062273979187e-02 3.256922245025634766e+00 9.666088819503784180e-01 -7.675683498382568359e-01
7.120000000000000000e+02 6.344923019409179688e+01 3.187208747863769531e+01 3.422540724277496338e-01 6.541165351867675781e+00 2.065025806427001953e+00 -7.340252995491027832e-01
7.130000000000000000e+02 7.922750091552734375e+01 3.208303451538085938e+01 -1.341979950666427612e-04 7.594035148620605469e+00 2.278170347213745117e+00 1.435108296573162079e-02
7.140000000000000000e+02 7.923570251464843750e+01 3.763524627685546875e+01 -3.883183375000953674e-02 7.860328197479248047e+00 2.346448898315429688e+00 1.574401929974555969e-02
7.150000000000000000e+02 7.250281524658203125e+01 4.101148223876953125e+01 -3.258221447467803955e-01 6.313613414764404297e+00 1.796337366104125977e+00 1.457909345626831055e-01
7.160000000000000000e+02 7.777358245849609375e+01 3.804498672485351562e+01 -1.006785482168197632e-01 7.599726676940917969e+00 2.249714374542236328e+00 8.976703137159347534e-02
7.170000000000000000e+02 5.193487167358398438e+01 3.796669006347656250e+01 -1.366867303848266602e+00 4.407903194427490234e+00 9.123107194900512695e-01 1.537270545959472656e-01
7.180000000000000000e+02 4.899750518798828125e+01 3.759765243530273438e+01 -1.088144421577453613e+00 4.232529640197753906e+00 9.433155059814453125e-01 -3.632215857505798340e-01
7.190000000000000000e+02 5.359965515136718750e+01 3.090201568603515625e+01 1.063148498535156250e+00 8.977361679077148438e+00 3.012153148651123047e+00 1.220883846282958984e+00
7.200000000000000000e+02 5.436933517456054688e+01 3.292659378051757812e+01 1.315912961959838867e+00 6.283542156219482422e+00 2.279836654663085938e+00 2.368140459060668945e+00
7.210000000000000000e+02 4.937962341308593750e+01 3.259002685546875000e+01 3.925404846668243408e-01 4.959978103637695312e+00 1.605755567550659180e+00 -2.913999259471893311e-01
7.220000000000000000e+02 5.361795043945312500e+01 2.960389709472656250e+01 3.879168257117271423e-02 8.699584007263183594e+00 2.621512651443481445e+00 2.518874406814575195e-01
7.230000000000000000e+02 5.361065673828125000e+01 2.835754203796386719e+01 6.484848260879516602e-01 9.187001228332519531e+00 2.950645923614501953e+00 -6.001847386360168457e-01
7.240000000000000000e+02 4.247774505615234375e+01 4.098061370849609375e+01 -4.085975289344787598e-01 1.984165191650390625e+00 4.726702868938446045e-01 -2.203227728605270386e-01
7.250000000000000000e+02 4.289748764038085938e+01 3.588845443725585938e+01 -5.184620618820190430e-01 1.662171244621276855e+00 3.431127667427062988e-01 -8.769881725311279297e-01
7.260000000000000000e+02 4.310345458984375000e+01 3.305021667480468750e+01 1.610306054353713989e-01 1.204104542732238770e+00 4.095405340194702148e-01 -7.868685126304626465e-01
7.270000000000000000e+02 4.180513763427734375e+01 3.424045181274414062e+01 -5.408856272697448730e-01 6.605477333068847656e-01 3.589863330125808716e-02 -4.037606716156005859e-01
7.280000000000000000e+02 4.507458877563476562e+01 3.101578903198242188e+01 1.019332766532897949e+00 3.673765182495117188e+00 1.407929420471191406e+00 -1.616743087768554688e+00
7.290000000000000000e+02 4.605150222778320312e+01 2.896102714538574219e+01 8.659483194351196289e-01 6.282898902893066406e+00 2.144654273986816406e+00 -1.071291804313659668e+00
7.300000000000000000e+02 4.611405944824218750e+01 2.759595298767089844e+01 3.806635439395904541e-01 7.150112152099609375e+00 2.259232759475708008e+00 -8.714983612298965454e-02
7.310000000000000000e+02 3.851020050048828125e+01 3.464494323730468750e+01 -1.116014957427978516e+00 3.188191056251525879e-01 -2.391587495803833008e-01 1.478463709354400635e-01
7.320000000000000000e+02 3.711703491210937500e+01 3.669681549072265625e+01 -4.895433783531188965e-01 1.347968220710754395e+00 2.575274407863616943e-01 5.863460898399353027e-01
7.330000000000000000e+02 3.594858169555664062e+01 3.333348464965820312e+01 -1.891445517539978027e-01 2.157023668289184570e+00 5.903637409210205078e-01 4.828660786151885986e-01
7.340000000000000000e+02 4.013374710083007812e+01 3.493264770507812500e+01 -1.035425305366516113e+00 2.984739840030670166e-01 -2.210853844881057739e-01 -1.372829079627990723e-01
7.350000000000000000e+02 3.483848571777343750e+01 3.776366806030273438e+01 -5.196288228034973145e-01 1.764222741127014160e+00 3.733781874179840088e-01 2.217243015766143799e-01
7.360000000000000000e+02 3.152631759643554688e+01 3.494484710693359375e+01 -3.224921822547912598e-01 2.234227895736694336e+00 5.735206604003906250e-01 -3.948324620723724365e-01
7.370000000000000000e+02 2.799546432495117188e+01 2.854894256591796875e+01 1.222320914268493652e+00 6.638579368591308594e-01 5.658536553382873535e-01 -7.305043339729309082e-01
7.380000000000000000e+02 2.943787574768066406e+01 2.927564239501953125e+01 1.030256748199462891e+00 1.425906777381896973e+00 7.368490695953369141e-01 -9.051333665847778320e-01
7.390000000000000000e+02 2.889824295043945312e+01 2.769400596618652344e+01 1.015322089195251465e+00 8.567774891853332520e-01 5.616298913955688477e-01 -8.950713872909545898e-01
7.400000000000000000e+02 2.980743980407714844e+01 2.678074073791503906e+01 1.108809232711791992e+00 1.281660676002502441e+00 7.171409130096435547e-01 -1.048417925834655762e+00
7.410000000000000000e+02 3.143102073669433594e+01 2.459476852416992188e+01 7.519465088844299316e-01 3.636676073074340820e+00 1.316586732864379883e+00 -9.527779221534729004e-01
7.420000000000000000e+02 3.356036376953125000e+01 2.409702110290527344e+01 6.954145431518554688e-01 3.984800338745117188e+00 1.404064416885375977e+00 -5.494321584701538086e-01
7.430000000000000000e+02 3.264578628540039062e+01 2.629408073425292969e+01 1.060077309608459473e+00 3.611071586608886719e+00 1.401344656944274902e+00 -6.657895445823669434e-01
7.440000000000000000e+02 3.517807006835937500e+01 2.658870506286621094e+01 9.784287810325622559e-01 6.975154876708984375e+00 2.386075258255004883e+00 -1.582661151885986328e+00
7.450000000000000000e+02 3.345853805541992188e+01 2.798772048950195312e+01 1.035533666610717773e+00 4.254200935363769531e+00 1.586920380592346191e+00 -8.062107563018798828e-01
7.460000000000000000e+02 3.598220443725585938e+01 3.211632919311523438e+01 2.088026702404022217e-01 2.595171928405761719e+00 8.411923646926879883e-01 7.792325019836425781e-01
7.470000000000000000e+02 3.504460144042968750e+01 2.960294342041015625e+01 4.783355593681335449e-01 5.200298309326171875e+00 1.703590273857116699e+00 3.814126253128051758e-01
7.480000000000000000e+02 2.595345497131347656e+01 2.930764198303222656e+01 1.266944646835327148e+00 5.744734406471252441e-01 5.524254441261291504e-01 2.379958704113960266e-02
7.490000000000000000e+02 2.439970970153808594e+01 3.095265769958496094e+01 5.459350347518920898e-01 8.718479275703430176e-01 4.253348708152770996e-01 -9.981116652488708496e-02
7.500000000000000000e+02 2.446582031250000000e+01 2.929895401000976562e+01 8.091850280761718750e-01 8.148044347763061523e-01 4.871968328952789307e-01 3.216241896152496338e-01
7.510000000000000000e+02 2.886266326904296875e+01 3.032044792175292969e+01 9.103350639343261719e-01 1.317531228065490723e+00 6.683598756790161133e-01 -7.563797831535339355e-01
7.520000000000000000e+02 1.271193885803222656e+01 3.514768981933593750e+01 8.333589136600494385e-02 6.470270920544862747e-03 2.694184891879558563e-02 5.859835445880889893e-02
7.530000000000000000e+02 1.632160568237304688e+01 3.358180999755859375e+01 -1.153411790728569031e-01 -1.782662235200405121e-02 -3.995034098625183105e-02 5.484694987535476685e-02
7.540000000000000000e+02 1.746066093444824219e+01 3.290127944946289062e+01 -9.123766422271728516e-02 -5.545906722545623779e-03 -2.903507091104984283e-02 3.167185559868812561e-02
7.550000000000000000e+02 1.987932968139648438e+01 2.791375732421875000e+01 9.250574558973312378e-02 7.948830723762512207e-01 2.662166655063629150e-01 2.169251292943954468e-01
7.560000000000000000e+02 2.423899841308593750e+01 2.790894508361816406e+01 7.357996106147766113e-01 9.344791769981384277e-01 5.010836124420166016e-01 6.694820523262023926e-01
7.570000000000000000e+02 2.093092155456542969e+01 2.579760932922363281e+01 4.683904647827148438e-01 8.127436041831970215e-01 3.843402266502380371e-01 4.342617094516754150e-01
7.580000000000000000e+02 1.941190147399902344e+01 2.423396301269531250e+01 5.783827900886535645e-01 7.334235310554504395e-01 3.935418725013732910e-01 3.266039788722991943e-01
7.590000000000000000e+02 2.041963768005371094e+01 2.369450950622558594e+01 3.906139433383941650e-01 7.883465290069580078e-01 3.536881208419799805e-01 1.933041512966156006e-01
7.600000000000000000e+02 1.756568145751953125e+01 2.401856231689453125e+01 9.086272716522216797e-01 4.711451828479766846e-01 4.139317274093627930e-01 5.002729892730712891e-01
7.610000000000000000e+02 1.779934883117675781e+01 1.896493911743164062e+01 1.306768953800201416e-01 -1.482412666082382202e-01 -5.269313231110572815e-03 1.853133738040924072e-01
7.620000000000000000e+02 1.485218620300292969e+01 1.854843330383300781e+01 5.817032456398010254e-01 1.026004627346992493e-01 2.052911072969436646e-01 2.889050543308258057e-01
7.630000000000000000e+02 1.646447753906250000e+01 1.936101341247558594e+01 3.105249702930450439e-01 -1.192732676863670349e-01 5.737551301717758179e-02 3.515543639659881592e-01
7.640000000000000000e+02 1.655142211914062500e+01 2.157185554504394531e+01 5.359042882919311523e-01 2.574173510074615479e-01 2.379964888095855713e-01 3.909098505973815918e-01
7.650000000000000000e+02 1.982764816284179688e+01 1.696687507629394531e+01 -2.612784802913665771e-01 -4.608524590730667114e-02 -9.220911562442779541e-02 1.447025984525680542e-01
7.660000000000000000e+02 2.270922851562500000e+01 1.838625144958496094e+01 3.816758692264556885e-01 1.199500679969787598e+00 4.743529856204986572e-01 -5.317634940147399902e-01
7.670000000000000000e+02 2.475170516967773438e+01 1.478460025787353516e+01 1.080743223428726196e-01 4.407594501972198486e-01 1.646501272916793823e-01 -1.720869243144989014e-01
7.680000000000000000e+02 2.023162269592285156e+01 1.006145668029785156e+01 3.172588944435119629e-01 6.226575970649719238e-01 2.819749414920806885e-01 3.508002758026123047e-01
7.690000000000000000e+02 2.023605728149414062e+01 8.764177322387695312e+00 5.698134303092956543e-01 4.495228528976440430e-01 3.058008849620819092e-01 3.801645338535308838e-01
7.700000000000000000e+02 1.908271789550781250e+01 8.301738739013671875e+00 7.772178649902343750e-01 6.438497304916381836e-01 4.263202846050262451e-01 6.212914586067199707e-01
7.710000000000000000e+02 1.797468566894531250e+01 7.568335533142089844e+00 9.482597708702087402e-01 4.669349491596221924e-01 4.245584309101104736e-01 6.315332651138305664e-01
7.720000000000000000e+02 2.021226692199707031e+01 3.066212415695190430e+00 -1.255429029464721680e+00 -1.658559590578079224e-01 -4.263855218887329102e-01 2.276910692453384399e-01
7.730000000000000000e+02 2.175329780578613281e+01 2.663822889328002930e+00 -1.323611497879028320e+00 -1.190788671374320984e-01 -4.328071177005767822e-01 2.956461906433105469e-01
7.740000000000000000e+02 2.629185295104980469e+01 1.472529292106628418e+00 -1.317615628242492676e+00 -2.959265001118183136e-02 -4.041624963283538818e-01 3.576450049877166748e-01
7.750000000000000000e+02 2.780855369567871094e+01 1.141041874885559082e+00 -1.320851564407348633e+00 1.201845407485961914e-01 -3.602001368999481201e-01 2.423097491264343262e-01
7.760000000000000000e+02 3.111908149719238281e+01 2.549479007720947266e+00 -3.913581073284149170e-01 4.365842640399932861e-01 1.356784347444772720e-02 -1.122743189334869385e-01
7.770000000000000000e+02 3.350432586669921875e+01 1.463095188140869141e+00 -1.984406471252441406e+00 2.513536252081394196e-02 -5.877813100814819336e-01 -3.500768840312957764e-01
7.780000000000000000e+02 3.288829421997070312e+01 1.223753929138183594e+00 -1.584294915199279785e+00 2.428486347198486328e-01 -4.024338722229003906e-01 -1.952724605798721313e-01
7.790000000000000000e+02 1.005023002624511719e+01 3.597085571289062500e+01 2.002214640378952026e-01 6.027442216873168945e-02 7.814876735210418701e-02 1.445973813533782959e-01
7.800000000000000000e+02 4.432148933410644531e+00 4.048838806152343750e+01 -5.033298954367637634e-02 -7.063158154487609863e-01 -2.269946485757827759e-01 2.305546961724758148e-02
7.810000000000000000e+02 8.797599792480468750e+00 3.460972213745117188e+01 4.173502326011657715e-01 1.322089880704879761e-01 1.648677736520767212e-01 1.673121899366378784e-01
7.820000000000000000e+02 1.034674263000488281e+01 3.887875747680664062e+01 4.680964164435863495e-03 1.722084917128086090e-02 6.570544093847274780e-03 9.563142061233520508e-02
7.830000000000000000e+02 1.932586789131164551e+00 4.162294387817382812e+01 -8.211282640695571899e-02 -1.020462751388549805e+00 -3.307726681232452393e-01 -2.328739501535892487e-02
7.840000000000000000e+02 7.882812619209289551e-01 3.349823379516601562e+01 2.005915902554988861e-02 -1.271014571189880371e+00 -3.752866089344024658e-01 1.568952389061450958e-02
7.850000000000000000e+02 2.367372274398803711e+00 3.385567474365234375e+01 3.095931746065616608e-02 -9.935132265090942383e-01 -2.887661755084991455e-01 2.680675499141216278e-02
7.860000000000000000e+02 7.768146991729736328e+00 3.363455581665039062e+01 2.677799165248870850e-01 1.593144088983535767e-01 1.281282901763916016e-01 2.028245180845260620e-01
7.870000000000000000e+02 7.005532741546630859e+00 3.247354888916015625e+01 1.078322008252143860e-01 6.147591024637222290e-02 5.079243332147598267e-02 8.729054778814315796e-02
7.880000000000000000e+02 5.997623920440673828e+00 3.001794433593750000e+01 6.256334949284791946e-03 -4.870608150959014893e-01 -1.442413479089736938e-01 -2.820115350186824799e-02
7.890000000000000000e+02 5.659129142761230469e+00 2.880105781555175781e+01 -3.205055370926856995e-02 -7.003254294395446777e-01 -2.197128087282180786e-01 3.558520600199699402e-02
7.900000000000000000e+02 3.532020092010498047e+00 2.608660888671875000e+01 -7.022669166326522827e-02 -7.582876682281494141e-01 -2.485543042421340942e-01 4.416510835289955139e-02
7.910000000000000000e+02 5.489149093627929688e-01 2.472704696655273438e+01 7.350624655373394489e-04 -9.498112797737121582e-01 -2.847228646278381348e-01 -9.635469876229763031e-03
7.920000000000000000e+02 1.557923436164855957e+00 2.324538040161132812e+01 2.407199208391830325e-04 -8.791995048522949219e-01 -2.636876404285430908e-01 -2.265360392630100250e-02
7.930000000000000000e+02 1.840463638305664062e+00 1.783505821228027344e+01 4.323096945881843567e-02 -7.707151174545288086e-01 -2.182452529668807983e-01 8.615925908088684082e-02
7.940000000000000000e+02 1.690637111663818359e+00 1.202533054351806641e+01 -1.420580409467220306e-02 -3.228172063827514648e-01 -1.011068969964981079e-01 2.038249373435974121e-01
7.950000000000000000e+02 2.492203712463378906e+00 4.578270435333251953e+00 -4.292284697294235229e-02 2.068868279457092285e-02 -6.670249160379171371e-03 -2.441121265292167664e-02
7.960000000000000000e+02 1.012994289398193359e+01 2.036537647247314453e+00 -4.446780774742364883e-03 -5.549919232726097107e-02 -1.798379234969615936e-02 5.228967592120170593e-02
7.970000000000000000e+02 1.249153137207031250e+01 7.409300327301025391e+00 -1.172305464744567871e+00 -7.431941628456115723e-01 -5.746498703956604004e-01 7.914764285087585449e-01
7.980000000000000000e+02 1.083032321929931641e+01 2.182843923568725586e+00 -5.982722342014312744e-02 -6.001482158899307251e-02 -3.595261275768280029e-02 9.909702837467193604e-02
7.990000000000000000e+02 1.153787136077880859e+01 2.333708763122558594e+00 -1.256939768791198730e-01 -5.652036145329475403e-02 -5.466429889202117920e-02 1.390555649995803833e-01
8.000000000000000000e+02 1.375653553009033203e+01 2.771205186843872070e+00 -4.565804302692413330e-01 -2.961564436554908752e-02 -1.458588242530822754e-01 3.837786018848419189e-01
8.010000000000000000e+02 1.692493247985839844e+01 3.230939388275146484e+00 -1.051606774330139160e+00 7.571236789226531982e-02 -2.927683293819427490e-01 5.038931369781494141e-01
8.020000000000000000e+02 1.777093124389648438e+01 3.312865257263183594e+00 -1.088807940483093262e+00 -5.489659309387207031e-02 -3.431113660335540771e-01 4.619087576866149902e-01
8.030000000000000000e+02 3.396638488769531250e+01 1.734011530876159668e+00 -2.266773939132690430e+00 -1.368670761585235596e-01 -7.210922837257385254e-01 2.274457067251205444e-01
8.040000000000000000e+02 2.900567054748535156e+01 6.643037319183349609e+00 2.834760248661041260e-01 1.412942171096801758e+00 5.089254379272460938e-01 -2.989663481712341309e-01
8.050000000000000000e+02 2.862897109985351562e+01 9.232077598571777344e+00 1.652941852807998657e-01 6.927095055580139160e-01 2.574011087417602539e-01 4.900401458144187927e-02
8.060000000000000000e+02 3.031352615356445312e+01 1.086714839935302734e+01 1.646158397197723389e-01 4.171714484691619873e-01 1.745361834764480591e-01 2.688087224960327148e-01
8.070000000000000000e+02 2.944868278503417969e+01 1.185580253601074219e+01 1.461508423089981079e-01 4.895201623439788818e-01 1.907013058662414551e-01 1.610913872718811035e-01
8.080000000000000000e+02 3.008462715148925781e+01 1.541556549072265625e+01 3.639000058174133301e-01 1.907113492488861084e-01 1.663834005594253540e-01 2.117335945367813110e-01
8.090000000000000000e+02 3.101626586914062500e+01 1.444913005828857422e+01 2.383218854665756226e-01 4.994134604930877686e-01 2.213205993175506592e-01 3.339126408100128174e-01
8.100000000000000000e+02 2.887695312500000000e+01 1.492702865600585938e+01 2.614625990390777588e-01 7.963865250349044800e-02 1.023303717374801636e-01 1.280671358108520508e-01
8.110000000000000000e+02 2.667387008666992188e+01 1.511837482452392578e+01 2.489631623029708862e-01 1.295601725578308105e-01 1.135570034384727478e-01 -1.114940196275711060e-01
8.120000000000000000e+02 2.455097007751464844e+01 1.660058784484863281e+01 3.443509042263031006e-01 5.005446076393127441e-01 2.534686625003814697e-01 -3.719074428081512451e-01
8.130000000000000000e+02 2.101166152954101562e+01 1.725155639648437500e+01 -2.972743101418018341e-02 3.945319056510925293e-01 1.094413399696350098e-01 -4.295375570654869080e-02
8.140000000000000000e+02 2.360982322692871094e+01 1.748426437377929688e+01 3.863540589809417725e-01 7.732541561126708984e-01 3.478824496269226074e-01 -5.336658358573913574e-01
8.150000000000000000e+02 1.868388748168945312e+01 1.720303535461425781e+01 -4.570369720458984375e-01 -3.163280189037322998e-01 -2.320094853639602661e-01 3.342363238334655762e-01
8.160000000000000000e+02 2.213255691528320312e+01 2.050951004028320312e+01 2.111298143863677979e-01 1.298030138015747070e+00 4.527480006217956543e-01 -2.636451125144958496e-01
8.170000000000000000e+02 2.310340690612792969e+01 2.559689331054687500e+01 2.951892614364624023e-01 1.061193585395812988e+00 4.069148302078247070e-01 4.515663683414459229e-01
8.180000000000000000e+02 3.296706771850585938e+01 1.243149185180664062e+01 6.273908913135528564e-02 3.699015825986862183e-02 2.991877496242523193e-02 -2.464613504707813263e-02
8.190000000000000000e+02 3.994593048095703125e+01 3.783966541290283203e+00 -3.632659614086151123e-01 1.452778458595275879e+00 3.268537521362304688e-01 -1.384891629219055176e+00
8.200000000000000000e+02 3.827273178100585938e+01 3.308620452880859375e+00 5.211042761802673340e-01 1.708269305527210236e-02 1.614560931921005249e-01 3.356480002403259277e-01
8.210000000000000000e+02 4.376630783081054688e+01 -2.168863296508789062e+00 4.027946949005126953e+00 3.985841035842895508e+00 2.404136419296264648e+00 3.081852674484252930e+00
8.220000000000000000e+02 3.860292434692382812e+01 -4.223287582397460938e+00 5.019574642181396484e+00 4.357322216033935547e+00 2.813068866729736328e+00 3.744572639465332031e+00
8.230000000000000000e+02 4.139906692504882812e+01 -1.375513911247253418e+00 2.381397485733032227e+00 -7.094501852989196777e-01 5.015842318534851074e-01 2.571021795272827148e+00
8.240000000000000000e+02 3.883232498168945312e+01 -3.911409974098205566e-01 -1.271491289138793945e+00 8.999207019805908203e-01 -1.114711984992027283e-01 5.725087523460388184e-01
8.250000000000000000e+02 3.728796768188476562e+01 -1.096199512481689453e+00 -1.139550089836120605e+00 9.990901947021484375e-01 -4.213795065879821777e-02 7.327270507812500000e-02
8.260000000000000000e+02 3.429708862304687500e+01 -2.191782712936401367e+00 -5.532321929931640625e-01 -3.996271193027496338e-01 -2.858577966690063477e-01 -7.306579947471618652e-01
8.270000000000000000e+02 2.993888664245605469e+01 -5.468101501464843750e+00 -1.529866177588701248e-02 -1.294516563415527344e+00 -3.929445743560791016e-01 -2.033482342958450317e-01
8.280000000000000000e+02 2.990731620788574219e+01 -7.425752162933349609e+00 7.579429447650909424e-02 -1.213711142539978027e+00 -3.413750529289245605e-01 2.179981023073196411e-01
8.290000000000000000e+02 3.057666015625000000e+01 -6.546159267425537109e+00 4.062703251838684082e-01 -9.840070009231567383e-01 -1.733209937810897827e-01 2.186692506074905396e-01
8.300000000000000000e+02 3.382414245605468750e+01 -8.036865234375000000e+00 1.353121280670166016e+00 8.335603475570678711e-01 6.560044884681701660e-01 1.484904646873474121e+00
8.310000000000000000e+02 2.855052757263183594e+01 -1.109035778045654297e+01 1.823401004076004028e-01 7.181158661842346191e-01 2.701368033885955811e-01 4.980869889259338379e-01
8.320000000000000000e+02 2.882482910156250000e+01 -1.593773746490478516e+01 -1.361534893512725830e-01 1.720954656600952148e+00 4.754403531551361084e-01 4.810514748096466064e-01
8.330000000000000000e+02 2.713416481018066406e+01 -1.320053672790527344e+01 -8.678288459777832031e-01 5.150080919265747070e-01 -1.058462262153625488e-01 7.014860957860946655e-02
8.340000000000000000e+02 2.480532264709472656e+01 -1.360647487640380859e+01 -1.421129107475280762e+00 -1.440856754779815674e-01 -4.695644378662109375e-01 -4.155357778072357178e-01
8.350000000000000000e+02 2.247314643859863281e+01 -1.466570186614990234e+01 -9.067204594612121582e-01 -1.986281722784042358e-01 -3.316045999526977539e-01 -2.855011820793151855e-01
8.360000000000000000e+02 2.139402008056640625e+01 -1.379632186889648438e+01 -9.724263548851013184e-01 -9.145244956016540527e-02 -3.191636204719543457e-01 -3.766105696558952332e-02
8.370000000000000000e+02 2.019207382202148438e+01 -1.304251766204833984e+01 -3.138628900051116943e-01 -1.147192530333995819e-02 -9.760044515132904053e-02 9.335306286811828613e-02
8.380000000000000000e+02 1.833991622924804688e+01 -1.092914485931396484e+01 -6.971065886318683624e-03 1.159813553094863892e-01 3.270308673381805420e-02 -2.102412097156047821e-02
8.390000000000000000e+02 1.922522926330566406e+01 -1.199061489105224609e+01 -1.122718751430511475e-01 2.073272690176963806e-02 -2.746174298226833344e-02 1.842798106372356415e-02
8.400000000000000000e+02 1.663726043701171875e+01 -1.315983486175537109e+01 -1.373561918735504150e-01 3.139241039752960205e-01 5.297037214040756226e-02 -4.328810423612594604e-02
8.410000000000000000e+02 1.788367652893066406e+01 -1.668913269042968750e+01 4.136053472757339478e-02 5.525204911828041077e-02 2.898377552628517151e-02 -3.884527385234832764e-01
8.420000000000000000e+02 2.220236587524414062e+01 -2.606860923767089844e+01 1.379434615373611450e-01 2.248242497444152832e-01 1.088303104043006897e-01 3.091419488191604614e-02
8.430000000000000000e+02 2.359780120849609375e+01 -1.398074150085449219e+01 -1.455149650573730469e+00 -1.443337202072143555e-01 -4.798450171947479248e-01 -3.346090018749237061e-01
8.440000000000000000e+02 2.976130294799804688e+01 -1.839649009704589844e+01 7.548463940620422363e-01 3.010794639587402344e+00 1.129692316055297852e+00 1.384993791580200195e+00
8.450000000000000000e+02 2.923931884765625000e+01 -1.961744689941406250e+01 5.799716711044311523e-01 3.509187221527099609e+00 1.226747632026672363e+00 9.987549185752868652e-01
8.460000000000000000e+02 2.742271995544433594e+01 -2.158926010131835938e+01 6.423814296722412109e-01 1.999245762825012207e+00 7.924881577491760254e-01 2.209044396877288818e-01
8.470000000000000000e+02 2.873231124877929688e+01 -2.220652198791503906e+01 3.438316285610198975e-01 3.343200206756591797e+00 1.106109619140625000e+00 -1.086904108524322510e-01
8.480000000000000000e+02 2.917275238037109375e+01 -3.939303874969482422e+00 3.689625263214111328e-01 2.083173096179962158e-01 1.731839478015899658e-01 -1.328049600124359131e-01
8.490000000000000000e+02 1.585112094879150391e+01 -8.578654527664184570e-01 -3.156151771545410156e-01 -2.420008778572082520e-01 -1.672848165035247803e-01 -7.874790579080581665e-02
8.500000000000000000e+02 1.205521297454833984e+01 -1.455954194068908691e+00 -2.363305985927581787e-01 8.273448795080184937e-02 -4.607883095741271973e-02 -8.244355767965316772e-02
8.510000000000000000e+02 5.083610534667968750e+01 -1.490820598602294922e+01 -1.119475722312927246e+00 1.113910198211669922e+00 -1.669661025516688824e-03 -1.091803073883056641e+00
8.520000000000000000e+02 4.830651855468750000e+01 -8.784604072570800781e+00 2.468276262283325195e+00 1.371161460876464844e+01 4.853967189788818359e+00 1.453775018453598022e-01
8.530000000000000000e+02 4.729076004028320312e+01 -1.097505283355712891e+01 3.737352609634399414e+00 1.569243335723876953e+01 5.828935623168945312e+00 5.339934825897216797e+00
8.540000000000000000e+02 5.247611618041992188e+01 -1.546969509124755859e+01 -3.044602155685424805e+00 1.550847411155700684e+00 -4.481264352798461914e-01 -2.349913597106933594e+00
8.550000000000000000e+02 5.343263626098632812e+01 -1.645885658264160156e+01 -1.459038257598876953e+00 2.611616849899291992e+00 3.457735776901245117e-01 -2.176627397537231445e+00
8.560000000000000000e+02 5.438175582885742188e+01 -1.535086727142333984e+01 -1.583326697349548340e+00 6.037512302398681641e+00 1.336255669593811035e+00 -3.512999534606933594e+00
8.570000000000000000e+02 5.659344863891601562e+01 -1.699107360839843750e+01 7.129876613616943359e-01 6.702949523925781250e+00 2.224781274795532227e+00 -5.979790091514587402e-01
8.580000000000000000e+02 5.582196807861328125e+01 -1.812787055969238281e+01 1.859800219535827637e+00 8.677109718322753906e+00 3.161072969436645508e+00 -1.723298907279968262e+00
8.590000000000000000e+02 5.549318695068359375e+01 -2.066328811645507812e+01 6.789700984954833984e-01 1.226370525360107422e+01 3.882802486419677734e+00 -3.244225680828094482e-01
8.600000000000000000e+02 5.746961212158203125e+01 -2.483934783935546875e+01 -1.100551843643188477e+00 6.606271266937255859e+00 1.651715755462646484e+00 1.028027653694152832e+00
8.610000000000000000e+02 5.980916213989257812e+01 -2.605156326293945312e+01 -2.892896413803100586e+00 1.533828616142272949e+00 -4.077203571796417236e-01 5.656957030296325684e-01
8.620000000000000000e+02 6.112769317626953125e+01 -2.643835830688476562e+01 -5.325148105621337891e+00 -4.683718979358673096e-01 -1.738055944442749023e+00 -4.478587508201599121e-01
8.630000000000000000e+02 6.240950775146484375e+01 -2.678829574584960938e+01 -3.164210319519042969e+00 1.825558543205261230e+00 -4.015955030918121338e-01 -8.211507201194763184e-01
8.640000000000000000e+02 6.604642486572265625e+01 -2.440710449218750000e+01 2.429737091064453125e+00 7.814142227172851562e+00 3.073163986206054688e+00 -4.714372158050537109e+00
8.650000000000000000e+02 6.579138183593750000e+01 -2.658772087097167969e+01 -1.590499758720397949e+00 8.245106697082519531e+00 1.996382236480712891e+00 -2.942226886749267578e+00
8.660000000000000000e+02 6.353705596923828125e+01 -2.761093902587890625e+01 7.293881177902221680e-01 4.301887035369873047e+00 1.509382486343383789e+00 -2.521829128265380859e+00
8.670000000000000000e+02 6.573690032958984375e+01 -2.905361747741699219e+01 2.539930820465087891e+00 1.007591152191162109e+01 3.784752845764160156e+00 -3.840334653854370117e+00
8.680000000000000000e+02 6.569287109375000000e+01 -3.040427398681640625e+01 2.890714883804321289e+00 1.299158477783203125e+01 4.764689922332763672e+00 -4.129161834716796875e+00
8.690000000000000000e+02 6.871190643310546875e+01 -2.949458694458007812e+01 2.048829317092895508e+00 4.086295604705810547e+00 1.840537428855895996e+00 -1.513419389724731445e+00
8.700000000000000000e+02 6.583511352539062500e+01 -3.306575393676757812e+01 2.700656950473785400e-01 9.768126487731933594e+00 3.011457681655883789e+00 -5.481223464012145996e-01
8.710000000000000000e+02 6.592704010009765625e+01 -3.435413360595703125e+01 2.649060189723968506e-01 8.273373603820800781e+00 2.561483860015869141e+00 6.023918092250823975e-02
8.720000000000000000e+02 6.530115509033203125e+01 -3.641305160522460938e+01 -2.338044643402099609e-01 4.448039054870605469e+00 1.264270424842834473e+00 5.918927192687988281e-01
8.730000000000000000e+02 6.660968780517578125e+01 -3.982556533813476562e+01 -1.857872843742370605e+00 4.710477352142333984e+00 8.557813763618469238e-01 -4.583751037716865540e-02
8.740000000000000000e+02 6.581706237792968750e+01 -3.172573852539062500e+01 7.734156250953674316e-01 1.223938655853271484e+01 3.903840541839599609e+00 -1.788522362709045410e+00
8.750000000000000000e+02 7.935525512695312500e+01 -3.327082061767578125e+01 2.693502604961395264e-02 7.745431900024414062e+00 2.331710100173950195e+00 -1.893297769129276276e-03
8.760000000000000000e+02 5.473442840576171875e+01 -2.593176269531250000e+01 -3.227613925933837891e+00 7.461612701416015625e+00 1.270199656486511230e+00 2.162454843521118164e+00
8.770000000000000000e+02 5.820685195922851562e+01 -2.809453392028808594e+01 4.616613984107971191e-01 4.715823173522949219e+00 1.553245425224304199e+00 2.083292007446289062e+00
8.780000000000000000e+02 5.738325500488281250e+01 -2.922618865966796875e+01 1.580037355422973633e+00 7.388609886169433594e+00 2.690594196319580078e+00 3.396693944931030273e+00
8.790000000000000000e+02 5.320103836059570312e+01 -2.591287040710449219e+01 -3.076211214065551758e+00 2.502334356307983398e+00 -1.721630543470382690e-01 1.551455020904541016e+00
8.800000000000000000e+02 4.673102951049804688e+01 -2.843490982055664062e+01 -2.484876960515975952e-01 1.824720740318298340e+00 4.728699028491973877e-01 -1.567793488502502441e+00
8.810000000000000000e+02 4.963171386718750000e+01 -2.568076705932617188e+01 -3.147237539291381836e+00 1.545313000679016113e+00 -4.805773794651031494e-01 -1.396078586578369141e+00
8.820000000000000000e+02 7.384123992919921875e+01 -2.202431488037109375e+01 6.935594081878662109e-01 1.329929065704345703e+01 4.197854995727539062e+00 3.435330986976623535e-01
8.830000000000000000e+02 7.945828247070312500e+01 -2.641639900207519531e+01 -2.096522785723209381e-02 7.384275913238525391e+00 2.208993196487426758e+00 -1.976986825466156006e-01
8.840000000000000000e+02 7.186817932128906250e+01 -2.609029960632324219e+01 -1.907885670661926270e+00 1.626936674118041992e+00 -8.428468555212020874e-02 1.050099015235900879e+00
8.850000000000000000e+02 7.108636474609375000e+01 -2.725917243957519531e+01 -1.510049462318420410e+00 1.438051700592041016e+00 -2.159929648041725159e-02 1.022153019905090332e+00
8.860000000000000000e+02 6.969914245605468750e+01 -2.657243156433105469e+01 -3.702340364456176758e+00 -1.435295641422271729e-01 -1.153761029243469238e+00 1.129592359066009521e-01
8.870000000000000000e+02 6.717163848876953125e+01 -2.542930030822753906e+01 4.794146120548248291e-01 4.866136550903320312e+00 1.603665351867675781e+00 -2.546036720275878906e+00
8.880000000000000000e+02 6.470808410644531250e+01 -2.163584709167480469e+01 2.093006849288940430e+00 1.258078289031982422e+01 4.402136802673339844e+00 -2.654330492019653320e+00
8.890000000000000000e+02 6.468952941894531250e+01 -2.014630317687988281e+01 2.846399843692779541e-01 9.610332489013671875e+00 2.968491792678833008e+00 -2.045309245586395264e-01
8.900000000000000000e+02 6.310701751708984375e+01 -1.759366989135742188e+01 -2.562217712402343750e-01 6.764582157135009766e+00 1.952508091926574707e+00 -6.082422137260437012e-01
8.910000000000000000e+02 6.697789001464843750e+01 -1.637203598022460938e+01 -2.981302022933959961e+00 -2.800794132053852081e-02 -9.027930498123168945e-01 -6.323465704917907715e-01
8.920000000000000000e+02 4.178539657592773438e+01 -1.425137519836425781e+01 -4.096476078033447266e+00 -4.392027258872985840e-01 -1.360703587532043457e+00 1.755970865488052368e-01
8.930000000000000000e+02 4.086128616333007812e+01 -1.329404926300048828e+01 -4.631454944610595703e+00 -5.785902738571166992e-01 -1.563013672828674316e+00 9.510186910629272461e-01
8.940000000000000000e+02 3.749129867553710938e+01 -1.187085437774658203e+01 -1.330573081970214844e+00 1.731958031654357910e+00 1.204155087471008301e-01 2.316399514675140381e-01
8.950000000000000000e+02 3.712525939941406250e+01 -7.862719535827636719e+00 7.456465959548950195e-01 6.204272270202636719e+00 2.084975719451904297e+00 1.201684713363647461e+00
8.960000000000000000e+02 3.748949432373046875e+01 -6.073112487792968750e+00 2.870513439178466797e+00 6.889637947082519531e+00 2.928045511245727539e+00 3.271260499954223633e+00
8.970000000000000000e+02 3.533214569091796875e+01 -2.797657966613769531e+00 4.794394075870513916e-01 3.420760929584503174e-01 2.464546412229537964e-01 -2.568362355232238770e-01
8.980000000000000000e+02 5.600926971435546875e+01 -3.462967681884765625e+01 1.087607502937316895e+00 9.272185325622558594e+00 3.107937812805175781e+00 -1.113618373870849609e+00
8.990000000000000000e+02 5.598419570922851562e+01 -3.327127075195312500e+01 8.865860104560852051e-01 1.181903362274169922e+01 3.811685800552368164e+00 2.712644636631011963e-01
9.000000000000000000e+02 5.140174102783203125e+01 -3.068024063110351562e+01 2.076496839523315430e+00 4.900087833404541016e+00 2.092975378036499023e+00 -2.244700677692890167e-02
9.010000000000000000e+02 5.021812820434570312e+01 -3.401840209960937500e+01 1.683613419532775879e+00 6.933448314666748047e+00 2.585118532180786133e+00 8.714811205863952637e-01
9.020000000000000000e+02 4.925497817993164062e+01 -3.497373962402343750e+01 1.441629052162170410e+00 6.445674419403076172e+00 2.366190910339355469e+00 1.985637307167053223e+00
9.030000000000000000e+02 5.560819625854492188e+01 -2.651213836669921875e+01 -2.265993356704711914e+00 7.609683990478515625e+00 1.603107213973999023e+00 2.281662464141845703e+00
9.040000000000000000e+02 1.570380306243896484e+01 -1.976977157592773438e+01 -1.585758477449417114e-01 -3.521816134452819824e-01 -1.532272398471832275e-01 -2.309169918298721313e-01
9.050000000000000000e+02 1.603512382507324219e+01 -1.724357604980468750e+01 8.001741021871566772e-02 3.317264318466186523e-01 1.235231533646583557e-01 -2.143840342760086060e-01
9.060000000000000000e+02 1.748245048522949219e+01 -2.159159660339355469e+01 1.888939877972006798e-03 -2.681014128029346466e-02 -7.476360537111759186e-03 -5.960619449615478516e-02
9.070000000000000000e+02 1.727354621887207031e+01 -2.687324905395507812e+01 4.600906074047088623e-01 1.170599684119224548e-01 1.731451749801635742e-01 1.794994622468948364e-01
9.080000000000000000e+02 4.836513042449951172e+00 -1.960986900329589844e+01 3.749798610806465149e-02 -2.004737257957458496e-01 -4.889272525906562805e-02 -1.314228326082229614e-01
9.090000000000000000e+02 4.362619400024414062e+00 -1.867842483520507812e+01 -1.781703904271125793e-02 -2.468576282262802124e-01 -7.940240204334259033e-02 -1.667557209730148315e-01
9.100000000000000000e+02 2.147524595260620117e+00 -1.845417785644531250e+01 -4.252976551651954651e-02 -2.599587440490722656e-01 -9.074655175209045410e-02 -1.506148129701614380e-01
9.110000000000000000e+02 3.416535615921020508e+00 -1.830237197875976562e+01 -5.549603700637817383e-02 -2.813190817832946777e-01 -1.010445356369018555e-01 -1.886976659297943115e-01
9.120000000000000000e+02 5.787209987640380859e+00 -1.612235260009765625e+01 -1.261339336633682251e-01 -3.641586005687713623e-01 -1.470877528190612793e-01 -2.140852063894271851e-01
9.130000000000000000e+02 1.862493038177490234e+00 -1.432839107513427734e+01 -1.578093878924846649e-02 -1.329110413789749146e-01 -4.460759460926055908e-02 -3.517391905188560486e-02
9.140000000000000000e+02 4.740346527099609375e+01 1.901789855957031250e+01 -3.263596534729003906e+00 1.488344430923461914e+00 -5.325756072998046875e-01 1.239356160163879395e+00
9.150000000000000000e+02 5.075353622436523438e+01 1.799683761596679688e+01 -1.121061563491821289e+00 1.015567660331726074e+00 -3.164817765355110168e-02 -5.833457410335540771e-02
9.160000000000000000e+02 5.278022003173828125e+01 1.606806755065917969e+01 1.282348394393920898e+00 2.986234664916992188e+00 1.280574917793273926e+00 -1.857242465019226074e+00
9.170000000000000000e+02 5.367448043823242188e+01 1.506411838531494141e+01 1.504732728004455566e+00 5.171666145324707031e+00 2.002919673919677734e+00 -2.458294153213500977e+00
9.180000000000000000e+02 5.779005432128906250e+01 1.390478801727294922e+01 1.751945257186889648e+00 8.307059288024902344e+00 3.017701387405395508e+00 1.491698265075683594e+00
9.190000000000000000e+02 5.489332199096679688e+01 1.868429946899414062e+01 -6.496682763099670410e-01 4.649926185607910156e+00 1.200077414512634277e+00 -1.849820494651794434e+00
9.200000000000000000e+02 5.470980834960937500e+01 1.310715389251708984e+01 1.017079472541809082e+00 9.390577316284179688e+00 3.122297048568725586e+00 -1.458333730697631836e+00
9.210000000000000000e+02 5.475639724731445312e+01 1.047023868560791016e+01 3.047958612442016602e-01 1.296504402160644531e+01 3.980952024459838867e+00 7.668692469596862793e-01
9.220000000000000000e+02 6.087564086914062500e+01 9.198470115661621094e+00 1.233988180756568909e-01 5.820310115814208984e+00 1.783112645149230957e+00 -7.451432943344116211e-01
9.230000000000000000e+02 5.440635681152343750e+01 7.853644371032714844e+00 2.859220266342163086e+00 1.190301322937011719e+01 4.428669929504394531e+00 4.235298156738281250e+00
9.240000000000000000e+02 5.746657943725585938e+01 2.441493749618530273e+00 -2.492437511682510376e-02 3.225600719451904297e+00 9.602029323577880859e-01 -5.360564589500427246e-01
9.250000000000000000e+02 5.115268325805664062e+01 3.175548553466796875e+00 8.038657903671264648e-02 2.372999191284179688e+00 7.360157370567321777e-01 2.508587837219238281e+00
9.260000000000000000e+02 5.797829818725585938e+01 1.140503525733947754e+00 -9.916440844535827637e-01 2.144574642181396484e+00 3.458791971206665039e-01 -1.274125099182128906e+00
9.270000000000000000e+02 5.543093109130859375e+01 3.612369000911712646e-01 1.222637519240379333e-01 1.842818737030029297e+00 5.895247459411621094e-01 1.652694225311279297e+00
9.280000000000000000e+02 5.385167694091796875e+01 -7.456790804862976074e-01 2.249045848846435547e+00 5.298591613769531250e+00 2.264291286468505859e+00 3.185148239135742188e+00
9.290000000000000000e+02 5.308595657348632812e+01 6.242833137512207031e+00 1.811570525169372559e+00 5.350018501281738281e+00 2.148476600646972656e+00 3.222976684570312500e+00
9.300000000000000000e+02 5.099705505371093750e+01 4.905398368835449219e+00 -3.251949548721313477e+00 6.464717388153076172e-01 -7.816433310508728027e-01 2.192823648452758789e+00
9.310000000000000000e+02 5.143587875366210938e+01 5.410387516021728516e-01 1.760557532310485840e+00 5.025853157043457031e+00 2.035923242568969727e+00 1.313518524169921875e+00
9.320000000000000000e+02 4.834968948364257812e+01 6.573766708374023438e+00 -3.280338764190673828e+00 2.102162092924118042e-01 -9.210367798805236816e-01 8.772420883178710938e-01
9.330000000000000000e+02 4.749957275390625000e+01 7.484904766082763672e+00 -1.230473145842552185e-01 1.805304288864135742e+00 5.046771168708801270e-01 -5.885373950004577637e-01
9.340000000000000000e+02 4.655543899536132812e+01 8.399411201477050781e+00 1.015429377555847168e+00 3.563598155975341797e+00 1.373708248138427734e+00 -2.349140644073486328e+00
9.350000000000000000e+02 4.438944625854492188e+01 1.001944446563720703e+01 1.914312720298767090e+00 8.880052566528320312e+00 3.238309621810913086e+00 -2.137709140777587891e+00
9.360000000000000000e+02 4.467031478881835938e+01 1.250253868103027344e+01 7.218116521835327148e-01 1.223983192443847656e+01 3.888493061065673828e+00 -6.972385048866271973e-01
9.370000000000000000e+02 4.503467559814453125e+01 1.526595401763916016e+01 1.025030612945556641e+00 9.032209396362304688e+00 3.017172098159790039e+00 2.226567268371582031e+00
9.380000000000000000e+02 4.476171493530273438e+01 1.387216281890869141e+01 6.923279762268066406e-01 1.110052013397216797e+01 3.537854194641113281e+00 1.127544164657592773e+00
9.390000000000000000e+02 4.213646316528320312e+01 2.185677146911621094e+01 -3.645503759384155273e+00 5.017189309000968933e-02 -1.078599572181701660e+00 -2.077862173318862915e-01
9.400000000000000000e+02 4.510736083984375000e+01 2.003903770446777344e+01 -1.943744540214538574e+00 4.698606014251708984e+00 8.264584541320800781e-01 1.978133082389831543e+00
9.410000000000000000e+02 1.665658760070800781e+01 6.946523189544677734e+00 5.448363423347473145e-01 2.519366443157196045e-01 2.390318959951400757e-01 4.472230374813079834e-01
9.420000000000000000e+02 1.047448825836181641e+01 9.131108283996582031e+00 -6.563773751258850098e-01 -8.396204113960266113e-01 -4.487993419170379639e-01 6.423916816711425781e-01
9.430000000000000000e+02 9.597900390625000000e+00 1.099643039703369141e+01 -2.529256939888000488e-01 -7.664384841918945312e-01 -3.058092594146728516e-01 3.800255954265594482e-01
9.440000000000000000e+02 9.560356140136718750e+00 1.352013778686523438e+01 1.178722381591796875e-01 2.479527890682220459e-01 1.097475066781044006e-01 2.488610595464706421e-01
9.450000000000000000e+02 9.562738418579101562e+00 1.227606391906738281e+01 -4.558268003165721893e-03 -2.646331191062927246e-01 -8.075741678476333618e-02 1.347913593053817749e-01
9.460000000000000000e+02 7.870570659637451172e+00 1.391904163360595703e+01 2.181362360715866089e-01 -1.972517669200897217e-01 6.265342701226472855e-03 4.748342633247375488e-01
9.470000000000000000e+02 4.558589458465576172e+00 1.665559387207031250e+01 1.918295174837112427e-01 -4.957522749900817871e-01 -9.117683023214340210e-02 2.506013214588165283e-01
9.480000000000000000e+02 1.097054481506347656e+01 1.662462615966796875e+01 7.725501060485839844e-01 7.756687998771667480e-01 4.644656777381896973e-01 6.973028779029846191e-01
9.490000000000000000e+02 1.205092048645019531e+01 1.765257263183593750e+01 9.875558018684387207e-01 6.060649752616882324e-01 4.780862331390380859e-01 6.742830872535705566e-01
9.500000000000000000e+02 3.154266548156738281e+01 -1.588865089416503906e+01 2.599667906761169434e-01 1.260845422744750977e+00 4.562436640262603760e-01 9.012031555175781250e-01
9.510000000000000000e+02 3.266188049316406250e+01 -1.522963714599609375e+01 -1.077442288398742676e+00 5.674847960472106934e-01 -1.529872715473175049e-01 3.518667519092559814e-01
9.520000000000000000e+02 2.461062240600585938e+01 -1.669237518310546875e+01 6.149310246109962463e-02 2.887018024921417236e-01 1.050584763288497925e-01 -1.200030148029327393e-01
9.530000000000000000e+02 3.385098266601562500e+01 -1.482301235198974609e+01 -2.880358695983886719e+00 -2.148671746253967285e-01 -9.285677671432495117e-01 5.856291651725769043e-01
9.540000000000000000e+02 3.754977798461914062e+01 -1.343318367004394531e+01 -2.335311889648437500e+00 1.413459539413452148e+00 -2.765557169914245605e-01 -1.906628906726837158e-02
9.550000000000000000e+02 3.806221389770507812e+01 -1.078618335723876953e+01 6.003227550536394119e-03 1.671957135200500488e+00 5.033881068229675293e-01 -4.559680521488189697e-01
9.560000000000000000e+02 3.763509750366210938e+01 -1.512774085998535156e+01 -2.253080129623413086e+00 1.160711169242858887e+00 -3.277106881141662598e-01 -2.182486057281494141e-01
9.570000000000000000e+02 3.782331848144531250e+01 -1.694710159301757812e+01 -1.068454757332801819e-01 7.695432901382446289e-01 1.988093405961990356e-01 -3.084750771522521973e-01
9.580000000000000000e+02 3.905568695068359375e+01 -1.749869918823242188e+01 7.000261545181274414e-02 7.854026556015014648e-01 2.566215693950653076e-01 -4.982180893421173096e-01
9.590000000000000000e+02 3.983694076538085938e+01 -2.246917343139648438e+01 -3.141097491607069969e-03 3.442524671554565430e+00 1.031815052032470703e+00 6.287435889244079590e-01
9.600000000000000000e+02 4.301706695556640625e+01 -2.203091812133789062e+01 1.739559412002563477e+00 3.510582923889160156e+00 1.575042724609375000e+00 2.215565919876098633e+00
9.610000000000000000e+02 4.118373870849609375e+01 -2.776473999023437500e+01 -8.310832977294921875e-01 3.237468719482421875e+00 7.219156622886657715e-01 1.334690809249877930e+00
9.620000000000000000e+02 4.071673583984375000e+01 -2.533099174499511719e+01 1.548309087753295898e+00 4.509425163269042969e+00 1.817320346832275391e+00 2.549618482589721680e+00
9.630000000000000000e+02 3.987520599365234375e+01 -2.774606513977050781e+01 -7.010986208915710449e-01 5.713882446289062500e+00 1.503835201263427734e+00 1.621974229812622070e+00
9.640000000000000000e+02 3.731256866455078125e+01 -2.836824798583984375e+01 -4.267078340053558350e-01 2.253359556198120117e+00 5.479955077171325684e-01 1.054039478302001953e+00
9.650000000000000000e+02 3.365073394775390625e+01 -2.914472579956054688e+01 -6.920920610427856445e-01 -7.281843572854995728e-02 -2.294731438159942627e-01 -1.349980384111404419e-01
9.660000000000000000e+02 3.291608428955078125e+01 -2.810151290893554688e+01 -9.970223307609558105e-01 1.876283250749111176e-02 -2.934778630733489990e-01 7.517410069704055786e-02
9.670000000000000000e+02 3.108279037475585938e+01 -2.624426841735839844e+01 5.161992739886045456e-04 5.763106346130371094e-01 1.730480492115020752e-01 -2.849912047386169434e-01
9.680000000000000000e+02 1.449927330017089844e+01 -2.146893310546875000e+01 -2.738153338432312012e-01 -2.686598002910614014e-01 -1.627425402402877808e-01 -2.240583747625350952e-01
9.690000000000000000e+02 1.996908760070800781e+01 -2.531719779968261719e+01 2.574482858180999756e-01 -5.119138211011886597e-02 6.187707185745239258e-02 1.811748743057250977e-01
9.700000000000000000e+02 1.714454078674316406e+01 -4.034334945678710938e+01 1.890529096126556396e-01 3.861960768699645996e-02 6.830175220966339111e-02 1.466765999794006348e-02
9.710000000000000000e+02 1.884620094299316406e+01 -4.085691452026367188e+01 2.857196331024169922e-02 -3.306589275598526001e-02 -1.348178950138390064e-03 -6.302799284458160400e-02
9.720000000000000000e+02 1.525449752807617188e+01 -4.087214660644531250e+01 1.830327883362770081e-02 1.115029379725456238e-01 3.894186392426490784e-02 -1.684380508959293365e-02
9.730000000000000000e+02 1.518117809295654297e+01 -3.882637023925781250e+01 1.061475425958633423e-01 1.204232275485992432e-01 6.797122955322265625e-02 -7.588773965835571289e-02
9.740000000000000000e+02 1.560739612579345703e+01 2.314374923706054688e+01 8.744297623634338379e-01 2.099567502737045288e-01 3.253159523010253906e-01 3.966699540615081787e-01
9.750000000000000000e+02 1.165538883209228516e+01 2.259141540527343750e+01 -1.823626086115837097e-02 1.632818579673767090e-02 -5.724228103645145893e-04 9.499395638704299927e-02
9.760000000000000000e+02 8.845305442810058594e+00 2.229970359802246094e+01 -8.833713829517364502e-02 -1.131409853696823120e-01 -6.044343486428260803e-02 6.030061841011047363e-02
9.770000000000000000e+02 7.367506504058837891e+00 2.443099403381347656e+01 -1.357228010892868042e-01 -2.550730705261230469e-01 -1.172387599945068359e-01 1.818200647830963135e-01
9.780000000000000000e+02 1.886734127998352051e+00 2.570698165893554688e+01 -2.310136705636978149e-02 -8.859229683876037598e-01 -2.727073132991790771e-01 1.350283995270729065e-02
9.790000000000000000e+02 6.500277709960937500e+01 2.011870956420898438e+01 -4.584339141845703125e+00 2.821610271930694580e-01 -1.290653467178344727e+00 6.501829028129577637e-01
9.800000000000000000e+02 6.372443008422851562e+01 2.463821029663085938e+01 3.751494288444519043e-01 7.042831420898437500e+00 2.225394248962402344e+00 1.715480685234069824e+00
9.810000000000000000e+02 6.371031188964843750e+01 1.987815666198730469e+01 2.555548846721649170e-01 3.345072031021118164e+00 1.080188035964965820e+00 3.002349138259887695e+00
9.820000000000000000e+02 6.107903289794921875e+01 1.995547866821289062e+01 7.684218138456344604e-02 7.262478828430175781e+00 2.201796293258666992e+00 2.765977859497070312e+00
9.830000000000000000e+02 5.438251876831054688e+01 1.608873176574707031e+01 7.187539339065551758e-01 5.484636306762695312e+00 1.861016988754272461e+00 -1.204048156738281250e+00
9.840000000000000000e+02 6.106148147583007812e+01 1.612965965270996094e+01 1.859841346740722656e+00 1.344895458221435547e+01 4.592638969421386719e+00 3.622763872146606445e+00
9.850000000000000000e+02 6.062229156494140625e+01 1.341090869903564453e+01 5.041468143463134766e-01 1.086327743530273438e+01 3.410227298736572266e+00 5.183886885643005371e-01
9.860000000000000000e+02 5.624757766723632812e+01 1.271760845184326172e+01 1.461145281791687012e+00 8.983386993408203125e+00 3.133359670639038086e+00 9.683162569999694824e-01
9.870000000000000000e+02 6.321493911743164062e+01 8.280632019042968750e+00 -1.408760398626327515e-01 1.054085373878479004e+00 2.739627957344055176e-01 -3.812123537063598633e-01
9.880000000000000000e+02 6.148662948608398438e+01 1.014904689788818359e+01 1.104024291038513184e+00 5.501749038696289062e+00 1.981732010841369629e+00 -1.730826020240783691e+00
9.890000000000000000e+02 6.628032684326171875e+01 2.022060203552246094e+01 -6.848495006561279297e+00 -4.995630979537963867e-01 -2.204417467117309570e+00 1.069227576255798340e+00
9.900000000000000000e+02 6.819453430175781250e+01 1.948832702636718750e+01 -3.972180366516113281e+00 -3.428510129451751709e-01 -1.294509410858154297e+00 1.118645310401916504e+00
9.910000000000000000e+02 6.916104125976562500e+01 1.855294227600097656e+01 -1.201326847076416016e+00 8.371778130531311035e-01 -1.092446967959403992e-01 3.619027137756347656e-01
9.920000000000000000e+02 6.923151397705078125e+01 2.034969139099121094e+01 -2.668772697448730469e+00 2.822087287902832031e+00 4.599435254931449890e-02 -1.098101139068603516e+00
9.930000000000000000e+02 6.842287445068359375e+01 2.130720329284667969e+01 -1.794901967048645020e+00 1.630133986473083496e+00 -4.943040013313293457e-02 -1.146407246589660645e+00
9.940000000000000000e+02 6.407046508789062500e+01 7.378788948059082031e+00 -1.710927367210388184e+00 3.214086294174194336e-01 -4.168556332588195801e-01 1.715190708637237549e-01
9.950000000000000000e+02 3.177197265625000000e+01 2.324014663696289062e+01 2.709858715534210205e-01 4.118849277496337891e+00 1.316950559616088867e+00 -4.362134635448455811e-01
9.960000000000000000e+02 3.174011611938476562e+01 2.060943412780761719e+01 2.337487414479255676e-02 3.229149580001831055e+00 9.757573008537292480e-01 -1.490412354469299316e-01
9.970000000000000000e+02 3.801731109619140625e+01 2.171486473083496094e+01 -6.098759174346923828e-01 1.848132729530334473e+00 3.714770376682281494e-01 -1.422328829765319824e+00
9.980000000000000000e+02 3.662330627441406250e+01 2.407136154174804688e+01 1.492429375648498535e+00 3.150855302810668945e+00 1.392985463142395020e+00 -2.092097759246826172e+00
9.990000000000000000e+02 5.320426177978515625e+01 3.242903518676757812e+01 1.121579766273498535e+00 7.194005012512207031e+00 2.494675397872924805e+00 1.036946415901184082e+00
1.000000000000000000e+03 7.240769958496093750e+01 -1.297179102897644043e+00 -1.527842402458190918e+00 9.503990411758422852e-01 -1.732330024242401123e-01 -1.953277140855789185e-01
1.001000000000000000e+03 6.785872650146484375e+01 6.865354061126708984e+00 -8.322188258171081543e-01 4.563643932342529297e-01 -1.127563267946243286e-01 7.498260736465454102e-01
1.002000000000000000e+03 7.436782073974609375e+01 -3.459346294403076172e+00 6.011258363723754883e-01 7.274613857269287109e+00 2.362721920013427734e+00 -2.263429164886474609e+00
1.003000000000000000e+03 7.686174774169921875e+01 1.281378149986267090e+00 -5.014033317565917969e-01 7.519167423248291016e+00 2.105329275131225586e+00 -5.890441536903381348e-01
1.004000000000000000e+03 7.692725372314453125e+01 -4.230092525482177734e+00 1.845781356096267700e-01 9.375968933105468750e+00 2.868164062500000000e+00 3.927481770515441895e-01
1.005000000000000000e+03 6.826394653320312500e+01 -1.600485801696777344e+01 -2.228317975997924805e+00 -3.507084771990776062e-02 -6.790166497230529785e-01 -8.153780102729797363e-01
1.006000000000000000e+03 6.545506286621093750e+01 -1.091059970855712891e+01 -3.930389136075973511e-02 6.180408477783203125e+00 1.842331290245056152e+00 -1.114366292953491211e+00
1.007000000000000000e+03 6.453359222412109375e+01 -1.737640380859375000e+01 -6.688564419746398926e-01 5.924583435058593750e+00 1.576718091964721680e+00 9.111297130584716797e-02
1.008000000000000000e+03 5.998833084106445312e+01 -9.433094024658203125e+00 1.425911784172058105e+00 5.005414485931396484e+00 1.929397940635681152e+00 2.581869125366210938e+00
1.009000000000000000e+03 6.123757171630859375e+01 -7.627925872802734375e+00 1.842043757438659668e+00 1.037260627746582031e+01 3.664395093917846680e+00 2.106118917465209961e+00
1.010000000000000000e+03 6.767680358886718750e+01 -1.421665549278259277e+00 1.868067383766174316e+00 2.870769739151000977e+00 1.421651124954223633e+00 2.169124841690063477e+00
1.011000000000000000e+03 6.672377777099609375e+01 -2.469345331192016602e+00 2.347139120101928711e+00 4.681174278259277344e+00 2.108494043350219727e+00 3.034857511520385742e+00
1.012000000000000000e+03 6.853845214843750000e+01 -1.760202199220657349e-01 6.541467905044555664e-01 1.966218471527099609e+00 7.861095666885375977e-01 2.080405235290527344e+00
1.013000000000000000e+03 6.982794952392578125e+01 -6.896310448646545410e-01 -2.644009590148925781e-01 6.083823442459106445e-01 1.031944304704666138e-01 1.079423427581787109e+00
1.014000000000000000e+03 4.594928359985351562e+01 -2.731773185729980469e+01 -1.702359318733215332e+00 1.830277562141418457e+00 3.837546333670616150e-02 -1.111508488655090332e+00
1.015000000000000000e+03 4.776266860961914062e+01 -2.928439140319824219e+01 1.891407012939453125e+00 2.942160606384277344e+00 1.450070261955261230e+00 -2.530535936355590820e+00
1.016000000000000000e+03 4.871646118164062500e+01 -3.033794975280761719e+01 2.614610195159912109e+00 5.412720680236816406e+00 2.408199071884155273e+00 -3.006108045578002930e+00
1.017000000000000000e+03 4.932686996459960938e+01 -3.157770347595214844e+01 1.512088537216186523e+00 7.650900840759277344e+00 2.748896837234497070e+00 -2.109934329986572266e+00
1.018000000000000000e+03 4.448445510864257812e+01 -3.859526824951171875e+01 -1.672117233276367188e+00 2.139720022678375244e-01 -4.374435842037200928e-01 1.409201472997665405e-01
1.019000000000000000e+03 4.249671173095703125e+01 -3.828100204467773438e+01 -1.823167204856872559e+00 1.446193009614944458e-01 -5.035643577575683594e-01 -7.631987333297729492e-02
1.020000000000000000e+03 4.122387695312500000e+01 -3.738333511352539062e+01 -7.564659118652343750e-01 8.180416822433471680e-01 1.847272925078868866e-02 9.350646287202835083e-02
1.021000000000000000e+03 3.959592437744140625e+01 -3.100109100341796875e+01 1.371045827865600586e+00 7.745495319366455078e+00 2.734962224960327148e+00 3.024901390075683594e+00
1.022000000000000000e+03 3.780294418334960938e+01 -2.732219123840332031e+01 3.529492020606994629e-01 2.426553249359130859e+00 8.338507413864135742e-01 1.529488205909729004e+00
1.023000000000000000e+03 4.022796630859375000e+01 -2.989352226257324219e+01 1.764802694320678711e+00 6.011227607727050781e+00 2.332808971405029297e+00 2.869805335998535156e+00
1.024000000000000000e+03 5.668233871459960938e+01 5.981433391571044922e-01 -1.380737543106079102e+00 4.201866984367370605e-01 -2.881652414798736572e-01 2.659964747726917267e-02
1.025000000000000000e+03 5.868845367431640625e+01 4.511584527790546417e-03 -4.879753291606903076e-02 2.527874231338500977e+00 7.437229752540588379e-01 -1.594383239746093750e+00
1.026000000000000000e+03 5.957509231567382812e+01 -1.000640749931335449e+00 1.841094017028808594e+00 4.332168102264404297e+00 1.851978659629821777e+00 -2.802456855773925781e+00
1.027000000000000000e+03 4.611613464355468750e+01 -1.102326035499572754e+00 8.331648826599121094e+00 7.622788906097412109e+00 4.786331176757812500e+00 -3.461155891418457031e+00
1.028000000000000000e+03 5.029657363891601562e+01 -2.832199478149414062e+01 3.453814685344696045e-01 3.257585525512695312e+00 1.080890059471130371e+00 -9.387614130973815918e-01
1.029000000000000000e+03 5.095829772949218750e+01 -2.689266777038574219e+01 -7.741952538490295410e-01 1.644440531730651855e+00 2.610735595226287842e-01 -1.090594172477722168e+00
1.030000000000000000e+03 9.755596160888671875e+00 -1.808928966522216797e+00 -1.612498760223388672e-01 -1.461713016033172607e-01 -9.222635626792907715e-02 -1.553996801376342773e-01
1.031000000000000000e+03 2.732804489135742188e+01 -2.988099479675292969e+01 -1.405744254589080811e-01 1.352142333984375000e+00 3.634703755378723145e-01 -1.307092458009719849e-01
1.032000000000000000e+03 2.506222724914550781e+01 -3.211362075805664062e+01 1.427023112773895264e-01 1.565914034843444824e+00 5.125849246978759766e-01 -1.960022449493408203e-01
1.033000000000000000e+03 7.834246826171875000e+01 -2.629918479919433594e+01 -1.634064465761184692e-01 7.576171398162841797e+00 2.223829507827758789e+00 -4.710355699062347412e-01
1.034000000000000000e+03 7.944039154052734375e+01 -2.369518852233886719e+01 6.859096139669418335e-02 6.358626842498779297e+00 1.928165316581726074e+00 -1.609104126691818237e-01
1.035000000000000000e+03 6.916680145263671875e+01 -2.803503608703613281e+01 1.172783255577087402e+00 1.873249292373657227e+00 9.138097763061523438e-01 -1.010979533195495605e+00
1.036000000000000000e+03 4.582140350341796875e+01 -1.752737426757812500e+01 -5.154739618301391602e-01 7.007863998413085938e+00 1.947717070579528809e+00 1.277444601058959961e+00
1.037000000000000000e+03 3.894802856445312500e+01 -1.162396335601806641e+01 -5.945523381233215332e-01 3.797008991241455078e-01 -6.445544213056564331e-02 2.632055431604385376e-02
1.038000000000000000e+03 5.740231323242187500e+01 -1.871972656250000000e+01 1.737843036651611328e+00 7.208477497100830078e+00 2.683896064758300781e+00 -2.083022445440292358e-01
1.039000000000000000e+03 3.710218048095703125e+01 -9.053437232971191406e+00 4.659568369388580322e-01 4.328708171844482422e+00 1.438399434089660645e+00 5.316207557916641235e-02
1.040000000000000000e+03 3.044357872009277344e+01 -1.165686702728271484e+01 -1.183216720819473267e-01 7.545750737190246582e-01 1.908760219812393188e-01 8.985463976860046387e-01
1.041000000000000000e+03 6.898885345458984375e+01 7.353474617004394531e+00 1.025971055030822754e+00 1.297177195549011230e+00 6.969444751739501953e-01 1.383680105209350586e+00
1.042000000000000000e+03 4.963696289062500000e+01 1.883597755432128906e+01 -4.102342128753662109e+00 -8.257607370615005493e-02 -1.255475521087646484e+00 3.719889521598815918e-01
1.043000000000000000e+03 3.376663970947265625e+01 1.737443351745605469e+01 1.975998282432556152e-01 1.999511599540710449e+00 6.591334342956542969e-01 -9.854865074157714844e-01
1.044000000000000000e+03 2.147409629821777344e+01 8.877258300781250000e+00 4.504558145999908447e-01 1.024151518940925598e-01 1.658612936735153198e-01 1.820352226495742798e-01
1.045000000000000000e+03 3.194546890258789062e+01 1.810499763488769531e+01 9.008513391017913818e-02 2.241364955902099609e+00 6.994349956512451172e-01 -1.246277838945388794e-01
1.046000000000000000e+03 6.557333374023437500e+01 3.069911003112792969e+01 5.998018383979797363e-01 6.218986988067626953e+00 2.045636653900146484e+00 8.730227947235107422e-01
1.047000000000000000e+03 4.633707809448242188e+01 3.043648529052734375e+01 1.018442392349243164e+00 5.092099666595458984e+00 1.833162546157836914e+00 -1.000874757766723633e+00
1.048000000000000000e+03 8.467021942138671875e+00 1.928616333007812500e+01 3.207021653652191162e-01 -1.081439778208732605e-01 6.376746296882629395e-02 1.221272572875022888e-01
1.049000000000000000e+03 2.243996810913085938e+01 2.303459739685058594e+01 1.165158450603485107e-01 9.262594580650329590e-01 3.128325939178466797e-01 1.276565939188003540e-01
1.050000000000000000e+03 1.901806235313415527e+00 1.635990142822265625e+01 4.048203676939010620e-02 -6.899693608283996582e-01 -1.948461979627609253e-01 1.439472138881683350e-01
1.051000000000000000e+03 9.079826354980468750e+00 1.466137695312500000e+01 3.256868720054626465e-01 2.343495786190032959e-01 1.680109351873397827e-01 3.963616192340850830e-01
1.052000000000000000e+03 2.050679969787597656e+01 1.994501495361328125e+01 2.778660058975219727e-01 5.121037960052490234e-01 2.369909286499023438e-01 -1.638343334197998047e-01
1.053000000000000000e+03 1.629635334014892578e+00 9.245610237121582031e+00 -3.140199929475784302e-02 -8.912665396928787231e-02 -3.615859523415565491e-02 1.313142329454421997e-01
1.054000000000000000e+03 4.149432754516601562e+01 4.763325214385986328e+00 -6.525629162788391113e-01 4.133485317230224609e+00 1.044276833534240723e+00 -2.167856693267822266e+00
1.055000000000000000e+03 2.633858871459960938e+01 1.113362884521484375e+01 1.995366215705871582e-01 3.466872572898864746e-01 1.638671755790710449e-01 -6.154353544116020203e-02
1.056000000000000000e+03 4.238325119018554688e+01 9.366582870483398438e+00 1.130890965461730957e+00 6.125029563903808594e+00 2.176776170730590820e+00 -8.129495978355407715e-01
1.057000000000000000e+03 3.944239425659179688e+01 1.058333396911621094e+01 1.293168067932128906e+00 3.447409629821777344e+00 1.422173261642456055e+00 -1.051244854927062988e+00
1.058000000000000000e+03 5.255269622802734375e+01 -2.994096994400024414e+00 1.412115573883056641e+00 1.004521369934082031e+01 3.437198877334594727e+00 1.569479346275329590e+00
1.059000000000000000e+03 9.020511627197265625e+00 -1.823159813880920410e+00 -1.262792199850082397e-01 4.623841866850852966e-02 -2.401224151253700256e-02 -7.015221565961837769e-02
1.060000000000000000e+03 7.573677539825439453e+00 -1.832926273345947266e+00 -9.053933620452880859e-02 4.678918048739433289e-02 -1.312504615634679794e-02 -4.650694131851196289e-02
1.061000000000000000e+03 8.296954154968261719e+00 -1.828755497932434082e+00 -1.321554183959960938e-01 -1.043816804885864258e-01 -7.096113264560699463e-02 -1.260116845369338989e-01
1.062000000000000000e+03 6.849174976348876953e+00 -1.840532541275024414e+00 -8.569270372390747070e-02 -7.804266363382339478e-02 -4.912060871720314026e-02 -8.778210729360580444e-02
1.063000000000000000e+03 2.518006086349487305e+00 -1.911914587020874023e+00 -8.776648901402950287e-03 -2.789834141731262207e-02 -1.100249681621789932e-02 -1.807749085128307343e-02
1.064000000000000000e+03 3.079474687576293945e+00 -2.945506334304809570e+00 -1.714768260717391968e-02 -3.950673341751098633e-02 -1.699632592499256134e-02 -3.595727682113647461e-02
1.065000000000000000e+03 3.939465522766113281e+00 -1.894235730171203613e+00 -2.011838555335998535e-02 -4.411702230572700500e-02 -1.927062124013900757e-02 -3.775256872177124023e-02
1.066000000000000000e+03 1.875250577926635742e+00 -1.952074766159057617e+00 -1.037958823144435883e-02 7.432498503476381302e-03 -8.841269300319254398e-04 -1.326417666859924793e-03
1.067000000000000000e+03 1.172550678253173828e+00 -2.106106519699096680e+00 -4.262085072696208954e-03 -9.840740822255611420e-03 -4.230847582221031189e-03 -5.010018590837717056e-03
1.068000000000000000e+03 2.068061828613281250e+00 -4.164522552490234375e+01 -3.722216561436653137e-02 -4.434885382652282715e-01 -1.442132145166397095e-01 1.064322981983423233e-02
1.069000000000000000e+03 1.003564715385437012e+00 -3.869524002075195312e+01 -5.539963487535715103e-03 -4.875117242336273193e-01 -1.479154974222183228e-01 1.518116053193807602e-02
1.070000000000000000e+03 6.396546959877014160e-01 -3.468523025512695312e+01 4.072702955454587936e-03 -5.462714433670043945e-01 -1.626596301794052124e-01 6.215224508196115494e-03
1.071000000000000000e+03 6.637972593307495117e-01 -3.330401611328125000e+01 4.961999948136508465e-04 -5.540209412574768066e-01 -1.660574227571487427e-01 1.421337481588125229e-03
1.072000000000000000e+03 6.502761244773864746e-01 -2.906798934936523438e+01 -4.104764200747013092e-03 -5.729280710220336914e-01 -1.731098443269729614e-01 4.909751936793327332e-03
1.073000000000000000e+03 6.452055573463439941e-01 -2.763727378845214844e+01 4.767540842294692993e-03 -5.824725031852722168e-01 -1.733114868402481079e-01 4.550851881504058838e-03
1.074000000000000000e+03 1.904024481773376465e+00 -2.762243461608886719e+01 1.299907104112207890e-03 -4.599561095237731934e-01 -1.375968605279922485e-01 1.126543339341878891e-02
1.075000000000000000e+03 2.179186820983886719e+00 -2.301972961425781250e+01 4.707458987832069397e-02 -4.064093232154846191e-01 -1.078004166483879089e-01 -3.382541239261627197e-02
1.076000000000000000e+03 7.420334815979003906e-01 -2.179909515380859375e+01 1.448968425393104553e-02 -5.524002313613891602e-01 -1.613731682300567627e-01 -3.381598740816116333e-02
1.077000000000000000e+03 7.197936773300170898e-01 -2.035768890380859375e+01 7.686364464461803436e-03 -4.706934988498687744e-01 -1.389021426439285278e-01 -5.760680884122848511e-02
1.078000000000000000e+03 2.137642383575439453e+00 -1.701465606689453125e+01 -3.352341055870056152e-02 -2.221634387969970703e-01 -7.670605182647705078e-02 -1.105162128806114197e-01
1.079000000000000000e+03 6.209846138954162598e-01 -1.474140644073486328e+01 -6.845780182629823685e-03 -8.749376237392425537e-02 -2.830186113715171814e-02 -1.624291576445102692e-02
1.080000000000000000e+03 5.822602510452270508e-01 -1.335246944427490234e+01 -7.649828330613672733e-04 -5.714808404445648193e-02 -1.737392134964466095e-02 -5.320047494024038315e-03
1.081000000000000000e+03 1.745933055877685547e+00 -1.299699020385742188e+01 -1.833622716367244720e-02 -1.182416155934333801e-01 -4.097335040569305420e-02 -1.350915897637605667e-02
1.082000000000000000e+03 5.153695940971374512e-01 -9.173071861267089844e+00 -7.499584462493658066e-03 -5.005955323576927185e-02 -1.726774126291275024e-02 -2.733883215114474297e-03
1.083000000000000000e+03 5.174494981765747070e-01 -7.778467178344726562e+00 8.459883742034435272e-03 -4.223694279789924622e-02 -1.013311743736267090e-02 -1.015463843941688538e-03
1.084000000000000000e+03 1.550923347473144531e+00 -7.633041858673095703e+00 -5.282614380121231079e-03 -5.914358422160148621e-02 -1.932785846292972565e-02 -1.575764641165733337e-02
1.085000000000000000e+03 5.329620838165283203e-01 -6.371669769287109375e+00 -4.516338463872671127e-03 -3.277146071195602417e-02 -1.118633896112442017e-02 -8.440657518804073334e-03
1.086000000000000000e+03 7.160691070556640625e+01 -4.124555969238281250e+01 -8.886536359786987305e-01 6.485605239868164062e+00 1.679085493087768555e+00 -2.441750764846801758e-01
1.087000000000000000e+03 5.142726516723632812e+01 -3.904432678222656250e+01 -2.051234483718872070e+00 5.407463073730468750e+00 1.006868600845336914e+00 6.218374967575073242e-01
1.088000000000000000e+03 3.248815917968750000e+01 -4.143641662597656250e+01 -5.116456747055053711e-01 2.076350212097167969e+00 4.694113135337829590e-01 1.496427059173583984e-01
1.089000000000000000e+03 1.281690883636474609e+01 -3.764542388916015625e+01 2.547097206115722656e-02 2.585434913635253906e-01 8.520433306694030762e-02 -3.688530623912811279e-02
1.090000000000000000e+03 7.604947662353515625e+01 4.063630294799804688e+01 -8.456487953662872314e-02 7.401747703552246094e+00 2.195154666900634766e+00 1.378242820501327515e-01
1.091000000000000000e+03 7.810128784179687500e+01 4.173832321166992188e+01 1.143293902277946472e-01 7.724184513092041016e+00 2.351554155349731445e+00 -3.213385120034217834e-02
1.092000000000000000e+03 7.898950195312500000e+01 3.889472579956054688e+01 -3.701835172250866890e-03 7.842351913452148438e+00 2.351594924926757812e+00 -2.330259978771209717e-02
1.093000000000000000e+03 7.918161773681640625e+01 3.490538024902343750e+01 -2.755433693528175354e-02 7.727606773376464844e+00 2.310015678405761719e+00 6.691489368677139282e-02
1.094000000000000000e+03 7.755754089355468750e+01 3.505518722534179688e+01 3.957132250070571899e-02 7.292761802673339844e+00 2.199699878692626953e+00 1.588598787784576416e-01
1.095000000000000000e+03 7.920114135742187500e+01 3.349211502075195312e+01 4.201002046465873718e-02 7.637834072113037109e+00 2.303953170776367188e+00 4.943900927901268005e-02
1.096000000000000000e+03 7.925982666015625000e+01 3.067749595642089844e+01 2.782717905938625336e-02 7.605415344238281250e+00 2.289972782135009766e+00 -1.203844230622053146e-02
1.097000000000000000e+03 7.642437744140625000e+01 2.918793487548828125e+01 1.590241640806198120e-01 6.879907131195068359e+00 2.111679315567016602e+00 -1.523844152688980103e-01
1.098000000000000000e+03 7.937302398681640625e+01 2.648458290100097656e+01 -1.499181520193815231e-02 7.993871688842773438e+00 2.393663883209228516e+00 -7.982565462589263916e-02
1.099000000000000000e+03 7.701071166992187500e+01 2.505023002624511719e+01 -1.963826827704906464e-02 7.310072422027587891e+00 2.187130212783813477e+00 -3.485725820064544678e-01
1.100000000000000000e+03 7.940130615234375000e+01 2.509801483154296875e+01 1.631801947951316833e-02 8.203049659729003906e+00 2.465810298919677734e+00 -8.175913989543914795e-02
1.101000000000000000e+03 7.942449188232421875e+01 2.094871330261230469e+01 -5.527938529849052429e-02 8.366095542907714844e+00 2.493244647979736328e+00 9.502390027046203613e-02
1.102000000000000000e+03 7.940661621093750000e+01 1.956292152404785156e+01 -4.463827610015869141e-02 8.025607109069824219e+00 2.394290685653686523e+00 2.157995402812957764e-01
1.103000000000000000e+03 7.828280639648437500e+01 2.105201148986816406e+01 -1.527352631092071533e-01 7.945478439331054688e+00 2.337822914123535156e+00 2.144018113613128662e-01
1.104000000000000000e+03 7.938501739501953125e+01 1.818066978454589844e+01 -1.298603881150484085e-02 7.486065387725830078e+00 2.241923809051513672e+00 2.797627449035644531e-01
1.105000000000000000e+03 7.934922790527343750e+01 1.399571037292480469e+01 2.139460667967796326e-02 5.548045635223388672e+00 1.670832037925720215e+00 2.501181960105895996e-01
1.106000000000000000e+03 7.798455047607421875e+01 1.265574645996093750e+01 3.411865234375000000e-01 6.390222549438476562e+00 2.019422769546508789e+00 2.749474346637725830e-01
1.107000000000000000e+03 7.932541656494140625e+01 1.114828968048095703e+01 6.501714140176773071e-02 5.185103416442871094e+00 1.575036287307739258e+00 -7.272414863109588623e-02
1.108000000000000000e+03 7.935069274902343750e+01 6.949349403381347656e+00 3.161887405440211296e-03 6.703114032745361328e+00 2.011882781982421875e+00 -3.349588215351104736e-01
1.109000000000000000e+03 7.935130310058593750e+01 5.554149150848388672e+00 -1.695196377113461494e-03 7.420028686523437500e+00 2.225500106811523438e+00 -3.363525867462158203e-01
1.110000000000000000e+03 7.806253051757812500e+01 5.511605262756347656e+00 -4.725134745240211487e-02 7.310902118682861328e+00 2.179095268249511719e+00 -8.345904946327209473e-01
1.111000000000000000e+03 7.935565185546875000e+01 4.157075405120849609e+00 -3.074836358428001404e-02 8.108636856079101562e+00 2.423366546630859375e+00 -3.023224472999572754e-01
1.112000000000000000e+03 7.937662506103515625e+01 -1.566673815250396729e-02 -7.147263269871473312e-03 9.231590270996093750e+00 2.767332792282104492e+00 1.079712901264429092e-02
1.113000000000000000e+03 7.937702178955078125e+01 -1.406451225280761719e+00 -1.566810607910156250e-01 9.034331321716308594e+00 2.663295269012451172e+00 1.910959780216217041e-01
1.114000000000000000e+03 7.937718963623046875e+01 -2.797537088394165039e+00 4.107143729925155640e-02 8.480422019958496094e+00 2.556448221206665039e+00 3.258790969848632812e-01
1.115000000000000000e+03 7.937446594238281250e+01 -4.193372249603271484e+00 -3.530217334628105164e-02 7.784439563751220703e+00 2.324741125106811523e+00 3.179818689823150635e-01
1.116000000000000000e+03 7.809591674804687500e+01 -5.603479862213134766e+00 4.156448245048522949e-01 8.636205673217773438e+00 2.715555191040039062e+00 3.406768441200256348e-01
1.117000000000000000e+03 7.494944000244140625e+01 -9.454234123229980469e+00 1.203633427619934082e+00 1.174110889434814453e+01 3.883422851562500000e+00 1.999396562576293945e+00
1.118000000000000000e+03 7.930902862548828125e+01 -8.409703254699707031e+00 1.784794032573699951e-02 7.548267841339111328e+00 2.269834756851196289e+00 -3.873852789402008057e-01
1.119000000000000000e+03 7.935625457763671875e+01 -1.118869495391845703e+01 -2.133035957813262939e-01 9.464706420898437500e+00 2.775420904159545898e+00 -4.297323226928710938e-01
1.120000000000000000e+03 7.806076049804687500e+01 -1.125517463684082031e+01 -5.378338694572448730e-01 9.168858528137207031e+00 2.589307308197021484e+00 -7.099949121475219727e-01
1.121000000000000000e+03 7.942715454101562500e+01 -1.536440753936767578e+01 -7.582242041826248169e-02 9.690538406372070312e+00 2.884414911270141602e+00 2.824897170066833496e-01
1.122000000000000000e+03 7.942691040039062500e+01 -1.813010597229003906e+01 -5.209862440824508667e-02 8.060624122619628906e+00 2.402557849884033203e+00 3.711140155792236328e-01
1.123000000000000000e+03 7.447880554199218750e+01 -2.321854782104492188e+01 1.222481727600097656e+00 1.147354125976562500e+01 3.808807134628295898e+00 6.259776949882507324e-01
1.124000000000000000e+03 7.821369934082031250e+01 -2.236610031127929688e+01 3.565842807292938232e-01 7.318922042846679688e+00 2.302651882171630859e+00 3.182872757315635681e-02
1.125000000000000000e+03 7.945777130126953125e+01 -2.505673027038574219e+01 -9.349182248115539551e-03 6.864686965942382812e+00 2.056601285934448242e+00 -2.369263917207717896e-01
1.126000000000000000e+03 7.737785339355468750e+01 -2.673444747924804688e+01 -3.513787686824798584e-01 7.741504669189453125e+00 2.217037677764892578e+00 -3.687801063060760498e-01
1.127000000000000000e+03 7.940628051757812500e+01 -2.914244079589843750e+01 -2.053268998861312866e-02 7.845417976379394531e+00 2.347465515136718750e+00 -2.269367314875125885e-02
1.128000000000000000e+03 7.809484100341796875e+01 -3.159789657592773438e+01 3.829344734549522400e-02 7.472130775451660156e+00 2.253127336502075195e+00 4.686339572072029114e-02
1.129000000000000000e+03 7.937343597412109375e+01 -3.190666007995605469e+01 -9.402692317962646484e-03 7.779655456542968750e+00 2.331075906753540039e+00 2.599255181849002838e-02
1.130000000000000000e+03 7.926992034912109375e+01 -3.600790023803710938e+01 2.659900486469268799e-02 7.788299560546875000e+00 2.344469547271728516e+00 -3.573303297162055969e-02
1.131000000000000000e+03 7.913176727294921875e+01 -3.735308837890625000e+01 -8.613717742264270782e-03 7.851571559906005859e+00 2.352887392044067383e+00 -4.161836951971054077e-02
1.132000000000000000e+03 7.889781951904296875e+01 -3.868128204345703125e+01 2.868733182549476624e-02 7.931973457336425781e+00 2.388198137283325195e+00 -6.757506728172302246e-02
1.133000000000000000e+03 7.853800201416015625e+01 -4.005684661865234375e+01 -3.888467699289321899e-02 7.983194351196289062e+00 2.383292913436889648e+00 -4.233919456601142883e-02
1.134000000000000000e+03 2.488175582885742188e+01 3.788889694213867188e+01 -1.088795065879821777e-01 1.207506656646728516e+00 3.295881450176239014e-01 -2.414025515317916870e-01
1.135000000000000000e+03 4.654229354858398438e+01 3.802530670166015625e+01 -9.602116346359252930e-01 3.508479356765747070e+00 7.644803524017333984e-01 -6.390942335128784180e-01
1.136000000000000000e+03 6.843978881835937500e+01 3.765573120117187500e+01 -4.927868545055389404e-01 5.402549266815185547e+00 1.472928643226623535e+00 2.694014310836791992e-01
1.137000000000000000e+03 4.191875159740447998e-01 2.197109460830688477e+00 2.951012924313545227e-03 3.916335478425025940e-02 1.263430994004011154e-02 -1.381279900670051575e-02
1.138000000000000000e+03 2.215805292129516602e+00 3.347973585128784180e+00 -6.481932010501623154e-03 2.852226421236991882e-02 6.612099707126617432e-03 -4.933152347803115845e-02
1.139000000000000000e+03 4.721883296966552734e+00 2.839994907379150391e+00 -1.557562965899705887e-02 -7.963455282151699066e-03 -7.061725482344627380e-03 -5.321752279996871948e-02
1.140000000000000000e+03 3.059781312942504883e+00 5.479760169982910156e+00 -7.527277618646621704e-02 1.205694628879427910e-03 -2.222012542188167572e-02 8.560670539736747742e-03
1.141000000000000000e+03 5.444739460945129395e-01 9.262779235839843750e+00 -6.768706254661083221e-03 -2.574947662651538849e-02 -9.755454957485198975e-03 4.639572277665138245e-02
1.142000000000000000e+03 5.656939744949340820e-01 1.207953071594238281e+01 -3.093732986599206924e-03 -3.456013798713684082e-01 -1.046085283160209656e-01 7.497540861368179321e-02
1.143000000000000000e+03 6.305992603302001953e-01 1.634918212890625000e+01 7.009004242718219757e-03 -8.373735547065734863e-01 -2.491093575954437256e-01 5.261400341987609863e-02
1.144000000000000000e+03 6.129983067512512207e-01 1.777940177917480469e+01 1.133168488740921021e-02 -9.355396628379821777e-01 -2.772623896598815918e-01 3.209023922681808472e-02
1.145000000000000000e+03 5.320429205894470215e-01 2.198320960998535156e+01 9.787072194740176201e-04 -9.939337968826293945e-01 -2.978865206241607666e-01 -7.930744439363479614e-03
1.146000000000000000e+03 4.127452850341796875e+00 2.431803321838378906e+01 -5.224828049540519714e-02 -6.662576794624328613e-01 -2.155517935752868652e-01 2.666621655225753784e-02
1.147000000000000000e+03 4.619008541107177734e+00 2.527116584777832031e+01 -7.453141361474990845e-02 -6.528889536857604980e-01 -2.182261049747467041e-01 6.463715434074401855e-02
1.148000000000000000e+03 2.249573707580566406e+00 2.933114814758300781e+01 -7.601231336593627930e-03 -9.174302220344543457e-01 -2.775094509124755859e-01 1.031787991523742676e-01
1.149000000000000000e+03 7.353097796440124512e-01 3.058816337585449219e+01 1.991870254278182983e-02 -1.150484323501586914e+00 -3.391696810722351074e-01 4.858006536960601807e-02
1.150000000000000000e+03 3.902090072631835938e+00 3.055273818969726562e+01 1.574222184717655182e-02 -7.393843531608581543e-01 -2.170926481485366821e-01 1.154173836112022400e-01
1.151000000000000000e+03 6.818856596946716309e-01 3.632734680175781250e+01 -3.742688335478305817e-03 -1.278051853179931641e+00 -3.845383524894714355e-01 -1.290083280764520168e-03
1.152000000000000000e+03 1.558198690414428711e+00 3.807504272460937500e+01 6.964388303458690643e-03 -1.047686934471130371e+00 -3.122167587280273438e-01 -6.446924060583114624e-02
1.153000000000000000e+03 6.290345788002014160e-01 3.879158782958984375e+01 -2.434159070253372192e-02 -1.168688416481018066e+00 -3.579090237617492676e-01 -3.173128142952919006e-02
1.154000000000000000e+03 1.080398321151733398e+00 4.005760574340820312e+01 4.335691779851913452e-02 -1.059389472007751465e+00 -3.048097789287567139e-01 -7.437282800674438477e-02
1.155000000000000000e+03 9.389228820800781250e+00 1.935635209083557129e+00 2.593104913830757141e-02 -4.527603089809417725e-02 -5.803494714200496674e-03 2.974538132548332214e-02
1.156000000000000000e+03 8.598784446716308594e+00 1.889857769012451172e+00 4.646412655711174011e-02 -3.924572467803955078e-02 2.165520796552300453e-03 2.473655855283141136e-03
1.157000000000000000e+03 7.797671794891357422e+00 1.865695714950561523e+00 4.957872629165649414e-02 -2.232067286968231201e-02 8.177416399121284485e-03 -1.451601739972829819e-02
1.158000000000000000e+03 6.991298675537109375e+00 1.862079739570617676e+00 5.616083741188049316e-02 -1.821162737905979156e-02 1.138476282358169556e-02 -3.350399807095527649e-02
1.159000000000000000e+03 5.379493713378906250e+00 1.908689498901367188e+00 4.792722687125205994e-02 -7.729945238679647446e-03 1.205918472260236740e-02 -5.166882276535034180e-02
1.160000000000000000e+03 4.569145202636718750e+00 1.950602531433105469e+00 3.908639401197433472e-02 -2.147756982594728470e-03 1.108159124851226807e-02 -5.549004673957824707e-02
1.161000000000000000e+03 3.749892711639404297e+00 2.000830173492431641e+00 3.242817893624305725e-02 -4.118375654798001051e-04 9.604902938008308411e-03 -5.626298487186431885e-02
1.162000000000000000e+03 2.087900876998901367e+00 2.118273019790649414e+00 1.437314134091138840e-02 1.882060617208480835e-02 9.958123788237571716e-03 -4.756105318665504456e-02
1.163000000000000000e+03 1.255034923553466797e+00 2.167284727096557617e+00 7.983357645571231842e-03 3.143469244241714478e-02 1.182541530579328537e-02 -3.432033583521842957e-02
1.164000000000000000e+03 1.144451332092285156e+01 8.277241706848144531e+00 -7.657073140144348145e-01 -6.842404603958129883e-01 -4.349843263626098633e-01 7.464073300361633301e-01
1.165000000000000000e+03 1.225552368164062500e+01 2.487886190414428711e+00 -2.128912657499313354e-01 -6.762968003749847412e-02 -8.415628969669342041e-02 2.247201651334762573e-01
1.166000000000000000e+03 1.379376220703125000e+01 3.660812616348266602e+00 -5.100184679031372070e-01 -7.257132232189178467e-02 -1.747769415378570557e-01 5.475823283195495605e-01
1.167000000000000000e+03 1.451397895812988281e+01 2.910973072052001953e+00 -6.151689887046813965e-01 3.284614905714988708e-02 -1.746968477964401245e-01 4.776143431663513184e-01
1.168000000000000000e+03 1.529362297058105469e+01 3.072885751724243164e+00 -7.629057168960571289e-01 4.868597909808158875e-02 -2.142659276723861694e-01 5.093495845794677734e-01
1.169000000000000000e+03 1.927464675903320312e+01 4.803349494934082031e+00 -5.523276329040527344e-01 2.248189412057399750e-02 -1.589537262916564941e-01 2.969641387462615967e-01
1.170000000000000000e+03 1.861747360229492188e+01 3.332505941390991211e+00 -1.145172238349914551e+00 -8.312762528657913208e-02 -3.684899806976318359e-01 3.665476739406585693e-01
1.171000000000000000e+03 2.251689147949218750e+01 2.478589773178100586e+00 -1.337833046913146973e+00 -1.252926737070083618e-01 -4.389377236366271973e-01 3.156467080116271973e-01
1.172000000000000000e+03 2.115496253967285156e+01 3.592937469482421875e+00 -9.543470144271850586e-01 -1.358910053968429565e-01 -3.270714282989501953e-01 1.947605162858963013e-01
1.173000000000000000e+03 2.327897262573242188e+01 2.291368722915649414e+00 -1.328673958778381348e+00 -1.240378767251968384e-01 -4.358135461807250977e-01 3.484193682670593262e-01
1.174000000000000000e+03 2.403792762756347656e+01 2.094158887863159180e+00 -1.313525557518005371e+00 -1.318994611501693726e-01 -4.336274862289428711e-01 3.669145703315734863e-01
1.175000000000000000e+03 2.479261779785156250e+01 1.885913491249084473e+00 -1.307515144348144531e+00 -1.047824695706367493e-01 -4.236892759799957275e-01 3.740471601486206055e-01
1.176000000000000000e+03 2.858228302001953125e+01 9.953293204307556152e-01 -1.341120600700378418e+00 2.190929502248764038e-01 -3.366082906723022461e-01 1.690501272678375244e-01
1.177000000000000000e+03 2.990264129638671875e+01 4.873494625091552734e+00 5.273333787918090820e-01 1.143273472785949707e+00 5.011820197105407715e-01 -6.187778115272521973e-01
1.178000000000000000e+03 2.937315940856933594e+01 8.393439054489135742e-01 -1.390822768211364746e+00 3.345986604690551758e-01 -3.168672323226928711e-01 7.712382823228836060e-02
1.179000000000000000e+03 3.084210777282714844e+01 5.370463132858276367e-01 -1.490461111068725586e+00 4.656987786293029785e-01 -3.074286878108978271e-01 -4.950885102152824402e-02
1.180000000000000000e+03 3.120648002624511719e+01 1.199260354042053223e+00 -1.204574346542358398e+00 4.246974885463714600e-01 -2.339630722999572754e-01 -9.626191854476928711e-02
1.181000000000000000e+03 3.315935897827148438e+01 1.850945353507995605e+00 -1.117796659469604492e+00 1.631325781345367432e-01 -2.863992452621459961e-01 3.278923332691192627e-01
1.182000000000000000e+03 2.767174911499023438e+01 3.860455989837646484e+00 -2.318512201309204102e-01 3.544706106185913086e-01 3.678581118583679199e-02 6.429251283407211304e-02
1.183000000000000000e+03 3.112753868103027344e+01 1.179537391662597656e+01 1.692546159029006958e-01 3.053940236568450928e-01 1.423945873975753784e-01 1.893006861209869385e-01
1.184000000000000000e+03 3.882807159423828125e+01 3.426974058151245117e+00 -2.269578129053115845e-01 -7.961788214743137360e-03 -7.047588378190994263e-02 -2.145511955022811890e-01
1.185000000000000000e+03 4.106956481933593750e+01 2.553274631500244141e+00 -9.931163191795349121e-01 2.104765892028808594e+00 3.334948718547821045e-01 -1.868424773216247559e+00
1.186000000000000000e+03 4.243949508666992188e+01 1.758548259735107422e+00 7.301008701324462891e-01 3.121970415115356445e+00 1.155621409416198730e+00 -2.978601694107055664e+00
1.187000000000000000e+03 4.280813980102539062e+01 1.716409802436828613e+00 8.114936947822570801e-01 3.976842403411865234e+00 1.436500787734985352e+00 -3.341449499130249023e+00
1.188000000000000000e+03 4.603680038452148438e+01 -2.138854265213012695e-01 8.241033554077148438e+00 8.214704513549804688e+00 4.936721324920654297e+00 -4.553689658641815186e-01
1.189000000000000000e+03 4.595683288574218750e+01 -2.456621639430522919e-02 7.699098110198974609e+00 8.941572189331054688e+00 4.992200851440429688e+00 1.744040697813034058e-01
1.190000000000000000e+03 4.613278198242187500e+01 -6.441234350204467773e-01 8.936784744262695312e+00 7.626170158386230469e+00 4.968886375427246094e+00 -1.999691843986511230e+00
1.191000000000000000e+03 4.613443374633789062e+01 -8.680410385131835938e-01 8.754464149475097656e+00 7.610743045806884766e+00 4.909562110900878906e+00 -2.710216760635375977e+00
1.192000000000000000e+03 4.543525695800781250e+01 -2.073709487915039062e+00 3.961085081100463867e+00 9.006489753723144531e+00 3.890272378921508789e+00 -3.897218465805053711e+00
1.193000000000000000e+03 4.497984313964843750e+01 -2.301848888397216797e+00 2.585780858993530273e+00 8.926942825317382812e+00 3.453817129135131836e+00 -1.734069585800170898e+00
1.194000000000000000e+03 4.412667465209960938e+01 -2.285705089569091797e+00 2.842613697052001953e+00 6.683910369873046875e+00 2.857957363128662109e+00 2.449446439743041992e+00
1.195000000000000000e+03 4.313986587524414062e+01 -2.086124658584594727e+00 5.148875236511230469e+00 -5.074399709701538086e-02 1.529439330101013184e+00 4.312729835510253906e+00
1.196000000000000000e+03 4.323471069335937500e+01 -2.379622697830200195e+00 3.938350677490234375e+00 -1.483850479125976562e-01 1.136989712715148926e+00 4.033935546875000000e+00
1.197000000000000000e+03 4.250851821899414062e+01 -1.964311480522155762e+00 4.585605144500732422e+00 -1.001838445663452148e+00 1.075129985809326172e+00 3.638570308685302734e+00
1.198000000000000000e+03 4.181205368041992188e+01 -1.537204980850219727e+00 3.531948328018188477e+00 -1.180395364761352539e+00 7.054659128189086914e-01 3.163395166397094727e+00
1.199000000000000000e+03 4.221129226684570312e+01 -1.584067463874816895e+00 4.337343692779541016e+00 -1.182708621025085449e+00 9.463905096054077148e-01 2.855667591094970703e+00
1.200000000000000000e+03 4.159680938720703125e+01 -1.466289401054382324e+00 2.867571592330932617e+00 -7.984244823455810547e-01 6.207441091537475586e-01 3.016901016235351562e+00
1.201000000000000000e+03 4.116364288330078125e+01 -1.326652288436889648e+00 2.104262590408325195e+00 -4.968920350074768066e-01 4.822111427783966064e-01 2.517771959304809570e+00
1.202000000000000000e+03 4.168164825439453125e+01 -2.612130403518676758e+00 2.606781244277954102e+00 -9.344449043273925781e-01 5.017009377479553223e-01 4.353799819946289062e+00
1.203000000000000000e+03 3.806684494018554688e+01 -7.790789604187011719e-01 -1.149396538734436035e+00 1.123890519142150879e+00 -7.651797030121088028e-03 3.893773555755615234e-01
1.204000000000000000e+03 3.351804351806640625e+01 -2.471060037612915039e+00 -3.832212984561920166e-01 -3.849948048591613770e-01 -2.304648309946060181e-01 -9.555500745773315430e-01
1.205000000000000000e+03 3.617321014404296875e+01 -2.604476451873779297e+00 6.939185261726379395e-01 1.057585239410400391e+00 5.254511237144470215e-01 -1.489349007606506348e-01
1.206000000000000000e+03 3.504943847656250000e+01 -1.939730525016784668e+00 -5.278274416923522949e-01 8.103401213884353638e-02 -1.340380311012268066e-01 -7.851795554161071777e-01
1.207000000000000000e+03 3.706085968017578125e+01 -2.343404293060302734e+00 4.722783565521240234e-01 1.454362869262695312e+00 5.779923796653747559e-01 3.552032411098480225e-01
1.208000000000000000e+03 3.655720901489257812e+01 -1.410323143005371094e+00 -8.849402070045471191e-01 6.663025617599487305e-01 -6.559130549430847168e-02 -3.208081126213073730e-01
1.209000000000000000e+03 3.968612289428710938e+01 -4.063555717468261719e+00 6.660527706146240234e+00 2.922683954238891602e+00 2.874963521957397461e+00 3.921052455902099609e+00
1.210000000000000000e+03 3.187050437927246094e+01 -3.091267824172973633e+00 -2.465111762285232544e-01 -6.335600018501281738e-01 -2.640213370323181152e-01 -7.094513177871704102e-01
1.211000000000000000e+03 3.100164031982421875e+01 -3.369248867034912109e+00 6.743672490119934082e-02 -1.254923582077026367e+00 -3.562460541725158691e-01 -4.730387926101684570e-01
1.212000000000000000e+03 3.012868499755859375e+01 -3.413940191268920898e+00 4.173504114151000977e-01 -5.124413967132568359e-01 -2.852730080485343933e-02 -4.802302122116088867e-01
1.213000000000000000e+03 2.869698905944824219e+01 -3.056457281112670898e+00 4.652241170406341553e-01 1.026931166648864746e+00 4.476465880870819092e-01 -9.562841653823852539e-01
1.214000000000000000e+03 2.934181404113769531e+01 -3.193754673004150391e+00 4.123322069644927979e-01 -1.041884541511535645e+00 -1.888656914234161377e-01 2.999538555741310120e-02
1.215000000000000000e+03 3.166751289367675781e+01 -5.992104530334472656e+00 6.722689867019653320e-01 -6.384641528129577637e-01 1.014144904911518097e-02 1.033110171556472778e-01
1.216000000000000000e+03 2.597456932067871094e+01 -1.318781566619873047e+01 -1.126644134521484375e+00 5.588386580348014832e-02 -3.212280571460723877e-01 -2.871613502502441406e-01
1.217000000000000000e+03 1.748356819152832031e+01 -9.799076080322265625e+00 1.512786280363798141e-02 3.245556056499481201e-01 1.019050404429435730e-01 -9.180777519941329956e-02
1.218000000000000000e+03 1.744703865051269531e+01 -4.215360164642333984e+00 -7.768168114125728607e-03 4.196068048477172852e-01 1.235515847802162170e-01 1.228215023875236511e-01
1.219000000000000000e+03 1.592363357543945312e+01 -1.947085618972778320e+00 -1.170591339468955994e-01 2.403790801763534546e-01 3.699598461389541626e-02 -1.883976161479949951e-02
1.220000000000000000e+03 1.920722389221191406e+01 -1.625432968139648438e+00 -9.740372747182846069e-02 -2.020510435104370117e-01 -8.983643352985382080e-02 3.298149704933166504e-01
1.221000000000000000e+03 1.898588180541992188e+01 -4.523783624172210693e-01 -3.350592851638793945e-01 6.463875621557235718e-02 -8.112615346908569336e-02 -4.821095615625381470e-02
1.222000000000000000e+03 1.958831405639648438e+01 -6.218938827514648438e-01 -3.654223680496215820e-02 1.204531453549861908e-02 -7.349076680839061737e-03 2.102403789758682251e-01
1.223000000000000000e+03 1.814037322998046875e+01 -1.190306305885314941e+00 -3.603870570659637451e-01 2.836645953357219696e-02 -9.960617870092391968e-02 1.169301569461822510e-01
1.224000000000000000e+03 1.664402580261230469e+01 -6.225515007972717285e-01 -2.748272418975830078e-01 3.560837805271148682e-01 2.437696605920791626e-02 -1.998493522405624390e-01
1.225000000000000000e+03 1.356579685211181641e+01 -1.209629654884338379e+00 -2.863747477531433105e-01 1.203772127628326416e-01 -4.979926720261573792e-02 -9.457772970199584961e-02
1.226000000000000000e+03 1.576336765289306641e+01 -3.006494283676147461e+00 4.397043492645025253e-03 3.224181756377220154e-02 1.099165808409452438e-02 -1.159755289554595947e-01
1.227000000000000000e+03 1.429035568237304688e+01 -1.103400945663452148e+00 -2.401043921709060669e-01 -2.102065086364746094e-01 -1.350932717323303223e-01 -1.619713902473449707e-01
1.228000000000000000e+03 1.129259586334228516e+01 -1.597433686256408691e+00 -2.057256698608398438e-01 -1.818688660860061646e-01 -1.162783578038215637e-01 -1.788508892059326172e-01
1.229000000000000000e+03 1.051834869384765625e+01 -1.733443021774291992e+00 -1.741076856851577759e-01 5.303520709276199341e-02 -3.632174059748649597e-02 -8.356339484453201294e-02
1.230000000000000000e+03 5.509410858154296875e+01 -2.328798866271972656e+01 1.837798833847045898e+00 1.038320636749267578e+01 3.666301727294921875e+00 3.183876752853393555e+00
1.231000000000000000e+03 7.337390899658203125e+01 -1.807671737670898438e+01 7.312063574790954590e-01 6.760704040527343750e+00 2.247573137283325195e+00 -1.385511517524719238e+00
1.232000000000000000e+03 6.513924407958984375e+01 -2.311175537109375000e+01 3.451795578002929688e+00 1.214432048797607422e+01 4.678834915161132812e+00 -5.083759307861328125e+00
1.233000000000000000e+03 4.473607254028320312e+01 -2.344448566436767578e+00 2.263356208801269531e+00 9.073806762695312500e+00 3.401148796081542969e+00 -6.082057356834411621e-01
1.234000000000000000e+03 5.252134323120117188e+01 -7.580018997192382812e+00 2.536180257797241211e+00 8.652673721313476562e+00 3.356656074523925781e+00 -2.175992727279663086e+00
1.235000000000000000e+03 3.987353134155273438e+01 -1.250570583343505859e+01 -1.708135128021240234e+00 -1.481065154075622559e-01 -5.568724870681762695e-01 7.696258425712585449e-01
1.236000000000000000e+03 3.698893356323242188e+01 -1.033689689636230469e+01 4.160281643271446228e-02 2.574687242507934570e+00 7.848870158195495605e-01 1.072198301553726196e-01
1.237000000000000000e+03 3.964890670776367188e+01 -8.014695048332214355e-01 -4.389604628086090088e-01 7.273427844047546387e-01 8.651471138000488281e-02 1.151751875877380371e+00
1.238000000000000000e+03 6.433962249755859375e+01 -3.967164993286132812e+01 -1.899708867073059082e+00 1.781488656997680664e+00 -3.546607866883277893e-02 6.848785281181335449e-01
1.239000000000000000e+03 5.619424057006835938e+01 -3.183721160888671875e+01 1.468155622482299805e+00 1.173051834106445312e+01 3.959602355957031250e+00 2.224687337875366211e+00
1.240000000000000000e+03 1.654287338256835938e+01 -1.606017303466796875e+01 1.479392647743225098e-01 3.823983371257781982e-01 1.591012775897979736e-01 -2.626335322856903076e-01
1.241000000000000000e+03 1.390799808502197266e+01 -2.816270637512207031e+01 1.715416312217712402e-01 9.423010051250457764e-02 7.973151654005050659e-02 8.116795122623443604e-02
1.242000000000000000e+03 7.814451217651367188e+00 -1.385478687286376953e+01 -1.762783527374267578e-01 -1.808822602033615112e-01 -1.071481853723526001e-01 -1.957445889711380005e-01
1.243000000000000000e+03 5.485700988769531250e+01 1.435682010650634766e+01 1.398996114730834961e+00 7.391670703887939453e+00 2.637199878692626953e+00 -1.169373154640197754e+00
1.244000000000000000e+03 4.369055557250976562e+01 8.897398948669433594e+00 4.331493675708770752e-01 6.761129856109619141e+00 2.158283710479736328e+00 -9.672295451164245605e-01
1.245000000000000000e+03 1.756830978393554688e+01 1.785340690612792969e+01 -4.669550061225891113e-01 -2.071369290351867676e-01 -2.022275775671005249e-01 3.410886824131011963e-01
1.246000000000000000e+03 1.953614234924316406e+01 4.022576808929443359e+00 -8.362532258033752441e-01 -9.150575846433639526e-02 -2.783277034759521484e-01 2.606170177459716797e-01
1.247000000000000000e+03 9.419882774353027344e+00 9.676615715026855469e+00 -5.354255437850952148e-01 -6.731284260749816895e-01 -3.625662028789520264e-01 4.655962884426116943e-01
1.248000000000000000e+03 1.012071800231933594e+01 1.555519771575927734e+01 4.480886459350585938e-01 6.721588373184204102e-01 3.360742628574371338e-01 4.989254772663116455e-01
1.249000000000000000e+03 3.899655914306640625e+01 -1.868239402770996094e+01 3.393600583076477051e-01 7.781563401222229004e-01 3.352549076080322266e-01 -4.060638844966888428e-01
1.250000000000000000e+03 3.972283935546875000e+01 -2.115757560729980469e+01 2.487077862024307251e-01 1.997199535369873047e+00 6.737722158432006836e-01 2.934654951095581055e-01
1.251000000000000000e+03 3.488345336914062500e+01 -2.855964279174804688e+01 -1.623960614204406738e+00 -7.121516019105911255e-02 -5.085527300834655762e-01 -7.311881333589553833e-02
1.252000000000000000e+03 3.039829254150390625e+01 -1.735633659362792969e+01 1.004351258277893066e+00 2.393220663070678711e+00 1.019271612167358398e+00 1.368653059005737305e+00
1.253000000000000000e+03 2.424737548828125000e+01 -3.005592536926269531e+01 1.013780683279037476e-01 1.179481506347656250e+00 3.842578530311584473e-01 -2.485101372003555298e-01
1.254000000000000000e+03 2.501747512817382812e+01 -3.631359481811523438e+01 1.121915876865386963e-01 1.469031929969787598e+00 4.743670821189880371e-01 1.295759528875350952e-01
1.255000000000000000e+03 1.279738903045654297e+01 -3.374543380737304688e+01 2.798414416611194611e-02 3.722772598266601562e-01 1.200784146785736084e-01 7.983749732375144958e-03
1.256000000000000000e+03 1.304561614990234375e+01 -3.239648056030273438e+01 2.121069468557834625e-02 3.403956890106201172e-01 1.084819138050079346e-01 5.788796767592430115e-02
1.257000000000000000e+03 1.598228073120117188e+01 -2.753427124023437500e+01 3.430713415145874023e-01 1.576784551143646240e-01 1.502249389886856079e-01 2.039355486631393433e-01
1.258000000000000000e+03 2.003124809265136719e+01 -2.649741172790527344e+01 9.147325158119201660e-02 -3.444286063313484192e-02 1.710911653935909271e-02 1.201079636812210083e-01
1.259000000000000000e+03 1.390498256683349609e+01 3.463299560546875000e+01 -1.171666290611028671e-02 -1.419858355075120926e-02 -7.774573750793933868e-03 4.098154976963996887e-02
1.260000000000000000e+03 1.511312866210937500e+01 3.414450836181640625e+01 -8.004828542470932007e-02 -2.276125177741050720e-02 -3.084286116063594818e-02 5.198916047811508179e-02
1.261000000000000000e+03 1.987584877014160156e+01 3.180244636535644531e+01 2.518924884498119354e-02 3.365421593189239502e-01 1.085194200277328491e-01 -8.132358640432357788e-02
1.262000000000000000e+03 2.273070907592773438e+01 2.432610511779785156e+01 9.860373288393020630e-02 9.449295997619628906e-01 3.130599856376647949e-01 3.041715025901794434e-01
1.263000000000000000e+03 1.426901531219482422e+01 2.182875633239746094e+01 4.694195389747619629e-01 1.807809621095657349e-01 1.950601488351821899e-01 4.714625775814056396e-01
1.264000000000000000e+03 1.300746250152587891e+01 2.271249198913574219e+01 2.672086656093597412e-01 7.456669211387634277e-02 1.025326028466224670e-01 1.792634129524230957e-01
1.265000000000000000e+03 6.564923763275146484e+00 2.551267814636230469e+01 -1.698210835456848145e-01 -4.931266605854034424e-01 -1.988843232393264771e-01 2.325747311115264893e-01
1.266000000000000000e+03 7.111209869384765625e+01 1.646131706237792969e+01 1.011952996253967285e+00 6.771648883819580078e+00 2.335080623626708984e+00 -2.085104227066040039e+00
1.267000000000000000e+03 7.277896118164062500e+01 1.146775817871093750e+01 1.652781605720520020e+00 1.261282634735107422e+01 4.279682636260986328e+00 1.118877887725830078e+00
1.268000000000000000e+03 6.585881042480468750e+01 6.474652767181396484e+00 -2.375774860382080078e+00 -9.011821448802947998e-02 -7.397679686546325684e-01 4.951919317245483398e-01
1.269000000000000000e+03 6.075199890136718750e+01 1.477838039398193359e+01 7.194728255271911621e-01 1.258583641052246094e+01 3.991592884063720703e+00 1.752702474594116211e+00
1.270000000000000000e+03 6.208261108398437500e+01 1.860915184020996094e+01 3.949719429016113281e+00 9.455449104309082031e+00 4.021550655364990234e+00 5.334557533264160156e+00
1.271000000000000000e+03 3.235484313964843750e+01 1.686330413818359375e+01 2.839144766330718994e-01 1.697488903999328613e+00 5.944209694862365723e-01 -2.917952537536621094e-01
1.272000000000000000e+03 2.776941871643066406e+01 1.422837734222412109e+01 2.619272768497467041e-01 1.796087473630905151e-01 1.324608027935028076e-01 -3.343357471749186516e-03
1.273000000000000000e+03 2.223381614685058594e+01 2.175235557556152344e+01 1.101176254451274872e-02 1.035432338714599609e+00 3.139332532882690430e-01 1.532934047281742096e-02
1.274000000000000000e+03 2.251099586486816406e+01 2.707891654968261719e+01 4.496086239814758301e-01 8.798523545265197754e-01 3.988382816314697266e-01 5.075038671493530273e-01
1.275000000000000000e+03 4.780876159667968750e+01 3.009997940063476562e+01 1.026562809944152832e+00 5.112974166870117188e+00 1.841861128807067871e+00 -2.022049129009246826e-01
1.276000000000000000e+03 4.604737472534179688e+01 2.618822288513183594e+01 6.742443442344665527e-01 8.123845100402832031e+00 2.639426708221435547e+00 1.080813884735107422e+00
1.277000000000000000e+03 4.346319580078125000e+01 2.234261894226074219e+01 -1.220466971397399902e+00 1.697228193283081055e+00 1.430283784866333008e-01 8.155387639999389648e-01
1.278000000000000000e+03 3.577276229858398438e+01 2.522957992553710938e+01 1.747660517692565918e+00 5.471977710723876953e+00 2.165891408920288086e+00 -2.354434251785278320e+00
1.279000000000000000e+03 6.567004394531250000e+01 2.751509284973144531e+01 2.072338104248046875e+00 5.275803565979003906e+00 2.204442501068115234e+00 1.423334956169128418e+00
1.280000000000000000e+03 5.974811172485351562e+01 2.351229476928710938e+01 -4.571730136871337891e+00 5.883145332336425781e-01 -1.195024609565734863e+00 4.953730478882789612e-02
1.281000000000000000e+03 7.933918762207031250e+01 -9.807201385498046875e+00 1.175310984253883362e-01 8.429012298583984375e+00 2.563962936401367188e+00 -5.145292878150939941e-01
1.282000000000000000e+03 6.680436706542968750e+01 -1.047307300567626953e+01 1.397391915321350098e+00 3.468382358551025391e+00 1.459732174873352051e+00 -1.934193015098571777e+00
1.283000000000000000e+03 6.542516326904296875e+01 -8.332356452941894531e+00 1.816087126731872559e+00 1.051027870178222656e+01 3.697909593582153320e+00 -2.183840990066528320e+00
1.284000000000000000e+03 6.391558456420898438e+01 -5.657432079315185547e+00 1.863190412521362305e+00 9.563670158386230469e+00 3.428058147430419922e+00 2.400232665240764618e-02
1.285000000000000000e+03 4.747945785522460938e+01 -3.674554443359375000e+01 -7.346075773239135742e-02 1.478326201438903809e+00 4.214596152305603027e-01 9.776022434234619141e-01
1.286000000000000000e+03 4.088053131103515625e+01 -2.886470985412597656e+01 3.362558484077453613e-01 3.478440761566162109e+00 1.144408941268920898e+00 1.751789093017578125e+00
1.287000000000000000e+03 6.040341567993164062e+01 -2.131956100463867188e+00 2.447158098220825195e+00 8.172787666320800781e+00 3.185983657836914062e+00 -3.731382369995117188e+00
1.288000000000000000e+03 5.465427398681640625e+01 -8.853624343872070312e+00 2.706119298934936523e+00 2.912201166152954102e+00 1.685496091842651367e+00 -2.835934638977050781e+00
1.289000000000000000e+03 5.238961410522460938e+01 -5.046480178833007812e+00 7.842129468917846680e-01 1.260048961639404297e+01 4.015410900115966797e+00 -4.923277199268341064e-01
1.290000000000000000e+03 5.314445495605468750e+01 -1.826132535934448242e+00 1.956487298011779785e+00 7.547861576080322266e+00 2.851304769515991211e+00 2.932780504226684570e+00
1.291000000000000000e+03 4.071829223632812500e+01 5.600385189056396484e+00 -2.304882705211639404e-01 3.883118152618408203e+00 1.095788955688476562e+00 -1.424124956130981445e+00
1.292000000000000000e+03 4.302265167236328125e+01 1.606598973274230957e+00 9.008284807205200195e-01 4.331367015838623047e+00 1.569658637046813965e+00 -3.609564781188964844e+00
1.293000000000000000e+03 4.468925476074218750e+01 1.024848103523254395e+00 1.229611515998840332e+00 1.128060626983642578e+01 3.753065347671508789e+00 -3.004073381423950195e+00
1.294000000000000000e+03 4.430909729003906250e+01 1.133794665336608887e+00 1.126788854598999023e+00 9.761818885803222656e+00 3.266582250595092773e+00 -4.112861156463623047e+00
1.295000000000000000e+03 4.474682235717773438e+01 1.357989430427551270e+00 6.873043775558471680e-01 1.049326229095458984e+01 3.354169845581054688e+00 -2.844932794570922852e+00
1.296000000000000000e+03 4.260476684570312500e+01 1.749949097633361816e+00 6.328383088111877441e-01 3.516616821289062500e+00 1.244836568832397461e+00 -3.099413394927978516e+00
1.297000000000000000e+03 4.226911544799804688e+01 1.877392768859863281e+00 3.167784512042999268e-01 3.127415418624877930e+00 1.033258080482482910e+00 -2.865598440170288086e+00
1.298000000000000000e+03 4.317546463012695312e+01 1.873507976531982422e+00 6.063315272331237793e-01 5.204934120178222656e+00 1.743379712104797363e+00 -3.866234064102172852e+00
1.299000000000000000e+03 4.357014846801757812e+01 1.381708860397338867e+00 1.372313141822814941e+00 6.283989429473876953e+00 2.296890735626220703e+00 -4.362670421600341797e+00
1.300000000000000000e+03 4.181738281250000000e+01 2.164054632186889648e+00 8.781197480857372284e-03 2.596648454666137695e+00 7.816289067268371582e-01 -2.334510087966918945e+00
1.301000000000000000e+03 4.521800231933593750e+01 -2.205244779586791992e+00 3.269643545150756836e+00 9.187674522399902344e+00 3.737195491790771484e+00 -2.991071462631225586e+00
1.302000000000000000e+03 4.597704696655273438e+01 -5.763227939605712891e+00 -7.883423566818237305e-01 3.163793325424194336e+00 7.126353383064270020e-01 -9.461334943771362305e-01
1.303000000000000000e+03 4.432180023193359375e+01 -2.320724487304687500e+00 2.585800886154174805e+00 7.063489913940429688e+00 2.894787073135375977e+00 1.914065599441528320e+00
1.304000000000000000e+03 4.534917831420898438e+01 1.217419981956481934e+00 1.504923224449157715e+00 1.062751197814941406e+01 3.639730453491210938e+00 -1.270602703094482422e+00
1.305000000000000000e+03 4.873461914062500000e+01 5.603773593902587891e+00 -4.477785110473632812e+00 7.862839102745056152e-01 -1.107450366020202637e+00 3.078764379024505615e-01
1.306000000000000000e+03 4.587417602539062500e+01 1.744955927133560181e-01 6.786803245544433594e+00 9.525252342224121094e+00 4.893616676330566406e+00 4.208377003669738770e-01
1.307000000000000000e+03 4.611246871948242188e+01 -4.135513305664062500e-01 8.699460983276367188e+00 7.942555904388427734e+00 4.992605209350585938e+00 -1.055812954902648926e+00
1.308000000000000000e+03 4.581987762451171875e+01 -1.737902283668518066e+00 6.016370296478271484e+00 8.715527534484863281e+00 4.419569015502929688e+00 -4.644032478332519531e+00
1.309000000000000000e+03 4.574055099487304688e+01 3.451942205429077148e-01 5.821053981781005859e+00 1.021294784545898438e+01 4.810200691223144531e+00 4.775571227073669434e-01
1.310000000000000000e+03 4.450341415405273438e+01 -3.429954051971435547e+00 -1.675239562988281250e+00 3.561751365661621094e+00 5.659534931182861328e-01 -8.785354346036911011e-02
1.311000000000000000e+03 4.502667617797851562e+01 -4.962240219116210938e+00 -4.328076362609863281e+00 3.768492043018341064e-01 -1.185368180274963379e+00 1.180297255516052246e+00
1.312000000000000000e+03 4.043268966674804688e+01 -1.065135121345520020e+00 7.866900563240051270e-01 2.928948104381561279e-01 3.238754570484161377e-01 1.945375561714172363e+00
1.313000000000000000e+03 4.080541229248046875e+01 -2.938987731933593750e+00 2.796855211257934570e+00 1.023831009864807129e+00 1.146205902099609375e+00 3.756110191345214844e+00
1.314000000000000000e+03 4.336826705932617188e+01 -2.067883014678955078e+00 5.530295848846435547e+00 1.185610294342041016e+00 2.014771699905395508e+00 3.990592718124389648e+00
1.315000000000000000e+03 4.290884017944335938e+01 -2.014398813247680664e+00 5.100041866302490234e+00 -1.322576552629470825e-01 1.490335226058959961e+00 4.004229068756103516e+00
1.316000000000000000e+03 4.238650512695312500e+01 -1.667474389076232910e+00 4.520559310913085938e+00 -1.346561670303344727e+00 9.521993398666381836e-01 3.232902288436889648e+00
1.317000000000000000e+03 4.207338714599609375e+01 -2.199672698974609375e+00 3.570003509521484375e+00 -1.780694842338562012e+00 5.367925763130187988e-01 4.240692615509033203e+00
1.318000000000000000e+03 4.356727981567382812e+01 -2.119042873382568359e+00 5.050398826599121094e+00 2.248520135879516602e+00 2.189675807952880859e+00 3.875242710113525391e+00
1.319000000000000000e+03 4.351630401611328125e+01 -2.399210214614868164e+00 3.226748943328857422e+00 9.485778212547302246e-01 1.252598047256469727e+00 2.763800144195556641e+00
1.320000000000000000e+03 4.395558166503906250e+01 -2.213974714279174805e+00 3.431348323822021484e+00 5.466674327850341797e+00 2.669406652450561523e+00 3.297562360763549805e+00
1.321000000000000000e+03 1.300062465667724609e+01 2.641000032424926758e+00 -3.260241150856018066e-01 -1.603277027606964111e-02 -1.026170700788497925e-01 2.940120100975036621e-01
1.322000000000000000e+03 1.220223236083984375e+01 3.433639049530029297e+00 -3.241254389286041260e-01 -1.424406617879867554e-01 -1.399698257446289062e-01 2.784345448017120361e-01
1.323000000000000000e+03 1.071367645263671875e+01 3.100368738174438477e+00 -1.782158017158508301e-01 -1.202975437045097351e-01 -8.955400437116622925e-02 1.242754906415939331e-01
1.324000000000000000e+03 1.083235549926757812e+01 4.867317199707031250e+00 -4.077284336090087891e-01 -2.427808642387390137e-01 -1.951527893543243408e-01 2.226892113685607910e-01
1.325000000000000000e+03 1.000002670288085938e+01 2.947478055953979492e+00 -1.376720219850540161e-01 -8.893825858831405640e-02 -6.798308342695236206e-02 8.545044064521789551e-02
1.326000000000000000e+03 1.503931808471679688e+01 -9.911223649978637695e-01 -3.104576766490936279e-01 2.204995155334472656e-01 -2.698745205998420715e-02 -1.335959732532501221e-01
1.327000000000000000e+03 1.282032012939453125e+01 -1.323903799057006836e+00 -2.324403673410415649e-01 -1.874438524246215820e-01 -1.259652674198150635e-01 -1.899279356002807617e-01
1.328000000000000000e+03 1.456673431396484375e+01 -3.952769279479980469e+00 9.386613965034484863e-03 4.730602726340293884e-02 1.700779236853122711e-02 -1.190878003835678101e-01
1.329000000000000000e+03 1.678283691406250000e+01 -3.009942054748535156e+00 -1.235555042512714863e-03 2.248028665781021118e-01 6.707019358873367310e-02 7.495263963937759399e-02
1.330000000000000000e+03 4.565209388732910156e+00 -2.583518028259277344e+00 -2.832950279116630554e-02 -5.572694912552833557e-02 -2.521693520247936249e-02 -5.802060291171073914e-02
1.331000000000000000e+03 6.777587413787841797e+00 -2.519913911819458008e+00 -5.444784462451934814e-02 2.110703662037849426e-02 -1.000224240124225616e-02 -5.186117440462112427e-02
1.332000000000000000e+03 5.387242794036865234e+00 -1.866267681121826172e+00 -4.964799433946609497e-02 -5.765563622117042542e-02 -3.219109028577804565e-02 -5.703057348728179932e-02
1.333000000000000000e+03 8.856009483337402344e+00 -3.150584936141967773e+00 -5.034288391470909119e-02 -1.060270890593528748e-02 -1.828367821872234344e-02 -8.648510277271270752e-02
1.334000000000000000e+03 8.932627677917480469e+00 -2.476629734039306641e+00 -1.180445551872253418e-01 -1.172767877578735352e-01 -7.059640437364578247e-02 -1.550362557172775269e-01
1.335000000000000000e+03 8.212858200073242188e+00 -2.492816448211669922e+00 -7.581233233213424683e-02 1.872836984694004059e-02 -1.712518744170665741e-02 -7.220289111137390137e-02
1.336000000000000000e+03 6.120830535888671875e+00 -1.854042053222656250e+00 -5.602892488241195679e-02 3.524199873208999634e-02 -6.236078217625617981e-03 -3.110419958829879761e-02
1.337000000000000000e+03 7.495247840881347656e+00 -2.500964641571044922e+00 -9.027983993291854858e-02 -8.912313729524612427e-02 -5.382089316844940186e-02 -1.185166761279106140e-01
1.338000000000000000e+03 2.831427574157714844e+00 -4.876354217529296875e+00 3.942482173442840576e-03 -4.452763870358467102e-02 -1.217554695904254913e-02 -2.131223119795322418e-02
1.339000000000000000e+03 3.943212926387786865e-01 -2.185866594314575195e+00 -2.738553332164883614e-03 1.478862133808434010e-03 -3.779073595069348812e-04 -1.094658742658793926e-03
1.340000000000000000e+03 4.819126129150390625e-01 -3.558426618576049805e+00 9.582036873325705528e-04 -1.037165615707635880e-02 -2.824035705998539925e-03 -3.930655773729085922e-03
1.341000000000000000e+03 5.408515930175781250e-01 -4.954555034637451172e+00 3.510000533424317837e-04 -1.583059877157211304e-02 -4.643879830837249756e-03 -2.126238308846950531e-03
1.342000000000000000e+03 1.897462654113769531e+01 -1.035435676574707031e+00 1.359771490097045898e-01 2.279098778963088989e-01 1.091661080718040466e-01 9.545375406742095947e-02
1.343000000000000000e+03 3.850587844848632812e+01 -1.548914790153503418e+00 -2.810855805873870850e-01 1.542321443557739258e+00 3.783707320690155029e-01 1.020141601562500000e+00
1.344000000000000000e+03 3.580540847778320312e+01 -1.686498284339904785e+00 -8.098353743553161621e-01 2.708149254322052002e-01 -1.617061346769332886e-01 -4.669736325740814209e-01
1.345000000000000000e+03 3.849522781372070312e+01 -3.201812744140625000e+00 2.558200597763061523e+00 2.864231586456298828e+00 1.626729726791381836e+00 1.727858424186706543e+00
1.346000000000000000e+03 3.452502822875976562e+01 -2.985347032546997070e+00 5.480172038078308105e-01 7.684101164340972900e-02 1.874574720859527588e-01 -6.103274822235107422e-01
1.347000000000000000e+03 3.270479202270507812e+01 -2.780763387680053711e+00 -3.834039568901062012e-01 -8.149104118347167969e-01 -3.594942986965179443e-01 -6.574390530586242676e-01
1.348000000000000000e+03 3.682876586914062500e+01 -6.941118717193603516e+00 1.653102636337280273e+00 5.777444362640380859e+00 2.229164123535156250e+00 1.957880496978759766e+00
1.349000000000000000e+03 1.609775733947753906e+01 3.165747404098510742e+00 -8.967716097831726074e-01 7.201965153217315674e-02 -2.474256008863449097e-01 5.303257703781127930e-01
1.350000000000000000e+03 1.233754253387451172e+01 5.177011966705322266e+00 -5.083061456680297852e-01 -3.338413536548614502e-01 -2.526442706584930420e-01 4.123575985431671143e-01
1.351000000000000000e+03 1.302378845214843750e+01 3.627668619155883789e+00 -4.117627739906311035e-01 -1.837749779224395752e-01 -1.786613166332244873e-01 4.396689236164093018e-01
1.352000000000000000e+03 1.533919715881347656e+01 3.929653406143188477e+00 -6.745454072952270508e-01 2.327764779329299927e-02 -1.953803300857543945e-01 6.511669158935546875e-01
1.353000000000000000e+03 2.716384315490722656e+01 2.070761442184448242e+00 -1.010241985321044922e+00 1.250976175069808960e-01 -2.655433118343353271e-01 2.437608838081359863e-01
1.354000000000000000e+03 2.704667282104492188e+01 1.294641137123107910e+00 -1.326866507530212402e+00 3.079233691096305847e-02 -3.888222575187683105e-01 3.049972057342529297e-01
1.355000000000000000e+03 2.098488044738769531e+01 2.859272956848144531e+00 -1.354650259017944336e+00 -1.163629293441772461e-01 -4.413039386272430420e-01 2.451177388429641724e-01
1.356000000000000000e+03 2.554262161254882812e+01 1.674559235572814941e+00 -1.306135416030883789e+00 -8.961520344018936157e-02 -4.187251925468444824e-01 3.756884038448333740e-01
1.357000000000000000e+03 2.500749778747558594e+01 2.679657220840454102e+00 -9.729591608047485352e-01 -8.600687235593795776e-02 -3.176898062229156494e-01 2.850330770015716553e-01
1.358000000000000000e+03 2.870536804199218750e+01 1.970872521400451660e+00 -9.497987627983093262e-01 3.273763358592987061e-01 -1.867267191410064697e-01 1.063609272241592407e-01
1.359000000000000000e+03 2.035931396484375000e+01 3.871152639389038086e+00 -8.836528658866882324e-01 -1.176409274339675903e-01 -3.003881275653839111e-01 2.214127182960510254e-01
1.360000000000000000e+03 1.943094635009765625e+01 3.244853496551513672e+00 -1.184937357902526855e+00 -1.485682278871536255e-01 -4.000516831874847412e-01 2.893736064434051514e-01
1.361000000000000000e+03 2.269883155822753906e+01 3.273804664611816406e+00 -9.784406423568725586e-01 -1.275275647640228271e-01 -3.317904472351074219e-01 2.363703697919845581e-01
1.362000000000000000e+03 2.425136566162109375e+01 2.916597604751586914e+00 -9.630981087684631348e-01 -1.082609444856643677e-01 -3.214077055454254150e-01 2.676078975200653076e-01
1.363000000000000000e+03 2.954699707031250000e+01 3.868450880050659180e+00 -1.232808828353881836e-01 7.535281777381896973e-01 1.890741884708404541e-01 -1.666209250688552856e-01
1.364000000000000000e+03 2.879026794433593750e+01 5.324559211730957031e+00 3.701085746288299561e-01 9.999324679374694824e-01 4.110123217105865479e-01 -2.932764291763305664e-01
1.365000000000000000e+03 2.644534111022949219e+01 2.207009077072143555e+00 -1.003419280052185059e+00 2.368759922683238983e-02 -2.939195036888122559e-01 2.831707596778869629e-01
1.366000000000000000e+03 2.129623985290527344e+01 4.883343219757080078e+00 -4.136346280574798584e-01 -7.679021358489990234e-02 -1.471274495124816895e-01 1.101399436593055725e-01
1.367000000000000000e+03 3.189869880676269531e+01 1.497406005859375000e+00 -1.104496598243713379e+00 4.000186324119567871e-01 -2.113434076309204102e-01 -2.764764800667762756e-02
1.368000000000000000e+03 3.172894668579101562e+01 3.210920572280883789e+00 2.431571185588836670e-01 5.228532552719116211e-01 2.298031151294708252e-01 -3.529103994369506836e-01
1.369000000000000000e+03 1.419680690765380859e+01 -2.045392274856567383e+00 -1.805078983306884766e-01 1.299439668655395508e-01 -1.516917999833822250e-02 -6.438405811786651611e-02
1.370000000000000000e+03 1.046022605895996094e+01 -2.379240274429321289e+00 -1.377879530191421509e-01 -1.412384063005447388e-01 -8.370790630578994751e-02 -1.760067194700241089e-01
1.371000000000000000e+03 1.271664428710937500e+01 -2.083994865417480469e+00 -1.808031648397445679e-01 7.242650538682937622e-02 -3.251299634575843811e-02 -7.805810123682022095e-02
1.372000000000000000e+03 1.607436370849609375e+01 -5.429105281829833984e+00 -2.123513258993625641e-02 2.311032265424728394e-01 6.296043097972869873e-02 4.596515744924545288e-02
1.373000000000000000e+03 4.079087829589843750e+01 -2.268301725387573242e+00 2.285962343215942383e+00 6.998005509376525879e-01 8.957288861274719238e-01 3.459067344665527344e+00
1.374000000000000000e+03 4.096114730834960938e+01 -1.747267365455627441e+00 2.150416851043701172e+00 -2.371239215135574341e-01 5.739879012107849121e-01 2.906854391098022461e+00
1.375000000000000000e+03 9.281923294067382812e+00 2.784755229949951172e+00 -8.679465949535369873e-02 -8.296740055084228516e-02 -5.092861875891685486e-02 4.023228958249092102e-02
1.376000000000000000e+03 6.185122489929199219e+00 1.877431273460388184e+00 5.239632725715637207e-02 -9.826753288507461548e-03 1.277087256312370300e-02 -4.368994385004043579e-02
1.377000000000000000e+03 1.626754760742187500e+00 7.841002464294433594e+00 -3.743118420243263245e-02 -7.812047377228736877e-03 -1.357296947389841080e-02 7.840599119663238525e-02
1.378000000000000000e+03 3.337695837020874023e+00 4.157058238983154297e+00 -5.544727295637130737e-02 4.547177348285913467e-03 -1.527002826333045959e-02 -3.336886316537857056e-02
1.379000000000000000e+03 5.998118877410888672e+00 4.334626674652099609e+00 -1.503278017044067383e-01 -4.029679298400878906e-02 -5.718737468123435974e-02 -1.973843667656183243e-03
1.380000000000000000e+03 2.920949459075927734e+00 2.058717250823974609e+00 2.436838857829570770e-02 8.781323209404945374e-03 9.944913908839225769e-03 -5.565313994884490967e-02
1.381000000000000000e+03 1.345788002014160156e+00 3.510557651519775391e+00 -5.166676361113786697e-03 5.296861752867698669e-02 1.434058323502540588e-02 -3.917196393013000488e-02
1.382000000000000000e+03 8.546552658081054688e+00 2.658028841018676758e+00 -5.674332752823829651e-02 -5.214831605553627014e-02 -3.266749531030654907e-02 1.337936054915189743e-02
1.383000000000000000e+03 7.031911849975585938e+00 2.579322338104248047e+00 -2.116719074547290802e-02 -2.835787273943424225e-02 -1.485751941800117493e-02 -2.598054334521293640e-02
1.384000000000000000e+03 5.505169391632080078e+00 2.722354650497436523e+00 -1.623260416090488434e-02 -1.278545334935188293e-02 -8.705417625606060028e-03 -4.873202741146087646e-02
1.385000000000000000e+03 6.269174575805664062e+00 2.628784418106079102e+00 -1.387881580740213394e-02 -2.338551171123981476e-02 -1.117929816246032715e-02 -4.069653525948524475e-02
1.386000000000000000e+03 3.254628372192382812e+01 1.642484068870544434e+00 -1.046534061431884766e+00 4.221670925617218018e-01 -1.873100996017456055e-01 -1.471756696701049805e-01
1.387000000000000000e+03 3.081198310852050781e+01 4.063396453857421875e+00 4.260334670543670654e-01 5.305479168891906738e-01 2.869744002819061279e-01 -5.560321211814880371e-01
1.388000000000000000e+03 3.029973793029785156e+01 3.306789636611938477e+00 -2.118447124958038330e-01 7.402713894844055176e-01 1.585280001163482666e-01 -2.717179656028747559e-01
1.389000000000000000e+03 1.692029571533203125e+01 4.001845836639404297e+00 -7.959380149841308594e-01 1.263636499643325806e-01 -2.008723169565200806e-01 5.830637216567993164e-01
1.390000000000000000e+03 1.662139892578125000e+01 4.650409698486328125e+00 -6.076335906982421875e-01 1.754190027713775635e-01 -1.296643912792205811e-01 6.381018161773681641e-01
1.391000000000000000e+03 1.706541061401367188e+01 6.038452625274658203e+00 -7.050222158432006836e-02 3.185314238071441650e-01 7.440876215696334839e-02 5.148757100105285645e-01
1.392000000000000000e+03 1.515981769561767578e+01 6.586114406585693359e+00 -3.007871508598327637e-01 4.317404702305793762e-02 -7.728392630815505981e-02 3.576507866382598877e-01
1.393000000000000000e+03 3.552650833129882812e+01 -4.449020385742187500e+00 2.066487073898315430e+00 1.092832565307617188e+00 9.477959275245666504e-01 4.368152022361755371e-01
1.394000000000000000e+03 3.295137023925781250e+01 -3.584699392318725586e+00 4.286355078220367432e-01 -5.397601723670959473e-01 -3.333739563822746277e-02 -6.156478524208068848e-01
1.395000000000000000e+03 3.207293319702148438e+01 -3.925311088562011719e+00 4.396633803844451904e-01 -8.776004910469055176e-01 -1.313811391592025757e-01 -3.932215273380279541e-01
1.396000000000000000e+03 3.108563423156738281e+01 -4.217306613922119141e+00 2.862977981567382812e-01 -8.489552140235900879e-01 -1.687972247600555420e-01 -6.285765767097473145e-01
1.397000000000000000e+03 1.814149856567382812e+01 -2.006258487701416016e+00 2.024719566106796265e-01 5.570334792137145996e-01 2.278516292572021484e-01 2.645682170987129211e-02
1.398000000000000000e+03 1.500452899932861328e+01 -2.013797283172607422e+00 -1.088447049260139465e-01 -1.692870259284973145e-01 -8.343952149152755737e-02 -1.839162558317184448e-01
1.399000000000000000e+03 3.937732696533203125e+01 4.069131374359130859e+00 1.072832569479942322e-01 1.231757998466491699e+00 4.017123878002166748e-01 -5.802725553512573242e-01
1.400000000000000000e+03 4.199060058593750000e+01 2.673079252243041992e+00 -4.647655487060546875e-01 3.432554483413696289e+00 8.903366923332214355e-01 -2.672541141510009766e+00
1.401000000000000000e+03 4.134573745727539062e+01 3.065142393112182617e+00 -6.634864807128906250e-01 2.723103761672973633e+00 6.178851723670959473e-01 -2.476541280746459961e+00
1.402000000000000000e+03 3.896356582641601562e+01 4.295041561126708984e+00 -6.886117905378341675e-02 1.122155427932739258e+00 3.159882724285125732e-01 -7.208823412656784058e-02
1.403000000000000000e+03 3.951864242553710938e+01 3.299651861190795898e+00 -3.723205029964447021e-01 5.799608230590820312e-01 6.229210272431373596e-02 -1.004771709442138672e+00
1.404000000000000000e+03 3.983052444458007812e+01 -2.371464920043945312e+01 9.177807569503784180e-01 6.248177051544189453e+00 2.149787187576293945e+00 1.744732141494750977e+00
1.405000000000000000e+03 4.855881118774414062e+01 -2.647035408020019531e+01 -1.697632431983947754e+00 3.434378862380981445e+00 5.210239291191101074e-01 -2.334757804870605469e+00
1.406000000000000000e+03 4.720055389404296875e+01 2.594519996643066406e+01 1.737674355506896973e+00 5.858620643615722656e+00 2.278888463973999023e+00 1.236407041549682617e+00
1.407000000000000000e+03 4.752359008789062500e+01 2.873096466064453125e+01 1.364531874656677246e+00 5.437478542327880859e+00 2.040603160858154297e+00 -1.614958420395851135e-02
1.408000000000000000e+03 1.861563682556152344e+01 -2.652061080932617188e+01 3.645080924034118652e-01 2.158958278596401215e-02 1.158293038606643677e-01 1.227678358554840088e-01
1.409000000000000000e+03 3.254830551147460938e+01 3.128557014465332031e+01 3.090547919273376465e-01 2.807513713836669922e+00 9.349706172943115234e-01 -7.877632379531860352e-01
1.410000000000000000e+03 4.757763290405273438e+01 -1.273462200164794922e+01 -2.904964089393615723e-01 9.340820312500000000e+00 2.715097188949584961e+00 2.277051925659179688e+00
1.411000000000000000e+03 5.076718902587890625e+01 -9.477972984313964844e+00 2.737833499908447266e+00 7.702564716339111328e+00 3.132119417190551758e+00 -3.379569947719573975e-01
1.412000000000000000e+03 3.307843017578125000e+01 1.560424518585205078e+01 4.106666743755340576e-01 1.103779435157775879e+00 4.543338119983673096e-01 -5.559500455856323242e-01
1.413000000000000000e+03 3.112395477294921875e+01 1.618730354309082031e+01 3.100863993167877197e-01 8.590832948684692383e-01 3.507509231567382812e-01 2.811491787433624268e-01
1.414000000000000000e+03 6.076321792602539062e+01 3.576714706420898438e+01 -1.909458279609680176e+00 5.295627117156982422e-01 -4.139686822891235352e-01 -2.825900167226791382e-02
1.415000000000000000e+03 4.961938095092773438e+01 -3.283255386352539062e+01 8.572064638137817383e-01 8.106961250305175781e+00 2.689250230789184570e+00 3.408784419298171997e-02
1.416000000000000000e+03 4.038307189941406250e+01 -4.020356369018554688e+01 -1.036357283592224121e+00 1.368629217147827148e+00 9.968157857656478882e-02 -2.818820476531982422e-01
1.417000000000000000e+03 3.691391372680664062e+01 -4.131726455688476562e+01 -9.616142511367797852e-01 2.166123390197753906e+00 3.613527715206146240e-01 5.472110956907272339e-02
1.418000000000000000e+03 3.923097610473632812e+01 -3.405438995361328125e+01 6.744760870933532715e-01 6.613121509552001953e+00 2.186279296875000000e+00 -4.745010435581207275e-01
1.419000000000000000e+03 4.970479202270507812e+01 -2.983768844604492188e+01 1.634718060493469238e+00 4.475154399871826172e+00 1.832961797714233398e+00 -1.365020394325256348e+00
1.420000000000000000e+03 4.748822021484375000e+01 -7.820920467376708984e+00 1.852886080741882324e+00 1.378096199035644531e+01 4.690154552459716797e+00 -2.186961174011230469e+00
1.421000000000000000e+03 5.744783782958984375e+01 4.137288284301757812e+01 -3.455309271812438965e-01 1.855352997779846191e+00 4.529466032981872559e-01 2.909564375877380371e-01
1.422000000000000000e+03 1.981548881530761719e+01 2.916879272460937500e+01 6.131156906485557556e-02 4.898387789726257324e-01 1.653451025485992432e-01 3.094328381121158600e-02
1.423000000000000000e+03 5.516476440429687500e+01 3.393133926391601562e+01 8.471697568893432617e-01 3.458637952804565430e+00 1.291742324829101562e+00 1.940562248229980469e+00
1.424000000000000000e+03 1.518743228912353516e+01 -2.394717979431152344e+01 7.481396198272705078e-02 -6.923095136880874634e-02 1.674902159720659256e-03 -1.693524047732353210e-02
1.425000000000000000e+03 1.845841598510742188e+01 -2.555794334411621094e+01 2.387592792510986328e-01 6.553649902343750000e-02 9.128873050212860107e-02 1.770490854978561401e-01
1.426000000000000000e+03 4.372741317749023438e+01 -2.759609031677246094e+01 -4.331969261169433594e+00 -5.099108219146728516e-01 -1.452564001083374023e+00 4.612066149711608887e-01
1.427000000000000000e+03 4.090713500976562500e+01 -3.652408361434936523e+00 5.522511959075927734e+00 1.370648384094238281e+00 2.067948102951049805e+00 3.096920490264892578e+00
1.428000000000000000e+03 4.223102188110351562e+01 -3.656441211700439453e+00 -1.841861367225646973e+00 -1.526257634162902832e+00 -1.010435700416564941e+00 3.041618108749389648e+00
1.429000000000000000e+03 4.344321441650390625e+01 -4.075178146362304688e+00 -6.046790599822998047e+00 -1.281141996383666992e+00 -2.198379755020141602e+00 3.315883636474609375e+00
1.430000000000000000e+03 3.164205169677734375e+01 -1.287140369415283203e+01 -6.280949115753173828e-01 1.011258602142333984e+00 1.149491220712661743e-01 1.194309115409851074e+00
1.431000000000000000e+03 3.576268768310546875e+01 -9.180163383483886719e+00 7.746133208274841309e-01 2.455463409423828125e+00 9.690229892730712891e-01 1.490390181541442871e+00
1.432000000000000000e+03 2.168169593811035156e+01 1.927353858947753906e+01 3.172900080680847168e-01 1.005132913589477539e+00 3.967268764972686768e-01 -3.119935989379882812e-01
1.433000000000000000e+03 2.203520393371582031e+01 1.703215789794921875e+01 -3.487537801265716553e-02 6.748707294464111328e-01 1.919986009597778320e-01 -6.781949847936630249e-02
1.434000000000000000e+03 3.294314193725585938e+01 2.293763732910156250e+01 3.615271449089050293e-01 3.839358806610107422e+00 1.260265707969665527e+00 -5.663738250732421875e-01
1.435000000000000000e+03 4.252339935302734375e+01 -2.770271682739257812e+01 -2.615979433059692383e+00 6.417894363403320312e-01 -5.922570228576660156e-01 3.629325032234191895e-01
1.436000000000000000e+03 2.143346786499023438e+01 3.164534187316894531e+01 1.274025738239288330e-01 6.688030362129211426e-01 2.388616949319839478e-01 -8.180642127990722656e-02
1.437000000000000000e+03 3.209545516967773438e+01 1.399089336395263672e+01 3.636933267116546631e-01 4.791399836540222168e-01 2.528499960899353027e-01 -5.860874056816101074e-02
1.438000000000000000e+03 2.785566711425781250e+01 1.222244644165039062e+01 2.196875065565109253e-01 3.446388542652130127e-01 1.692979037761688232e-01 2.616935409605503082e-02
1.439000000000000000e+03 2.959936904907226562e+01 9.880473136901855469e+00 1.602441221475601196e-01 7.113727927207946777e-01 2.614850699901580811e-01 1.839756369590759277e-01
1.440000000000000000e+03 3.712486267089843750e+01 1.624488067626953125e+01 7.983776926994323730e-01 1.933915257453918457e+00 8.196878433227539062e-01 -1.797268629074096680e+00
1.441000000000000000e+03 3.619959259033203125e+01 -7.654332637786865234e+00 1.635197401046752930e+00 3.352137565612792969e+00 1.496200442314147949e+00 1.312837362289428711e+00
1.442000000000000000e+03 1.985811805725097656e+01 1.818480110168457031e+01 -1.933735795319080353e-02 1.264237910509109497e-01 3.212593123316764832e-02 9.957852307707071304e-04
1.443000000000000000e+03 3.510997009277343750e+01 -1.239993953704833984e+01 -1.036773324012756348e+00 7.637134194374084473e-01 -8.191796392202377319e-02 8.608148097991943359e-01
1.444000000000000000e+03 3.642670440673828125e+01 -3.531007289886474609e+00 1.681923151016235352e+00 1.558161020278930664e+00 9.720252156257629395e-01 4.583089053630828857e-01
1.445000000000000000e+03 3.641173553466796875e+01 -5.515057563781738281e+00 3.258474111557006836e+00 2.742707967758178711e+00 1.800354599952697754e+00 1.548085212707519531e+00
1.446000000000000000e+03 4.465961456298828125e+01 -1.454897117614746094e+01 -2.435390233993530273e+00 3.422497272491455078e+00 2.961320877075195312e-01 2.672436714172363281e+00
1.447000000000000000e+03 4.410491180419921875e+01 -1.347362136840820312e+01 -3.617506742477416992e+00 1.018741965293884277e+00 -7.796294093132019043e-01 3.897579610347747803e-01
1.448000000000000000e+03 3.016953086853027344e+01 2.829039001464843750e+01 1.119626164436340332e+00 1.724064111709594727e+00 8.531070947647094727e-01 -1.068456768989562988e+00
1.449000000000000000e+03 3.066175842285156250e+01 2.577516937255859375e+01 1.010179877281188965e+00 2.146834135055541992e+00 9.471042156219482422e-01 -1.301459193229675293e+00
1.450000000000000000e+03 3.172567367553710938e+01 2.188088798522949219e+01 -2.932766266167163849e-02 3.714000940322875977e+00 1.105401992797851562e+00 -1.459991335868835449e-01
1.451000000000000000e+03 3.748672103881835938e+01 2.301737022399902344e+01 5.886524319648742676e-01 2.058153629302978516e+00 7.940418124198913574e-01 -1.391960501670837402e+00
1.452000000000000000e+03 3.091159820556640625e+01 2.724902915954589844e+01 9.887899756431579590e-01 2.250883102416992188e+00 9.719019532203674316e-01 -1.079654335975646973e+00
1.453000000000000000e+03 3.427013397216796875e+01 3.134214782714843750e+01 1.336253881454467773e-01 3.594975233078002930e+00 1.118580222129821777e+00 -1.968692392110824585e-01
1.454000000000000000e+03 4.654523849487304688e+01 -1.212684154510498047e+01 3.090389728546142578e+00 8.477056503295898438e+00 3.470233917236328125e+00 5.031417369842529297e+00
1.455000000000000000e+03 4.730987548828125000e+01 -1.404350757598876953e+01 -2.511945724487304688e+00 8.086793899536132812e+00 1.672454476356506348e+00 3.184891462326049805e+00
1.456000000000000000e+03 3.198167991638183594e+01 -2.721431541442871094e+01 -2.023261785507202148e-01 2.797091305255889893e-01 2.321488037705421448e-02 2.018797909840941429e-03
1.457000000000000000e+03 2.672995567321777344e+01 -3.365105438232421875e+01 2.044210880994796753e-01 1.330536365509033203e+00 4.604872465133666992e-01 -1.004303395748138428e-01
1.458000000000000000e+03 2.055341148376464844e+01 1.282939338684082031e+01 1.446752343326807022e-02 1.878668963909149170e-01 6.070032715797424316e-02 6.575489789247512817e-02
1.459000000000000000e+03 4.593877410888671875e+01 -1.414005756378173828e+01 -2.563464403152465820e+00 6.665541648864746094e+00 1.230623126029968262e+00 3.411337375640869141e+00
1.460000000000000000e+03 2.082810783386230469e+01 2.098810958862304688e+01 3.099764287471771240e-01 6.449021697044372559e-01 2.864635884761810303e-01 -2.053072154521942139e-01
1.461000000000000000e+03 2.360951042175292969e+01 2.680735397338867188e+01 3.826395571231842041e-01 1.106652736663818359e+00 4.467876851558685303e-01 6.297615766525268555e-01
1.462000000000000000e+03 2.006239700317382812e+01 2.519708633422851562e+01 4.930483400821685791e-01 7.990235090255737305e-01 3.876215517520904541e-01 3.906015455722808838e-01
1.463000000000000000e+03 2.156627082824707031e+01 2.761053276062011719e+01 3.589956462383270264e-01 7.300293445587158203e-01 3.267074823379516602e-01 4.092779159545898438e-01
1.464000000000000000e+03 2.099341964721679688e+01 2.839427566528320312e+01 2.459577322006225586e-01 7.645853161811828613e-01 3.031629025936126709e-01 3.330196142196655273e-01
1.465000000000000000e+03 2.043162918090820312e+01 1.139289665222167969e+01 2.887801267206668854e-02 3.751176595687866211e-01 1.211987063288688660e-01 1.108795627951622009e-01
1.466000000000000000e+03 2.554484558105468750e+01 1.573420047760009766e+01 3.107324540615081787e-01 2.780242860317230225e-01 1.766270250082015991e-01 -2.684046924114227295e-01
1.467000000000000000e+03 2.112080574035644531e+01 2.211758613586425781e+01 2.390088438987731934e-01 8.903061151504516602e-01 3.387944996356964111e-01 -6.474991887807846069e-02
1.468000000000000000e+03 3.868552398681640625e+01 -3.051434326171875000e+01 1.034239411354064941e+00 5.276471138000488281e+00 1.893213152885437012e+00 1.566002130508422852e+00
1.469000000000000000e+03 3.302510452270507812e+01 1.970048141479492188e+01 -3.841716563329100609e-03 2.881272554397583008e+00 8.632292151451110840e-01 -5.961740612983703613e-01
1.470000000000000000e+03 3.184606742858886719e+01 1.935135459899902344e+01 -5.639735609292984009e-02 2.796110630035400391e+00 8.219140172004699707e-01 -2.062615752220153809e-01
1.471000000000000000e+03 3.267192459106445312e+01 2.177978134155273438e+01 3.549410402774810791e-02 3.674885749816894531e+00 1.113113999366760254e+00 -4.368754327297210693e-01
1.472000000000000000e+03 3.270512008666992188e+01 2.077297210693359375e+01 -5.851397663354873657e-02 3.282131671905517578e+00 9.670853018760681152e-01 -4.898195564746856689e-01
1.473000000000000000e+03 5.110713577270507812e+01 -1.091484069824218750e+01 2.431350469589233398e+00 5.934375762939453125e+00 2.509717941284179688e+00 -1.324900150299072266e+00
1.474000000000000000e+03 5.213779067993164062e+01 -8.907845497131347656e+00 2.197543621063232422e+00 6.729507923126220703e+00 2.678115367889404297e+00 -1.308532476425170898e+00
1.475000000000000000e+03 3.779708480834960938e+01 -1.915304303169250488e+00 2.358918040990829468e-01 1.776021122932434082e+00 6.035739183425903320e-01 4.306004047393798828e-01
1.476000000000000000e+03 4.452527618408203125e+01 -4.191839694976806641e+00 -4.854074478149414062e+00 9.220785498619079590e-01 -1.179598808288574219e+00 1.092440605163574219e+00
1.477000000000000000e+03 3.589694976806640625e+01 -1.334068489074707031e+01 -1.695371389389038086e+00 8.246567845344543457e-01 -2.612144052982330322e-01 2.983956336975097656e-01
1.478000000000000000e+03 3.680631256103515625e+01 -1.261431217193603516e+01 -1.470922231674194336e+00 1.358055710792541504e+00 -3.385996073484420776e-02 2.161471992731094360e-01
1.479000000000000000e+03 4.777293395996093750e+01 -4.131122970581054688e+01 -1.444423913955688477e+00 2.600352525711059570e+00 3.467786014080047607e-01 4.769287109375000000e-01
1.480000000000000000e+03 4.913344955444335938e+01 -2.751434326171875000e+01 -1.484386324882507324e+00 2.897931337356567383e+00 4.240635335445404053e-01 -2.211530208587646484e+00
1.481000000000000000e+03 3.841458892822265625e+01 -3.692772293090820312e+01 -8.240281343460083008e-01 3.035682916641235352e+00 6.634963750839233398e-01 2.752039730548858643e-01
1.482000000000000000e+03 4.344381332397460938e+01 -4.116165161132812500e+01 -6.161354780197143555e-01 5.895007848739624023e-01 -7.990397512912750244e-03 4.982385411858558655e-02
1.483000000000000000e+03 5.429496383666992188e+01 1.979747962951660156e+01 -1.341760039329528809e+00 4.579106330871582031e+00 9.712038636207580566e-01 -2.519715785980224609e+00
1.484000000000000000e+03 5.883373260498046875e+01 1.995395469665527344e+01 2.137710601091384888e-01 4.711812019348144531e+00 1.477674961090087891e+00 4.634709954261779785e-01
1.485000000000000000e+03 3.884603881835937500e+01 -2.770329475402832031e+01 -5.652358531951904297e-01 5.955675125122070312e+00 1.617131710052490234e+00 1.815201759338378906e+00
1.486000000000000000e+03 3.714068603515625000e+01 -3.284566497802734375e+01 1.698271274566650391e+00 3.102698326110839844e+00 1.440290927886962891e+00 1.402517795562744141e+00
1.487000000000000000e+03 3.848382568359375000e+01 -3.326379013061523438e+01 1.323957920074462891e+00 6.167109966278076172e+00 2.247320413589477539e+00 8.297791481018066406e-01
1.488000000000000000e+03 5.325548171997070312e+01 -3.385359191894531250e+01 2.093920707702636719e+00 6.332033634185791016e+00 2.527786254882812500e+00 5.955830812454223633e-01
1.489000000000000000e+03 3.174077224731445312e+01 1.282745361328125000e+01 1.385715901851654053e-01 3.130322396755218506e-01 1.354811489582061768e-01 2.119536250829696655e-01
1.490000000000000000e+03 4.784838867187500000e+01 -2.539124679565429688e+01 -2.100468873977661133e+00 3.599195957183837891e+00 4.496181011199951172e-01 -2.198745727539062500e+00
1.491000000000000000e+03 4.795136260986328125e+01 -2.341511726379394531e+01 9.354782700538635254e-01 3.156028509140014648e+00 1.227452039718627930e+00 -2.156035900115966797e+00
1.492000000000000000e+03 4.887576293945312500e+01 -3.711244583129882812e+01 -9.112455844879150391e-01 4.499264717102050781e+00 1.076405763626098633e+00 1.481111049652099609e+00
1.493000000000000000e+03 6.665997314453125000e+01 2.892001724243164062e+01 1.575330257415771484e+00 5.179266452789306641e+00 2.026379108428955078e+00 9.980310201644897461e-01
1.494000000000000000e+03 6.418721008300781250e+01 3.467288970947265625e+01 -8.997976183891296387e-01 4.472195625305175781e+00 1.071719408035278320e+00 3.153883218765258789e-01
1.495000000000000000e+03 3.936004257202148438e+01 -2.547188949584960938e+01 2.000584363937377930e+00 7.984467506408691406e+00 2.995515584945678711e+00 3.445706367492675781e+00
1.496000000000000000e+03 3.864302825927734375e+01 -2.644136238098144531e+01 2.110728502273559570e+00 5.427667617797851562e+00 2.261518716812133789e+00 3.088239431381225586e+00
1.497000000000000000e+03 3.246507263183593750e+01 -3.008503723144531250e+01 1.619521230459213257e-01 5.287891030311584473e-01 2.072223722934722900e-01 -3.884990811347961426e-01
1.498000000000000000e+03 2.901724624633789062e+01 7.907691955566406250e+00 5.070472881197929382e-02 1.060348153114318848e+00 3.333158791065216064e-01 2.922443486750125885e-02
1.499000000000000000e+03 2.600272178649902344e+01 3.177832365036010742e+00 -6.850684881210327148e-01 1.476351357996463776e-02 -2.010914981365203857e-01 2.059981673955917358e-01
1.500000000000000000e+03 2.829436111450195312e+01 -2.339164924621582031e+01 4.654477238655090332e-01 2.538199663162231445e+00 9.010941982269287109e-01 -1.831152737140655518e-01
1.501000000000000000e+03 3.831149291992187500e+01 -2.964882087707519531e+01 1.434545964002609253e-01 4.590176582336425781e+00 1.420089364051818848e+00 1.278025269508361816e+00
1.502000000000000000e+03 3.608270263671875000e+01 -2.833063125610351562e+01 -1.113510966300964355e+00 3.338084220886230469e-01 -2.339107692241668701e-01 1.298871338367462158e-01
1.503000000000000000e+03 3.587490844726562500e+01 -1.527940464019775391e+01 -2.733639240264892578e+00 -5.034310743212699890e-02 -8.351947069168090820e-01 5.487010478973388672e-01
1.504000000000000000e+03 3.690094757080078125e+01 -1.607193946838378906e+01 -1.075056552886962891e+00 3.336168229579925537e-01 -2.224319130182266235e-01 9.681951999664306641e-02
1.505000000000000000e+03 2.760118675231933594e+01 -2.448128700256347656e+01 2.213122248649597168e-01 1.755689740180969238e+00 5.931006073951721191e-01 7.443431764841079712e-02
1.506000000000000000e+03 4.865665817260742188e+01 -1.537362003326416016e+01 -3.828194856643676758e+00 5.932513236999511719e+00 6.312955617904663086e-01 2.675623178482055664e+00
1.507000000000000000e+03 5.134103012084960938e+01 -1.603458404541015625e+01 -6.565643310546875000e+00 -1.858890354633331299e-01 -2.025459766387939453e+00 -1.246060967445373535e+00
1.508000000000000000e+03 3.459330749511718750e+01 -1.146455669403076172e+01 -2.894012033939361572e-01 1.006627678871154785e+00 2.151679396629333496e-01 1.396685004234313965e+00
1.509000000000000000e+03 3.095308876037597656e+01 -1.467130851745605469e+01 -9.142696857452392578e-01 1.674085140228271484e+00 2.279446274042129517e-01 7.811660766601562500e-01
1.510000000000000000e+03 3.828611755371093750e+01 -1.254889297485351562e+01 -1.624700427055358887e+00 1.331816911697387695e+00 -8.786506950855255127e-02 7.695436011999845505e-03
1.511000000000000000e+03 2.990548706054687500e+01 -1.531498146057128906e+01 -4.537609517574310303e-01 1.690441966056823730e+00 3.710042834281921387e-01 5.760862231254577637e-01
1.512000000000000000e+03 3.047100830078125000e+01 -1.635644721984863281e+01 4.028510451316833496e-01 2.041490077972412109e+00 7.333023548126220703e-01 9.883626699447631836e-01
1.513000000000000000e+03 4.359883880615234375e+01 -2.664491653442382812e+01 -7.169577479362487793e-01 3.039679527282714844e-01 -1.238969340920448303e-01 3.797480762004852295e-01
1.514000000000000000e+03 3.852058410644531250e+01 -2.859736061096191406e+01 -3.682942390441894531e-01 4.860485553741455078e+00 1.347657442092895508e+00 1.735933661460876465e+00
1.515000000000000000e+03 2.782395172119140625e+01 -2.034585762023925781e+01 6.762173175811767578e-01 2.319426059722900391e+00 8.986930251121520996e-01 3.425617218017578125e-01
1.516000000000000000e+03 4.004995727539062500e+01 -1.413111209869384766e+01 -2.774781942367553711e+00 6.066350340843200684e-01 -6.504440307617187500e-01 -6.613935828208923340e-01
1.517000000000000000e+03 2.889964675903320312e+01 -2.092003059387207031e+01 2.477787137031555176e-01 3.589624643325805664e+00 1.151221036911010742e+00 5.245828032493591309e-01
1.518000000000000000e+03 3.010164070129394531e+01 -2.709664154052734375e+01 -2.384330183267593384e-01 1.160865187644958496e+00 2.767296731472015381e-01 -3.166877627372741699e-01
1.519000000000000000e+03 3.938998794555664062e+01 -1.987559509277343750e+01 2.224617004394531250e-01 9.907954931259155273e-01 3.639771640300750732e-01 -1.782859712839126587e-01
1.520000000000000000e+03 4.052954483032226562e+01 -1.873466873168945312e+01 5.014890432357788086e-01 1.207097887992858887e+00 5.125760436058044434e-01 -1.682235300540924072e-01
1.521000000000000000e+03 2.955554962158203125e+01 -1.685152053833007812e+01 2.570330202579498291e-01 2.051183938980102539e+00 6.924650669097900391e-01 7.783306241035461426e-01
1.522000000000000000e+03 2.884427642822265625e+01 -1.780535507202148438e+01 5.534793734550476074e-01 2.237431526184082031e+00 8.372732996940612793e-01 6.504589319229125977e-01
1.523000000000000000e+03 5.399810028076171875e+01 2.646085357666015625e+01 1.794314026832580566e+00 8.884154319763183594e+00 3.203540563583374023e+00 -2.584287643432617188e+00
1.524000000000000000e+03 5.151705932617187500e+01 2.838320350646972656e+01 1.462240815162658691e+00 6.529185771942138672e+00 2.397428035736083984e+00 2.331435307860374451e-02
1.525000000000000000e+03 4.446158218383789062e+01 -1.735211181640625000e+01 1.126011312007904053e-01 4.990338325500488281e+00 1.530881881713867188e+00 1.448789119720458984e+00
1.526000000000000000e+03 4.725699996948242188e+01 -1.782813262939453125e+01 1.229470968246459961e+00 9.307941436767578125e+00 3.161223649978637695e+00 3.182332754135131836e+00
1.527000000000000000e+03 3.091957473754882812e+01 -2.813034057617187500e+01 -5.709080100059509277e-01 9.903735518455505371e-01 1.258396655321121216e-01 -2.638531029224395752e-01
1.528000000000000000e+03 6.260522460937500000e+01 2.513560295104980469e+01 2.808769941329956055e+00 7.746806621551513672e+00 3.166672945022583008e+00 4.507014751434326172e+00
1.529000000000000000e+03 6.512215423583984375e+01 2.594207191467285156e+01 2.485357522964477539e+00 5.353875160217285156e+00 2.351769924163818359e+00 1.591892957687377930e+00
1.530000000000000000e+03 2.785277557373046875e+01 1.049852943420410156e+01 1.917407959699630737e-01 4.616513252258300781e-01 1.960176378488540649e-01 -2.090629749000072479e-02
1.531000000000000000e+03 1.148785591125488281e+01 -1.252831363677978516e+01 1.280013099312782288e-02 1.221054140478372574e-02 7.503201719373464584e-03 -4.750316962599754333e-02
1.532000000000000000e+03 9.808205604553222656e+00 -1.160060882568359375e+01 -3.524993360042572021e-02 -1.281014829874038696e-01 -4.900542274117469788e-02 -1.010378897190093994e-01
1.533000000000000000e+03 1.370096874237060547e+01 6.737724781036376953e+00 -1.222568154335021973e+00 -3.462038934230804443e-01 -4.706316292285919189e-01 5.620850920677185059e-01
1.534000000000000000e+03 2.864607429504394531e+01 1.296912384033203125e+01 2.308434396982192993e-01 2.638252377510070801e-01 1.484006047248840332e-01 1.225333213806152344e-01
1.535000000000000000e+03 2.868050003051757812e+01 1.111488628387451172e+01 1.520447283983230591e-01 4.407777190208435059e-01 1.778467446565628052e-01 6.632409989833831787e-02
1.536000000000000000e+03 5.419525909423828125e+01 4.116952121257781982e-01 1.045620918273925781e+00 4.328247070312500000e+00 1.612160444259643555e+00 2.788993835449218750e+00
1.537000000000000000e+03 6.234562683105468750e+01 2.115184974670410156e+01 -2.404949188232421875e+00 6.471383571624755859e+00 1.219930291175842285e+00 3.807282686233520508e+00
1.538000000000000000e+03 6.111621475219726562e+01 2.116462135314941406e+01 -1.673668980598449707e+00 6.336813926696777344e+00 1.398943543434143066e+00 3.112941026687622070e+00
1.539000000000000000e+03 2.960234260559082031e+01 1.915221929550170898e+00 -9.559229016304016113e-01 4.448728263378143311e-01 -1.533150225877761841e-01 6.372518837451934814e-02
1.540000000000000000e+03 2.371738815307617188e+01 -1.698661804199218750e+01 9.569977223873138428e-02 4.974604398012161255e-02 4.363374412059783936e-02 -2.123603522777557373e-01
1.541000000000000000e+03 1.606109237670898438e+01 -3.972432327270507812e+01 1.038748584687709808e-02 6.284001469612121582e-02 2.196824923157691956e-02 -7.079285383224487305e-02
1.542000000000000000e+03 1.430000209808349609e+01 -3.788651657104492188e+01 7.356339693069458008e-02 1.721430271863937378e-01 7.371192425489425659e-02 -1.447480618953704834e-01
1.543000000000000000e+03 6.099179840087890625e+01 2.386716461181640625e+01 -6.853410601615905762e-01 3.480622291564941406e+00 8.385843038558959961e-01 2.358002662658691406e+00
1.544000000000000000e+03 2.454998016357421875e+01 -3.771168518066406250e+01 2.229653298854827881e-01 1.068801522254943848e+00 3.875300586223602295e-01 2.190169692039489746e-01
1.545000000000000000e+03 5.412803268432617188e+01 3.450297164916992188e+01 -6.059885621070861816e-01 5.240263462066650391e+00 1.390282511711120605e+00 9.887961745262145996e-01
1.546000000000000000e+03 4.701318740844726562e+01 3.208178329467773438e+01 2.753060162067413330e-01 4.326675891876220703e+00 1.380594611167907715e+00 -5.487361550331115723e-01
1.547000000000000000e+03 5.176628875732421875e+01 3.195018577575683594e+01 8.700487017631530762e-01 5.774328708648681641e+00 1.993313193321228027e+00 1.668131649494171143e-01
1.548000000000000000e+03 5.985275268554687500e+01 2.232955551147460938e+01 -2.510164737701416016e+00 3.022070646286010742e+00 1.535717546939849854e-01 2.497628927230834961e+00
1.549000000000000000e+03 5.986332702636718750e+01 7.174689769744873047e-01 -7.589754462242126465e-01 5.070380687713623047e+00 1.293421506881713867e+00 -2.188739061355590820e+00
1.550000000000000000e+03 5.445264434814453125e+01 2.381619834899902344e+01 -1.419747352600097656e+00 5.450897216796875000e+00 1.209344863891601562e+00 -2.112703323364257812e+00
1.551000000000000000e+03 1.656957626342773438e+01 -4.190193557739257812e+01 -3.901277377735823393e-04 1.980904489755630493e-02 5.825675558298826218e-03 -1.615118235349655151e-02
1.552000000000000000e+03 6.581962585449218750e+01 -1.692166519165039062e+01 -1.598759412765502930e+00 3.115568876266479492e+00 4.550428688526153564e-01 4.624095261096954346e-01
1.553000000000000000e+03 6.404664611816406250e+01 -1.591764163970947266e+01 -1.803637862205505371e+00 5.811721801757812500e+00 1.202425241470336914e+00 2.826904952526092529e-01
1.554000000000000000e+03 6.395860671997070312e+01 3.318943023681640625e+01 9.793474525213241577e-02 4.955767154693603516e+00 1.516110539436340332e+00 -1.228735446929931641e-01
1.555000000000000000e+03 5.615454864501953125e+01 3.482160568237304688e+01 2.670379579067230225e-01 2.186565637588500977e+00 7.360810637474060059e-01 9.777736663818359375e-01
1.556000000000000000e+03 5.446653747558593750e+01 3.644484710693359375e+01 -1.075847148895263672e+00 3.822352886199951172e+00 8.239517211914062500e-01 1.009817123413085938e+00
1.557000000000000000e+03 2.542765808105468750e+01 -3.076794815063476562e+01 5.697781965136528015e-02 1.371369123458862305e+00 4.285040795803070068e-01 -1.622848361730575562e-01
1.558000000000000000e+03 1.456563854217529297e+01 -1.421008396148681641e+01 1.850727945566177368e-01 4.106593132019042969e-01 1.787196248769760132e-01 -2.490203082561492920e-01
1.559000000000000000e+03 2.935578918457031250e+01 -9.952318191528320312e+00 3.787567019462585449e-01 5.115373134613037109e-01 2.670882046222686768e-01 5.879154205322265625e-01
1.560000000000000000e+03 2.757867813110351562e+01 -1.199435520172119141e+01 -4.755155742168426514e-01 4.110250771045684814e-01 -1.934714987874031067e-02 1.078203767538070679e-01
1.561000000000000000e+03 6.108603286743164062e+01 2.245034217834472656e+01 -3.092839002609252930e+00 5.443150043487548828e+00 7.050932645797729492e-01 3.559922218322753906e+00
1.562000000000000000e+03 6.531420898437500000e+01 2.854282951354980469e+01 1.636366248130798340e+00 6.116322040557861328e+00 2.325806379318237305e+00 1.780150651931762695e+00
1.563000000000000000e+03 6.368870162963867188e+01 2.943425559997558594e+01 1.667096167802810669e-01 7.622847080230712891e+00 2.336866855621337891e+00 2.562088668346405029e-01
1.564000000000000000e+03 6.629601287841796875e+01 2.992808914184570312e+01 1.380857467651367188e+00 5.380393028259277344e+00 2.028375148773193359e+00 1.325157046318054199e+00
1.565000000000000000e+03 2.685939407348632812e+01 -3.513010406494140625e+01 1.388124674558639526e-01 1.347043871879577637e+00 4.457569122314453125e-01 4.657032713294029236e-02
1.566000000000000000e+03 5.598474502563476562e+01 2.316820716857910156e+01 -2.307770729064941406e+00 3.115657806396484375e+00 2.423661649227142334e-01 -1.830184221267700195e+00
1.567000000000000000e+03 1.351016139984130859e+01 -3.108801841735839844e+01 6.395156681537628174e-02 2.731831371784210205e-01 1.011404097080230713e-01 8.943155407905578613e-02
1.568000000000000000e+03 1.080629539489746094e+01 -3.562281799316406250e+01 3.825879469513893127e-02 1.233363226056098938e-01 4.847853630781173706e-02 -1.580396434292197227e-03
1.569000000000000000e+03 2.805721473693847656e+01 -2.592670249938964844e+01 -1.382428556680679321e-01 1.671539425849914551e+00 4.599889814853668213e-01 -4.448930546641349792e-02
1.570000000000000000e+03 2.065255165100097656e+01 -4.061396789550781250e+01 -2.197403460741043091e-02 7.779846340417861938e-02 1.674732938408851624e-02 -3.863739594817161560e-02
1.571000000000000000e+03 6.231857299804687500e+01 4.428786754608154297e+00 -7.364265322685241699e-01 4.053626537322998047e+00 9.951599836349487305e-01 -1.675022006034851074e+00
1.572000000000000000e+03 6.611878204345703125e+01 3.321428298950195312e+00 2.872225642204284668e-01 2.264731884002685547e+00 7.655863165855407715e-01 1.106404066085815430e+00
1.573000000000000000e+03 6.063367462158203125e+01 1.207431030273437500e+01 4.925426244735717773e-01 9.323690414428710938e+00 2.944869756698608398e+00 -4.358034729957580566e-01
1.574000000000000000e+03 1.327124691009521484e+01 -2.943237113952636719e+01 1.105503663420677185e-01 1.677490919828414917e-01 8.348983526229858398e-02 6.444957852363586426e-02
1.575000000000000000e+03 7.221212768554687500e+01 -1.250337696075439453e+01 -1.783889770507812500e+00 5.604638457298278809e-01 -3.670277595520019531e-01 -5.341674685478210449e-01
1.576000000000000000e+03 7.161132812500000000e+01 -1.373541927337646484e+01 -2.416425347328186035e-01 1.010465025901794434e+00 2.306467592716217041e-01 -9.222769141197204590e-01
1.577000000000000000e+03 2.135895347595214844e+01 -2.709497833251953125e+01 -8.708658069372177124e-02 -7.602024078369140625e-02 -4.893204569816589355e-02 9.720110893249511719e-02
1.578000000000000000e+03 1.157408618927001953e+01 -3.332694244384765625e+01 3.609918430447578430e-02 2.272428423166275024e-01 7.900260388851165771e-02 -1.487149577587842941e-02
1.579000000000000000e+03 1.538909626007080078e+01 -2.519522285461425781e+01 1.864268630743026733e-01 -2.173737436532974243e-02 4.940684512257575989e-02 3.353201597929000854e-02
1.580000000000000000e+03 1.225442981719970703e+01 -2.365516281127929688e+01 1.392492209561169147e-03 -8.700088411569595337e-02 -2.568251825869083405e-02 -1.132477372884750366e-01
1.581000000000000000e+03 2.326414299011230469e+01 -2.520061683654785156e+01 2.345906496047973633e-01 5.272661447525024414e-01 2.285570353269577026e-01 3.174286708235740662e-02
1.582000000000000000e+03 2.509499740600585938e+01 -3.486766433715820312e+01 5.487719923257827759e-02 1.451153397560119629e+00 4.518091678619384766e-01 1.385434530675411224e-02
1.583000000000000000e+03 2.691169548034667969e+01 -3.109834098815917969e+01 7.271723449230194092e-02 1.315477371215820312e+00 4.164583981037139893e-01 -1.059348657727241516e-01
1.584000000000000000e+03 5.260327148437500000e+01 -6.248732566833496094e+00 1.681707024574279785e+00 1.149693393707275391e+01 3.953592300415039062e+00 -2.374802350997924805e+00
1.585000000000000000e+03 5.173014831542968750e+01 -3.971005916595458984e+00 1.468947768211364746e+00 1.059355545043945312e+01 3.618751049041748047e+00 -6.337162107229232788e-03
1.586000000000000000e+03 1.696359634399414062e+01 -7.014737606048583984e+00 -2.439929544925689697e-02 4.447425007820129395e-01 1.261029690504074097e-01 -8.535400964319705963e-03
1.587000000000000000e+03 2.972550010681152344e+01 -8.644452095031738281e+00 1.514421999454498291e-01 -5.122844576835632324e-01 -1.082526743412017822e-01 4.399455189704895020e-01
1.588000000000000000e+03 6.136196136474609375e+01 -6.201280593872070312e+00 6.416057348251342773e-01 1.076039409637451172e+01 3.420600175857543945e+00 4.339393079280853271e-01
1.589000000000000000e+03 6.451848602294921875e+01 -2.852755546569824219e+01 2.528212785720825195e+00 8.643163681030273438e+00 3.351413011550903320e+00 -4.560279369354248047e+00
1.590000000000000000e+03 3.233201980590820312e+01 -4.743038177490234375e+00 8.319327831268310547e-01 -6.657250523567199707e-01 4.986230656504631042e-02 -3.000712692737579346e-01
1.591000000000000000e+03 5.573502731323242188e+01 -9.637413978576660156e+00 2.171757459640502930e+00 2.271964788436889648e+00 1.333116650581359863e+00 -2.142291545867919922e+00
1.592000000000000000e+03 5.637654113769531250e+01 -1.113643455505371094e+01 7.231284976005554199e-01 2.719746589660644531e+00 1.032862544059753418e+00 -2.255362510681152344e+00
1.593000000000000000e+03 2.622690582275390625e+01 -1.469214057922363281e+01 -6.184096336364746094e-01 4.948391020298004150e-01 -3.707115724682807922e-02 1.238351464271545410e-01
1.594000000000000000e+03 7.364342498779296875e+01 -2.417449569702148438e+01 1.504085659980773926e+00 1.184018611907958984e+01 4.003281593322753906e+00 2.100794315338134766e+00
1.595000000000000000e+03 7.287764739990234375e+01 -2.523030281066894531e+01 7.955700755119323730e-01 5.868901729583740234e+00 1.999341607093811035e+00 2.348356723785400391e+00
1.596000000000000000e+03 1.549666023254394531e+01 -6.483346939086914062e+00 1.908795386552810669e-01 2.974783480167388916e-01 1.465073674917221069e-01 -3.685473650693893433e-02
1.597000000000000000e+03 5.317428970336914062e+01 2.565699577331542969e+01 1.201619505882263184e+00 6.082923412322998047e+00 2.185362815856933594e+00 -8.451400399208068848e-01
1.598000000000000000e+03 4.843922805786132812e+01 2.001910591125488281e+01 -3.082907199859619141e+00 9.453660249710083008e-01 -6.412622928619384766e-01 7.676151394844055176e-01
1.599000000000000000e+03 2.033157730102539062e+01 3.334183883666992188e+01 5.471090972423553467e-02 4.866549968719482422e-01 1.624097824096679688e-01 -1.645243614912033081e-01
1.600000000000000000e+03 1.970698738098144531e+01 3.042749595642089844e+01 3.065149765461683273e-03 3.246937096118927002e-01 9.832765907049179077e-02 -3.585930913686752319e-02
1.601000000000000000e+03 2.936058425903320312e+01 -1.431759738922119141e+01 -7.657178044319152832e-01 1.686249256134033203e+00 2.761594653129577637e-01 5.860865116119384766e-01
1.602000000000000000e+03 6.971980285644531250e+01 -1.207414054870605469e+01 -7.197816967964172363e-01 8.838576823472976685e-02 -1.894187778234481812e-01 -8.639692664146423340e-01
1.603000000000000000e+03 6.848339843750000000e+01 -1.178096389770507812e+01 9.481735229492187500e-01 1.178254485130310059e+00 6.379284262657165527e-01 -1.150565505027770996e+00
1.604000000000000000e+03 1.880398750305175781e+01 -1.395654392242431641e+01 -3.043493330478668213e-01 1.835884898900985718e-01 -3.622825071215629578e-02 -1.345090121030807495e-01
1.605000000000000000e+03 1.660111236572265625e+01 -1.045409297943115234e+01 -4.072786122560501099e-02 2.563593983650207520e-01 6.468945741653442383e-02 -3.107805096078664064e-04
1.606000000000000000e+03 1.613583183288574219e+01 -1.204358768463134766e+01 -5.073089152574539185e-02 2.870818078517913818e-01 7.090527564287185669e-02 -6.600060500204563141e-03
1.607000000000000000e+03 3.107832527160644531e+01 -8.175348281860351562e+00 5.202241539955139160e-01 -1.118063628673553467e-01 1.225253343582153320e-01 1.002646088600158691e+00
1.608000000000000000e+03 3.159560966491699219e+01 -7.427852630615234375e+00 6.237352490425109863e-01 -3.283041715621948242e-01 8.862932026386260986e-02 6.859791874885559082e-01
1.609000000000000000e+03 7.553120422363281250e+01 1.331005477905273438e+01 1.049781084060668945e+00 8.109190940856933594e+00 2.747691631317138672e+00 6.036101579666137695e-01
1.610000000000000000e+03 1.930873298645019531e+01 2.595394134521484375e+01 4.899318516254425049e-01 1.070654869079589844e+00 4.681760072708129883e-01 5.399079322814941406e-01
1.611000000000000000e+03 1.849361419677734375e+01 2.492294311523437500e+01 7.190975546836853027e-01 7.472152113914489746e-01 4.398938119411468506e-01 6.601656079292297363e-01
1.612000000000000000e+03 6.840769958496093750e+01 -2.616324615478515625e+01 -2.908363103866577148e+00 1.027380943298339844e+00 -5.642946362495422363e-01 -3.144288063049316406e-01
1.613000000000000000e+03 6.687418365478515625e+01 -2.656995582580566406e+01 -2.045878648757934570e+00 6.429413318634033203e+00 1.315060377120971680e+00 -2.771844148635864258e+00
1.614000000000000000e+03 1.182272338867187500e+01 1.986067581176757812e+01 4.292654991149902344e-01 3.288492858409881592e-01 2.274344414472579956e-01 3.510688543319702148e-01
1.615000000000000000e+03 8.243473052978515625e+00 2.345304107666015625e+01 -1.850629746913909912e-01 -1.581068038940429688e-01 -1.029509305953979492e-01 1.218966096639633179e-01
1.616000000000000000e+03 6.512063598632812500e+01 -6.268616676330566406e+00 8.527807593345642090e-01 1.179552459716796875e+01 3.794491529464721680e+00 2.107967138290405273e-01
1.617000000000000000e+03 7.810207366943359375e+01 1.695360565185546875e+01 -4.075851663947105408e-02 7.199173450469970703e+00 2.147524595260620117e+00 8.083025813102722168e-01
1.618000000000000000e+03 7.555701446533203125e+01 1.451317977905273438e+01 6.823855042457580566e-01 7.908185958862304688e+00 2.577171564102172852e+00 9.441434144973754883e-01
1.619000000000000000e+03 5.865519714355468750e+01 3.078027725219726562e+00 -5.434747934341430664e-01 4.371513843536376953e+00 1.148411750793457031e+00 -1.539588212966918945e+00
1.620000000000000000e+03 4.549727630615234375e+01 1.668463897705078125e+01 1.225680947303771973e+00 6.834940910339355469e+00 2.418186664581298828e+00 2.453191280364990234e+00
1.621000000000000000e+03 5.889579391479492188e+01 -1.002984237670898438e+01 -2.342757433652877808e-01 1.228885293006896973e+00 2.983828783035278320e-01 9.374275803565979004e-01
1.622000000000000000e+03 6.509819793701171875e+01 -9.899294853210449219e+00 4.044408202171325684e-01 7.641607284545898438e+00 2.413814306259155273e+00 -7.527227997779846191e-01
1.623000000000000000e+03 6.237643814086914062e+01 1.983505439758300781e+01 9.011611938476562500e-01 7.411579608917236328e+00 2.493822336196899414e+00 3.948885679244995117e+00
1.624000000000000000e+03 8.875453948974609375e+00 -2.433981132507324219e+01 1.034788191318511963e-01 7.115701586008071899e-02 5.239075049757957458e-02 -1.653325408697128296e-01
1.625000000000000000e+03 6.937468647956848145e-01 -2.473974418640136719e+01 9.678742848336696625e-03 -6.018635034561157227e-01 -1.776554286479949951e-01 3.615523921325802803e-03
1.626000000000000000e+03 5.320907592773437500e+00 -2.082187271118164062e+01 1.530450731515884399e-01 8.574365824460983276e-02 7.163661718368530273e-02 -1.446910202503204346e-01
1.627000000000000000e+03 7.413689422607421875e+01 -1.061807155609130859e+01 -3.262621760368347168e-01 4.022812366485595703e+00 1.108965039253234863e+00 1.379190564155578613e+00
1.628000000000000000e+03 7.722931385040283203e+00 3.536024475097656250e+01 1.611591279506683350e-01 -3.799714148044586182e-02 3.694859519600868225e-02 1.140834484249353409e-02
1.629000000000000000e+03 1.130398941040039062e+01 3.541236877441406250e+01 2.203307747840881348e-01 2.543969266116619110e-02 7.373113930225372314e-02 1.008950695395469666e-01
1.630000000000000000e+03 7.830613708496093750e+01 -2.754400253295898438e+01 -1.802291870117187500e-01 7.599549770355224609e+00 2.225796222686767578e+00 -1.813578605651855469e-01
1.631000000000000000e+03 7.060832977294921875e+01 6.589545249938964844e+00 2.687827683985233307e-02 5.081987380981445312e+00 1.532659649848937988e+00 1.992950558662414551e+00
1.632000000000000000e+03 7.118481445312500000e+01 8.241187095642089844e+00 1.798752546310424805e+00 6.806741237640380859e+00 2.581648111343383789e+00 2.810009479522705078e+00
1.633000000000000000e+03 7.320040130615234375e+01 8.752078056335449219e+00 8.947628140449523926e-01 8.803278923034667969e+00 2.909412622451782227e+00 1.571253687143325806e-02
1.634000000000000000e+03 6.170198822021484375e+01 -2.389716339111328125e+01 1.964528560638427734e+00 3.357751846313476562e+00 1.596684098243713379e+00 -1.322453260421752930e+00
1.635000000000000000e+03 5.365052795410156250e+01 -8.045141220092773438e+00 2.819190263748168945e+00 5.685840606689453125e+00 2.551509380340576172e+00 -3.331179857254028320e+00
1.636000000000000000e+03 5.927394390106201172e+00 2.666819953918457031e+01 -1.059776544570922852e-01 -7.885822653770446777e-01 -2.683679759502410889e-01 1.829766333103179932e-01
1.637000000000000000e+03 7.106689453125000000e+01 1.837644195556640625e+01 -1.382486939430236816e+00 5.447683811187744141e+00 1.219559073448181152e+00 -9.149288535118103027e-01
1.638000000000000000e+03 1.443822574615478516e+01 3.829906082153320312e+01 9.260720759630203247e-02 8.079600334167480469e-02 5.202096328139305115e-02 5.445138365030288696e-02
1.639000000000000000e+03 6.152068710327148438e+01 1.742241287231445312e+01 2.897660017013549805e+00 1.235131549835205078e+01 4.574692726135253906e+00 5.311159610748291016e+00
1.640000000000000000e+03 2.009795570373535156e+01 1.564421272277832031e+01 -2.779103815555572510e-01 -1.909646689891815186e-01 -1.406625062227249146e-01 2.509693205356597900e-01
1.641000000000000000e+03 2.127830505371093750e+01 1.607578468322753906e+01 -2.030534297227859497e-01 4.327274262905120850e-01 6.890220195055007935e-02 -2.684289589524269104e-03
1.642000000000000000e+03 5.662844848632812500e+01 -2.228411483764648438e+01 2.301216840744018555e+00 8.044012069702148438e+00 3.103568553924560547e+00 8.735744357109069824e-01
1.643000000000000000e+03 5.912438583374023438e+01 -2.714796257019042969e+01 -2.849987506866455078e+00 1.946402430534362793e+00 -2.710755169391632080e-01 5.250925421714782715e-01
1.644000000000000000e+03 6.761083221435546875e+01 3.844188213348388672e+00 2.296898365020751953e-01 1.705312132835388184e+00 5.805006027221679688e-01 2.116695880889892578e+00
1.645000000000000000e+03 7.038295745849609375e+01 7.499724626541137695e-01 3.025198876857757568e-01 1.408349752426147461e+00 5.132609009742736816e-01 1.706818222999572754e+00
1.646000000000000000e+03 5.887282943725585938e+01 -1.162231636047363281e+01 6.238082051277160645e-01 3.155381679534912109e+00 1.133756995201110840e+00 1.097288370132446289e+00
1.647000000000000000e+03 2.810425043106079102e+00 2.207786369323730469e+01 1.487541198730468750e-02 -7.519201040267944336e-01 -2.211133986711502075e-01 -8.639100939035415649e-03
1.648000000000000000e+03 7.012619781494140625e+01 1.939371681213378906e+01 -2.482793807983398438e+00 3.620425462722778320e+00 3.412895202636718750e-01 -6.266328096389770508e-01
1.649000000000000000e+03 6.890586853027343750e+00 1.299183559417724609e+01 4.768648371100425720e-02 -2.313987165689468384e-01 -5.511366948485374451e-02 5.200954079627990723e-01
1.650000000000000000e+03 7.317634582519531250e+01 1.304155635833740234e+01 1.288412213325500488e+00 1.124407958984375000e+01 3.759747505187988281e+00 4.274078011512756348e-01
1.651000000000000000e+03 7.211952209472656250e+01 1.250806427001953125e+01 6.217503547668457031e-01 1.419678974151611328e+01 4.445561885833740234e+00 4.113892018795013428e-01
1.652000000000000000e+03 7.369055938720703125e+01 -2.075671768188476562e+01 4.935909211635589600e-01 1.302459907531738281e+01 4.055457115173339844e+00 -1.305810809135437012e+00
1.653000000000000000e+03 7.943229675292968750e+01 -1.674653053283691406e+01 2.960226126015186310e-02 8.926071166992187500e+00 2.686702013015747070e+00 3.456226289272308350e-01
1.654000000000000000e+03 6.066810989379882812e+01 8.165165901184082031e+00 -2.463950961828231812e-01 5.285307407379150391e+00 1.511673688888549805e+00 -7.589629888534545898e-01
1.655000000000000000e+03 6.221257400512695312e+01 7.651021003723144531e+00 -8.124122023582458496e-01 3.139376401901245117e+00 6.980893015861511230e-01 -1.054583072662353516e+00
1.656000000000000000e+03 6.438632011413574219e+00 3.125094795227050781e+01 3.410113044083118439e-03 -2.400013953447341919e-01 -7.097738236188888550e-02 2.597905462607741356e-03
1.657000000000000000e+03 6.074129867553710938e+01 -4.034076309204101562e+01 -1.442902326583862305e+00 -3.345645368099212646e-01 -5.332400202751159668e-01 -4.352843463420867920e-01
1.658000000000000000e+03 6.006913757324218750e+01 -3.857368087768554688e+01 -3.129444122314453125e+00 7.454414963722229004e-01 -7.152007818222045898e-01 3.411467000842094421e-02
1.659000000000000000e+03 4.993259048461914062e+01 5.559483528137207031e+00 -5.772313594818115234e+00 -5.394808053970336914e-01 -1.893538355827331543e+00 1.366723299026489258e+00
1.660000000000000000e+03 4.530557632446289062e+01 -2.605944252014160156e+01 -1.190317988395690918e+00 2.444328069686889648e+00 3.762030601501464844e-01 -7.889778017997741699e-01
1.661000000000000000e+03 4.684334564208984375e+01 -1.913582420349121094e+01 1.501527428627014160e+00 1.184678936004638672e+01 4.004495143890380859e+00 3.093354463577270508e+00
1.662000000000000000e+03 6.327043151855468750e+01 -8.006183058023452759e-02 1.639581620693206787e-01 6.082989215850830078e+00 1.874084234237670898e+00 -1.634482890367507935e-01
1.663000000000000000e+03 6.642969512939453125e+01 -1.525556850433349609e+01 -1.128497362136840820e+00 2.223162889480590820e+00 3.283996284008026123e-01 5.555830597877502441e-01
1.664000000000000000e+03 6.476759338378906250e+01 -1.877439498901367188e+01 4.062725007534027100e-01 7.287831783294677734e+00 2.308231353759765625e+00 4.458032548427581787e-01
1.665000000000000000e+03 2.742358398437500000e+01 8.942782402038574219e+00 1.887230724096298218e-01 5.567153692245483398e-01 2.236315310001373291e-01 -1.345790922641754150e-01
1.666000000000000000e+03 6.143577575683593750e+01 -2.516313552856445312e+01 5.618121027946472168e-01 1.521331310272216797e+00 6.249430179595947266e-01 -1.172650933265686035e+00
1.667000000000000000e+03 7.941463470458984375e+01 -2.231083297729492188e+01 1.086277887225151062e-01 6.244874954223632812e+00 1.906050920486450195e+00 5.085725337266921997e-02
1.668000000000000000e+03 5.285775756835937500e+01 -2.889980077743530273e-01 1.279093742370605469e+00 5.929659843444824219e+00 2.162626028060913086e+00 2.072531461715698242e+00
1.669000000000000000e+03 5.233770370483398438e+01 -1.133699655532836914e+00 1.720508217811584473e+00 7.004105567932128906e+00 2.617384195327758789e+00 1.406094074249267578e+00
1.670000000000000000e+03 1.338417339324951172e+01 1.836471557617187500e+01 1.028213620185852051e+00 3.919899165630340576e-01 4.260610640048980713e-01 5.565673708915710449e-01
1.671000000000000000e+03 1.184496593475341797e+01 2.129169273376464844e+01 2.249311804771423340e-01 1.680621653795242310e-01 1.178980022668838501e-01 2.931722402572631836e-01
1.672000000000000000e+03 4.815082931518554688e+01 -4.845933437347412109e+00 -5.084478855133056641e-01 9.171887397766113281e+00 2.599031686782836914e+00 -2.157535314559936523e+00
1.673000000000000000e+03 6.337823104858398438e+01 -1.887436485290527344e+01 4.810006618499755859e-01 6.976847171783447266e+00 2.237354278564453125e+00 -1.066412568092346191e+00
1.674000000000000000e+03 5.318705368041992188e+01 -9.401192665100097656e+00 1.999238967895507812e+00 5.791850090026855469e+00 2.337326526641845703e+00 -2.396397829055786133e+00
1.675000000000000000e+03 5.703467941284179688e+01 9.190799713134765625e+00 1.561035275459289551e+00 8.581282615661621094e+00 3.042695283889770508e+00 8.383695483207702637e-01
1.676000000000000000e+03 7.821509552001953125e+01 -1.408807945251464844e+01 -3.916148841381072998e-01 9.154679298400878906e+00 2.628919363021850586e+00 3.625094890594482422e-01
1.677000000000000000e+03 1.642755985260009766e+00 -1.165579605102539062e+01 8.209518156945705414e-03 -9.253810346126556396e-02 -2.529857493937015533e-02 -5.704723764210939407e-03
1.678000000000000000e+03 2.038587379455566406e+01 2.681890678405761719e+01 3.598001301288604736e-01 9.082143902778625488e-01 3.804043531417846680e-01 4.472513794898986816e-01
1.679000000000000000e+03 7.579076886177062988e-01 3.204335403442382812e+01 -1.942495116963982582e-03 -1.228812575340270996e+00 -3.692265152931213379e-01 2.734118327498435974e-02
1.680000000000000000e+03 1.995448875427246094e+01 2.258815002441406250e+01 4.056485295295715332e-01 6.412920951843261719e-01 3.140821754932403564e-01 7.357855141162872314e-02
1.681000000000000000e+03 1.029262828826904297e+01 2.261340522766113281e+01 -1.695577800273895264e-01 -1.420015096664428711e-02 -5.512737855315208435e-02 7.809584587812423706e-02
1.682000000000000000e+03 7.426360130310058594e+00 2.165655326843261719e+01 3.099504485726356506e-02 -2.503021657466888428e-01 -6.579213589429855347e-02 5.803585425019264221e-02
1.683000000000000000e+03 1.822608566284179688e+01 2.206081581115722656e+01 5.475411415100097656e-01 3.737847805023193359e-01 2.763977646827697754e-01 1.860600411891937256e-01
1.684000000000000000e+03 1.905602455139160156e+01 3.346001052856445312e+01 7.355887908488512039e-03 3.162837922573089600e-01 9.709190577268600464e-02 -1.307330131530761719e-01
1.685000000000000000e+03 1.853908538818359375e+01 3.218081665039062500e+01 -3.500388562679290771e-02 1.232608705759048462e-01 2.647709473967552185e-02 -1.440304145216941833e-02
1.686000000000000000e+03 6.852168083190917969e+00 3.402880096435546875e+01 2.536836862564086914e-01 -1.243320405483245850e-01 3.880548849701881409e-02 5.525045096874237061e-02
1.687000000000000000e+03 3.936323881149291992e+00 3.602350616455078125e+01 6.910362839698791504e-02 -7.024183273315429688e-01 -1.899944096803665161e-01 -3.165289387106895447e-02
1.688000000000000000e+03 7.256827545166015625e+01 -1.450577831268310547e+01 -4.374248385429382324e-01 2.468522548675537109e+00 6.093293428421020508e-01 -4.375383853912353516e-01
1.689000000000000000e+03 7.140997314453125000e+01 -1.709543418884277344e+01 1.324813246726989746e+00 1.243289589881896973e+00 7.704308629035949707e-01 -1.171741127967834473e+00
1.690000000000000000e+03 2.052257537841796875e+01 7.550515174865722656e+00 4.456517696380615234e-01 1.201735883951187134e-01 1.697476059198379517e-01 2.004558742046356201e-01
1.691000000000000000e+03 1.899569511413574219e+01 3.465375137329101562e+01 3.757829219102859497e-02 3.909084796905517578e-01 1.285460293292999268e-01 -1.313145011663436890e-01
1.692000000000000000e+03 3.392920684814453125e+01 2.636064910888671875e+01 1.313133478164672852e+00 4.730093955993652344e+00 1.812968254089355469e+00 -8.188419938087463379e-01
1.693000000000000000e+03 1.821710205078125000e+01 3.585431289672851562e+01 6.370580196380615234e-02 2.831934392452239990e-01 1.040697693824768066e-01 -6.491512805223464966e-02
1.694000000000000000e+03 4.545685195922851562e+01 6.490803360939025879e-01 3.666768789291381836e+00 1.155525875091552734e+01 4.566608428955078125e+00 -5.369369685649871826e-02
1.695000000000000000e+03 1.452000331878662109e+01 3.671085357666015625e+01 1.035641953349113464e-01 6.737102754414081573e-03 3.309039026498794556e-02 6.814004480838775635e-02
1.696000000000000000e+03 1.628373718261718750e+01 1.834721374511718750e+01 -1.919994801282882690e-01 -1.619382947683334351e-01 -1.061813309788703918e-01 2.245408892631530762e-01
1.697000000000000000e+03 3.403132629394531250e+01 2.221183776855468750e+01 1.088404208421707153e-01 3.667273759841918945e+00 1.132834315299987793e+00 -7.620981931686401367e-01
1.698000000000000000e+03 2.170304107666015625e+01 2.906712341308593750e+01 2.744632959365844727e-01 7.195209860801696777e-01 2.981952726840972900e-01 2.879909574985504150e-01
1.699000000000000000e+03 2.086722373962402344e+01 2.929968261718750000e+01 1.339960396289825439e-01 6.990028023719787598e-01 2.498996406793594360e-01 1.997028887271881104e-01
1.700000000000000000e+03 1.691968917846679688e+01 2.285933303833007812e+01 7.915364503860473633e-01 3.401399850845336914e-01 3.395029306411743164e-01 4.306053221225738525e-01
1.701000000000000000e+03 1.433161544799804688e+01 2.292970085144042969e+01 6.422333121299743652e-01 1.002910733222961426e-01 2.227573245763778687e-01 2.904577255249023438e-01
1.702000000000000000e+03 8.233598470687866211e-01 2.906574630737304688e+01 -1.502458471804857254e-02 -1.055144667625427246e+00 -3.210507631301879883e-01 4.935817047953605652e-02
1.703000000000000000e+03 3.958970308303833008e+00 2.884962272644042969e+01 -4.161747172474861145e-02 -7.437101006507873535e-01 -2.355982810258865356e-01 1.235827356576919556e-01
1.704000000000000000e+03 5.040013790130615234e+00 2.781282806396484375e+01 -9.006720036268234253e-02 -7.678692936897277832e-01 -2.573809623718261719e-01 1.046132966876029968e-01
1.705000000000000000e+03 7.828964996337890625e+01 -1.545122528076171875e+01 -1.900676339864730835e-01 8.905585289001464844e+00 2.614655256271362305e+00 6.429437994956970215e-01
1.706000000000000000e+03 7.345768737792968750e+01 -1.654955291748046875e+01 -3.302615880966186523e-01 5.071336269378662109e+00 1.422322392463684082e+00 -1.940956413745880127e-01
1.707000000000000000e+03 7.085188865661621094e+00 3.268473863601684570e+00 -8.633179962635040283e-02 -4.838941246271133423e-02 -4.041636362671852112e-02 -1.226477976888418198e-02
1.708000000000000000e+03 1.314148616790771484e+01 2.157728195190429688e+01 3.210789859294891357e-01 1.930333971977233887e-01 1.542337089776992798e-01 4.049909114837646484e-01
1.709000000000000000e+03 6.884627819061279297e+00 2.277912902832031250e+01 -4.346866160631179810e-02 -3.058449327945709229e-01 -1.047940775752067566e-01 7.209058851003646851e-02
1.710000000000000000e+03 7.060327148437500000e+01 -1.342830371856689453e+01 -6.295567005872726440e-02 1.591128855943679810e-01 2.884716354310512543e-02 -1.593168377876281738e+00
1.711000000000000000e+03 3.724242782592773438e+01 3.386457061767578125e+01 -4.259954094886779785e-01 1.142740488052368164e+00 2.150235027074813843e-01 3.881049454212188721e-01
1.712000000000000000e+03 3.143016433715820312e+01 2.881557273864746094e+01 9.603537321090698242e-01 2.615460157394409180e+00 1.072744131088256836e+00 -1.065750241279602051e+00
1.713000000000000000e+03 6.412457275390625000e+01 -2.391680908203125000e+01 1.866244316101074219e+00 7.901066303253173828e+00 2.930193185806274414e+00 -2.735688447952270508e+00
1.714000000000000000e+03 6.505074310302734375e+01 -2.731864738464355469e+01 -1.393609404563903809e+00 9.005918502807617188e+00 2.283692598342895508e+00 -2.566411972045898438e+00
1.715000000000000000e+03 3.665229034423828125e+01 2.120640563964843750e+01 -2.962280809879302979e-01 2.962108612060546875e+00 7.997641563415527344e-01 -1.752557754516601562e+00
1.716000000000000000e+03 7.830862426757812500e+01 -2.374932098388671875e+01 3.611154556274414062e-01 7.272641658782958984e+00 2.290127038955688477e+00 -3.155003190040588379e-01
1.717000000000000000e+03 7.552222442626953125e+01 -2.433628654479980469e+01 9.056477546691894531e-01 8.641850471496582031e+00 2.864249229431152344e+00 -2.077628225088119507e-01
1.718000000000000000e+03 5.387951660156250000e+01 -2.482149314880371094e+01 -2.158341169357299805e+00 3.897331476211547852e+00 5.216970443725585938e-01 1.952424168586730957e+00
1.719000000000000000e+03 6.542710113525390625e+01 -4.970160484313964844e+00 1.184069037437438965e+00 1.080636692047119141e+01 3.597130775451660156e+00 2.064396381378173828e+00
1.720000000000000000e+03 6.595805358886718750e+01 -3.677779197692871094e+00 2.246677637100219727e+00 7.616735935211181641e+00 2.959024190902709961e+00 3.143757104873657227e+00
1.721000000000000000e+03 4.559831237792968750e+01 9.303383827209472656e+00 2.163958072662353516e+00 7.750324726104736328e+00 2.974284887313842773e+00 -3.263026952743530273e+00
1.722000000000000000e+03 4.472030639648437500e+01 1.120696926116943359e+01 1.291546344757080078e+00 1.127632141113281250e+01 3.770360469818115234e+00 -2.409363985061645508e+00
1.723000000000000000e+03 5.486217117309570312e+01 2.907917022705078125e+00 -4.713755846023559570e-01 4.831984519958496094e+00 1.308182716369628906e+00 2.347744226455688477e+00
1.724000000000000000e+03 5.194058227539062500e+01 5.670155048370361328e+00 -2.262459516525268555e+00 1.216881632804870605e+00 -3.136733472347259521e-01 1.851930737495422363e+00
1.725000000000000000e+03 7.115185546875000000e+01 -8.199371695518493652e-01 -2.237403631210327148e+00 2.072518691420555115e-02 -6.650035381317138672e-01 3.395421504974365234e-01
1.726000000000000000e+03 3.508507919311523438e+01 3.438321304321289062e+01 -6.719831824302673340e-01 2.249459505081176758e+00 4.732429087162017822e-01 1.003582179546356201e-01
1.727000000000000000e+03 7.292794036865234375e+01 -2.423469573259353638e-01 -9.770287871360778809e-01 3.156136751174926758e+00 6.537324190139770508e-01 -1.169189214706420898e+00
1.728000000000000000e+03 6.919872283935546875e+01 1.262483000755310059e+00 3.354131877422332764e-01 1.950340867042541504e+00 6.857262253761291504e-01 2.129449367523193359e+00
1.729000000000000000e+03 6.290894699096679688e+01 -3.833858108520507812e+01 -2.718621492385864258e+00 1.770385503768920898e-01 -7.624748945236206055e-01 -5.157749056816101074e-01
1.730000000000000000e+03 5.305062103271484375e+01 2.722685575485229492e+00 -7.711915969848632812e-01 4.922823905944824219e+00 1.245489716529846191e+00 3.327920913696289062e+00
1.731000000000000000e+03 5.441089630126953125e+01 6.663869380950927734e+00 1.803464174270629883e+00 8.644799232482910156e+00 3.134479045867919922e+00 2.930196046829223633e+00
1.732000000000000000e+03 7.760240173339843750e+01 3.358528137207031250e+01 4.152390733361244202e-02 7.272353172302246094e+00 2.194163084030151367e+00 1.080888062715530396e-01
1.733000000000000000e+03 7.917904663085937500e+01 3.631098937988281250e+01 2.438868861645460129e-03 7.814010620117187500e+00 2.344934701919555664e+00 4.261872917413711548e-02
1.734000000000000000e+03 7.698782348632812500e+01 -3.780442810058593750e+01 -1.937956176698207855e-02 7.458287715911865234e+00 2.231672525405883789e+00 -2.225930392742156982e-01
1.735000000000000000e+03 7.933169555664062500e+01 -3.464038848876953125e+01 -1.086635142564773560e-02 7.746607780456542969e+00 2.320722579956054688e+00 -8.843802846968173981e-03
1.736000000000000000e+03 7.942055511474609375e+01 -2.091147804260253906e+01 2.259414084255695343e-02 6.560846328735351562e+00 1.975032210350036621e+00 2.065243422985076904e-01
1.737000000000000000e+03 7.699257659912109375e+01 -2.882323074340820312e+01 -3.532943129539489746e-01 7.519914627075195312e+00 2.149986028671264648e+00 4.041253402829170227e-02
1.738000000000000000e+03 7.944241333007812500e+01 -2.777317810058593750e+01 -4.923054948449134827e-02 7.737679481506347656e+00 2.306534767150878906e+00 -9.977883100509643555e-02
1.739000000000000000e+03 7.939202117919921875e+01 -3.053127861022949219e+01 -7.113549858331680298e-03 7.837890625000000000e+00 2.349233150482177734e+00 7.223700638860464096e-03
1.740000000000000000e+03 7.803649139404296875e+01 -3.424592971801757812e+01 6.060812622308731079e-02 7.462359428405761719e+00 2.256890296936035156e+00 -4.199350625276565552e-02
1.741000000000000000e+03 7.805266571044921875e+01 -3.291508483886718750e+01 2.477400563657283783e-02 7.456122875213623047e+00 2.244269132614135742e+00 2.372312545776367188e-02
1.742000000000000000e+03 7.454093933105468750e+01 -3.733772659301757812e+01 3.980650007724761963e-02 6.766612052917480469e+00 2.041925430297851562e+00 -5.443503856658935547e-01
1.743000000000000000e+03 7.609806823730468750e+01 -3.895885467529296875e+01 -5.204788967967033386e-02 7.453300952911376953e+00 2.220376014709472656e+00 -3.737542629241943359e-01
1.744000000000000000e+03 7.810108184814453125e+01 1.555152893066406250e+01 5.775602906942367554e-02 6.843824863433837891e+00 2.070474147796630859e+00 8.140916824340820312e-01
1.745000000000000000e+03 7.936321258544921875e+01 1.540197563171386719e+01 4.548436403274536133e-02 6.134212970733642578e+00 1.853909254074096680e+00 3.186971545219421387e-01
1.746000000000000000e+03 7.942992401123046875e+01 2.233220481872558594e+01 -1.018133666366338730e-02 8.465861320495605469e+00 2.536704063415527344e+00 1.154015026986598969e-02
1.747000000000000000e+03 7.766313171386718750e+01 3.213975524902343750e+01 9.779932349920272827e-02 7.255262851715087891e+00 2.205918788909912109e+00 5.273642763495445251e-02
1.748000000000000000e+03 7.800038146972656250e+01 2.785497283935546875e+01 3.507144004106521606e-02 7.427029609680175781e+00 2.238630294799804688e+00 -1.850660890340805054e-01
1.749000000000000000e+03 7.933620452880859375e+01 2.787545204162597656e+01 2.161278203129768372e-02 7.810447216033935547e+00 2.349617958068847656e+00 -7.241949439048767090e-02
1.750000000000000000e+03 7.820294952392578125e+01 2.510405349731445312e+01 -5.436859652400016785e-02 7.746160030364990234e+00 2.307537555694580078e+00 -2.179962545633316040e-01
1.751000000000000000e+03 7.826528167724609375e+01 2.374458503723144531e+01 -3.901541605591773987e-02 7.880839347839355469e+00 2.352547168731689453e+00 -1.575347036123275757e-01
1.752000000000000000e+03 7.316823577880859375e+01 1.645398139953613281e+01 -8.031608164310455322e-02 8.753209114074707031e+00 2.601867914199829102e+00 5.492933988571166992e-01
1.753000000000000000e+03 7.683522033691406250e+01 1.853739166259765625e+01 -4.493787586688995361e-01 7.699929237365722656e+00 2.175165176391601562e+00 7.948254346847534180e-01
1.754000000000000000e+03 7.434817504882812500e+01 9.713479995727539062e+00 1.027336478233337402e+00 8.506983757019042969e+00 2.860296249389648438e+00 -3.131168186664581299e-01
1.755000000000000000e+03 7.568596649169921875e+01 1.091114521026611328e+01 1.225031137466430664e+00 7.758670330047607422e+00 2.695110321044921875e+00 -1.462400853633880615e-01
1.756000000000000000e+03 7.805968475341796875e+01 9.692200660705566406e+00 2.033359408378601074e-01 6.372156620025634766e+00 1.972647786140441895e+00 -5.511628389358520508e-01
1.757000000000000000e+03 7.934455871582031250e+01 9.736458778381347656e+00 5.953194573521614075e-02 5.480834007263183594e+00 1.662109851837158203e+00 -2.044770717620849609e-01
1.758000000000000000e+03 7.473982238769531250e+01 -1.673156929016113281e+01 -4.006047844886779785e-01 7.085953235626220703e+00 2.005604505538940430e+00 4.632892906665802002e-01
1.759000000000000000e+03 7.939965057373046875e+01 -1.397408485412597656e+01 -9.878645837306976318e-02 1.010004901885986328e+01 3.000378847122192383e+00 6.961887329816818237e-02
1.760000000000000000e+03 7.942263031005859375e+01 -1.951821136474609375e+01 8.375580608844757080e-02 7.211985588073730469e+00 2.188722372055053711e+00 3.361285626888275146e-01
1.761000000000000000e+03 7.709847259521484375e+01 -2.217802429199218750e+01 6.895264387130737305e-01 7.956825256347656250e+00 2.593905448913574219e+00 1.726576536893844604e-01
1.762000000000000000e+03 7.932926940917968750e+01 -6.994893550872802734e+00 2.321556657552719116e-01 7.048597335815429688e+00 2.184225797653198242e+00 -1.234483122825622559e-01
1.763000000000000000e+03 7.935904693603515625e+01 -5.591409206390380859e+00 1.101259142160415649e-01 7.178344249725341797e+00 2.186541080474853516e+00 2.403580993413925171e-01
1.764000000000000000e+03 7.812959289550781250e+01 -4.696598649024963379e-02 -3.326229155063629150e-01 8.501137733459472656e+00 2.450554370880126953e+00 1.082436367869377136e-02
1.765000000000000000e+03 7.937194061279296875e+01 1.374930381774902344e+00 -9.803374856710433960e-02 9.105370521545410156e+00 2.702201128005981445e+00 -1.098780259490013123e-01
1.766000000000000000e+03 7.806260681152343750e+01 8.303243637084960938e+00 1.269454360008239746e-01 6.637229919433593750e+00 2.029252767562866211e+00 -7.178372740745544434e-01
1.767000000000000000e+03 7.787404632568359375e+01 2.926676177978515625e+01 9.152107685804367065e-02 7.334568023681640625e+00 2.227826595306396484e+00 -1.195537969470024109e-01
1.768000000000000000e+03 7.869757080078125000e+01 4.025243759155273438e+01 -7.177032530307769775e-02 7.781693935394287109e+00 2.312977075576782227e+00 -7.309773564338684082e-02
1.769000000000000000e+03 7.582081604003906250e+01 3.861529922485351562e+01 -2.036239057779312134e-01 7.111038208007812500e+00 2.072224140167236328e+00 2.119864821434020996e-01
1.770000000000000000e+03 7.583188629150390625e+01 3.679035949707031250e+01 -6.479381769895553589e-02 6.932106494903564453e+00 2.060193777084350586e+00 2.369203716516494751e-01
1.771000000000000000e+03 7.798439025878906250e+01 1.114108180999755859e+01 4.036096930503845215e-01 6.311257839202880859e+00 2.014460325241088867e+00 -1.329496651887893677e-01
1.772000000000000000e+03 7.811606597900390625e+01 1.334121465682983398e+00 -2.418905645608901978e-01 8.276195526123046875e+00 2.410291433334350586e+00 -3.978662490844726562e-01
1.773000000000000000e+03 7.808885192871093750e+01 2.711858987808227539e+00 -1.678575426340103149e-01 7.956944465637207031e+00 2.336725950241088867e+00 -5.845914483070373535e-01
1.774000000000000000e+03 7.555500793457031250e+01 -2.946787834167480469e+00 -3.697202205657958984e-01 8.502779960632324219e+00 2.439917802810668945e+00 -3.219958841800689697e-01
1.775000000000000000e+03 7.469164276123046875e+01 4.033739268779754639e-01 -9.069033265113830566e-01 6.077330589294433594e+00 1.551128149032592773e+00 -9.159147143363952637e-01
1.776000000000000000e+03 7.565722656250000000e+01 -5.432041168212890625e+00 1.237264633178710938e+00 1.209906864166259766e+01 4.000899791717529297e+00 -1.240746378898620605e+00
1.777000000000000000e+03 7.803309631347656250e+01 -1.266353607177734375e+01 -5.009067058563232422e-01 9.134083747863769531e+00 2.589953184127807617e+00 -2.867941260337829590e-01
1.778000000000000000e+03 7.608779907226562500e+01 -1.452159118652343750e+01 -9.462125897407531738e-01 7.785379409790039062e+00 2.051749944686889648e+00 6.891966462135314941e-01
1.779000000000000000e+03 7.590664672851562500e+01 -1.814024353027343750e+01 1.061039417982101440e-01 8.061075210571289062e+00 2.450153827667236328e+00 1.057118535041809082e+00
1.780000000000000000e+03 7.826270294189453125e+01 -1.954085731506347656e+01 1.068299636244773865e-01 7.712408542633056641e+00 2.345771551132202148e+00 7.972639203071594238e-01
1.781000000000000000e+03 7.788591766357421875e+01 -8.528795242309570312e+00 5.563707947731018066e-01 8.974607467651367188e+00 2.859293460845947266e+00 -9.227803945541381836e-01
1.782000000000000000e+03 7.801544189453125000e+01 -9.955398559570312500e+00 -2.983016334474086761e-02 9.183364868164062500e+00 2.746060371398925781e+00 -1.224124193191528320e+00
1.783000000000000000e+03 1.945900344848632812e+01 7.174136161804199219e+00 3.943981826305389404e-01 2.596628069877624512e-01 1.962182968854904175e-01 2.417376339435577393e-01
1.784000000000000000e+03 5.445220565795898438e+01 -3.409879302978515625e+01 1.642529964447021484e+00 7.293770313262939453e+00 2.680890083312988281e+00 8.102079033851623535e-01
1.785000000000000000e+03 5.559902954101562500e+01 -2.968398094177246094e+01 9.205088019371032715e-01 7.735698699951171875e+00 2.596862316131591797e+00 1.724997758865356445e+00
1.786000000000000000e+03 5.666984939575195312e+01 -3.046756362915039062e+01 1.899912238121032715e+00 1.032484245300292969e+01 3.667426347732543945e+00 3.718466520309448242e+00
1.787000000000000000e+03 4.497993087768554688e+01 2.138769721984863281e+01 -2.550070285797119141e+00 4.867399215698242188e+00 6.951987147331237793e-01 1.730808615684509277e+00
1.788000000000000000e+03 2.159441566467285156e+01 1.133423614501953125e+01 1.751739382743835449e-01 3.170607388019561768e-01 1.476704031229019165e-01 2.385084033012390137e-01
1.789000000000000000e+03 1.646307563781738281e+01 2.048062133789062500e+01 4.613858461380004883e-01 5.733832716941833496e-02 1.556172519922256470e-01 4.227719306945800781e-01
1.790000000000000000e+03 3.928896331787109375e+01 3.771658706665039062e+01 -1.946218907833099365e-01 1.004727125167846680e+00 2.430315911769866943e-01 5.340714007616043091e-02
1.791000000000000000e+03 7.485776519775390625e+01 -4.746188640594482422e+00 1.072358965873718262e+00 1.168488407135009766e+01 3.827172994613647461e+00 -2.465825557708740234e+00
1.792000000000000000e+03 2.008665657043457031e+01 1.906100654602050781e+01 3.421519398689270020e-01 3.671135008335113525e-01 2.127796411514282227e-01 -1.249214857816696167e-01
1.793000000000000000e+03 5.916397857666015625e+01 1.236123943328857422e+01 1.367205023765563965e+00 8.676463127136230469e+00 3.013100385665893555e+00 1.071906089782714844e+00
1.794000000000000000e+03 5.468270874023437500e+01 9.106638908386230469e+00 1.490354657173156738e+00 1.475696372985839844e+01 4.874195575714111328e+00 2.697696208953857422e+00
1.795000000000000000e+03 7.539659881591796875e+01 -6.666638851165771484e+00 6.519885659217834473e-01 1.409440612792968750e+01 4.423918247222900391e+00 -9.070122838020324707e-01
1.796000000000000000e+03 6.440410614013671875e+01 -4.471409320831298828e+00 1.985497713088989258e+00 9.123073577880859375e+00 3.332571268081665039e+00 6.279799938201904297e-01
1.797000000000000000e+03 6.607959747314453125e+01 -9.421920776367187500e+00 1.681827187538146973e+00 6.212439060211181641e+00 2.368279933929443359e+00 -3.069047927856445312e+00
1.798000000000000000e+03 3.536807250976562500e+01 2.077885818481445312e+01 -2.710212767124176025e-01 3.158325433731079102e+00 8.661912083625793457e-01 -1.393631577491760254e+00
1.799000000000000000e+03 8.449281692504882812e+00 1.308183860778808594e+01 1.474693417549133301e-01 -1.857527941465377808e-01 -1.148503273725509644e-02 4.817960262298583984e-01
1.800000000000000000e+03 4.633320999145507812e+01 1.796105003356933594e+01 7.063531279563903809e-01 4.286823272705078125e+00 1.497952938079833984e+00 1.846931457519531250e+00
1.801000000000000000e+03 9.215671539306640625e+00 1.655052566528320312e+01 5.869466662406921387e-01 1.164443045854568481e-01 2.110172957181930542e-01 3.591596484184265137e-01
1.802000000000000000e+03 2.244176673889160156e+01 1.356223487854003906e+01 -2.352860756218433380e-02 3.551099598407745361e-01 9.947440773248672485e-02 9.806185960769653320e-02
1.803000000000000000e+03 5.109965896606445312e+01 2.944433784484863281e+01 1.636788368225097656e+00 5.684906005859375000e+00 2.196508407592773438e+00 9.759762883186340332e-02
1.804000000000000000e+03 1.425881099700927734e+01 4.363695144653320312e+00 -5.424059629440307617e-01 -6.305168569087982178e-02 -1.816372871398925781e-01 6.332358121871948242e-01
1.805000000000000000e+03 1.616714668273925781e+01 3.957789421081542969e+00 -7.711368799209594727e-01 1.183316782116889954e-01 -1.958415657281875610e-01 6.560845971107482910e-01
1.806000000000000000e+03 9.958096504211425781e+00 7.940721035003662109e+00 -5.752820372581481934e-01 -4.756261408329010010e-01 -3.152724504470825195e-01 3.969109952449798584e-01
1.807000000000000000e+03 7.796198844909667969e+00 2.588181734085083008e+00 -2.883665449917316437e-02 -4.477162286639213562e-02 -2.208248339593410492e-02 -9.592370130121707916e-03
1.808000000000000000e+03 7.330861663818359375e+01 -1.330952739715576172e+01 -7.641980051994323730e-01 3.090201854705810547e+00 6.978011131286621094e-01 5.678244829177856445e-01
1.809000000000000000e+03 4.461833572387695312e+01 2.298966789245605469e+01 7.310497760772705078e-01 4.159807205200195312e+00 1.467257142066955566e+00 2.272194862365722656e+00
1.810000000000000000e+03 4.412381362915039062e+01 3.197072219848632812e+01 7.365040779113769531e-01 1.912374377250671387e+00 7.946635484695434570e-01 -1.224988460540771484e+00
1.811000000000000000e+03 3.551704025268554688e+01 3.093368339538574219e+01 4.245105981826782227e-01 3.874472141265869141e+00 1.289694786071777344e+00 9.102863669395446777e-01
1.812000000000000000e+03 5.478637313842773438e+01 1.181296825408935547e+01 4.890777766704559326e-01 1.149776840209960938e+01 3.596054077148437500e+00 -3.257224857807159424e-01
1.813000000000000000e+03 5.526556777954101562e+01 1.548203659057617188e+01 1.267671585083007812e+00 6.086725234985351562e+00 2.206319093704223633e+00 -6.740766167640686035e-01
1.814000000000000000e+03 4.493201065063476562e+01 3.310474014282226562e+01 -7.511705905199050903e-02 3.209095954895019531e+00 9.401937127113342285e-01 -1.138014674186706543e+00
1.815000000000000000e+03 5.724860382080078125e+01 -2.731225204467773438e+01 -2.452359437942504883e+00 7.185811042785644531e+00 1.420035481452941895e+00 1.659600138664245605e+00
1.816000000000000000e+03 4.544229507446289062e+01 1.891174125671386719e+01 -2.696447372436523438e+00 5.152607440948486328e+00 7.368480563163757324e-01 1.267359018325805664e+00
1.817000000000000000e+03 5.179337692260742188e+01 1.705308532714843750e+01 2.458999156951904297e-01 1.735248088836669922e+00 5.943443775177001953e-01 -1.215968966484069824e+00
1.818000000000000000e+03 6.730468750000000000e+01 -4.151758575439453125e+01 -1.694977760314941406e+00 4.743190765380859375e+00 9.144638776779174805e-01 -7.512547075748443604e-02
1.819000000000000000e+03 5.030496597290039062e+01 -3.112519073486328125e+01 2.292717695236206055e+00 5.743098258972167969e+00 2.410744905471801758e+00 -7.669448256492614746e-01
1.820000000000000000e+03 6.692192840576171875e+01 -3.302356338500976562e+01 9.105170369148254395e-01 8.521631240844726562e+00 2.829644441604614258e+00 -1.446050405502319336e+00
1.821000000000000000e+03 6.711541748046875000e+01 -3.057215499877929688e+01 2.907663106918334961e+00 6.759004116058349609e+00 2.900000095367431641e+00 -2.360903978347778320e+00
1.822000000000000000e+03 6.266617202758789062e+01 -7.740844726562500000e+00 1.911860704421997070e+00 8.776842117309570312e+00 3.206610918045043945e+00 2.933075129985809326e-01
1.823000000000000000e+03 6.453069305419921875e+01 -7.400983333587646484e+00 1.609454870223999023e+00 1.043096923828125000e+01 3.612127065658569336e+00 -7.793284654617309570e-01
1.824000000000000000e+03 4.197386169433593750e+01 1.112975692749023438e+01 1.795320510864257812e+00 5.898743629455566406e+00 2.308219194412231445e+00 -8.192271590232849121e-01
1.825000000000000000e+03 3.451779556274414062e+01 3.343099594116210938e+01 -3.759854435920715332e-01 2.888269901275634766e+00 7.536852955818176270e-01 5.848667770624160767e-02
1.826000000000000000e+03 2.879723167419433594e+01 3.161798095703125000e+01 5.850237607955932617e-01 1.481363773345947266e+00 6.199162602424621582e-01 -6.497901678085327148e-01
1.827000000000000000e+03 1.362682247161865234e+01 -1.326552772521972656e+01 1.078167781233787537e-01 2.040608972311019897e-01 9.356330335140228271e-02 -1.501109451055526733e-01
1.828000000000000000e+03 1.542100429534912109e+01 -1.523204326629638672e+01 1.701213568449020386e-01 5.123579502105712891e-01 2.047437876462936401e-01 -2.816146910190582275e-01
1.829000000000000000e+03 7.813507080078125000e+01 -4.212677955627441406e+00 1.005396768450737000e-01 8.566935539245605469e+00 2.600242614746093750e+00 7.570894360542297363e-01
1.830000000000000000e+03 4.374470901489257812e+01 1.404627132415771484e+01 1.415344476699829102e+00 8.240435600280761719e+00 2.896733999252319336e+00 -2.164666727185249329e-02
1.831000000000000000e+03 3.836771774291992188e+01 1.006216526031494141e+01 1.130907177925109863e+00 2.358571290969848633e+00 1.046843528747558594e+00 -1.375832796096801758e+00
1.832000000000000000e+03 6.646053314208984375e+01 -5.274780392646789551e-01 6.120120882987976074e-01 4.276550769805908203e+00 1.466568827629089355e+00 1.972567796707153320e+00
1.833000000000000000e+03 6.198472595214843750e+01 -2.880963087081909180e+00 2.004666328430175781e+00 8.438941001892089844e+00 3.133082151412963867e+00 -1.114198446273803711e+00
1.834000000000000000e+03 3.489284515380859375e+01 2.811801719665527344e+01 5.046465992927551270e-01 6.325584888458251953e+00 2.049069404602050781e+00 -3.589998483657836914e-01
1.835000000000000000e+03 5.676681518554687500e+01 -3.864936065673828125e+01 -2.045122146606445312e+00 5.735470294952392578e+00 1.107104420661926270e+00 -1.724676132202148438e+00
1.836000000000000000e+03 5.639717864990234375e+01 -2.840265274047851562e+01 -5.998044013977050781e-01 7.692970752716064453e+00 2.127949953079223633e+00 2.058209180831909180e+00
1.837000000000000000e+03 7.418929290771484375e+01 -1.002167701721191406e+00 -1.189755558967590332e+00 5.638477802276611328e+00 1.334616661071777344e+00 -9.506760239601135254e-01
1.838000000000000000e+03 7.352893829345703125e+01 -2.237284421920776367e+00 2.632891535758972168e-01 4.296247005462646484e+00 1.367860913276672363e+00 -1.213199615478515625e+00
1.839000000000000000e+03 6.717678833007812500e+01 -3.401171493530273438e+01 9.380813837051391602e-01 7.113094806671142578e+00 2.415352821350097656e+00 -1.201740860939025879e+00
1.840000000000000000e+03 7.193558502197265625e+01 -2.964903259277343750e+01 8.088278174400329590e-01 3.747044086456298828e+00 1.366761565208435059e+00 8.873925209045410156e-01
1.841000000000000000e+03 6.410471343994140625e+01 -2.638583183288574219e+01 -1.788962721824645996e+00 7.895702362060546875e+00 1.832021832466125488e+00 -2.849525451660156250e+00
1.842000000000000000e+03 3.618712234497070312e+01 2.241805839538574219e+01 -1.736480742692947388e-01 3.332835674285888672e+00 9.477562904357910156e-01 -1.509676694869995117e+00
1.843000000000000000e+03 4.580077743530273438e+01 3.239025878906250000e+01 4.854529723525047302e-02 4.014778137207031250e+00 1.218997120857238770e+00 -8.791097402572631836e-01
1.844000000000000000e+03 6.712860870361328125e+01 -1.176303768157958984e+01 5.715441703796386719e-01 2.962825298309326172e+00 1.060310840606689453e+00 -1.257010459899902344e+00
1.845000000000000000e+03 4.389076614379882812e+01 1.545347309112548828e+01 1.165125846862792969e+00 7.164906501770019531e+00 2.499009847640991211e+00 6.341894268989562988e-01
1.846000000000000000e+03 5.146751785278320312e+01 1.895128822326660156e+01 -2.367480993270874023e+00 2.804508686065673828e+00 1.311083287000656128e-01 -1.412388920783996582e+00
1.847000000000000000e+03 5.250545883178710938e+01 1.801575851440429688e+01 -7.014510035514831543e-01 3.255144834518432617e+00 7.661081552505493164e-01 -1.466984987258911133e+00
1.848000000000000000e+03 5.352468490600585938e+01 1.704348945617675781e+01 2.047449536621570587e-02 4.234263420104980469e+00 1.276421308517456055e+00 -1.827197194099426270e+00
1.849000000000000000e+03 5.597760009765625000e+01 1.151032733917236328e+01 1.013399362564086914e+00 1.013802433013916016e+01 3.345427274703979492e+00 8.155254721641540527e-01
1.850000000000000000e+03 5.909733200073242188e+01 1.115282154083251953e+01 1.023475408554077148e+00 8.241162300109863281e+00 2.779391288757324219e+00 8.039665222167968750e-01
1.851000000000000000e+03 5.151681900024414062e+00 -1.745245933532714844e+01 -1.132776811718940735e-01 -3.989612758159637451e-01 -1.536716818809509277e-01 -1.573482453823089600e-01
1.852000000000000000e+03 4.520095825195312500e+01 -1.567650508880615234e+01 -1.789987802505493164e+00 5.755208015441894531e+00 1.189566016197204590e+00 2.251384258270263672e+00
1.853000000000000000e+03 1.593031883239746094e+01 -1.851862907409667969e+01 -1.153532881289720535e-02 -4.598733037710189819e-02 -1.725679822266101837e-02 -1.444516479969024658e-01
1.854000000000000000e+03 1.740239715576171875e+01 -1.770426750183105469e+01 7.257999479770660400e-02 6.899669021368026733e-02 4.247300699353218079e-02 -4.148604869842529297e-01
1.855000000000000000e+03 1.326067543029785156e+01 -2.209826469421386719e+01 -2.483854591846466064e-01 -1.014260351657867432e-01 -1.049434468150138855e-01 -1.569509655237197876e-01
1.856000000000000000e+03 1.728946876525878906e+01 -1.155845928192138672e+01 -9.218584746122360229e-02 2.810943126678466797e-01 5.667253956198692322e-02 -2.004940621554851532e-02
1.857000000000000000e+03 1.553483390808105469e+01 -1.351527309417724609e+01 2.785041928291320801e-03 3.926221430301666260e-01 1.186221539974212646e-01 -9.995192289352416992e-02
1.858000000000000000e+03 5.448270797729492188e+01 -1.731931877136230469e+01 1.825825572013854980e+00 7.206546783447265625e+00 2.709711790084838867e+00 -2.890605211257934570e+00
1.859000000000000000e+03 5.546030044555664062e+01 -1.935554504394531250e+01 1.309036493301391602e+00 1.088842296600341797e+01 3.659237861633300781e+00 -1.863964319229125977e+00
1.860000000000000000e+03 5.080875015258789062e+01 -2.539495086669921875e+01 -5.112124919891357422e+00 2.267109453678131104e-01 -1.465624213218688965e+00 -2.413416951894760132e-01
1.861000000000000000e+03 8.769136428833007812e+00 -2.829289245605468750e+01 2.592567913234233856e-02 4.627137444913387299e-03 9.165844880044460297e-03 -8.673020452260971069e-02
1.862000000000000000e+03 5.201989746093750000e+01 -2.545915031433105469e+01 -5.395065784454345703e+00 4.772611856460571289e-01 -1.475341439247131348e+00 3.050875961780548096e-01
1.863000000000000000e+03 5.341095352172851562e+01 -1.439561367034912109e+01 -5.279195904731750488e-01 3.680954694747924805e+00 9.459105134010314941e-01 -3.905252933502197266e+00
1.864000000000000000e+03 1.625455093383789062e+01 -2.225805282592773438e+01 -2.096041338518261909e-03 -9.682536870241165161e-02 -2.967642433941364288e-02 -2.038230560719966888e-02
1.865000000000000000e+03 1.576231098175048828e+01 -2.101025962829589844e+01 -1.870886683464050293e-01 -2.573003470897674561e-01 -1.333166956901550293e-01 -1.501475274562835693e-01
1.866000000000000000e+03 1.281015491485595703e+01 -2.579854011535644531e+01 1.539229601621627808e-01 -3.946895524859428406e-02 3.433620184659957886e-02 -7.035245001316070557e-02
1.867000000000000000e+03 6.616334915161132812e-01 -2.619676589965820312e+01 -6.316002458333969116e-03 -5.933568477630615234e-01 -1.799018532037734985e-01 5.417304113507270813e-03
1.868000000000000000e+03 1.358301734924316406e+01 -2.319211387634277344e+01 -4.584983363747596741e-02 -1.472665518522262573e-01 -5.793491750955581665e-02 -1.335973590612411499e-01
1.869000000000000000e+03 1.986071109771728516e+00 -1.565795516967773438e+01 -3.494637832045555115e-02 -1.845833063125610352e-01 -6.585890054702758789e-02 -7.761948555707931519e-02
1.870000000000000000e+03 6.637119054794311523e-01 -1.612842559814453125e+01 -4.160054959356784821e-03 -1.378483772277832031e-01 -4.260252788662910461e-02 -2.738032490015029907e-02
1.871000000000000000e+03 1.678000068664550781e+01 -1.978257369995117188e+01 -1.220283508300781250e-01 1.514132227748632431e-02 -3.206610679626464844e-02 -2.163854539394378662e-01
1.872000000000000000e+03 1.704467582702636719e+01 -1.876721382141113281e+01 -5.166727676987648010e-02 6.553967297077178955e-02 4.161719232797622681e-03 -3.684268593788146973e-01
1.873000000000000000e+03 4.102824401855468750e+01 -2.118887329101562500e+01 6.954563260078430176e-01 2.669306993484497070e+00 1.009428977966308594e+00 1.151098489761352539e+00
1.874000000000000000e+03 4.689621353149414062e+01 -2.634069252014160156e+01 -1.569579124450683594e+00 3.611665248870849609e+00 6.126258373260498047e-01 -2.230126619338989258e+00
1.875000000000000000e+03 5.540600967407226562e+01 -2.203212165832519531e+01 1.438725948333740234e+00 1.335750389099121094e+01 4.438868999481201172e+00 1.853847384452819824e+00
1.876000000000000000e+03 5.703689956665039062e+01 -1.982621002197265625e+01 2.254283905029296875e+00 7.667191028594970703e+00 2.976442337036132812e+00 -1.278285533189773560e-01
1.877000000000000000e+03 5.532441711425781250e+01 -2.758390617370605469e+01 -1.923411011695861816e+00 7.276279926300048828e+00 1.605860710144042969e+00 1.526506066322326660e+00
1.878000000000000000e+03 1.399913907051086426e+00 -4.007495498657226562e+01 1.779365539550781250e-02 -4.576695859432220459e-01 -1.319627761840820312e-01 2.864237315952777863e-02
1.879000000000000000e+03 5.424633026123046875e-01 3.761075210571289062e+01 3.263865038752555847e-02 -1.256263613700866699e+00 -3.670874834060668945e-01 -2.468065544962882996e-02
1.880000000000000000e+03 2.042209148406982422e+00 3.685156250000000000e+01 3.914266824722290039e-02 -1.047624945640563965e+00 -3.025446832180023193e-01 -7.991240173578262329e-02
1.881000000000000000e+03 7.684985995292663574e-01 3.493843078613281250e+01 -1.979890046641230583e-03 -1.286541819572448730e+00 -3.865565061569213867e-01 -6.405209656804800034e-03
1.882000000000000000e+03 8.060817718505859375e-01 2.753481864929199219e+01 -1.115599647164344788e-02 -9.913910627365112305e-01 -3.007641136646270752e-01 2.867253124713897705e-02
1.883000000000000000e+03 6.404203772544860840e-01 2.610433769226074219e+01 -1.141936983913183212e-02 -9.503620862960815430e-01 -2.885344326496124268e-01 5.887796636670827866e-03
1.884000000000000000e+03 6.369215846061706543e-01 -3.604371643066406250e+01 -5.295278970152139664e-03 -5.344374775886535645e-01 -1.619198322296142578e-01 4.185334313660860062e-03
1.885000000000000000e+03 2.020324230194091797e+00 -3.332986068725585938e+01 4.380957223474979401e-03 -4.573454558849334717e-01 -1.358893513679504395e-01 9.045542217791080475e-03
1.886000000000000000e+03 5.180155634880065918e-01 2.335501670837402344e+01 -2.670368994586169720e-04 -9.733236432075500488e-01 -2.920771837234497070e-01 -8.837645873427391052e-03
1.887000000000000000e+03 2.290200471878051758e+00 2.696634292602539062e+01 -4.331373795866966248e-02 -8.662065863609313965e-01 -2.728561162948608398e-01 6.172197312116622925e-02
1.888000000000000000e+03 5.553851604461669922e+00 3.421980667114257812e+01 1.693938076496124268e-01 -4.327919185161590576e-01 -7.901943475008010864e-02 3.572858404368162155e-03
1.889000000000000000e+03 3.171272277832031250e+00 -2.906172561645507812e+01 1.328113838098943233e-03 -3.531659245491027832e-01 -1.055513471364974976e-01 -8.866304415278136730e-04
1.890000000000000000e+03 6.170984268188476562e+00 -2.442886352539062500e+01 7.058625668287277222e-02 2.199317142367362976e-02 2.777382917702198029e-02 -6.088074669241905212e-02
1.891000000000000000e+03 1.572723150253295898e+00 -1.031388950347900391e+01 -8.391038514673709869e-03 -8.043260872364044189e-02 -2.664709463715553284e-02 -3.537631360813975334e-03
1.892000000000000000e+03 7.350797057151794434e-01 -2.326102447509765625e+01 8.112737908959388733e-03 -5.940228104591369629e-01 -1.757730245590209961e-01 -1.460778713226318359e-02
1.893000000000000000e+03 2.060736894607543945e+00 -3.690415191650390625e+01 1.723915338516235352e-03 -4.499353468418121338e-01 -1.344634294509887695e-01 1.236835028976202011e-02
1.894000000000000000e+03 5.598425865173339844e-01 2.059985542297363281e+01 3.913286142051219940e-03 -1.004175901412963867e+00 -3.000787794589996338e-01 -1.594058005139231682e-03
1.895000000000000000e+03 5.864781141281127930e-01 1.919825172424316406e+01 6.321419030427932739e-03 -9.895316958427429199e-01 -2.949630916118621826e-01 1.111655961722135544e-02
1.896000000000000000e+03 6.208978295326232910e-01 1.491938495635986328e+01 6.347469054162502289e-03 -7.021201252937316895e-01 -2.087317854166030884e-01 6.731960922479629517e-02
1.897000000000000000e+03 5.915381908416748047e-01 1.349496936798095703e+01 1.725300331600010395e-03 -5.330811142921447754e-01 -1.594067513942718506e-01 7.669144868850708008e-02
1.898000000000000000e+03 5.447233915328979492e-01 7.849066257476806641e+00 -7.663307711482048035e-03 7.075508683919906616e-02 1.892753317952156067e-02 2.754405699670314789e-02
1.899000000000000000e+03 5.437469482421875000e-01 6.426944255828857422e+00 -7.727521006017923355e-03 1.165325492620468140e-01 3.264150768518447876e-02 7.534075528383255005e-03
1.900000000000000000e+03 7.041549682617187500e-01 -1.751707077026367188e+01 -1.600748673081398010e-02 -2.298991829156875610e-01 -7.377200573682785034e-02 -5.239348486065864563e-02
1.901000000000000000e+03 3.749656677246093750e+00 -3.908385848999023438e+01 5.184277426451444626e-03 -3.759101331233978271e-01 -1.112177520990371704e-01 1.041097380220890045e-02
1.902000000000000000e+03 3.244434833526611328e+00 -3.483873748779296875e+01 1.180511247366666794e-02 -3.768548965454101562e-01 -1.095149368047714233e-01 1.249769236892461777e-02
1.903000000000000000e+03 1.932147860527038574e+00 -3.466404724121093750e+01 7.771947275614365935e-05 -4.633204638957977295e-01 -1.389728188514709473e-01 5.075573921203613281e-03
1.904000000000000000e+03 2.044856786727905273e+00 -3.193041038513183594e+01 -7.217730162665247917e-04 -4.567073881626129150e-01 -1.372287571430206299e-01 3.342498326674103737e-03
1.905000000000000000e+03 5.102866172790527344e+00 -2.528619194030761719e+01 2.905946783721446991e-02 -1.022716686129570007e-01 -2.196365967392921448e-02 -2.057133056223392487e-02
1.906000000000000000e+03 2.014113903045654297e+00 -2.463682937622070312e+01 1.720477640628814697e-02 -4.415299594402313232e-01 -1.272975504398345947e-01 3.826459869742393494e-03
1.907000000000000000e+03 2.217447280883789062e+00 -2.141276931762695312e+01 6.748472899198532104e-02 -3.850249648094177246e-01 -9.526207298040390015e-02 -9.539072215557098389e-02
1.908000000000000000e+03 7.176598906517028809e-01 -1.892337608337402344e+01 -2.621421823278069496e-03 -3.496389687061309814e-01 -1.056781113147735596e-01 -6.583606451749801636e-02
1.909000000000000000e+03 6.758313179016113281e+00 -9.547058105468750000e+00 2.678445726633071899e-02 -1.615978330373764038e-01 -4.044401645660400391e-02 -9.016415476799011230e-02
1.910000000000000000e+03 5.484343767166137695e-01 -1.195978641510009766e+01 -4.877953324466943741e-03 -5.125303938984870911e-02 -1.683929748833179474e-02 4.798526642844080925e-04
1.911000000000000000e+03 3.100323915481567383e+00 -1.384912109375000000e+01 -4.849313944578170776e-02 -1.926371902227401733e-01 -7.233910262584686279e-02 -4.954988509416580200e-02
1.912000000000000000e+03 2.580879926681518555e+00 -7.542566299438476562e+00 1.642689667642116547e-02 -7.221432030200958252e-02 -1.673622615635395050e-02 -1.734979823231697083e-02
1.913000000000000000e+03 3.903776645660400391e+00 -2.646665573120117188e+00 -2.759566716849803925e-02 1.104313880205154419e-02 -4.965758416801691055e-03 -1.942561008036136627e-02
1.914000000000000000e+03 1.502997040748596191e+00 -3.346728801727294922e+00 -1.270163338631391525e-03 -5.617329850792884827e-03 -2.066247863695025444e-03 -8.239935152232646942e-03
1.915000000000000000e+03 5.091049671173095703e-01 5.004897117614746094e+00 -3.013296518474817276e-03 1.179302781820297241e-01 3.447509557008743286e-02 -6.728093139827251434e-03
1.916000000000000000e+03 1.540946841239929199e+00 4.910157203674316406e+00 -2.104169875383377075e-02 5.601131170988082886e-02 1.049088407307863235e-02 -1.647862233221530914e-02
1.917000000000000000e+03 1.650032758712768555e+00 1.063712596893310547e+01 -2.420721761882305145e-02 -1.979912519454956055e-01 -6.665953993797302246e-02 1.720500141382217407e-01
1.918000000000000000e+03 5.506252050399780273e-01 1.067166996002197266e+01 -6.078848615288734436e-03 -1.685311198234558105e-01 -5.238299071788787842e-02 6.322804093360900879e-02
1.919000000000000000e+03 1.763582348823547363e+00 1.343529701232910156e+01 1.256216224282979965e-02 -4.594890773296356201e-01 -1.340780854225158691e-01 2.126506417989730835e-01
1.920000000000000000e+03 1.768869400024414062e+00 1.926646614074707031e+01 3.196837753057479858e-02 -8.278303742408752441e-01 -2.387586086988449097e-01 3.434560075402259827e-02
1.921000000000000000e+03 1.632366299629211426e+00 2.448452568054199219e+01 -9.965504519641399384e-03 -8.847491145133972168e-01 -2.684143781661987305e-01 -6.254216190427541733e-03
1.922000000000000000e+03 4.394934082031250000e+01 -1.988786506652832031e+01 2.108000993728637695e+00 3.843681573867797852e+00 1.785504817962646484e+00 1.470472216606140137e+00
1.923000000000000000e+03 5.681551361083984375e+01 -2.101516532897949219e+01 2.288772344589233398e+00 8.693874359130859375e+00 3.294794082641601562e+00 4.062169492244720459e-01
1.924000000000000000e+03 4.699880218505859375e+01 -2.425333213806152344e+01 -1.076722621917724609e+00 4.925580024719238281e+00 1.154657125473022461e+00 -1.220737218856811523e+00
1.925000000000000000e+03 3.424422454833984375e+01 1.352690601348876953e+01 8.035041093826293945e-01 4.767735004425048828e-01 3.840832710266113281e-01 -7.570354938507080078e-01
1.926000000000000000e+03 3.429306411743164062e+01 1.238866138458251953e+01 4.453100264072418213e-01 1.732365936040878296e-01 1.855639964342117310e-01 -2.857217788696289062e-01
1.927000000000000000e+03 3.317443847656250000e+01 1.367225074768066406e+01 5.713351964950561523e-01 4.354813992977142334e-01 3.020449876785278320e-01 -2.412445396184921265e-01
1.928000000000000000e+03 4.059333801269531250e+01 7.894317150115966797e+00 5.923621654510498047e-01 4.488570213317871094e+00 1.524279713630676270e+00 -8.216923475265502930e-01
1.929000000000000000e+03 3.888853454589843750e+01 1.178817653656005859e+01 1.536517381668090820e+00 2.667877435684204102e+00 1.261318445205688477e+00 -1.303618073463439941e+00
1.930000000000000000e+03 3.851631927490234375e+01 1.306448268890380859e+01 1.501988053321838379e+00 2.321871280670166016e+00 1.147157788276672363e+00 -1.428317546844482422e+00
1.931000000000000000e+03 3.703337097167968750e+01 1.254058265686035156e+01 1.445764303207397461e+00 1.434935927391052246e+00 8.642100691795349121e-01 -1.228611826896667480e+00
1.932000000000000000e+03 4.064704895019531250e+01 3.439100265502929688e+00 -5.638647675514221191e-01 2.000630378723144531e+00 4.310297071933746338e-01 -1.932201623916625977e+00
1.933000000000000000e+03 6.650324249267578125e+01 -3.770596313476562500e+01 -1.903885245323181152e+00 5.097928524017333984e+00 9.582129120826721191e-01 -5.659734606742858887e-01
1.934000000000000000e+03 6.658632659912109375e+01 -3.568844985961914062e+01 3.510624468326568604e-01 6.439275741577148438e+00 2.037101507186889648e+00 -4.069954454898834229e-01
1.935000000000000000e+03 3.927646636962890625e+01 1.800496673583984375e+01 4.412564337253570557e-01 2.064913034439086914e+00 7.518508434295654297e-01 -1.782064914703369141e+00
1.936000000000000000e+03 2.300955963134765625e+01 1.643226051330566406e+01 4.606231302022933960e-02 7.641371488571166992e-01 2.430598437786102295e-01 -2.445945143699645996e-01
1.937000000000000000e+03 6.010699081420898438e+01 1.639288902282714844e+01 2.328808307647705078e+00 1.004068756103515625e+01 3.710848808288574219e+00 2.638783931732177734e+00
1.938000000000000000e+03 6.620423126220703125e+01 2.646529579162597656e+01 2.432879924774169922e+00 4.977542400360107422e+00 2.223126888275146484e+00 1.165091633796691895e+00
1.939000000000000000e+03 6.743363189697265625e+01 2.057092857360839844e+01 -4.511446952819824219e+00 -3.193975687026977539e-01 -1.449253320693969727e+00 3.482630252838134766e-01
1.940000000000000000e+03 4.375335311889648438e+01 1.336630702018737793e+00 1.342473745346069336e+00 6.950295448303222656e+00 2.487830638885498047e+00 -4.504177570343017578e+00
1.941000000000000000e+03 4.412482070922851562e+01 1.196830749511718750e+00 1.133967280387878418e+00 8.793831825256347656e+00 2.978339672088623047e+00 -4.250848770141601562e+00
1.942000000000000000e+03 4.510852813720703125e+01 9.078345894813537598e-01 1.929608106613159180e+00 1.184470081329345703e+01 4.132292747497558594e+00 -1.448469996452331543e+00
1.943000000000000000e+03 4.667989730834960938e+01 6.951417922973632812e+00 -2.030239343643188477e+00 4.386528968811035156e+00 7.068868279457092285e-01 -1.327714085578918457e+00
1.944000000000000000e+03 4.393976211547851562e+01 1.268569111824035645e+00 1.273640990257263184e+00 7.887368202209472656e+00 2.748302698135375977e+00 -4.437462806701660156e+00
1.945000000000000000e+03 4.528762817382812500e+01 7.750334739685058594e-01 2.822945594787597656e+00 1.174314403533935547e+01 4.369826793670654297e+00 -6.364171504974365234e-01
1.946000000000000000e+03 4.521181869506835938e+01 6.947222709655761719e+00 -2.068679571151733398e+00 6.868136405944824219e+00 1.439836978912353516e+00 -1.544944882392883301e+00
1.947000000000000000e+03 4.402513885498046875e+01 1.584274172782897949e+00 5.683880448341369629e-01 7.916973114013671875e+00 2.545608282089233398e+00 -4.058405876159667969e+00
1.948000000000000000e+03 4.599282455444335938e+01 5.920948982238769531e-01 4.836287975311279297e+00 9.444106101989746094e+00 4.284118175506591797e+00 2.678794562816619873e-01
1.949000000000000000e+03 4.251535415649414062e+01 -2.290520191192626953e+00 4.426915645599365234e+00 -9.724715948104858398e-01 1.036333203315734863e+00 4.264987468719482422e+00
1.950000000000000000e+03 4.528005981445312500e+01 1.536664843559265137e+00 7.786797881126403809e-01 1.019955253601074219e+01 3.293469667434692383e+00 -1.720629334449768066e+00
1.951000000000000000e+03 4.372264480590820312e+01 -2.417033195495605469e+00 2.851286649703979492e+00 3.795096158981323242e+00 1.993914842605590820e+00 3.057926654815673828e+00
1.952000000000000000e+03 4.594969940185546875e+01 -4.473002910614013672e+00 -2.029039859771728516e+00 5.966573238372802734e+00 1.181260108947753906e+00 -2.676646471023559570e+00
1.953000000000000000e+03 4.625108337402343750e+01 2.524519525468349457e-02 7.085830688476562500e+00 8.031607627868652344e+00 4.535231590270996094e+00 -2.437674403190612793e-01
1.954000000000000000e+03 4.663844680786132812e+01 -7.932428121566772461e-01 7.468164443969726562e+00 6.710961818695068359e+00 4.253737926483154297e+00 -2.492280244827270508e+00
1.955000000000000000e+03 4.861759185791015625e+01 4.609608650207519531e+00 -2.206610679626464844e+00 2.378860712051391602e+00 5.167499557137489319e-02 -9.378715157508850098e-01
1.956000000000000000e+03 4.504127120971679688e+01 -2.797354459762573242e+00 9.395625591278076172e-01 6.774147510528564453e+00 2.314113140106201172e+00 -2.048674106597900391e+00
1.957000000000000000e+03 4.564216995239257812e+01 -3.092317581176757812e+00 3.019714355468750000e-01 7.111392021179199219e+00 2.224009037017822266e+00 -3.821980476379394531e+00
1.958000000000000000e+03 4.602087783813476562e+01 -1.320096492767333984e+00 7.932633399963378906e+00 8.070698738098144531e+00 4.800999641418457031e+00 -4.196747303009033203e+00
1.959000000000000000e+03 4.207836914062500000e+01 -1.754523992538452148e+00 4.195700645446777344e+00 -1.685662865638732910e+00 7.530112862586975098e-01 3.293937444686889648e+00
1.960000000000000000e+03 4.242430114746093750e+01 -2.904489278793334961e+00 2.101430654525756836e+00 -1.308619379997253418e+00 2.378434091806411743e-01 4.411492347717285156e+00
1.961000000000000000e+03 4.134100341796875000e+01 -1.714591503143310547e+00 2.550994634628295898e+00 -4.272540509700775146e-01 6.371222138404846191e-01 3.135905981063842773e+00
1.962000000000000000e+03 4.475431823730468750e+01 6.192712306976318359e+00 -1.800237298011779785e+00 6.774266242980957031e+00 1.492208719253540039e+00 -2.171843051910400391e+00
1.963000000000000000e+03 3.951587295532226562e+01 -2.273779869079589844e+00 1.270689010620117188e+00 2.064265489578247070e+00 1.000486373901367188e+00 2.305479764938354492e+00
1.964000000000000000e+03 1.058431911468505859e+01 4.018479824066162109e+00 -2.994379103183746338e-01 -1.765940338373184204e-01 -1.428095847368240356e-01 1.773258447647094727e-01
1.965000000000000000e+03 1.144438838958740234e+01 3.260268688201904297e+00 -2.541223764419555664e-01 -1.374345272779464722e-01 -1.174670755863189697e-01 2.181451022624969482e-01
1.966000000000000000e+03 9.115428924560546875e+00 5.900492668151855469e+00 -4.290826916694641113e-01 -2.270637154579162598e-01 -1.968439221382141113e-01 1.527995765209197998e-01
1.967000000000000000e+03 1.345283031463623047e+01 -2.057346820831298828e+00 -1.357320100069046021e-01 -1.757912784814834595e-01 -9.345699101686477661e-02 -1.976832747459411621e-01
1.968000000000000000e+03 1.483890533447265625e+01 -2.988996028900146484e+00 -4.470670595765113831e-02 9.107087552547454834e-02 1.390924956649541855e-02 -1.113455090671777725e-02
1.969000000000000000e+03 5.299145698547363281e+00 -3.291031599044799805e+00 -4.306903854012489319e-02 -6.756656616926193237e-02 -3.319068253040313721e-02 -6.279166787862777710e-02
1.970000000000000000e+03 6.024236679077148438e+00 -3.248031854629516602e+00 -2.408800832927227020e-02 -6.741729099303483963e-03 -9.248920716345310211e-03 -5.649348348379135132e-02
1.971000000000000000e+03 5.280908584594726562e+00 -2.611625909805297852e+00 -3.294457867741584778e-02 1.213207095861434937e-02 -6.243752781301736832e-03 -3.653840348124504089e-02
1.972000000000000000e+03 8.135680198669433594e+00 -3.178699493408203125e+00 -8.514181524515151978e-02 -9.705927968025207520e-02 -5.466032773256301880e-02 -1.391382664442062378e-01
1.973000000000000000e+03 1.120328998565673828e+01 -3.020427942276000977e+00 -1.046459004282951355e-01 -1.408139914274215698e-01 -7.363796979188919067e-02 -1.883912980556488037e-01
1.974000000000000000e+03 8.047125816345214844e+00 -3.919555425643920898e+00 -1.664427109062671661e-02 -4.002077877521514893e-02 -1.699951477348804474e-02 -1.006127744913101196e-01
1.975000000000000000e+03 6.051093578338623047e+00 -2.555148839950561523e+00 -5.931237339973449707e-02 -7.166139781475067139e-02 -3.929213061928749084e-02 -8.389467746019363403e-02
1.976000000000000000e+03 6.013709545135498047e+00 -3.989520788192749023e+00 -4.758799821138381958e-02 -6.778521835803985596e-02 -3.461196273565292358e-02 -9.742628037929534912e-02
1.977000000000000000e+03 2.269677639007568359e+00 -2.760561466217041016e+00 -4.031881224364042282e-03 -2.151496335864067078e-02 -7.664053700864315033e-03 -7.755638565868139267e-03
1.978000000000000000e+03 3.613927125930786133e+00 -8.684171676635742188e+00 2.423148788511753082e-02 -1.066571474075317383e-01 -2.472769841551780701e-02 -2.534851618111133575e-02
1.979000000000000000e+03 1.596527218818664551e+00 -6.251880645751953125e+00 9.563528001308441162e-03 -4.387364536523818970e-02 -1.029303483664989471e-02 -9.718895889818668365e-03
1.980000000000000000e+03 1.197977066040039062e+01 -2.173302888870239258e+00 -1.574876904487609863e-01 -1.715822368860244751e-01 -9.872098267078399658e-02 -2.020113170146942139e-01
1.981000000000000000e+03 1.510900497436523438e+01 -5.135185241699218750e+00 7.845416665077209473e-02 1.745046228170394897e-01 7.588763535022735596e-02 -4.521251097321510315e-02
1.982000000000000000e+03 3.374813079833984375e+01 -3.247222900390625000e+00 3.770325481891632080e-01 -4.274870455265045166e-01 -1.513634901493787766e-02 -4.506647288799285889e-01
1.983000000000000000e+03 3.741968917846679688e+01 -3.326176643371582031e+00 2.068532943725585938e+00 2.559011220932006836e+00 1.388263225555419922e+00 9.379634261131286621e-01
1.984000000000000000e+03 3.550899505615234375e+01 -3.631092548370361328e+00 1.533098697662353516e+00 9.419882893562316895e-01 7.425261139869689941e-01 -3.295688703656196594e-02
1.985000000000000000e+03 1.450185203552246094e+01 3.700780153274536133e+00 -6.037692427635192871e-01 -1.503661274909973145e-02 -1.856417655944824219e-01 5.713461637496948242e-01
1.986000000000000000e+03 1.310339546203613281e+01 5.949080467224121094e+00 -6.588627099990844727e-01 -4.963058829307556152e-01 -3.465505838394165039e-01 5.330783724784851074e-01
1.987000000000000000e+03 2.791102600097656250e+01 2.015981912612915039e+00 -9.946778416633605957e-01 2.163552492856979370e-01 -2.334967851638793945e-01 1.694633215665817261e-01
1.988000000000000000e+03 2.132314109802246094e+01 4.255375385284423828e+00 -7.270264029502868652e-01 -1.218522638082504272e-01 -2.546636164188385010e-01 1.541657894849777222e-01
1.989000000000000000e+03 2.192705726623535156e+01 3.418053388595581055e+00 -1.016355037689208984e+00 -1.278767585754394531e-01 -3.432695567607879639e-01 2.097264081239700317e-01
1.990000000000000000e+03 2.078399848937988281e+01 6.516466617584228516e+00 1.214420944452285767e-01 3.483551368117332458e-02 4.688328132033348083e-02 1.147304773330688477e-01
1.991000000000000000e+03 2.573615074157714844e+01 2.429703474044799805e+00 -9.945929050445556641e-01 -4.287146776914596558e-02 -3.112393021583557129e-01 2.894329428672790527e-01
1.992000000000000000e+03 2.347767829895019531e+01 3.114587306976318359e+00 -9.671159386634826660e-01 -1.305970698595046997e-01 -3.293139040470123291e-01 2.504943013191223145e-01
1.993000000000000000e+03 2.869127464294433594e+01 2.960070133209228516e+00 -6.050197482109069824e-01 4.076945781707763672e-01 -5.919754505157470703e-02 5.135491490364074707e-02
1.994000000000000000e+03 2.456365776062011719e+01 6.066354274749755859e+00 6.236376985907554626e-02 -7.894764840602874756e-02 -4.975164309144020081e-03 -6.648268084973096848e-03
1.995000000000000000e+03 2.720423698425292969e+01 2.801019906997680664e+00 -7.088921666145324707e-01 2.013550847768783569e-01 -1.522611230611801147e-01 2.005588412284851074e-01
1.996000000000000000e+03 2.860380744934082031e+01 4.054955005645751953e+00 -9.113279730081558228e-02 5.029762983322143555e-01 1.235530450940132141e-01 -2.058512158691883087e-02
1.997000000000000000e+03 2.068746185302734375e+01 4.557210922241210938e+00 -6.081555485725402832e-01 -7.680395990610122681e-02 -2.054878622293472290e-01 1.687036007642745972e-01
1.998000000000000000e+03 2.528690338134765625e+01 3.490934610366821289e+00 -6.376773118972778320e-01 -4.614417254924774170e-02 -2.051464468240737915e-01 2.002050578594207764e-01
1.999000000000000000e+03 2.449480628967285156e+01 3.777054786682128906e+00 -6.014904975891113281e-01 -1.003839224576950073e-01 -2.105623185634613037e-01 1.819550544023513794e-01
2.000000000000000000e+03 2.018151855468750000e+01 5.249146938323974609e+00 -3.426347374916076660e-01 1.020936388522386551e-02 -9.972761571407318115e-02 1.632636040449142456e-01
2.001000000000000000e+03 1.123840141296386719e+01 -2.289931297302246094e+00 -1.313968896865844727e-01 2.735356055200099945e-02 -3.121299855411052704e-02 -8.953296393156051636e-02
2.002000000000000000e+03 1.400435543060302734e+01 -2.942051172256469727e+00 -6.195939704775810242e-02 -8.136495202779769897e-02 -4.299730435013771057e-02 -1.830776333808898926e-01
2.003000000000000000e+03 1.259283542633056641e+01 -2.775664806365966797e+00 -8.092319220304489136e-02 -1.441013514995574951e-01 -6.750736385583877563e-02 -1.969539672136306763e-01
2.004000000000000000e+03 1.419283485412597656e+01 -4.904267787933349609e+00 2.820267155766487122e-02 3.479197248816490173e-02 1.889839395880699158e-02 -4.598817229270935059e-02
2.005000000000000000e+03 3.072564125061035156e+00 3.150217056274414062e+00 -1.305019389837980270e-02 7.792717311531305313e-03 -1.577242976054549217e-03 -5.219488590955734253e-02
2.006000000000000000e+03 5.700854778289794922e+00 3.527567148208618164e+00 -7.598897814750671387e-02 -2.648930810391902924e-02 -3.074348717927932739e-02 -3.475722298026084900e-02
2.007000000000000000e+03 4.156024456024169922e+00 3.898706436157226562e+00 -6.422040611505508423e-02 -5.566949024796485901e-03 -2.093620784580707550e-02 -3.730427473783493042e-02
2.008000000000000000e+03 3.911740541458129883e+00 2.979339361190795898e+00 -1.666539534926414490e-02 1.567792496643960476e-04 -4.952584858983755112e-03 -5.425791442394256592e-02
2.009000000000000000e+03 4.525792896747589111e-01 3.595354795455932617e+00 -2.323468914255499840e-03 8.657535165548324585e-02 2.527556568384170532e-02 -1.467945985496044159e-02
2.010000000000000000e+03 6.401724338531494141e+00 3.364376068115234375e+00 -8.122973144054412842e-02 -3.609792515635490417e-02 -3.519829735159873962e-02 -2.636648528277873993e-02
2.011000000000000000e+03 8.445158958435058594e+00 3.392422437667846680e+00 -1.311508864164352417e-01 -8.492244035005569458e-02 -6.482199579477310181e-02 2.778153121471405029e-02
2.012000000000000000e+03 7.799978733062744141e+00 4.480948925018310547e+00 -2.363322973251342773e-01 -9.368843585252761841e-02 -9.900622069835662842e-02 4.004921019077301025e-02
2.013000000000000000e+03 3.328227233886718750e+01 -4.363553524017333984e+00 1.011683940887451172e+00 -3.868952989578247070e-01 1.874365806579589844e-01 -1.507839411497116089e-01
2.014000000000000000e+03 1.782028961181640625e+01 4.223669052124023438e+00 -7.628254294395446777e-01 6.389169394969940186e-02 -2.096801102161407471e-01 4.691016077995300293e-01
2.015000000000000000e+03 1.872423171997070312e+01 4.160358905792236328e+00 -7.672336101531982422e-01 6.563141359947621822e-04 -2.299731820821762085e-01 3.716998100280761719e-01
2.016000000000000000e+03 1.833277893066406250e+01 6.642936229705810547e+00 2.604505121707916260e-01 3.993284404277801514e-01 1.979336738586425781e-01 3.806284368038177490e-01
2.017000000000000000e+03 1.604401206970214844e+01 5.297505378723144531e+00 -5.062845945358276367e-01 2.067378312349319458e-01 -8.986402302980422974e-02 6.753652095794677734e-01
2.018000000000000000e+03 3.228704452514648438e+01 -6.813451290130615234e+00 1.059400320053100586e+00 -3.176794648170471191e-01 2.225162684917449951e-01 6.710750460624694824e-01
2.019000000000000000e+03 3.403172302246093750e+01 -3.946713209152221680e+00 1.113332867622375488e+00 -1.089862585067749023e-01 3.013040125370025635e-01 -3.329933881759643555e-01
2.020000000000000000e+03 1.038838386535644531e+01 -3.038892745971679688e+00 -7.492572814226150513e-02 -3.558798693120479584e-03 -2.354535833001136780e-02 -9.360138326883316040e-02
2.021000000000000000e+03 4.001200485229492188e+01 4.670382499694824219e+00 -2.927926480770111084e-01 2.354868650436401367e+00 6.186227798461914062e-01 -1.086231589317321777e+00
2.022000000000000000e+03 4.250850677490234375e+01 2.351968765258789062e+00 4.942073673009872437e-02 3.949862003326416016e+00 1.199784874916076660e+00 -3.145782470703125000e+00
2.023000000000000000e+03 1.518819808959960938e+01 4.741539478302001953e+00 -6.039170622825622559e-01 -4.136686027050018311e-02 -1.935851871967315674e-01 7.184146642684936523e-01
2.024000000000000000e+03 3.053841400146484375e+01 1.662691950798034668e+00 -1.031844735145568848e+00 5.338863134384155273e-01 -1.493875086307525635e-01 -3.794687241315841675e-02
2.025000000000000000e+03 4.582398986816406250e+01 7.691486358642578125e+00 -7.400662302970886230e-01 6.367949485778808594e+00 1.688364982604980469e+00 -2.110357046127319336e+00
2.026000000000000000e+03 4.483683776855468750e+01 8.350703239440917969e+00 -5.451124906539916992e-01 7.392215728759765625e+00 2.054131031036376953e+00 -1.383906006813049316e+00
2.027000000000000000e+03 1.761008071899414062e+01 5.159981727600097656e+00 -4.694705307483673096e-01 2.164658010005950928e-01 -7.590141892433166504e-02 5.147617459297180176e-01
2.028000000000000000e+03 3.966230773925781250e+01 -2.869191360473632812e+01 -6.971859931945800781e-01 6.169209480285644531e+00 1.641607046127319336e+00 1.430873870849609375e+00
2.029000000000000000e+03 4.420828247070312500e+01 1.842546272277832031e+01 -8.129905462265014648e-01 4.809801578521728516e+00 1.199043393135070801e+00 5.792564749717712402e-01
2.030000000000000000e+03 4.233503723144531250e+01 2.063194465637207031e+01 -1.659733295440673828e+00 1.423244953155517578e+00 -7.094651460647583008e-02 8.417442440986633301e-01
2.031000000000000000e+03 3.353642654418945312e+01 2.127458381652832031e+01 -4.056945070624351501e-02 3.493493556976318359e+00 1.035877227783203125e+00 -7.604781389236450195e-01
2.032000000000000000e+03 3.207835769653320312e+01 -1.406582546234130859e+01 -1.291215300559997559e+00 1.119438409805297852e+00 -5.153303593397140503e-02 1.387464046478271484e+00
2.033000000000000000e+03 3.351376342773437500e+01 -1.183479118347167969e+01 -3.072528839111328125e-01 8.217722773551940918e-01 1.543558090925216675e-01 1.583783388137817383e+00
2.034000000000000000e+03 1.148214435577392578e+01 -2.511952400207519531e+01 8.915179222822189331e-02 -4.026686400175094604e-02 1.466547884047031403e-02 -1.329859942197799683e-01
2.035000000000000000e+03 1.197991180419921875e+01 -3.194863319396972656e+01 5.466334894299507141e-02 2.227831929922103882e-01 8.323395997285842896e-02 5.690091289579868317e-03
2.036000000000000000e+03 4.738745117187500000e+01 2.736161041259765625e+01 1.232204914093017578e+00 6.052343845367431641e+00 2.185364484786987305e+00 3.825708925724029541e-01
2.037000000000000000e+03 3.957677078247070312e+01 1.913449859619140625e+01 -1.195849850773811340e-01 1.582764029502868652e+00 4.389536976814270020e-01 -1.768253207206726074e+00
2.038000000000000000e+03 3.059386634826660156e+01 1.346359825134277344e+01 2.825823426246643066e-01 3.623987436294555664e-01 1.934943199157714844e-01 2.372913509607315063e-01
2.039000000000000000e+03 5.245772552490234375e+01 2.856530189514160156e+01 1.195423960685729980e+00 7.098066806793212891e+00 2.488047122955322266e+00 -5.134791731834411621e-01
2.040000000000000000e+03 5.224861526489257812e+01 3.077180862426757812e+01 1.449236750602722168e+00 6.442288398742675781e+00 2.367457628250122070e+00 5.886206626892089844e-01
2.041000000000000000e+03 4.110236740112304688e+01 -2.251907539367675781e+01 1.087630033493041992e+00 3.659027338027954102e+00 1.423997282981872559e+00 2.267369508743286133e+00
2.042000000000000000e+03 4.095056915283203125e+01 -2.364878082275390625e+01 1.302045464515686035e+00 3.454455852508544922e+00 1.426950335502624512e+00 2.652056694030761719e+00
2.043000000000000000e+03 2.998826599121093750e+01 -4.349229812622070312e+00 1.770972907543182373e-01 -1.275217652320861816e+00 -3.294361233711242676e-01 -4.009818732738494873e-01
2.044000000000000000e+03 2.892990303039550781e+01 -2.885571670532226562e+01 -3.542801141738891602e-01 1.357257246971130371e+00 3.008931577205657959e-01 -2.690402269363403320e-01
2.045000000000000000e+03 3.178355026245117188e+01 -2.905440711975097656e+01 -3.180453777313232422e-01 7.283234596252441406e-01 1.230834275484085083e-01 -4.602760672569274902e-01
2.046000000000000000e+03 3.925535583496093750e+01 -1.495200347900390625e+01 -2.145921468734741211e+00 9.061460494995117188e-01 -3.719325959682464600e-01 -4.883733093738555908e-01
2.047000000000000000e+03 3.335751724243164062e+01 1.854669570922851562e+01 7.486722618341445923e-02 2.462663650512695312e+00 7.612592577934265137e-01 -8.107900619506835938e-01
2.048000000000000000e+03 6.815046691894531250e+01 4.945312500000000000e+00 3.603770434856414795e-01 1.742240071296691895e+00 6.307851076126098633e-01 2.204373598098754883e+00
2.049000000000000000e+03 6.733650207519531250e+01 6.745939850807189941e-01 6.143219470977783203e-01 3.217739820480346680e+00 1.149618506431579590e+00 2.126884460449218750e+00
2.050000000000000000e+03 4.066454315185546875e+01 6.574141502380371094e+00 -8.676266670227050781e-02 4.248918533325195312e+00 1.248646736145019531e+00 -1.242940902709960938e+00
2.051000000000000000e+03 4.071034240722656250e+01 4.894075870513916016e+00 -4.784323275089263916e-01 3.285778522491455078e+00 8.422038555145263672e-01 -1.644983887672424316e+00
2.052000000000000000e+03 4.457294082641601562e+01 -2.655864334106445312e+01 -1.399781227111816406e+00 9.792338013648986816e-01 -1.261642426252365112e-01 -7.469049692153930664e-01
2.053000000000000000e+03 4.132020950317382812e+01 -2.661393165588378906e+01 -6.445090174674987793e-01 3.694165945053100586e+00 9.148970842361450195e-01 1.844985365867614746e+00
2.054000000000000000e+03 3.493765640258789062e+01 -1.426167678833007812e+01 -2.366115331649780273e+00 -8.370569348335266113e-02 -7.349463105201721191e-01 5.169569849967956543e-01
2.055000000000000000e+03 7.163224029541015625e+01 3.282716274261474609e-01 1.432079672813415527e-01 1.100197672843933105e+00 3.730216622352600098e-01 1.520473062992095947e-01
2.056000000000000000e+03 7.055062866210937500e+01 4.758228302001953125e+00 1.121076662093400955e-02 3.918771028518676758e+00 1.178994536399841309e+00 1.790725111961364746e+00
2.057000000000000000e+03 6.747309112548828125e+01 3.055786132812500000e+01 1.014989495277404785e+00 5.311889171600341797e+00 1.898063659667968750e+00 9.566068053245544434e-01
2.058000000000000000e+03 6.462102508544921875e+01 3.140422058105468750e+01 7.731028199195861816e-01 5.600865364074707031e+00 1.912190437316894531e+00 4.482297003269195557e-01
2.059000000000000000e+03 1.021858024597167969e+01 -5.073789119720458984e+00 -7.167569361627101898e-03 -1.023355200886726379e-01 -3.285092860460281372e-02 -1.488678008317947388e-01
2.060000000000000000e+03 1.101889038085937500e+01 -1.117706775665283203e+01 -6.031784694641828537e-03 3.920866176486015320e-02 9.953062981367111206e-03 -1.551879644393920898e-01
2.061000000000000000e+03 2.776544570922851562e+01 6.721373081207275391e+00 3.714576959609985352e-01 4.757587015628814697e-01 2.541649341583251953e-01 -2.296244502067565918e-01
2.062000000000000000e+03 2.565970039367675781e+01 4.296555995941162109e+00 -2.802664041519165039e-01 9.515995159745216370e-03 -8.122511953115463257e-02 1.195382624864578247e-01
2.063000000000000000e+03 6.039346694946289062e+01 2.481319189071655273e+00 -8.718223571777343750e-01 4.998162746429443359e+00 1.237902164459228516e+00 -1.936482191085815430e+00
2.064000000000000000e+03 6.282836914062500000e+01 6.745914459228515625e+00 -9.994208216667175293e-01 3.042204618453979492e+00 6.128351688385009766e-01 -1.346673846244812012e+00
2.065000000000000000e+03 5.239584350585937500e+01 2.634101104736328125e+01 1.809079051017761230e+00 6.010226249694824219e+00 2.345791578292846680e+00 -8.008305430412292480e-01
2.066000000000000000e+03 5.168844985961914062e+01 2.352846527099609375e+01 -2.352552264928817749e-01 4.800837039947509766e+00 1.369674563407897949e+00 -1.125079035758972168e+00
2.067000000000000000e+03 1.247164535522460938e+01 -4.196263504028320312e+01 -4.140447452664375305e-02 1.690152138471603394e-01 3.828322142362594604e-02 1.246724836528301239e-02
2.068000000000000000e+03 3.266991424560546875e+01 2.939721107482910156e+01 7.790462374687194824e-01 3.395135879516601562e+00 1.252254605293273926e+00 -8.754534721374511719e-01
2.069000000000000000e+03 6.272719955444335938e+01 -5.703398704528808594e+00 1.578542470932006836e+00 9.748480796813964844e+00 3.398107051849365234e+00 3.907474577426910400e-01
2.070000000000000000e+03 1.095837020874023438e+01 7.332432270050048828e+00 -7.767081856727600098e-01 -5.417162775993347168e-01 -3.955273330211639404e-01 5.180379748344421387e-01
2.071000000000000000e+03 5.923969650268554688e+01 1.865732669830322266e+00 -4.999718666076660156e-01 4.509993076324462891e+00 1.203006267547607422e+00 -2.201540470123291016e+00
2.072000000000000000e+03 5.580028915405273438e+01 6.809964179992675781e+00 7.911911010742187500e-01 8.896229743957519531e+00 2.906226158142089844e+00 7.384595274925231934e-01
2.073000000000000000e+03 6.039249801635742188e+01 1.081061077117919922e+01 1.250213503837585449e+00 7.691617488861083984e+00 2.682549238204956055e+00 -5.424165129661560059e-01
2.074000000000000000e+03 5.633911132812500000e+01 1.403205585479736328e+01 1.387037158012390137e+00 8.188219070434570312e+00 2.872576951980590820e+00 5.422025918960571289e-01
2.075000000000000000e+03 4.764003372192382812e+01 -2.738274192810058594e+01 -1.534866094589233398e+00 3.509328365325927734e+00 5.923386812210083008e-01 -2.373276948928833008e+00
2.076000000000000000e+03 4.845164108276367188e+01 -2.828729248046875000e+01 -4.921888709068298340e-01 3.780659437179565430e+00 9.865412116050720215e-01 -2.200341939926147461e+00
2.077000000000000000e+03 6.957418823242187500e+01 6.251159667968750000e+00 5.156749859452247620e-02 3.398240566253662109e+00 1.034942388534545898e+00 2.312618732452392578e+00
2.078000000000000000e+03 5.039719009399414062e+01 1.985028839111328125e+01 -2.047662973403930664e+00 2.256439685821533203e+00 6.263305246829986572e-02 -1.483461260795593262e+00
2.079000000000000000e+03 6.348453140258789062e+01 3.618008422851562500e+01 -1.332484722137451172e+00 3.806911945343017578e+00 7.423281669616699219e-01 -2.876198291778564453e-01
2.080000000000000000e+03 6.345838165283203125e+01 -2.019145965576171875e+01 1.721065521240234375e+00 8.083631515502929688e+00 2.941409111022949219e+00 -1.903270721435546875e+00
2.081000000000000000e+03 1.701172065734863281e+01 -2.592998504638671875e+01 2.824846804141998291e-01 8.576998114585876465e-02 1.104763969779014587e-01 1.308619976043701172e-01
2.082000000000000000e+03 2.051464271545410156e+01 1.430925273895263672e+01 -6.927150487899780273e-02 3.252295404672622681e-02 -1.102456636726856232e-02 1.054805889725685120e-01
2.083000000000000000e+03 7.312476348876953125e+01 6.145440578460693359e+00 -1.975912600755691528e-01 6.741380691528320312e+00 1.963136911392211914e+00 1.239029765129089355e-01
2.084000000000000000e+03 6.057159423828125000e+01 -4.105886518955230713e-01 -3.272176906466484070e-02 6.212578296661376953e+00 1.853956937789916992e+00 -1.893092393875122070e+00
2.085000000000000000e+03 7.792121887207031250e+01 -3.552988433837890625e+01 2.448850497603416443e-02 7.496845722198486328e+00 2.256400108337402344e+00 -1.010071933269500732e-01
2.086000000000000000e+03 7.287503051757812500e+01 -3.802244567871093750e+01 -2.035432755947113037e-01 6.485242366790771484e+00 1.884509682655334473e+00 -8.247913718223571777e-01
2.087000000000000000e+03 7.582521820068359375e+01 -3.390382385253906250e+01 1.276828497648239136e-01 6.899950981140136719e+00 2.108290195465087891e+00 -2.364430576562881470e-01
2.088000000000000000e+03 7.682519531250000000e+01 -3.508319091796875000e+01 8.666347712278366089e-02 7.251010894775390625e+00 2.201302289962768555e+00 -1.829870492219924927e-01
2.089000000000000000e+03 7.821697998046875000e+01 1.969248390197753906e+01 -2.235077768564224243e-01 7.814415931701660156e+00 2.277272462844848633e+00 4.422172904014587402e-01
2.090000000000000000e+03 7.202632141113281250e+01 1.728261184692382812e+01 -9.236317276954650879e-01 7.762192249298095703e+00 2.051568031311035156e+00 -4.047306478023529053e-01
2.091000000000000000e+03 7.736451721191406250e+01 -2.439450645446777344e+01 3.435152471065521240e-01 7.674902439117431641e+00 2.405525207519531250e+00 -5.373367667198181152e-01
2.092000000000000000e+03 7.385283660888671875e+01 -2.621141052246093750e+01 -2.005973339080810547e+00 8.283448219299316406e+00 1.883242607116699219e+00 7.131439447402954102e-01
2.093000000000000000e+03 7.755356597900390625e+01 3.655675506591796875e+01 -8.254941552877426147e-02 7.405308723449707031e+00 2.196827650070190430e+00 1.826212853193283081e-01
2.094000000000000000e+03 7.598574066162109375e+01 3.367128372192382812e+01 1.524262577295303345e-01 6.855772495269775391e+00 2.102459669113159180e+00 1.699384450912475586e-01
2.095000000000000000e+03 7.652787780761718750e+01 -2.546718215942382812e+01 -2.311656177043914795e-01 8.175267219543457031e+00 2.383230686187744141e+00 -7.268728017807006836e-01
2.096000000000000000e+03 7.817432403564453125e+01 -2.886377716064453125e+01 -1.057486981153488159e-01 7.571959018707275391e+00 2.239863157272338867e+00 -7.112613320350646973e-02
2.097000000000000000e+03 7.701313018798828125e+01 -3.001088714599609375e+01 -7.741285953670740128e-03 7.197940349578857422e+00 2.157059669494628906e+00 1.583364605903625488e-01
2.098000000000000000e+03 7.468289947509765625e+01 -2.524761199951171875e+01 -1.939853280782699585e-01 8.457608222961425781e+00 2.479086875915527344e+00 -4.895954430103302002e-01
2.099000000000000000e+03 7.642476654052734375e+01 -2.334358024597167969e+01 9.199769496917724609e-01 8.563829421997070312e+00 2.845141887664794922e+00 -1.574670523405075073e-01
2.100000000000000000e+03 7.566476440429687500e+01 -3.660289764404296875e+01 5.169940367341041565e-02 7.116923332214355469e+00 2.150586843490600586e+00 -3.800082504749298096e-01
2.101000000000000000e+03 7.671746826171875000e+01 -3.122158432006835938e+01 2.654790878295898438e-02 7.056187629699707031e+00 2.124820709228515625e+00 9.807397425174713135e-02
2.102000000000000000e+03 7.429677581787109375e+01 -2.811636543273925781e+01 -5.736150145530700684e-01 6.785144329071044922e+00 1.863458752632141113e+00 8.151803016662597656e-01
2.103000000000000000e+03 7.467216491699218750e+01 -4.033309936523437500e+01 -3.004775941371917725e-01 7.153121948242187500e+00 2.055793285369873047e+00 -3.787116706371307373e-01
2.104000000000000000e+03 7.829805755615234375e+01 2.239995765686035156e+01 -1.703479140996932983e-01 7.980245113372802734e+00 2.342969179153442383e+00 -2.588798105716705322e-02
2.105000000000000000e+03 7.717430877685546875e+01 2.117904090881347656e+01 -4.685501754283905029e-01 7.715955734252929688e+00 2.174221515655517578e+00 1.610032171010971069e-01
2.106000000000000000e+03 7.610346221923828125e+01 2.241778755187988281e+01 -5.490710139274597168e-01 7.320155620574951172e+00 2.031325340270996094e+00 -2.207050174474716187e-01
2.107000000000000000e+03 7.686579132080078125e+01 1.568552112579345703e+01 1.932148188352584839e-01 7.373857498168945312e+00 2.270121574401855469e+00 1.041987776756286621e+00
2.108000000000000000e+03 7.807556152343750000e+01 1.413373947143554688e+01 2.295875102281570435e-01 6.517328262329101562e+00 2.024074554443359375e+00 6.311078071594238281e-01
2.109000000000000000e+03 7.459426116943359375e+01 1.302642059326171875e+01 1.257040858268737793e+00 8.939225196838378906e+00 3.058879852294921875e+00 6.238791942596435547e-01
2.110000000000000000e+03 7.827757263183593750e+01 -2.092434310913085938e+01 3.117974996566772461e-01 7.380538940429687500e+00 2.307700872421264648e+00 5.565493702888488770e-01
2.111000000000000000e+03 7.683609771728515625e+01 1.431871223449707031e+01 3.926635980606079102e-01 7.273954868316650391e+00 2.299985647201538086e+00 8.458677530288696289e-01
2.112000000000000000e+03 7.711499023437500000e+01 2.372599029541015625e+01 -2.153187245130538940e-01 7.490811347961425781e+00 2.182647705078125000e+00 -2.427241951227188110e-01
2.113000000000000000e+03 7.811509704589843750e+01 2.647201347351074219e+01 4.560210928320884705e-02 7.582210540771484375e+00 2.288343906402587891e+00 -2.405654489994049072e-01
2.114000000000000000e+03 7.775459289550781250e+01 3.070184516906738281e+01 6.268338114023208618e-02 7.266650199890136719e+00 2.198800086975097656e+00 -4.252130165696144104e-02
2.115000000000000000e+03 7.499623107910156250e+01 2.900653266906738281e+01 3.696766197681427002e-01 6.425676345825195312e+00 2.038605928421020508e+00 -1.903409063816070557e-01
2.116000000000000000e+03 7.829469299316406250e+01 -1.679699325561523438e+01 -1.247337386012077332e-01 8.581238746643066406e+00 2.536951541900634766e+00 9.121207594871520996e-01
2.117000000000000000e+03 7.584157562255859375e+01 -1.951366806030273438e+01 5.957798957824707031e-01 8.644848823547363281e+00 2.772188425064086914e+00 9.030284881591796875e-01
2.118000000000000000e+03 7.554855346679687500e+01 4.004600048065185547e+00 -2.812961339950561523e-01 6.700814723968505859e+00 1.925855517387390137e+00 -8.354424238204956055e-01
2.119000000000000000e+03 7.812896728515625000e+01 -2.818664789199829102e+00 -2.174896597862243652e-01 8.670276641845703125e+00 2.535836219787597656e+00 6.008997559547424316e-01
2.120000000000000000e+03 7.812369537353515625e+01 -1.432667970657348633e+00 -2.708343565464019775e-01 8.559885025024414062e+00 2.486715078353881836e+00 3.201777338981628418e-01
2.121000000000000000e+03 7.702960968017578125e+01 1.988316535949707031e+01 -4.008824825286865234e-01 7.701473712921142578e+00 2.190177202224731445e+00 5.231195092201232910e-01
2.122000000000000000e+03 7.805818176269531250e+01 6.915519714355468750e+00 4.575108736753463745e-02 6.940841674804687500e+00 2.095977783203125000e+00 -8.378765583038330078e-01
2.123000000000000000e+03 7.677111816406250000e+01 6.886326313018798828e+00 7.555186748504638672e-02 7.178893089294433594e+00 2.176333427429199219e+00 -1.005072832107543945e+00
2.124000000000000000e+03 7.430097198486328125e+01 -1.395642566680908203e+01 -1.127173066139221191e+00 5.223123550415039062e+00 1.228785037994384766e+00 8.890683054924011230e-01
2.125000000000000000e+03 7.717362213134765625e+01 -2.093865394592285156e+01 6.301594376564025879e-01 7.952820777893066406e+00 2.574893951416015625e+00 5.863030552864074707e-01
2.126000000000000000e+03 7.594645690917968750e+01 3.518051910400390625e+01 3.330636397004127502e-02 6.927540302276611328e+00 2.088253974914550781e+00 2.269164770841598511e-01
2.127000000000000000e+03 7.603839111328125000e+01 3.218537902832031250e+01 1.520892679691314697e-01 6.841174602508544922e+00 2.097979068756103516e+00 7.175675779581069946e-02
2.128000000000000000e+03 7.286171722412109375e+01 1.821695709228515625e+01 -1.230620503425598145e+00 7.467000484466552734e+00 1.870913982391357422e+00 1.265594214200973511e-01
2.129000000000000000e+03 7.677631378173828125e+01 8.282266616821289062e+00 2.800132930278778076e-01 7.078630924224853516e+00 2.207593202590942383e+00 -9.234470129013061523e-01
2.130000000000000000e+03 7.550251770019531250e+01 -1.434190988540649414e+00 -9.177507758140563965e-01 7.545043945312500000e+00 1.988188028335571289e+00 -4.432473480701446533e-01
2.131000000000000000e+03 7.679750823974609375e+01 2.641376972198486328e+00 -2.873677611351013184e-01 7.340561389923095703e+00 2.115957975387573242e+00 -7.962258458137512207e-01
2.132000000000000000e+03 7.679812622070312500e+01 5.463338375091552734e+00 -8.254890143871307373e-02 7.180395126342773438e+00 2.129353761672973633e+00 -1.005928277969360352e+00
2.133000000000000000e+03 7.684597015380859375e+01 -1.453785896301269531e+00 -5.799783468246459961e-01 8.342803955078125000e+00 2.328847646713256836e+00 1.506227850914001465e-01
2.134000000000000000e+03 7.578231811523437500e+01 -1.364665985107421875e+01 -1.299385547637939453e+00 7.502487659454345703e+00 1.860930681228637695e+00 6.888980865478515625e-01
2.135000000000000000e+03 7.602620697021484375e+01 -1.196515655517578125e+01 -1.401916027069091797e+00 8.457310676574707031e+00 2.116618394851684570e+00 1.013906970620155334e-01
2.136000000000000000e+03 7.595053100585937500e+01 -9.934807777404785156e+00 -4.168055206537246704e-02 9.841880798339843750e+00 2.940059900283813477e+00 -6.399313211441040039e-01
2.137000000000000000e+03 7.686634826660156250e+01 -2.850710868835449219e+00 -4.002194106578826904e-01 8.623428344726562500e+00 2.466962814331054688e+00 4.057329893112182617e-01
2.138000000000000000e+03 7.651390838623046875e+01 -8.400422096252441406e+00 1.084632992744445801e+00 1.063295555114746094e+01 3.515276670455932617e+00 -6.072154641151428223e-01
2.139000000000000000e+03 4.742961120605468750e+01 -1.536067962646484375e+01 -3.635348796844482422e+00 6.875598430633544922e+00 9.720748662948608398e-01 2.900456428527832031e+00
2.140000000000000000e+03 2.179412078857421875e+01 2.454980659484863281e+01 2.993864715099334717e-01 8.982070088386535645e-01 3.592780530452728271e-01 3.204551637172698975e-01
2.141000000000000000e+03 2.084910583496093750e+01 2.475585937500000000e+01 4.125005602836608887e-01 8.225994706153869629e-01 3.705300092697143555e-01 3.686306774616241455e-01
2.142000000000000000e+03 6.501086425781250000e+01 -2.532201004028320312e+01 -1.105162262916564941e+00 8.674237251281738281e+00 2.270722627639770508e+00 -3.041988372802734375e+00
2.143000000000000000e+03 4.408219146728515625e+01 3.435236358642578125e+01 -4.059831798076629639e-01 2.277743816375732422e+00 5.615282058715820312e-01 -9.141631722450256348e-01
2.144000000000000000e+03 3.075100708007812500e+01 -9.156048774719238281e+00 5.461091995239257812e-01 -1.171390861272811890e-01 1.286910325288772583e-01 1.085335612297058105e+00
2.145000000000000000e+03 6.595617675781250000e+01 -2.777085304260253906e+01 -7.132667303085327148e-01 7.799780845642089844e+00 2.125954151153564453e+00 -2.543985366821289062e+00
2.146000000000000000e+03 6.708365631103515625e+01 -2.780852317810058594e+01 1.793790459632873535e-01 6.345585346221923828e+00 1.957489252090454102e+00 -2.624493837356567383e+00
2.147000000000000000e+03 3.840227508544921875e+01 -1.421065616607666016e+01 -2.256621360778808594e+00 1.249054908752441406e+00 -3.022699058055877686e-01 -6.117017865180969238e-01
2.148000000000000000e+03 3.916463851928710938e+01 -1.333554840087890625e+01 -2.878580570220947266e+00 9.863827228546142578e-01 -5.676593780517578125e-01 -1.763437688350677490e-02
2.149000000000000000e+03 2.860797309875488281e+01 -2.514282989501953125e+01 -1.058087311685085297e-02 1.902673125267028809e+00 5.676276683807373047e-01 -3.482585027813911438e-02
2.150000000000000000e+03 2.898644065856933594e+01 -2.760594367980957031e+01 -4.020259380340576172e-01 1.517194986343383789e+00 3.345507383346557617e-01 -1.623278111219406128e-01
2.151000000000000000e+03 2.222512960433959961e+00 3.227642822265625000e+01 5.150043219327926636e-02 -9.924470186233520508e-01 -2.822839617729187012e-01 7.248528301715850830e-02
2.152000000000000000e+03 5.432020187377929688e+00 3.265142822265625000e+01 1.215412393212318420e-01 -4.617729485034942627e-01 -1.020695120096206665e-01 6.991399824619293213e-02
2.153000000000000000e+03 3.043254137039184570e+00 2.803931045532226562e+01 -6.102453917264938354e-02 -8.383607864379882812e-01 -2.698155939579010010e-01 9.517140686511993408e-02
2.154000000000000000e+03 3.259552001953125000e+00 2.982530975341796875e+01 -8.994436822831630707e-03 -8.344904184341430664e-01 -2.530454695224761963e-01 1.242542341351509094e-01
2.155000000000000000e+03 2.082755088806152344e+00 3.079723358154296875e+01 1.169694587588310242e-02 -9.840352535247802734e-01 -2.917014956474304199e-01 9.683177620172500610e-02
2.156000000000000000e+03 2.314579963684082031e+00 3.542306900024414062e+01 4.353208094835281372e-02 -1.017729759216308594e+00 -2.922593057155609131e-01 -3.377902554348111153e-03
2.157000000000000000e+03 5.108966827392578125e+00 2.608069229125976562e+01 -1.196392253041267395e-01 -6.672894358634948730e-01 -2.360785901546478271e-01 8.642980456352233887e-02
2.158000000000000000e+03 6.342435359954833984e+00 3.275822448730468750e+01 1.253774911165237427e-01 -1.905103623867034912e-01 -1.953986473381519318e-02 7.041880488395690918e-02
2.159000000000000000e+03 2.680485486984252930e+00 3.907743835449218750e+01 2.052122354507446289e-02 -1.019063711166381836e+00 -2.995627224445343018e-01 -7.545606046915054321e-02
2.160000000000000000e+03 2.867751598358154297e+00 -3.605882263183593750e+01 4.915222059935331345e-03 -3.941675722599029541e-01 -1.167756989598274231e-01 1.192471478134393692e-02
2.161000000000000000e+03 3.944021463394165039e+00 -3.670106506347656250e+01 1.934647373855113983e-02 -3.480729162693023682e-01 -9.861792623996734619e-02 1.398887578397989273e-02
2.162000000000000000e+03 1.932631850242614746e+00 -2.906992340087890625e+01 -4.360143095254898071e-03 -4.566223025321960449e-01 -1.382947266101837158e-01 6.927521899342536926e-03
2.163000000000000000e+03 3.353352785110473633e+00 -3.049649047851562500e+01 -7.439793553203344345e-03 -3.482428193092346191e-01 -1.067047864198684692e-01 -4.291836521588265896e-04
2.164000000000000000e+03 2.004974365234375000e+00 -3.050156021118164062e+01 -1.063861069269478321e-03 -4.565605819225311279e-01 -1.372873336076736450e-01 4.547043703496456146e-03
2.165000000000000000e+03 1.630144238471984863e+00 2.197726440429687500e+01 8.464821614325046539e-03 -8.789791464805603027e-01 -2.611542940139770508e-01 -1.421816460788249969e-02
2.166000000000000000e+03 5.690947532653808594e+00 2.221799468994140625e+01 8.046128787100315094e-03 -4.676522910594940186e-01 -1.378818452358245850e-01 5.707792192697525024e-02
2.167000000000000000e+03 1.711928486824035645e+00 2.065078735351562500e+01 1.481976546347141266e-02 -8.603614568710327148e-01 -2.536624968051910400e-01 1.184122636914253235e-03
2.168000000000000000e+03 3.396362781524658203e+00 2.354978752136230469e+01 -1.349437981843948364e-02 -7.193977832794189453e-01 -2.198676615953445435e-01 3.785721026360988617e-03
2.169000000000000000e+03 2.093924760818481445e+00 -1.992890930175781250e+01 2.688545174896717072e-02 -3.314068019390106201e-01 -9.135640412569046021e-02 -1.586681008338928223e-01
2.170000000000000000e+03 3.283954143524169922e+00 -1.510328388214111328e+01 -5.802831798791885376e-02 -1.870445460081100464e-01 -7.352185994386672974e-02 -7.664816081523895264e-02
2.171000000000000000e+03 6.037023544311523438e+00 -1.380763530731201172e+01 -9.762143343687057495e-02 -2.180693894624710083e-01 -9.470725059509277344e-02 -1.282242536544799805e-01
2.172000000000000000e+03 5.457836627960205078e+00 1.844627952575683594e+01 2.119947820901870728e-01 -4.497159421443939209e-01 -7.131635397672653198e-02 1.408440172672271729e-01
2.173000000000000000e+03 6.306705951690673828e+00 1.176210117340087891e+01 -1.154158115386962891e-01 -2.246741056442260742e-01 -1.020269766449928284e-01 5.024367570877075195e-01
2.174000000000000000e+03 3.238122701644897461e+00 -2.466183853149414062e+01 1.115986518561840057e-02 -3.062008321285247803e-01 -8.851228654384613037e-02 2.589986659586429596e-03
2.175000000000000000e+03 5.353838920593261719e+00 -2.311382675170898438e+01 1.511512249708175659e-01 -2.132479473948478699e-02 3.894792869687080383e-02 -4.443847760558128357e-02
2.176000000000000000e+03 3.455212593078613281e+00 -1.633455657958984375e+01 -8.580890297889709473e-02 -2.350603789091110229e-01 -9.626078605651855469e-02 -1.430792212486267090e-01
2.177000000000000000e+03 2.608288526535034180e+00 -1.006358051300048828e+01 1.779258064925670624e-02 -1.047680377960205078e-01 -2.609263733029365540e-02 -1.226752251386642456e-02
2.178000000000000000e+03 1.544652462005615234e+00 -8.976966857910156250e+00 1.295384019613265991e-02 -6.805012375116348267e-02 -1.652888394892215729e-02 -4.874159581959247589e-03
2.179000000000000000e+03 6.656852245330810547e+00 -5.068447589874267578e+00 -2.427314408123493195e-02 -5.878894403576850891e-02 -2.491862699389457703e-02 -1.045421808958053589e-01
2.180000000000000000e+03 2.714191675186157227e+00 7.891495227813720703e+00 -8.502218127250671387e-02 -5.012525245547294617e-02 -4.054423049092292786e-02 1.252218484878540039e-01
2.181000000000000000e+03 1.649878621101379395e+00 6.383594989776611328e+00 -3.377568721771240234e-02 3.597379103302955627e-02 6.594305741600692272e-04 2.461001090705394745e-02
2.182000000000000000e+03 1.865722060203552246e+00 1.488250446319580078e+01 3.156841546297073364e-02 -5.882055163383483887e-01 -1.669911295175552368e-01 1.906296908855438232e-01
2.183000000000000000e+03 3.227535724639892578e+00 1.637489700317382812e+01 1.084774583578109741e-01 -5.731346011161804199e-01 -1.393971443176269531e-01 2.204983085393905640e-01
2.184000000000000000e+03 4.187805652618408203e+00 -3.202960491180419922e+00 -1.935344189405441284e-02 -4.280998557806015015e-02 -1.864902861416339874e-02 -3.575317189097404480e-02
2.185000000000000000e+03 1.690176367759704590e+00 -4.763899326324462891e+00 -8.158284239470958710e-03 -3.559842705726623535e-02 -1.312701310962438583e-02 -2.401589043438434601e-02
2.186000000000000000e+03 2.715504407882690430e+00 9.250937461853027344e+00 -8.081068098545074463e-02 -1.132191568613052368e-01 -5.820894986391067505e-02 1.986089497804641724e-01
2.187000000000000000e+03 4.034614086151123047e+00 -1.212216567993164062e+01 -3.768178448081016541e-02 -1.803429126739501953e-01 -6.540741026401519775e-02 -3.984464704990386963e-02
2.188000000000000000e+03 4.658060550689697266e+00 -1.586835575103759766e+01 -1.197102144360542297e-01 -2.678490579128265381e-01 -1.162677779793739319e-01 -1.144947409629821777e-01
2.189000000000000000e+03 2.573955297470092773e+00 -8.806690216064453125e+00 -4.101099912077188492e-03 -8.957693725824356079e-02 -2.810341119766235352e-02 -2.160682342946529388e-02
2.190000000000000000e+03 1.831865668296813965e+00 -3.587548065185546875e+01 9.103362448513507843e-03 -4.659838676452636719e-01 -1.370641440153121948e-01 1.670061610639095306e-02
2.191000000000000000e+03 3.433112382888793945e+00 -3.345364379882812500e+01 4.144525155425071716e-03 -3.621992468833923340e-01 -1.074164137244224548e-01 4.951921291649341583e-04
2.192000000000000000e+03 1.949689745903015137e+00 -2.614783287048339844e+01 -3.971272613853216171e-03 -4.562039673328399658e-01 -1.380525678396224976e-01 1.203175727277994156e-02
2.193000000000000000e+03 6.663283348083496094e+00 -2.562267684936523438e+01 1.018210873007774353e-02 8.451741188764572144e-03 5.590154789388179779e-03 -8.137292414903640747e-02
2.194000000000000000e+03 3.305978775024414062e+00 -1.950116348266601562e+01 1.324978377670049667e-02 -2.624741494655609131e-01 -7.476731389760971069e-02 -1.737236529588699341e-01
2.195000000000000000e+03 2.749812364578247070e+00 1.061012744903564453e+01 -5.397537723183631897e-02 -2.054733484983444214e-01 -7.783462107181549072e-02 2.623172998428344727e-01
2.196000000000000000e+03 4.970786094665527344e+00 1.056820869445800781e+01 -1.644256860017776489e-01 -1.796517074108123779e-01 -1.032232120633125305e-01 3.902424573898315430e-01
2.197000000000000000e+03 2.897522211074829102e+00 1.333496379852294922e+01 8.649474941194057465e-03 -3.933395445346832275e-01 -1.154070198535919189e-01 3.138916492462158203e-01
2.198000000000000000e+03 2.938814878463745117e+00 2.074867057800292969e+01 4.091247916221618652e-02 -7.260603904724121094e-01 -2.055443674325942993e-01 1.458728313446044922e-02
2.199000000000000000e+03 3.060056686401367188e+00 1.793250656127929688e+01 9.819284081459045410e-02 -6.572992801666259766e-01 -1.677319407463073730e-01 1.220682561397552490e-01
2.200000000000000000e+03 2.587684249877929688e+01 3.108964729309082031e+01 5.972045063972473145e-01 1.052129387855529785e+00 4.948001503944396973e-01 -2.397948056459426880e-01
2.201000000000000000e+03 7.205762481689453125e+01 1.926849937438964844e+01 -2.060578107833862305e+00 6.750308036804199219e+00 1.406918883323669434e+00 -4.025731682777404785e-01
2.202000000000000000e+03 2.232989501953125000e+01 2.850559043884277344e+01 3.636912405490875244e-01 8.383488059043884277e-01 3.606120049953460693e-01 3.153936266899108887e-01
2.203000000000000000e+03 4.191935348510742188e+01 8.038678169250488281e+00 1.010380461812019348e-01 5.368123531341552734e+00 1.640748381614685059e+00 -8.689765334129333496e-01
2.204000000000000000e+03 4.131792831420898438e+01 1.382156944274902344e+01 1.825017929077148438e+00 4.432810306549072266e+00 1.877348542213439941e+00 -1.121238231658935547e+00
2.205000000000000000e+03 5.364942932128906250e+01 -3.810281372070312500e+01 -1.418762922286987305e+00 6.183068752288818359e+00 1.429291844367980957e+00 2.342961579561233521e-01
2.206000000000000000e+03 5.746391296386718750e+01 -4.145914840698242188e+01 -2.191916942596435547e+00 3.415751457214355469e+00 3.671503663063049316e-01 -6.242349743843078613e-01
2.207000000000000000e+03 6.029364013671875000e+01 3.873129653930664062e+01 -3.137958943843841553e-01 1.245034694671630859e+00 2.793716490268707275e-01 -2.451691031455993652e-01
2.208000000000000000e+03 5.738500595092773438e+01 3.905348968505859375e+01 -5.921725630760192871e-01 1.796739101409912109e+00 3.613699376583099365e-01 8.551550507545471191e-01
2.209000000000000000e+03 3.416704177856445312e+01 2.025569725036621094e+01 -9.784425050020217896e-02 3.153879165649414062e+00 9.168104529380798340e-01 -1.058030128479003906e+00
2.210000000000000000e+03 5.328466415405273438e+01 1.903368568420410156e+01 -1.519715189933776855e+00 4.303851604461669922e+00 8.352409601211547852e-01 -2.151026248931884766e+00
2.211000000000000000e+03 5.203488922119140625e+01 -4.128342437744140625e+01 -2.584349155426025391e+00 5.890330791473388672e+00 9.917945861816406250e-01 2.525940909981727600e-02
2.212000000000000000e+03 2.147550392150878906e+01 1.006918334960937500e+01 3.988518714904785156e-01 1.785882562398910522e-01 1.732320338487625122e-01 2.565461099147796631e-01
2.213000000000000000e+03 2.407036209106445312e+01 1.280826663970947266e+01 1.322553604841232300e-01 3.357549309730529785e-01 1.404030919075012207e-01 2.229314297437667847e-02
2.214000000000000000e+03 3.673996353149414062e+01 1.412064838409423828e+01 1.060335636138916016e+00 1.547950744628906250e+00 7.824859619140625000e-01 -1.417202711105346680e+00
2.215000000000000000e+03 3.549230575561523438e+01 1.667028808593750000e+01 4.202726781368255615e-01 1.839940071105957031e+00 6.780638098716735840e-01 -1.548156380653381348e+00
2.216000000000000000e+03 4.930793762207031250e+01 -9.577290534973144531e+00 3.110239505767822266e+00 9.890186309814453125e+00 3.900127649307250977e+00 1.072877764701843262e+00
2.217000000000000000e+03 5.017773818969726562e+01 -1.262189769744873047e+01 8.718986511230468750e-01 5.562157154083251953e+00 1.930216670036315918e+00 -5.394825935363769531e-01
2.218000000000000000e+03 2.414346885681152344e+01 -2.805298233032226562e+01 -1.732479780912399292e-01 9.651357531547546387e-01 2.375663369894027710e-01 -7.415162771940231323e-02
2.219000000000000000e+03 2.302392387390136719e+01 -2.242072296142578125e+01 5.197520256042480469e-01 3.890378773212432861e-01 2.726369798183441162e-01 5.192657932639122009e-02
2.220000000000000000e+03 7.486866760253906250e+01 -2.151269912719726562e+01 1.252502679824829102e+00 1.045721912384033203e+01 3.512916326522827148e+00 6.664273142814636230e-02
2.221000000000000000e+03 7.550238037109375000e+01 -2.240384292602539062e+01 1.246019124984741211e+00 9.422461509704589844e+00 3.200544357299804688e+00 8.556061983108520508e-02
2.222000000000000000e+03 3.353923034667968750e+01 -6.917389392852783203e+00 1.638005018234252930e+00 3.626388311386108398e-01 6.001931428909301758e-01 1.042796254158020020e+00
2.223000000000000000e+03 4.253245162963867188e+01 1.549364185333251953e+01 1.334290742874145508e+00 5.137773990631103516e+00 1.941619396209716797e+00 -6.447356939315795898e-01
2.224000000000000000e+03 5.484958267211914062e+01 2.269000434875488281e+01 -1.861068248748779297e+00 4.682090759277343750e+00 8.463066816329956055e-01 -2.559474468231201172e+00
2.225000000000000000e+03 5.386738586425781250e+01 2.480219650268554688e+01 -7.754655927419662476e-02 6.150097370147705078e+00 1.821765303611755371e+00 -1.273276090621948242e+00
2.226000000000000000e+03 8.611015319824218750e+00 1.217667198181152344e+01 -7.920922338962554932e-02 -2.291924953460693359e-01 -9.252051264047622681e-02 5.087652802467346191e-01
2.227000000000000000e+03 5.578450775146484375e+01 1.038146209716796875e+01 1.344272851943969727e+00 1.116698265075683594e+01 3.753376483917236328e+00 1.507367610931396484e+00
2.228000000000000000e+03 4.675531768798828125e+01 -5.117061614990234375e+00 -1.762097597122192383e+00 7.254544734954833984e+00 1.647734165191650391e+00 -2.409241676330566406e+00
2.229000000000000000e+03 5.223178863525390625e+01 1.997709274291992188e+01 -1.625373840332031250e+00 3.821455955505371094e+00 6.588246226310729980e-01 -2.248131752014160156e+00
2.230000000000000000e+03 4.641995429992675781e+00 2.973875999450683594e+01 -4.382786806672811508e-03 -6.785047650337219238e-01 -2.048662602901458740e-01 1.268317252397537231e-01
2.231000000000000000e+03 6.321218490600585938e+01 -1.310360527038574219e+01 -1.310789585113525391e+00 6.468375205993652344e+00 1.547275662422180176e+00 7.673860192298889160e-01
2.232000000000000000e+03 4.588940048217773438e+01 3.369614028930664062e+01 -2.936548888683319092e-01 3.610851764678955078e+00 9.951590895652770996e-01 -7.739084959030151367e-01
2.233000000000000000e+03 6.183576583862304688e+00 2.391197776794433594e+01 -8.771622180938720703e-02 -4.556195735931396484e-01 -1.630007326602935791e-01 1.167875900864601135e-01
2.234000000000000000e+03 5.646959781646728516e+00 2.507987785339355469e+01 -7.053375244140625000e-02 -5.961548089981079102e-01 -2.000065743923187256e-01 1.012274175882339478e-01
2.235000000000000000e+03 4.995776367187500000e+01 2.884270286560058594e+01 1.582966804504394531e+00 5.460475444793701172e+00 2.113032579421997070e+00 1.021120026707649231e-01
2.236000000000000000e+03 1.540991115570068359e+01 2.176154518127441406e+01 5.067020654678344727e-01 2.377303987741470337e-01 2.233297526836395264e-01 4.795641005039215088e-01
2.237000000000000000e+03 1.516501903533935547e+01 2.058695411682128906e+01 4.372996687889099121e-01 1.826062053442001343e-01 1.859717667102813721e-01 5.514073371887207031e-01
2.238000000000000000e+03 2.693530273437500000e+01 1.316763210296630859e+01 2.098819613456726074e-01 2.638737261295318604e-01 1.421267092227935791e-01 -3.478579968214035034e-02
2.239000000000000000e+03 7.294051361083984375e+01 1.518992424011230469e+01 8.864079713821411133e-01 9.607279777526855469e+00 3.148106336593627930e+00 3.284240514039993286e-02
2.240000000000000000e+03 7.564266204833984375e+01 1.704319763183593750e+01 -2.057195901870727539e-01 7.868940830230712891e+00 2.298966407775878906e+00 1.100249648094177246e+00
2.241000000000000000e+03 1.647157478332519531e+01 -4.163813114166259766e+00 1.192480251193046570e-01 2.468873113393783569e-01 1.098406016826629639e-01 1.518822088837623596e-02
2.242000000000000000e+03 1.463035106658935547e+01 -6.128511905670166016e+00 9.255192242562770844e-03 1.099161878228187561e-01 3.575141355395317078e-02 -3.806966170668601990e-02
2.243000000000000000e+03 2.523485946655273438e+01 -1.503399753570556641e+01 -5.535715818405151367e-01 1.853311210870742798e-01 -1.104721426963806152e-01 -1.963646896183490753e-02
2.244000000000000000e+03 1.181515407562255859e+01 -3.722166061401367188e+01 4.444937035441398621e-02 1.843536347150802612e-01 6.864090263843536377e-02 -8.408298599533736706e-04
2.245000000000000000e+03 1.133242225646972656e+01 -3.458702087402343750e+01 7.517227530479431152e-02 1.926070898771286011e-01 8.033380657434463501e-02 -3.823078796267509460e-02
2.246000000000000000e+03 2.974387168884277344e+01 -1.295247936248779297e+01 -6.474907994270324707e-01 1.310007572174072266e+00 1.987550258636474609e-01 8.219757676124572754e-01
2.247000000000000000e+03 2.718681716918945312e+01 -1.833331108093261719e+01 5.306622385978698730e-01 1.445848822593688965e+00 5.929533243179321289e-01 2.330981343984603882e-01
2.248000000000000000e+03 3.155706977844238281e+01 2.616852760314941406e+01 8.728733062744140625e-01 2.930514812469482422e+00 1.141016364097595215e+00 -1.038345336914062500e+00
2.249000000000000000e+03 3.165227890014648438e+01 3.055643653869628906e+01 5.847510695457458496e-01 2.593462705612182617e+00 9.534640908241271973e-01 -9.141908884048461914e-01
2.250000000000000000e+03 8.969403266906738281e+00 8.403672218322753906e+00 -5.667135119438171387e-01 -3.567559719085693359e-01 -2.770408391952514648e-01 3.437030613422393799e-01
2.251000000000000000e+03 8.257494926452636719e+00 4.085304260253906250e+00 -2.040247768163681030e-01 -9.502783417701721191e-02 -8.971577882766723633e-02 3.975112736225128174e-02
2.252000000000000000e+03 6.021105575561523438e+01 -1.886767387390136719e+01 1.879194259643554688e+00 5.991561412811279297e+00 2.361226797103881836e+00 -6.351480484008789062e-01
2.253000000000000000e+03 6.216931152343750000e+01 -1.900627326965332031e+01 1.272459983825683594e+00 6.706975460052490234e+00 2.393830537796020508e+00 -1.449921607971191406e+00
2.254000000000000000e+03 9.151901245117187500e+00 2.099603462219238281e+01 1.420176029205322266e-01 -6.197338551282882690e-02 2.401326596736907959e-02 6.757421046495437622e-02
2.255000000000000000e+03 5.531883239746093750e+01 -1.056113624572753906e+01 9.593882560729980469e-01 2.984099388122558594e+00 1.183046340942382812e+00 -2.721912384033203125e+00
2.256000000000000000e+03 3.819549942016601562e+01 -5.122949123382568359e+00 5.239658832550048828e+00 5.761163234710693359e+00 3.300246477127075195e+00 4.451763629913330078e+00
2.257000000000000000e+03 1.489717388153076172e+01 -2.272559738159179688e+01 -6.371781229972839355e-03 -1.742472052574157715e-01 -5.418569594621658325e-02 -4.285377264022827148e-02
2.258000000000000000e+03 4.155733489990234375e+01 -1.603441810607910156e+01 -9.032535552978515625e-01 4.033810496330261230e-01 -1.499617546796798706e-01 -1.952859163284301758e-01
2.259000000000000000e+03 7.046719360351562500e+01 -3.513177871704101562e+01 6.501241922378540039e-01 5.696548938751220703e+00 1.904001951217651367e+00 -1.377983450889587402e+00
2.260000000000000000e+03 6.765915679931640625e+01 -3.711569595336914062e+01 -1.077460050582885742e+00 5.713919162750244141e+00 1.390937805175781250e+00 -1.166965365409851074e+00
2.261000000000000000e+03 5.217651367187500000e+01 2.773693656921386719e+01 1.658855915069580078e+00 6.460543632507324219e+00 2.435819864273071289e+00 -5.082967877388000488e-01
2.262000000000000000e+03 2.158521461486816406e+01 -1.558649826049804688e+01 -2.298346459865570068e-01 -1.331525295972824097e-01 -1.088961586356163025e-01 -3.910894989967346191e-01
2.263000000000000000e+03 1.077685546875000000e+01 -3.132824897766113281e+01 3.734318166971206665e-02 1.174222677946090698e-01 4.642963409423828125e-02 -2.734026499092578888e-02
2.264000000000000000e+03 4.248358535766601562e+01 1.201665019989013672e+01 1.840309619903564453e+00 6.356589317321777344e+00 2.459069728851318359e+00 -7.853580713272094727e-01
2.265000000000000000e+03 1.325767135620117188e+01 -2.863609790802001953e+00 -1.023998707532882690e-01 4.084732383489608765e-02 -1.846576482057571411e-02 -6.819619983434677124e-02
2.266000000000000000e+03 2.569300651550292969e+01 -2.783508682250976562e+01 -2.007673084735870361e-01 1.290140986442565918e+00 3.268121182918548584e-01 -1.956578716635704041e-02
2.267000000000000000e+03 2.865194129943847656e+01 -2.657789611816406250e+01 -2.415063679218292236e-01 1.571894288063049316e+00 3.991163671016693115e-01 -9.668593108654022217e-02
2.268000000000000000e+03 5.575804138183593750e+01 7.900824069976806641e+00 1.885633468627929688e+00 9.074169158935546875e+00 3.287940740585327148e+00 8.518001437187194824e-01
2.269000000000000000e+03 5.955030059814453125e+01 8.397603988647460938e+00 1.717462539672851562e-01 6.442187309265136719e+00 1.984180092811584473e+00 -5.260055661201477051e-01
2.270000000000000000e+03 1.916586112976074219e+01 -1.726094436645507812e+01 5.530983209609985352e-02 3.548395633697509766e-02 2.723813615739345551e-02 -4.233952462673187256e-01
2.271000000000000000e+03 5.072599792480468750e+01 -3.230074691772460938e+01 2.157845735549926758e+00 5.983439445495605469e+00 2.442385435104370117e+00 -3.082590401172637939e-01
2.272000000000000000e+03 5.133414840698242188e+01 -3.322518920898437500e+01 2.060533523559570312e+00 6.070250988006591797e+00 2.439235210418701172e+00 2.908433973789215088e-01
2.273000000000000000e+03 4.353506469726562500e+01 -1.495460605621337891e+01 -1.567883849143981934e+00 1.365550994873046875e+00 -6.069984287023544312e-02 1.498489260673522949e+00
2.274000000000000000e+03 3.946920013427734375e+01 -1.642278099060058594e+01 -7.372458577156066895e-01 7.282203435897827148e-01 -2.707669977098703384e-03 -3.549174666404724121e-01
2.275000000000000000e+03 2.826559257507324219e+01 -1.903130149841308594e+01 6.014176607131958008e-01 2.288159608840942383e+00 8.668732047080993652e-01 6.069027185440063477e-01
2.276000000000000000e+03 6.089675903320312500e+01 1.879737472534179688e+01 1.523545384407043457e+00 7.994160175323486328e+00 2.855311632156372070e+00 2.415250539779663086e+00
2.277000000000000000e+03 4.431982803344726562e+01 -1.861908340454101562e+01 1.191170573234558105e+00 4.658931732177734375e+00 1.755030632019042969e+00 8.743005990982055664e-01
2.278000000000000000e+03 2.848329353332519531e+01 -1.263080215454101562e+01 -6.917605400085449219e-01 1.146569848060607910e+00 1.364427953958511353e-01 4.248918890953063965e-01
2.279000000000000000e+03 7.075885772705078125e+01 -1.452884197235107422e+01 -5.253648757934570312e-02 9.512125253677368164e-01 2.696028053760528564e-01 -1.659212708473205566e+00
2.280000000000000000e+03 7.581100463867187500e+01 -4.283814907073974609e+00 3.687085807323455811e-01 9.366927146911621094e+00 2.920690774917602539e+00 -2.566290795803070068e-01
2.281000000000000000e+03 3.576501083374023438e+01 -3.043618011474609375e+01 8.226714730262756348e-01 1.278188109397888184e+00 6.302578449249267578e-01 6.316894292831420898e-01
2.282000000000000000e+03 3.787856674194335938e+01 -3.153753471374511719e+01 1.562782764434814453e+00 4.078734397888183594e+00 1.692455172538757324e+00 1.143622398376464844e+00
2.283000000000000000e+03 7.106073760986328125e+01 2.027673721313476562e+01 -1.992474913597106934e+00 5.245341777801513672e+00 9.758600592613220215e-01 -1.257124900817871094e+00
2.284000000000000000e+03 6.840023040771484375e+01 -1.306791400909423828e+01 -3.241577744483947754e-01 1.322282552719116211e+00 2.994374334812164307e-01 -1.519240617752075195e+00
2.285000000000000000e+03 6.567066955566406250e+01 -1.206754779815673828e+01 -3.205361068248748779e-01 4.993410587310791016e+00 1.401862263679504395e+00 -6.851782202720642090e-01
2.286000000000000000e+03 3.554025268554687500e+01 -8.275715827941894531e+00 1.374245643615722656e+00 2.398801565170288086e+00 1.131914138793945312e+00 1.528695225715637207e+00
2.287000000000000000e+03 5.462233352661132812e+01 -3.272658538818359375e+01 2.414454460144042969e+00 7.548170089721679688e+00 2.988787412643432617e+00 7.863639593124389648e-01
2.288000000000000000e+03 5.494849777221679688e+01 -3.115449142456054688e+01 2.041904449462890625e+00 8.007680892944335938e+00 3.014875650405883789e+00 1.378905653953552246e+00
2.289000000000000000e+03 2.582767105102539062e+01 1.392094707489013672e+01 1.941752731800079346e-01 3.163191080093383789e-01 1.531483083963394165e-01 -1.192680820822715759e-01
2.290000000000000000e+03 2.389903068542480469e+01 1.577612972259521484e+01 1.256390362977981567e-01 5.936252474784851074e-01 2.157792896032333374e-01 -2.689230144023895264e-01
2.291000000000000000e+03 1.715495300292968750e+01 3.460783004760742188e+01 3.272984176874160767e-02 4.323910176753997803e-02 2.279068343341350555e-02 -3.679347410798072815e-02
2.292000000000000000e+03 1.680324172973632812e+01 3.637628936767578125e+01 9.831120073795318604e-02 1.287087202072143555e-01 6.810597330331802368e-02 -1.629159227013587952e-02
2.293000000000000000e+03 6.450722503662109375e+01 3.968517303466796875e+01 -6.358207464218139648e-01 3.667840003967285156e+00 9.096058011054992676e-01 -1.666417270898818970e-01
2.294000000000000000e+03 2.671900177001953125e+01 6.811310291290283203e+00 2.785721123218536377e-01 2.733376026153564453e-01 1.655729115009307861e-01 -1.309608668088912964e-01
2.295000000000000000e+03 2.772458457946777344e+01 7.829590797424316406e+00 3.020313680171966553e-01 6.334803104400634766e-01 2.806535065174102783e-01 -2.701458334922790527e-01
2.296000000000000000e+03 1.834075164794921875e+01 2.002024459838867188e+01 3.616445958614349365e-01 1.509882807731628418e-01 1.537898629903793335e-01 9.405107796192169189e-02
2.297000000000000000e+03 1.888673210144042969e+01 1.844869995117187500e+01 6.619159877300262451e-02 1.687861979007720947e-02 2.492106519639492035e-02 1.871684566140174866e-02
2.298000000000000000e+03 2.610711669921875000e+01 -2.948431777954101562e+01 -1.234315261244773865e-01 1.314714789390563965e+00 3.573849797248840332e-01 -2.863990515470504761e-02
2.299000000000000000e+03 3.963064575195312500e+01 -3.118129014968872070e+00 3.086971759796142578e+00 3.113711118698120117e+00 1.860204935073852539e+00 2.666387081146240234e+00
2.300000000000000000e+03 6.372351074218750000e+01 -3.470569133758544922e+00 1.826958775520324707e+00 8.054796218872070312e+00 2.964526414871215820e+00 2.307779043912887573e-01
2.301000000000000000e+03 6.247266006469726562e+01 -4.262415885925292969e+00 1.679957747459411621e+00 9.529911994934082031e+00 3.362960815429687500e+00 -8.648455142974853516e-01
2.302000000000000000e+03 3.551696395874023438e+01 2.355806159973144531e+01 4.649158418178558350e-01 4.088180541992187500e+00 1.365928888320922852e+00 -1.217666387557983398e+00
2.303000000000000000e+03 5.232833862304687500e+00 3.077936744689941406e+01 4.867568612098693848e-02 -5.400161147117614746e-01 -1.474021226167678833e-01 7.115984708070755005e-02
2.304000000000000000e+03 1.437287902832031250e+01 -9.866468429565429688e+00 -2.641841955482959747e-02 2.000814229249954224e-01 5.209890007972717285e-02 -4.853219538927078247e-02
2.305000000000000000e+03 4.560866928100585938e+01 -1.890991210937500000e+01 1.896463394165039062e+00 7.135725975036621094e+00 2.709656715393066406e+00 1.289916038513183594e+00
2.306000000000000000e+03 4.310675048828125000e+01 -1.827003288269042969e+01 1.038196325302124023e+00 2.853884935379028320e+00 1.167624354362487793e+00 1.151245355606079102e+00
2.307000000000000000e+03 5.813499069213867188e+01 -2.145146942138671875e+01 2.905237674713134766e+00 5.666938781738281250e+00 2.571652889251708984e+00 1.741736233234405518e-01
2.308000000000000000e+03 6.481395721435546875e+01 3.062762260437011719e+00 5.723752081394195557e-02 3.160810470581054688e+00 9.654144048690795898e-01 1.536933034658432007e-01
2.309000000000000000e+03 4.872177886962890625e+01 -1.047459793090820312e+01 3.755762100219726562e+00 1.030720520019531250e+01 4.218890190124511719e+00 1.215812921524047852e+00
2.310000000000000000e+03 5.308665466308593750e+01 6.527686119079589844e-01 6.809626221656799316e-01 5.403890609741210938e+00 1.825456023216247559e+00 2.536500692367553711e+00
2.311000000000000000e+03 2.069251251220703125e+01 -1.499785423278808594e+01 -3.094036579132080078e-01 -3.292350471019744873e-02 -1.026981472969055176e-01 -3.959260880947113037e-01
2.312000000000000000e+03 1.877930068969726562e+01 2.319742202758789062e+01 5.624707937240600586e-01 5.683770775794982910e-01 3.392543494701385498e-01 2.797594666481018066e-01
2.313000000000000000e+03 4.515465927124023438e+01 -2.390711212158203125e+01 3.842405974864959717e-01 3.789435863494873047e+00 1.252102851867675781e+00 8.468770384788513184e-01
2.314000000000000000e+03 6.108919525146484375e+01 7.069852828979492188e+00 -5.476045608520507812e-01 5.006844997406005859e+00 1.337772130966186523e+00 -1.486257314682006836e+00
2.315000000000000000e+03 5.130707168579101562e+01 -2.290714979171752930e+00 2.092874765396118164e+00 7.691701889038085938e+00 2.935373067855834961e+00 -2.022799402475357056e-01
2.316000000000000000e+03 6.874258422851562500e+01 5.801777839660644531e+00 1.997708678245544434e-01 2.000123500823974609e+00 6.599683165550231934e-01 2.487963914871215820e+00
2.317000000000000000e+03 4.123658370971679688e+01 1.011842632293701172e+01 1.278872370719909668e+00 4.826184749603271484e+00 1.831517219543457031e+00 -7.089678645133972168e-01
2.318000000000000000e+03 5.467931365966796875e+01 -2.867957496643066406e+01 -1.525075733661651611e-01 6.741936206817626953e+00 1.976828575134277344e+00 1.727787017822265625e+00
2.319000000000000000e+03 1.182139587402343750e+01 -2.819096946716308594e+01 1.047276705503463745e-01 5.763863772153854370e-02 4.870989173650741577e-02 -4.512915015220642090e-02
2.320000000000000000e+03 1.028187847137451172e+01 -3.291790008544921875e+01 5.831567198038101196e-02 9.514416754245758057e-02 4.603794962167739868e-02 -3.224650025367736816e-02
2.321000000000000000e+03 3.421002197265625000e+01 -3.033673286437988281e+01 5.158775448799133301e-01 3.404591083526611328e-01 2.569009959697723389e-01 -2.851743774954229593e-04
2.322000000000000000e+03 3.805063629150390625e+01 4.084777450561523438e+01 -2.397070527076721191e-01 1.440366864204406738e+00 3.601979315280914307e-01 9.305108338594436646e-02
2.323000000000000000e+03 3.451538085937500000e+01 4.009453201293945312e+01 -4.688296318054199219e-01 1.726187348365783691e+00 3.772073090076446533e-01 1.169327944517135620e-01
2.324000000000000000e+03 4.316057682037353516e+00 -2.193123435974121094e+01 1.628205180168151855e-01 -1.977212131023406982e-01 -1.047020684927701950e-02 -9.310843795537948608e-02
2.325000000000000000e+03 5.862481117248535156e+00 3.175092315673828125e+01 8.533815294504165649e-02 -3.622111678123474121e-01 -8.306191116571426392e-02 6.717453896999359131e-02
2.326000000000000000e+03 6.559786987304687500e+01 4.941636562347412109e+00 2.542884051799774170e-01 1.157589554786682129e+00 4.235633909702301025e-01 5.166074633598327637e-01
2.327000000000000000e+03 6.806853485107421875e+01 1.933061599731445312e+00 4.444106221199035645e-01 2.264561176300048828e+00 8.126915097236633301e-01 2.319045305252075195e+00
2.328000000000000000e+03 1.071455192565917969e+01 -2.585038566589355469e+01 8.851806074380874634e-02 5.148749798536300659e-03 2.810004353523254395e-02 -1.465996205806732178e-01
2.329000000000000000e+03 2.932085037231445312e+01 -1.196290588378906250e+01 -4.662745296955108643e-01 8.997483253479003906e-01 1.300421357154846191e-01 5.073269009590148926e-01
2.330000000000000000e+03 5.855910110473632812e+01 2.216812515258789062e+01 -1.950752377510070801e+00 6.868333816528320312e-01 -3.791757225990295410e-01 6.486351042985916138e-02
2.331000000000000000e+03 2.290155029296875000e+01 3.123336029052734375e+01 3.372735083103179932e-01 7.868400812149047852e-01 3.372340798377990723e-01 1.192205771803855896e-02
2.332000000000000000e+03 2.109133338928222656e+01 3.038285255432128906e+01 1.332089751958847046e-01 6.271426081657409668e-01 2.281054705381393433e-01 5.648383870720863342e-02
2.333000000000000000e+03 4.416861343383789062e+01 1.695056152343750000e+01 5.687662959098815918e-01 5.809895038604736328e+00 1.913598418235778809e+00 7.323970198631286621e-01
2.334000000000000000e+03 4.271426391601562500e+01 1.697545623779296875e+01 4.525557458400726318e-01 4.454242706298828125e+00 1.472039461135864258e+00 -3.692323267459869385e-01
2.335000000000000000e+03 3.672707748413085938e+01 -1.430628395080566406e+01 -2.090896606445312500e+00 9.639521241188049316e-01 -3.380833268165588379e-01 -3.496970534324645996e-01
2.336000000000000000e+03 4.417126464843750000e+01 -1.611618041992187500e+01 -1.204473257064819336e+00 3.584132909774780273e+00 7.138978838920593262e-01 1.751569509506225586e+00
2.337000000000000000e+03 4.251136398315429688e+01 -1.540220355987548828e+01 -1.435032010078430176e+00 5.483515262603759766e-01 -2.660041451454162598e-01 4.239149093627929688e-01
2.338000000000000000e+03 2.079089355468750000e+01 1.838491439819335938e+01 1.413042396306991577e-01 4.360147714614868164e-01 1.731957048177719116e-01 -1.655115485191345215e-01
2.339000000000000000e+03 4.347172164916992188e+01 1.159972095489501953e+01 2.022827863693237305e+00 7.809850215911865234e+00 2.949803590774536133e+00 -1.005774617195129395e+00
2.340000000000000000e+03 4.365821456909179688e+01 1.275012969970703125e+01 1.654274940490722656e+00 8.710469245910644531e+00 3.109423398971557617e+00 -8.302820920944213867e-01
2.341000000000000000e+03 5.093114852905273438e+01 3.345351791381835938e+01 1.327772438526153564e-01 5.514722347259521484e+00 1.694249868392944336e+00 -1.641446202993392944e-01
2.342000000000000000e+03 6.015940475463867188e+01 -1.742298316955566406e+01 8.272222280502319336e-01 6.361893653869628906e+00 2.156734704971313477e+00 -3.383317887783050537e-01
2.343000000000000000e+03 5.872769927978515625e+01 -1.927271652221679688e+01 2.280823469161987305e+00 6.232218265533447266e+00 2.553912401199340820e+00 -3.054724335670471191e-01
2.344000000000000000e+03 6.356337738037109375e+01 2.361698532104492188e+01 -6.581392288208007812e-01 6.715090274810791016e+00 1.817085385322570801e+00 2.972870588302612305e+00
2.345000000000000000e+03 6.359236145019531250e+01 2.117366600036621094e+01 -2.803472518920898438e+00 5.602030277252197266e+00 8.395673632621765137e-01 4.189441680908203125e+00
2.346000000000000000e+03 2.704237937927246094e+01 -2.658682250976562500e+01 -2.361437827348709106e-01 1.494293332099914551e+00 3.774448633193969727e-01 3.607558086514472961e-02
2.347000000000000000e+03 2.715707778930664062e+01 1.152674674987792969e+01 2.007013559341430664e-01 3.490046262741088867e-01 1.649117916822433472e-01 -2.544419653713703156e-02
2.348000000000000000e+03 2.689772605895996094e+01 1.005198001861572266e+01 2.517517507076263428e-01 3.877535760402679443e-01 1.918515861034393311e-01 -6.766880303621292114e-02
2.349000000000000000e+03 5.393819046020507812e+01 2.109798812866210938e+01 -1.736820459365844727e+00 4.693653106689453125e+00 8.870497941970825195e-01 -2.560675859451293945e+00
2.350000000000000000e+03 1.874104118347167969e+01 5.668833732604980469e+00 -2.184371352195739746e-01 1.961271166801452637e-01 -6.693005561828613281e-03 3.057014048099517822e-01
2.351000000000000000e+03 5.989072036743164062e+01 9.630870819091796875e+00 6.330032348632812500e-01 6.451193809509277344e+00 2.125259160995483398e+00 -3.821035474538803101e-02
2.352000000000000000e+03 3.463145828247070312e+01 2.482661819458007812e+01 9.855443835258483887e-01 4.706665039062500000e+00 1.707662820816040039e+00 -9.171512126922607422e-01
2.353000000000000000e+03 1.641365432739257812e+01 -1.423823642730712891e+01 5.530532915145158768e-03 3.478905558586120605e-01 1.060263291001319885e-01 -1.259504705667495728e-01
2.354000000000000000e+03 1.751697349548339844e+01 -1.492039012908935547e+01 -2.108908724039793015e-03 1.946809589862823486e-01 5.777161568403244019e-02 -2.204365134239196777e-01
2.355000000000000000e+03 5.288864517211914062e+01 2.226788902282714844e+01 -1.313124537467956543e+00 4.928578376770019531e+00 1.084636211395263672e+00 -1.986633419990539551e+00
2.356000000000000000e+03 3.445289993286132812e+01 3.617263793945312500e+01 -6.555821895599365234e-01 2.044955492019653320e+00 4.168119728565216064e-01 3.201209008693695068e-01
2.357000000000000000e+03 3.599919509887695312e+01 3.535803985595703125e+01 -9.388145208358764648e-01 1.995402216911315918e+00 3.169763088226318359e-01 4.016862213611602783e-01
2.358000000000000000e+03 1.287546062469482422e+01 -2.691918945312500000e+01 1.430826932191848755e-01 1.418534293770790100e-02 4.718041047453880310e-02 -3.055335767567157745e-02
2.359000000000000000e+03 1.556712150573730469e+01 -2.646447753906250000e+01 2.606392204761505127e-01 7.242345064878463745e-02 9.991879761219024658e-02 6.743017584085464478e-02
2.360000000000000000e+03 2.145548248291015625e+01 2.331463623046875000e+01 1.860998570919036865e-01 8.889560699462890625e-01 3.225167691707611084e-01 1.739783585071563721e-01
2.361000000000000000e+03 1.025289630889892578e+01 -3.706766128540039062e+01 4.856324940919876099e-02 9.795591980218887329e-02 4.395575076341629028e-02 1.232486392837017775e-04
2.362000000000000000e+03 1.645029258728027344e+01 3.774802780151367188e+01 9.092860668897628784e-02 1.427651792764663696e-01 7.010813802480697632e-02 -1.211952790617942810e-02
2.363000000000000000e+03 1.521000576019287109e+01 3.582555770874023438e+01 8.601722121238708496e-02 -1.560259028337895870e-03 2.533708699047565460e-02 3.623617440462112427e-02
2.364000000000000000e+03 7.159270477294921875e+01 -1.547828292846679688e+01 -1.528236269950866699e-01 2.215559244155883789e+00 6.188206672668457031e-01 -1.330750107765197754e+00
2.365000000000000000e+03 9.303278923034667969e+00 1.833996200561523438e+01 5.033904910087585449e-01 5.705287680029869080e-02 1.681330054998397827e-01 1.997130811214447021e-01
2.366000000000000000e+03 4.263806343078613281e+00 1.813122367858886719e+01 1.541021466255187988e-01 -5.531985759735107422e-01 -1.197289302945137024e-01 1.406663507223129272e-01
2.367000000000000000e+03 3.825645446777343750e+01 2.024154472351074219e+01 -7.814286947250366211e-01 2.072903394699096680e+00 3.874424397945404053e-01 -1.959445118904113770e+00
2.368000000000000000e+03 4.603250122070312500e+01 -2.293819236755371094e+01 9.479165077209472656e-01 5.743535518646240234e+00 2.007435560226440430e+00 4.122514426708221436e-01
2.369000000000000000e+03 4.023048400878906250e+01 -2.617261505126953125e+01 7.566462755203247070e-01 4.694886207580566406e+00 1.635459780693054199e+00 1.768937826156616211e+00
2.370000000000000000e+03 3.948987197875976562e+01 -2.697410392761230469e+01 -4.139865636825561523e-01 5.922304153442382812e+00 1.652495384216308594e+00 1.775269746780395508e+00
2.371000000000000000e+03 4.257949829101562500e+01 1.408983612060546875e+01 1.768245220184326172e+00 6.119650840759277344e+00 2.366368770599365234e+00 -7.235239744186401367e-01
2.372000000000000000e+03 4.043479919433593750e+01 1.111643695831298828e+01 1.559316992759704590e+00 4.081789493560791016e+00 1.692332029342651367e+00 -9.408307671546936035e-01
2.373000000000000000e+03 4.707595062255859375e+01 2.337420082092285156e+01 1.750802099704742432e-01 5.017993450164794922e+00 1.557922005653381348e+00 9.723761081695556641e-01
2.374000000000000000e+03 5.189097595214843750e+01 -3.717134475708007812e+01 -3.115077912807464600e-01 5.892375469207763672e+00 1.674260258674621582e+00 6.738677024841308594e-01
2.375000000000000000e+03 5.030405807495117188e+01 -3.630226898193359375e+01 -8.831948041915893555e-02 5.355240821838378906e+00 1.580076336860656738e+00 6.348342895507812500e-01
2.376000000000000000e+03 6.683877563476562500e+01 2.173687744140625000e+01 -1.282866597175598145e+00 7.228180170059204102e-01 -1.680145859718322754e-01 8.348846435546875000e-02
2.377000000000000000e+03 6.767015075683593750e+01 2.230035400390625000e+01 -9.538558125495910645e-01 1.291168928146362305e+00 1.011939272284507751e-01 -3.495723307132720947e-01
2.378000000000000000e+03 1.918374252319335938e+01 1.941897201538085938e+01 2.433688044548034668e-01 8.853045850992202759e-02 9.956978261470794678e-02 -6.567373871803283691e-02
2.379000000000000000e+03 4.365394973754882812e+01 5.629984855651855469e+00 -1.527674555778503418e+00 6.393306732177734375e+00 1.459689736366271973e+00 -2.314252138137817383e+00
2.380000000000000000e+03 7.464879608154296875e+01 -1.939231681823730469e+01 8.557693362236022949e-01 8.830285072326660156e+00 2.905816316604614258e+00 3.178915083408355713e-01
2.381000000000000000e+03 7.710436248779296875e+01 -1.817430877685546875e+01 4.973720014095306396e-02 8.218803405761718750e+00 2.480561971664428711e+00 1.208584547042846680e+00
2.382000000000000000e+03 5.229106903076171875e+01 -2.985105895996093750e+01 1.570810079574584961e+00 4.655800819396972656e+00 1.867983222007751465e+00 5.279110074043273926e-01
2.383000000000000000e+03 6.550417327880859375e+01 3.267531204223632812e+01 5.595363304018974304e-02 5.649451732635498047e+00 1.711621522903442383e+00 8.055216073989868164e-01
2.384000000000000000e+03 1.015548133850097656e+01 1.747956085205078125e+01 6.613975167274475098e-01 3.480070829391479492e-01 3.028213679790496826e-01 3.400506675243377686e-01
2.385000000000000000e+03 9.498900413513183594e+00 1.992303276062011719e+01 2.946840524673461914e-01 -2.176608657464385033e-03 8.775223791599273682e-02 1.276931613683700562e-01
2.386000000000000000e+03 4.372440719604492188e+01 2.106138038635253906e+01 -2.013268470764160156e+00 3.500382184982299805e+00 4.461340904235839844e-01 1.996074318885803223e+00
2.387000000000000000e+03 5.811548614501953125e+01 1.878567504882812500e+01 8.198393583297729492e-01 5.272742271423339844e+00 1.827774405479431152e+00 -8.096533268690109253e-02
2.388000000000000000e+03 3.311030578613281250e+01 -3.121991348266601562e+01 6.296994686126708984e-01 4.101536273956298828e-01 3.119559288024902344e-01 -5.769753083586692810e-02
2.389000000000000000e+03 7.309864044189453125e+01 -2.723500633239746094e+01 -1.213267683982849121e+00 6.288321018218994141e+00 1.522515892982482910e+00 2.295470714569091797e+00
2.390000000000000000e+03 6.132348251342773438e+01 -1.604805588722229004e+00 1.161487102508544922e+00 7.780799865722656250e+00 2.682686090469360352e+00 -1.385558128356933594e+00
2.391000000000000000e+03 4.870557022094726562e+01 2.218181991577148438e+01 -3.635834753513336182e-01 2.876658201217651367e+00 7.539224028587341309e-01 4.896124079823493958e-02
2.392000000000000000e+03 4.817790222167968750e+01 -1.153205013275146484e+01 2.682681322097778320e+00 1.034322929382324219e+01 3.907773256301879883e+00 1.314467430114746094e+00
2.393000000000000000e+03 5.103826141357421875e+01 -8.558508872985839844e+00 2.762924432754516602e+00 8.313285827636718750e+00 3.322863101959228516e+00 -3.297825753688812256e-01
2.394000000000000000e+03 2.961902999877929688e+01 3.297975540161132812e+01 2.385967522859573364e-01 1.847954630851745605e+00 6.259654164314270020e-01 -6.224638819694519043e-01
2.395000000000000000e+03 5.584410190582275391e+00 3.689307785034179688e+01 4.561454802751541138e-02 -4.508911967277526855e-01 -1.215829923748970032e-01 -3.792211785912513733e-02
2.396000000000000000e+03 6.229541015625000000e+01 2.247449874877929688e+01 -2.779482126235961914e+00 6.404797077178955078e+00 1.087594509124755859e+00 3.716048717498779297e+00
2.397000000000000000e+03 6.263260269165039062e+01 -8.867704391479492188e+00 1.032016277313232422e+00 8.381547927856445312e+00 2.824069261550903320e+00 5.595997571945190430e-01
2.398000000000000000e+03 1.186471939086914062e+01 4.122745895385742188e+01 9.084465913474559784e-03 5.573130771517753601e-02 1.944473199546337128e-02 3.615740686655044556e-02
2.399000000000000000e+03 5.772764587402343750e+01 1.248597145080566406e+01 1.558191180229187012e+00 8.765089988708496094e+00 3.096984386444091797e+00 1.439075231552124023e+00
2.400000000000000000e+03 7.323043823242187500e+01 9.834218025207519531e+00 1.665847063064575195e+00 8.868926048278808594e+00 3.160432100296020508e+00 1.234858334064483643e-01
2.401000000000000000e+03 6.318574142456054688e+01 -2.299178695678710938e+01 3.364880800247192383e+00 6.378699779510498047e+00 2.923074245452880859e+00 -2.265071868896484375e+00
2.402000000000000000e+03 6.282083129882812500e+01 -2.560715103149414062e+01 -1.275877594947814941e+00 4.036155223846435547e+00 8.280832171440124512e-01 -2.921156644821166992e+00
2.403000000000000000e+03 7.410711669921875000e+01 -1.225582408905029297e+01 -1.451649188995361328e+00 4.694793224334716797e+00 9.729431867599487305e-01 1.495831608772277832e+00
2.404000000000000000e+03 4.057535552978515625e+01 -1.761246681213378906e+01 1.775075197219848633e-01 7.656188607215881348e-01 2.829379141330718994e-01 -2.094673663377761841e-01
2.405000000000000000e+03 4.356574630737304688e+01 -2.108899879455566406e+01 2.130824804306030273e+00 3.748398303985595703e+00 1.763767004013061523e+00 1.824152350425720215e+00
2.406000000000000000e+03 1.495381259918212891e+01 1.950491523742675781e+01 4.658923149108886719e-01 1.570779830217361450e-01 1.868910938501358032e-01 5.658059716224670410e-01
2.407000000000000000e+03 5.256722640991210938e+01 3.425161743164062500e+01 -3.836901187896728516e-01 5.070997714996337891e+00 1.406192302703857422e+00 1.852906644344329834e-01
2.408000000000000000e+03 4.832109832763671875e+01 3.156443977355957031e+01 6.206265687942504883e-01 5.035911560058593750e+00 1.696961522102355957e+00 -3.668610751628875732e-01
2.409000000000000000e+03 7.547135162353515625e+01 6.851063251495361328e+00 8.413218706846237183e-02 7.317966461181640625e+00 2.220629692077636719e+00 -8.959193825721740723e-01
2.410000000000000000e+03 7.249093627929687500e+01 -2.837428665161132812e+01 2.220627665519714355e-01 4.514030933380126953e+00 1.420828104019165039e+00 1.816515326499938965e+00
2.411000000000000000e+03 7.056227874755859375e+01 -2.875008201599121094e+01 1.208820939064025879e+00 2.445220232009887695e+00 1.096212387084960938e+00 5.394368171691894531e-01
2.412000000000000000e+03 5.520774078369140625e+01 1.717558741569519043e+00 -3.574493229389190674e-01 3.720107078552246094e+00 1.008797287940979004e+00 2.645677566528320312e+00
2.413000000000000000e+03 5.630796432495117188e+01 1.987254381179809570e+00 3.258519768714904785e-01 3.071314811706542969e+00 1.019150018692016602e+00 1.334726929664611816e+00
2.414000000000000000e+03 2.695653915405273438e+01 -2.275023460388183594e+01 5.437241792678833008e-01 1.776570916175842285e+00 6.960884928703308105e-01 2.117307335138320923e-01
2.415000000000000000e+03 2.577495574951171875e+01 -2.209947967529296875e+01 6.084691882133483887e-01 1.247009873390197754e+00 5.566437244415283203e-01 1.707551032304763794e-01
2.416000000000000000e+03 5.478831768035888672e+00 -2.712520599365234375e+01 -3.833638504147529602e-03 -9.885052591562271118e-02 -3.080524876713752747e-02 -3.523802757263183594e-02
2.417000000000000000e+03 7.477435588836669922e+00 -2.416645050048828125e+01 8.898672461509704590e-02 1.021116301417350769e-01 5.732950940728187561e-02 -1.201855316758155823e-01
2.418000000000000000e+03 1.221621704101562500e+01 -1.054519653320312500e+01 -4.780012369155883789e-02 6.825182586908340454e-02 6.135510280728340149e-03 -8.058857917785644531e-02
2.419000000000000000e+03 1.490344619750976562e+01 -1.250844573974609375e+01 -5.354537442326545715e-02 3.715414702892303467e-01 9.539882838726043701e-02 -9.730464220046997070e-02
2.420000000000000000e+03 8.221928596496582031e+00 1.570776081085205078e+01 4.610367119312286377e-01 -5.001079291105270386e-02 1.233077794313430786e-01 4.160778224468231201e-01
2.421000000000000000e+03 3.340675735473632812e+01 -8.825784683227539062e+00 9.263008832931518555e-01 6.345754265785217285e-01 4.682628810405731201e-01 1.487538933753967285e+00
2.422000000000000000e+03 2.668964195251464844e+01 -3.232972717285156250e+01 1.353652477264404297e-01 1.230174183845520020e+00 4.096618294715881348e-01 -1.017375960946083069e-01
2.423000000000000000e+03 6.421217346191406250e+01 2.538083839416503906e+01 2.117244482040405273e+00 5.900663852691650391e+00 2.405372619628906250e+00 1.304515004158020020e+00
2.424000000000000000e+03 3.319329452514648438e+01 -1.357531547546386719e+01 -9.095360636711120605e-01 5.358620882034301758e-01 -1.121022030711174011e-01 1.426488161087036133e+00
2.425000000000000000e+03 3.662346267700195312e+01 -1.159362697601318359e+01 -9.601997137069702148e-01 1.568414926528930664e+00 1.824645847082138062e-01 5.262631773948669434e-01
2.426000000000000000e+03 2.803221464157104492e+00 1.196322345733642578e+01 -2.686747349798679352e-02 -3.007692694664001465e-01 -9.829102456569671631e-02 2.901072800159454346e-01
2.427000000000000000e+03 8.479202270507812500e+00 1.109702777862548828e+01 -3.280639052391052246e-01 -2.798495590686798096e-01 -1.823740303516387939e-01 4.875952601432800293e-01
2.428000000000000000e+03 2.466749763488769531e+01 7.634736061096191406e+00 2.888356149196624756e-01 9.024818427860736847e-03 8.935812860727310181e-02 -5.794780328869819641e-02
2.429000000000000000e+03 7.010108947753906250e+01 -3.013352966308593750e+01 2.012485504150390625e+00 3.424373865127563477e+00 1.631057858467102051e+00 -5.718008875846862793e-01
2.430000000000000000e+03 2.181898880004882812e+01 1.479235172271728516e+01 -1.381954699754714966e-01 3.572540283203125000e-01 6.571757048368453979e-02 1.092054471373558044e-01
2.431000000000000000e+03 2.365747833251953125e+01 1.406675052642822266e+01 -6.684469059109687805e-03 4.651623368263244629e-01 1.375433653593063354e-01 -1.806618645787239075e-02
2.432000000000000000e+03 5.008783721923828125e+01 -7.044063091278076172e+00 1.882897496223449707e+00 9.697895050048828125e+00 3.474237680435180664e+00 1.909709423780441284e-01
2.433000000000000000e+03 5.529767227172851562e+01 -3.624667739868164062e+01 1.981619745492935181e-01 7.319928169250488281e+00 2.255427122116088867e+00 -4.342654645442962646e-01
2.434000000000000000e+03 1.006654262542724609e+01 -3.449243164062500000e+01 3.968574479222297668e-02 8.960379660129547119e-02 3.878686204552650452e-02 -1.608853228390216827e-02
2.435000000000000000e+03 7.294861316680908203e+00 -1.289352130889892578e+01 -1.259296834468841553e-01 -2.323555499315261841e-01 -1.074855700135231018e-01 -1.242187917232513428e-01
2.436000000000000000e+03 4.304620742797851562e+01 1.052688407897949219e+01 1.441659569740295410e+00 6.954967498779296875e+00 2.518988132476806641e+00 -8.091607689857482910e-01
2.437000000000000000e+03 6.551168823242187500e+01 -1.804036974906921387e+00 1.252994179725646973e+00 5.995065689086914062e+00 2.174417972564697266e+00 1.520315766334533691e+00
2.438000000000000000e+03 6.268039321899414062e+01 -1.408374214172363281e+01 -1.287095785140991211e+00 6.465604782104492188e+00 1.553552746772766113e+00 7.467121481895446777e-01
2.439000000000000000e+03 6.053937149047851562e+01 -1.067055988311767578e+01 -8.701992630958557129e-01 6.513639450073242188e+00 1.693032026290893555e+00 1.801492214202880859e+00
2.440000000000000000e+03 5.375430297851562500e+01 5.054925441741943359e+00 -1.892280459403991699e+00 6.809557437896728516e+00 1.475183129310607910e+00 2.882872343063354492e+00
2.441000000000000000e+03 5.182837677001953125e+01 3.898885011672973633e+00 -2.368388921022415161e-01 2.773885965347290039e+00 7.611141204833984375e-01 3.500481843948364258e+00
2.442000000000000000e+03 6.319951629638671875e+01 -4.142477798461914062e+01 -1.111359119415283203e+00 7.686447501182556152e-01 -1.028143092989921570e-01 2.544703483581542969e-01
2.443000000000000000e+03 6.927045440673828125e+01 2.210901069641113281e+01 -1.159655928611755371e+00 3.107851505279541016e+00 5.844586491584777832e-01 -1.239511966705322266e+00
2.444000000000000000e+03 5.210138320922851562e+01 -3.423588180541992188e+01 1.987168312072753906e+00 6.393405437469482422e+00 2.514172077178955078e+00 6.347329616546630859e-01
2.445000000000000000e+03 5.147272872924804688e+01 -6.352073669433593750e+00 2.114964246749877930e+00 9.610724449157714844e+00 3.517706632614135742e+00 -2.832092940807342529e-01
2.446000000000000000e+03 5.061435699462890625e+01 -4.696762084960937500e+00 1.511018037796020508e+00 9.629878997802734375e+00 3.342268943786621094e+00 -1.078844785690307617e+00
2.447000000000000000e+03 5.191516113281250000e+01 -2.696930122375488281e+01 -2.925652861595153809e-01 1.991431355476379395e+00 5.096598267555236816e-01 7.026339769363403320e-01
2.448000000000000000e+03 5.427031707763671875e+01 -2.680391502380371094e+01 -1.823161721229553223e+00 6.314820289611816406e+00 1.347497582435607910e+00 2.668185472488403320e+00
2.449000000000000000e+03 1.690062713623046875e+01 -2.068206977844238281e+01 -6.737576425075531006e-02 -3.139730170369148254e-02 -2.963192015886306763e-02 -1.362126171588897705e-01
2.450000000000000000e+03 1.809243202209472656e+01 -1.920638084411621094e+01 6.635873019695281982e-02 4.270005226135253906e-02 3.271763399243354797e-02 -3.350570499897003174e-01
2.451000000000000000e+03 7.002294158935546875e+01 2.301210212707519531e+01 -4.451247155666351318e-01 3.847940444946289062e+00 1.020844697952270508e+00 -1.290557384490966797e+00
2.452000000000000000e+03 4.956283569335937500e+01 -1.425672149658203125e+01 -1.385934948921203613e+00 4.822022438049316406e+00 1.030826210975646973e+00 7.961190342903137207e-01
2.453000000000000000e+03 5.959116363525390625e+01 1.509940814971923828e+01 1.999654531478881836e+00 9.735328674316406250e+00 3.520494937896728516e+00 2.143512248992919922e+00
2.454000000000000000e+03 6.345254898071289062e+01 -2.164984703063964844e+01 3.198366880416870117e+00 7.580454349517822266e+00 3.233646392822265625e+00 -2.747440338134765625e+00
2.455000000000000000e+03 5.673747634887695312e+01 -1.269027805328369141e+01 3.303803503513336182e-01 3.914820432662963867e+00 1.273560166358947754e+00 -1.765859961509704590e+00
2.456000000000000000e+03 5.320236206054687500e+01 4.120375061035156250e+01 -1.290474414825439453e+00 3.583091259002685547e+00 6.877850890159606934e-01 1.516052186489105225e-01
2.457000000000000000e+03 4.622353363037109375e+01 1.994769668579101562e+01 -2.869282960891723633e+00 4.828611373901367188e+00 5.877985358238220215e-01 2.276909828186035156e+00
2.458000000000000000e+03 2.136529350280761719e+01 -2.485412597656250000e+01 3.293021619319915771e-01 1.009982675313949585e-01 1.290901303291320801e-01 7.880515605211257935e-02
2.459000000000000000e+03 1.835971450805664062e+01 -2.233002471923828125e+01 1.550365239381790161e-01 9.861566126346588135e-03 4.946942627429962158e-02 5.343889351934194565e-04
2.460000000000000000e+03 6.598628997802734375e+01 3.529376602172851562e+01 -7.033103704452514648e-01 5.143042087554931641e+00 1.331919550895690918e+00 4.039365649223327637e-01
2.461000000000000000e+03 5.586364746093750000e+01 -1.201991367340087891e+01 6.263607144355773926e-01 3.436015605926513672e+00 1.218712925910949707e+00 -2.523665428161621094e+00
2.462000000000000000e+03 5.145579147338867188e+01 -2.897470092773437500e+01 1.035210490226745605e+00 3.793392419815063477e+00 1.448580861091613770e+00 -1.755723655223846436e-01
2.463000000000000000e+03 3.812221908569335938e+01 -3.430926513671875000e+01 9.058692455291748047e-01 3.758283615112304688e+00 1.399245858192443848e+00 1.166886329650878906e+00
2.464000000000000000e+03 3.603293228149414062e+01 -3.900696563720703125e+01 -7.467496395111083984e-01 2.411970615386962891e+00 4.995663166046142578e-01 4.147432446479797363e-01
2.465000000000000000e+03 6.796479034423828125e+01 -2.724354362487792969e+01 -7.292629480361938477e-01 4.132488727569580078e+00 1.020967721939086914e+00 -2.236803770065307617e+00
2.466000000000000000e+03 3.062896919250488281e+01 2.988792610168457031e+01 8.350973129272460938e-01 2.140017271041870117e+00 8.925343751907348633e-01 -9.972888231277465820e-01
2.467000000000000000e+03 3.365016174316406250e+01 3.028064727783203125e+01 5.093840360641479492e-01 3.794921398162841797e+00 1.291291713714599609e+00 -5.289183855056762695e-01
2.468000000000000000e+03 4.951671600341796875e+01 4.397269248962402344e+00 -5.857288837432861328e-01 1.402767539024353027e+00 2.451115846633911133e-01 2.830841839313507080e-01
2.469000000000000000e+03 6.364944458007812500e+01 -8.357702255249023438e+00 1.653458714485168457e+00 8.539990425109863281e+00 3.058034658432006836e+00 7.848595082759857178e-02
2.470000000000000000e+03 6.290489959716796875e+01 -1.004545497894287109e+01 1.865128427743911743e-01 7.945879459381103516e+00 2.439717769622802734e+00 6.213900446891784668e-01
2.471000000000000000e+03 7.854936599731445312e+00 2.042898750305175781e+01 1.611920446157455444e-01 -2.056129723787307739e-01 -1.332627702504396439e-02 6.784978508949279785e-02
2.472000000000000000e+03 2.314314270019531250e+01 2.916947174072265625e+01 4.533804655075073242e-01 7.916259765625000000e-01 3.735019266605377197e-01 2.509295046329498291e-01
2.473000000000000000e+03 7.947398185729980469e+00 8.755210876464843750e+00 -4.973882138729095459e-01 -2.732545137405395508e-01 -2.311928123235702515e-01 3.312087655067443848e-01
2.474000000000000000e+03 4.612025833129882812e+01 -1.638576889038085938e+01 -1.885758161544799805e+00 7.683703899383544922e+00 1.739383697509765625e+00 2.095261096954345703e+00
2.475000000000000000e+03 5.874029159545898438e+01 1.010956764221191406e+01 1.287044882774353027e+00 7.860063076019287109e+00 2.744132280349731445e+00 6.483749747276306152e-01
2.476000000000000000e+03 2.954738807678222656e+01 1.356303024291992188e+01 2.709931433200836182e-01 3.480550050735473633e-01 1.857144385576248169e-01 2.052259445190429688e-01
2.477000000000000000e+03 4.180768966674804688e+00 2.700514602661132812e+01 -1.018092408776283264e-01 -7.271723747253417969e-01 -2.486944794654846191e-01 9.912923723459243774e-02
2.478000000000000000e+03 5.858244323730468750e+01 -2.536443901062011719e+01 -9.059628248214721680e-01 4.972665786743164062e+00 1.220010995864868164e+00 1.745297908782958984e+00
2.479000000000000000e+03 5.633309173583984375e+01 -2.452997016906738281e+01 -1.135781764984130859e+00 8.954196929931640625e+00 2.345524787902832031e+00 1.204997539520263672e+00
2.480000000000000000e+03 2.350297927856445312e+01 -2.343729972839355469e+01 4.593681991100311279e-01 5.549278855323791504e-01 3.042888343334197998e-01 7.677754759788513184e-02
2.481000000000000000e+03 2.317551612854003906e+01 -1.588898944854736328e+01 -2.064883112907409668e-01 -1.202528849244117737e-01 -9.802235662937164307e-02 -3.438726663589477539e-01
2.482000000000000000e+03 6.537597656250000000e+01 -1.574823474884033203e+01 -1.966095924377441406e+00 4.351994514465332031e+00 7.157695293426513672e-01 8.852123618125915527e-01
2.483000000000000000e+03 6.187618637084960938e+01 -1.789440345764160156e+01 4.724676311016082764e-01 6.523498535156250000e+00 2.098789930343627930e+00 -7.026500105857849121e-01
2.484000000000000000e+03 5.107936096191406250e+01 -2.807885360717773438e+01 2.174263633787631989e-02 3.235968112945556641e+00 9.773132205009460449e-01 -5.295367009239271283e-05
2.485000000000000000e+03 3.380840682983398438e+01 1.452045059204101562e+01 6.424276232719421387e-01 9.154461026191711426e-01 4.673621058464050293e-01 -7.015596032142639160e-01
2.486000000000000000e+03 3.061758422851562500e+01 -1.285051727294921875e+01 -7.739960551261901855e-01 1.170772671699523926e+00 1.190329790115356445e-01 1.085349082946777344e+00
2.487000000000000000e+03 6.723407745361328125e+01 -2.917407417297363281e+01 1.981690645217895508e+00 6.483611583709716797e+00 2.539590835571289062e+00 -1.897147178649902344e+00
2.488000000000000000e+03 3.132624816894531250e+01 -3.089808273315429688e+01 1.770440340042114258e-01 7.926217317581176758e-01 2.908997237682342529e-01 -2.870053052902221680e-01
2.489000000000000000e+03 3.590781021118164062e+01 -3.223705673217773438e+01 1.420760035514831543e+00 2.030121326446533203e+00 1.035264372825622559e+00 9.574545621871948242e-01
2.490000000000000000e+03 1.593334388732910156e+01 -7.304780483245849609e+00 4.539601132273674011e-02 2.750600874423980713e-01 9.613683074712753296e-02 -4.179804772138595581e-02
2.491000000000000000e+03 2.234927177429199219e+01 3.000080680847167969e+01 3.266579806804656982e-01 8.095194697380065918e-01 3.408532440662384033e-01 1.521136909723281860e-01
2.492000000000000000e+03 7.720429420471191406e+00 -2.553170394897460938e+01 2.775829285383224487e-02 3.009841218590736389e-02 1.735701225697994232e-02 -1.119895949959754944e-01
2.493000000000000000e+03 5.542826080322265625e+01 -2.554304313659667969e+01 -3.560232639312744141e+00 7.663251876831054688e+00 1.230905771255493164e+00 1.919615745544433594e+00
2.494000000000000000e+03 5.540916061401367188e+01 -1.621655082702636719e+01 -1.255588293075561523e+00 6.983360767364501953e+00 1.718331694602966309e+00 -1.333810448646545410e+00
2.495000000000000000e+03 5.644661331176757812e+01 -2.347239112854003906e+01 3.860378861427307129e-01 8.079058647155761719e+00 2.539528846740722656e+00 2.350184768438339233e-01
2.496000000000000000e+03 5.259021759033203125e+00 -4.053821563720703125e+01 -1.767245866358280182e-02 -2.583745718002319336e-01 -8.281410485506057739e-02 -7.209650706499814987e-03
2.497000000000000000e+03 7.159714698791503906e+00 -3.865429306030273438e+01 1.140832901000976562e-03 -9.013241529464721680e-02 -2.669747546315193176e-02 -2.988678170368075371e-03
2.498000000000000000e+03 3.752852249145507812e+01 1.731090354919433594e+01 5.338054895401000977e-01 2.072144031524658203e+00 7.817848324775695801e-01 -1.997007250785827637e+00
2.499000000000000000e+03 8.538367271423339844e+00 -1.213521480560302734e+01 -9.757012128829956055e-02 -1.328235119581222534e-01 -6.911808997392654419e-02 -1.190542578697204590e-01
2.500000000000000000e+03 4.355852603912353516e+00 -1.328901958465576172e+01 -3.998993337154388428e-02 -1.867214739322662354e-01 -6.801342219114303589e-02 -6.868230551481246948e-02
2.501000000000000000e+03 3.242491149902343750e+01 -3.915773391723632812e+01 -2.810655534267425537e-01 1.872697949409484863e+00 4.774897098541259766e-01 3.939966857433319092e-01
2.502000000000000000e+03 5.602362442016601562e+01 -1.353745651245117188e+01 -7.992041110992431641e-02 4.718361377716064453e+00 1.391532301902770996e+00 -2.455007314682006836e+00
2.503000000000000000e+03 6.398531723022460938e+01 2.579567670822143555e+00 -2.598356008529663086e-01 3.947690010070800781e+00 1.106356382369995117e+00 -1.119952946901321411e-01
2.504000000000000000e+03 5.870600509643554688e+01 2.103221511840820312e+01 -6.295157670974731445e-01 3.303391933441162109e+00 8.021628856658935547e-01 2.772306203842163086e-01
2.505000000000000000e+03 5.869395828247070312e+01 1.817250823974609375e+01 1.679819822311401367e+00 6.300254344940185547e+00 2.394022226333618164e+00 7.952169775962829590e-01
2.506000000000000000e+03 5.622947311401367188e+01 2.179020118713378906e+01 -2.514352560043334961e+00 3.180605173110961914e+00 1.998757570981979370e-01 -2.737292528152465820e+00
2.507000000000000000e+03 6.715203094482421875e+01 -1.327647304534912109e+01 -2.996405363082885742e-01 2.379224777221679688e+00 6.238752603530883789e-01 -6.289182901382446289e-01
2.508000000000000000e+03 7.502978515625000000e+01 -1.121948528289794922e+01 -1.968596577644348145e+00 7.921036243438720703e+00 1.785731792449951172e+00 6.678469777107238770e-01
2.509000000000000000e+03 6.800756072998046875e+01 -3.507768249511718750e+01 3.677142858505249023e-01 6.459803104400634766e+00 2.048255205154418945e+00 -1.643408179283142090e+00
2.510000000000000000e+03 7.068708038330078125e+01 -3.341744232177734375e+01 1.492477893829345703e+00 5.145303249359130859e+00 1.991334319114685059e+00 -1.122414708137512207e+00
2.511000000000000000e+03 4.979489517211914062e+01 -1.523301887512207031e+01 -2.358975887298583984e+00 2.490092754364013672e+00 3.933503851294517517e-02 1.635104537010192871e+00
2.512000000000000000e+03 5.173834228515625000e+01 -1.436745262145996094e+01 -1.007689833641052246e+00 1.767652511596679688e+00 2.279887944459915161e-01 -2.687800407409667969e+00
2.513000000000000000e+03 4.467716217041015625e+01 3.210223913192749023e+00 -1.420758485794067383e+00 7.751842021942138672e+00 1.899325013160705566e+00 -2.952165603637695312e+00
2.514000000000000000e+03 4.306423187255859375e+01 2.547620296478271484e+00 -1.394696980714797974e-01 5.306827545166015625e+00 1.550207376480102539e+00 -3.616602659225463867e+00
2.515000000000000000e+03 4.420145797729492188e+01 1.766775608062744141e+00 1.737070381641387939e-01 8.433697700500488281e+00 2.582221508026123047e+00 -3.819009065628051758e+00
2.516000000000000000e+03 4.449477386474609375e+01 1.073411822319030762e+00 1.133352994918823242e+00 1.064554214477539062e+01 3.533668518066406250e+00 -3.620625734329223633e+00
2.517000000000000000e+03 4.483713912963867188e+01 3.856178760528564453e+00 -1.708808302879333496e+00 7.452815055847167969e+00 1.723201990127563477e+00 -2.833953380584716797e+00
2.518000000000000000e+03 4.616207122802734375e+01 4.475005865097045898e-01 5.540633678436279297e+00 8.845942497253417969e+00 4.315972805023193359e+00 1.887827664613723755e-01
2.519000000000000000e+03 4.550475692749023438e+01 1.058347940444946289e+00 2.206919193267822266e+00 1.070004081726074219e+01 3.872087955474853516e+00 -7.387354969978332520e-01
2.520000000000000000e+03 4.560474395751953125e+01 5.053762793540954590e-01 4.725274085998535156e+00 1.096426486968994141e+01 4.706861495971679688e+00 3.513993322849273682e-01
2.521000000000000000e+03 4.660456848144531250e+01 2.178901247680187225e-02 6.608819484710693359e+00 7.313072681427001953e+00 4.176567554473876953e+00 -6.570479869842529297e-01
2.522000000000000000e+03 4.642702484130859375e+01 1.781788825988769531e+00 1.373317837715148926e+00 7.945978164672851562e+00 2.795788764953613281e+00 -7.574647665023803711e-01
2.523000000000000000e+03 4.742641067504882812e+01 -4.357160091400146484e+00 -4.552828073501586914e-01 8.687426567077636719e+00 2.469643115997314453e+00 -3.230983972549438477e+00
2.524000000000000000e+03 4.697336196899414062e+01 -1.646299958229064941e+00 5.227455615997314453e+00 6.858343124389648438e+00 3.625739574432373047e+00 -3.937546491622924805e+00
2.525000000000000000e+03 4.663922500610351562e+01 -3.895305633544921875e+00 -6.176229119300842285e-01 7.572177886962890625e+00 2.086366415023803711e+00 -3.563467264175415039e+00
2.526000000000000000e+03 4.540509033203125000e+01 -2.654869079589843750e+00 1.398708105087280273e+00 7.285728931427001953e+00 2.605331182479858398e+00 -3.378308534622192383e+00
2.527000000000000000e+03 4.597136306762695312e+01 -2.836643218994140625e+00 1.123286604881286621e+00 7.663501739501953125e+00 2.636036634445190430e+00 -4.171312808990478516e+00
2.528000000000000000e+03 4.433466720581054688e+01 -2.641264438629150391e+00 1.664416313171386719e+00 5.558547496795654297e+00 2.166889190673828125e+00 1.359207868576049805e+00
2.529000000000000000e+03 4.515745162963867188e+01 -3.328253984451293945e+00 -1.186766743659973145e+00 4.971822738647460938e+00 1.135516762733459473e+00 -2.136897802352905273e+00
2.530000000000000000e+03 4.273338699340820312e+01 2.822614192962646484e+00 -5.013266205787658691e-01 4.809313297271728516e+00 1.292395949363708496e+00 -3.295998573303222656e+00
2.531000000000000000e+03 4.225823593139648438e+01 -1.907167077064514160e+00 4.635005950927734375e+00 -1.146813631057739258e+00 1.046457648277282715e+00 3.370288133621215820e+00
2.532000000000000000e+03 4.360882568359375000e+01 -2.645573139190673828e+00 2.063228368759155273e+00 2.345520734786987305e+00 1.322624683380126953e+00 2.628193140029907227e+00
2.533000000000000000e+03 4.395059967041015625e+01 -2.772994041442871094e+00 1.492686867713928223e+00 4.298042297363281250e+00 1.737218737602233887e+00 2.474629163742065430e+00
2.534000000000000000e+03 4.394754791259765625e+01 -2.440543651580810547e+00 2.828818559646606445e+00 4.933887004852294922e+00 2.328811645507812500e+00 2.764522790908813477e+00
2.535000000000000000e+03 9.118809700012207031e+00 3.590466976165771484e+00 -1.817952245473861694e-01 -9.825869649648666382e-02 -8.401617407798767090e-02 6.079323589801788330e-02
2.536000000000000000e+03 9.837642669677734375e+00 3.873400926589965820e+00 -2.364916056394577026e-01 -1.559238582849502563e-01 -1.177246421575546265e-01 1.117026656866073608e-01
2.537000000000000000e+03 1.132082748413085938e+01 4.180469989776611328e+00 -3.498082458972930908e-01 -2.319565713405609131e-01 -1.745294481515884399e-01 2.386099398136138916e-01
2.538000000000000000e+03 1.208767986297607422e+01 4.352110862731933594e+00 -4.131755530834197998e-01 -2.556566596031188965e-01 -2.006496638059616089e-01 3.538793325424194336e-01
2.539000000000000000e+03 1.144024658203125000e+01 5.729557037353515625e+00 -5.374761819839477539e-01 -4.240671396255493164e-01 -2.884629964828491211e-01 3.418812751770019531e-01
2.540000000000000000e+03 4.731993865966796875e+01 6.177865982055664062e+00 -2.783696889877319336e+00 4.522811889648437500e+00 5.217344760894775391e-01 -1.332309126853942871e+00
2.541000000000000000e+03 4.356610870361328125e+01 1.657302737236022949e+00 8.194159269332885742e-01 6.275800228118896484e+00 2.128564834594726562e+00 -4.142956256866455078e+00
2.542000000000000000e+03 9.604018211364746094e+00 -3.086201667785644531e+00 -9.550072997808456421e-02 -1.196432188153266907e-01 -6.454318761825561523e-02 -1.760001182556152344e-01
2.543000000000000000e+03 9.587876319885253906e+00 -4.248095512390136719e+00 -6.722602993249893188e-02 -1.019040942192077637e-01 -5.073903873562812805e-02 -1.778335869312286377e-01
2.544000000000000000e+03 3.940518569946289062e+01 -1.488136529922485352e+00 2.764393091201782227e-01 1.308867096900939941e+00 4.755919277667999268e-01 1.486516714096069336e+00
2.545000000000000000e+03 3.852960586547851562e+01 -2.318422555923461914e+00 1.083704471588134766e+00 2.422326087951660156e+00 1.051809191703796387e+00 1.297685265541076660e+00
2.546000000000000000e+03 8.811110496520996094e+00 -3.861095428466796875e+00 -7.280669361352920532e-02 -1.044390797615051270e-01 -5.317373201251029968e-02 -1.600913703441619873e-01
2.547000000000000000e+03 7.428923606872558594e+00 -3.171894073486328125e+00 -4.566182941198348999e-02 -3.151025390252470970e-03 -1.464385632425546646e-02 -7.517013698816299438e-02
2.548000000000000000e+03 9.559370994567871094e+00 -3.706231594085693359e+00 -2.774758450686931610e-02 -2.936161868274211884e-02 -1.713276095688343048e-02 -9.161137789487838745e-02
2.549000000000000000e+03 4.688587665557861328e+00 -3.630204439163208008e+00 -3.052358888089656830e-02 -1.406516134738922119e-02 -1.337662525475025177e-02 -5.983610078692436218e-02
2.550000000000000000e+03 7.804759025573730469e+00 -4.682167530059814453e+00 -3.925715386867523193e-02 -6.338971853256225586e-02 -3.079406172037124634e-02 -1.182063296437263489e-01
2.551000000000000000e+03 3.667076110839843750e+00 -6.332335472106933594e+00 1.534204650670289993e-02 -7.133793085813522339e-02 -1.679876632988452911e-02 -3.478370234370231628e-02
2.552000000000000000e+03 3.844470024108886719e+00 -5.234065532684326172e+00 -1.682926528155803680e-02 -5.423365160822868347e-02 -2.131887525320053101e-02 -5.507803335785865784e-02
2.553000000000000000e+03 3.413654327392578125e+00 -3.819536685943603516e+00 -1.461910642683506012e-02 -1.630366593599319458e-02 -9.276831522583961487e-03 -3.321986272931098938e-02
2.554000000000000000e+03 5.857989311218261719e+00 -4.780063152313232422e+00 1.957338862121105194e-02 -8.426684141159057617e-02 -1.940803602337837219e-02 -6.281616538763046265e-02
2.555000000000000000e+03 2.640984773635864258e+00 -6.246290206909179688e+00 -5.178813822567462921e-03 -6.043677404522895813e-02 -1.968467608094215393e-02 -3.245896473526954651e-02
2.556000000000000000e+03 3.469844055175781250e+01 -3.693256616592407227e+00 1.112817168235778809e+00 1.594353318214416504e-01 3.816757202148437500e-01 -1.112902611494064331e-01
2.557000000000000000e+03 3.656573104858398438e+01 -4.523869991302490234e+00 2.778440475463867188e+00 2.429968833923339844e+00 1.562522768974304199e+00 9.632627964019775391e-01
2.558000000000000000e+03 1.290167522430419922e+01 4.547856330871582031e+00 -4.673166275024414062e-01 -2.932802140712738037e-01 -2.281790524721145630e-01 4.468838572502136230e-01
2.559000000000000000e+03 2.204814147949218750e+01 4.174454689025878906e+00 -6.693173050880432129e-01 -1.255635470151901245e-01 -2.384642511606216431e-01 1.449564993381500244e-01
2.560000000000000000e+03 1.979351425170898438e+01 6.164822578430175781e+00 2.302847057580947876e-02 1.177738681435585022e-01 4.224070161581039429e-02 1.957329213619232178e-01
2.561000000000000000e+03 3.536808395385742188e+01 -5.233747959136962891e+00 2.357924461364746094e+00 1.294515848159790039e+00 1.095732092857360840e+00 6.750724911689758301e-01
2.562000000000000000e+03 2.283528137207031250e+01 4.099114418029785156e+00 -6.466285586357116699e-01 -1.317035853862762451e-01 -2.334996461868286133e-01 1.432797312736511230e-01
2.563000000000000000e+03 2.366316795349121094e+01 3.981707334518432617e+00 -6.006731986999511719e-01 -1.253785640001296997e-01 -2.178155332803726196e-01 1.594282090663909912e-01
2.564000000000000000e+03 2.193395042419433594e+01 5.796931266784667969e+00 -7.912924885749816895e-02 -7.621859759092330933e-02 -4.660435393452644348e-02 7.047631591558456421e-02
2.565000000000000000e+03 2.477710723876953125e+01 4.676671028137207031e+00 -2.458757609128952026e-01 -7.996943593025207520e-02 -9.775356203317642212e-02 8.291699737310409546e-02
2.566000000000000000e+03 2.381919860839843750e+01 4.906818389892578125e+00 -2.726455032825469971e-01 -1.208493411540985107e-01 -1.180484518408775330e-01 6.915153563022613525e-02
2.567000000000000000e+03 2.789067459106445312e+01 2.908770322799682617e+00 -6.463593244552612305e-01 3.001915812492370605e-01 -1.038503125309944153e-01 1.277473121881484985e-01
2.568000000000000000e+03 2.957218360900878906e+01 2.937314987182617188e+00 -4.507061541080474854e-01 4.933005571365356445e-01 1.277832407504320145e-02 -2.401779033243656158e-02
2.569000000000000000e+03 2.642112541198730469e+01 3.896010875701904297e+00 -3.830904662609100342e-01 7.160460203886032104e-02 -9.344576299190521240e-02 1.416051387786865234e-01
2.570000000000000000e+03 2.661660385131835938e+01 2.886234998703002930e+00 -7.291847467422485352e-01 5.529924854636192322e-02 -2.021656483411788940e-01 2.145212590694427490e-01
2.571000000000000000e+03 1.384395980834960938e+01 5.134857177734375000e+00 -5.259705781936645508e-01 -2.814958393573760986e-01 -2.422399222850799561e-01 6.645246744155883789e-01
2.572000000000000000e+03 1.194750308990478516e+01 -2.875199317932128906e+00 -1.020351275801658630e-01 7.184842228889465332e-02 -9.056012146174907684e-03 -8.619299530982971191e-02
2.573000000000000000e+03 1.332837963104248047e+01 -4.662443161010742188e+00 1.752747222781181335e-02 2.920955792069435120e-02 1.402110885828733444e-02 -1.272779852151870728e-01
2.574000000000000000e+03 1.253677177429199219e+01 -4.381520748138427734e+00 4.597778897732496262e-03 -5.794340372085571289e-02 -1.600368693470954895e-02 -9.139835089445114136e-02
2.575000000000000000e+03 7.775420665740966797e+00 3.277949571609497070e+00 -1.088661402463912964e-01 -5.298109352588653564e-02 -4.855417087674140930e-02 2.046526642516255379e-03
2.576000000000000000e+03 7.039186000823974609e+00 5.181826591491699219e+00 -2.626093924045562744e-01 -8.503066748380661011e-02 -1.042920202016830444e-01 5.294475331902503967e-02
2.577000000000000000e+03 5.220601081848144531e+00 4.547355175018310547e+00 -1.265925019979476929e-01 -3.233839944005012512e-02 -4.767927154898643494e-02 -4.725878126919269562e-03
2.578000000000000000e+03 4.946914196014404297e+00 3.704586505889892578e+00 -7.346069812774658203e-02 -1.434600539505481720e-02 -2.634201012551784515e-02 -3.816171362996101379e-02
2.579000000000000000e+03 3.687108755111694336e+00 4.987405776977539062e+00 -8.971755951642990112e-02 -4.483024589717388153e-03 -2.826017513871192932e-02 -8.817953988909721375e-03
2.580000000000000000e+03 8.846532821655273438e+00 4.330540657043457031e+00 -2.383448779582977295e-01 -1.357524693012237549e-01 -1.122292056679725647e-01 7.595871388912200928e-02
2.581000000000000000e+03 7.925147056579589844e+00 5.251110553741455078e+00 -3.056429624557495117e-01 -1.338533163070678711e-01 -1.318488866090774536e-01 8.172217756509780884e-02
2.582000000000000000e+03 1.028919792175292969e+01 -3.676741600036621094e+00 -7.776438444852828979e-02 -9.756955504417419434e-02 -5.260018259286880493e-02 -1.867816299200057983e-01
2.583000000000000000e+03 3.444919204711914062e+01 -5.005006790161132812e+00 1.804740667343139648e+00 3.174418210983276367e-01 6.366547346115112305e-01 3.312438130378723145e-01
2.584000000000000000e+03 3.270210647583007812e+01 -5.553185462951660156e+00 1.234998345375061035e+00 -3.975602686405181885e-01 2.512314319610595703e-01 1.586540341377258301e-01
2.585000000000000000e+03 1.105344581604003906e+01 -3.774990558624267578e+00 -1.922240667045116425e-02 -5.828157439827919006e-02 -2.325119450688362122e-02 -9.879129379987716675e-02
2.586000000000000000e+03 4.171795272827148438e+01 3.663376331329345703e+00 -6.833066344261169434e-01 3.659974098205566406e+00 8.930002450942993164e-01 -2.572188615798950195e+00
2.587000000000000000e+03 4.230846786499023438e+01 3.234616756439208984e+00 -6.704754829406738281e-01 4.359859466552734375e+00 1.106815218925476074e+00 -3.095729351043701172e+00
2.588000000000000000e+03 4.765878677368164062e+01 5.400313377380371094e+00 -2.589611530303955078e+00 3.998418569564819336e+00 4.226421117782592773e-01 -1.502948284149169922e+00
2.589000000000000000e+03 3.125673484802246094e+01 -5.112928390502929688e+00 6.058560013771057129e-01 -7.614775300025939941e-01 -4.668646678328514099e-02 -2.051866203546524048e-01
2.590000000000000000e+03 4.367239379882812500e+01 3.309688329696655273e+00 -1.169551491737365723e+00 6.652210235595703125e+00 1.644797563552856445e+00 -3.395457983016967773e+00
2.591000000000000000e+03 1.200829124450683594e+01 6.636077880859375000e+00 -8.758376240730285645e-01 -5.042798519134521484e-01 -4.140352308750152588e-01 4.538324177265167236e-01
2.592000000000000000e+03 2.611784934997558594e+01 5.081511497497558594e+00 -5.352195352315902710e-03 6.575544178485870361e-02 1.812097243964672089e-02 8.853046223521232605e-03
2.593000000000000000e+03 4.872659301757812500e+01 -1.309687423706054688e+01 -3.335068225860595703e-01 7.378137111663818359e+00 2.113389015197753906e+00 1.006028890609741211e+00
2.594000000000000000e+03 4.854995346069335938e+01 -1.419823551177978516e+01 -1.891359448432922363e+00 6.463337421417236328e+00 1.371593356132507324e+00 1.834870934486389160e+00
2.595000000000000000e+03 6.316698455810546875e+01 -2.114805698394775391e+00 1.241042733192443848e+00 7.524032592773437500e+00 2.629522562026977539e+00 -1.136847510933876038e-01
2.596000000000000000e+03 4.239096450805664062e+01 -2.298971176147460938e+01 1.517667055130004883e+00 3.016516208648681641e+00 1.360255002975463867e+00 2.312513351440429688e+00
2.597000000000000000e+03 3.418009185791015625e+01 -1.303246021270751953e+01 -1.053384542465209961e+00 4.036554694175720215e-01 -1.949187368154525757e-01 1.096692442893981934e+00
2.598000000000000000e+03 5.061699676513671875e+01 2.772271919250488281e+01 1.926373481750488281e+00 5.365533828735351562e+00 2.187572240829467773e+00 4.818440973758697510e-02
2.599000000000000000e+03 4.016505432128906250e+01 9.304955482482910156e+00 9.224479198455810547e-01 4.234780311584472656e+00 1.547168374061584473e+00 -7.782842516899108887e-01
2.600000000000000000e+03 4.086948776245117188e+01 -1.500082969665527344e+01 -2.012465715408325195e+00 1.729638725519180298e-01 -5.518505573272705078e-01 -4.407021701335906982e-01
2.601000000000000000e+03 4.249465179443359375e+01 -2.669270515441894531e+01 -5.943517684936523438e-01 1.190598964691162109e+00 1.788741499185562134e-01 1.859211325645446777e+00
2.602000000000000000e+03 4.695410919189453125e+01 2.463397216796875000e+01 1.402389645576477051e+00 5.150139331817626953e+00 1.965758800506591797e+00 7.305732965469360352e-01
2.603000000000000000e+03 5.021020889282226562e+01 2.165912628173828125e+01 -8.411624431610107422e-01 3.246134281158447266e+00 7.214915752410888672e-01 -1.031709194183349609e+00
2.604000000000000000e+03 4.542208862304687500e+01 -3.889178991317749023e+00 -1.639870643615722656e+00 4.957064151763916016e+00 9.951580166816711426e-01 -2.472713708877563477e+00
2.605000000000000000e+03 1.506080055236816406e+01 5.591367244720458984e+00 -4.913827180862426758e-01 6.379197817295789719e-03 -1.455010473728179932e-01 6.960741877555847168e-01
2.606000000000000000e+03 5.693698883056640625e+01 3.626055240631103516e+00 -3.697476685047149658e-01 5.018158912658691406e+00 1.394523382186889648e+00 4.197770059108734131e-01
2.607000000000000000e+03 6.299311065673828125e+01 -2.424881553649902344e+01 1.326229214668273926e+00 5.324614524841308594e+00 1.995253086090087891e+00 -2.346078395843505859e+00
2.608000000000000000e+03 4.427070617675781250e+01 7.415987014770507812e+00 -9.173134565353393555e-01 6.674658775329589844e+00 1.727203607559204102e+00 -1.542623043060302734e+00
2.609000000000000000e+03 9.469373703002929688e+00 4.666789531707763672e+00 -3.260299563407897949e-01 -1.682122796773910522e-01 -1.482726633548736572e-01 1.156892925500869751e-01
2.610000000000000000e+03 2.104997444152832031e+01 5.620699405670166016e+00 -1.645284891128540039e-01 -4.742576181888580322e-02 -6.358627229928970337e-02 1.096011772751808167e-01
2.611000000000000000e+03 4.919179534912109375e+01 -6.427475452423095703e+00 9.949110746383666992e-01 9.909213066101074219e+00 3.271237373352050781e+00 -2.553981244564056396e-01
2.612000000000000000e+03 3.561430358886718750e+01 -1.146633434295654297e+01 -5.916708707809448242e-01 1.464536309242248535e+00 2.618596255779266357e-01 8.042746186256408691e-01
2.613000000000000000e+03 3.240133285522460938e+01 2.515594673156738281e+01 9.512892365455627441e-01 3.778739452362060547e+00 1.419008612632751465e+00 -5.825346112251281738e-01
2.614000000000000000e+03 3.202560043334960938e+01 -8.767503738403320312e+00 8.265536427497863770e-01 3.801237419247627258e-02 2.593697905540466309e-01 1.223160386085510254e+00
2.615000000000000000e+03 4.061728286743164062e+01 1.652749252319335938e+01 9.287906885147094727e-01 3.125564813613891602e+00 1.216306686401367188e+00 -1.385664701461791992e+00
2.616000000000000000e+03 3.505464553833007812e+01 2.199843215942382812e+01 -7.229016721248626709e-02 3.686751604080200195e+00 1.084338426589965820e+00 -1.218142986297607422e+00
2.617000000000000000e+03 3.460433959960937500e+01 1.904159355163574219e+01 -4.618538916110992432e-02 2.625696659088134766e+00 7.738534212112426758e-01 -1.299264311790466309e+00
2.618000000000000000e+03 2.678626060485839844e+01 -1.973291206359863281e+01 6.844744086265563965e-01 1.454371690750122070e+00 6.416538357734680176e-01 2.267926484346389771e-01
2.619000000000000000e+03 2.438412475585937500e+01 -1.776453781127929688e+01 3.614722490310668945e-01 3.334187865257263184e-01 2.084673196077346802e-01 -1.092237308621406555e-01
2.620000000000000000e+03 3.595180130004882812e+01 -6.364689350128173828e+00 2.872159719467163086e+00 2.898021459579467773e+00 1.731054306030273438e+00 1.861822962760925293e+00
2.621000000000000000e+03 2.665262794494628906e+01 7.734718799591064453e+00 3.160040974617004395e-01 2.635470628738403320e-01 1.738653481006622314e-01 -1.547901034355163574e-01
2.622000000000000000e+03 3.191124153137207031e+01 1.508570480346679688e+01 3.662499785423278809e-01 8.607226610183715820e-01 3.680917918682098389e-01 -1.046020537614822388e-01
2.623000000000000000e+03 5.066943740844726562e+01 -3.149358034133911133e+00 2.049556970596313477e+00 8.303988456726074219e+00 3.106063604354858398e+00 -9.265725016593933105e-01
2.624000000000000000e+03 5.064448547363281250e+01 -1.057746529579162598e+00 2.535035610198974609e+00 6.239660739898681641e+00 2.632408857345581055e+00 -4.069805741310119629e-01
2.625000000000000000e+03 3.026882553100585938e+01 -1.375315380096435547e+01 -9.365895986557006836e-01 1.443975448608398438e+00 1.522157341241836548e-01 8.970422744750976562e-01
2.626000000000000000e+03 4.271867370605468750e+01 1.943724250793457031e+01 -9.340646266937255859e-01 3.123849868774414062e+00 6.569355726242065430e-01 4.237862527370452881e-01
2.627000000000000000e+03 4.295226287841796875e+01 1.831242752075195312e+01 -4.398222267627716064e-01 4.198938846588134766e+00 1.127734899520874023e+00 1.822482347488403320e-01
2.628000000000000000e+03 8.552646636962890625e+00 7.281003952026367188e+00 -4.752150774002075195e-01 -2.660616040229797363e-01 -2.223830074071884155e-01 2.518334388732910156e-01
2.629000000000000000e+03 2.770332908630371094e+01 -2.871307182312011719e+01 -2.528717815876007080e-01 1.451848864555358887e+00 3.596931397914886475e-01 -8.983873575925827026e-02
2.630000000000000000e+03 5.307771682739257812e+01 1.667816638946533203e+00 1.899198740720748901e-01 4.966790199279785156e+00 1.547013044357299805e+00 3.103173732757568359e+00
2.631000000000000000e+03 3.431916809082031250e+01 1.617786026000976562e+01 4.965389072895050049e-01 1.644935131072998047e+00 6.424422264099121094e-01 -1.122668862342834473e+00
2.632000000000000000e+03 3.760424041748046875e+01 -4.350651264190673828e+00 3.034857034683227539e+00 3.906455039978027344e+00 2.082393646240234375e+00 1.745936989784240723e+00
2.633000000000000000e+03 7.146380615234375000e+01 4.432025432586669922e+00 3.408572077751159668e-02 4.479305744171142578e+00 1.354017376899719238e+00 1.107304215431213379e+00
2.634000000000000000e+03 6.234151458740234375e+01 -9.512178301811218262e-01 5.307388901710510254e-01 6.775832176208496094e+00 2.191971302032470703e+00 -4.969944059848785400e-01
2.635000000000000000e+03 2.176426696777343750e+01 1.263668441772460938e+01 3.674262389540672302e-02 2.990348637104034424e-01 1.007332429289817810e-01 1.383711695671081543e-01
2.636000000000000000e+03 2.287915611267089844e+01 1.248818302154541016e+01 9.465176612138748169e-02 3.573691546916961670e-01 1.356062740087509155e-01 1.165897250175476074e-01
2.637000000000000000e+03 5.035519790649414062e+01 2.501527595520019531e+01 1.012105941772460938e+00 4.662083625793457031e+00 1.702256917953491211e+00 -1.810732334852218628e-01
2.638000000000000000e+03 4.172853088378906250e+01 5.675087928771972656e+00 -6.805782914161682129e-01 4.695811271667480469e+00 1.204569935798645020e+00 -1.947573542594909668e+00
2.639000000000000000e+03 7.677806854248046875e+01 1.094362354278564453e+01 6.948688626289367676e-01 6.978039264678955078e+00 2.301872491836547852e+00 -3.355040848255157471e-01
2.640000000000000000e+03 7.670709991455078125e+01 1.294938945770263672e+01 7.106055617332458496e-01 7.151494026184082031e+00 2.358629941940307617e+00 5.041028857231140137e-01
2.641000000000000000e+03 7.714689636230468750e+01 -1.683582687377929688e+01 -2.152265012264251709e-01 8.243206024169921875e+00 2.408393859863281250e+00 1.073845267295837402e+00
2.642000000000000000e+03 7.706000518798828125e+01 -1.959331893920898438e+01 4.182381927967071533e-01 8.004516601562500000e+00 2.526826381683349609e+00 1.015229225158691406e+00
2.643000000000000000e+03 7.680944061279296875e+01 9.639663696289062500e+00 4.934604763984680176e-01 7.066539287567138672e+00 2.267999887466430664e+00 -6.023747920989990234e-01
2.644000000000000000e+03 7.427655792236328125e+01 8.548048019409179688e+00 7.388839721679687500e-01 7.916080474853515625e+00 2.596489191055297852e+00 -5.555265545845031738e-01
2.645000000000000000e+03 7.604978942871093750e+01 -1.560701179504394531e+01 -7.044098377227783203e-01 7.814303874969482422e+00 2.132968187332153320e+00 8.650476932525634766e-01
2.646000000000000000e+03 7.596901702880859375e+01 -1.682688713073730469e+01 -3.588140904903411865e-01 7.937404155731201172e+00 2.273576974868774414e+00 1.121375441551208496e+00
2.647000000000000000e+03 7.355896759033203125e+01 4.907569885253906250e+00 -2.301193475723266602e-01 6.210661411285400391e+00 1.794162631034851074e+00 -1.357284337282180786e-01
2.648000000000000000e+03 7.679792785644531250e+01 4.041014194488525391e+00 -2.242683023214340210e-01 7.210473060607910156e+00 2.095861434936523438e+00 -9.059307575225830078e-01
2.649000000000000000e+03 7.397962188720703125e+01 2.710504055023193359e+00 -3.163327574729919434e-01 5.560058593750000000e+00 1.573117733001708984e+00 -5.426102876663208008e-01
2.650000000000000000e+03 7.708960723876953125e+01 -1.429531860351562500e+01 -6.713520288467407227e-01 8.431605339050292969e+00 2.328075885772705078e+00 5.028264522552490234e-01
2.651000000000000000e+03 7.677083587646484375e+01 -1.302973461151123047e+01 -1.059937596321105957e+00 8.601855278015136719e+00 2.262575387954711914e+00 8.014349639415740967e-02
2.652000000000000000e+03 7.553808593750000000e+01 9.697831153869628906e+00 8.822945356369018555e-01 7.661146163940429688e+00 2.563032150268554688e+00 -6.120623946189880371e-01
2.653000000000000000e+03 7.622370910644531250e+01 1.185467529296875000e+01 1.069590210914611816e+00 7.554495811462402344e+00 2.587225675582885742e+00 2.183861732482910156e-01
2.654000000000000000e+03 7.491445159912109375e+01 -1.548803901672363281e+01 -8.103761672973632812e-01 6.577029705047607422e+00 1.729995965957641602e+00 7.103644609451293945e-01
2.655000000000000000e+03 7.716681671142578125e+01 -1.555404376983642578e+01 -4.562140107154846191e-01 8.399509429931640625e+00 2.382988691329956055e+00 9.145160317420959473e-01
2.656000000000000000e+03 7.464352416992187500e+01 1.707814216613769531e+01 -4.093810021877288818e-01 8.176616668701171875e+00 2.330170631408691406e+00 1.026016235351562500e+00
2.657000000000000000e+03 7.680060577392578125e+01 1.710886955261230469e+01 -1.713287830352783203e-01 7.615753650665283203e+00 2.233327388763427734e+00 1.098500728607177734e+00
2.658000000000000000e+03 7.424967193603515625e+01 1.482766151428222656e+01 7.103010416030883789e-01 8.952878952026367188e+00 2.898953914642333984e+00 9.115350842475891113e-01
2.659000000000000000e+03 7.572126770019531250e+01 -4.873524606227874756e-02 -1.010883569717407227e+00 7.075947284698486328e+00 1.819519042968750000e+00 -6.476151347160339355e-01
2.660000000000000000e+03 7.689225769042968750e+01 -6.928020715713500977e-02 -7.034671306610107422e-01 7.885958194732666016e+00 2.154747247695922852e+00 -2.854761183261871338e-01
2.661000000000000000e+03 7.613954162597656250e+01 2.135290145874023438e+01 -5.480930805206298828e-01 7.459949016571044922e+00 2.073556661605834961e+00 6.358006596565246582e-02
2.662000000000000000e+03 7.417781066894531250e+01 1.958643150329589844e+01 -1.387386918067932129e+00 7.493588447570800781e+00 1.831860542297363281e+00 1.432113796472549438e-01
2.663000000000000000e+03 7.629533386230468750e+01 -2.145963859558105469e+01 9.413076043128967285e-01 8.677556037902832031e+00 2.885658979415893555e+00 4.441422820091247559e-01
2.664000000000000000e+03 7.441105651855468750e+01 3.524027252197265625e+01 8.781880885362625122e-02 6.572294712066650391e+00 1.998034119606018066e+00 2.741588354110717773e-01
2.665000000000000000e+03 7.430595397949218750e+01 3.224414443969726562e+01 3.122302591800689697e-01 6.365974903106689453e+00 2.003461599349975586e+00 2.039724886417388916e-01
2.666000000000000000e+03 7.600991821289062500e+01 -2.933548164367675781e+01 -2.931212186813354492e-01 7.149108886718750000e+00 2.056796312332153320e+00 3.391924202442169189e-01
2.667000000000000000e+03 7.645240020751953125e+01 -2.754502487182617188e+01 -4.344800114631652832e-01 7.651967048645019531e+00 2.165246009826660156e+00 -7.599319517612457275e-02
2.668000000000000000e+03 7.365738677978515625e+01 2.872184181213378906e+01 4.725942909717559814e-01 5.936392784118652344e+00 1.922696113586425781e+00 -1.496197283267974854e-01
2.669000000000000000e+03 7.685166168212890625e+01 2.638901329040527344e+01 1.904323697090148926e-02 7.140160560607910156e+00 2.147761106491088867e+00 -3.325962722301483154e-01
2.670000000000000000e+03 7.336558532714843750e+01 2.329794311523437500e+01 -5.814599990844726562e-01 6.163457393646240234e+00 1.674599170684814453e+00 -7.513412833213806152e-01
2.671000000000000000e+03 7.665175628662109375e+01 2.775547599792480469e+01 1.693639606237411499e-01 7.008431434631347656e+00 2.153338670730590820e+00 -2.775526344776153564e-01
2.672000000000000000e+03 7.394387054443359375e+01 2.725638008117675781e+01 4.266589283943176270e-01 6.028720855712890625e+00 1.936613917350769043e+00 -4.078654944896697998e-01
2.673000000000000000e+03 7.490569305419921875e+01 -3.516741561889648438e+01 2.252605408430099487e-01 6.563236236572265625e+00 2.036549091339111328e+00 -4.516747891902923584e-01
2.674000000000000000e+03 7.645471191406250000e+01 -3.592923355102539062e+01 6.632947176694869995e-02 7.144188880920410156e+00 2.163155555725097656e+00 -2.416601628065109253e-01
2.675000000000000000e+03 7.619178771972656250e+01 3.068194389343261719e+01 2.107241749763488770e-01 6.853944301605224609e+00 2.119400501251220703e+00 -1.924192160367965698e-02
2.676000000000000000e+03 7.530327606201171875e+01 2.755777740478515625e+01 1.928162276744842529e-01 6.539916515350341797e+00 2.019819736480712891e+00 -3.307635188102722168e-01
2.677000000000000000e+03 7.529790496826171875e+01 -3.042306709289550781e+01 6.308686733245849609e-02 6.687269210815429688e+00 2.025106668472290039e+00 3.872403800487518311e-01
2.678000000000000000e+03 7.670111083984375000e+01 -3.260496520996093750e+01 1.251072734594345093e-01 7.020437717437744141e+00 2.143663406372070312e+00 2.946246601641178131e-02
2.679000000000000000e+03 7.457108306884765625e+01 3.058557510375976562e+01 3.397968709468841553e-01 6.304613113403320312e+00 1.993322968482971191e+00 3.136523440480232239e-02
2.680000000000000000e+03 7.225346374511718750e+01 -3.580387878417968750e+01 3.559904098510742188e-01 5.850895881652832031e+00 1.862065911293029785e+00 -1.032884478569030762e+00
2.681000000000000000e+03 5.169564437866210938e+01 -6.040567159652709961e-01 1.791516423225402832e+00 5.955138683319091797e+00 2.323996543884277344e+00 9.608970880508422852e-01
2.682000000000000000e+03 4.748084640502929688e+01 -1.043409943580627441e+00 5.417579174041748047e+00 6.131287097930908203e+00 3.464659929275512695e+00 -2.715940475463867188e+00
2.683000000000000000e+03 2.176604652404785156e+01 6.731374740600585938e+00 1.737162768840789795e-01 -5.002238973975181580e-02 3.710816428065299988e-02 7.007312029600143433e-02
2.684000000000000000e+03 3.545595932006835938e+01 -7.091833591461181641e+00 1.927728891372680664e+00 2.362344026565551758e+00 1.287021875381469727e+00 1.625361680984497070e+00
2.685000000000000000e+03 4.606598281860351562e+01 -2.516265869140625000e+01 -1.112927556037902832e+00 3.616824626922607422e+00 7.511690855026245117e-01 -9.003809690475463867e-01
2.686000000000000000e+03 2.309774017333984375e+01 2.814471244812011719e+01 5.579172968864440918e-01 8.192266821861267090e-01 4.131432175636291504e-01 4.057863652706146240e-01
2.687000000000000000e+03 4.277183532714843750e+01 -1.927291679382324219e+01 1.175057053565979004e+00 2.976947546005249023e+00 1.245601415634155273e+00 9.835204482078552246e-01
2.688000000000000000e+03 2.681905174255371094e+01 -1.590200424194335938e+01 -1.519239991903305054e-01 9.518716335296630859e-01 2.399842888116836548e-01 1.613679677248001099e-01
2.689000000000000000e+03 2.418331336975097656e+01 -1.538332080841064453e+01 -3.111396431922912598e-01 -4.045961052179336548e-02 -1.054797768592834473e-01 -2.098191231489181519e-01
2.690000000000000000e+03 2.222058677673339844e+01 -1.657221603393554688e+01 -9.636298567056655884e-02 -1.428185254335403442e-01 -7.175444811582565308e-02 -3.825111091136932373e-01
2.691000000000000000e+03 4.619429588317871094e+00 2.161200523376464844e+01 4.250625148415565491e-02 -5.698895454406738281e-01 -1.582150012254714966e-01 2.037232927978038788e-02
2.692000000000000000e+03 3.044196367263793945e+00 2.509872817993164062e+01 -4.015876725316047668e-02 -7.864720821380615234e-01 -2.479892671108245850e-01 2.824051119387149811e-02
2.693000000000000000e+03 2.632009267807006836e+00 2.416322708129882812e+01 -2.189526706933975220e-02 -8.017395138740539551e-01 -2.470904439687728882e-01 -2.645731437951326370e-03
2.694000000000000000e+03 2.555234432220458984e+00 2.320749473571777344e+01 -2.996984403580427170e-03 -7.973853945732116699e-01 -2.401147037744522095e-01 -8.555261418223381042e-03
2.695000000000000000e+03 5.025110721588134766e+00 2.330750465393066406e+01 -1.738651841878890991e-02 -5.583747029304504395e-01 -1.727283596992492676e-01 3.810996562242507935e-02
2.696000000000000000e+03 4.083811759948730469e+00 -1.708599662780761719e+01 -9.384150803089141846e-02 -2.392599433660507202e-01 -9.993043541908264160e-02 -1.536132097244262695e-01
2.697000000000000000e+03 4.652349472045898438e+00 -1.455010032653808594e+01 -9.253407269716262817e-02 -2.681886255741119385e-01 -1.082168072462081909e-01 -1.005031764507293701e-01
2.698000000000000000e+03 3.968010187149047852e+00 2.254774284362792969e+01 5.865087267011404037e-03 -6.522148251533508301e-01 -1.939049363136291504e-01 1.383634563535451889e-02
2.699000000000000000e+03 7.126505851745605469e+00 1.488779449462890625e+01 2.989065051078796387e-01 -2.148991227149963379e-01 2.520221844315528870e-02 4.404128193855285645e-01
2.700000000000000000e+03 2.951941013336181641e+00 1.935389328002929688e+01 6.621906161308288574e-02 -6.985449790954589844e-01 -1.896977722644805908e-01 5.666845664381980896e-02
2.701000000000000000e+03 3.222407341003417969e+00 -2.616278076171875000e+01 9.914540685713291168e-03 -3.169147372245788574e-01 -9.210006147623062134e-02 3.259774995967745781e-03
2.702000000000000000e+03 3.089886903762817383e+00 -2.765765762329101562e+01 -1.298009697347879410e-02 -3.419469296932220459e-01 -1.064781099557876587e-01 7.259598933160305023e-03
2.703000000000000000e+03 3.142127752304077148e+00 1.479156208038330078e+01 8.071712404489517212e-02 -4.947200715541839600e-01 -1.242008805274963379e-01 2.918636202812194824e-01
2.704000000000000000e+03 6.382905483245849609e+00 1.598565864562988281e+01 3.211985826492309570e-01 -3.297919631004333496e-01 -2.578018698841333389e-03 3.469949662685394287e-01
2.705000000000000000e+03 4.290239810943603516e+00 1.432793140411376953e+01 1.025285348296165466e-01 -4.152908027172088623e-01 -9.382867813110351562e-02 3.780734837055206299e-01
2.706000000000000000e+03 5.730145454406738281e+00 8.233898162841796875e+00 -3.026969730854034424e-01 -9.773836284875869751e-02 -1.201306059956550598e-01 2.434852272272109985e-01
2.707000000000000000e+03 3.985722303390502930e+00 3.413884735107421875e+01 8.868247270584106445e-02 -7.083263993263244629e-01 -1.858931779861450195e-01 1.911681704223155975e-02
2.708000000000000000e+03 3.614815950393676758e+00 -9.844232559204101562e+00 -7.343460805714130402e-03 -1.235112249851226807e-01 -3.925640508532524109e-02 -3.184482455253601074e-02
2.709000000000000000e+03 2.718523025512695312e+00 -1.132834339141845703e+01 -1.669752970337867737e-02 -1.275656670331954956e-01 -4.327895864844322205e-02 -1.559346262365579605e-02
2.710000000000000000e+03 3.457951307296752930e+00 -3.198742675781250000e+01 5.394253414124250412e-03 -3.480386734008789062e-01 -1.027933284640312195e-01 -5.647037178277969360e-04
2.711000000000000000e+03 5.107016086578369141e+00 -2.828087615966796875e+01 -1.242565084248781204e-02 -1.845965981483459473e-01 -5.910667404532432556e-02 -1.720564439892768860e-02
2.712000000000000000e+03 5.882813453674316406e+00 9.257428169250488281e+00 -2.981270253658294678e-01 -1.364183425903320312e-01 -1.303636133670806885e-01 3.322882950305938721e-01
2.713000000000000000e+03 4.523412227630615234e+00 3.173576736450195312e+01 9.418395906686782837e-02 -6.395999193191528320e-01 -1.636247932910919189e-01 1.045311167836189270e-01
2.714000000000000000e+03 2.898743629455566406e+00 -1.259316730499267578e+01 -5.254467949271202087e-03 -1.439686268568038940e-01 -4.476692900061607361e-02 -2.989846281707286835e-02
2.715000000000000000e+03 8.463372230529785156e+00 -3.434510803222656250e+01 5.099741369485855103e-02 -1.540466398000717163e-02 1.067782472819089890e-02 -2.017427049577236176e-02
2.716000000000000000e+03 4.728931903839111328e+00 -3.039929771423339844e+01 2.990092849358916283e-03 -2.377817034721374512e-01 -7.043748348951339722e-02 -1.722030900418758392e-02
2.717000000000000000e+03 4.918613433837890625e+00 -3.205662155151367188e+01 3.247779794037342072e-03 -2.443184405565261841e-01 -7.232119888067245483e-02 -1.095699146389961243e-02
2.718000000000000000e+03 5.581376075744628906e+00 -6.317186832427978516e+00 2.763441205024719238e-02 -8.088640123605728149e-02 -1.597559824585914612e-02 -6.615216284990310669e-02
2.719000000000000000e+03 3.802676439285278320e+00 9.283025741577148438e+00 -1.401468217372894287e-01 -1.264519095420837402e-01 -7.997962087392807007e-02 2.588376998901367188e-01
2.720000000000000000e+03 2.760249137878417969e+00 6.531489372253417969e+00 -8.147712051868438721e-02 -6.470142863690853119e-03 -2.638417854905128479e-02 5.302370339632034302e-02
2.721000000000000000e+03 2.524691390991210938e+01 1.270771980285644531e+01 1.451309770345687866e-01 3.466945886611938477e-01 1.475476622581481934e-01 -3.793456777930259705e-02
2.722000000000000000e+03 5.221326828002929688e+00 3.861362075805664062e+01 -1.323713175952434540e-02 -4.893324077129364014e-01 -1.507708579301834106e-01 -2.367805317044258118e-02
2.723000000000000000e+03 3.477222442626953125e+00 3.764672088623046875e+01 3.400738909840583801e-02 -8.399078249931335449e-01 -2.417701184749603271e-01 -1.532650180160999298e-02
2.724000000000000000e+03 1.337813282012939453e+01 1.963249588012695312e+01 4.862916767597198486e-01 4.051592648029327393e-01 2.674352824687957764e-01 5.115898251533508301e-01
2.725000000000000000e+03 4.938193511962890625e+01 -2.859258079528808594e+01 3.722728788852691650e-01 3.601934194564819336e+00 1.192262172698974609e+00 -1.477823019027709961e+00
2.726000000000000000e+03 5.070237350463867188e+01 -2.947221374511718750e+01 1.182926654815673828e+00 4.199698448181152344e+00 1.614787459373474121e+00 -3.519008457660675049e-01
2.727000000000000000e+03 2.830931854248046875e+01 -1.472310733795166016e+01 -6.079580783843994141e-01 1.295842528343200684e+00 2.063653320074081421e-01 3.606480658054351807e-01
2.728000000000000000e+03 2.721556663513183594e+01 -1.470476341247558594e+01 -6.285127997398376465e-01 1.032599568367004395e+00 1.212260201573371887e-01 2.331091463565826416e-01
2.729000000000000000e+03 7.527436828613281250e+01 1.235530948638916016e+01 1.065338850021362305e+00 8.179492950439453125e+00 2.773449659347534180e+00 3.743570148944854736e-01
2.730000000000000000e+03 5.306552410125732422e+00 -3.757642364501953125e+01 1.055097021162509918e-02 -2.525023519992828369e-01 -7.258541136980056763e-02 -5.093347746878862381e-03
2.731000000000000000e+03 6.211018085479736328e+00 -3.583847427368164062e+01 2.092677913606166840e-02 -1.686559021472930908e-01 -4.431873559951782227e-02 -7.438324391841888428e-03
2.732000000000000000e+03 3.571831893920898438e+01 -1.029839134216308594e+01 2.916895970702171326e-02 2.177666902542114258e+00 6.620507836341857910e-01 1.196221232414245605e+00
2.733000000000000000e+03 8.855029106140136719e+00 3.690053176879882812e+01 3.341043367981910706e-02 -1.273093465715646744e-02 6.203849799931049347e-03 6.629369407892227173e-02
2.734000000000000000e+03 6.694561767578125000e+01 2.789111328125000000e+01 1.871864676475524902e+00 4.967155933380126953e+00 2.051706075668334961e+00 1.163358211517333984e+00
2.735000000000000000e+03 1.115336322784423828e+01 1.854136276245117188e+01 6.069549322128295898e-01 4.064482450485229492e-01 3.040209710597991943e-01 3.711394965648651123e-01
2.736000000000000000e+03 5.102388763427734375e+01 1.414128780364990234e+00 1.366678237915039062e+00 4.278210639953613281e+00 1.693466663360595703e+00 1.720675230026245117e+00
2.737000000000000000e+03 5.036160659790039062e+01 3.895516157150268555e+00 -4.577222764492034912e-01 1.431875109672546387e+00 2.922458648681640625e-01 1.741261839866638184e+00
2.738000000000000000e+03 1.565662956237792969e+01 -1.098191642761230469e+01 -1.038128808140754700e-01 3.404749929904937744e-01 7.099863141775131226e-02 -2.344734966754913330e-02
2.739000000000000000e+03 5.990970611572265625e+01 2.114057350158691406e+01 -1.087872982025146484e+00 4.403824806213378906e+00 9.947854876518249512e-01 1.949896454811096191e+00
2.740000000000000000e+03 1.934922027587890625e+01 2.034675788879394531e+01 3.867411315441131592e-01 3.013078570365905762e-01 2.064146995544433594e-01 -5.360175296664237976e-02
2.741000000000000000e+03 2.634156417846679688e+01 8.673937797546386719e+00 3.287647962570190430e-01 2.922544181346893311e-01 1.863057613372802734e-01 -1.641451865434646606e-01
2.742000000000000000e+03 6.454784393310546875e+01 3.902906417846679688e+00 -1.798413842916488647e-01 2.636994838714599609e+00 7.371460199356079102e-01 6.474255025386810303e-02
2.743000000000000000e+03 6.658779144287109375e+01 4.519322395324707031e+00 3.543347492814064026e-02 1.273918390274047852e+00 3.928055763244628906e-01 1.498915314674377441e+00
2.744000000000000000e+03 4.486607360839843750e+01 -2.181476020812988281e+01 1.954485654830932617e+00 5.140206813812255859e+00 2.128407716751098633e+00 1.614116549491882324e+00
2.745000000000000000e+03 4.535249710083007812e+01 -2.043287277221679688e+01 2.501937627792358398e+00 6.788522243499755859e+00 2.787137985229492188e+00 1.373139381408691406e+00
2.746000000000000000e+03 6.630384826660156250e+01 1.485848188400268555e+00 3.365643322467803955e-01 3.291531324386596680e+00 1.088428616523742676e+00 1.557405591011047363e+00
2.747000000000000000e+03 4.842362594604492188e+01 -7.168624401092529297e+00 1.128655195236206055e+00 1.075586509704589844e+01 3.565356254577636719e+00 3.208229839801788330e-01
2.748000000000000000e+03 5.412758636474609375e+01 1.612883448600769043e+00 -6.063300371170043945e-01 4.575674057006835938e+00 1.190803289413452148e+00 2.860296964645385742e+00
2.749000000000000000e+03 5.436819839477539062e+01 3.981037378311157227e+00 -7.552635669708251953e-01 5.705503463745117188e+00 1.485072016716003418e+00 2.911269426345825195e+00
2.750000000000000000e+03 2.411036872863769531e+01 -2.251878547668457031e+01 5.205029845237731934e-01 6.724988222122192383e-01 3.579005599021911621e-01 8.944387733936309814e-02
2.751000000000000000e+03 5.128636169433593750e+01 -5.476476669311523438e+00 2.082263231277465820e+00 9.646130561828613281e+00 3.518517971038818359e+00 -7.457329034805297852e-01
2.752000000000000000e+03 5.537372589111328125e+01 4.351183414459228516e+00 -8.953334093093872070e-01 6.307621479034423828e+00 1.623686432838439941e+00 1.841755986213684082e+00
2.753000000000000000e+03 5.770567703247070312e+01 -2.379102897644042969e+01 5.924688577651977539e-01 6.542759895324707031e+00 2.140568494796752930e+00 1.084431529045104980e+00
2.754000000000000000e+03 5.791604232788085938e+01 -2.263735961914062500e+01 1.661086797714233398e+00 6.146654129028320312e+00 2.342322111129760742e+00 2.092069536447525024e-01
2.755000000000000000e+03 6.596744537353515625e+01 2.133851242065429688e+01 -1.561311602592468262e+00 7.094658166170120239e-02 -4.471094906330108643e-01 1.230593323707580566e+00
2.756000000000000000e+03 5.205752944946289062e+01 2.836866378784179688e+00 4.070773348212242126e-02 4.231453895568847656e+00 1.281648397445678711e+00 3.549789190292358398e+00
2.757000000000000000e+03 5.274632644653320312e+01 4.472800254821777344e+00 -1.067570209503173828e+00 4.999485969543457031e+00 1.179574847221374512e+00 4.427646636962890625e+00
2.758000000000000000e+03 6.015753936767578125e+01 -2.472958564758300781e+01 5.100921988487243652e-01 2.195652246475219727e+00 8.117232918739318848e-01 6.848161816596984863e-01
2.759000000000000000e+03 4.334407043457031250e+01 -2.460366630554199219e+01 1.031257390975952148e+00 2.311209678649902344e+00 1.002740144729614258e+00 1.674137353897094727e+00
2.760000000000000000e+03 6.430858612060546875e+01 -9.341429471969604492e-01 6.166637539863586426e-01 6.149154663085937500e+00 2.029745578765869141e+00 7.179815769195556641e-01
2.761000000000000000e+03 9.904191970825195312e+00 -2.501600265502929688e+01 7.574708014726638794e-02 1.864133751951158047e-03 2.328336425125598907e-02 -1.678057461977005005e-01
2.762000000000000000e+03 1.795525169372558594e+01 -1.276588058471679688e+01 -1.130333840847015381e-01 2.017808407545089722e-01 2.662423811852931976e-02 -2.397345565259456635e-02
2.763000000000000000e+03 7.466313171386718750e+01 -1.807848548889160156e+01 6.898140162229537964e-02 8.184555053710937500e+00 2.476061105728149414e+00 4.799789190292358398e-01
2.764000000000000000e+03 2.251711082458496094e+01 -2.412991523742675781e+01 3.753972351551055908e-01 3.497445881366729736e-01 2.175425589084625244e-01 8.339509367942810059e-02
2.765000000000000000e+03 1.955168914794921875e+01 -2.411388969421386719e+01 2.979383170604705811e-01 3.662792220711708069e-02 1.003698706626892090e-01 1.212815269827842712e-01
2.766000000000000000e+03 1.437477684020996094e+01 -1.128041172027587891e+01 -1.745964586734771729e-02 2.555755972862243652e-01 7.143478840589523315e-02 -5.436526611447334290e-02
2.767000000000000000e+03 4.394853591918945312e+01 1.976375579833984375e+01 -2.293679714202880859e+00 4.020955562591552734e+00 5.181827545166015625e-01 1.557778835296630859e+00
2.768000000000000000e+03 7.368051147460937500e+01 7.722648620605468750e+00 2.791004776954650879e-01 7.900326728820800781e+00 2.453828096389770508e+00 -2.558273077011108398e-01
2.769000000000000000e+03 8.262144088745117188e+00 9.929021835327148438e+00 -4.368267059326171875e-01 -2.728692293167114258e-01 -2.129087746143341064e-01 3.989344239234924316e-01
2.770000000000000000e+03 7.403148174285888672e+00 1.135260295867919922e+01 -1.987794786691665649e-01 -1.938526332378387451e-01 -1.177896335721015930e-01 5.049413442611694336e-01
2.771000000000000000e+03 6.471202850341796875e+01 2.454000854492187500e+01 8.895706534385681152e-01 5.110229492187500000e+00 1.799940109252929688e+00 1.951986908912658691e+00
2.772000000000000000e+03 3.068742942810058594e+01 3.167103004455566406e+01 4.342131912708282471e-01 2.175231933593750000e+00 7.828335762023925781e-01 -8.691285848617553711e-01
2.773000000000000000e+03 3.387697219848632812e+01 -3.233250045776367188e+01 1.110397219657897949e+00 8.884460330009460449e-01 5.996529459953308105e-01 4.181139171123504639e-01
2.774000000000000000e+03 3.717425537109375000e+01 -2.965272140502929688e+01 2.762215137481689453e-01 2.576172828674316406e+00 8.557183146476745605e-01 1.116331338882446289e+00
2.775000000000000000e+03 6.971512603759765625e+01 -3.149644088745117188e+01 2.275597572326660156e+00 4.475341320037841797e+00 2.025281667709350586e+00 -1.214473366737365723e+00
2.776000000000000000e+03 5.183802032470703125e+01 -3.207868194580078125e+01 2.522878170013427734e+00 5.518568992614746094e+00 2.412434101104736328e+00 1.610980778932571411e-01
2.777000000000000000e+03 1.281579494476318359e+01 -2.801450538635253906e+01 1.548741906881332397e-01 6.236364319920539856e-02 6.517134606838226318e-02 -3.475286066532135010e-03
2.778000000000000000e+03 6.353613662719726562e+01 2.242719078063964844e+01 -1.632488608360290527e+00 5.559847831726074219e+00 1.178207755088806152e+00 3.496447324752807617e+00
2.779000000000000000e+03 6.480194091796875000e+01 2.351316070556640625e+01 7.606047391891479492e-02 4.524643898010253906e+00 1.380211353302001953e+00 1.951079487800598145e+00
2.780000000000000000e+03 3.580867767333984375e+01 1.950263977050781250e+01 -1.575881689786911011e-01 2.745832920074462891e+00 7.764734625816345215e-01 -1.680949211120605469e+00
2.781000000000000000e+03 3.501115036010742188e+01 1.785326385498046875e+01 1.705622524023056030e-01 2.266123533248901367e+00 7.310057282447814941e-01 -1.434916257858276367e+00
2.782000000000000000e+03 3.048382568359375000e+01 -1.038092422485351562e+01 2.520964145660400391e-01 2.516315579414367676e-01 1.511183977127075195e-01 9.383038282394409180e-01
2.783000000000000000e+03 5.123283386230468750e+01 -7.435208797454833984e+00 2.130883455276489258e+00 9.142422676086425781e+00 3.381991863250732422e+00 -1.183014661073684692e-01
2.784000000000000000e+03 5.060470199584960938e+01 -6.108573913574218750e+00 1.657541513442993164e+00 9.478899002075195312e+00 3.340932130813598633e+00 -3.433346450328826904e-01
2.785000000000000000e+03 5.487104415893554688e+01 5.471741199493408203e+00 -5.575798153877258301e-01 7.222234249114990234e+00 1.999396204948425293e+00 1.489633083343505859e+00
2.786000000000000000e+03 5.347666549682617188e+01 3.519064188003540039e+00 -7.299019098281860352e-01 4.990291595458984375e+00 1.278116822242736816e+00 3.029400110244750977e+00
2.787000000000000000e+03 1.502336502075195312e+01 -7.394678592681884766e+00 -1.866548694670200348e-02 2.013905942440032959e-01 5.481753125786781311e-02 1.567928865551948547e-02
2.788000000000000000e+03 1.373069286346435547e+01 -8.237564086914062500e+00 -1.875232160091400146e-02 1.216802299022674561e-01 3.087837062776088715e-02 -3.152261301875114441e-02
2.789000000000000000e+03 7.014043426513671875e+01 2.121742439270019531e+01 -1.706867694854736328e+00 3.840218305587768555e+00 6.400051116943359375e-01 -1.315260529518127441e+00
2.790000000000000000e+03 7.095225524902343750e+01 2.214376258850097656e+01 -1.147248268127441406e+00 4.778638839721679688e+00 1.089417099952697754e+00 -1.357095122337341309e+00
2.791000000000000000e+03 1.837902832031250000e+01 -2.071893501281738281e+01 1.087522879242897034e-01 3.802536055445671082e-02 4.403329640626907349e-02 -1.948758065700531006e-01
2.792000000000000000e+03 1.143708705902099609e+01 -9.523814201354980469e+00 5.532615259289741516e-02 3.225948661565780640e-02 2.627569064497947693e-02 -1.212063431739807129e-01
2.793000000000000000e+03 9.088470458984375000e+00 -2.700280189514160156e+01 4.286202415823936462e-02 2.613659016788005829e-02 2.069958485662937164e-02 -1.210870221257209778e-01
2.794000000000000000e+03 5.925218582153320312e+01 1.371684265136718750e+01 1.380833745002746582e+00 9.378176689147949219e+00 3.227703332901000977e+00 1.561900258064270020e+00
2.795000000000000000e+03 3.058720970153808594e+01 -3.271515655517578125e+01 4.384633898735046387e-01 9.539872407913208008e-01 4.177351891994476318e-01 2.805601991713047028e-02
2.796000000000000000e+03 5.728242111206054688e+01 -1.596331882476806641e+01 -2.431613802909851074e-01 6.652498245239257812e+00 1.922801136970520020e+00 -7.615863084793090820e-01
2.797000000000000000e+03 5.736035156250000000e+01 -1.177973937988281250e+01 8.709117770195007324e-01 2.455322265625000000e+00 9.978702068328857422e-01 -1.194760560989379883e+00
2.798000000000000000e+03 5.289543151855468750e+01 -2.733420944213867188e+01 -1.177136778831481934e+00 3.585001468658447266e+00 7.223594188690185547e-01 1.734914541244506836e+00
2.799000000000000000e+03 4.967351913452148438e+01 2.424786949157714844e+01 9.791973829269409180e-01 4.294263839721679688e+00 1.582038402557373047e+00 -1.131335645914077759e-01
2.800000000000000000e+03 6.408459472656250000e+01 -1.002318859100341797e+01 3.992242217063903809e-01 7.467789649963378906e+00 2.360104322433471680e+00 -7.680974155664443970e-02
2.801000000000000000e+03 6.404170227050781250e+01 -1.454949665069580078e+01 -1.435542345046997070e+00 5.755579948425292969e+00 1.296011209487915039e+00 5.886193513870239258e-01
2.802000000000000000e+03 5.338563919067382812e+00 -9.979266166687011719e+00 1.436544675379991531e-02 -1.458178460597991943e-01 -3.943571820855140686e-02 -5.800643190741539001e-02
2.803000000000000000e+03 5.831641387939453125e+01 8.967613220214843750e+00 1.038896560668945312e+00 7.378224849700927734e+00 2.525136232376098633e+00 4.580556750297546387e-01
2.804000000000000000e+03 5.805220031738281250e+01 -2.637594604492187500e+01 -2.606512546539306641e+00 6.143048286437988281e+00 1.060960769653320312e+00 1.940332293510437012e+00
2.805000000000000000e+03 5.002284240722656250e+01 -2.709350585937500000e+01 -1.527683615684509277e+00 2.325233221054077148e+00 2.392648607492446899e-01 -1.750271320343017578e+00
2.806000000000000000e+03 7.163627624511718750e+01 6.972231388092041016e+00 3.289848566055297852e-03 6.581230163574218750e+00 1.975355982780456543e+00 1.170866608619689941e+00
2.807000000000000000e+03 6.865609741210937500e+01 3.139973163604736328e+00 4.407834112644195557e-01 2.257750511169433594e+00 8.095601797103881836e-01 2.287172317504882812e+00
2.808000000000000000e+03 5.515831375122070312e+01 1.763911819458007812e+01 3.061693608760833740e-01 4.973580360412597656e+00 1.583925008773803711e+00 -1.351672053337097168e+00
2.809000000000000000e+03 6.094178009033203125e+01 -1.192703151702880859e+01 -5.031196475028991699e-01 6.048057556152343750e+00 1.663481354713439941e+00 1.369132757186889648e+00
2.810000000000000000e+03 6.310988998413085938e+01 -1.120871353149414062e+01 -7.939017415046691895e-01 7.037052631378173828e+00 1.872945308685302734e+00 7.051563858985900879e-01
2.811000000000000000e+03 1.405820369720458984e+01 -2.553230476379394531e+01 1.584706604480743408e-01 -2.689353376626968384e-02 3.947313874959945679e-02 -4.052187502384185791e-02
2.812000000000000000e+03 1.416490459442138672e+01 -2.681248474121093750e+01 2.372985184192657471e-01 2.021150849759578705e-02 7.725300639867782593e-02 2.752616256475448608e-02
2.813000000000000000e+03 7.435585784912109375e+01 2.257682800292968750e+01 -6.797184944152832031e-01 6.745854377746582031e+00 1.819840669631958008e+00 -5.430719852447509766e-01
2.814000000000000000e+03 5.279120635986328125e+01 -1.063924789428710938e+01 1.963581800460815430e+00 4.875504016876220703e+00 2.051725625991821289e+00 -2.384464502334594727e+00
2.815000000000000000e+03 5.494541168212890625e+01 -1.162499237060546875e+01 8.360570669174194336e-01 3.829168796539306641e+00 1.399567723274230957e+00 -3.158710479736328125e+00
2.816000000000000000e+03 5.386042785644531250e+01 -2.785850334167480469e+01 -1.238934636116027832e+00 4.936825752258300781e+00 1.109367251396179199e+00 1.786074399948120117e+00
2.817000000000000000e+03 6.455804443359375000e+01 4.980449199676513672e+00 -4.401575028896331787e-01 1.759075880050659180e+00 3.956755101680755615e-01 -5.712028741836547852e-01
2.818000000000000000e+03 6.215288925170898438e+01 5.418931484222412109e+00 -9.020259976387023926e-01 3.751224279403686523e+00 8.547595143318176270e-01 -1.539359450340270996e+00
2.819000000000000000e+03 5.631887817382812500e+01 -2.548884391784667969e+01 -2.352349758148193359e+00 7.975142955780029297e+00 1.686838030815124512e+00 1.655089735984802246e+00
2.820000000000000000e+03 2.736307144165039062e+01 3.153881072998046875e+01 6.401423215866088867e-01 1.213668704032897949e+00 5.561432838439941406e-01 -3.970557451248168945e-01
2.821000000000000000e+03 4.911484527587890625e+01 2.971130180358886719e+01 1.397420048713684082e+00 5.391796112060546875e+00 2.036764860153198242e+00 2.690304070711135864e-02
2.822000000000000000e+03 4.964001083374023438e+01 3.110031318664550781e+01 1.016056895256042480e+00 5.212087631225585938e+00 1.868443250656127930e+00 -5.677941441535949707e-02
2.823000000000000000e+03 5.034963989257812500e+01 -1.400152873992919922e+01 -6.295015215873718262e-01 3.599083900451660156e+00 8.908746838569641113e-01 -1.548115164041519165e-01
2.824000000000000000e+03 5.154772567749023438e+01 -1.180695247650146484e+01 1.602905511856079102e+00 4.828099250793457031e+00 1.929301381111145020e+00 -1.759244084358215332e+00
2.825000000000000000e+03 4.535520553588867188e+01 3.525712966918945312e+01 -6.511971950531005859e-01 3.343893766403198242e+00 8.078089952468872070e-01 -9.750710129737854004e-01
2.826000000000000000e+03 4.442463684082031250e+01 3.717485046386718750e+01 -6.441915035247802734e-01 2.711225271224975586e+00 6.201101541519165039e-01 -7.659084200859069824e-01
2.827000000000000000e+03 9.520048141479492188e+00 6.866242408752441406e+00 -5.865095853805541992e-01 -3.010466694831848145e-01 -2.662668824195861816e-01 2.869196832180023193e-01
2.828000000000000000e+03 1.797159194946289062e+01 -2.334395408630371094e+01 1.554184705018997192e-01 1.472992543131113052e-02 5.104451999068260193e-02 7.069535553455352783e-02
2.829000000000000000e+03 6.571284484863281250e+01 -1.339661693572998047e+01 -8.192474842071533203e-01 4.283508777618408203e+00 1.039278388023376465e+00 -9.665202349424362183e-02
2.830000000000000000e+03 6.756842803955078125e+01 -1.465736007690429688e+01 -5.968881249427795410e-01 9.246080517768859863e-01 9.831596165895462036e-02 -8.317065834999084473e-01
2.831000000000000000e+03 3.136819601058959961e+00 3.090213775634765625e+01 2.335656248033046722e-02 -8.385434150695800781e-01 -2.445560544729232788e-01 1.222714185714721680e-01
2.832000000000000000e+03 3.007056999206542969e+01 -2.913913154602050781e+01 -1.818945705890655518e-01 1.129354238510131836e+00 2.842378914356231689e-01 -3.798060119152069092e-01
2.833000000000000000e+03 6.178062438964843750e+01 6.209443092346191406e+00 -6.020730733871459961e-01 3.914324045181274414e+00 9.936752915382385254e-01 -1.523741841316223145e+00
2.834000000000000000e+03 5.807137680053710938e+01 5.810890674591064453e+00 1.723205000162124634e-01 6.125392913818359375e+00 1.889314055442810059e+00 -7.357294559478759766e-01
2.835000000000000000e+03 5.699568939208984375e+01 6.874485492706298828e+00 9.009247422218322754e-01 7.266577720642089844e+00 2.450250864028930664e+00 6.862714141607284546e-02
2.836000000000000000e+03 2.189183044433593750e+01 3.316139602661132812e+01 1.196384355425834656e-01 6.987158656120300293e-01 2.455063015222549438e-01 -1.725132018327713013e-01
2.837000000000000000e+03 2.044462013244628906e+01 3.499079132080078125e+01 5.418056622147560120e-02 5.531679987907409668e-01 1.822045594453811646e-01 -2.135254591703414917e-01
2.838000000000000000e+03 5.099794006347656250e+01 3.084053421020507812e+01 1.161779880523681641e+00 5.968416213989257812e+00 2.139058828353881836e+00 -4.128237441182136536e-02
2.839000000000000000e+03 5.076595306396484375e+01 3.654037094116210938e+01 -1.063251376152038574e+00 4.764793872833251953e+00 1.110462784767150879e+00 -1.828981488943099976e-01
2.840000000000000000e+03 5.242037582397460938e+01 3.616597747802734375e+01 -9.994739294052124023e-01 4.908754825592041016e+00 1.172784328460693359e+00 2.793026864528656006e-01
2.841000000000000000e+03 1.416436862945556641e+01 -7.128988265991210938e+00 1.198938637971878052e-01 1.414557546377182007e-01 7.840488851070404053e-02 -6.377810984849929810e-02
2.842000000000000000e+03 5.171629714965820312e+01 -1.005505084991455078e+01 2.486963272094726562e+00 6.324958801269531250e+00 2.643576622009277344e+00 -1.466687798500061035e+00
2.843000000000000000e+03 6.879997253417968750e+01 -1.413853168487548828e+01 -3.251778185367584229e-01 5.914564728736877441e-01 7.988359034061431885e-02 -1.709713220596313477e+00
2.844000000000000000e+03 7.190613555908203125e+01 2.124002647399902344e+01 -1.635754108428955078e+00 5.819661617279052734e+00 1.255172252655029297e+00 -9.849037528038024902e-01
2.845000000000000000e+03 5.528625488281250000e+01 1.654191780090332031e+01 6.564162969589233398e-01 5.580375671386718750e+00 1.871037602424621582e+00 -9.183939695358276367e-01
2.846000000000000000e+03 5.628041076660156250e+01 1.781154441833496094e+01 5.381149649620056152e-01 5.346489429473876953e+00 1.765381336212158203e+00 -8.015624284744262695e-01
2.847000000000000000e+03 5.792085266113281250e+01 1.106965255737304688e+01 1.410131454467773438e+00 8.524345397949218750e+00 2.980343103408813477e+00 1.254120826721191406e+00
2.848000000000000000e+03 2.405414772033691406e+01 -2.619812202453613281e+01 2.692340500652790070e-02 8.215330839157104492e-01 2.545369565486907959e-01 2.716152183711528778e-02
2.849000000000000000e+03 2.485837554931640625e+01 -2.709375000000000000e+01 -1.603180617094039917e-01 1.077888488769531250e+00 2.752711176872253418e-01 1.673380844295024872e-02
2.850000000000000000e+03 6.166099548339843750e+01 4.116793441772460938e+01 -2.292823344469070435e-01 2.279031515121459961e+00 6.149247288703918457e-01 -1.712675988674163818e-01
2.851000000000000000e+03 1.316968917846679688e+01 -9.477510452270507812e+00 4.831933602690696716e-02 1.518411040306091309e-01 6.004813313484191895e-02 -9.161236137151718140e-02
2.852000000000000000e+03 3.853404235839843750e+01 1.891910171508789062e+01 -8.110895007848739624e-02 1.929275870323181152e+00 5.544500350952148438e-01 -2.122000932693481445e+00
2.853000000000000000e+03 3.703262329101562500e+01 1.989958572387695312e+01 -4.012844562530517578e-01 2.431582689285278320e+00 6.090894937515258789e-01 -1.932559728622436523e+00
2.854000000000000000e+03 6.820628356933593750e+01 2.809082794189453125e+01 1.692987442016601562e+00 4.377769470214843750e+00 1.821227073669433594e+00 5.282247662544250488e-01
2.855000000000000000e+03 6.929055023193359375e+01 2.960225105285644531e+01 1.205599069595336914e+00 4.935110569000244141e+00 1.842212796211242676e+00 5.362994670867919922e-01
2.856000000000000000e+03 6.845375823974609375e+01 -3.094004440307617188e+01 2.462612628936767578e+00 5.478503704071044922e+00 2.382334947586059570e+00 -1.792467236518859863e+00
2.857000000000000000e+03 1.371295261383056641e+01 -3.807066202163696289e+00 -1.084314472973346710e-02 4.854165948927402496e-03 -1.796693541109561920e-03 -5.365477874875068665e-02
2.858000000000000000e+03 6.439456176757812500e+01 -1.218374347686767578e+01 -9.701335430145263672e-01 6.275432586669921875e+00 1.591589689254760742e+00 2.007634937763214111e-01
2.859000000000000000e+03 5.599549770355224609e+00 -1.258303260803222656e+01 -6.394194811582565308e-02 -2.243184447288513184e-01 -8.647812157869338989e-02 -7.523831725120544434e-02
2.860000000000000000e+03 5.130023002624511719e+00 -1.151171588897705078e+01 -5.652861203998327255e-03 -1.689216941595077515e-01 -5.237236618995666504e-02 -5.973848700523376465e-02
2.861000000000000000e+03 3.493887710571289062e+01 1.499324417114257812e+01 7.076177597045898438e-01 1.218837738037109375e+00 5.779366493225097656e-01 -1.139659166336059570e+00
2.862000000000000000e+03 4.175407791137695312e+01 -1.884973716735839844e+01 8.950416445732116699e-01 1.768310070037841797e+00 7.990055084228515625e-01 5.550056099891662598e-01
2.863000000000000000e+03 7.504657745361328125e+01 -1.293886375427246094e+01 -1.521060705184936523e+00 6.762547969818115234e+00 1.572446107864379883e+00 8.222090005874633789e-01
2.864000000000000000e+03 7.371291351318359375e+01 -1.515565681457519531e+01 -4.771349132061004639e-01 4.888592720031738281e+00 1.323437333106994629e+00 2.017258107662200928e-01
2.865000000000000000e+03 2.781814002990722656e+01 -1.693409729003906250e+01 1.319147944450378418e-01 1.475350856781005859e+00 4.821797013282775879e-01 3.540563583374023438e-01
2.866000000000000000e+03 1.612942886352539062e+01 4.095484161376953125e+01 6.164410710334777832e-02 2.957258522510528564e-01 1.072109937667846680e-01 6.504060234874486923e-03
2.867000000000000000e+03 2.789659500122070312e+01 -2.764145088195800781e+01 -3.362665176391601562e-01 1.499769330024719238e+00 3.490508198738098145e-01 -8.589103817939758301e-02
2.868000000000000000e+03 7.719025611877441406e+00 -3.160379409790039062e+01 2.359179221093654633e-02 -5.398339405655860901e-02 -9.117480367422103882e-03 -3.908876702189445496e-02
2.869000000000000000e+03 6.104858779907226562e+01 -2.006084823608398438e+01 2.479454755783081055e+00 5.535786628723144531e+00 2.404572486877441406e+00 -1.220551848411560059e+00
2.870000000000000000e+03 8.927400588989257812e+00 -2.556116104125976562e+01 3.609812632203102112e-02 5.645279586315155029e-02 2.776527591049671173e-02 -1.511125415563583374e-01
2.871000000000000000e+03 5.111966705322265625e+01 2.076516151428222656e+01 -1.478141903877258301e+00 3.277064800262451172e+00 5.396768450736999512e-01 -1.641155719757080078e+00
2.872000000000000000e+03 1.954965591430664062e+01 -1.618021583557128906e+01 -5.981326475739479065e-02 5.954767577350139618e-03 -1.615754887461662292e-02 -4.513840377330780029e-01
2.873000000000000000e+03 2.277843093872070312e+01 -1.937548637390136719e+01 4.849695265293121338e-01 1.513411998748779297e-01 1.908932179212570190e-01 -1.884661763906478882e-01
2.874000000000000000e+03 6.701108551025390625e+01 -3.186312675476074219e+01 2.206355333328247070e+00 8.324874877929687500e+00 3.159369230270385742e+00 -2.735318422317504883e+00
2.875000000000000000e+03 6.820280456542968750e+01 -3.223778152465820312e+01 2.190375566482543945e+00 5.975292682647705078e+00 2.449700355529785156e+00 -1.853566050529479980e+00
2.876000000000000000e+03 5.313295745849609375e+01 2.424640274047851562e+01 -4.624243378639221191e-01 5.627251148223876953e+00 1.549448132514953613e+00 -1.248436331748962402e+00
2.877000000000000000e+03 5.511875152587890625e+01 2.145044517517089844e+01 -1.913221597671508789e+00 4.374184131622314453e+00 7.382887601852416992e-01 -2.724883794784545898e+00
2.878000000000000000e+03 4.882600402832031250e+01 2.847750091552734375e+01 1.509312391281127930e+00 5.312712192535400391e+00 2.046607255935668945e+00 1.880871653556823730e-01
2.879000000000000000e+03 2.788497543334960938e+01 -2.671027565002441406e+01 -2.659633755683898926e-01 1.612326860427856445e+00 4.039090275764465332e-01 -2.877092920243740082e-02
2.880000000000000000e+03 1.259456062316894531e+01 -2.471146392822265625e+01 8.752344548702239990e-02 -7.587679475545883179e-02 3.493994241580367088e-03 -1.333613693714141846e-01
2.881000000000000000e+03 4.108454513549804688e+01 1.523079967498779297e+01 1.423936724662780762e+00 3.851807117462158203e+00 1.582723140716552734e+00 -1.304682850837707520e+00
2.882000000000000000e+03 5.683135223388671875e+01 1.059296226501464844e+01 1.856937527656555176e+00 9.008245468139648438e+00 3.259554862976074219e+00 1.559912800788879395e+00
2.883000000000000000e+03 2.261195755004882812e+01 1.005387115478515625e+01 3.437307476997375488e-01 1.386047452688217163e-01 1.447006464004516602e-01 1.449486464262008667e-01
2.884000000000000000e+03 1.385793781280517578e+01 -2.433562469482421875e+01 1.029739826917648315e-01 -1.069660857319831848e-01 -1.197632402181625366e-03 -5.140075087547302246e-02
2.885000000000000000e+03 1.153349971771240234e+01 -2.995266532897949219e+01 7.521917670965194702e-02 1.196839511394500732e-01 5.847093835473060608e-02 -1.848850399255752563e-02
2.886000000000000000e+03 2.630498123168945312e+01 -2.095615768432617188e+01 7.155509591102600098e-01 1.412109017372131348e+00 6.382979750633239746e-01 2.092920988798141479e-01
2.887000000000000000e+03 1.952013206481933594e+01 2.144523620605468750e+01 4.137064516544342041e-01 4.959804117679595947e-01 2.729060649871826172e-01 4.397346079349517822e-02
2.888000000000000000e+03 1.753894615173339844e+01 2.094222068786621094e+01 5.149289965629577637e-01 1.244708970189094543e-01 1.918199658393859863e-01 2.560116946697235107e-01
2.889000000000000000e+03 5.522766876220703125e+01 -1.438226509094238281e+01 -6.747189164161682129e-01 5.250659942626953125e+00 1.372782349586486816e+00 -2.590684175491333008e+00
2.890000000000000000e+03 5.622147369384765625e+01 -1.522558116912841797e+01 -4.143860042095184326e-01 6.011138439178466797e+00 1.679025769233703613e+00 -1.911660432815551758e+00
2.891000000000000000e+03 2.589085197448730469e+01 9.669717788696289062e+00 2.687445282936096191e-01 2.861652970314025879e-01 1.664729416370391846e-01 -1.072544232010841370e-01
2.892000000000000000e+03 7.763190269470214844e+00 1.238552188873291016e+01 -6.105565279722213745e-02 -2.329649478197097778e-01 -8.820617944002151489e-02 5.451082587242126465e-01
2.893000000000000000e+03 5.216320037841796875e+00 1.524856376647949219e+01 2.022296786308288574e-01 -3.945927619934082031e-01 -5.770892277359962463e-02 3.679725825786590576e-01
2.894000000000000000e+03 3.541509246826171875e+01 1.374641036987304688e+01 9.113632440567016602e-01 1.038012027740478516e+00 5.848125815391540527e-01 -1.146424412727355957e+00
2.895000000000000000e+03 3.822000885009765625e+01 1.447273159027099609e+01 1.309228777885437012e+00 2.184383392333984375e+00 1.048083662986755371e+00 -1.633728265762329102e+00
2.896000000000000000e+03 4.173840332031250000e+01 1.268201828002929688e+01 1.912364125251770020e+00 5.270279884338378906e+00 2.154793262481689453e+00 -9.512922763824462891e-01
2.897000000000000000e+03 5.839113616943359375e+01 -2.032650566101074219e+01 2.587570428848266602e+00 6.249883174896240234e+00 2.651236057281494141e+00 1.095880009233951569e-02
2.898000000000000000e+03 5.964991760253906250e+01 -2.077835273742675781e+01 2.965698957443237305e+00 4.963612079620361328e+00 2.378793239593505859e+00 -5.780215859413146973e-01
2.899000000000000000e+03 4.349313735961914062e+01 -2.564508056640625000e+01 3.038052320480346680e-01 1.613549590110778809e+00 5.752064585685729980e-01 1.167541146278381348e+00
2.900000000000000000e+03 5.765514755249023438e+01 1.519138622283935547e+01 1.820878982543945312e+00 7.753294467926025391e+00 2.872251987457275391e+00 1.089491367340087891e+00
2.901000000000000000e+03 4.232595062255859375e+01 3.808831405639648438e+01 -4.582958817481994629e-01 1.790033936500549316e+00 3.995214104652404785e-01 -6.728283166885375977e-01
2.902000000000000000e+03 5.354924774169921875e+01 -3.055543708801269531e+01 1.970362663269042969e+00 5.670294761657714844e+00 2.292197227478027344e+00 8.020803332328796387e-01
2.903000000000000000e+03 5.375020217895507812e+01 -2.904820251464843750e+01 6.195775270462036133e-01 5.518579959869384766e+00 1.841447234153747559e+00 1.230048656463623047e+00
2.904000000000000000e+03 5.020680618286132812e+01 -1.026738739013671875e+01 3.106528282165527344e+00 7.596604347229003906e+00 3.210939884185791016e+00 -1.932391077280044556e-01
2.905000000000000000e+03 1.679103660583496094e+01 -2.480721092224121094e+01 1.709284335374832153e-01 4.951585456728935242e-02 6.613328307867050171e-02 8.830124884843826294e-02
2.906000000000000000e+03 1.660706901550292969e+01 -2.353428840637207031e+01 1.040666922926902771e-01 -5.462639778852462769e-02 1.483208872377872467e-02 5.907052382826805115e-02
2.907000000000000000e+03 3.457403182983398438e+01 2.303570175170898438e+01 1.882813125848770142e-01 4.119834899902343750e+00 1.292434930801391602e+00 -8.753196001052856445e-01
2.908000000000000000e+03 5.506147766113281250e+01 -4.008727645874023438e+01 -2.698653936386108398e+00 5.591577053070068359e+00 8.678768873214721680e-01 3.451562225818634033e-01
2.909000000000000000e+03 5.269744873046875000e+01 -2.861774826049804688e+01 6.114912033081054688e-01 4.215283870697021484e+00 1.448032498359680176e+00 5.818920135498046875e-01
2.910000000000000000e+03 7.470815277099609375e+01 2.076620864868164062e+01 -9.881943464279174805e-01 7.243018627166748047e+00 1.876447319984436035e+00 -7.433270663022994995e-02
2.911000000000000000e+03 4.150875091552734375e+01 1.735326385498046875e+01 6.250585913658142090e-01 3.354648351669311523e+00 1.193912148475646973e+00 -1.009005427360534668e+00
2.912000000000000000e+03 4.266094589233398438e+01 1.292839527130126953e+01 1.970784187316894531e+00 6.387183666229248047e+00 2.507390260696411133e+00 -7.736495137214660645e-01
2.913000000000000000e+03 4.865268707275390625e+01 3.406396484375000000e+01 -1.663629263639450073e-01 4.706174850463867188e+00 1.361943483352661133e+00 -6.136209368705749512e-01
2.914000000000000000e+03 1.859432411193847656e+01 -1.825176239013671875e+01 5.351153761148452759e-02 2.934494987130165100e-02 2.485694549977779388e-02 -4.028892517089843750e-01
2.915000000000000000e+03 1.902577400207519531e+01 -1.981720924377441406e+01 1.263118982315063477e-01 2.646073698997497559e-02 4.583179205656051636e-02 -2.691587805747985840e-01
2.916000000000000000e+03 6.424681854248046875e+01 -1.109319686889648438e+01 -4.135707914829254150e-01 7.075394153594970703e+00 1.998546957969665527e+00 1.368898302316665649e-01
2.917000000000000000e+03 6.201934432983398438e+01 -1.148505878448486328e+01 -8.947620987892150879e-01 7.163976192474365234e+00 1.880764245986938477e+00 1.272507667541503906e+00
2.918000000000000000e+03 4.310510635375976562e+01 -1.638239288330078125e+01 -3.409884870052337646e-01 1.998557686805725098e+00 4.972707629203796387e-01 8.713632225990295410e-01
2.919000000000000000e+03 1.388222217559814453e+01 2.082176399230957031e+01 3.632086813449859619e-01 2.672910988330841064e-01 1.891499310731887817e-01 5.386217832565307617e-01
2.920000000000000000e+03 5.984090042114257812e+01 1.891605567932128906e+01 1.350828289985656738e+00 6.865574836730957031e+00 2.464920997619628906e+00 1.598110675811767578e+00
2.921000000000000000e+03 5.992415237426757812e+01 2.000430107116699219e+01 1.309692114591598511e-01 5.768139362335205078e+00 1.769732594490051270e+00 1.537696957588195801e+00
2.922000000000000000e+03 5.783952713012695312e+00 1.719256210327148438e+01 2.876561880111694336e-01 -3.918392658233642578e-01 -3.125492110848426819e-02 2.398049384355545044e-01
2.923000000000000000e+03 8.415932655334472656e+00 1.750483131408691406e+01 4.990959465503692627e-01 -6.205719709396362305e-02 1.311116218566894531e-01 2.520985007286071777e-01
2.924000000000000000e+03 3.517988967895507812e+01 -2.967910385131835938e+01 4.948374032974243164e-01 9.418372064828872681e-02 1.767063289880752563e-01 3.784406483173370361e-01
2.925000000000000000e+03 3.194371414184570312e+01 4.144767379760742188e+01 -4.552736878395080566e-01 1.783978104591369629e+00 3.986113071441650391e-01 2.238284796476364136e-02
2.926000000000000000e+03 1.850374031066894531e+01 -1.572009277343750000e+01 -3.553297370672225952e-02 1.406002342700958252e-01 3.152017667889595032e-02 -3.177939653396606445e-01
2.927000000000000000e+03 1.070842170715332031e+01 -2.874489212036132812e+01 7.417698949575424194e-02 5.356790870428085327e-02 3.832346946001052856e-02 -6.128311902284622192e-02
2.928000000000000000e+03 9.498510360717773438e+00 -3.086310577392578125e+01 5.577915906906127930e-02 4.152928665280342102e-02 2.919253334403038025e-02 -4.805438220500946045e-02
2.929000000000000000e+03 5.857330322265625000e+01 1.572874927520751953e+01 2.009582042694091797e+00 7.986614227294921875e+00 2.998858928680419922e+00 1.591066956520080566e+00
2.930000000000000000e+03 7.628866195678710938e+00 1.842189216613769531e+01 3.574230968952178955e-01 -2.130083292722702026e-01 4.332442954182624817e-02 1.518616676330566406e-01
2.931000000000000000e+03 3.995429229736328125e+01 1.343154907226562500e+01 1.654671192169189453e+00 3.331445455551147461e+00 1.495835065841674805e+00 -1.338667750358581543e+00
2.932000000000000000e+03 3.968059158325195312e+01 1.477742767333984375e+01 1.478750824928283691e+00 2.901331186294555664e+00 1.314024567604064941e+00 -1.542492508888244629e+00
2.933000000000000000e+03 4.497911834716796875e+01 1.409397840499877930e+00 7.281800508499145508e-01 1.050003051757812500e+01 3.368463277816772461e+00 -2.320721149444580078e+00
2.934000000000000000e+03 4.684709548950195312e+01 5.177326679229736328e+00 -2.674920320510864258e+00 5.634974002838134766e+00 8.880160450935363770e-01 -1.605012536048889160e+00
2.935000000000000000e+03 4.666496276855468750e+01 -1.068835973739624023e+00 7.089362621307373047e+00 6.789200305938720703e+00 4.163568973541259766e+00 -3.257133007049560547e+00
2.936000000000000000e+03 4.660537338256835938e+01 -5.373635292053222656e-01 7.468193531036376953e+00 6.837935447692871094e+00 4.291838645935058594e+00 -1.860965132713317871e+00
2.937000000000000000e+03 4.772868728637695312e+01 4.620392799377441406e+00 -2.514584779739379883e+00 3.947434902191162109e+00 4.298550784587860107e-01 -1.350062370300292969e+00
2.938000000000000000e+03 4.732374191284179688e+01 -1.930101752281188965e+00 4.192366123199462891e+00 7.014657974243164062e+00 3.362107038497924805e+00 -4.017345428466796875e+00
2.939000000000000000e+03 4.626723480224609375e+01 -2.070855855941772461e+00 4.516608715057373047e+00 7.825388908386230469e+00 3.702599287033081055e+00 -4.854144573211669922e+00
2.940000000000000000e+03 4.659641265869140625e+01 -1.854267954826354980e+00 4.898931503295898438e+00 7.384498596191406250e+00 3.685029029846191406e+00 -4.505485534667968750e+00
2.941000000000000000e+03 4.634117507934570312e+01 -3.092101812362670898e+00 8.717141747474670410e-01 7.434725761413574219e+00 2.491931915283203125e+00 -4.275030612945556641e+00
2.942000000000000000e+03 4.353101348876953125e+01 2.861205101013183594e+00 -7.177471518516540527e-01 6.387124061584472656e+00 1.700813055038452148e+00 -3.579477548599243164e+00
2.943000000000000000e+03 4.655560684204101562e+01 -2.829246520996093750e-01 7.231669425964355469e+00 7.025115489959716797e+00 4.277035713195800781e+00 -1.090724587440490723e+00
2.944000000000000000e+03 4.695960998535156250e+01 -2.800202071666717529e-01 6.399768829345703125e+00 6.424848079681396484e+00 3.847385168075561523e+00 -1.323640227317810059e+00
2.945000000000000000e+03 4.641815948486328125e+01 2.244676351547241211e+00 4.876906871795654297e-01 7.727686405181884766e+00 2.464613199234008789e+00 -1.004589915275573730e+00
2.946000000000000000e+03 4.342655563354492188e+01 2.465811014175415039e+00 -3.031938076019287109e-01 6.036472320556640625e+00 1.719983577728271484e+00 -3.747975587844848633e+00
2.947000000000000000e+03 4.415877532958984375e+01 2.149945974349975586e+00 -1.952801644802093506e-01 7.939098358154296875e+00 2.323145389556884766e+00 -3.701008081436157227e+00
2.948000000000000000e+03 1.048310661315917969e+01 6.350203514099121094e+00 -5.990732312202453613e-01 -3.526692688465118408e-01 -2.855227589607238770e-01 2.576386928558349609e-01
2.949000000000000000e+03 5.266048431396484375e+00 -3.911006927490234375e+00 3.909680526703596115e-03 -5.512962862849235535e-02 -1.536598522216081619e-02 -4.914777725934982300e-02
2.950000000000000000e+03 4.766486644744873047e+00 -5.437633037567138672e+00 1.968351751565933228e-02 -7.729959487915039062e-02 -1.728482358157634735e-02 -5.199959501624107361e-02
2.951000000000000000e+03 9.344484329223632812e+00 -1.057935047149658203e+01 1.301610725931823254e-03 -7.905536890029907227e-02 -2.332612685859203339e-02 -1.362614780664443970e-01
2.952000000000000000e+03 6.733564376831054688e+00 -3.894318342208862305e+00 -2.277271077036857605e-02 -1.407993305474519730e-02 -1.105579268187284470e-02 -6.411642581224441528e-02
2.953000000000000000e+03 9.203185081481933594e+00 -5.012766838073730469e+00 -4.514418169856071472e-02 -9.780284017324447632e-02 -4.288410767912864685e-02 -1.701787263154983521e-01
2.954000000000000000e+03 8.527427673339843750e+00 -4.985440731048583984e+00 1.059191394597291946e-02 -9.448947012424468994e-02 -2.516926825046539307e-02 -1.207068413496017456e-01
2.955000000000000000e+03 5.017032146453857422e+00 -4.610886573791503906e+00 -3.820808231830596924e-02 -4.345839470624923706e-02 -2.449994347989559174e-02 -7.788038253784179688e-02
2.956000000000000000e+03 7.087205886840820312e+00 -4.407087802886962891e+00 -8.048146963119506836e-03 -9.264875948429107666e-02 -3.020907193422317505e-02 -1.036462113261222839e-01
2.957000000000000000e+03 3.627367496490478516e+00 -7.504645824432373047e+00 6.275688065215945244e-04 -9.511245042085647583e-02 -2.834546379745006561e-02 -4.282128810882568359e-02
2.958000000000000000e+03 1.294732856750488281e+01 -3.624232292175292969e+00 -4.405704140663146973e-02 -2.765483967959880829e-02 -2.151356451213359833e-02 -1.655076891183853149e-01
2.959000000000000000e+03 4.905788421630859375e+01 -3.145452976226806641e+00 1.876086831092834473e+00 7.985417366027832031e+00 2.958451271057128906e+00 -2.624354124069213867e+00
2.960000000000000000e+03 2.283643150329589844e+01 5.856614112854003906e+00 -5.740884318947792053e-02 -1.230431273579597473e-01 -5.413559079170227051e-02 3.868873044848442078e-02
2.961000000000000000e+03 2.698340606689453125e+01 3.415636777877807617e+00 -5.011572837829589844e-01 1.639860868453979492e-01 -1.011513546109199524e-01 1.622117757797241211e-01
2.962000000000000000e+03 2.205223274230957031e+01 4.956550121307373047e+00 -3.748824000358581543e-01 -1.215377673506736755e-01 -1.489260494709014893e-01 8.562105149030685425e-02
2.963000000000000000e+03 2.289039802551269531e+01 4.957358360290527344e+00 -3.088800609111785889e-01 -1.226993501186370850e-01 -1.294738203287124634e-01 7.979865372180938721e-02
2.964000000000000000e+03 2.521221542358398438e+01 5.488468647003173828e+00 -1.041004713624715805e-02 -1.224779896438121796e-02 -6.797353737056255341e-03 -1.881252857856452465e-03
2.965000000000000000e+03 2.566367912292480469e+01 6.201834678649902344e+00 1.704321503639221191e-01 6.495735794305801392e-02 7.061685621738433838e-02 -4.669455066323280334e-02
2.966000000000000000e+03 2.365500068664550781e+01 6.851056575775146484e+00 1.943140476942062378e-01 -8.452407270669937134e-02 3.293699026107788086e-02 -5.523296073079109192e-03
2.967000000000000000e+03 2.756658363342285156e+01 5.581274509429931641e+00 2.267242223024368286e-01 3.902511894702911377e-01 1.850926280021667480e-01 -7.567002624273300171e-02
2.968000000000000000e+03 4.440858364105224609e+00 4.760685443878173828e+00 -1.056038513779640198e-01 -1.764640212059020996e-02 -3.697507455945014954e-02 -1.032288279384374619e-02
2.969000000000000000e+03 7.120166301727294922e+00 4.470380306243896484e+00 -2.100909501314163208e-01 -8.065421879291534424e-02 -8.722354471683502197e-02 2.497660741209983826e-02
2.970000000000000000e+03 5.504148483276367188e+00 5.387182235717773438e+00 -1.887104511260986328e-01 -4.544954746961593628e-02 -7.024800032377243042e-02 3.396265953779220581e-02
2.971000000000000000e+03 4.684657096862792969e+00 5.628310203552246094e+00 -1.590046137571334839e-01 -3.672960400581359863e-02 -5.872026458382606506e-02 3.971954435110092163e-02
2.972000000000000000e+03 1.227140808105468750e+01 -3.370987415313720703e+00 -6.368563324213027954e-02 -9.053528308868408203e-02 -4.626627638936042786e-02 -1.120763421058654785e-01
2.973000000000000000e+03 1.180414009094238281e+01 -4.040073394775390625e+00 -4.133718460798263550e-02 -2.320186793804168701e-02 -1.936171576380729675e-02 -1.721078902482986450e-01
2.974000000000000000e+03 1.286559963226318359e+01 -5.539049625396728516e+00 2.973722852766513824e-02 -2.179795689880847931e-02 2.381781348958611488e-03 -8.694214373826980591e-02
2.975000000000000000e+03 4.218857574462890625e+01 4.345387458801269531e+00 -8.951237201690673828e-01 4.712777137756347656e+00 1.145295977592468262e+00 -2.700638055801391602e+00
2.976000000000000000e+03 7.160396575927734375e+00 3.896623134613037109e+00 -1.484574526548385620e-01 -5.958905443549156189e-02 -6.241395324468612671e-02 1.748788519762456417e-03
2.977000000000000000e+03 6.628551006317138672e+00 4.063507556915283203e+00 -1.528065502643585205e-01 -5.696672573685646057e-02 -6.293198466300964355e-02 -6.706194952130317688e-03
2.978000000000000000e+03 3.462267684936523438e+01 -4.340161323547363281e+00 1.654224634170532227e+00 3.928604423999786377e-01 6.141255497932434082e-01 7.939482480287551880e-02
2.979000000000000000e+03 9.995446205139160156e+00 5.398735046386718750e+00 -4.286904931068420410e-01 -2.727719545364379883e-01 -2.104387283325195312e-01 1.994347870349884033e-01
2.980000000000000000e+03 8.799054145812988281e+00 5.062365531921386719e+00 -3.516252040863037109e-01 -1.619043648242950439e-01 -1.540588736534118652e-01 1.086348518729209900e-01
2.981000000000000000e+03 7.175728797912597656e+00 6.631833553314208984e+00 -3.569822609424591064e-01 -1.354651600122451782e-01 -1.477342247962951660e-01 1.499732136726379395e-01
2.982000000000000000e+03 3.386579513549804688e+01 -6.303692340850830078e+00 1.794570446014404297e+00 3.310177624225616455e-01 6.376764774322509766e-01 7.219429612159729004e-01
2.983000000000000000e+03 4.654299926757812500e+01 5.803173065185546875e+00 -2.371761560440063477e+00 5.275193691253662109e+00 8.710296154022216797e-01 -1.808271408081054688e+00
2.984000000000000000e+03 4.598633956909179688e+01 6.399300098419189453e+00 -2.201953411102294922e+00 6.502061367034912109e+00 1.290032386779785156e+00 -2.241310596466064453e+00
2.985000000000000000e+03 4.766944885253906250e+01 -5.548177242279052734e+00 -9.244154095649719238e-01 9.471187591552734375e+00 2.564031839370727539e+00 -2.105431795120239258e+00
2.986000000000000000e+03 4.979597854614257812e+01 -3.888085365295410156e+00 1.505894184112548828e+00 8.904006958007812500e+00 3.122970342636108398e+00 -1.549681544303894043e+00
2.987000000000000000e+03 3.505605316162109375e+01 -5.973091602325439453e+00 2.450566768646240234e+00 1.143596768379211426e+00 1.078249096870422363e+00 9.808370471000671387e-01
2.988000000000000000e+03 1.549443435668945312e+01 -4.072756290435791016e+00 2.106242254376411438e-02 1.127491965889930725e-01 4.014348611235618591e-02 1.821282505989074707e-02
2.989000000000000000e+03 4.601448059082031250e+01 -3.506259679794311523e+00 -6.302511692047119141e-01 7.202937602996826172e+00 1.971805930137634277e+00 -3.719635248184204102e+00
2.990000000000000000e+03 5.684036636352539062e+01 1.939308166503906250e+01 -1.394907683134078979e-01 4.301149368286132812e+00 1.248497605323791504e+00 -1.413896203041076660e+00
2.991000000000000000e+03 5.031098556518554688e+01 -1.829561710357666016e+00 2.614396095275878906e+00 6.909904003143310547e+00 2.857290029525756836e+00 -1.020182847976684570e+00
2.992000000000000000e+03 5.217759704589843750e+01 7.875540852546691895e-01 1.116362333297729492e+00 5.171971321105957031e+00 1.886500120162963867e+00 2.204764842987060547e+00
2.993000000000000000e+03 8.923902511596679688e+00 -6.144549369812011719e+00 1.046908088028430939e-02 -1.131167337298393250e-01 -3.079429641366004944e-02 -1.401423513889312744e-01
2.994000000000000000e+03 1.070600891113281250e+01 -4.479593276977539062e+00 -2.853077650070190430e-02 -4.946264252066612244e-02 -2.339802496135234833e-02 -1.489817053079605103e-01
2.995000000000000000e+03 4.979626464843750000e+01 -2.528268575668334961e+00 2.363601684570312500e+00 7.473254680633544922e+00 2.951056718826293945e+00 -1.708778262138366699e+00
2.996000000000000000e+03 4.858507156372070312e+01 -4.066319465637207031e-01 4.176618099212646484e+00 5.572529315948486328e+00 2.924744367599487305e+00 -1.396971940994262695e+00
2.997000000000000000e+03 3.301970672607421875e+01 -7.498809337615966797e+00 1.199251294136047363e+00 2.650946676731109619e-01 4.393037855625152588e-01 1.128156781196594238e+00
2.998000000000000000e+03 3.178392219543457031e+01 -9.544137954711914062e+00 4.777877926826477051e-01 2.448888123035430908e-01 2.168029844760894775e-01 1.294979572296142578e+00
2.999000000000000000e+03 2.374296188354492188e+01 7.882839202880859375e+00 3.220550715923309326e-01 -9.210127405822277069e-03 9.385348856449127197e-02 1.029605884104967117e-02
3.000000000000000000e+03 1.166960239410400391e+01 -2.708229255676269531e+01 1.158653572201728821e-01 2.079281024634838104e-02 4.099744930863380432e-02 -8.131913095712661743e-02
3.001000000000000000e+03 1.474841594696044922e+01 -8.529268264770507812e+00 6.236435472965240479e-02 2.145448774099349976e-01 8.307277411222457886e-02 -5.044118687510490417e-02
3.002000000000000000e+03 3.273724365234375000e+01 -9.466819763183593750e+00 6.504268646240234375e-01 5.406861901283264160e-01 3.573338985443115234e-01 1.571019172668457031e+00
3.003000000000000000e+03 4.981220245361328125e+01 -5.535750389099121094e+00 1.242358088493347168e+00 9.645899772644042969e+00 3.266477584838867188e+00 -5.731310248374938965e-01
3.004000000000000000e+03 3.466506958007812500e+01 -8.373491287231445312e+00 1.264555573463439941e+00 1.422065258026123047e+00 8.059862256050109863e-01 1.574521303176879883e+00
3.005000000000000000e+03 3.497046661376953125e+01 -7.725076198577880859e+00 1.716471791267395020e+00 1.829210877418518066e+00 1.063704729080200195e+00 1.528012037277221680e+00
3.006000000000000000e+03 6.627781391143798828e+00 7.977181911468505859e+00 -3.817848563194274902e-01 -1.361632198095321655e-01 -1.553844213485717773e-01 2.378156930208206177e-01
3.007000000000000000e+03 4.317845153808593750e+01 7.784132480621337891e+00 -4.334391951560974121e-01 6.603923797607421875e+00 1.851145386695861816e+00 -1.285722494125366211e+00
3.008000000000000000e+03 1.590253543853759766e+01 -8.621487617492675781e+00 1.132426224648952484e-02 2.675786912441253662e-01 8.367088437080383301e-02 -7.234466727823019028e-03
3.009000000000000000e+03 4.196217727661132812e+01 -1.983708763122558594e+01 1.087329387664794922e+00 2.396524429321289062e+00 1.045156121253967285e+00 8.573606014251708984e-01
3.010000000000000000e+03 3.306091690063476562e+01 -6.328548431396484375e+00 1.370688438415527344e+00 -2.559559792280197144e-02 4.035278558731079102e-01 5.503402352333068848e-01
3.011000000000000000e+03 5.005347061157226562e+01 -8.796090126037597656e+00 2.901530742645263672e+00 9.466185569763183594e+00 3.710314989089965820e+00 4.170747101306915283e-01
3.012000000000000000e+03 4.329975128173828125e+01 -1.729544448852539062e+01 2.736319899559020996e-01 2.589997529983520508e+00 8.590888977050781250e-01 8.219918608665466309e-01
3.013000000000000000e+03 2.121920394897460938e+01 -1.723957061767578125e+01 1.034935340285301208e-01 -3.940953314304351807e-02 1.922520250082015991e-02 -4.412504434585571289e-01
3.014000000000000000e+03 1.961223411560058594e+01 -1.891856575012207031e+01 1.867647022008895874e-01 2.923806756734848022e-02 6.480082869529724121e-02 -3.602051734924316406e-01
3.015000000000000000e+03 6.974628448486328125e+01 2.482492828369140625e+01 7.688074111938476562e-01 3.848477602005004883e+00 1.385185480117797852e+00 -8.109939694404602051e-01
3.016000000000000000e+03 6.581865692138671875e+01 2.481237983703613281e+01 1.394210934638977051e+00 4.222026348114013672e+00 1.684871196746826172e+00 9.317890405654907227e-01
3.017000000000000000e+03 6.841917419433593750e+01 2.292673683166503906e+01 -2.112470716238021851e-01 2.516802310943603516e+00 6.916665434837341309e-01 -1.110145926475524902e+00
3.018000000000000000e+03 6.796212005615234375e+01 2.930524826049804688e+01 1.460030674934387207e+00 4.897508144378662109e+00 1.907261610031127930e+00 9.278365373611450195e-01
3.019000000000000000e+03 5.182490921020507812e+01 -2.816180229187011719e+01 -1.428175419569015503e-01 3.663586854934692383e+00 1.056230783462524414e+00 2.790347933769226074e-01
3.020000000000000000e+03 4.179944610595703125e+01 6.757089138031005859e+00 -2.789613008499145508e-01 5.155516147613525391e+00 1.462966442108154297e+00 -1.497482299804687500e+00
3.021000000000000000e+03 5.517134094238281250e+01 -1.266194057464599609e+01 3.055143356323242188e-01 4.278964519500732422e+00 1.375343680381774902e+00 -3.052863836288452148e+00
3.022000000000000000e+03 5.390108489990234375e+01 -1.122036838531494141e+01 8.476807475090026855e-01 4.333540439605712891e+00 1.554366350173950195e+00 -3.131548166275024414e+00
3.023000000000000000e+03 7.485117340087890625e+01 -3.375859832763671875e+01 4.108050167560577393e-01 6.302174091339111328e+00 2.013893842697143555e+00 -2.221439182758331299e-01
3.024000000000000000e+03 6.095371627807617188e+01 1.296977519989013672e+00 -5.858424901962280273e-01 5.548907756805419922e+00 1.488919496536254883e+00 -1.893494009971618652e+00
3.025000000000000000e+03 6.215288162231445312e+01 -2.140644073486328125e+01 3.059016227722167969e+00 5.475565433502197266e+00 2.560374498367309570e+00 -1.813765645027160645e+00
3.026000000000000000e+03 1.043472671508789062e+01 -2.715802192687988281e+01 6.105226278305053711e-02 1.654794439673423767e-02 2.328006364405155182e-02 -1.159091740846633911e-01
3.027000000000000000e+03 6.596629333496093750e+01 2.233995437622070312e+01 -4.089429378509521484e-01 1.736469507217407227e+00 3.982579708099365234e-01 1.491742730140686035e+00
3.028000000000000000e+03 6.158512878417968750e+01 1.594951897859573364e-01 -3.658857345581054688e-01 6.379598617553710938e+00 1.804113864898681641e+00 -1.221236705780029297e+00
3.029000000000000000e+03 5.586946487426757812e+01 3.220853567123413086e+00 -5.172704458236694336e-01 4.824889183044433594e+00 1.292285561561584473e+00 1.381102442741394043e+00
3.030000000000000000e+03 5.394666290283203125e+01 2.663203477859497070e+00 -4.051819145679473877e-01 4.937094688415527344e+00 1.359573841094970703e+00 3.303163051605224609e+00
3.031000000000000000e+03 4.979698562622070312e+01 3.029494047164916992e+00 4.938285648822784424e-01 2.913325071334838867e+00 1.022146105766296387e+00 7.505109310150146484e-01
3.032000000000000000e+03 6.109296798706054688e+01 4.220908641815185547e+00 -7.973444461822509766e-01 4.700509071350097656e+00 1.170949339866638184e+00 -1.777212381362915039e+00
3.033000000000000000e+03 3.860623836517333984e+00 1.059489440917968750e+01 -1.002799198031425476e-01 -1.898277252912521362e-01 -8.703229576349258423e-02 3.296316266059875488e-01
3.034000000000000000e+03 5.602119445800781250e+01 5.746380805969238281e+00 1.850509196519851685e-01 7.528783321380615234e+00 2.314150333404541016e+00 7.888528704643249512e-01
3.035000000000000000e+03 4.966450500488281250e+01 -1.112186050415039062e+01 2.685065031051635742e+00 7.572362899780273438e+00 3.077228307723999023e+00 -9.321419149637222290e-02
3.036000000000000000e+03 4.078318023681640625e+01 1.902028846740722656e+01 -1.165659278631210327e-01 1.883567690849304199e+00 5.301005244255065918e-01 -1.133784770965576172e+00
3.037000000000000000e+03 6.344626998901367188e+01 4.739541053771972656e+00 -8.422634005546569824e-01 2.702443838119506836e+00 5.580541491508483887e-01 -1.088367938995361328e+00
3.038000000000000000e+03 7.388541412353515625e+01 -2.936646461486816406e+01 -2.524027228355407715e-01 6.081689357757568359e+00 1.748785972595214844e+00 9.399186968803405762e-01
3.039000000000000000e+03 5.983728790283203125e+01 -1.208253097534179688e+01 -6.646921634674072266e-01 5.708477973937988281e+00 1.513135671615600586e+00 1.255066037178039551e+00
3.040000000000000000e+03 5.947474670410156250e+01 -1.313844680786132812e+01 -2.193241268396377563e-01 5.251886367797851562e+00 1.509768605232238770e+00 6.738749742507934570e-01
3.041000000000000000e+03 5.931269168853759766e+00 -2.614823722839355469e+01 2.368430141359567642e-03 -5.734885111451148987e-02 -1.649412699043750763e-02 -4.898130893707275391e-02
3.042000000000000000e+03 5.094283676147460938e+01 -1.894317418336868286e-01 2.087959051132202148e+00 5.693724155426025391e+00 2.334505081176757812e+00 6.337828636169433594e-01
3.043000000000000000e+03 5.203246688842773438e+01 1.722794890403747559e+00 6.074447035789489746e-01 4.538956165313720703e+00 1.543920278549194336e+00 2.453369140625000000e+00
3.044000000000000000e+03 2.652358245849609375e+01 5.909144878387451172e+00 1.622458696365356445e-01 1.702707558870315552e-01 9.975498914718627930e-02 -1.006251946091651917e-01
3.045000000000000000e+03 5.907629394531250000e+01 7.232194423675537109e+00 2.954813838005065918e-01 6.155971527099609375e+00 1.935435891151428223e+00 -7.377890348434448242e-01
3.046000000000000000e+03 5.912495422363281250e+01 1.679977416992187500e+01 2.499758243560791016e+00 7.995267868041992188e+00 3.148507833480834961e+00 1.747271060943603516e+00
3.047000000000000000e+03 5.641850662231445312e+01 4.697521209716796875e+00 -5.252456068992614746e-01 6.247408390045166016e+00 1.716648817062377930e+00 3.774614334106445312e-01
3.048000000000000000e+03 5.809844589233398438e+01 7.808400630950927734e+00 8.547856211662292480e-01 7.163300514221191406e+00 2.405425786972045898e+00 -1.508281081914901733e-01
3.049000000000000000e+03 2.446832656860351562e+01 3.236440277099609375e+01 3.392170965671539307e-01 1.035247206687927246e+00 4.123392701148986816e-01 -2.194933891296386719e-01
3.050000000000000000e+03 3.476495742797851562e+01 -3.344153594970703125e+01 1.081319808959960938e+00 1.429383039474487305e+00 7.532108426094055176e-01 8.519460558891296387e-01
3.051000000000000000e+03 6.534921264648437500e+01 3.554029464721679688e-01 3.144657611846923828e-01 4.764256477355957031e+00 1.523616790771484375e+00 1.191057324409484863e+00
3.052000000000000000e+03 2.159892654418945312e+01 7.762449264526367188e+00 4.083413481712341309e-01 5.025989562273025513e-02 1.375803798437118530e-01 1.283623874187469482e-01
3.053000000000000000e+03 4.003757858276367188e+01 -1.565588569641113281e+01 -1.519779324531555176e+00 6.794489026069641113e-01 -2.520991265773773193e-01 -5.637588500976562500e-01
3.054000000000000000e+03 4.388335800170898438e+01 6.500215530395507812e+00 -1.642361164093017578e+00 6.827801227569580078e+00 1.555631995201110840e+00 -1.893019556999206543e+00
3.055000000000000000e+03 4.252822113037109375e+01 -2.568778228759765625e+01 6.238287687301635742e-01 1.974994659423828125e+00 7.796469926834106445e-01 1.719025731086730957e+00
3.056000000000000000e+03 2.584684562683105469e+01 -1.922708320617675781e+01 6.847005486488342285e-01 1.038621783256530762e+00 5.169966816902160645e-01 1.109992414712905884e-01
3.057000000000000000e+03 1.761416625976562500e+01 -2.008292388916015625e+01 -1.828006841242313385e-02 3.327704966068267822e-02 4.499094095081090927e-03 -2.383291423320770264e-01
3.058000000000000000e+03 2.448681449890136719e+01 1.022210884094238281e+01 2.938469052314758301e-01 1.852877736091613770e-01 1.437404006719589233e-01 -1.439513452351093292e-02
3.059000000000000000e+03 7.583600997924804688e+00 7.649603843688964844e+00 -4.372691810131072998e-01 -1.788888126611709595e-01 -1.848473995923995972e-01 2.262291312217712402e-01
3.060000000000000000e+03 4.232886505126953125e+01 -2.100040245056152344e+01 1.600213766098022461e+00 3.032479524612426758e+00 1.389807939529418945e+00 1.685471296310424805e+00
3.061000000000000000e+03 5.653981399536132812e+01 -2.641536712646484375e+01 -2.673885107040405273e+00 7.469192981719970703e+00 1.438592314720153809e+00 2.122478961944580078e+00
3.062000000000000000e+03 4.446665191650390625e+01 -2.557009506225585938e+01 2.127520274370908737e-03 1.917146205902099609e+00 5.757821202278137207e-01 2.690506875514984131e-01
3.063000000000000000e+03 7.092167663574218750e+01 2.041379213333129883e+00 4.427836239337921143e-01 2.409036874771118164e+00 8.555461764335632324e-01 1.150866389274597168e+00
3.064000000000000000e+03 7.217454528808593750e+01 1.619291067123413086e+00 5.459817498922348022e-02 3.190498590469360352e+00 9.735290408134460449e-01 7.769086956977844238e-02
3.065000000000000000e+03 7.542741394042968750e+01 2.530436277389526367e+00 -3.833042383193969727e-01 6.476243019104003906e+00 1.827881574630737305e+00 -7.800105214118957520e-01
3.066000000000000000e+03 2.661635398864746094e+01 -2.838528060913085938e+01 -2.827000916004180908e-01 1.395622134208679199e+00 3.338766396045684814e-01 -4.713720083236694336e-02
3.067000000000000000e+03 4.010036087036132812e+01 1.216723728179931641e+01 1.680025339126586914e+00 3.683508872985839844e+00 1.609060287475585938e+00 -1.134537696838378906e+00
3.068000000000000000e+03 1.134544849395751953e+01 -4.810547828674316406e+00 4.605502821505069733e-03 -8.384041488170623779e-02 -2.377047389745712280e-02 -1.154349967837333679e-01
3.069000000000000000e+03 1.045760917663574219e+01 -1.010491752624511719e+01 -1.408598106354475021e-02 -6.915839016437530518e-02 -2.497331053018569946e-02 -1.056783050298690796e-01
3.070000000000000000e+03 7.432850646972656250e+01 3.382150268554687500e+01 1.448814421892166138e-01 6.521892070770263672e+00 2.000032186508178711e+00 2.704881131649017334e-01
3.071000000000000000e+03 2.572577667236328125e+01 -1.653415870666503906e+01 8.943074941635131836e-02 6.261390447616577148e-01 2.146709412336349487e-01 4.228729009628295898e-02
3.072000000000000000e+03 2.581060028076171875e+01 7.571001529693603516e+00 2.997681200504302979e-01 1.501408219337463379e-01 1.349726766347885132e-01 -1.281864047050476074e-01
3.073000000000000000e+03 2.703824234008789062e+01 4.623696804046630859e+00 -2.156153880059719086e-02 2.674283683300018311e-01 7.376004755496978760e-02 3.700824454426765442e-02
3.074000000000000000e+03 7.565808868408203125e+01 1.579475402832031250e+01 2.087143212556838989e-01 7.945228099822998047e+00 2.446182727813720703e+00 1.160176753997802734e+00
3.075000000000000000e+03 7.444213104248046875e+01 1.601928710937500000e+01 1.864575147628784180e-01 8.447815895080566406e+00 2.590282201766967773e+00 9.614941477775573730e-01
3.076000000000000000e+03 2.498891448974609375e+01 -2.537584304809570312e+01 1.404642760753631592e-01 1.059654593467712402e+00 3.600356578826904297e-01 1.114197298884391785e-01
3.077000000000000000e+03 7.480355834960937500e+01 -2.712965965270996094e+01 -7.881186604499816895e-01 7.529675960540771484e+00 2.022467136383056641e+00 7.364905476570129395e-01
3.078000000000000000e+03 7.540605163574218750e+01 -2.817651176452636719e+01 -6.624858975410461426e-01 7.341997146606445312e+00 2.003853321075439453e+00 3.646740913391113281e-01
3.079000000000000000e+03 2.030352783203125000e+01 -1.801608467102050781e+01 1.004982888698577881e-01 -4.924451932311058044e-03 2.867214940488338470e-02 -4.124791026115417480e-01
3.080000000000000000e+03 2.068545341491699219e+01 -1.613507843017578125e+01 -1.181039884686470032e-01 -4.864096641540527344e-03 -3.689042478799819946e-02 -4.154161512851715088e-01
3.081000000000000000e+03 3.651937103271484375e+01 1.714840316772460938e+01 4.278207719326019287e-01 2.006023883819580078e+00 7.301533818244934082e-01 -1.850324511528015137e+00
3.082000000000000000e+03 7.594564056396484375e+01 2.362454223632812500e+01 -2.410558462142944336e-01 7.080598831176757812e+00 2.051862955093383789e+00 -3.680378198623657227e-01
3.083000000000000000e+03 7.559455871582031250e+01 2.621458816528320312e+01 1.569228917360305786e-01 6.707511425018310547e+00 2.059330224990844727e+00 -4.336485564708709717e-01
3.084000000000000000e+03 7.402095794677734375e+01 2.422308540344238281e+01 -3.075518608093261719e-01 6.291615009307861328e+00 1.795218944549560547e+00 -7.004149556159973145e-01
3.085000000000000000e+03 7.585258483886718750e+01 2.493168258666992188e+01 -1.489998400211334229e-01 6.894663810729980469e+00 2.023699045181274414e+00 -4.473313689231872559e-01
3.086000000000000000e+03 7.295240783691406250e+01 2.031667900085449219e+01 -1.504000067710876465e+00 6.817889690399169922e+00 1.594166994094848633e+00 -4.584042429924011230e-01
3.087000000000000000e+03 7.834386444091796875e+01 -2.500838279724121094e+01 -4.106564074754714966e-02 7.365415096282958984e+00 2.197304964065551758e+00 -6.178191304206848145e-01
3.088000000000000000e+03 7.383817291259765625e+01 1.065076065063476562e+01 1.933960914611816406e+00 8.946763038635253906e+00 3.264217376708984375e+00 2.824789285659790039e-01
3.089000000000000000e+03 7.464382934570312500e+01 1.145494461059570312e+01 1.571271777153015137e+00 8.854331970214843750e+00 3.127681016921997070e+00 1.602973788976669312e-01
3.090000000000000000e+03 7.558925628662109375e+01 5.406011581420898438e+00 -1.438925266265869141e-01 7.016930103302001953e+00 2.061911344528198242e+00 -8.642574548721313477e-01
3.091000000000000000e+03 7.503588867187500000e+01 1.796431732177734375e+01 -8.845179080963134766e-01 7.926431179046630859e+00 2.112573862075805664e+00 8.295629620552062988e-01
3.092000000000000000e+03 7.422531890869140625e+01 6.595067977905273438e+00 2.637133374810218811e-02 7.275254726409912109e+00 2.190487861633300781e+00 -5.744303464889526367e-01
3.093000000000000000e+03 7.352318572998046875e+01 1.118790745735168457e+00 -3.786098062992095947e-01 4.475642204284667969e+00 1.229109644889831543e+00 -7.804470062255859375e-01
3.094000000000000000e+03 7.389225769042968750e+01 1.374424457550048828e+01 1.440042376518249512e+00 9.118112564086914062e+00 3.167446613311767578e+00 5.038936734199523926e-01
3.095000000000000000e+03 6.703813171386718750e+01 2.658541202545166016e+00 4.041408896446228027e-01 2.465172529220581055e+00 8.607940077781677246e-01 1.846872687339782715e+00
3.096000000000000000e+03 7.322087860107421875e+01 3.017033767700195312e+01 5.522859096527099609e-01 5.959794521331787109e+00 1.953624129295349121e+00 7.867509126663208008e-02
3.097000000000000000e+03 7.584416198730468750e+01 2.022337913513183594e+01 -8.351143598556518555e-01 7.624490737915039062e+00 2.036813020706176758e+00 3.104563355445861816e-01
3.098000000000000000e+03 7.526660919189453125e+01 2.185786437988281250e+01 -7.465386986732482910e-01 7.193158626556396484e+00 1.933986067771911621e+00 -1.746373325586318970e-01
3.099000000000000000e+03 7.326222229003906250e+01 -3.064345550537109375e+01 6.906719803810119629e-01 5.446960449218750000e+00 1.841289758682250977e+00 6.538960933685302734e-01
3.100000000000000000e+03 3.820206069946289062e+01 1.580757427215576172e+01 1.053478121757507324e+00 2.155710458755493164e+00 9.627565145492553711e-01 -1.782143235206604004e+00
3.101000000000000000e+03 6.176498889923095703e+00 -2.885289192199707031e+01 -4.274163511581718922e-04 -1.107729822397232056e-01 -3.336011990904808044e-02 -4.385712742805480957e-02
3.102000000000000000e+03 3.750799894332885742e+00 -1.098737907409667969e+01 1.344268582761287689e-02 -1.439531296491622925e-01 -3.915313631296157837e-02 -3.063585795462131500e-02
3.103000000000000000e+03 7.265380859375000000e+01 7.309871196746826172e+00 2.677461802959442139e-01 7.397554874420166016e+00 2.299590349197387695e+00 4.613324105739593506e-01
3.104000000000000000e+03 3.439552068710327148e+00 -2.323442077636718750e+01 9.012707322835922241e-02 -2.639124393463134766e-01 -5.213561281561851501e-02 -3.818096593022346497e-02
3.105000000000000000e+03 6.975521850585937500e+01 2.529170751571655273e+00 4.259698390960693359e-01 2.368259429931640625e+00 8.382688164710998535e-01 2.036880254745483398e+00
3.106000000000000000e+03 4.113698005676269531e+00 1.945004272460937500e+01 1.070095449686050415e-01 -5.957341194152832031e-01 -1.466173678636550903e-01 7.557220011949539185e-02
3.107000000000000000e+03 3.961855411529541016e+00 1.318145561218261719e+01 9.858470410108566284e-03 -3.565928041934967041e-01 -1.040202975273132324e-01 3.752034902572631836e-01
3.108000000000000000e+03 3.931828975677490234e+00 1.191774559020996094e+01 -3.978541120886802673e-02 -2.767336964607238770e-01 -9.495572745800018311e-02 3.771799802780151367e-01
3.109000000000000000e+03 6.641397953033447266e+00 1.874513626098632812e+01 2.650396227836608887e-01 -3.175145983695983887e-01 -1.574249193072319031e-02 1.283141821622848511e-01
3.110000000000000000e+03 5.101381301879882812e+00 2.073519325256347656e+01 9.611146152019500732e-02 -4.994606971740722656e-01 -1.210047751665115356e-01 4.867533221840858459e-02
3.111000000000000000e+03 2.536769676208496094e+01 1.076607227325439453e+01 2.656414508819580078e-01 2.592884898185729980e-01 1.574789732694625854e-01 -2.841943316161632538e-02
3.112000000000000000e+03 4.928280830383300781e+00 -3.368024826049804688e+01 1.344950310885906219e-02 -2.525645494461059570e-01 -7.173451036214828491e-02 -6.431562360376119614e-03
3.113000000000000000e+03 6.042152404785156250e+00 1.399258708953857422e+01 1.340543776750564575e-01 -3.096150755882263184e-01 -5.266821384429931641e-02 4.749825596809387207e-01
3.114000000000000000e+03 4.627270221710205078e+00 -3.525199890136718750e+01 1.345014944672584534e-02 -2.918185591697692871e-01 -8.351052552461624146e-02 -3.302495926618576050e-03
3.115000000000000000e+03 6.062300205230712891e+00 1.043890666961669922e+01 -2.321814596652984619e-01 -1.604473739862442017e-01 -1.177886500954627991e-01 4.192332029342651367e-01
3.116000000000000000e+03 4.691314697265625000e+00 -8.656576156616210938e+00 3.237288212403655052e-03 -1.224439665675163269e-01 -3.576200455427169800e-02 -5.542814359068870544e-02
3.117000000000000000e+03 4.917736053466796875e+00 6.586702823638916016e+00 -2.109652161598205566e-01 -5.057692155241966248e-02 -7.846263796091079712e-02 1.021386310458183289e-01
3.118000000000000000e+03 5.355269432067871094e+00 7.431963920593261719e+00 -2.689245045185089111e-01 -7.998473197221755981e-02 -1.046727672219276428e-01 1.682920604944229126e-01
3.119000000000000000e+03 5.287230300903320312e+01 2.314267539978027344e+01 -1.094184637069702148e+00 5.220123767852783203e+00 1.237781763076782227e+00 -1.649253368377685547e+00
3.120000000000000000e+03 6.246354579925537109e+00 -5.847529411315917969e+00 1.545121986418962479e-02 -1.156568974256515503e-01 -3.006170317530632019e-02 -8.089960366487503052e-02
3.121000000000000000e+03 4.658093929290771484e+00 -6.391357421875000000e+00 -6.468803156167268753e-03 -9.241057932376861572e-02 -2.966381609439849854e-02 -6.522004306316375732e-02
3.122000000000000000e+03 5.707135772705078125e+01 5.931223392486572266e+00 2.220414280891418457e-01 7.009200572967529297e+00 2.169372558593750000e+00 -1.916869878768920898e-01
3.123000000000000000e+03 4.191062927246093750e+01 -1.784504127502441406e+01 4.260955750942230225e-01 1.406299233436584473e+00 5.497184395790100098e-01 1.869904547929763794e-01
3.124000000000000000e+03 4.940100860595703125e+01 2.089661216735839844e+01 -1.111551523208618164e+00 2.329857349395751953e+00 3.654917180538177490e-01 -6.237764954566955566e-01
3.125000000000000000e+03 2.383845710754394531e+01 1.096206760406494141e+01 2.569264471530914307e-01 2.300767451524734497e-01 1.461009532213211060e-01 6.921422481536865234e-02
3.126000000000000000e+03 2.261436462402343750e+01 8.928091049194335938e+00 4.052239656448364258e-01 4.297050833702087402e-02 1.344583481550216675e-01 1.265530288219451904e-01
3.127000000000000000e+03 6.802184104919433594e+00 -1.172051143646240234e+01 -3.496336936950683594e-02 -1.688628792762756348e-01 -6.114787608385086060e-02 -9.211006760597229004e-02
3.128000000000000000e+03 6.332304382324218750e+01 -1.220868587493896484e+01 -9.609830379486083984e-01 6.726017951965332031e+00 1.729510426521301270e+00 7.961422801017761230e-01
3.129000000000000000e+03 2.983876991271972656e+01 3.089071464538574219e+01 6.352994441986083984e-01 1.845055103302001953e+00 7.441063523292541504e-01 -8.487837314605712891e-01
3.130000000000000000e+03 5.050516128540039062e+01 2.354231357574462891e+00 1.246179938316345215e+00 3.219280004501342773e+00 1.339637994766235352e+00 1.619175195693969727e+00
3.131000000000000000e+03 4.909762191772460938e+01 3.484786510467529297e+00 -4.002808332443237305e-01 3.088598489761352539e+00 8.064953088760375977e-01 3.725507557392120361e-01
3.132000000000000000e+03 6.043865585327148438e+01 -2.348945617675781250e+01 2.217817783355712891e+00 3.241423368453979492e+00 1.637772440910339355e+00 -6.416006684303283691e-01
3.133000000000000000e+03 3.442518997192382812e+01 -1.032941246032714844e+01 3.337385356426239014e-01 1.145965456962585449e+00 4.439111948013305664e-01 1.593475103378295898e+00
3.134000000000000000e+03 5.382578659057617188e+01 2.235042381286621094e+01 -1.765625119209289551e+00 5.077430248260498047e+00 9.935415983200073242e-01 -2.326894283294677734e+00
3.135000000000000000e+03 5.358560943603515625e+01 2.338958740234375000e+01 -1.165894389152526855e+00 5.461586475372314453e+00 1.288707613945007324e+00 -1.749710202217102051e+00
3.136000000000000000e+03 5.248967742919921875e+01 2.493314170837402344e+01 4.437064230442047119e-01 5.642462253570556641e+00 1.825850605964660645e+00 -8.158382177352905273e-01
3.137000000000000000e+03 5.756467437744140625e+01 2.083336448669433594e+01 -7.733896970748901367e-01 2.867336273193359375e+00 6.281840205192565918e-01 -1.242081165313720703e+00
3.138000000000000000e+03 6.084715652465820312e+01 -1.826134681701660156e+01 1.249283313751220703e+00 6.286167621612548828e+00 2.260635375976562500e+00 -8.485653996467590332e-01
3.139000000000000000e+03 6.223777008056640625e+01 -2.017609596252441406e+01 2.449643373489379883e+00 6.048915386199951172e+00 2.549567699432373047e+00 -2.000571489334106445e+00
3.140000000000000000e+03 5.918376159667968750e+01 -2.305717849731445312e+01 2.201707839965820312e+00 4.143561840057373047e+00 1.903581023216247559e+00 3.946482539176940918e-01
3.141000000000000000e+03 1.168954944610595703e+01 -2.601251792907714844e+01 9.658586978912353516e-02 -2.197996340692043304e-02 2.238177135586738586e-02 -1.195993125438690186e-01
3.142000000000000000e+03 4.758011245727539062e+01 2.176889801025390625e+01 -5.771973133087158203e-01 3.417578458786010742e+00 8.521143794059753418e-01 1.246010661125183105e+00
3.143000000000000000e+03 5.698591613769531250e+01 -1.430368328094482422e+01 -2.841448783874511719e-01 5.404310226440429688e+00 1.536049604415893555e+00 -1.301201105117797852e+00
3.144000000000000000e+03 5.427568817138671875e+01 -1.335911369323730469e+01 -3.220230042934417725e-01 4.581984043121337891e+00 1.277988195419311523e+00 -3.403582096099853516e+00
3.145000000000000000e+03 2.077930259704589844e+01 -2.357834434509277344e+01 3.751405477523803711e-01 6.034202128648757935e-02 1.306447684764862061e-01 8.450590074062347412e-02
3.146000000000000000e+03 4.868371963500976562e+01 2.709063720703125000e+01 1.896513104438781738e+00 5.109057426452636719e+00 2.101671218872070312e+00 5.330229997634887695e-01
3.147000000000000000e+03 6.532796478271484375e+01 3.809570789337158203e+00 -2.408792823553085327e-01 2.455417394638061523e+00 6.643614172935485840e-01 6.250031590461730957e-01
3.148000000000000000e+03 5.249723815917968750e+01 -1.361299610137939453e+01 -3.420457541942596436e-01 3.025099515914916992e+00 8.049161434173583984e-01 -3.041779041290283203e+00
3.149000000000000000e+03 5.762280273437500000e+01 1.633939552307128906e+01 1.765784144401550293e+00 6.824402809143066406e+00 2.577055931091308594e+00 7.259667515754699707e-01
3.150000000000000000e+03 4.232071304321289062e+01 -1.691657447814941406e+01 1.249476745724678040e-01 1.232914805412292480e+00 4.073587357997894287e-01 5.125498175621032715e-01
3.151000000000000000e+03 5.086345291137695312e+01 2.604978942871093750e+01 1.584068536758422852e+00 5.095464229583740234e+00 2.003859758377075195e+00 -1.020296141505241394e-01
3.152000000000000000e+03 5.319869613647460938e+01 -3.227349472045898438e+01 2.524471998214721680e+00 6.095718383789062500e+00 2.586057186126708984e+00 7.640559077262878418e-01
3.153000000000000000e+03 5.984552001953125000e+01 3.795664310455322266e+00 -6.165603399276733398e-01 5.082907676696777344e+00 1.339904189109802246e+00 -1.961887717247009277e+00
3.154000000000000000e+03 6.004071807861328125e+01 6.175821781158447266e+00 -3.932112455368041992e-01 5.391858100891113281e+00 1.499594092369079590e+00 -1.367204427719116211e+00
3.155000000000000000e+03 6.550642967224121094e+00 1.994186782836914062e+01 1.761015355587005615e-01 -3.342985808849334717e-01 -4.745911806821823120e-02 7.975023984909057617e-02
3.156000000000000000e+03 6.177350997924804688e+01 -1.503416824340820312e+01 -1.068326234817504883e+00 6.553213596343994141e+00 1.645466089248657227e+00 3.997408449649810791e-01
3.157000000000000000e+03 6.962340545654296875e+01 5.220242500305175781e+00 2.148116677999496460e-01 3.300508260726928711e+00 1.054595947265625000e+00 2.209438323974609375e+00
3.158000000000000000e+03 7.211829376220703125e+01 5.777842998504638672e+00 -1.902491599321365356e-01 6.003803730010986328e+00 1.744066476821899414e+00 8.805692195892333984e-01
3.159000000000000000e+03 3.740485000610351562e+01 1.856235122680664062e+01 1.950380578637123108e-02 2.193432092666625977e+00 6.638808250427246094e-01 -2.070550203323364258e+00
3.160000000000000000e+03 3.665764999389648438e+01 -3.545554733276367188e+01 2.375903576612472534e-01 2.769023895263671875e+00 9.019842743873596191e-01 1.058808803558349609e+00
3.161000000000000000e+03 6.125249385833740234e+00 -1.067268943786621094e+01 -1.572732254862785339e-02 -1.863128542900085449e-01 -6.061205640435218811e-02 -6.343669444322586060e-02
3.162000000000000000e+03 5.585870361328125000e+01 1.903470993041992188e+01 -1.705510467290878296e-01 4.484078407287597656e+00 1.294058203697204590e+00 -1.786155939102172852e+00
3.163000000000000000e+03 5.180028533935546875e+01 -1.285448074340820312e+01 6.650739908218383789e-01 3.506790161132812500e+00 1.251559257507324219e+00 -2.350923299789428711e+00
3.164000000000000000e+03 2.800128173828125000e+01 -3.238109970092773438e+01 1.864075511693954468e-01 1.258240818977355957e+00 4.333945214748382568e-01 -1.197092682123184204e-01
3.165000000000000000e+03 2.860864067077636719e+01 -3.017031860351562500e+01 -2.031167224049568176e-02 1.247709631919860840e+00 3.682194054126739502e-01 -2.182496488094329834e-01
3.166000000000000000e+03 4.992550659179687500e+01 3.496931457519531250e+01 -5.946506261825561523e-01 4.790790557861328125e+00 1.258841991424560547e+00 -3.296743333339691162e-01
3.167000000000000000e+03 2.879040336608886719e+01 -3.505069351196289062e+01 3.435992598533630371e-01 1.223175048828125000e+00 4.700322747230529785e-01 7.712217420339584351e-02
3.168000000000000000e+03 1.013900852203369141e+01 1.916414070129394531e+01 4.199495613574981689e-01 1.553111821413040161e-01 1.725782305002212524e-01 2.044381350278854370e-01
3.169000000000000000e+03 1.053642177581787109e+01 2.010143470764160156e+01 3.144918084144592285e-01 1.466029137372970581e-01 1.383284181356430054e-01 1.958429962396621704e-01
3.170000000000000000e+03 4.718349838256835938e+01 3.381315231323242188e+01 -2.080715149641036987e-01 4.271520137786865234e+00 1.219034552574157715e+00 -7.679685354232788086e-01
3.171000000000000000e+03 4.852926635742187500e+01 3.569213104248046875e+01 -8.377119898796081543e-01 4.340573310852050781e+00 1.050858378410339355e+00 -5.749633908271789551e-01
3.172000000000000000e+03 5.428617095947265625e+01 3.872572326660156250e+01 -1.159663677215576172e+00 3.462017059326171875e+00 6.907060146331787109e-01 6.816104650497436523e-01
3.173000000000000000e+03 5.172958374023437500e+01 2.549499511718750000e+01 1.013296127319335938e+00 5.474428176879882812e+00 1.946317315101623535e+00 -4.193708300590515137e-01
3.174000000000000000e+03 5.087146377563476562e+01 2.237569999694824219e+01 -6.625291705131530762e-01 3.887286424636840820e+00 9.674271345138549805e-01 -1.181244492530822754e+00
3.175000000000000000e+03 2.214877700805664062e+01 3.486050415039062500e+01 9.593670815229415894e-02 7.382051348686218262e-01 2.502425611019134521e-01 -2.347019463777542114e-01
3.176000000000000000e+03 7.408853149414062500e+01 3.664399337768554688e+01 -8.611901104450225830e-02 6.607935428619384766e+00 1.956544995307922363e+00 3.075120151042938232e-01
3.177000000000000000e+03 5.891173171997070312e+01 1.899143409729003906e+01 1.053625583648681641e+00 5.696992397308349609e+00 2.025185346603393555e+00 5.636764168739318848e-01
3.178000000000000000e+03 2.510874366760253906e+01 -1.852335929870605469e+01 4.436073601245880127e-01 5.974116921424865723e-01 3.123057186603546143e-01 -1.271205302327871323e-02
3.179000000000000000e+03 2.604387092590332031e+01 -1.800252151489257812e+01 3.702777326107025146e-01 9.239636063575744629e-01 3.882724046707153320e-01 7.668045163154602051e-02
3.180000000000000000e+03 2.433078956604003906e+01 -2.434370040893554688e+01 3.116497993469238281e-01 8.430489301681518555e-01 3.464096188545227051e-01 1.260184198617935181e-01
3.181000000000000000e+03 2.712841606140136719e+01 -2.557142257690429688e+01 -3.316448256373405457e-02 1.631733655929565430e+00 4.795707762241363525e-01 8.143846690654754639e-02
3.182000000000000000e+03 6.799648284912109375e+01 3.271109390258789062e+01 3.159688115119934082e-01 5.413121223449707031e+00 1.718726992607116699e+00 8.632255196571350098e-01
3.183000000000000000e+03 6.785106658935546875e+01 3.529580688476562500e+01 -3.951579332351684570e-01 5.425997734069824219e+00 1.509251832962036133e+00 5.255003571510314941e-01
3.184000000000000000e+03 8.879235267639160156e+00 -3.247836685180664062e+01 2.177459001541137695e-02 5.954951513558626175e-03 8.318861946463584900e-03 -2.358583733439445496e-02
3.185000000000000000e+03 9.546242713928222656e+00 -2.927257728576660156e+01 3.722580522298812866e-02 3.858099505305290222e-02 2.274204045534133911e-02 -7.017468661069869995e-02
3.186000000000000000e+03 4.836685180664062500e+01 2.558641624450683594e+01 1.575015425682067871e+00 4.704165458679199219e+00 1.883754253387451172e+00 3.694287538528442383e-01
3.187000000000000000e+03 4.793337249755859375e+01 2.415988731384277344e+01 9.633911848068237305e-01 4.723399639129638672e+00 1.706037163734436035e+00 8.122915029525756836e-01
3.188000000000000000e+03 3.256474685668945312e+01 -1.241932487487792969e+01 -5.803881287574768066e-01 7.561975717544555664e-01 5.274282768368721008e-02 1.493433475494384766e+00
3.189000000000000000e+03 3.618606185913085938e+01 1.827712249755859375e+01 8.993652462959289551e-02 2.268257141113281250e+00 7.074580788612365723e-01 -1.827858924865722656e+00
3.190000000000000000e+03 6.478099822998046875e+01 2.240084457397460938e+01 -1.121132254600524902e+00 4.057837486267089844e+00 8.810115456581115723e-01 2.650172710418701172e+00
3.191000000000000000e+03 6.611977386474609375e+01 2.351642799377441406e+01 4.068991243839263916e-01 2.967434644699096680e+00 1.012300133705139160e+00 1.078767180442810059e+00
3.192000000000000000e+03 4.559914398193359375e+01 2.105525493621826172e+00 1.904726400971412659e-02 9.033917427062988281e+00 2.715889453887939453e+00 -1.745093345642089844e+00
3.193000000000000000e+03 4.562538146972656250e+01 1.675048828125000000e+00 9.067093729972839355e-01 9.463810920715332031e+00 3.111155986785888672e+00 -1.334025502204895020e+00
3.194000000000000000e+03 4.838072204589843750e+01 3.756417036056518555e+00 -3.137732148170471191e-01 3.459350347518920898e+00 9.436731338500976562e-01 -4.056942462921142578e-01
3.195000000000000000e+03 4.699449157714843750e+01 4.338695108890533447e-01 4.982970237731933594e+00 6.759555339813232422e+00 3.522757768630981445e+00 -4.531517028808593750e-01
3.196000000000000000e+03 4.643365859985351562e+01 7.786345481872558594e-01 4.111670494079589844e+00 8.097958564758300781e+00 3.662889003753662109e+00 -5.407619476318359375e-02
3.197000000000000000e+03 4.800301361083984375e+01 -1.283173561096191406e+00 4.569058418273925781e+00 6.128106117248535156e+00 3.209149360656738281e+00 -2.728636741638183594e+00
3.198000000000000000e+03 4.665638351440429688e+01 -2.485201597213745117e+00 2.755062818527221680e+00 7.740713596343994141e+00 3.148732900619506836e+00 -4.661108016967773438e+00
3.199000000000000000e+03 4.444778442382812500e+01 5.435266494750976562e+00 -2.150109529495239258e+00 7.021195888519287109e+00 1.461325883865356445e+00 -2.286249876022338867e+00
3.200000000000000000e+03 4.629660415649414062e+01 -2.672158956527709961e+00 2.288225173950195312e+00 7.769311428070068359e+00 3.017261028289794922e+00 -4.754410743713378906e+00
3.201000000000000000e+03 4.694459915161132812e+01 -3.298923969268798828e+00 9.861324429512023926e-01 8.008855819702148438e+00 2.698496580123901367e+00 -4.213493347167968750e+00
3.202000000000000000e+03 4.508275222778320312e+01 2.355417013168334961e+00 -5.624241232872009277e-01 8.855113983154296875e+00 2.487806797027587891e+00 -2.526130676269531250e+00
3.203000000000000000e+03 4.310684204101562500e+01 2.982574462890625000e+00 -8.132746815681457520e-01 5.659587860107421875e+00 1.453893899917602539e+00 -3.449778079986572266e+00
3.204000000000000000e+03 8.969327926635742188e+00 -4.472815990447998047e+00 8.620128966867923737e-03 -5.104022100567817688e-02 -1.272602751851081848e-02 -9.620901942253112793e-02
3.205000000000000000e+03 6.947165012359619141e+00 -6.253407955169677734e+00 7.958434522151947021e-03 -9.214294701814651489e-02 -2.525535412132740021e-02 -1.005875319242477417e-01
3.206000000000000000e+03 7.404994964599609375e+00 -5.435314655303955078e+00 1.482020597904920578e-02 -1.021119803190231323e-01 -2.618753351271152496e-02 -1.081564426422119141e-01
3.207000000000000000e+03 5.743761539459228516e+00 -7.236788272857666016e+00 9.019595570862293243e-03 -1.331798285245895386e-01 -3.724806755781173706e-02 -8.497935533523559570e-02
3.208000000000000000e+03 5.588071346282958984e+00 -5.548348426818847656e+00 -2.789964899420738220e-02 -6.601615250110626221e-02 -2.817474119365215302e-02 -8.546039462089538574e-02
3.209000000000000000e+03 4.718163967132568359e+00 -7.480543136596679688e+00 2.671664394438266754e-02 -9.850078076124191284e-02 -2.153524011373519897e-02 -4.714468494057655334e-02
3.210000000000000000e+03 1.001754474639892578e+01 -7.197012424468994141e+00 1.413399167358875275e-02 -1.162688955664634705e-01 -3.064047172665596008e-02 -1.382990479469299316e-01
3.211000000000000000e+03 2.501376724243164062e+01 6.568411827087402344e+00 1.714191287755966187e-01 1.588721526786684990e-03 5.190235376358032227e-02 -6.453574448823928833e-02
3.212000000000000000e+03 2.377271652221679688e+01 5.869695186614990234e+00 3.977637737989425659e-03 -9.373357892036437988e-02 -2.692678198218345642e-02 1.645431108772754669e-02
3.213000000000000000e+03 2.442006111145019531e+01 6.813094615936279297e+00 1.889499425888061523e-01 -3.931808471679687500e-02 4.488955810666084290e-02 -1.883608847856521606e-02
3.214000000000000000e+03 6.268011569976806641e+00 5.130974769592285156e+00 -2.076190263032913208e-01 -6.465110927820205688e-02 -8.168104290962219238e-02 3.738905489444732666e-02
3.215000000000000000e+03 6.658357620239257812e+00 5.831886291503906250e+00 -2.959197461605072021e-01 -8.469175547361373901e-02 -1.141834557056427002e-01 8.372084051370620728e-02
3.216000000000000000e+03 5.840882301330566406e+00 6.218534946441650391e+00 -2.683090567588806152e-01 -7.289241999387741089e-02 -1.023604422807693481e-01 9.751139581203460693e-02
3.217000000000000000e+03 8.149465560913085938e+00 6.241072654724121094e+00 -4.210394620895385742e-01 -1.621140688657760620e-01 -1.749460548162460327e-01 1.493836939334869385e-01
3.218000000000000000e+03 1.205614662170410156e+01 -5.185636043548583984e+00 2.025563269853591919e-02 1.853992464020848274e-03 6.632887758314609528e-03 -1.400031298398971558e-01
3.219000000000000000e+03 1.374537181854248047e+01 -5.844023227691650391e+00 7.360907644033432007e-02 9.398191422224044800e-02 5.027729645371437073e-02 -8.415140956640243530e-02
3.220000000000000000e+03 4.694424819946289062e+01 4.527266979217529297e+00 -2.147175788879394531e+00 5.810686588287353516e+00 1.099053263664245605e+00 -1.892520308494567871e+00
3.221000000000000000e+03 4.865244674682617188e+01 2.741558551788330078e+00 9.084274768829345703e-01 4.114186763763427734e+00 1.506784200668334961e+00 -1.337136924266815186e-01
3.222000000000000000e+03 1.149247074127197266e+01 -6.011545658111572266e+00 2.375216037034988403e-02 -8.232038468122482300e-02 -1.757046766579151154e-02 -1.158904731273651123e-01
3.223000000000000000e+03 4.272869491577148438e+01 3.812828779220581055e+00 -1.014668226242065430e+00 5.258250236511230469e+00 1.273074507713317871e+00 -3.082819223403930664e+00
3.224000000000000000e+03 4.416300582885742188e+01 3.275279045104980469e+00 -1.235909819602966309e+00 7.180591106414794922e+00 1.783404350280761719e+00 -3.291879415512084961e+00
3.225000000000000000e+03 4.622198486328125000e+01 4.983783245086669922e+00 -2.270218610763549805e+00 6.305318355560302734e+00 1.210529923439025879e+00 -2.317190408706665039e+00
3.226000000000000000e+03 4.546550750732421875e+01 5.821571826934814453e+00 -2.465639829635620117e+00 6.736523628234863281e+00 1.281265139579772949e+00 -1.847897529602050781e+00
3.227000000000000000e+03 1.283553886413574219e+01 -7.794309616088867188e+00 7.240644842386245728e-02 8.317819982767105103e-02 4.667539522051811218e-02 -1.007240787148475647e-01
3.228000000000000000e+03 3.250727844238281250e+01 -8.136490821838378906e+00 9.956973791122436523e-01 1.797691136598587036e-01 3.526399433612823486e-01 1.326200008392333984e+00
3.229000000000000000e+03 6.150921249389648438e+01 2.952622890472412109e+00 -7.004390954971313477e-01 4.965743541717529297e+00 1.279591441154479980e+00 -1.827114343643188477e+00
3.230000000000000000e+03 6.110726165771484375e+01 5.416093349456787109e+00 -6.928876042366027832e-01 4.786871433258056641e+00 1.228195190429687500e+00 -1.858818292617797852e+00
3.231000000000000000e+03 1.225403213500976562e+01 -8.742204666137695312e+00 -1.268868427723646164e-02 2.245922572910785675e-02 2.931162482127547264e-03 -9.131347388029098511e-02
3.232000000000000000e+03 6.363674545288085938e+01 3.650957107543945312e+00 -2.431791275739669800e-01 3.268973827362060547e+00 9.077383875846862793e-01 -8.202512860298156738e-01
3.233000000000000000e+03 6.250765609741210938e+01 7.276588678359985352e-01 -1.582234352827072144e-01 5.774229526519775391e+00 1.684801816940307617e+00 -8.387135863304138184e-01
3.234000000000000000e+03 4.288443374633789062e+01 6.698132514953613281e+00 -8.887637257575988770e-01 5.883849620819091797e+00 1.498525857925415039e+00 -1.595652580261230469e+00
3.235000000000000000e+03 4.273217773437500000e+01 5.674156665802001953e+00 -1.100361585617065430e+00 5.725087642669677734e+00 1.387417793273925781e+00 -2.249181032180786133e+00
3.236000000000000000e+03 3.310698318481445312e+01 -1.055818748474121094e+01 1.982231885194778442e-01 6.869790554046630859e-01 2.655606865882873535e-01 1.538738369941711426e+00
3.237000000000000000e+03 4.598384857177734375e+01 5.432586193084716797e+00 -2.534461259841918945e+00 6.821012973785400391e+00 1.285965561866760254e+00 -2.323788642883300781e+00
3.238000000000000000e+03 7.562925720214843750e+01 -2.634437561035156250e+01 -9.471949338912963867e-01 8.293494224548339844e+00 2.203889608383178711e+00 -4.522927105426788330e-03
3.239000000000000000e+03 4.711563491821289062e+01 -2.845370769500732422e+00 2.133419275283813477e+00 7.652911186218261719e+00 2.935899019241333008e+00 -4.393799781799316406e+00
3.240000000000000000e+03 4.820276641845703125e+01 -3.708354949951171875e+00 1.018940567970275879e+00 8.313179969787597656e+00 2.799636125564575195e+00 -2.997088909149169922e+00
3.241000000000000000e+03 4.921705245971679688e+01 2.333066701889038086e+00 1.314775824546813965e+00 3.891111850738525391e+00 1.561766266822814941e+00 5.566475391387939453e-01
3.242000000000000000e+03 4.282287216186523438e+01 4.839446067810058594e+00 -1.213748097419738770e+00 5.512750148773193359e+00 1.289700627326965332e+00 -2.602356910705566406e+00
3.243000000000000000e+03 4.354050064086914062e+01 4.856991291046142578e+00 -1.647647976875305176e+00 6.460206985473632812e+00 1.443767666816711426e+00 -2.680781602859497070e+00
3.244000000000000000e+03 2.590225982666015625e+01 6.899832725524902344e+00 2.462906390428543091e-01 1.028127893805503845e-01 1.047310307621955872e-01 -1.141672283411026001e-01
3.245000000000000000e+03 2.534230232238769531e+01 8.301454544067382812e+00 3.158698379993438721e-01 1.135547533631324768e-01 1.288273781538009644e-01 -8.657167106866836548e-02
3.246000000000000000e+03 2.190111160278320312e+01 -2.005964469909667969e+01 4.170925617218017578e-01 1.031068935990333557e-01 1.560598313808441162e-01 -1.791602671146392822e-01
3.247000000000000000e+03 4.664953613281250000e+01 3.192045688629150391e-01 5.540300369262695312e+00 7.326954841613769531e+00 3.860176563262939453e+00 -3.630769252777099609e-01
3.248000000000000000e+03 7.456448364257812500e+01 -3.169983482360839844e+01 3.298377692699432373e-01 6.127439975738525391e+00 1.937183380126953125e+00 2.308422625064849854e-01
3.249000000000000000e+03 7.139941406250000000e+01 -3.093074607849121094e+01 1.706853747367858887e+00 4.132735252380371094e+00 1.751876711845397949e+00 -7.156300544738769531e-02
3.250000000000000000e+03 1.328572654724121094e+01 -6.806287288665771484e+00 2.629713527858257294e-02 4.243052750825881958e-02 2.061829902231693268e-02 -5.948470532894134521e-02
3.251000000000000000e+03 7.266081237792968750e+01 2.226926231384277344e+01 -9.987292289733886719e-01 6.044914722442626953e+00 1.513855695724487305e+00 -9.352831244468688965e-01
3.252000000000000000e+03 5.733979797363281250e+01 2.201117134094238281e+01 -1.947917819023132324e+00 1.790486335754394531e+00 -4.722942411899566650e-02 -2.265924215316772461e+00
3.253000000000000000e+03 3.938689041137695312e+01 1.604279327392578125e+01 1.122736096382141113e+00 2.594202518463134766e+00 1.115081667900085449e+00 -1.725737571716308594e+00
3.254000000000000000e+03 3.864524841308593750e+01 1.694502067565917969e+01 6.677739024162292480e-01 2.250329256057739258e+00 8.754309415817260742e-01 -1.924757242202758789e+00
3.255000000000000000e+03 5.739451599121093750e+01 5.102014541625976562e+00 -2.085661143064498901e-01 6.209064960479736328e+00 1.800149679183959961e+00 -3.524723649024963379e-01
3.256000000000000000e+03 2.438310432434082031e+01 -1.949580955505371094e+01 6.112982630729675293e-01 5.000045895576477051e-01 3.333908617496490479e-01 -4.246829077601432800e-02
3.257000000000000000e+03 2.632007789611816406e+01 1.217578887939453125e+01 2.255896627902984619e-01 3.130221664905548096e-01 1.615835577249526978e-01 -5.219658091664314270e-02
3.258000000000000000e+03 5.697503280639648438e+01 7.936989784240722656e+00 1.238545775413513184e+00 8.007143020629882812e+00 2.773706674575805664e+00 6.064792871475219727e-01
3.259000000000000000e+03 2.459846496582031250e+01 1.174434089660644531e+01 2.135397791862487793e-01 2.819937765598297119e-01 1.486600637435913086e-01 3.090599318966269493e-03
3.260000000000000000e+03 4.886341857910156250e+01 -4.380054950714111328e+00 6.913981437683105469e-01 9.158929824829101562e+00 2.955098390579223633e+00 -2.147665977478027344e+00
3.261000000000000000e+03 3.449061584472656250e+01 -9.236027717590332031e+00 7.649651765823364258e-01 1.291137456893920898e+00 6.168307662010192871e-01 1.567557811737060547e+00
3.262000000000000000e+03 7.181211090087890625e+01 -3.309447479248046875e+01 1.360159516334533691e+00 5.177295207977294922e+00 1.961236476898193359e+00 -6.734666228294372559e-01
3.263000000000000000e+03 6.452285003662109375e+01 1.437891960144042969e+00 6.792499870061874390e-02 4.474257469177246094e+00 1.362654805183410645e+00 3.924301564693450928e-01
3.264000000000000000e+03 2.638491058349609375e+01 -2.395299530029296875e+01 3.796212673187255859e-01 1.533890485763549805e+00 5.740535259246826172e-01 1.673451066017150879e-01
3.265000000000000000e+03 2.518909835815429688e+01 -2.328699874877929688e+01 4.850325882434844971e-01 1.026721119880676270e+00 4.535261094570159912e-01 1.712855398654937744e-01
3.266000000000000000e+03 2.273663139343261719e+01 6.830201148986816406e+00 2.088880091905593872e-01 -6.924042105674743652e-02 4.189427942037582397e-02 3.312668576836585999e-02
3.267000000000000000e+03 7.257265472412109375e+01 3.047217845916748047e+00 9.887891821563243866e-03 4.441737174987792969e+00 1.335487484931945801e+00 1.634716242551803589e-01
3.268000000000000000e+03 4.954870605468750000e+01 -1.431280851364135742e+00 3.069748401641845703e+00 6.331354141235351562e+00 2.820330619812011719e+00 -1.567248940467834473e+00
3.269000000000000000e+03 4.723779296875000000e+01 -1.385663509368896484e+00 5.560772418975830078e+00 6.553920745849609375e+00 3.634407997131347656e+00 -3.450355768203735352e+00
3.270000000000000000e+03 6.939359283447265625e+01 -3.284249496459960938e+01 1.701881647109985352e+00 5.483345985412597656e+00 2.155568361282348633e+00 -1.672451734542846680e+00
3.271000000000000000e+03 7.365734863281250000e+01 2.146434593200683594e+01 -1.213384270668029785e+00 6.783421039581298828e+00 1.671010971069335938e+00 -4.485194981098175049e-01
3.272000000000000000e+03 7.485661315917968750e+01 2.368142509460449219e+01 -4.547285437583923340e-01 6.758323192596435547e+00 1.891078472137451172e+00 -4.928760826587677002e-01
3.273000000000000000e+03 7.481034851074218750e+01 2.475035476684570312e+01 -3.428177908062934875e-02 6.529219627380371094e+00 1.948481321334838867e+00 -5.785456895828247070e-01
3.274000000000000000e+03 7.434418487548828125e+01 2.588789558410644531e+01 6.908768415451049805e-02 6.217163562774658203e+00 1.885875463485717773e+00 -5.378806591033935547e-01
3.275000000000000000e+03 7.049996948242187500e+01 2.595180702209472656e+01 8.566451072692871094e-01 4.428043842315673828e+00 1.585406661033630371e+00 -5.171341300010681152e-01
3.276000000000000000e+03 6.954145812988281250e+01 2.808270072937011719e+01 1.323156595230102539e+00 4.672823429107666016e+00 1.798793911933898926e+00 2.224713563919067383e-01
3.277000000000000000e+03 7.435449981689453125e+01 4.136330604553222656e+00 -2.335989475250244141e-01 6.183334350585937500e+00 1.784920573234558105e+00 -4.867564141750335693e-01
3.278000000000000000e+03 5.543862152099609375e+01 2.022534370422363281e+01 -1.241864800453186035e+00 4.156772613525390625e+00 8.744723200798034668e-01 -2.539184331893920898e+00
3.279000000000000000e+03 5.168805313110351562e+01 2.165992355346679688e+01 -1.159083366394042969e+00 4.080965995788574219e+00 8.765647411346435547e-01 -1.763677358627319336e+00
3.280000000000000000e+03 5.797709274291992188e+01 -1.761748313903808594e+01 1.375103354454040527e+00 6.836124420166015625e+00 2.463368415832519531e+00 -3.655588030815124512e-01
3.281000000000000000e+03 6.792397308349609375e+01 2.452232360839843750e+01 1.140171766281127930e+00 3.073615074157714844e+00 1.264136075973510742e+00 -1.776649057865142822e-01
3.282000000000000000e+03 6.545447540283203125e+01 -1.464346981048583984e+01 -1.333101511001586914e+00 3.978322267532348633e+00 7.935662269592285156e-01 3.043352663516998291e-01
3.283000000000000000e+03 2.191039276123046875e+01 -2.297005844116210938e+01 4.603652656078338623e-01 1.948384642601013184e-01 1.965611129999160767e-01 2.904858067631721497e-02
3.284000000000000000e+03 2.016430664062500000e+01 -2.239381408691406250e+01 3.308075666427612305e-01 6.827401369810104370e-02 1.197244748473167419e-01 -9.186650626361370087e-03
3.285000000000000000e+03 6.501150131225585938e+00 -2.762894058227539062e+01 -6.246046163141727448e-03 -6.935793161392211914e-02 -2.268119342625141144e-02 -6.247993186116218567e-02
3.286000000000000000e+03 6.446247100830078125e+00 -3.207641601562500000e+01 2.563189901411533356e-02 -1.377848088741302490e-01 -3.364587202668190002e-02 -2.603415399789810181e-02
3.287000000000000000e+03 6.194203186035156250e+01 -2.264665222167968750e+01 3.157264232635498047e+00 4.740489482879638672e+00 2.369326114654541016e+00 -1.906454682350158691e+00
3.288000000000000000e+03 3.616419601440429688e+01 1.548138332366943359e+01 8.839064240455627441e-01 1.664889812469482422e+00 7.646389007568359375e-01 -1.585780978202819824e+00
3.289000000000000000e+03 2.362147712707519531e+01 1.000228977203369141e+01 3.412972092628479004e-01 1.302331089973449707e-01 1.414590924978256226e-01 6.780267506837844849e-02
3.290000000000000000e+03 6.848620891571044922e+00 1.769592285156250000e+01 3.623278141021728516e-01 -3.013826310634613037e-01 1.828355528414249420e-02 2.143699377775192261e-01
3.291000000000000000e+03 5.287719249725341797e+00 1.964474678039550781e+01 1.412829011678695679e-01 -4.721384346485137939e-01 -9.925665706396102905e-02 8.444361388683319092e-02
3.292000000000000000e+03 5.780896759033203125e+01 1.973959732055664062e+01 3.831255137920379639e-01 4.283423900604248047e+00 1.399964809417724609e+00 -5.758583545684814453e-01
3.293000000000000000e+03 7.378942108154296875e+01 1.224598026275634766e+01 1.561552524566650391e+00 9.861282348632812500e+00 3.426850318908691406e+00 3.912001848220825195e-01
3.294000000000000000e+03 7.466936111450195312e+00 1.671483039855957031e+01 4.217585027217864990e-01 -2.137792706489562988e-01 6.239376962184906006e-02 2.945939004421234131e-01
3.295000000000000000e+03 5.745802879333496094e+00 -8.966611862182617188e+00 1.996080204844474792e-02 -1.501171886920928955e-01 -3.904691711068153381e-02 -6.006507202982902527e-02
3.296000000000000000e+03 4.541367053985595703e+00 -9.724188804626464844e+00 2.689364366233348846e-02 -1.456156224012374878e-01 -3.561659157276153564e-02 -3.996689617633819580e-02
3.297000000000000000e+03 2.359189987182617188e+01 -2.045322990417480469e+01 5.571979284286499023e-01 3.965127468109130859e-01 2.861132025718688965e-01 -3.953605145215988159e-02
3.298000000000000000e+03 5.907451248168945312e+01 5.056045055389404297e+00 -2.856195271015167236e-01 5.459222316741943359e+00 1.552080750465393066e+00 -1.411917209625244141e+00
3.299000000000000000e+03 7.216087341308593750e+01 3.110446166992187500e+01 6.153576374053955078e-01 5.677287101745605469e+00 1.887793421745300293e+00 2.766943871974945068e-01
3.300000000000000000e+03 4.986945343017578125e+01 2.665386581420898438e+01 1.763802886009216309e+00 4.966610431671142578e+00 2.019124031066894531e+00 7.227994501590728760e-02
3.301000000000000000e+03 6.910728454589843750e+00 9.047525405883789062e+00 -3.895356953144073486e-01 -1.450107842683792114e-01 -1.603639423847198486e-01 3.326922059059143066e-01
3.302000000000000000e+03 4.857664108276367188e+00 9.320917129516601562e+00 -2.056537121534347534e-01 -1.192683055996894836e-01 -9.747660160064697266e-02 3.002716302871704102e-01
3.303000000000000000e+03 7.116840362548828125e+01 5.455116748809814453e+00 -1.156232655048370361e-01 4.929671287536621094e+00 1.444214344024658203e+00 1.383958339691162109e+00
3.304000000000000000e+03 7.019544982910156250e+01 3.680955648422241211e+00 3.200086355209350586e-01 3.046941518783569336e+00 1.010085105895996094e+00 1.834986448287963867e+00
3.305000000000000000e+03 4.863204002380371094e+00 8.186062812805175781e+00 -2.320417314767837524e-01 -8.958937227725982666e-02 -9.648933261632919312e-02 2.159230858087539673e-01
3.306000000000000000e+03 1.079943275451660156e+01 -5.510142803192138672e+00 2.186843194067478180e-02 -2.716981805860996246e-02 -1.590415718965232372e-03 -1.228459998965263367e-01
3.307000000000000000e+03 6.612446784973144531e+00 -7.147541046142578125e+00 1.749278418719768524e-02 -1.009819135069847107e-01 -2.504673786461353302e-02 -8.944833278656005859e-02
3.308000000000000000e+03 3.166031837463378906e+01 -1.177062034606933594e+01 -2.737179994583129883e-01 7.162559032440185547e-01 1.327613592147827148e-01 1.369061827659606934e+00
3.309000000000000000e+03 5.924451065063476562e+01 -1.825123405456542969e+01 1.617218732833862305e+00 6.062081813812255859e+00 2.303790092468261719e+00 -3.864246904850006104e-01
3.310000000000000000e+03 6.777307128906250000e+01 2.614841079711914062e+01 1.939651250839233398e+00 3.858664035797119141e+00 1.739494562149047852e+00 3.014580309391021729e-01
3.311000000000000000e+03 7.151696014404296875e+01 2.499835777282714844e+01 2.886064052581787109e-01 4.945916652679443359e+00 1.570356965065002441e+00 -8.838509917259216309e-01
3.312000000000000000e+03 1.156083488464355469e+01 -8.101445198059082031e+00 7.183808833360671997e-02 1.699700765311717987e-02 2.665052749216556549e-02 -9.728935360908508301e-02
3.313000000000000000e+03 2.288014221191406250e+01 -1.762528610229492188e+01 2.480418086051940918e-01 7.850535213947296143e-03 7.676770538091659546e-02 -2.945179343223571777e-01
3.314000000000000000e+03 5.119390106201171875e+01 2.457598686218261719e+01 5.977803468704223633e-01 4.833168983459472656e+00 1.629284858703613281e+00 -5.141177177429199219e-01
3.315000000000000000e+03 2.820425605773925781e+01 -3.133968162536621094e+01 7.066824287176132202e-02 1.191954016685485840e+00 3.787866830825805664e-01 -1.694591790437698364e-01
3.316000000000000000e+03 8.074367523193359375e+00 -1.103036880493164062e+01 -2.205512113869190216e-02 -1.923464834690093994e-01 -6.432048231363296509e-02 -9.378009289503097534e-02
3.317000000000000000e+03 5.941747665405273438e+01 -2.188624191284179688e+01 2.623249053955078125e+00 4.819287300109863281e+00 2.232760906219482422e+00 -4.508067965507507324e-01
3.318000000000000000e+03 5.989834594726562500e+01 -1.975872611999511719e+01 2.480032920837402344e+00 5.492894172668457031e+00 2.391878128051757812e+00 -6.844863295555114746e-01
3.319000000000000000e+03 2.462026214599609375e+01 -2.137903785705566406e+01 6.676752567291259766e-01 7.238229513168334961e-01 4.174494743347167969e-01 8.891893178224563599e-02
3.320000000000000000e+03 4.194892501831054688e+01 -2.393303298950195312e+01 1.398928880691528320e+00 3.234353780746459961e+00 1.389984846115112305e+00 2.531484365463256836e+00
3.321000000000000000e+03 7.170754241943359375e+01 2.312714195251464844e+01 -6.301982402801513672e-01 5.210047721862792969e+00 1.373954892158508301e+00 -1.127403736114501953e+00
3.322000000000000000e+03 2.825436210632324219e+01 -3.357996749877929688e+01 2.280364632606506348e-01 1.179497480392456055e+00 4.222601652145385742e-01 -3.604898974299430847e-02
3.323000000000000000e+03 3.199116325378417969e+01 -3.679499435424804688e+01 2.011773735284805298e-01 1.570140838623046875e+00 5.313954353332519531e-01 4.594817161560058594e-01
3.324000000000000000e+03 2.579664802551269531e+01 3.550698089599609375e+01 5.689042154699563980e-03 1.334338545799255371e+00 4.020082950592041016e-01 -3.318196833133697510e-01
3.325000000000000000e+03 3.163450431823730469e+01 3.229838562011718750e+01 2.388490140438079834e-01 2.438004970550537109e+00 8.030561804771423340e-01 -7.129353880882263184e-01
3.326000000000000000e+03 2.263679504394531250e+01 3.662080764770507812e+01 -5.695842206478118896e-03 8.821673393249511719e-01 2.629414498805999756e-01 -2.084758132696151733e-01
3.327000000000000000e+03 2.328834724426269531e+01 3.267041015625000000e+01 2.379761338233947754e-01 8.852537274360656738e-01 3.369689583778381348e-01 -1.830898821353912354e-01
3.328000000000000000e+03 2.118924522399902344e+01 -1.900658226013183594e+01 3.118596971035003662e-01 2.111203595995903015e-02 9.989151358604431152e-02 -3.216436207294464111e-01
3.329000000000000000e+03 5.874723052978515625e+01 -1.409947490692138672e+01 -2.013977766036987305e-01 5.413078784942626953e+00 1.563504338264465332e+00 5.032316595315933228e-02
3.330000000000000000e+03 5.813784027099609375e+01 6.804142475128173828e+00 3.128213584423065186e-01 6.583918094635009766e+00 2.069021701812744141e+00 -5.072140693664550781e-01
3.331000000000000000e+03 6.665786743164062500e+01 3.169352912902832031e+01 7.117571830749511719e-01 5.381259918212890625e+00 1.827905178070068359e+00 9.800835251808166504e-01
3.332000000000000000e+03 6.433959197998046875e+01 -1.332523536682128906e+01 -1.151686429977416992e+00 5.760856628417968750e+00 1.382751107215881348e+00 4.386574327945709229e-01
3.333000000000000000e+03 6.262261581420898438e+01 -1.626005744934082031e+01 -8.972769379615783691e-01 6.594244956970214844e+00 1.709090471267700195e+00 7.648616563528776169e-03
3.334000000000000000e+03 8.475618362426757812e+00 -2.934336280822753906e+01 2.522849291563034058e-02 -1.546112005598843098e-03 7.104714401066303253e-03 -7.540863007307052612e-02
3.335000000000000000e+03 6.065134048461914062e+01 -1.396581745147705078e+01 -7.314086556434631348e-01 6.290399074554443359e+00 1.667697072029113770e+00 8.532670736312866211e-01
3.336000000000000000e+03 4.916149902343750000e+01 -1.207318496704101562e+01 1.371801853179931641e+00 7.730468750000000000e+00 2.730681180953979492e+00 1.906040608882904053e-01
3.337000000000000000e+03 7.151327133178710938e+00 1.019516372680664062e+01 -3.391726613044738770e-01 -1.951373815536499023e-01 -1.602930128574371338e-01 4.426987171173095703e-01
3.338000000000000000e+03 7.802590847015380859e+00 -2.677746772766113281e+01 5.734395701438188553e-03 2.065577078610658646e-03 2.339991740882396698e-03 -1.012232080101966858e-01
3.339000000000000000e+03 7.610981464385986328e+00 -2.794724082946777344e+01 1.771628111600875854e-02 -2.446656860411167145e-02 -2.025085734203457832e-03 -8.557516336441040039e-02
3.340000000000000000e+03 4.690193176269531250e+01 3.572208023071289062e+01 -7.179188132286071777e-01 3.900303363800048828e+00 9.547153711318969727e-01 -8.357974290847778320e-01
3.341000000000000000e+03 5.028598785400390625e+01 2.330017280578613281e+01 -6.528558582067489624e-02 3.930133342742919922e+00 1.159454345703125000e+00 -6.927523612976074219e-01
3.342000000000000000e+03 6.260755538940429688e+01 3.319551706314086914e+00 -6.542155146598815918e-01 4.186394214630126953e+00 1.059653639793395996e+00 -1.227929353713989258e+00
3.343000000000000000e+03 5.646388626098632812e+01 1.653358268737792969e+01 1.308495283126831055e+00 5.976838588714599609e+00 2.185600280761718750e+00 -2.389564365148544312e-01
3.344000000000000000e+03 6.754973888397216797e+00 -2.660109138488769531e+01 7.498650811612606049e-03 -2.457999810576438904e-02 -5.124404560774564743e-03 -7.797408849000930786e-02
3.345000000000000000e+03 6.065364456176757812e+01 -1.580001926422119141e+01 -3.111529648303985596e-01 6.512688159942626953e+00 1.860460519790649414e+00 1.538766920566558838e-01
3.346000000000000000e+03 5.023030090332031250e+01 3.985043334960937500e+01 -1.440222144126892090e+00 4.180919170379638672e+00 8.222090601921081543e-01 -3.998195007443428040e-02
3.347000000000000000e+03 6.199479675292968750e+01 1.794598460197448730e+00 -6.852105259895324707e-01 5.387053012847900391e+00 1.410552859306335449e+00 -1.248165726661682129e+00
3.348000000000000000e+03 5.205968856811523438e+01 2.249457168579101562e+01 -9.941279292106628418e-01 4.623974323272705078e+00 1.088953852653503418e+00 -1.592553496360778809e+00
3.349000000000000000e+03 2.528283309936523438e+01 -2.028930091857910156e+01 6.472932100296020508e-01 8.782423138618469238e-01 4.576606750488281250e-01 9.359019994735717773e-02
3.350000000000000000e+03 2.359856224060058594e+01 -1.860150527954101562e+01 3.993475735187530518e-01 2.431069016456604004e-01 1.927363425493240356e-01 -1.670567840337753296e-01
3.351000000000000000e+03 4.044441986083984375e+01 1.771228790283203125e+01 4.906626045703887939e-01 2.494267225265502930e+00 8.954789638519287109e-01 -1.464440584182739258e+00
3.352000000000000000e+03 7.204239654541015625e+01 2.982569885253906250e+01 7.572232484817504883e-01 5.431728363037109375e+00 1.856685519218444824e+00 1.368154436349868774e-01
3.353000000000000000e+03 5.834296417236328125e+01 -1.248334503173828125e+01 2.504794597625732422e-01 3.674394130706787109e+00 1.177462100982666016e+00 1.706022024154663086e-01
3.354000000000000000e+03 3.683259582519531250e+01 -3.417119598388671875e+01 8.934110999107360840e-01 3.039537906646728516e+00 1.179884672164916992e+00 1.281036734580993652e+00
3.355000000000000000e+03 7.625665664672851562e+00 4.136604690551757812e+01 -7.806684076786041260e-02 -2.212625741958618164e-01 -8.979882299900054932e-02 -3.308268496766686440e-03
3.356000000000000000e+03 2.811120605468750000e+01 -4.133922195434570312e+01 -1.634587198495864868e-01 1.429930567741394043e+00 3.799415528774261475e-01 8.111841976642608643e-03
3.357000000000000000e+03 7.611284732818603516e+00 3.919423294067382812e+01 -4.820364341139793396e-02 -2.061181366443634033e-01 -7.629653066396713257e-02 -5.631235428154468536e-03
3.358000000000000000e+03 4.191227340698242188e+01 1.862160682678222656e+01 -2.349607199430465698e-01 2.779004096984863281e+00 7.632129788398742676e-01 -3.245041668415069580e-01
3.359000000000000000e+03 4.735048294067382812e+01 -4.416626393795013428e-01 5.753965854644775391e+00 6.055559158325195312e+00 3.542857408523559570e+00 -1.766290068626403809e+00
3.360000000000000000e+03 4.762489318847656250e+01 7.593812942504882812e-01 3.892518520355224609e+00 5.996453762054443359e+00 2.966691732406616211e+00 -4.498846828937530518e-01
3.361000000000000000e+03 4.705525207519531250e+01 -8.389896750450134277e-01 6.455563545227050781e+00 6.271862030029296875e+00 3.818227767944335938e+00 -2.530990123748779297e+00
3.362000000000000000e+03 4.988361358642578125e+01 -7.533650398254394531e-01 3.004503965377807617e+00 5.956789493560791016e+00 2.688388109207153320e+00 -7.887901067733764648e-01
3.363000000000000000e+03 4.452032852172851562e+01 2.658101081848144531e+00 -8.345219492912292480e-01 8.028424263000488281e+00 2.158170700073242188e+00 -3.242550134658813477e+00
3.364000000000000000e+03 4.687883377075195312e+01 2.351577520370483398e+00 6.962870955467224121e-01 6.865179061889648438e+00 2.268439769744873047e+00 -9.146376848220825195e-01
3.365000000000000000e+03 4.698056793212890625e+01 -2.201809167861938477e+00 3.711043596267700195e+00 7.290681838989257812e+00 3.300517559051513672e+00 -4.381000995635986328e+00
3.366000000000000000e+03 4.767558288574218750e+01 -1.638449192047119141e+00 4.537155151367187500e+00 6.446287155151367188e+00 3.295032739639282227e+00 -3.308177232742309570e+00
3.367000000000000000e+03 4.413349533081054688e+01 2.671437263488769531e+00 -8.296732902526855469e-01 7.570615291595458984e+00 2.022282600402832031e+00 -3.514380693435668945e+00
3.368000000000000000e+03 4.479994583129882812e+01 2.190381050109863281e+00 -3.417334556579589844e-01 8.839751243591308594e+00 2.549405336380004883e+00 -2.942030906677246094e+00
3.369000000000000000e+03 4.788500595092773438e+01 -2.694834470748901367e+00 2.193356990814208984e+00 7.509601116180419922e+00 2.910887479782104492e+00 -3.611148595809936523e+00
3.370000000000000000e+03 4.738355636596679688e+01 -2.513817071914672852e+00 2.641089916229248047e+00 7.592772483825683594e+00 3.070158720016479492e+00 -4.264592647552490234e+00
3.371000000000000000e+03 4.707173538208007812e+01 1.209399402141571045e-01 5.555109024047851562e+00 6.362790584564208984e+00 3.575369834899902344e+00 -8.455061316490173340e-01
3.372000000000000000e+03 4.445741653442382812e+01 1.768481373786926270e+00 1.522132307291030884e-01 9.020273208618164062e+00 2.751745939254760742e+00 -3.449858903884887695e+00
3.373000000000000000e+03 8.792843818664550781e+00 -7.763559818267822266e+00 2.768680080771446228e-02 -1.237732172012329102e-01 -2.882592380046844482e-02 -1.085493117570877075e-01
3.374000000000000000e+03 7.747546672821044922e+00 -6.548740863800048828e+00 1.867298223078250885e-02 -1.054091006517410278e-01 -2.602083608508110046e-02 -1.169495359063148499e-01
3.375000000000000000e+03 8.448372840881347656e+00 -6.848189830780029297e+00 3.453936427831649780e-02 -9.819801151752471924e-02 -1.909759454429149628e-02 -1.041069105267524719e-01
3.376000000000000000e+03 1.016051959991455078e+01 -6.103105068206787109e+00 1.540991477668285370e-03 -1.015604138374328613e-01 -3.000582754611968994e-02 -1.512139439582824707e-01
3.377000000000000000e+03 2.374854278564453125e+01 8.962339401245117188e+00 3.503177464008331299e-01 4.419996589422225952e-02 1.183553114533424377e-01 2.677959017455577850e-02
3.378000000000000000e+03 6.254178524017333984e+00 7.047197818756103516e+00 -3.073367476463317871e-01 -9.779847413301467896e-02 -1.215405687689781189e-01 1.500664204359054565e-01
3.379000000000000000e+03 1.083791732788085938e+01 -8.664254188537597656e+00 -2.255377359688282013e-03 -6.217229366302490234e-02 -1.932830177247524261e-02 -1.234653815627098083e-01
3.380000000000000000e+03 4.624875259399414062e+01 4.427896499633789062e+00 -2.234731912612915039e+00 6.615080833435058594e+00 1.314104676246643066e+00 -1.961295127868652344e+00
3.381000000000000000e+03 4.569558334350585938e+01 4.989892005920410156e+00 -2.447990417480468750e+00 6.913089752197265625e+00 1.339529752731323242e+00 -2.020719051361083984e+00
3.382000000000000000e+03 4.512852096557617188e+01 5.198800563812255859e+00 -2.087215423583984375e+00 6.954479694366455078e+00 1.460179328918457031e+00 -2.527944803237915039e+00
3.383000000000000000e+03 4.853836822509765625e+01 -1.602164864540100098e+00 3.689007520675659180e+00 6.380350112915039062e+00 3.020807266235351562e+00 -2.598933696746826172e+00
3.384000000000000000e+03 1.076694583892822266e+01 -6.691152572631835938e+00 6.298507750034332275e-02 -1.336551085114479065e-02 1.488586887717247009e-02 -1.098818778991699219e-01
3.385000000000000000e+03 5.011360168457031250e+01 9.822780489921569824e-01 2.313735008239746094e+00 4.558927536010742188e+00 2.061798810958862305e+00 5.139535069465637207e-01
3.386000000000000000e+03 7.954638481140136719e+00 -8.594274520874023438e+00 3.017478622496128082e-02 -1.433857679367065430e-01 -3.396329656243324280e-02 -9.717270731925964355e-02
3.387000000000000000e+03 5.893695068359375000e+01 -1.567361259460449219e+01 -1.010455787181854248e-01 6.235089302062988281e+00 1.840213179588317871e+00 -1.507921069860458374e-01
3.388000000000000000e+03 6.158290100097656250e+01 -1.311507511138916016e+01 -1.051677942276000977e+00 6.577208995819091797e+00 1.657659292221069336e+00 9.194792509078979492e-01
3.389000000000000000e+03 2.092697715759277344e+01 -2.059742355346679688e+01 3.721123933792114258e-01 7.716569304466247559e-02 1.347834169864654541e-01 -1.723157465457916260e-01
3.390000000000000000e+03 1.930794525146484375e+01 -2.144389915466308594e+01 1.837551742792129517e-01 3.585424274206161499e-02 6.588282436132431030e-02 -1.064942702651023865e-01
3.391000000000000000e+03 1.910453796386718750e+01 -2.306901550292968750e+01 2.411950975656509399e-01 1.332254614681005478e-02 7.635529339313507080e-02 6.190947443246841431e-02
3.392000000000000000e+03 2.266860198974609375e+01 7.863438129425048828e+00 3.465054631233215332e-01 -4.198082536458969116e-02 9.135738760232925415e-02 6.215566024184226990e-02
3.393000000000000000e+03 4.780038833618164062e+01 -6.588807702064514160e-01 5.089975833892822266e+00 5.857537269592285156e+00 3.284253835678100586e+00 -2.006294727325439453e+00
3.394000000000000000e+03 4.911041259765625000e+01 -2.017750024795532227e+00 2.968608140945434570e+00 6.835970401763916016e+00 2.941373586654663086e+00 -2.325132369995117188e+00
3.395000000000000000e+03 4.973802566528320312e+01 1.762776970863342285e+00 1.679521322250366211e+00 4.161246776580810547e+00 1.752230405807495117e+00 6.805403828620910645e-01
3.396000000000000000e+03 6.903661346435546875e+01 2.382127189636230469e+01 1.880406439304351807e-01 3.124426364898681641e+00 9.937401413917541504e-01 -9.328917860984802246e-01
3.397000000000000000e+03 2.485905075073242188e+01 9.226891517639160156e+00 3.350928425788879395e-01 1.417272984981536865e-01 1.430460363626480103e-01 -4.901706054806709290e-02
3.398000000000000000e+03 5.977000427246093750e+01 -1.487608337402343750e+01 -3.636022210121154785e-01 6.093209266662597656e+00 1.718882203102111816e+00 2.232346683740615845e-01
3.399000000000000000e+03 4.418785476684570312e+01 3.951431989669799805e+00 -1.707572221755981445e+00 7.044489383697509766e+00 1.601075172424316406e+00 -3.006772041320800781e+00
3.400000000000000000e+03 4.764938354492187500e+01 3.881396055221557617e+00 -1.187235593795776367e+00 4.596181392669677734e+00 1.022683739662170410e+00 -1.449113011360168457e+00
3.401000000000000000e+03 2.044539451599121094e+01 -1.967033576965332031e+01 2.502717375755310059e-01 2.726907096803188324e-02 8.326224237680435181e-02 -2.838846445083618164e-01
3.402000000000000000e+03 2.603848648071289062e+01 -2.521293067932128906e+01 7.075328379869461060e-02 1.318149685859680176e+00 4.166708886623382568e-01 1.573782861232757568e-01
3.403000000000000000e+03 2.629448890686035156e+01 -2.694399452209472656e+01 -2.016045004129409790e-01 1.363179326057434082e+00 3.484724462032318115e-01 3.163512423634529114e-02
3.404000000000000000e+03 7.867807865142822266e+00 -9.765844345092773438e+00 1.746614091098308563e-02 -1.310324966907501221e-01 -3.406990692019462585e-02 -1.024288013577461243e-01
3.405000000000000000e+03 3.340795516967773438e+01 -3.443996429443359375e+01 7.647536396980285645e-01 1.368771076202392578e+00 6.400573849678039551e-01 6.745902895927429199e-01
3.406000000000000000e+03 3.186338424682617188e+01 -3.217889022827148438e+01 6.658811569213867188e-01 8.319667577743530273e-01 4.493543803691864014e-01 -4.800898954272270203e-02
3.407000000000000000e+03 7.130925750732421875e+01 3.281001806259155273e+00 1.345757544040679932e-01 3.669799804687500000e+00 1.141312599182128906e+00 1.087192058563232422e+00
3.408000000000000000e+03 5.650426864624023438e+01 2.056303787231445312e+01 -6.808549761772155762e-01 3.525467157363891602e+00 8.533836603164672852e-01 -2.180794000625610352e+00
3.409000000000000000e+03 6.097258090972900391e+00 -3.035948371887207031e+01 -8.176305331289768219e-03 -1.433758586645126343e-01 -4.546564817428588867e-02 -2.947827056050300598e-02
3.410000000000000000e+03 7.262371063232421875e+01 2.712332725524902344e+01 5.824494957923889160e-01 5.451227188110351562e+00 1.810103058815002441e+00 -3.661401867866516113e-01
3.411000000000000000e+03 7.253437805175781250e+01 4.491422176361083984e+00 -1.849276125431060791e-01 5.354314804077148438e+00 1.550816178321838379e+00 3.926229774951934814e-01
3.412000000000000000e+03 9.986339569091796875e+00 -9.157369613647460938e+00 4.560027644038200378e-02 -4.573214426636695862e-02 -3.956133514293469489e-05 -1.258624047040939331e-01
3.413000000000000000e+03 1.040565109252929688e+01 -7.887889862060546875e+00 5.763757973909378052e-02 -2.077809162437915802e-02 1.105784624814987183e-02 -1.027850806713104248e-01
3.414000000000000000e+03 6.740507507324218750e+01 2.341317749023437500e+01 5.136536955833435059e-01 2.191823005676269531e+00 8.116430044174194336e-01 2.347736060619354248e-02
3.415000000000000000e+03 6.692134857177734375e+01 2.538414192199707031e+01 1.644940495491027832e+00 3.619956731796264648e+00 1.579469084739685059e+00 4.964379966259002686e-01
3.416000000000000000e+03 5.842899322509765625e+01 -1.655439949035644531e+01 5.292177200317382812e-01 6.249425888061523438e+00 2.033593177795410156e+00 -1.844789981842041016e-01
3.417000000000000000e+03 8.825105667114257812e+00 -8.564177513122558594e+00 4.161782935261726379e-02 -9.239712357521057129e-02 -1.523378770798444748e-02 -1.176869422197341919e-01
3.418000000000000000e+03 7.087447643280029297e+00 -8.392470359802246094e+00 1.895060762763023376e-02 -1.255866289138793945e-01 -3.199080750346183777e-02 -9.474339336156845093e-02
3.419000000000000000e+03 7.088358306884765625e+01 -3.211807250976562500e+01 1.747579336166381836e+00 4.565745353698730469e+00 1.893997430801391602e+00 -8.067201375961303711e-01
3.420000000000000000e+03 6.224205017089843750e+00 -7.996737003326416016e+00 3.206851705908775330e-02 -1.239165142178535461e-01 -2.755440026521682739e-02 -7.509469985961914062e-02
3.421000000000000000e+03 6.135219573974609375e+01 -1.682407188415527344e+01 1.378294639289379120e-02 6.536182880401611328e+00 1.964989662170410156e+00 -3.065687417984008789e-01
3.422000000000000000e+03 3.446359252929687500e+01 3.236302947998046875e+01 -2.137243747711181641e-01 3.163562297821044922e+00 8.849513530731201172e-01 -5.595998838543891907e-02
3.423000000000000000e+03 7.233470153808593750e+01 2.847288513183593750e+01 7.323480248451232910e-01 5.515166759490966797e+00 1.874254465103149414e+00 -1.353556364774703979e-01
3.424000000000000000e+03 6.934468078613281250e+01 2.668724060058593750e+01 1.440149426460266113e+00 4.185386180877685547e+00 1.687660694122314453e+00 -9.155796468257904053e-02
3.425000000000000000e+03 6.604584217071533203e+00 -3.393886566162109375e+01 1.344031281769275665e-02 -1.443042159080505371e-01 -3.925916925072669983e-02 -1.098509971052408218e-02
3.426000000000000000e+03 7.259435272216796875e+01 -3.190685081481933594e+01 1.077395796775817871e+00 4.945656299591064453e+00 1.806915640830993652e+00 1.026663742959499359e-02
3.427000000000000000e+03 7.075398254394531250e+01 2.399038887023925781e+01 -1.110088601708412170e-01 4.457491874694824219e+00 1.303944945335388184e+00 -1.114660263061523438e+00
3.428000000000000000e+03 7.245832824707031250e+01 2.413489532470703125e+01 -2.827906608581542969e-01 5.511353015899658203e+00 1.568568706512451172e+00 -9.638378024101257324e-01
3.429000000000000000e+03 7.372785186767578125e+01 -3.558683013916015625e+01 2.090251892805099487e-01 6.383916854858398438e+00 1.977882623672485352e+00 -5.961610674858093262e-01
3.430000000000000000e+03 2.201415443420410156e+01 -1.831441688537597656e+01 2.539692223072052002e-01 -8.641275344416499138e-04 7.593152672052383423e-02 -3.266748189926147461e-01
3.431000000000000000e+03 2.133930015563964844e+01 -2.175766372680664062e+01 4.051566123962402344e-01 1.086272075772285461e-01 1.541351377964019775e-01 -4.993995651602745056e-02
3.432000000000000000e+03 5.802394866943359375e+01 4.203915119171142578e+00 -1.520596593618392944e-01 5.091045856475830078e+00 1.481695890426635742e+00 -8.842534422874450684e-01
3.433000000000000000e+03 6.930687713623046875e+01 3.406546020507812500e+01 9.058456867933273315e-02 5.553771018981933594e+00 1.693306684494018555e+00 6.764492988586425781e-01
3.434000000000000000e+03 3.029260253906250000e+01 -3.413224792480468750e+01 4.214656054973602295e-01 1.127308011054992676e+00 4.646320641040802002e-01 1.122905239462852478e-01
3.435000000000000000e+03 5.798559951782226562e+01 -1.501392936706542969e+01 -3.697841614484786987e-02 5.716563701629638672e+00 1.703875541687011719e+00 -6.475789546966552734e-01
3.436000000000000000e+03 3.385406875610351562e+01 3.508930206298828125e+01 -6.922576427459716797e-01 2.454851388931274414e+00 5.287781357765197754e-01 4.481593146920204163e-02
3.437000000000000000e+03 2.803718566894531250e+01 3.463817214965820312e+01 3.143662214279174805e-02 1.603587865829467773e+00 4.905073344707489014e-01 -4.324426651000976562e-01
3.438000000000000000e+03 6.870291137695312500e+01 2.553437995910644531e+01 1.283648490905761719e+00 3.709463834762573242e+00 1.497933626174926758e+00 -2.836154699325561523e-01
3.439000000000000000e+03 7.327846527099609375e+01 2.515651130676269531e+01 1.096415966749191284e-01 5.818422794342041016e+00 1.778419256210327148e+00 -7.143121361732482910e-01
3.440000000000000000e+03 7.372910976409912109e+00 -2.911224365234375000e+01 5.919013638049364090e-03 -5.913127958774566650e-02 -1.596367917954921722e-02 -6.245961785316467285e-02
3.441000000000000000e+03 2.903677749633789062e+01 -3.199598121643066406e+01 1.865746378898620605e-01 1.122791528701782227e+00 3.928098380565643311e-01 -1.086736544966697693e-01
3.442000000000000000e+03 3.286896514892578125e+01 3.600452423095703125e+01 -5.356517434120178223e-01 2.184465408325195312e+00 4.946440756320953369e-01 -1.184487864375114441e-01
3.443000000000000000e+03 4.691322708129882812e+01 4.090977096557617188e+01 -1.141868233680725098e+00 3.489585876464843750e+00 7.043152451515197754e-01 -2.404782474040985107e-01
3.444000000000000000e+03 7.283942413330078125e+01 -3.423741149902343750e+01 7.824097275733947754e-01 5.592015743255615234e+00 1.912327647209167480e+00 -7.324600219726562500e-01
3.445000000000000000e+03 4.631544876098632812e+01 1.289747238159179688e+00 2.547942399978637695e+00 8.407877922058105469e+00 3.286746025085449219e+00 -2.902344167232513428e-01
3.446000000000000000e+03 4.483938598632812500e+01 2.565643072128295898e+00 -8.437272906303405762e-01 8.326926231384277344e+00 2.244959592819213867e+00 -2.875309944152832031e+00
3.447000000000000000e+03 4.825049209594726562e+01 1.247202873229980469e+00 2.837656259536743164e+00 5.318686962127685547e+00 2.446902990341186523e+00 -1.385055780410766602e-01
3.448000000000000000e+03 4.737214279174804688e+01 1.929290413856506348e+00 1.486296296119689941e+00 6.263541698455810547e+00 2.324951410293579102e+00 -4.323470294475555420e-01
3.449000000000000000e+03 4.671400451660156250e+01 1.182380080223083496e+00 2.978364706039428711e+00 7.563656330108642578e+00 3.162606239318847656e+00 -2.175557166337966919e-01
3.450000000000000000e+03 4.592354965209960938e+01 1.312305331230163574e+00 2.018637657165527344e+00 9.361965179443359375e+00 3.414180994033813477e+00 -5.760797858238220215e-01
3.451000000000000000e+03 4.522673416137695312e+01 1.976948738098144531e+00 -2.440033294260501862e-02 9.263298034667968750e+00 2.771669387817382812e+00 -2.214822292327880859e+00
3.452000000000000000e+03 4.907842636108398438e+01 1.318040013313293457e+00 2.558850526809692383e+00 4.658015251159667969e+00 2.165059804916381836e+00 6.472851336002349854e-02
3.453000000000000000e+03 4.811800765991210938e+01 -1.996816039085388184e+00 3.611679792404174805e+00 6.712393760681152344e+00 3.097222089767456055e+00 -3.329308748245239258e+00
3.454000000000000000e+03 4.774333572387695312e+01 -7.884670048952102661e-02 5.005273342132568359e+00 5.792241096496582031e+00 3.239254474639892578e+00 -1.174756646156311035e+00
3.455000000000000000e+03 4.360398101806640625e+01 3.845263719558715820e+00 -1.376915693283081055e+00 6.356314182281494141e+00 1.493819594383239746e+00 -3.112864255905151367e+00
3.456000000000000000e+03 7.393770217895507812e+00 -7.419462680816650391e+00 3.299846500158309937e-02 -1.229073032736778259e-01 -2.697265148162841797e-02 -9.631725400686264038e-02
3.457000000000000000e+03 4.919325256347656250e+01 -5.506428480148315430e-01 3.514279127120971680e+00 5.488769531250000000e+00 2.700914621353149414e+00 -1.149562478065490723e+00
3.458000000000000000e+03 9.025321006774902344e+00 -7.155883312225341797e+00 2.047891914844512939e-02 -1.116262897849082947e-01 -2.734421007335186005e-02 -1.342520117759704590e-01
3.459000000000000000e+03 9.529473304748535156e+00 -6.631162643432617188e+00 4.827318713068962097e-02 -5.955006554722785950e-02 -3.383063711225986481e-03 -1.033214703202247620e-01
3.460000000000000000e+03 4.494355392456054688e+01 4.538541316986083984e+00 -2.186517238616943359e+00 7.295025825500488281e+00 1.532552599906921387e+00 -2.469253778457641602e+00
3.461000000000000000e+03 4.693465042114257812e+01 3.883232116699218750e+00 -1.701070189476013184e+00 5.917339801788330078e+00 1.264880895614624023e+00 -1.661273002624511719e+00
3.462000000000000000e+03 4.760903930664062500e+01 -3.190804243087768555e+00 1.297898173332214355e+00 8.005499839782714844e+00 2.791019439697265625e+00 -3.877680301666259766e+00
3.463000000000000000e+03 5.013920211791992188e+01 7.627752423286437988e-02 2.625652551651000977e+00 5.056200981140136719e+00 2.304556131362915039e+00 1.213620305061340332e-01
3.464000000000000000e+03 4.424977493286132812e+01 4.680060863494873047e+00 -1.746820211410522461e+00 6.800242900848388672e+00 1.516026735305786133e+00 -2.762647390365600586e+00
3.465000000000000000e+03 5.956766510009765625e+01 -1.648264884948730469e+01 4.803283512592315674e-01 6.352784633636474609e+00 2.049933910369873047e+00 -1.194077730178833008e-01
3.466000000000000000e+03 4.865279006958007812e+01 1.746759891510009766e+00 2.078558683395385742e+00 4.853787422180175781e+00 2.079703807830810547e+00 -5.179031565785408020e-02
3.467000000000000000e+03 4.807342529296875000e+01 3.034342288970947266e+00 -2.872230485081672668e-02 4.765033245086669922e+00 1.420893192291259766e+00 -5.205048918724060059e-01
3.468000000000000000e+03 1.198761463165283203e+01 -7.368445873260498047e+00 3.019743040204048157e-02 8.750697597861289978e-04 9.321750141680240631e-03 -9.025967121124267578e-02
3.469000000000000000e+03 1.235190677642822266e+01 -6.458497047424316406e+00 4.961508139967918396e-02 3.127065673470497131e-02 2.426572144031524658e-02 -1.124809160828590393e-01
3.470000000000000000e+03 8.998443603515625000e+00 -9.540642738342285156e+00 1.354733575135469437e-02 -1.417736262083053589e-01 -3.846788406372070312e-02 -1.115632876753807068e-01
3.471000000000000000e+03 9.397027969360351562e+00 -7.611618995666503906e+00 5.256339162588119507e-02 -5.929246544837951660e-02 -2.018722472712397575e-03 -1.083372235298156738e-01
3.472000000000000000e+03 2.256660842895507812e+01 -2.121760368347167969e+01 5.377711653709411621e-01 2.557990849018096924e-01 2.380710691213607788e-01 -6.335084140300750732e-02
3.473000000000000000e+03 7.375034332275390625e+01 -3.299665069580078125e+01 7.274206280708312988e-01 5.850927352905273438e+00 1.973504304885864258e+00 -1.853098124265670776e-01
3.474000000000000000e+03 7.048955535888671875e+01 3.141012954711914062e+01 6.896113157272338867e-01 5.431558609008789062e+00 1.836351037025451660e+00 5.672751665115356445e-01
3.475000000000000000e+03 7.094774627685546875e+01 2.821188545227050781e+01 1.029643177986145020e+00 4.869448661804199219e+00 1.769727587699890137e+00 -3.356073051691055298e-02
3.476000000000000000e+03 3.245219802856445312e+01 3.302033615112304688e+01 -1.244474500417709351e-01 2.637505054473876953e+00 7.539172768592834473e-01 -5.074661970138549805e-01
3.477000000000000000e+03 7.143798828125000000e+01 2.685717964172363281e+01 8.891465663909912109e-01 4.963195800781250000e+00 1.755702733993530273e+00 -4.080960154533386230e-01
3.478000000000000000e+03 6.561622619628906250e+01 3.729917144775390625e+01 -8.610466718673706055e-01 4.568435192108154297e+00 1.112216591835021973e+00 -2.966117300093173981e-02
3.479000000000000000e+03 4.994338035583496094e+00 1.330333423614501953e+01 5.162600427865982056e-02 -3.065685331821441650e-01 -7.648276537656784058e-02 4.519480764865875244e-01
3.480000000000000000e+03 6.301726913452148438e+01 2.192891836166381836e+00 -3.155796229839324951e-01 4.629791736602783203e+00 1.294263601303100586e+00 -8.067197203636169434e-01
3.481000000000000000e+03 7.037984466552734375e+01 -3.868635940551757812e+01 -9.260596632957458496e-01 6.004660606384277344e+00 1.523580312728881836e+00 -9.306167960166931152e-01
3.482000000000000000e+03 6.929840850830078125e+01 -3.653345489501953125e+01 3.153770812787115574e-04 6.077870368957519531e+00 1.823455691337585449e+00 -1.270025849342346191e+00
3.483000000000000000e+03 7.298223876953125000e+01 3.572311019897460938e+01 8.657100610435009003e-03 6.421037673950195312e+00 1.928908467292785645e+00 3.795445561408996582e-01
3.484000000000000000e+03 3.180707550048828125e+01 -3.473852157592773438e+01 5.447596907615661621e-01 1.162993907928466797e+00 5.123260617256164551e-01 3.574184477329254150e-01
3.485000000000000000e+03 3.264692306518554688e+01 -3.332722854614257812e+01 7.858433127403259277e-01 9.249817132949829102e-01 5.132474899291992188e-01 2.775558531284332275e-01
3.486000000000000000e+03 4.760499572753906250e+01 2.802361547946929932e-01 4.795656204223632812e+00 6.043958663940429688e+00 3.251884460449218750e+00 -8.194425702095031738e-01
3.487000000000000000e+03 4.585078048706054688e+01 2.972513675689697266e+00 -1.000474452972412109e+00 7.716321468353271484e+00 2.014754056930541992e+00 -2.008487701416015625e+00
3.488000000000000000e+03 4.831841659545898438e+01 -8.681413531303405762e-01 4.357025146484375000e+00 5.827186107635498047e+00 3.055263280868530273e+00 -2.066941261291503906e+00
3.489000000000000000e+03 4.725579071044921875e+01 2.665244340896606445e+00 2.651418745517730713e-01 6.204309463500976562e+00 1.940835475921630859e+00 -8.311997056007385254e-01
3.490000000000000000e+03 4.771393585205078125e+01 1.669837355613708496e+00 2.144356012344360352e+00 5.864322185516357422e+00 2.402603387832641602e+00 -3.687911033630371094e-01
3.491000000000000000e+03 4.532162094116210938e+01 2.705714941024780273e+00 -8.116510510444641113e-01 8.523620605468750000e+00 2.313591003417968750e+00 -2.297033309936523438e+00
3.492000000000000000e+03 4.890008544921875000e+01 -1.115882277488708496e+00 3.752708196640014648e+00 6.015046119689941406e+00 2.930326223373413086e+00 -1.897678852081298828e+00
3.493000000000000000e+03 4.870784759521484375e+01 5.665578246116638184e-01 3.449451684951782227e+00 5.184706687927246094e+00 2.590247392654418945e+00 -5.229328870773315430e-01
3.494000000000000000e+03 4.623290634155273438e+01 3.805506706237792969e+00 -1.632663011550903320e+00 6.961577892303466797e+00 1.598674416542053223e+00 -2.094238758087158203e+00
3.495000000000000000e+03 4.936427688598632812e+01 9.446685016155242920e-02 3.257578134536743164e+00 5.204356193542480469e+00 2.538580179214477539e+00 -5.190418362617492676e-01
3.496000000000000000e+03 8.126930236816406250e+00 -7.645997047424316406e+00 2.725469693541526794e-02 -1.026652827858924866e-01 -2.262317575514316559e-02 -1.189354285597801208e-01
3.497000000000000000e+03 4.552188491821289062e+01 3.769980430603027344e+00 -1.828518509864807129e+00 7.512012958526611328e+00 1.705048441886901855e+00 -2.340934991836547852e+00
3.498000000000000000e+03 4.322519302368164062e+01 4.305555820465087891e+00 -1.312748074531555176e+00 5.976981163024902344e+00 1.399269938468933105e+00 -3.021800994873046875e+00
3.499000000000000000e+03 4.817943954467773438e+01 2.108374595642089844e+00 1.508765220642089844e+00 5.118794441223144531e+00 1.988267898559570312e+00 -8.668254315853118896e-02
3.500000000000000000e+03 4.629689025878906250e+01 3.215774059295654297e+00 -1.179554700851440430e+00 7.244618892669677734e+00 1.819519281387329102e+00 -1.779263973236083984e+00
3.501000000000000000e+03 9.650219917297363281e+00 -8.309094429016113281e+00 1.479789149016141891e-02 -1.173141002655029297e-01 -3.075486421585083008e-02 -1.265787184238433838e-01
3.502000000000000000e+03 4.933218765258789062e+01 7.479575872421264648e-01 2.796020507812500000e+00 4.802431583404541016e+00 2.279535531997680664e+00 -1.515539269894361496e-02
3.503000000000000000e+03 4.689356613159179688e+01 3.286915779113769531e+00 -7.406458258628845215e-01 6.228083133697509766e+00 1.646231293678283691e+00 -1.566384196281433105e+00
3.504000000000000000e+03 6.885993957519531250e+01 3.119925689697265625e+01 8.921375870704650879e-01 5.207759380340576172e+00 1.829969048500061035e+00 8.205360174179077148e-01
3.505000000000000000e+03 7.233366394042968750e+01 2.597967147827148438e+01 3.803479671478271484e-01 5.324953556060791016e+00 1.711590528488159180e+00 -6.939921975135803223e-01
3.506000000000000000e+03 7.070466613769531250e+01 3.301663208007812500e+01 4.233121573925018311e-01 5.584595203399658203e+00 1.802372217178344727e+00 6.067077517509460449e-01
3.507000000000000000e+03 3.221176147460937500e+01 3.748312377929687500e+01 -5.537834167480468750e-01 2.067641258239746094e+00 4.541573822498321533e-01 -5.768663808703422546e-02
3.508000000000000000e+03 2.978944587707519531e+01 3.642076492309570312e+01 -2.677290737628936768e-01 1.868474483489990234e+00 4.802236258983612061e-01 -3.268172442913055420e-01
3.509000000000000000e+03 4.598537445068359375e+01 2.592410802841186523e+00 -4.047710299491882324e-01 8.014593124389648438e+00 2.282946586608886719e+00 -1.635553717613220215e+00
3.510000000000000000e+03 4.564001846313476562e+01 2.567067384719848633e+00 -5.849472880363464355e-01 8.468887329101562500e+00 2.365182161331176758e+00 -2.115142822265625000e+00
3.511000000000000000e+03 4.735328292846679688e+01 1.333638191223144531e+00 2.846155166625976562e+00 6.528527736663818359e+00 2.812404870986938477e+00 -2.251262217760086060e-01
3.512000000000000000e+03 4.692346572875976562e+01 1.921201109886169434e+00 1.460253834724426270e+00 7.103151321411132812e+00 2.569021463394165039e+00 -4.871660172939300537e-01
3.513000000000000000e+03 4.808315277099609375e+01 -2.835388779640197754e-01 4.699913024902343750e+00 5.623526096343994141e+00 3.097031831741333008e+00 -1.476220965385437012e+00
3.514000000000000000e+03 4.872356796264648438e+01 8.776580542325973511e-02 3.759930133819580078e+00 5.200088977813720703e+00 2.688005685806274414e+00 -7.802363634109497070e-01
3.515000000000000000e+03 4.815846633911132812e+01 4.354241490364074707e-01 3.883728265762329102e+00 5.439983367919921875e+00 2.797113418579101562e+00 -6.500192880630493164e-01
3.516000000000000000e+03 4.856734085083007812e+01 9.821006655693054199e-01 2.985151052474975586e+00 5.087267398834228516e+00 2.421725511550903320e+00 -2.557557821273803711e-01
3.517000000000000000e+03 4.748707580566406250e+01 3.223525524139404297e+00 -2.311136126518249512e-01 5.321590900421142578e+00 1.527143120765686035e+00 -8.513634204864501953e-01
3.518000000000000000e+03 4.769834899902343750e+01 2.419163227081298828e+00 1.101860165596008301e+00 5.504349231719970703e+00 1.981862783432006836e+00 -5.055882334709167480e-01
3.519000000000000000e+03 1.116794395446777344e+01 -7.415401935577392578e+00 1.205402705818414688e-02 -7.552636414766311646e-02 -1.904170215129852295e-02 -1.464030295610427856e-01
3.520000000000000000e+03 6.806761932373046875e+01 4.081623458862304688e+01 -5.694962739944458008e-01 4.974763870239257812e+00 1.321580290794372559e+00 2.956629917025566101e-02
3.521000000000000000e+03 7.591161346435546875e+01 -3.498807525634765625e+01 1.565371453762054443e-01 6.982002735137939453e+00 2.141561985015869141e+00 -1.930715441703796387e-01
3.522000000000000000e+03 4.776638412475585938e+01 1.268745303153991699e+00 3.013122558593750000e+00 5.814039230346679688e+00 2.648148536682128906e+00 -2.611666917800903320e-01
3.523000000000000000e+03 4.638680648803710938e+01 2.707260131835937500e+00 -2.331441789865493774e-01 7.350629806518554688e+00 2.135245800018310547e+00 -1.455125808715820312e+00
3.524000000000000000e+03 4.812783050537109375e+01 8.218019604682922363e-01 3.650830030441284180e+00 5.542030334472656250e+00 2.757858037948608398e+00 -4.990368187427520752e-01
3.525000000000000000e+03 2.768617248535156250e+01 4.128555679321289062e+01 -3.495785295963287354e-01 1.591857194900512695e+00 3.726836144924163818e-01 -6.997540593147277832e-02
3.526000000000000000e+03 7.311135864257812500e+01 3.844944381713867188e+01 -2.172550708055496216e-01 6.395492076873779297e+00 1.853471159934997559e+00 2.926145792007446289e-01
3.527000000000000000e+03 5.245223236083984375e+01 -3.559532546997070312e+01 7.000731825828552246e-01 6.293783187866210938e+00 2.098156929016113281e+00 3.121844828128814697e-01
3.528000000000000000e+03 8.258273124694824219e+00 -4.162578201293945312e+01 -2.959696389734745026e-02 -5.363369733095169067e-02 -2.496919780969619751e-02 -6.847727578133344650e-03
3.529000000000000000e+03 9.646019935607910156e+00 -3.994924163818359375e+01 -2.637289091944694519e-02 3.680195659399032593e-02 3.128720214590430260e-03 1.931739971041679382e-02
3.530000000000000000e+03 6.672885894775390625e+01 3.389342880249023438e+01 -1.344347596168518066e-01 5.365529537200927734e+00 1.569328546524047852e+00 7.314492464065551758e-01
3.531000000000000000e+03 7.251482486724853516e+00 3.734605789184570312e+01 3.076623566448688507e-02 -1.622343510389328003e-01 -3.944043442606925964e-02 -6.546501070261001587e-03
3.532000000000000000e+03 1.916555595397949219e+01 3.944926452636718750e+01 5.290621891617774963e-02 5.069118142127990723e-01 1.679453998804092407e-01 -8.506561815738677979e-02
3.533000000000000000e+03 6.231441497802734375e+01 3.763551712036132812e+01 -8.251553177833557129e-01 2.315586090087890625e+00 4.471292197704315186e-01 -7.636108994483947754e-01
3.534000000000000000e+03 1.186016750335693359e+01 3.753600692749023438e+01 2.838047780096530914e-02 6.543806940317153931e-02 2.814556472003459930e-02 1.183045953512191772e-01
3.535000000000000000e+03 2.838489913940429688e+01 3.875467681884765625e+01 -3.115129768848419189e-01 1.648981213569641113e+00 4.012404978275299072e-01 -1.904547512531280518e-01
3.536000000000000000e+03 2.918402862548828125e+01 -3.692704391479492188e+01 1.040714308619499207e-01 1.351942420005798340e+00 4.368041753768920898e-01 1.359857469797134399e-01
3.537000000000000000e+03 2.321229934692382812e+01 4.084869766235351562e+01 -1.074976846575737000e-01 9.999336600303649902e-01 2.677307724952697754e-01 -6.369998306035995483e-02
3.538000000000000000e+03 2.684267234802246094e+01 -3.676560592651367188e+01 1.599346697330474854e-01 1.287723541259765625e+00 4.342974722385406494e-01 4.294051229953765869e-02
3.539000000000000000e+03 3.262770843505859375e+01 2.418634176254272461e+00 -8.655790984630584717e-02 2.225979864597320557e-01 4.081202298402786255e-02 -1.082488000392913818e-01
3.540000000000000000e+03 3.220228576660156250e+01 9.786933660507202148e-01 -1.560341238975524902e+00 3.816942870616912842e-01 -3.535940945148468018e-01 -2.708545625209808350e-01
3.541000000000000000e+03 3.149662971496582031e+01 7.055340409278869629e-01 -1.434108495712280273e+00 3.111252188682556152e-01 -3.368949890136718750e-01 -1.007853895425796509e-01
3.542000000000000000e+03 1.822104263305664062e+01 -4.458736777305603027e-01 -1.334987133741378784e-01 9.859222173690795898e-02 -1.047194935381412506e-02 -6.057924777269363403e-02
3.543000000000000000e+03 3.973140335083007812e+01 5.167072296142578125e+00 -7.666123658418655396e-02 2.486393451690673828e+00 7.229196429252624512e-01 -7.279877662658691406e-01
3.544000000000000000e+03 3.014853096008300781e+01 6.385502815246582031e-01 -1.460547447204589844e+00 3.525656759738922119e-01 -3.323945403099060059e-01 2.999150939285755157e-02
3.545000000000000000e+03 4.243661499023437500e+01 1.986204862594604492e+00 2.355627268552780151e-01 3.420461893081665039e+00 1.096807360649108887e+00 -3.072010517120361328e+00
3.546000000000000000e+03 4.321630477905273438e+01 1.543155670166015625e+00 1.063444972038269043e+00 5.092856407165527344e+00 1.846890449523925781e+00 -3.911408901214599609e+00
3.547000000000000000e+03 4.339978027343750000e+01 1.468173384666442871e+00 1.228434801101684570e+00 5.527772426605224609e+00 2.026862144470214844e+00 -4.151033401489257812e+00
3.548000000000000000e+03 4.381472396850585938e+01 1.676389813423156738e+00 5.922998785972595215e-01 7.212612628936767578e+00 2.341473817825317383e+00 -4.109616279602050781e+00
3.549000000000000000e+03 4.419803619384765625e+01 1.487313747406005859e+00 7.095329165458679199e-01 8.848071098327636719e+00 2.867281198501586914e+00 -3.992608308792114258e+00
3.550000000000000000e+03 4.438166427612304688e+01 1.442516803741455078e+00 6.165848970413208008e-01 9.508095741271972656e+00 3.037404298782348633e+00 -3.747302532196044922e+00
3.551000000000000000e+03 4.456159210205078125e+01 1.375554084777832031e+00 6.608139276504516602e-01 9.991684913635253906e+00 3.195749521255493164e+00 -3.452797889709472656e+00
3.552000000000000000e+03 4.490417480468750000e+01 9.928938746452331543e-01 1.507763147354125977e+00 1.166153240203857422e+01 3.950788497924804688e+00 -2.116449117660522461e+00
3.553000000000000000e+03 4.571754074096679688e+01 9.469708204269409180e-01 2.988793611526489258e+00 1.018530082702636719e+01 3.952228546142578125e+00 -2.656125724315643311e-01
3.554000000000000000e+03 4.633745574951171875e+01 -1.526871204376220703e+00 6.675614833831787109e+00 7.487038135528564453e+00 4.248795986175537109e+00 -4.366763114929199219e+00
3.555000000000000000e+03 4.563372421264648438e+01 -1.918063402175903320e+00 5.041714191436767578e+00 9.036010742187500000e+00 4.223317623138427734e+00 -4.550786018371582031e+00
3.556000000000000000e+03 4.570891189575195312e+01 -2.468354940414428711e+00 2.496058225631713867e+00 8.134589195251464844e+00 3.189194202423095703e+00 -4.340540885925292969e+00
3.557000000000000000e+03 4.599065017700195312e+01 -2.277877330780029297e+00 3.418922901153564453e+00 8.127043724060058594e+00 3.463789939880371094e+00 -4.627426147460937500e+00
3.558000000000000000e+03 4.452662658691406250e+01 -2.324271678924560547e+00 2.373149871826171875e+00 8.033431053161621094e+00 3.121974468231201172e+00 1.943966746330261230e-02
3.559000000000000000e+03 4.461984252929687500e+01 -2.825714349746704102e+00 1.083659887313842773e+00 5.790345191955566406e+00 2.062201499938964844e+00 -1.547919213771820068e-01
3.560000000000000000e+03 4.273977661132812500e+01 -1.826450705528259277e+00 4.948777198791503906e+00 -1.041005492210388184e+00 1.172331571578979492e+00 3.574696779251098633e+00
3.561000000000000000e+03 4.257600402832031250e+01 -1.732931017875671387e+00 5.030418395996093750e+00 -1.057396650314331055e+00 1.191906452178955078e+00 3.413406848907470703e+00
3.562000000000000000e+03 4.203524398803710938e+01 -1.537050724029541016e+00 3.952013969421386719e+00 -1.600268244743347168e+00 7.055237293243408203e-01 3.010734796524047852e+00
3.563000000000000000e+03 4.090751647949218750e+01 -1.243952989578247070e+00 1.710523605346679688e+00 -3.912741839885711670e-01 3.957748413085937500e-01 2.317801952362060547e+00
3.564000000000000000e+03 3.200659942626953125e+01 2.032192945480346680e+00 -8.140968680381774902e-01 4.642877578735351562e-01 -1.049427241086959839e-01 -4.573962092399597168e-02
3.565000000000000000e+03 1.722699356079101562e+01 -1.131985545158386230e+00 -1.830422282218933105e-01 1.856452375650405884e-01 7.809054804965853691e-04 -1.461803317070007324e-01
3.566000000000000000e+03 3.018073081970214844e+01 1.258364391326904297e+01 1.442377865314483643e-01 3.899071216583251953e-01 1.602434664964675903e-01 2.463924139738082886e-01
3.567000000000000000e+03 5.505082702636718750e+01 -2.446473693847656250e+01 -8.504124283790588379e-01 7.563346385955810547e+00 2.013880014419555664e+00 1.940645217895507812e+00
3.568000000000000000e+03 1.045945835113525391e+01 2.125620841979980469e+01 1.826886236667633057e-01 4.345766827464103699e-02 6.784388422966003418e-02 1.273779422044754028e-01
3.569000000000000000e+03 6.446369171142578125e+01 -9.100070953369140625e+00 1.004288673400878906e+00 8.044829368591308594e+00 2.714735507965087891e+00 -2.491801977157592773e-01
3.570000000000000000e+03 5.236148834228515625e+01 2.960487174987792969e+01 1.095032215118408203e+00 7.687513828277587891e+00 2.634763956069946289e+00 2.314885556697845459e-01
3.571000000000000000e+03 5.316780090332031250e+01 2.725458526611328125e+01 1.532049059867858887e+00 8.263083457946777344e+00 2.938539743423461914e+00 -1.204758524894714355e+00
3.572000000000000000e+03 5.151659774780273438e+01 2.695953559875488281e+01 1.718502998352050781e+00 6.010035037994384766e+00 2.318561315536499023e+00 -3.902722299098968506e-01
3.573000000000000000e+03 6.159380722045898438e+01 8.554241180419921875e+00 -2.173993438482284546e-01 4.436832904815673828e+00 1.265830159187316895e+00 -1.360175013542175293e+00
3.574000000000000000e+03 6.054971694946289062e+01 1.762359237670898438e+01 3.005354881286621094e+00 9.261340141296386719e+00 3.680008411407470703e+00 3.041760683059692383e+00
3.575000000000000000e+03 6.453769683837890625e+01 6.271504402160644531e+00 -1.860373497009277344e+00 6.804392337799072266e-01 -3.539803028106689453e-01 -2.072389423847198486e-01
3.576000000000000000e+03 2.745036506652832031e+01 2.979184722900390625e+01 1.159701943397521973e+00 8.196685910224914551e-01 5.938111543655395508e-01 -4.999235272407531738e-01
3.577000000000000000e+03 1.253721237182617188e+01 -4.085111999511718750e+01 -4.386029765009880066e-02 1.451604515314102173e-01 3.039004653692245483e-02 -4.328490700572729111e-03
3.578000000000000000e+03 1.465628910064697266e+01 -3.998665237426757812e+01 3.217460587620735168e-02 1.370369940996170044e-01 5.076348036527633667e-02 -6.192081794142723083e-02
3.579000000000000000e+03 1.098089122772216797e+01 -3.879744720458984375e+01 -1.728993840515613556e-02 1.114419400691986084e-01 2.824559994041919708e-02 1.178764738142490387e-02
3.580000000000000000e+03 5.784792709350585938e+01 -3.983760070800781250e+01 -2.205245733261108398e+00 3.654312849044799805e+00 4.347200989723205566e-01 -1.280336380004882812e+00
3.581000000000000000e+03 1.425989913940429688e+01 -3.911735153198242188e+01 1.627458631992340088e-02 1.522534191608428955e-01 5.055839940905570984e-02 -8.456230908632278442e-02
3.582000000000000000e+03 4.043635177612304688e+01 4.324186801910400391e+00 -2.761588692665100098e-01 2.482368946075439453e+00 6.618630290031433105e-01 -1.542188763618469238e+00
3.583000000000000000e+03 5.119821166992187500e+01 -3.507395935058593750e+01 1.351114988327026367e+00 5.777203083038330078e+00 2.138495445251464844e+00 5.719783902168273926e-01
3.584000000000000000e+03 1.279958152770996094e+01 -3.980053710937500000e+01 -2.067518234252929688e-02 1.516031175851821899e-01 3.927838057279586792e-02 -1.300188247114419937e-02
3.585000000000000000e+03 3.607750320434570312e+01 -3.698553848266601562e+01 -2.758457660675048828e-01 2.582946777343750000e+00 6.921302676200866699e-01 9.132847189903259277e-01
3.586000000000000000e+03 6.194724559783935547e+00 2.113739204406738281e+01 7.416491210460662842e-02 -3.820967674255371094e-01 -9.237955510616302490e-02 5.540331453084945679e-02
3.587000000000000000e+03 6.513204956054687500e+01 2.962883186340332031e+01 9.987653493881225586e-01 6.864180088043212891e+00 2.358883619308471680e+00 1.229246735572814941e+00
3.588000000000000000e+03 4.621101760864257812e+01 -1.534537220001220703e+01 -3.217232465744018555e+00 7.453032016754150391e+00 1.270739912986755371e+00 3.213652133941650391e+00
3.589000000000000000e+03 4.090427017211914062e+01 -2.455888938903808594e+01 1.771712541580200195e+00 3.784206151962280273e+00 1.666775584220886230e+00 2.430320978164672852e+00
3.590000000000000000e+03 2.569939994812011719e+01 3.250580215454101562e+01 4.367773234844207764e-01 1.091873407363891602e+00 4.585952162742614746e-01 -2.943142652511596680e-01
3.591000000000000000e+03 2.816482734680175781e+01 -1.350055217742919922e+01 -7.902690768241882324e-01 1.225811481475830078e+00 1.306627392768859863e-01 4.450457990169525146e-01
3.592000000000000000e+03 5.770889663696289062e+01 -1.339387702941894531e+01 2.478292733430862427e-01 4.400075435638427734e+00 1.394371390342712402e+00 -9.069207310676574707e-01
3.593000000000000000e+03 6.798490905761718750e+01 -3.868191528320312500e+01 -1.249104857444763184e+00 5.502543926239013672e+00 1.276031732559204102e+00 -5.311655402183532715e-01
3.594000000000000000e+03 5.715569686889648438e+01 -2.575744628906250000e+01 -1.982512831687927246e+00 7.525739192962646484e+00 1.662967920303344727e+00 1.478699684143066406e+00
3.595000000000000000e+03 2.981117820739746094e+01 -3.026730346679687500e+01 -7.923390716314315796e-02 1.115990042686462402e+00 3.110268414020538330e-01 -2.781725525856018066e-01
3.596000000000000000e+03 2.205704307556152344e+01 2.583717536926269531e+01 3.854613602161407471e-01 8.829554319381713867e-01 3.805250525474548340e-01 4.891719520092010498e-01
3.597000000000000000e+03 3.494830703735351562e+01 -3.135279846191406250e+01 1.157941460609436035e+00 8.631196022033691406e-01 6.063182950019836426e-01 5.553495287895202637e-01
3.598000000000000000e+03 4.106947326660156250e+01 4.034963130950927734e+00 -5.705085992813110352e-01 2.972510576248168945e+00 7.206005454063415527e-01 -2.183101654052734375e+00
3.599000000000000000e+03 5.103862762451171875e+01 -1.340001964569091797e+01 3.499239683151245117e-01 3.599323272705078125e+00 1.184774160385131836e+00 -1.330982446670532227e+00
3.600000000000000000e+03 4.142254257202148438e+01 -2.128126621246337891e+00 3.015602111816406250e+00 -2.417504340410232544e-01 8.321554660797119141e-01 4.048633098602294922e+00
3.601000000000000000e+03 4.347328186035156250e+01 2.021757364273071289e+00 2.720892131328582764e-01 6.046822547912597656e+00 1.895673513412475586e+00 -3.920014858245849609e+00
3.602000000000000000e+03 4.290595245361328125e+01 2.131464004516601562e+00 1.780916452407836914e-01 4.775668144226074219e+00 1.486127853393554688e+00 -3.617387533187866211e+00
3.603000000000000000e+03 6.418536663055419922e+00 3.586437606811523438e+01 7.532781362533569336e-02 -2.814758718013763428e-01 -6.184441596269607544e-02 -2.245118468999862671e-02
3.604000000000000000e+03 1.212440395355224609e+01 -3.822045135498046875e+01 4.248517006635665894e-02 1.734735816717147827e-01 6.478762626647949219e-02 -2.101668901741504669e-02
3.605000000000000000e+03 1.313955307006835938e+01 -3.896124267578125000e+01 -8.174378424882888794e-03 1.986841857433319092e-01 5.715294554829597473e-02 -3.715962171554565430e-02
3.606000000000000000e+03 7.294147491455078125e+01 1.396378993988037109e+01 1.124826312065124512e+00 1.141503715515136719e+01 3.761959075927734375e+00 -9.565030224621295929e-03
3.607000000000000000e+03 4.323649978637695312e+01 -2.857310056686401367e+00 2.058331727981567383e+00 -7.269125580787658691e-01 3.994257450103759766e-01 3.477467060089111328e+00
3.608000000000000000e+03 6.543623352050781250e+01 -3.856820678710937500e+01 -2.002990722656250000e+00 3.947859048843383789e+00 5.834605693817138672e-01 2.738916575908660889e-01
3.609000000000000000e+03 1.364661216735839844e+01 -3.835253906250000000e+01 5.918199196457862854e-02 2.164946943521499634e-01 8.270300924777984619e-02 -8.598016947507858276e-02
3.610000000000000000e+03 4.430976390838623047e+00 -2.649373435974121094e+01 6.421402213163673878e-04 -2.183061838150024414e-01 -6.529921293258666992e-02 -2.086936961859464645e-03
3.611000000000000000e+03 4.183255767822265625e+01 -1.908923268318176270e+00 3.519035100936889648e+00 -1.492224216461181641e+00 6.080432534217834473e-01 3.797266483306884766e+00
3.612000000000000000e+03 4.025720214843750000e+01 -2.031404495239257812e+00 1.605861306190490723e+00 1.046747803688049316e+00 7.957826852798461914e-01 2.838018655776977539e+00
3.613000000000000000e+03 4.016517257690429688e+01 -1.531934976577758789e+00 9.361952543258666992e-01 9.228410720825195312e-01 5.577108860015869141e-01 2.299859762191772461e+00
3.614000000000000000e+03 4.247801971435546875e+01 -2.467765808105468750e+01 1.237532138824462891e+00 2.457181453704833984e+00 1.108414053916931152e+00 2.028430700302124023e+00
3.615000000000000000e+03 6.722069549560546875e+01 2.691903305053710938e+01 1.984845638275146484e+00 4.044066905975341797e+00 1.808673739433288574e+00 7.960410118103027344e-01
3.616000000000000000e+03 1.607205963134765625e+01 3.518806076049804688e+01 4.831617325544357300e-02 3.990461677312850952e-02 2.646623551845550537e-02 1.657831715419888496e-03
3.617000000000000000e+03 6.068292617797851562e+01 -2.228787422180175781e+01 3.037188768386840820e+00 3.969918727874755859e+00 2.102132320404052734e+00 -8.756183385848999023e-01
3.618000000000000000e+03 4.060707092285156250e+01 -1.634001612663269043e+00 1.714955329895019531e+00 1.865004450082778931e-01 5.704367160797119141e-01 2.655423164367675781e+00
3.619000000000000000e+03 4.636682128906250000e+01 3.230813741683959961e-01 5.768065929412841797e+00 8.173420906066894531e+00 4.182446002960205078e+00 -1.559149920940399170e-01
3.620000000000000000e+03 4.382119369506835938e+01 2.090230703353881836e+00 -4.019267857074737549e-02 7.209302902221679688e+00 2.150732994079589844e+00 -3.883143663406372070e+00
3.621000000000000000e+03 4.376435852050781250e+01 2.559152603149414062e+00 -5.618388652801513672e-01 6.884378433227539062e+00 1.896761894226074219e+00 -3.674603700637817383e+00
3.622000000000000000e+03 5.580640411376953125e+01 9.116572380065917969e+00 2.296917915344238281e+00 9.977268218994140625e+00 3.682255744934082031e+00 1.987262248992919922e+00
3.623000000000000000e+03 4.846090316772460938e+01 -5.880903244018554688e+00 3.964999020099639893e-01 1.011240959167480469e+01 3.152672767639160156e+00 -5.755639076232910156e-01
3.624000000000000000e+03 4.676656723022460938e+01 -1.357215762138366699e+00 6.128164291381835938e+00 6.749633312225341797e+00 3.863339185714721680e+00 -3.667336225509643555e+00
3.625000000000000000e+03 4.562140655517578125e+01 1.331909537315368652e+00 1.559501528739929199e+00 9.995809555053710938e+00 3.466593265533447266e+00 -8.889493346214294434e-01
3.626000000000000000e+03 5.152849197387695312e+01 -1.385815262794494629e+00 2.089572906494140625e+00 7.074702739715576172e+00 2.749282598495483398e+00 4.631885290145874023e-01
3.627000000000000000e+03 3.853473281860351562e+01 -1.586815547943115234e+01 -1.356227159500122070e+00 9.693476557731628418e-01 -1.160638555884361267e-01 -3.582062423229217529e-01
3.628000000000000000e+03 3.931299972534179688e+01 -2.964141273498535156e+01 2.648537158966064453e-01 5.909643650054931641e+00 1.852349281311035156e+00 1.638467192649841309e+00
3.629000000000000000e+03 3.424753952026367188e+01 -7.339574337005615234e+00 1.633640527725219727e+00 1.033473849296569824e+00 8.001343011856079102e-01 1.367668271064758301e+00
3.630000000000000000e+03 3.417971801757812500e+01 -5.655032634735107422e+00 1.949574947357177734e+00 4.272490441799163818e-01 7.130472064018249512e-01 5.687247514724731445e-01
3.631000000000000000e+03 3.466990280151367188e+01 -6.668387413024902344e+00 2.249688148498535156e+00 1.206446409225463867e+00 1.036840319633483887e+00 1.316292643547058105e+00
3.632000000000000000e+03 7.800492095947265625e+01 -7.010892391204833984e+00 6.782613992691040039e-01 8.811828613281250000e+00 2.847026824951171875e+00 -1.225204691290855408e-01
3.633000000000000000e+03 7.555386352539062500e+01 -2.072903060913085938e+01 1.204722881317138672e+00 8.733841896057128906e+00 2.981569290161132812e+00 5.458862185478210449e-01
3.634000000000000000e+03 4.587029647827148438e+01 7.712961435317993164e-01 3.749454259872436523e+00 9.851826667785644531e+00 4.080384254455566406e+00 1.590717211365699768e-02
3.635000000000000000e+03 4.321485137939453125e+01 3.461495637893676758e+00 -9.697762131690979004e-01 5.767236709594726562e+00 1.439238071441650391e+00 -3.366458654403686523e+00
3.636000000000000000e+03 4.660660552978515625e+01 5.799654126167297363e-01 4.706532001495361328e+00 7.639998912811279297e+00 3.703959226608276367e+00 -4.099949076771736145e-02
3.637000000000000000e+03 2.301293182373046875e+01 1.526491641998291016e+01 -1.058870926499366760e-01 6.234713196754455566e-01 1.552752554416656494e-01 -6.911765784025192261e-02
3.638000000000000000e+03 1.808999443054199219e+01 3.389561843872070312e+01 7.595729548484086990e-03 1.427501589059829712e-01 4.510376974940299988e-02 -3.918976336717605591e-02
3.639000000000000000e+03 5.264931106567382812e+01 -1.272078323364257812e+01 7.677060961723327637e-01 3.669141054153442383e+00 1.331054091453552246e+00 -3.062875270843505859e+00
3.640000000000000000e+03 6.111780548095703125e+01 -1.909712219238281250e+01 1.913474440574645996e+00 5.838962078094482422e+00 2.325730800628662109e+00 -1.163546442985534668e+00
3.641000000000000000e+03 5.341962051391601562e+01 -1.232618141174316406e+01 8.330194950103759766e-01 4.153658866882324219e+00 1.496003508567810059e+00 -3.476990222930908203e+00
3.642000000000000000e+03 7.449893188476562500e+01 5.315149784088134766e+00 -2.486868053674697876e-01 6.844676017761230469e+00 1.978796720504760742e+00 -5.946922898292541504e-01
3.643000000000000000e+03 3.337087631225585938e+01 3.208566284179687500e+01 -2.869161963462829590e-02 3.150341272354125977e+00 9.364949464797973633e-01 -4.926672875881195068e-01
3.644000000000000000e+03 3.309671020507812500e+01 3.405888748168945312e+01 -4.059162735939025879e-01 2.617475748062133789e+00 6.634678244590759277e-01 -3.563020527362823486e-01
3.645000000000000000e+03 4.893434143066406250e+01 -5.146601200103759766e+00 4.456578791141510010e-01 9.581008911132812500e+00 3.007999897003173828e+00 -1.297044396400451660e+00
3.646000000000000000e+03 3.422708511352539062e+01 -3.596391296386718750e+01 2.720021009445190430e-01 1.788331151008605957e+00 6.180999875068664551e-01 8.119244575500488281e-01
3.647000000000000000e+03 2.560835266113281250e+01 -2.624018669128417969e+01 -8.295657485723495483e-02 1.270679712295532227e+00 3.563169240951538086e-01 4.291731491684913635e-02
3.648000000000000000e+03 7.520436096191406250e+01 -1.442439842224121094e+01 -1.017017841339111328e+00 6.779653549194335938e+00 1.728790640830993652e+00 7.736433744430541992e-01
3.649000000000000000e+03 2.688609504699707031e+01 3.310023880004882812e+01 3.407102227210998535e-01 1.332560181617736816e+00 5.019811391830444336e-01 -4.551825523376464844e-01
3.650000000000000000e+03 3.081223678588867188e+01 -2.985765647888183594e+01 -4.239618405699729919e-02 8.985995054244995117e-01 2.568610012531280518e-01 -3.807038366794586182e-01
3.651000000000000000e+03 3.556380462646484375e+01 -3.465399932861328125e+01 8.153329491615295410e-01 2.313593864440917969e+00 9.386780858039855957e-01 1.271845221519470215e+00
3.652000000000000000e+03 7.082922363281250000e+01 3.469223022460937500e+01 -3.526673838496208191e-02 5.741342544555664062e+00 1.711822748184204102e+00 5.595867633819580078e-01
3.653000000000000000e+03 1.820114517211914062e+01 -2.448009681701660156e+01 2.047763913869857788e-01 2.670464804396033287e-03 6.223405897617340088e-02 1.648295521736145020e-01
3.654000000000000000e+03 5.642261123657226562e+01 1.527089500427246094e+01 1.486792922019958496e+00 7.123436450958251953e+00 2.583068847656250000e+00 3.066539168357849121e-01
3.655000000000000000e+03 3.164583587646484375e+01 3.938442993164062500e+01 -5.113516449928283691e-01 1.927860856056213379e+00 4.249527752399444580e-01 -7.784342858940362930e-03
3.656000000000000000e+03 2.377183341979980469e+01 3.505095672607421875e+01 4.456083849072456360e-02 1.041170001029968262e+00 3.257192373275756836e-01 -2.480477392673492432e-01
3.657000000000000000e+03 2.023531913757324219e+01 3.693921279907226562e+01 5.726721882820129395e-02 6.008818745613098145e-01 1.974447369575500488e-01 -1.727633774280548096e-01
3.658000000000000000e+03 2.565353393554687500e+01 3.377933502197265625e+01 1.736598014831542969e-01 1.274545431137084961e+00 4.344615638256072998e-01 -3.719609379768371582e-01
3.659000000000000000e+03 5.273918533325195312e+01 2.114405250549316406e+01 -1.678559422492980957e+00 4.482519626617431641e+00 8.411880135536193848e-01 -2.239792346954345703e+00
3.660000000000000000e+03 5.892482757568359375e+01 -2.423957061767578125e+01 3.072509765625000000e-01 4.104959011077880859e+00 1.323662996292114258e+00 8.007794022560119629e-01
3.661000000000000000e+03 2.421324539184570312e+01 3.359217834472656250e+01 1.892281323671340942e-01 1.036438465118408203e+00 3.676999807357788086e-01 -2.580733299255371094e-01
3.662000000000000000e+03 4.690752792358398438e+01 6.939359903335571289e-01 4.351179122924804688e+00 7.105870723724365234e+00 3.437114953994750977e+00 -1.433186978101730347e-01
3.663000000000000000e+03 4.616149902343750000e+01 8.788561224937438965e-01 3.679765462875366211e+00 8.901483535766601562e+00 3.774374485015869141e+00 -5.212577059864997864e-03
3.664000000000000000e+03 7.263812255859375000e+01 3.420740127563476562e+01 1.045073345303535461e-01 6.151461124420166016e+00 1.876790523529052734e+00 4.557221829891204834e-01
3.665000000000000000e+03 4.108878707885742188e+01 1.189313793182373047e+01 1.771064043045043945e+00 4.467562675476074219e+00 1.871588110923767090e+00 -9.190387129783630371e-01
3.666000000000000000e+03 6.089373397827148438e+01 -2.113747787475585938e+01 2.936818599700927734e+00 4.929493427276611328e+00 2.359893798828125000e+00 -1.392340779304504395e+00
3.667000000000000000e+03 5.380410003662109375e+01 -3.517298889160156250e+01 7.740430831909179688e-01 7.062564849853515625e+00 2.350982427597045898e+00 4.924210608005523682e-01
3.668000000000000000e+03 4.160042762756347656e+00 -2.777937507629394531e+01 -6.778682582080364227e-03 -2.525992691516876221e-01 -7.781337946653366089e-02 -5.493117030709981918e-03
3.669000000000000000e+03 4.373261260986328125e+01 -3.310856580734252930e+00 -7.548557221889495850e-02 1.213067889213562012e+00 3.412746787071228027e-01 1.883942484855651855e+00
3.670000000000000000e+03 5.810843276977539062e+01 1.735359191894531250e+01 1.511476397514343262e+00 6.366713523864746094e+00 2.363456964492797852e+00 4.209447801113128662e-01
3.671000000000000000e+03 3.555205583572387695e+00 3.230097961425781250e+01 8.834635466337203979e-02 -7.787211537361145020e-01 -2.071124464273452759e-01 8.001541346311569214e-02
3.672000000000000000e+03 6.787447357177734375e+01 -3.332723617553710938e+01 1.416392803192138672e+00 6.819372177124023438e+00 2.470729589462280273e+00 -2.227087497711181641e+00
3.673000000000000000e+03 5.060775756835937500e+01 -1.171166038513183594e+01 1.749882340431213379e+00 5.791252136230468750e+00 2.262340307235717773e+00 -1.012959003448486328e+00
3.674000000000000000e+03 4.212002754211425781e+00 -4.328900337219238281e+00 4.316854756325483322e-03 -6.350793689489364624e-02 -1.775732450187206268e-02 -4.190409556031227112e-02
3.675000000000000000e+03 3.361241912841796875e+01 -5.125288009643554688e+00 1.478789687156677246e+00 -6.593516469001770020e-02 4.238563477993011475e-01 9.976055473089218140e-02
3.676000000000000000e+03 2.897760963439941406e+01 -1.336987686157226562e+01 -7.370346188545227051e-01 1.213714480400085449e+00 1.430039703845977783e-01 5.246964693069458008e-01
3.677000000000000000e+03 6.245806884765625000e+01 -1.248260879516601562e+01 -1.020774483680725098e+00 6.613454818725585938e+00 1.677804112434387207e+00 1.017611980438232422e+00
3.678000000000000000e+03 6.820581817626953125e+01 2.700844383239746094e+01 1.640542507171630859e+00 4.301587104797363281e+00 1.782638907432556152e+00 4.126648306846618652e-01
3.679000000000000000e+03 2.278186607360839844e+01 1.126027202606201172e+01 2.476831674575805664e-01 2.213568687438964844e-01 1.407120078802108765e-01 1.314782351255416870e-01
3.680000000000000000e+03 5.252334594726562500e+01 -1.174426269531250000e+01 1.287082076072692871e+00 4.467220306396484375e+00 1.726290702819824219e+00 -2.775240659713745117e+00
3.681000000000000000e+03 3.179041290283203125e+01 -1.063421630859375000e+01 2.114613354206085205e-01 4.876537322998046875e-01 2.097345143556594849e-01 1.389609813690185547e+00
3.682000000000000000e+03 5.205655288696289062e+01 6.680109351873397827e-02 1.445399045944213867e+00 5.898155212402343750e+00 2.203066110610961914e+00 1.476749539375305176e+00
3.683000000000000000e+03 8.335019111633300781e+00 -3.052928543090820312e+01 2.370574697852134705e-02 -1.848976500332355499e-02 1.564794569276273251e-03 -5.194926634430885315e-02
3.684000000000000000e+03 5.957259368896484375e+01 1.785482978820800781e+01 1.853043556213378906e+00 7.482789516448974609e+00 2.800750017166137695e+00 1.371556758880615234e+00
3.685000000000000000e+03 4.720024490356445312e+01 7.088575959205627441e-01 4.189122200012207031e+00 6.601071834564208984e+00 3.237058162689208984e+00 -3.357085883617401123e-01
3.686000000000000000e+03 4.705498504638671875e+01 9.917095899581909180e-01 3.591287612915039062e+00 6.930198669433593750e+00 3.156445980072021484e+00 -2.943825423717498779e-01
3.687000000000000000e+03 4.599742126464843750e+01 1.735314846038818359e+00 1.111378669738769531e+00 8.841136932373046875e+00 2.985754728317260742e+00 -9.112392067909240723e-01
3.688000000000000000e+03 4.490198516845703125e+01 1.806630492210388184e+00 3.137800469994544983e-02 9.593027114868164062e+00 2.887321710586547852e+00 -2.688096046447753906e+00
3.689000000000000000e+03 4.449031066894531250e+01 2.172513484954833984e+00 -4.002172052860260010e-01 8.614639282226562500e+00 2.464326620101928711e+00 -3.305968523025512695e+00
3.690000000000000000e+03 7.546448516845703125e+01 8.304759025573730469e+00 4.308903217315673828e-01 7.608777523040771484e+00 2.411900281906127930e+00 -8.158916831016540527e-01
3.691000000000000000e+03 4.427705383300781250e+01 -2.451099205017089844e+01 4.287896752357482910e-01 2.700982570648193359e+00 9.389317035675048828e-01 8.493274450302124023e-01
3.692000000000000000e+03 6.346654891967773438e+01 1.028671979904174805e+00 -2.013109773397445679e-01 5.361291885375976562e+00 1.547994256019592285e+00 -6.762844324111938477e-02
3.693000000000000000e+03 6.545224761962890625e+01 2.294416904449462891e+00 1.097294017672538757e-01 3.450003623962402344e+00 1.067919850349426270e+00 1.033466339111328125e+00
3.694000000000000000e+03 4.559416961669921875e+01 4.424924850463867188e+00 -2.061134576797485352e+00 7.112349987030029297e+00 1.515364646911621094e+00 -2.514799118041992188e+00
3.695000000000000000e+03 4.170363235473632812e+01 -2.471825981140136719e+01 1.485055804252624512e+00 2.985904693603515625e+00 1.341288208961486816e+00 2.558540821075439453e+00
3.696000000000000000e+03 4.351049423217773438e+01 -2.367189407348632812e+01 1.223887681961059570e+00 3.211901664733886719e+00 1.330736875534057617e+00 2.055234670639038086e+00
3.697000000000000000e+03 4.851939773559570312e+01 -2.514450073242187500e+00 2.664108991622924805e+00 7.300819873809814453e+00 2.989478588104248047e+00 -3.053719282150268555e+00
3.698000000000000000e+03 4.679769992828369141e+00 -1.061396503448486328e+01 -1.713528670370578766e-02 -1.618988811969757080e-01 -5.371025204658508301e-02 -4.305881634354591370e-02
3.699000000000000000e+03 5.139143753051757812e+01 2.294751358032226562e+01 -6.647903919219970703e-01 4.435619831085205078e+00 1.131248831748962402e+00 -1.271459579467773438e+00
3.700000000000000000e+03 4.944635391235351562e+01 2.534154701232910156e+01 1.386866927146911621e+00 4.630681514739990234e+00 1.805264592170715332e+00 2.571895718574523926e-01
3.701000000000000000e+03 4.599869537353515625e+01 2.164593935012817383e+00 3.389635384082794189e-01 8.301155090332031250e+00 2.592035531997680664e+00 -1.398217082023620605e+00
3.702000000000000000e+03 7.249497985839843750e+01 3.255674362182617188e+01 3.869397938251495361e-01 5.915563106536865234e+00 1.890750885009765625e+00 4.064614176750183105e-01
3.703000000000000000e+03 7.389219665527343750e+01 1.844951438903808594e+01 -1.136287212371826172e+00 7.681945800781250000e+00 1.963697552680969238e+00 4.701342284679412842e-01
3.704000000000000000e+03 5.226846313476562500e+01 2.321629905700683594e+01 -7.587497830390930176e-01 5.056732177734375000e+00 1.289394736289978027e+00 -1.442466020584106445e+00
3.705000000000000000e+03 5.256860733032226562e+01 2.376825714111328125e+01 -4.624252617359161377e-01 5.327778339385986328e+00 1.459605813026428223e+00 -1.265344500541687012e+00
3.706000000000000000e+03 3.214135742187500000e+01 2.762370872497558594e+01 1.131256222724914551e+00 3.128977060317993164e+00 1.278069972991943359e+00 -1.016061305999755859e+00
3.707000000000000000e+03 2.530332756042480469e+01 7.170482158660888672e+00 2.461967617273330688e-01 5.683822184801101685e-02 9.091049432754516602e-02 -6.471027433872222900e-02
3.708000000000000000e+03 2.948004150390625000e+01 -3.310576629638671875e+01 2.959174811840057373e-01 1.142458796501159668e+00 4.315128624439239502e-01 -8.765283972024917603e-02
3.709000000000000000e+03 5.197213745117187500e+01 2.422562789916992188e+01 -9.175464510917663574e-02 5.227988243103027344e+00 1.540870189666748047e+00 -9.143360257148742676e-01
3.710000000000000000e+03 5.103334045410156250e+01 2.365015792846679688e+01 8.340290933847427368e-02 4.551946163177490234e+00 1.390604734420776367e+00 -8.848162889480590820e-01
3.711000000000000000e+03 7.685110473632812500e+01 -3.394565200805664062e+01 1.316242218017578125e-01 7.131623744964599609e+00 2.178974390029907227e+00 -1.068668887019157410e-01
3.712000000000000000e+03 6.730066299438476562e+00 -3.200743913650512695e+00 -6.019395962357521057e-02 -8.461187779903411865e-02 -4.344175010919570923e-02 -1.113836541771888733e-01
3.713000000000000000e+03 4.768916702270507812e+01 -2.259385824203491211e+00 3.446932554244995117e+00 7.033857822418212891e+00 3.144237041473388672e+00 -3.719359874725341797e+00
3.714000000000000000e+03 4.466941452026367188e+01 1.629551053047180176e+00 2.189754843711853027e-01 9.644181251525878906e+00 2.958946943283081055e+00 -3.082585573196411133e+00
3.715000000000000000e+03 2.698219108581542969e+01 -2.745914459228515625e+01 -2.491682022809982300e-01 1.466097474098205566e+00 3.650787770748138428e-01 -2.232413738965988159e-02
3.716000000000000000e+03 4.348306655883789062e+00 -2.896252822875976562e+01 -1.423965860158205032e-02 -2.425623089075088501e-01 -7.704059034585952759e-02 -1.165941264480352402e-02
3.717000000000000000e+03 4.083255290985107422e+00 2.068310356140136719e+01 6.546373665332794189e-02 -6.155527830123901367e-01 -1.650267243385314941e-01 3.807454556226730347e-02
3.718000000000000000e+03 1.237945365905761719e+01 -2.897560310363769531e+01 1.037101596593856812e-01 1.050054579973220825e-01 6.261468678712844849e-02 1.474393717944622040e-02
3.719000000000000000e+03 7.364346313476562500e+01 1.746996879577636719e+01 -9.352829456329345703e-01 8.120980262756347656e+00 2.155709028244018555e+00 5.845717191696166992e-01
3.720000000000000000e+03 7.552394104003906250e+01 -3.280213165283203125e+01 3.471805453300476074e-01 6.603116512298583984e+00 2.085089206695556641e+00 7.475541904568672180e-03
3.721000000000000000e+03 3.106272315979003906e+01 3.353462600708007812e+01 -5.231654644012451172e-02 2.201550245285034180e+00 6.447700858116149902e-01 -5.841553807258605957e-01
3.722000000000000000e+03 7.560256195068359375e+01 1.160018205642700195e+00 -6.022281646728515625e-01 6.608855724334716797e+00 1.801988244056701660e+00 -8.142758607864379883e-01
3.723000000000000000e+03 1.993880081176757812e+01 -2.048935317993164062e+01 2.782265841960906982e-01 3.774198517203330994e-02 9.479056298732757568e-02 -2.079823315143585205e-01
3.724000000000000000e+03 4.505225372314453125e+01 2.976252079010009766e+00 -1.225618958473205566e+00 8.112464904785156250e+00 2.066053867340087891e+00 -2.759624958038330078e+00
3.725000000000000000e+03 4.705094909667968750e+01 1.567722201347351074e+00 2.361159086227416992e+00 7.007081508636474609e+00 2.810472011566162109e+00 -3.550958633422851562e-01
3.726000000000000000e+03 5.417295455932617188e+01 1.801936531066894531e+01 -3.401846587657928467e-01 4.686376571655273438e+00 1.303857564926147461e+00 -1.720920205116271973e+00
3.727000000000000000e+03 5.122561454772949219e+00 1.194942378997802734e+01 -6.236138194799423218e-02 -2.434056848287582397e-01 -9.173011779785156250e-02 4.469607770442962646e-01
3.728000000000000000e+03 4.684007644653320312e+01 2.774576187133789062e+00 -1.412634402513504028e-01 6.696093082427978516e+00 1.966448903083801270e+00 -1.099283218383789062e+00
3.729000000000000000e+03 4.545726013183593750e+01 3.171800136566162109e+00 -1.275527358055114746e+00 7.893608570098876953e+00 1.985424399375915527e+00 -2.397101640701293945e+00
3.730000000000000000e+03 3.843605756759643555e+00 7.981978416442871094e+00 -1.564218550920486450e-01 -6.953105330467224121e-02 -6.778587400913238525e-02 1.707915216684341431e-01
3.731000000000000000e+03 3.867824792861938477e+00 6.743916511535644531e+00 -1.583942472934722900e-01 -4.115963354706764221e-02 -5.986616760492324829e-02 9.123252332210540771e-02
3.732000000000000000e+03 7.550766754150390625e+01 1.898802566528320312e+01 -7.231925725936889648e-01 7.747756958007812500e+00 2.107369422912597656e+00 6.862871646881103516e-01
3.733000000000000000e+03 7.293604850769042969e+00 -3.035746383666992188e+01 7.582133635878562927e-03 -7.380250841379165649e-02 -1.986611261963844299e-02 -5.051470175385475159e-02
3.734000000000000000e+03 5.730202484130859375e+01 1.823730468750000000e+01 1.079244136810302734e+00 5.289826393127441406e+00 1.910721182823181152e+00 -3.394840657711029053e-01
3.735000000000000000e+03 4.819545745849609375e+01 7.141427695751190186e-02 4.331717014312744141e+00 5.588941574096679688e+00 2.976197481155395508e+00 -1.005310177803039551e+00
3.736000000000000000e+03 7.730437755584716797e+00 3.902875423431396484e+00 -1.551631540060043335e-01 -7.354077696800231934e-02 -6.861118227243423462e-02 1.871647499501705170e-02
3.737000000000000000e+03 9.562786102294921875e+00 -5.574178695678710938e+00 3.605560213327407837e-02 -5.648501589894294739e-02 -6.128823384642601013e-03 -1.045729592442512512e-01
3.738000000000000000e+03 3.854049682617187500e+00 5.750854015350341797e+00 -1.163960844278335571e-01 -2.115989662706851959e-02 -4.126679524779319763e-02 3.414480388164520264e-02
3.739000000000000000e+03 7.362884998321533203e+00 -3.823801517486572266e+00 -4.469746723771095276e-02 -9.259524196386337280e-02 -4.118781164288520813e-02 -1.238110437989234924e-01
3.740000000000000000e+03 1.013625335693359375e+01 -4.248262405395507812e+00 -5.335307214409112930e-03 -7.604718208312988281e-02 -2.441474795341491699e-02 -1.142137274146080017e-01
3.741000000000000000e+03 9.793122291564941406e+00 -4.680492401123046875e+00 9.311272762715816498e-03 -4.835330694913864136e-02 -1.171261072158813477e-02 -1.036278754472732544e-01
3.742000000000000000e+03 8.188428878784179688e+00 -5.747676372528076172e+00 -9.977839654311537743e-04 -7.548927515745162964e-02 -2.294611744582653046e-02 -1.094187572598457336e-01
3.743000000000000000e+03 1.115754413604736328e+01 -1.603091955184936523e-01 -3.647593855857849121e-01 -1.926463991403579712e-01 -1.672217398881912231e-01 -8.146063983440399170e-02
3.744000000000000000e+03 1.126386642456054688e+01 -8.940912485122680664e-01 -2.889808714389801025e-01 1.121060699224472046e-01 -5.306244269013404846e-02 -1.138407140970230103e-01
3.745000000000000000e+03 1.049932956695556641e+01 -1.051980972290039062e+00 -2.357168048620223999e-01 -1.800094097852706909e-01 -1.247178614139556885e-01 -1.059410199522972107e-01
3.746000000000000000e+03 1.279222297668457031e+01 -5.713624954223632812e-01 -3.581501245498657227e-01 1.573001742362976074e-01 -6.025498360395431519e-02 -1.476265639066696167e-01
3.747000000000000000e+03 1.264629268646240234e+01 1.541289687156677246e-01 -4.572695493698120117e-01 -2.490445375442504883e-01 -2.118942290544509888e-01 -9.011141955852508545e-02
3.748000000000000000e+03 1.190196800231933594e+01 -3.807745641097426414e-03 -4.074679315090179443e-01 1.602798551321029663e-01 -7.415641844272613525e-02 -1.323865354061126709e-01
3.749000000000000000e+03 1.202809429168701172e+01 -7.334445118904113770e-01 -3.043744266033172607e-01 -2.252427339553833008e-01 -1.588851511478424072e-01 -1.281755715608596802e-01
3.750000000000000000e+03 1.041281127929687500e+01 -3.140535950660705566e-01 -3.350879251956939697e-01 1.198124811053276062e-01 -6.458263099193572998e-02 -9.345851093530654907e-02
3.751000000000000000e+03 9.660583496093750000e+00 -3.871031999588012695e-01 -2.783885002136230469e-01 -1.529435217380523682e-01 -1.293996125459671021e-01 -3.831136226654052734e-02
3.752000000000000000e+03 8.901437759399414062e+00 -3.833611309528350830e-01 -1.969278901815414429e-01 1.144827827811241150e-01 -2.473353035748004913e-02 -3.895478323101997375e-02
3.753000000000000000e+03 8.142838478088378906e+00 -3.822377920150756836e-01 -1.500274538993835449e-01 -1.034636273980140686e-01 -7.604732364416122437e-02 -9.824888780713081360e-03
3.754000000000000000e+03 7.384317874908447266e+00 -3.816416263580322266e-01 -1.042968332767486572e-01 8.351887762546539307e-02 -6.233387626707553864e-03 -2.980234846472740173e-02
3.755000000000000000e+03 6.625857353210449219e+00 -3.809241652488708496e-01 -7.859924435615539551e-02 -7.364084571599960327e-02 -4.567202925682067871e-02 -4.409230023156851530e-04
3.756000000000000000e+03 5.867558479309082031e+00 -3.799938857555389404e-01 -4.716520011425018311e-02 5.942804366350173950e-02 3.678852459415793419e-03 -2.370438724756240845e-02
3.757000000000000000e+03 5.109274387359619141e+00 -3.788675963878631592e-01 -3.446650132536888123e-02 -5.189580470323562622e-02 -2.590869180858135223e-02 4.461449105292558670e-03
3.758000000000000000e+03 4.350872039794921875e+00 -3.776756227016448975e-01 -1.422255113720893860e-02 4.066970199346542358e-02 7.934145629405975342e-03 -1.714926213026046753e-02
3.759000000000000000e+03 3.592402935028076172e+00 -3.764508068561553955e-01 -8.838344365358352661e-03 -3.348473459482192993e-02 -1.269692368805408478e-02 5.129455588757991791e-03
3.760000000000000000e+03 2.834043025970458984e+00 -3.751347661018371582e-01 1.221666811034083366e-03 2.327290549874305725e-02 7.348371669650077820e-03 -9.496182203292846680e-03
3.761000000000000000e+03 2.077167272567749023e+00 -3.747134804725646973e-01 1.448064693249762058e-03 -1.694749481976032257e-02 -4.649829119443893433e-03 4.258493892848491669e-03
3.762000000000000000e+03 1.334073781967163086e+00 -3.800741434097290039e-01 2.342171035706996918e-03 8.807835169136524200e-03 3.345001721754670143e-03 -2.482184208929538727e-03
3.763000000000000000e+03 3.531542122364044189e-01 -9.606399536132812500e-01 2.101521240547299385e-03 8.637098362669348717e-04 8.895693463273346424e-04 -2.773422456812113523e-04
3.764000000000000000e+03 6.561777591705322266e-01 -4.032240808010101318e-01 -1.485638553276658058e-03 -4.072324838489294052e-03 -1.667389064095914364e-03 3.329524537548422813e-03
3.765000000000000000e+03 9.748202323913574219e+00 -1.127103209495544434e+00 -2.059351652860641479e-01 7.535595446825027466e-02 -3.917376324534416199e-02 -9.853279590606689453e-02
3.766000000000000000e+03 9.011062622070312500e+00 -1.123361110687255859e+00 -1.845847964286804199e-01 -1.248950660228729248e-01 -9.284395724534988403e-02 -8.245351165533065796e-02
3.767000000000000000e+03 8.274469375610351562e+00 -1.122237801551818848e+00 -1.409519910812377930e-01 7.918442785739898682e-02 -1.853027008473873138e-02 -6.387104094028472900e-02
3.768000000000000000e+03 7.537953376770019531e+00 -1.121641635894775391e+00 -1.131795719265937805e-01 -8.861317485570907593e-02 -6.053782626986503601e-02 -4.727762565016746521e-02
3.769000000000000000e+03 6.801498889923095703e+00 -1.120924115180969238e+00 -8.244069665670394897e-02 5.994886159896850586e-02 -6.747551728039979935e-03 -4.598153382539749146e-02
3.770000000000000000e+03 6.065205574035644531e+00 -1.119993925094604492e+00 -6.409621983766555786e-02 -6.403078883886337280e-02 -3.843810409307479858e-02 -2.600133046507835388e-02
3.771000000000000000e+03 5.328927040100097656e+00 -1.118867635726928711e+00 -4.311505705118179321e-02 4.324748739600181580e-02 3.972859121859073639e-05 -3.301244974136352539e-02
3.772000000000000000e+03 4.592530727386474609e+00 -1.117675662040710449e+00 -2.952885627746582031e-02 -4.659434035420417786e-02 -2.283695898950099945e-02 -1.229209080338478088e-02
3.773000000000000000e+03 3.856066942214965820e+00 -1.116450786590576172e+00 -2.043453790247440338e-02 3.038012422621250153e-02 2.983675571158528328e-03 -1.957372948527336121e-02
3.774000000000000000e+03 3.119712829589843750e+00 -1.115134716033935547e+00 -9.961029514670372009e-03 -3.160435706377029419e-02 -1.246961578726768494e-02 -4.757096059620380402e-03
3.775000000000000000e+03 2.384842634201049805e+00 -1.114713430404663086e+00 -7.663830183446407318e-03 1.691042818129062653e-02 2.773979445919394493e-03 -7.817239500582218170e-03
3.776000000000000000e+03 1.663754701614379883e+00 -1.120074152946472168e+00 4.000912886112928391e-04 -1.756138168275356293e-02 -5.148387514054775238e-03 4.021687782369554043e-04
3.777000000000000000e+03 1.007864356040954590e+00 -1.143224120140075684e+00 -1.702560402918606997e-04 7.516145240515470505e-03 2.203766722232103348e-03 3.403801529202610254e-04
3.778000000000000000e+03 4.430596542358398438e+01 -6.396970748901367188e-01 2.189563751220703125e+01 1.241187930107116699e+00 6.941047668457031250e+00 4.910875484347343445e-02
3.779000000000000000e+03 4.430317306518554688e+01 -6.589638590812683105e-01 2.531786537170410156e+01 3.043270587921142578e+00 8.508340835571289062e+00 7.238969802856445312e+00
3.780000000000000000e+03 4.430418395996093750e+01 -6.784060597419738770e-01 2.686139297485351562e+01 8.466140747070312500e+00 1.059826087951660156e+01 1.123078250885009766e+01
3.781000000000000000e+03 4.430895996093750000e+01 -6.972796320915222168e-01 2.625140190124511719e+01 1.365255928039550781e+01 1.197118854522705078e+01 1.442686748504638672e+01
3.782000000000000000e+03 4.431731796264648438e+01 -7.148623466491699219e-01 2.546683692932128906e+01 2.118168640136718750e+01 1.399455738067626953e+01 1.593764781951904297e+01
3.783000000000000000e+03 4.432894134521484375e+01 -7.304813861846923828e-01 2.267289543151855469e+01 2.721575355529785156e+01 1.496659469604492188e+01 1.648319435119628906e+01
3.784000000000000000e+03 4.434337997436523438e+01 -7.435389757156372070e-01 2.098068428039550781e+01 3.418660354614257812e+01 1.655018615722656250e+01 1.489777755737304688e+01
3.785000000000000000e+03 4.436008453369140625e+01 -7.535354495048522949e-01 1.820046615600585938e+01 3.910215759277343750e+01 1.719078636169433594e+01 1.226106166839599609e+01
3.786000000000000000e+03 4.437841796875000000e+01 -7.600882053375244141e-01 1.733219528198242188e+01 4.292388916015625000e+01 1.807682418823242188e+01 8.368593215942382812e+00
3.787000000000000000e+03 4.439767456054687500e+01 -7.629466056823730469e-01 1.703495788574218750e+01 4.459482192993164062e+01 1.848893356323242188e+01 4.005043983459472656e+00
3.788000000000000000e+03 4.441711807250976562e+01 -7.620011568069458008e-01 1.809702873229980469e+01 4.441584014892578125e+01 1.875386047363281250e+01 -1.485272049903869629e-01
3.789000000000000000e+03 4.443600845336914062e+01 -7.572881579399108887e-01 2.052076721191406250e+01 4.278940582275390625e+01 1.899305152893066406e+01 -3.556185722351074219e+00
3.790000000000000000e+03 4.445362091064453125e+01 -7.489877939224243164e-01 2.312833976745605469e+01 3.981211090087890625e+01 1.888213539123535156e+01 -5.931962013244628906e+00
3.791000000000000000e+03 4.446927642822265625e+01 -7.374178767204284668e-01 2.649227714538574219e+01 3.680550384521484375e+01 1.898933410644531250e+01 -6.823320865631103516e+00
3.792000000000000000e+03 4.448238372802734375e+01 -7.230210304260253906e-01 2.946355056762695312e+01 3.346297454833984375e+01 1.887795829772949219e+01 -6.593360424041748047e+00
3.793000000000000000e+03 4.449243545532226562e+01 -7.063482999801635742e-01 3.197573280334472656e+01 3.089800643920898438e+01 1.886212158203125000e+01 -5.260792255401611328e+00
3.794000000000000000e+03 4.449904632568359375e+01 -6.880376935005187988e-01 3.383816528320312500e+01 2.920530319213867188e+01 1.891304016113281250e+01 -3.065252065658569336e+00
3.795000000000000000e+03 4.450197219848632812e+01 -6.687899231910705566e-01 3.469508743286132812e+01 2.844602394104003906e+01 1.894233322143554688e+01 -3.992458283901214600e-01
3.796000000000000000e+03 4.450109100341796875e+01 -6.493415236473083496e-01 3.459375381469726562e+01 2.908041954040527344e+01 1.910225296020507812e+01 2.490431785583496094e+00
3.797000000000000000e+03 4.449643707275390625e+01 -6.304367184638977051e-01 3.328084564208984375e+01 3.065800476074218750e+01 1.918165588378906250e+01 5.143226146697998047e+00
3.798000000000000000e+03 4.448819732666015625e+01 -6.127989888191223145e-01 3.098054122924804688e+01 3.361339950561523438e+01 1.937818336486816406e+01 7.178078174591064453e+00
3.799000000000000000e+03 4.447668075561523438e+01 -5.971033573150634766e-01 2.766078567504882812e+01 3.707684707641601562e+01 1.942129135131835938e+01 8.224691390991210938e+00
3.800000000000000000e+03 4.446232604980468750e+01 -5.839503407478332520e-01 2.387401199340820312e+01 4.105035018920898438e+01 1.947730827331542969e+01 7.863741397857666016e+00
3.801000000000000000e+03 4.444568634033203125e+01 -5.738433599472045898e-01 1.993072319030761719e+01 4.458546447753906250e+01 1.935485649108886719e+01 6.040347576141357422e+00
3.802000000000000000e+03 4.442739868164062500e+01 -5.671691298484802246e-01 1.648317909240722656e+01 4.718826293945312500e+01 1.910143280029296875e+01 2.764033079147338867e+00
3.803000000000000000e+03 4.440816116333007812e+01 -5.641830563545227051e-01 1.405646991729736328e+01 4.823349761962890625e+01 1.868699073791503906e+01 -1.621510744094848633e+00
3.804000000000000000e+03 4.438871002197265625e+01 -5.649994611740112305e-01 1.272874259948730469e+01 4.717204666137695312e+01 1.797023582458496094e+01 -6.500810146331787109e+00
3.805000000000000000e+03 4.436978912353515625e+01 -5.695871114730834961e-01 1.317618656158447266e+01 4.406063461303710938e+01 1.717104721069335938e+01 -1.129760837554931641e+01
3.806000000000000000e+03 4.435212326049804688e+01 -5.777703523635864258e-01 1.441185092926025391e+01 3.873961639404296875e+01 1.594544029235839844e+01 -1.527737331390380859e+01
3.807000000000000000e+03 4.433639144897460938e+01 -5.892361402511596680e-01 1.732872200012207031e+01 3.174638938903808594e+01 1.472253417968750000e+01 -1.785961914062500000e+01
3.808000000000000000e+03 4.432318878173828125e+01 -6.035456061363220215e-01 2.017225456237792969e+01 2.337266540527343750e+01 1.306347656250000000e+01 -1.865996932983398438e+01
3.809000000000000000e+03 4.431302642822265625e+01 -6.201512813568115234e-01 2.582668876647949219e+01 1.238593578338623047e+01 1.146378707885742188e+01 -1.588652324676513672e+01
