# el_label, x, y, sXX, sYY, sZZ, sXY
1.000000000000000000e+00 4.130008697509765625e+01 4.567074775695800781e-01 -4.285633563995361328e+00 -3.531226217746734619e-01 -1.391626834869384766e+00 -7.352014183998107910e-01
2.000000000000000000e+00 4.111281585693359375e+01 5.241333842277526855e-01 8.324587345123291016e-01 1.745615601539611816e-01 3.021060824394226074e-01 3.343168795108795166e-01
3.000000000000000000e+00 4.092554473876953125e+01 5.915593504905700684e-01 -2.923559546470642090e-01 -2.624037861824035645e-01 -1.664279252290725708e-01 4.699154198169708252e-02
4.000000000000000000e+00 4.073827362060546875e+01 6.589853167533874512e-01 -3.357344269752502441e-01 -1.475002914667129517e-01 -1.449704170227050781e-01 3.595165014266967773e-01
5.000000000000000000e+00 4.128576278686523438e+01 4.000463783740997314e-01 6.439401626586914062e+00 -8.364424109458923340e-01 1.680887818336486816e+00 -3.118026971817016602e+00
6.000000000000000000e+00 4.108894729614257812e+01 4.296982586383819580e-01 3.005703210830688477e+00 1.325698941946029663e-01 9.414818882942199707e-01 -5.891730785369873047e-01
7.000000000000000000e+00 4.089212799072265625e+01 4.593501389026641846e-01 3.407742023468017578e+00 -2.627105116844177246e-01 9.435094594955444336e-01 -4.589488357305526733e-02
8.000000000000000000e+00 4.069530868530273438e+01 4.890020489692687988e-01 2.289170026779174805e+00 -2.277521938085556030e-01 6.184253692626953125e-01 -4.787237197160720825e-02
9.000000000000000000e+00 4.128275680541992188e+01 3.416810333728790283e-01 1.365654468536376953e+01 -1.018179655075073242e+00 3.791509628295898438e+00 -3.391911983489990234e-01
1.000000000000000000e+01 4.108393096923828125e+01 3.324226438999176025e-01 8.286499977111816406e+00 -7.627968788146972656e-01 2.257110834121704102e+00 -2.521213889122009277e-01
1.100000000000000000e+01 4.088510894775390625e+01 3.231642544269561768e-01 6.007581233978271484e+00 -1.759076118469238281e-01 1.749502062797546387e+00 4.458867609500885010e-01
1.200000000000000000e+01 4.068628311157226562e+01 3.139059245586395264e-01 5.254509449005126953e+00 -5.302764177322387695e-01 1.417269825935363770e+00 6.840842366218566895e-01
1.300000000000000000e+01 4.129117584228515625e+01 2.838477790355682373e-01 1.831233406066894531e+01 -5.350017920136451721e-02 5.477649688720703125e+00 3.274297237396240234e+00
1.400000000000000000e+01 4.109796524047851562e+01 2.360339164733886719e-01 1.187328338623046875e+01 -3.372153639793395996e-01 3.460820436477661133e+00 2.153756618499755859e+00
1.500000000000000000e+01 4.090475463867187500e+01 1.882200539112091064e-01 9.267403602600097656e+00 -3.105484843254089355e-01 2.687056541442871094e+00 1.973808407783508301e+00
1.600000000000000000e+01 4.071154022216796875e+01 1.404061913490295410e-01 7.370027065277099609e+00 -1.819660812616348267e-01 2.156418323516845703e+00 2.031963586807250977e+00
1.700000000000000000e+01 4.131069946289062500e+01 2.287627309560775757e-01 2.023007583618164062e+01 2.571596145629882812e+00 6.840501308441162109e+00 7.385734558105468750e+00
1.800000000000000000e+01 4.113050460815429688e+01 1.442255079746246338e-01 1.417688274383544922e+01 1.234348893165588379e+00 4.623369693756103516e+00 4.999584197998046875e+00
1.900000000000000000e+01 4.095030975341796875e+01 5.968827381730079651e-02 1.098900032043457031e+01 6.870811581611633301e-01 3.502824306488037109e+00 4.212486267089843750e+00
2.000000000000000000e+01 4.077011489868164062e+01 -2.484895475208759308e-02 9.321566581726074219e+00 5.177990794181823730e-01 2.951809644699096680e+00 3.984017372131347656e+00
2.100000000000000000e+01 4.134057998657226562e+01 1.785366088151931763e-01 2.025011444091796875e+01 6.876547813415527344e+00 8.137998580932617188e+00 1.076908779144287109e+01
2.200000000000000000e+01 4.118030548095703125e+01 6.051528826355934143e-02 1.456830883026123047e+01 3.858671665191650391e+00 5.528094291687011719e+00 7.724214076995849609e+00
2.300000000000000000e+01 4.102003097534179688e+01 -5.750602483749389648e-02 1.181479167938232422e+01 2.852291345596313477e+00 4.400124549865722656e+00 6.452661514282226562e+00
2.400000000000000000e+01 4.085976028442382812e+01 -1.755273342132568359e-01 9.758736610412597656e+00 2.013093471527099609e+00 3.531548976898193359e+00 5.819386959075927734e+00
2.500000000000000000e+01 4.137967681884765625e+01 1.350939571857452393e-01 1.836226081848144531e+01 1.185513305664062500e+01 9.065218925476074219e+00 1.299186515808105469e+01
2.600000000000000000e+01 4.124546432495117188e+01 -1.188912708312273026e-02 1.405034828186035156e+01 7.692267417907714844e+00 6.522784709930419922e+00 9.520703315734863281e+00
2.700000000000000000e+01 4.111125183105468750e+01 -1.588722020387649536e-01 1.120052146911621094e+01 5.539845466613769531e+00 5.022109985351562500e+00 8.228594779968261719e+00
2.800000000000000000e+01 4.097703933715820312e+01 -3.058553040027618408e-01 9.495906829833984375e+00 4.698197364807128906e+00 4.258231163024902344e+00 7.301822662353515625e+00
2.900000000000000000e+01 4.142648315429687500e+01 1.000994071364402771e-01 1.618311119079589844e+01 1.750551986694335938e+01 1.010658931732177734e+01 1.335627460479736328e+01
3.000000000000000000e+01 4.132347488403320312e+01 -7.021336257457733154e-02 1.231520748138427734e+01 1.160362911224365234e+01 7.175651073455810547e+00 1.036901569366455078e+01
3.100000000000000000e+01 4.122046661376953125e+01 -2.405261397361755371e-01 1.028335762023925781e+01 9.029871940612792969e+00 5.793968677520751953e+00 8.869905471801757812e+00
3.200000000000000000e+01 4.111746215820312500e+01 -4.108389317989349365e-01 8.336615562438964844e+00 7.335440158843994141e+00 4.701616764068603516e+00 8.244084358215332031e+00
3.300000000000000000e+01 4.147920989990234375e+01 7.489388436079025269e-02 1.350900173187255859e+01 2.238434791564941406e+01 1.076800537109375000e+01 1.220188617706298828e+01
3.400000000000000000e+01 4.141135406494140625e+01 -1.122225672006607056e-01 1.091621112823486328e+01 1.565880107879638672e+01 7.972503662109375000e+00 9.806825637817382812e+00
3.500000000000000000e+01 4.134350204467773438e+01 -2.993390262126922607e-01 8.611545562744140625e+00 1.228400611877441406e+01 6.268665790557861328e+00 8.635700225830078125e+00
3.600000000000000000e+01 4.127564620971679688e+01 -4.864555001258850098e-01 7.502346992492675781e+00 1.017942333221435547e+01 5.304531097412109375e+00 7.891065597534179688e+00
3.700000000000000000e+01 4.153583908081054688e+01 6.044320389628410339e-02 1.211643505096435547e+01 2.631704139709472656e+01 1.153004264831542969e+01 9.714272499084472656e+00
3.800000000000000000e+01 4.150573730468750000e+01 -1.363070309162139893e-01 9.313599586486816406e+00 1.896106719970703125e+01 8.482399940490722656e+00 8.226042747497558594e+00
3.900000000000000000e+01 4.147563552856445312e+01 -3.330572843551635742e-01 7.682195663452148438e+00 1.520991230010986328e+01 6.867632389068603516e+00 7.300802707672119141e+00
4.000000000000000000e+01 4.144552993774414062e+01 -5.298075079917907715e-01 6.236018657684326172e+00 1.262115001678466797e+01 5.657150745391845703e+00 6.635861873626708984e+00
4.100000000000000000e+01 4.159419631958007812e+01 5.730108544230461121e-02 1.154976463317871094e+01 2.867587661743164062e+01 1.206769180297851562e+01 6.459509372711181641e+00
4.200000000000000000e+01 4.160300064086914062e+01 -1.415438950061798096e-01 8.753529548645019531e+00 2.132499694824218750e+01 9.023557662963867188e+00 5.941115856170654297e+00
4.300000000000000000e+01 4.161180114746093750e+01 -3.403888940811157227e-01 6.998356342315673828e+00 1.729800224304199219e+01 7.288907527923583984e+00 5.221784591674804688e+00
4.400000000000000000e+01 4.162060546875000000e+01 -5.392338633537292480e-01 5.751707553863525391e+00 1.461349678039550781e+01 6.109560966491699219e+00 4.765256881713867188e+00
4.500000000000000000e+01 4.165205001831054688e+01 6.558792293071746826e-02 1.216821765899658203e+01 2.949042320251464844e+01 1.249759197235107422e+01 3.308126926422119141e+00
4.600000000000000000e+01 4.169942092895507812e+01 -1.277325004339218140e-01 9.138814926147460938e+00 2.251899337768554688e+01 9.497342109680175781e+00 3.260782480239868164e+00
4.700000000000000000e+01 4.174679183959960938e+01 -3.210529386997222900e-01 7.080235958099365234e+00 1.840526580810546875e+01 7.645650863647460938e+00 2.901985406875610352e+00
4.800000000000000000e+01 4.179416275024414062e+01 -5.143733620643615723e-01 6.018882274627685547e+00 1.566408824920654297e+01 6.504890918731689453e+00 2.628237009048461914e+00
4.900000000000000000e+01 4.170718002319335938e+01 8.498618751764297485e-02 1.420359325408935547e+01 2.909245109558105469e+01 1.298881340026855469e+01 6.351729631423950195e-01
5.000000000000000000e+01 4.179130554199218750e+01 -9.540206193923950195e-02 1.003231716156005859e+01 2.248871612548828125e+01 9.756309509277343750e+00 7.985961437225341797e-01
5.100000000000000000e+01 4.187542724609375000e+01 -2.757903039455413818e-01 8.347885131835937500e+00 1.858511543273925781e+01 8.079899787902832031e+00 7.188988327980041504e-01
5.200000000000000000e+01 4.195955276489257812e+01 -4.561785757541656494e-01 6.699167728424072266e+00 1.564603424072265625e+01 6.703560829162597656e+00 4.871824085712432861e-01
5.300000000000000000e+01 4.175747299194335938e+01 1.147525757551193237e-01 1.622880935668945312e+01 2.757411766052246094e+01 1.314087772369384766e+01 -1.225755333900451660e+00
5.400000000000000000e+01 4.187512588500976562e+01 -4.579140990972518921e-02 1.222752857208251953e+01 2.171643066406250000e+01 1.018318748474121094e+01 -9.311439394950866699e-01
5.500000000000000000e+01 4.199278259277343750e+01 -2.063353955745697021e-01 9.662012100219726562e+00 1.773375701904296875e+01 8.218730926513671875e+00 -1.084002256393432617e+00
5.600000000000000000e+01 4.211043548583984375e+01 -3.668794035911560059e-01 8.486295700073242188e+00 1.524791431427001953e+01 7.120263099670410156e+00 -1.098031044006347656e+00
5.700000000000000000e+01 4.180100631713867188e+01 1.537465155124664307e-01 1.906848907470703125e+01 2.599428367614746094e+01 1.351883220672607422e+01 -1.858286261558532715e+00
5.800000000000000000e+01 4.194767761230468750e+01 1.919847913086414337e-02 1.415295410156250000e+01 2.002449417114257812e+01 1.025323486328125000e+01 -1.979025363922119141e+00
5.900000000000000000e+01 4.209435653686523438e+01 -1.153495535254478455e-01 1.187987327575683594e+01 1.668044090270996094e+01 8.568094253540039062e+00 -1.858517646789550781e+00
6.000000000000000000e+01 4.224103164672851562e+01 -2.498975843191146851e-01 9.931623458862304688e+00 1.406922817230224609e+01 7.200255393981933594e+00 -2.081151962280273438e+00
6.100000000000000000e+01 4.183610534667968750e+01 2.004738301038742065e-01 2.108876800537109375e+01 2.392839622497558594e+01 1.350514984130859375e+01 -1.713754892349243164e+00
6.200000000000000000e+01 4.200618362426757812e+01 9.707733988761901855e-02 1.653376960754394531e+01 1.862142372131347656e+01 1.054655838012695312e+01 -1.791339635848999023e+00
6.300000000000000000e+01 4.217625808715820312e+01 -6.319151725620031357e-03 1.354207420349121094e+01 1.509450054168701172e+01 8.590971946716308594e+00 -1.973255395889282227e+00
6.400000000000000000e+01 4.234633636474609375e+01 -1.097156405448913574e-01 1.184168338775634766e+01 1.297932624816894531e+01 7.446302890777587891e+00 -1.935950160026550293e+00
6.500000000000000000e+01 4.186143493652343750e+01 2.531444430351257324e-01 2.302813148498535156e+01 2.274709320068359375e+01 1.373256778717041016e+01 -4.865500032901763916e-01
6.600000000000000000e+01 4.204839324951171875e+01 1.848616898059844971e-01 1.793987464904785156e+01 1.697625160217285156e+01 1.047483825683593750e+01 -9.400530457496643066e-01
6.700000000000000000e+01 4.223535537719726562e+01 1.165789440274238586e-01 1.516964435577392578e+01 1.418689632415771484e+01 8.806962013244628906e+00 -9.892453551292419434e-01
6.800000000000000000e+01 4.242231369018554688e+01 4.829618707299232483e-02 1.304400348663330078e+01 1.177970695495605469e+01 7.447113513946533203e+00 -1.382541179656982422e+00
6.900000000000000000e+01 4.187601470947265625e+01 3.097401559352874756e-01 2.372299957275390625e+01 2.149841880798339844e+01 1.356642532348632812e+01 1.159098744392395020e+00
7.000000000000000000e+01 4.207269287109375000e+01 2.791878879070281982e-01 1.884816741943359375e+01 1.657319641113281250e+01 1.062640857696533203e+01 7.951735854148864746e-01
7.100000000000000000e+01 4.226937484741210938e+01 2.486356198787689209e-01 1.570775794982910156e+01 1.324588584899902344e+01 8.686093330383300781e+00 3.046550452709197998e-01
7.200000000000000000e+01 4.246605682373046875e+01 2.180833518505096436e-01 1.374960803985595703e+01 1.167539024353027344e+01 7.627499580383300781e+00 4.013780131936073303e-02
7.300000000000000000e+01 4.187928771972656250e+01 3.680919706821441650e-01 2.371234512329101562e+01 2.173941802978515625e+01 1.363552951812744141e+01 3.277679920196533203e+00
7.400000000000000000e+01 4.207815170288085938e+01 3.764409124851226807e-01 1.842140769958496094e+01 1.628586387634277344e+01 1.041218090057373047e+01 2.646375894546508789e+00
7.500000000000000000e+01 4.227701568603515625e+01 3.847898542881011963e-01 1.546421527862548828e+01 1.374650669097900391e+01 8.763216972351074219e+00 2.021638631820678711e+00
7.600000000000000000e+01 4.247588348388671875e+01 3.931388258934020996e-01 1.336652755737304688e+01 1.149110412597656250e+01 7.457289218902587891e+00 1.500332355499267578e+00
7.700000000000000000e+01 4.187113571166992188e+01 4.259639084339141846e-01 2.229695701599121094e+01 2.218347930908203125e+01 1.334413146972656250e+01 5.341305732727050781e+00
7.800000000000000000e+01 4.206456375122070312e+01 4.728941321372985840e-01 1.709402275085449219e+01 1.750797271728515625e+01 1.038059902191162109e+01 4.379611492156982422e+00
7.900000000000000000e+01 4.225798797607421875e+01 5.198243856430053711e-01 1.408033847808837891e+01 1.433778190612792969e+01 8.525436401367187500e+00 3.525210618972778320e+00
8.000000000000000000e+01 4.245141983032226562e+01 5.667545795440673828e-01 1.218059062957763672e+01 1.260241317749023438e+01 7.434901237487792969e+00 2.885387420654296875e+00
8.100000000000000000e+01 4.185186386108398438e+01 4.811383783817291260e-01 1.996026802062988281e+01 2.400944328308105469e+01 1.319091320037841797e+01 6.923552036285400391e+00
8.200000000000000000e+01 4.203244018554687500e+01 5.648515820503234863e-01 1.465593433380126953e+01 1.887348556518554688e+01 1.005882549285888672e+01 5.550421237945556641e+00
8.300000000000000000e+01 4.221302032470703125e+01 6.485647559165954590e-01 1.198094940185546875e+01 1.602393150329589844e+01 8.401463508605957031e+00 4.497825622558593750e+00
8.400000000000000000e+01 4.239360046386718750e+01 7.322779893875122070e-01 1.019667434692382812e+01 1.375361251831054688e+01 7.185085773468017578e+00 3.744810581207275391e+00
8.500000000000000000e+01 4.182220840454101562e+01 5.315011143684387207e-01 1.653451919555664062e+01 2.611324501037597656e+01 1.279432868957519531e+01 7.675417423248291016e+00
8.600000000000000000e+01 4.198302078247070312e+01 6.487895250320434570e-01 1.170669555664062500e+01 2.093545341491699219e+01 9.792644500732421875e+00 5.773902893066406250e+00
8.700000000000000000e+01 4.214382934570312500e+01 7.660779356956481934e-01 9.311205863952636719e+00 1.758621215820312500e+01 8.069225311279296875e+00 4.679238796234130859e+00
8.800000000000000000e+01 4.230464172363281250e+01 8.833662867546081543e-01 7.785177707672119141e+00 1.553226947784423828e+01 6.995234012603759766e+00 3.879582643508911133e+00
8.900000000000000000e+01 4.178331375122070312e+01 5.751223564147949219e-01 1.264480209350585938e+01 2.859821510314941406e+01 1.237290477752685547e+01 7.154508113861083984e+00
9.000000000000000000e+01 4.191819381713867188e+01 7.214915752410888672e-01 8.545577049255371094e+00 2.267159652709960938e+01 9.365152359008789062e+00 4.954721927642822266e+00
9.100000000000000000e+01 4.205307769775390625e+01 8.678607344627380371e-01 6.522361278533935547e+00 1.920576095581054688e+01 7.718436717987060547e+00 3.912819147109985352e+00
9.200000000000000000e+01 4.218795776367187500e+01 1.014229893684387207e+00 5.372526645660400391e+00 1.685625457763671875e+01 6.668634414672851562e+00 3.181344747543334961e+00
9.300000000000000000e+01 4.173666381835937500e+01 6.103305220603942871e-01 8.866373062133789062e+00 3.060772705078125000e+01 1.184222984313964844e+01 5.245043754577636719e+00
9.400000000000000000e+01 4.184044647216796875e+01 7.801718115806579590e-01 5.600214958190917969e+00 2.387745475769042969e+01 8.843300819396972656e+00 3.124181270599365234e+00
9.500000000000000000e+01 4.194422912597656250e+01 9.500131011009216309e-01 4.174412250518798828e+00 2.009599113464355469e+01 7.281121253967285156e+00 2.270101308822631836e+00
9.600000000000000000e+01 4.204801177978515625e+01 1.119854450225830078e+00 3.074230670928955078e+00 1.772190284729003906e+01 6.238839626312255859e+00 1.736296772956848145e+00
9.700000000000000000e+01 4.168405151367187500e+01 6.357765197753906250e-01 5.584782600402832031e+00 3.150697326660156250e+01 1.112752723693847656e+01 2.108920335769653320e+00
9.800000000000000000e+01 4.175275802612304688e+01 8.225817680358886719e-01 3.602695226669311523e+00 2.399734878540039062e+01 8.280013084411621094e+00 5.263102650642395020e-01
9.900000000000000000e+01 4.182146453857421875e+01 1.009387016296386719e+00 2.253162860870361328e+00 2.007660675048828125e+01 6.698930740356445312e+00 4.552181065082550049e-02
1.000000000000000000e+02 4.189017105102539062e+01 1.196192383766174316e+00 1.676228761672973633e+00 1.757803726196289062e+01 5.776279926300048828e+00 -2.154082357883453369e-01
1.010000000000000000e+02 4.162749099731445312e+01 6.504852175712585449e-01 3.861982107162475586e+00 3.080928039550781250e+01 1.040137863159179688e+01 -1.782061815261840820e+00
1.020000000000000000e+02 4.165848922729492188e+01 8.470962643623352051e-01 2.277991294860839844e+00 2.272095108032226562e+01 7.499682903289794922e+00 -2.398430347442626953e+00
1.030000000000000000e+02 4.168948745727539062e+01 1.043707370758056641e+00 1.591056466102600098e+00 1.882940673828125000e+01 6.126138687133789062e+00 -2.322560071945190430e+00
1.040000000000000000e+02 4.172048568725585938e+01 1.240318417549133301e+00 6.993402838706970215e-01 1.646906089782714844e+01 5.150520324707031250e+00 -2.299625873565673828e+00
1.050000000000000000e+02 4.156914520263671875e+01 6.538930535316467285e-01 3.205737113952636719e+00 2.798839569091796875e+01 9.358240127563476562e+00 -5.772418975830078125e+00
1.060000000000000000e+02 4.156124877929687500e+01 8.527759909629821777e-01 2.467613220214843750e+00 2.006854438781738281e+01 6.760847568511962891e+00 -4.995853424072265625e+00
1.070000000000000000e+02 4.155334854125976562e+01 1.051658987998962402e+00 1.403921246528625488e+00 1.637269973754882812e+01 5.332986354827880859e+00 -4.458585739135742188e+00
1.080000000000000000e+02 4.154545211791992188e+01 1.250541925430297852e+00 9.764260053634643555e-01 1.426567935943603516e+01 4.572631835937500000e+00 -3.926401376724243164e+00
1.090000000000000000e+02 4.151125717163085938e+01 6.458693742752075195e-01 4.435626506805419922e+00 2.340072441101074219e+01 8.350905418395996094e+00 -8.808875083923339844e+00
1.100000000000000000e+02 4.146476364135742188e+01 8.394032716751098633e-01 3.027651071548461914e+00 1.601722335815429688e+01 5.713462352752685547e+00 -6.928569316864013672e+00
1.110000000000000000e+02 4.141827392578125000e+01 1.032937169075012207e+00 2.413026332855224609e+00 1.302332401275634766e+01 4.630905151367187500e+00 -5.624825477600097656e+00
1.120000000000000000e+02 4.137178039550781250e+01 1.226471066474914551e+00 1.343991398811340332e+00 1.129850482940673828e+01 3.792748689651489258e+00 -5.019627571105957031e+00
1.130000000000000000e+02 4.145603942871093750e+01 6.267217397689819336e-01 6.108132362365722656e+00 1.696459960937500000e+01 6.921819686889648438e+00 -1.055520057678222656e+01
1.140000000000000000e+02 4.137273406982421875e+01 8.074905276298522949e-01 4.438889026641845703e+00 1.132803058624267578e+01 4.730075836181640625e+00 -7.235867500305175781e+00
1.150000000000000000e+02 4.128943252563476562e+01 9.882593154907226562e-01 3.132267713546752930e+00 9.154168128967285156e+00 3.685930728912353516e+00 -5.954584598541259766e+00
1.160000000000000000e+02 4.120612716674804688e+01 1.169028043746948242e+00 2.408844470977783203e+00 8.142816543579101562e+00 3.165498495101928711e+00 -4.913685321807861328e+00
1.170000000000000000e+02 4.140560913085937500e+01 5.971837639808654785e-01 7.846112251281738281e+00 1.008275413513183594e+01 5.378659725189208984e+00 -9.804162025451660156e+00
1.180000000000000000e+02 4.128868484497070312e+01 7.582606077194213867e-01 5.342972278594970703e+00 6.307018280029296875e+00 3.494997262954711914e+00 -6.379604339599609375e+00
1.190000000000000000e+02 4.117176055908203125e+01 9.193374514579772949e-01 3.719836950302124023e+00 5.656740665435791016e+00 2.812973260879516602e+00 -4.648880958557128906e+00
1.200000000000000000e+02 4.105484008789062500e+01 1.080414295196533203e+00 2.655005216598510742e+00 5.212349891662597656e+00 2.360206604003906250e+00 -4.267132759094238281e+00
1.210000000000000000e+02 4.136190032958984375e+01 5.583873987197875977e-01 8.614129066467285156e+00 2.531295061111450195e+00 3.343627214431762695e+00 -6.924828052520751953e+00
1.220000000000000000e+02 4.121583557128906250e+01 6.935999989509582520e-01 4.520610809326171875e+00 2.843351364135742188e+00 2.209188699722290039e+00 -3.504920959472656250e+00
1.230000000000000000e+02 4.106977462768554688e+01 8.288125395774841309e-01 3.454623222351074219e+00 3.261840820312500000e+00 2.014939308166503906e+00 -3.438531398773193359e+00
1.240000000000000000e+02 4.092370986938476562e+01 9.640251398086547852e-01 2.616225481033325195e+00 2.270227909088134766e+00 1.465935945510864258e+00 -2.691670656204223633e+00
1.250000000000000000e+02 4.132658386230468750e+01 5.118192434310913086e-01 3.214072704315185547e+00 -2.105691432952880859e+00 3.325143456459045410e-01 -8.708754181861877441e-01
1.260000000000000000e+02 4.115697860717773438e+01 6.159864068031311035e-01 3.288683414459228516e+00 2.126913547515869141e+00 1.624679088592529297e+00 -2.075657606124877930e+00
1.270000000000000000e+02 4.098737335205078125e+01 7.201535105705261230e-01 2.245868444442749023e+00 5.401534438133239746e-01 8.358066082000732422e-01 -1.480542421340942383e+00
1.280000000000000000e+02 4.081776809692382812e+01 8.243206739425659180e-01 1.611301422119140625e+00 8.713917732238769531e-01 7.448079586029052734e-01 -1.090586662292480469e+00
1.290000000000000000e+02 1.777486610412597656e+01 1.073900461196899414e+00 -7.551217079162597656e-01 5.037009716033935547e-01 -7.542622089385986328e-02 -5.108320340514183044e-02
1.300000000000000000e+02 1.792778015136718750e+01 4.714254438877105713e-01 -5.620924830436706543e-01 -3.326006531715393066e-01 -2.684079408645629883e-01 -8.368447422981262207e-03
1.310000000000000000e+02 1.644459342956542969e+01 1.723731011152267456e-01 -5.079267024993896484e-01 -2.681947350502014160e-01 -2.328364402055740356e-01 -8.895568549633026123e-02
1.320000000000000000e+02 1.848871994018554688e+01 6.747622489929199219e-01 -5.205492973327636719e-01 3.857927620410919189e-01 -4.042695835232734680e-02 1.595316827297210693e-02
1.330000000000000000e+02 1.726383209228515625e+01 2.464335858821868896e-01 -4.415966570377349854e-01 3.359061777591705322e-01 -3.170714154839515686e-02 -1.046843454241752625e-01
1.340000000000000000e+02 1.847787094116210938e+01 1.163098692893981934e+00 -7.550373673439025879e-01 -5.604919195175170898e-01 -3.946587741374969482e-01 -4.910581186413764954e-02
1.350000000000000000e+02 1.630637359619140625e+01 9.048026204109191895e-01 -6.123953461647033691e-01 2.541314959526062012e-01 -1.074791550636291504e-01 -1.294707655906677246e-01
1.360000000000000000e+02 1.839068794250488281e+01 1.810296177864074707e-01 -7.826678156852722168e-01 8.630049228668212891e-02 -2.089101970195770264e-01 -1.034075766801834106e-01
1.370000000000000000e+02 1.705963325500488281e+01 9.744657874107360840e-01 -7.364596724510192871e-01 -3.397416770458221436e-01 -3.228604197502136230e-01 -6.584440916776657104e-02
1.380000000000000000e+02 2.069370651245117188e+01 3.904900848865509033e-01 -1.001677274703979492e+00 8.237213492393493652e-01 -5.338677391409873962e-02 6.331351399421691895e-01
1.390000000000000000e+02 2.311314582824707031e+01 -1.502791643142700195e-01 -1.916341781616210938e+00 3.924928307533264160e-01 -4.571546912193298340e-01 5.736118555068969727e-02
1.400000000000000000e+02 2.569888687133789062e+01 -5.156913399696350098e-01 -3.937315225601196289e+00 5.040754079818725586e-01 -1.029971957206726074e+00 1.029642581939697266e+00
1.410000000000000000e+02 2.401404762268066406e+01 3.338841721415519714e-02 -1.371714830398559570e+00 1.030721187591552734e+00 -1.022980809211730957e-01 -3.928177356719970703e-01
1.420000000000000000e+02 2.763137626647949219e+01 -1.746285796165466309e+00 1.334195137023925781e+00 1.812811851501464844e+00 9.441021084785461426e-01 -9.460601806640625000e-01
1.430000000000000000e+02 2.771944427490234375e+01 -1.175511240959167480e+00 -2.946281671524047852e+00 -7.923564910888671875e-01 -1.121591448783874512e+00 1.317869067192077637e+00
1.440000000000000000e+02 2.848646163940429688e+01 -2.198873519897460938e+00 1.860915422439575195e-01 -8.614389300346374512e-01 -2.026042193174362183e-01 1.236212439835071564e-02
1.450000000000000000e+02 2.930397224426269531e+01 -2.423318624496459961e+00 -6.852797865867614746e-01 1.545874029397964478e-01 -1.592077165842056274e-01 2.152912929886952043e-04
1.460000000000000000e+02 1.982421684265136719e+01 3.275624811649322510e-01 -7.403593063354492188e-01 2.076611518859863281e-01 -1.598094403743743896e-01 -1.516286432743072510e-01
1.470000000000000000e+02 1.909939575195312500e+01 1.000163033604621887e-01 -3.725266456604003906e-01 1.056426018476486206e-01 -8.006522059440612793e-02 -1.202728971838951111e-01
1.480000000000000000e+02 1.978351783752441406e+01 -9.413920342922210693e-02 -2.887661568820476532e-02 -2.219541370868682861e-01 -7.524922490119934082e-02 -3.033450618386268616e-02
1.490000000000000000e+02 2.930961036682128906e+01 -1.660121440887451172e+00 -1.587284803390502930e+00 -4.430721700191497803e-01 -6.091070771217346191e-01 4.942341446876525879e-01
1.500000000000000000e+02 3.012296295166015625e+01 -2.638345956802368164e+00 -5.421251654624938965e-01 -1.169719696044921875e+00 -5.135534405708312988e-01 -2.405557483434677124e-01
1.510000000000000000e+02 3.009844779968261719e+01 -1.867299437522888184e+00 -1.930225729942321777e+00 -1.441807895898818970e-01 -6.223219633102416992e-01 5.568408221006393433e-02
1.520000000000000000e+02 2.688036918640136719e+01 -8.299868702888488770e-01 -4.609720230102539062e+00 -2.232227623462677002e-01 -1.449882864952087402e+00 1.806636452674865723e+00
1.530000000000000000e+02 2.669494247436523438e+01 -1.065739393234252930e+00 2.735024452209472656e+00 6.646059751510620117e-01 1.019889116287231445e+00 -2.046829223632812500e+00
1.540000000000000000e+02 2.604942893981933594e+01 -5.149537920951843262e-01 -6.824117183685302734e+00 -1.038627505302429199e+00 -2.358823299407958984e+00 1.597634673118591309e+00
1.550000000000000000e+02 2.534797477722167969e+01 -2.902369797229766846e-01 -4.022005081176757812e+00 1.604641318321228027e+00 -7.252091765403747559e-01 1.126368403434753418e+00
1.560000000000000000e+02 2.502335357666015625e+01 -2.417187690734863281e-01 -1.505376625061035156e+01 -2.089739561080932617e+00 -5.143051624298095703e+00 5.830439567565917969e+00
1.570000000000000000e+02 2.246835899353027344e+01 1.378261744976043701e-01 -1.117579579353332520e+00 1.786389112472534180e+00 2.006428688764572144e-01 -5.845272541046142578e-01
1.580000000000000000e+02 2.035116004943847656e+01 -1.736120879650115967e-01 1.289112772792577744e-02 1.290524482727050781e+00 3.910246789455413818e-01 -4.080921709537506104e-01
1.590000000000000000e+02 1.996188163757324219e+01 8.227458000183105469e-01 -1.205847382545471191e+00 -6.571621894836425781e-01 -5.589028596878051758e-01 6.148649845272302628e-03
1.600000000000000000e+02 1.914756202697753906e+01 5.841042995452880859e-01 -9.236739277839660645e-01 -1.435322016477584839e-01 -3.201618492603302002e-01 -4.999877884984016418e-02
1.610000000000000000e+02 1.921282958984375000e+01 1.082078099250793457e+00 -7.338411211967468262e-01 5.876480340957641602e-01 -4.385792464017868042e-02 1.858347654342651367e-01
1.620000000000000000e+02 2.161278152465820312e+01 8.425430953502655029e-02 -8.349182605743408203e-01 -1.190120935440063477e+00 -6.075117588043212891e-01 2.356382906436920166e-01
1.630000000000000000e+02 2.852224922180175781e+01 -1.443525433540344238e+00 -2.011833190917968750e+00 -2.403492182493209839e-01 -6.756547689437866211e-01 8.579834103584289551e-01
1.640000000000000000e+02 2.421053886413574219e+01 -1.071830093860626221e-01 -1.009168910980224609e+01 -4.549374282360076904e-01 -3.163987874984741211e+00 7.874904274940490723e-01
1.650000000000000000e+02 2.475981521606445312e+01 -1.221572384238243103e-01 -1.128149223327636719e+01 -3.050016641616821289e+00 -4.299452781677246094e+00 3.400423288345336914e+00
1.660000000000000000e+02 2.316209220886230469e+01 1.658043712377548218e-01 -1.781518340110778809e+00 -1.283668756484985352e+00 -9.195561408996582031e-01 1.088728785514831543e+00
1.670000000000000000e+02 3.171501731872558594e+01 -2.317536830902099609e+00 -1.144590735435485840e+00 -8.978245854377746582e-01 -6.127246022224426270e-01 -7.163648605346679688e-01
1.680000000000000000e+02 3.159167480468750000e+01 -1.573781251907348633e+00 -2.075437545776367188e+00 -2.033244073390960693e-01 -6.836285591125488281e-01 -1.006554841995239258e+00
1.690000000000000000e+02 3.092625236511230469e+01 -2.603541374206542969e+00 -6.530846357345581055e-01 -5.568389892578125000e-01 -3.629770874977111816e-01 -5.066360831260681152e-01
1.700000000000000000e+02 3.329127502441406250e+01 -1.721204519271850586e+00 -1.466366887092590332e+00 -5.838054418563842773e-01 -6.150516867637634277e-01 -8.532671332359313965e-01
1.710000000000000000e+02 3.305626296997070312e+01 -1.019069790840148926e+00 -2.720597505569458008e+00 -2.983348667621612549e-01 -9.056797027587890625e-01 -1.293956160545349121e+00
1.720000000000000000e+02 3.232479095458984375e+01 -1.299670934677124023e+00 -2.404175043106079102e+00 -7.230999469757080078e-01 -9.381825327873229980e-01 -1.048804283142089844e+00
1.730000000000000000e+02 3.250396728515625000e+01 -2.022616147994995117e+00 -1.247365713119506836e+00 -2.692066729068756104e-01 -4.549717009067535400e-01 -1.047434210777282715e+00
1.740000000000000000e+02 3.085874366760253906e+01 -1.838975429534912109e+00 -2.134548187255859375e+00 -7.990642786026000977e-01 -8.800836801528930664e-01 -5.781224966049194336e-01
1.750000000000000000e+02 3.377309799194335938e+01 -7.415617704391479492e-01 -3.026168584823608398e+00 -6.847360730171203613e-01 -1.113271474838256836e+00 -1.182060718536376953e+00
1.760000000000000000e+02 3.447651672363281250e+01 -4.701046049594879150e-01 -3.066916227340698242e+00 -2.601104676723480225e-01 -9.981080293655395508e-01 -1.307750344276428223e+00
1.770000000000000000e+02 3.925278091430664062e+01 1.274975895881652832e+00 -9.996452331542968750e-01 6.931281089782714844e-02 -2.790997326374053955e-01 3.566467165946960449e-01
1.780000000000000000e+02 3.986943817138671875e+01 -3.009332418441772461e-01 4.223715782165527344e+00 3.439545631408691406e-01 1.370301008224487305e+00 2.967609643936157227e+00
1.790000000000000000e+02 3.978519058227539062e+01 1.022161364555358887e+00 -1.114309787750244141e+00 -1.779154539108276367e-01 -3.876675963401794434e-01 5.117743015289306641e-01
1.800000000000000000e+02 4.118037414550781250e+01 -6.629419922828674316e-01 6.243990898132324219e+00 8.300299644470214844e+00 4.363286972045898438e+00 7.510336399078369141e+00
1.810000000000000000e+02 4.250115966796875000e+01 -1.981759816408157349e-01 1.048881721496582031e+01 1.118773174285888672e+01 6.502964496612548828e+00 -2.216629028320312500e+00
1.820000000000000000e+02 4.267888259887695312e+01 1.878499835729598999e-01 1.201769542694091797e+01 9.735376358032226562e+00 6.525921344757080078e+00 -4.076699614524841309e-01
1.830000000000000000e+02 4.257877349853515625e+01 8.228254318237304688e-01 8.741233825683593750e+00 1.253948688507080078e+01 6.384216308593750000e+00 3.198847293853759766e+00
1.840000000000000000e+02 4.081190872192382812e+01 2.244120359420776367e+00 -3.202315866947174072e-01 6.163011550903320312e+00 1.752833962440490723e+00 -3.436538934707641602e+00
1.850000000000000000e+02 4.195682525634765625e+01 1.363985657691955566e+00 9.898746013641357422e-01 1.602730941772460938e+01 5.105155467987060547e+00 -4.233429729938507080e-01
1.860000000000000000e+02 4.125515365600585938e+01 -1.007590770721435547e+00 4.440271854400634766e+00 8.045912742614746094e+00 3.745855331420898438e+00 6.550933361053466797e+00
1.870000000000000000e+02 3.335483551025390625e+01 3.256044089794158936e-01 -2.239555835723876953e+00 -1.339579969644546509e-01 -7.120541930198669434e-01 -7.156791090965270996e-01
1.880000000000000000e+02 3.383720016479492188e+01 1.035020828247070312e+00 -1.507576823234558105e+00 1.826536506414413452e-01 -3.974769711494445801e-01 -5.336479544639587402e-01
1.890000000000000000e+02 3.449132919311523438e+01 1.242971897125244141e+00 -1.864882707595825195e+00 -3.735992358997464180e-03 -5.605856180191040039e-01 -4.920788109302520752e-01
1.900000000000000000e+02 3.926441192626953125e+01 1.882312059402465820e+00 -3.036470651626586914e+00 1.172467991709709167e-01 -8.757671117782592773e-01 -4.428021907806396484e-01
1.910000000000000000e+02 3.675638961791992188e+01 1.363322734832763672e+00 -2.670480012893676758e+00 -3.731010258197784424e-01 -9.130743145942687988e-01 -1.106611251831054688e+00
1.920000000000000000e+02 3.403967666625976562e+01 -1.431878089904785156e+00 -1.585510492324829102e+00 -5.409491062164306641e-02 -4.918816089630126953e-01 -9.574792385101318359e-01
1.930000000000000000e+02 3.617171478271484375e+01 -6.072152853012084961e-01 -1.685290455818176270e+00 3.142592012882232666e-01 -4.113093912601470947e-01 -3.580808266997337341e-02
1.940000000000000000e+02 3.688449859619140625e+01 -3.312305212020874023e-01 -1.318656325340270996e+00 6.567474007606506348e-01 -1.985726654529571533e-01 1.954383105039596558e-01
1.950000000000000000e+02 3.658874511718750000e+01 3.477797210216522217e-01 -2.503013134002685547e+00 -2.538270652294158936e-01 -8.270520567893981934e-01 -6.516975760459899902e-01
1.960000000000000000e+02 3.760767745971679688e+01 -5.136524140834808350e-02 -8.619406819343566895e-01 4.928981065750122070e-01 -1.107127740979194641e-01 6.614024639129638672e-01
1.970000000000000000e+02 3.830500411987304688e+01 6.091012358665466309e-01 -1.093196988105773926e+00 4.096794724464416504e-01 -2.050552666187286377e-01 2.734294533729553223e-01
1.980000000000000000e+02 3.830628204345703125e+01 1.490565836429595947e-01 -1.625464111566543579e-02 6.173340678215026855e-01 1.803238391876220703e-01 8.102942109107971191e-01
1.990000000000000000e+02 3.588325500488281250e+01 7.462147623300552368e-02 -2.815971612930297852e+00 -1.146304085850715637e-01 -8.791805505752563477e-01 -9.983317852020263672e-01
2.000000000000000000e+02 3.517975616455078125e+01 -1.979514807462692261e-01 -3.095394372940063477e+00 -4.944702982902526855e-01 -1.076959371566772461e+00 -1.043531417846679688e+00
2.010000000000000000e+02 3.546092224121093750e+01 -8.826147913932800293e-01 -1.701470851898193359e+00 3.295729756355285645e-01 -4.115693569183349609e-01 -5.111511349678039551e-01
2.020000000000000000e+02 4.080450439453125000e+01 -4.678102731704711914e-01 7.921947479248046875e+00 3.463358163833618164e+00 3.415591716766357422e+00 6.838667392730712891e+00
2.030000000000000000e+02 4.053974914550781250e+01 -1.464267671108245850e-01 7.503035068511962891e+00 4.633682072162628174e-01 2.389920949935913086e+00 3.823153257369995117e+00
2.040000000000000000e+02 4.022045516967773438e+01 -4.848426878452301025e-01 5.846035003662109375e+00 1.024827837944030762e+00 2.061258792877197266e+00 4.648492813110351562e+00
2.050000000000000000e+02 4.269254684448242188e+01 4.002472758293151855e-01 1.179739665985107422e+01 1.024584484100341797e+01 6.612972259521484375e+00 1.111656904220581055e+00
2.060000000000000000e+02 4.245518112182617188e+01 -6.206858754158020020e-01 6.835072040557861328e+00 1.142333030700683594e+01 5.477520942687988281e+00 -1.871294856071472168e+00
2.070000000000000000e+02 3.846460723876953125e+01 2.679994344711303711e+00 -1.202651739120483398e+00 -8.528455495834350586e-01 -6.166492104530334473e-01 -6.442366838455200195e-01
2.080000000000000000e+02 3.946181869506835938e+01 1.728735446929931641e+00 -1.904366493225097656e+00 3.619144856929779053e-01 -4.627356231212615967e-01 5.617681145668029785e-02
2.090000000000000000e+02 3.952686691284179688e+01 1.501766443252563477e+00 -1.779788255691528320e+00 1.234994009137153625e-01 -4.968866705894470215e-01 4.978815913200378418e-01
2.100000000000000000e+02 3.989522171020507812e+01 2.702751874923706055e+00 -8.230261206626892090e-01 2.942166805267333984e+00 6.357422471046447754e-01 -2.235853195190429688e+00
2.110000000000000000e+02 4.094365310668945312e+01 1.250390172004699707e+00 2.000552415847778320e+00 4.516232967376708984e+00 1.955035567283630371e+00 -3.675471067428588867e+00
2.120000000000000000e+02 4.121908950805664062e+01 1.768961668014526367e+00 1.851075440645217896e-01 8.894227027893066406e+00 2.723800182342529297e+00 -4.079242229461669922e+00
2.130000000000000000e+02 4.176071166992187500e+01 1.417842149734497070e+00 5.550054907798767090e-01 1.512749385833740234e+01 4.704750061035156250e+00 -2.114102602005004883e+00
2.140000000000000000e+02 4.190789413452148438e+01 1.753173351287841797e+00 5.403417721390724182e-02 1.348517227172851562e+01 4.061761856079101562e+00 -1.595703959465026855e+00
2.150000000000000000e+02 4.038766860961914062e+01 1.638550758361816406e+00 3.910085260868072510e-01 2.470227241516113281e+00 8.583707213401794434e-01 -2.053760051727294922e+00
2.160000000000000000e+02 4.064958190917968750e+01 9.309127330780029297e-01 1.060258030891418457e+00 5.143822431564331055e-01 4.723920822143554688e-01 -8.713815808296203613e-01
2.170000000000000000e+02 4.288943481445312500e+01 -1.816328167915344238e-01 9.666176795959472656e+00 8.738035202026367188e+00 5.521263599395751953e+00 -1.848842740058898926e+00
2.180000000000000000e+02 4.296094512939453125e+01 5.769511461257934570e-01 9.919408798217773438e+00 9.109204292297363281e+00 5.708583831787109375e+00 1.303212404251098633e+00
2.190000000000000000e+02 4.233566665649414062e+01 1.171335339546203613e+00 4.275202751159667969e+00 1.511984252929687500e+01 5.818513870239257812e+00 2.558838367462158203e+00
2.200000000000000000e+02 4.054557800292968750e+01 7.255467176437377930e-01 -6.255400776863098145e-01 -2.733317911624908447e-01 -2.696615457534790039e-01 3.910599946975708008e-01
2.210000000000000000e+02 4.048406219482421875e+01 6.704657524824142456e-02 6.363813877105712891e+00 -3.102670013904571533e-01 1.816064000129699707e+00 2.223816871643066406e+00
2.220000000000000000e+02 4.139807891845703125e+01 -7.004994750022888184e-01 5.585014343261718750e+00 1.086140155792236328e+01 4.933924674987792969e+00 6.467267036437988281e+00
2.230000000000000000e+02 4.237746047973632812e+01 -3.709764778614044189e-01 9.058452606201171875e+00 1.252882480621337891e+01 6.476183414459228516e+00 -1.986738443374633789e+00
2.240000000000000000e+02 3.932800292968750000e+01 -7.389939576387405396e-02 2.047160863876342773e+00 2.706272900104522705e-01 6.953364610671997070e-01 1.593339085578918457e+00
2.250000000000000000e+02 3.948441696166992188e+01 -1.663406640291213989e-01 2.844356775283813477e+00 3.696368932723999023e-01 9.641981124877929688e-01 2.133008241653442383e+00
2.260000000000000000e+02 3.871842956542968750e+01 1.438654184341430664e+00 -7.834725379943847656e-01 -3.678815439343452454e-02 -2.460782080888748169e-01 -1.741881668567657471e-01
2.270000000000000000e+02 3.356163406372070312e+01 -1.221637874841690063e-01 -3.292745828628540039e+00 -2.613146305084228516e-01 -1.066218137741088867e+00 -1.082202553749084473e+00
2.280000000000000000e+02 3.524589920043945312e+01 6.599631309509277344e-01 -2.759602785110473633e+00 -6.233385205268859863e-01 -1.014882445335388184e+00 -1.112012982368469238e+00
2.290000000000000000e+02 3.535396575927734375e+01 1.428194761276245117e+00 -2.759440422058105469e+00 -5.701981782913208008e-01 -9.988915920257568359e-01 -1.094774484634399414e+00
2.300000000000000000e+02 3.598200225830078125e+01 1.056956052780151367e+00 -2.733200311660766602e+00 -3.072576224803924561e-01 -9.121373295783996582e-01 -1.030410289764404297e+00
2.310000000000000000e+02 3.752104568481445312e+01 1.548608541488647461e+00 -2.669266462326049805e+00 -4.971704781055450439e-01 -9.499310851097106934e-01 -9.738526940345764160e-01
2.320000000000000000e+02 3.855287551879882812e+01 1.727679491043090820e+00 -3.918395280838012695e+00 -3.515154123306274414e-01 -1.280973196029663086e+00 -6.178591847419738770e-01
2.330000000000000000e+02 3.810035705566406250e+01 1.955299139022827148e+00 -3.121129274368286133e+00 -5.052433013916015625e-01 -1.087911725044250488e+00 -7.120338678359985352e-01
2.340000000000000000e+02 3.317297744750976562e+01 7.879257798194885254e-01 -1.855693340301513672e+00 1.746514737606048584e-01 -5.043125748634338379e-01 -4.724347889423370361e-01
2.350000000000000000e+02 4.059441757202148438e+01 -6.701959371566772461e-01 6.707828998565673828e+00 2.970113515853881836e+00 2.903382778167724609e+00 6.442486286163330078e+00
2.360000000000000000e+02 4.227417755126953125e+01 -6.703667640686035156e-01 6.484688282012939453e+00 1.214158725738525391e+01 5.587882518768310547e+00 -1.127634763717651367e+00
2.370000000000000000e+02 4.097534179687500000e+01 -5.852343440055847168e-01 7.508248329162597656e+00 5.983786582946777344e+00 4.047610282897949219e+00 7.440743923187255859e+00
2.380000000000000000e+02 4.182500839233398438e+01 -6.908820271492004395e-01 4.939913749694824219e+00 1.359854030609130859e+01 5.561536312103271484e+00 2.485964298248291016e+00
2.390000000000000000e+02 4.292317581176757812e+01 -1.685133390128612518e-02 1.043071174621582031e+01 8.396345138549804688e+00 5.648117065429687500e+00 -1.381516575813293457e+00
2.400000000000000000e+02 4.261034393310546875e+01 -1.449715252965688705e-02 1.184396266937255859e+01 1.043077850341796875e+01 6.682422161102294922e+00 -1.377674698829650879e+00
2.410000000000000000e+02 4.252237319946289062e+01 1.339842081069946289e+00 3.948435306549072266e+00 1.349146842956542969e+01 5.231971263885498047e+00 2.219826698303222656e+00
2.420000000000000000e+02 4.226831436157226562e+01 1.593821763992309570e+00 1.297674894332885742e+00 1.391643142700195312e+01 4.564231872558593750e+00 4.005117416381835938e-01
2.430000000000000000e+02 4.062505340576171875e+01 2.316805601119995117e+00 -4.702618420124053955e-01 5.176665306091308594e+00 1.411921024322509766e+00 -3.179678440093994141e+00
2.440000000000000000e+02 4.265229797363281250e+01 6.117377877235412598e-01 1.081785011291503906e+01 1.081825065612792969e+01 6.490830421447753906e+00 2.224759578704833984e+00
2.450000000000000000e+02 4.247873687744140625e+01 1.013522386550903320e+00 6.731850147247314453e+00 1.364447498321533203e+01 6.112897396087646484e+00 3.241263389587402344e+00
2.460000000000000000e+02 4.281676864624023438e+01 6.807485222816467285e-01 9.641268730163574219e+00 1.021499156951904297e+01 5.956878185272216797e+00 1.975266218185424805e+00
2.470000000000000000e+02 4.048175811767578125e+01 1.042744398117065430e+00 5.677227377891540527e-01 4.988737106323242188e-01 3.199789524078369141e-01 -6.593328714370727539e-01
2.480000000000000000e+02 4.182217407226562500e+01 1.582092881202697754e+00 1.295785009860992432e-01 1.416704845428466797e+01 4.288988113403320312e+00 -1.898741126060485840e+00
2.490000000000000000e+02 4.141042327880859375e+01 1.684207797050476074e+00 5.032557621598243713e-02 1.061834335327148438e+01 3.200600624084472656e+00 -3.823417663574218750e+00
2.500000000000000000e+02 3.916061782836914062e+01 2.383067831397056580e-02 1.648501276969909668e+00 4.242885708808898926e-01 6.218369603157043457e-01 1.314550876617431641e+00
2.510000000000000000e+02 4.026333618164062500e+01 -2.516221702098846436e-01 5.982261657714843750e+00 3.504635095596313477e-01 1.899817466735839844e+00 3.607175827026367188e+00
2.520000000000000000e+02 4.025638961791992188e+01 5.669324994087219238e-01 1.418506741523742676e+00 -2.883168458938598633e-01 3.390569388866424561e-01 3.891776502132415771e-01
2.530000000000000000e+02 4.041619110107421875e+01 -5.613024234771728516e-01 6.364580631256103516e+00 1.632727742195129395e+00 2.399192571640014648e+00 5.441878318786621094e+00
2.540000000000000000e+02 4.022309112548828125e+01 -2.701694890856742859e-02 5.430008411407470703e+00 -1.338718235492706299e-01 1.588841080665588379e+00 2.340135574340820312e+00
2.550000000000000000e+02 4.077548217773437500e+01 -7.717261314392089844e-01 6.142547607421875000e+00 4.247924804687500000e+00 3.117141723632812500e+00 7.077111244201660156e+00
2.560000000000000000e+02 4.064936447143554688e+01 -3.289426863193511963e-01 8.027626991271972656e+00 1.756956219673156738e+00 2.935374975204467773e+00 5.460045814514160156e+00
2.570000000000000000e+02 4.092531204223632812e+01 -8.775072097778320312e-01 6.058973312377929688e+00 5.992518901824951172e+00 3.615447759628295898e+00 7.119793891906738281e+00
2.580000000000000000e+02 4.107065200805664062e+01 -9.600027799606323242e-01 4.785722732543945312e+00 6.954819679260253906e+00 3.522162675857543945e+00 6.661382675170898438e+00
2.590000000000000000e+02 4.111917877197265625e+01 -8.164828419685363770e-01 5.823211669921875000e+00 7.253245830535888672e+00 3.922937154769897461e+00 7.277943611145019531e+00
2.600000000000000000e+02 4.133399581909179688e+01 -8.469998240470886230e-01 4.957935810089111328e+00 9.523856163024902344e+00 4.344537734985351562e+00 6.420977115631103516e+00
2.610000000000000000e+02 4.202674102783203125e+01 -6.147693991661071777e-01 6.080334186553955078e+00 1.390279102325439453e+01 5.994937419891357422e+00 4.037114679813385010e-01
2.620000000000000000e+02 4.231484603881835938e+01 -8.462523221969604492e-01 5.147764682769775391e+00 1.103546333312988281e+01 4.854968547821044922e+00 -9.944763183593750000e-01
2.630000000000000000e+02 4.213652801513671875e+01 -9.300421476364135742e-01 4.745342254638671875e+00 1.114168739318847656e+01 4.766108989715576172e+00 2.225775569677352905e-01
2.640000000000000000e+02 4.144434356689453125e+01 -1.044149041175842285e+00 3.884500980377197266e+00 8.891237258911132812e+00 3.832721710205078125e+00 5.355734348297119141e+00
2.650000000000000000e+02 4.160967254638671875e+01 -7.190250158309936523e-01 4.980936050415039062e+00 1.255846023559570312e+01 5.261818885803222656e+00 4.614912986755371094e+00
2.660000000000000000e+02 4.154132080078125000e+01 -8.787040114402770996e-01 4.501810073852539062e+00 1.089790344238281250e+01 4.619914054870605469e+00 4.971898078918457031e+00
2.670000000000000000e+02 4.266589355468750000e+01 1.181775450706481934e+00 5.379457950592041016e+00 1.265437507629394531e+01 5.410150051116943359e+00 2.564395904541015625e+00
2.680000000000000000e+02 4.275714492797851562e+01 -1.014819815754890442e-01 1.049654483795166016e+01 9.440440177917480469e+00 5.981095314025878906e+00 -1.807775974273681641e+00
2.690000000000000000e+02 4.264294815063476562e+01 -2.727174460887908936e-01 9.963797569274902344e+00 1.041964721679687500e+01 6.115033626556396484e+00 -2.173359870910644531e+00
2.700000000000000000e+02 4.294374084472656250e+01 3.868155479431152344e-01 1.045312309265136719e+01 8.678917884826660156e+00 5.739612102508544922e+00 3.998771309852600098e-01
2.710000000000000000e+02 4.269575500488281250e+01 -5.086770057678222656e-01 7.897292137145996094e+00 9.819689750671386719e+00 5.315094470977783203e+00 -2.274196624755859375e+00
2.720000000000000000e+02 4.289248657226562500e+01 9.076174497604370117e-01 7.777799129486083984e+00 1.017717552185058594e+01 5.386492252349853516e+00 2.112545251846313477e+00
2.730000000000000000e+02 4.259369659423828125e+01 -6.555576920509338379e-01 6.806231498718261719e+00 9.973954200744628906e+00 5.034055709838867188e+00 -2.324658393859863281e+00
2.740000000000000000e+02 3.793791580200195312e+01 9.405825734138488770e-01 -1.532029628753662109e+00 -2.856289744377136230e-01 -5.452975630760192871e-01 -3.282017111778259277e-01
2.750000000000000000e+02 4.017181777954101562e+01 8.744274973869323730e-01 -9.290580153465270996e-01 -3.076451420783996582e-01 -3.710109591484069824e-01 5.169076323509216309e-01
2.760000000000000000e+02 3.998218917846679688e+01 9.456091523170471191e-01 -1.029196381568908691e+00 -2.050258964300155640e-01 -3.702666759490966797e-01 5.702930688858032227e-01
2.770000000000000000e+02 3.939739227294921875e+01 9.698100686073303223e-01 -7.793362140655517578e-01 2.115457784384489059e-03 -2.331662327051162720e-01 2.110866457223892212e-01
2.780000000000000000e+02 4.030962753295898438e+01 1.165931701660156250e+00 1.333078462630510330e-02 3.780945241451263428e-01 1.174275949597358704e-01 -5.354257225990295410e-01
2.790000000000000000e+02 4.064311218261718750e+01 1.253390192985534668e+00 1.215100288391113281e+00 2.168020486831665039e+00 1.014936327934265137e+00 -2.146877527236938477e+00
2.800000000000000000e+02 3.935427474975585938e+01 1.559207439422607422e+00 -2.375621318817138672e+00 -3.121255040168762207e-01 -8.063240647315979004e-01 8.105368018150329590e-01
2.810000000000000000e+02 4.011635971069335938e+01 1.265776991844177246e+00 -4.548171162605285645e-01 4.079681336879730225e-01 -1.405469607561826706e-02 -3.369482159614562988e-01
2.820000000000000000e+02 3.907311630249023438e+01 2.983358383178710938e+00 -9.808161854743957520e-01 8.239424228668212891e-01 -4.706213250756263733e-02 -1.046462059020996094e+00
2.830000000000000000e+02 4.153060150146484375e+01 1.910329818725585938e+00 -3.371459245681762695e-01 1.097985649108886719e+01 3.192813158035278320e+00 -3.281159639358520508e+00
2.840000000000000000e+02 4.134943008422851562e+01 1.995356917381286621e+00 -3.513128757476806641e-01 9.663557052612304688e+00 2.793673276901245117e+00 -3.575631380081176758e+00
2.850000000000000000e+02 3.981153488159179688e+01 1.726578831672668457e+00 -9.473326206207275391e-01 1.024177193641662598e+00 2.305336855351924896e-02 -6.174702644348144531e-01
2.860000000000000000e+02 4.117279815673828125e+01 2.085603952407836914e+00 -2.853504419326782227e-01 8.325180053710937500e+00 2.411948680877685547e+00 -3.769334077835083008e+00
2.870000000000000000e+02 4.099358749389648438e+01 2.167936801910400391e+00 -3.269685804843902588e-01 7.097146511077880859e+00 2.031053304672241211e+00 -3.624546527862548828e+00
2.880000000000000000e+02 3.790986251831054688e+01 2.555055618286132812e+00 -1.681255459785461426e+00 -1.037462234497070312e+00 -8.156152963638305664e-01 -9.832777976989746094e-01
2.890000000000000000e+02 3.887856292724609375e+01 2.634131669998168945e+00 -1.279229879379272461e+00 -5.228100344538688660e-02 -3.994532525539398193e-01 -6.341062188148498535e-01
2.900000000000000000e+02 4.215591430664062500e+01 1.287496685981750488e+00 2.607404947280883789e+00 1.592518997192382812e+01 5.559778213500976562e+00 1.453127861022949219e+00
2.910000000000000000e+02 4.046636199951171875e+01 5.070946216583251953e-01 1.995537400245666504e+00 -4.006207585334777832e-01 4.784750044345855713e-01 2.129563093185424805e-01
2.920000000000000000e+02 4.035647583007812500e+01 7.988964915275573730e-01 -7.722222208976745605e-01 -2.335537225008010864e-01 -3.017327785491943359e-01 4.889718890190124512e-01
2.930000000000000000e+02 3.398641586303710938e+01 5.617357492446899414e-01 -2.665262699127197266e+00 1.772976815700531006e-01 -7.463895082473754883e-01 -9.341763854026794434e-01
2.940000000000000000e+02 4.044619369506835938e+01 2.819017767906188965e-01 4.176102161407470703e+00 -4.164395928382873535e-01 1.127898812294006348e+00 8.149288296699523926e-01
2.950000000000000000e+02 3.898894500732421875e+01 1.373927742242813110e-01 1.047194004058837891e+00 2.789829075336456299e-01 3.978530764579772949e-01 9.372230172157287598e-01
2.960000000000000000e+02 3.902584838867187500e+01 1.342922329902648926e+00 -9.074507355690002441e-01 2.186587154865264893e-01 -2.066376060247421265e-01 1.487231105566024780e-01
2.970000000000000000e+02 3.944975662231445312e+01 1.216163873672485352e+00 -1.038147807121276855e+00 -1.399498134851455688e-01 -3.534292876720428467e-01 4.582208096981048584e-01
2.980000000000000000e+02 3.961343002319335938e+01 1.127466201782226562e+00 -1.111334204673767090e+00 -2.273613512516021729e-01 -4.016086757183074951e-01 4.529651403427124023e-01
2.990000000000000000e+02 3.965611648559570312e+01 7.390382885932922363e-01 1.673652380704879761e-01 -1.493990868330001831e-01 5.389848258346319199e-03 3.553177416324615479e-01
3.000000000000000000e+02 4.000252532958984375e+01 1.619650483131408691e+00 -5.276867151260375977e-01 9.733771681785583496e-01 1.337071210145950317e-01 -8.971313238143920898e-01
3.010000000000000000e+02 4.090276336669921875e+01 1.942034959793090820e+00 1.859901994466781616e-01 6.298114776611328125e+00 1.945231437683105469e+00 -3.640021085739135742e+00
3.020000000000000000e+02 3.931364822387695312e+01 2.909207820892333984e+00 -9.966622591018676758e-01 1.389571785926818848e+00 1.178728416562080383e-01 -1.333851099014282227e+00
3.030000000000000000e+02 3.876300811767578125e+01 3.086974620819091797e+00 -8.771149516105651855e-01 -2.171084880828857422e-01 -3.282670378684997559e-01 -6.670424938201904297e-01
3.040000000000000000e+02 3.971404647827148438e+01 2.781090021133422852e+00 -9.767352342605590820e-01 2.457599639892578125e+00 4.442593455314636230e-01 -1.964809894561767578e+00
3.050000000000000000e+02 3.952287673950195312e+01 2.846613645553588867e+00 -9.512074589729309082e-01 1.949713706970214844e+00 2.995518743991851807e-01 -1.718122005462646484e+00
3.060000000000000000e+02 4.006694793701171875e+01 2.608655691146850586e+00 -7.801502943038940430e-01 3.260417938232421875e+00 7.440803050994873047e-01 -2.448865890502929688e+00
3.070000000000000000e+02 4.042617416381835938e+01 2.387164115905761719e+00 -5.405731201171875000e-01 4.363883018493652344e+00 1.146992921829223633e+00 -2.937972307205200195e+00
3.080000000000000000e+02 4.034005737304687500e+01 2.069067955017089844e+00 -3.736699521541595459e-01 3.406651258468627930e+00 9.098944067955017090e-01 -2.448506116867065430e+00
3.090000000000000000e+02 4.023646163940429688e+01 2.489971160888671875e+00 -5.603807568550109863e-01 3.816581964492797852e+00 9.768603444099426270e-01 -2.650141716003417969e+00
3.100000000000000000e+02 4.004375076293945312e+01 -4.035221636295318604e-01 4.853538513183593750e+00 4.534656107425689697e-01 1.592101216316223145e+00 3.557677745819091797e+00
3.110000000000000000e+02 3.980796813964843750e+01 3.559466004371643066e-01 2.111474275588989258e+00 -2.851386368274688721e-01 5.479007363319396973e-01 8.096475601196289062e-01
3.120000000000000000e+02 4.134978103637695312e+01 1.442983865737915039e+00 9.796498417854309082e-01 1.051365280151367188e+01 3.447990894317626953e+00 -4.393389701843261719e+00
3.130000000000000000e+02 3.917572021484375000e+01 1.657140493392944336e+00 -3.092911243438720703e+00 -3.634705543518066406e-01 -1.036914587020874023e+00 9.472573399543762207e-01
3.140000000000000000e+02 3.845815658569335938e+01 1.043378710746765137e+00 -1.067064642906188965e+00 3.018841743469238281e-01 -2.295541465282440186e-01 -1.818571984767913818e-01
3.150000000000000000e+02 3.874350357055664062e+01 3.936387896537780762e-01 1.258533149957656860e-01 4.809785485267639160e-01 1.820495575666427612e-01 8.363829255104064941e-01
3.160000000000000000e+02 3.881232452392578125e+01 2.320501565933227539e+00 -1.523295760154724121e+00 -5.604421496391296387e-01 -6.251213550567626953e-01 -6.448084712028503418e-01
3.170000000000000000e+02 3.896936798095703125e+01 1.743257880210876465e+00 -5.391339302062988281e+00 -8.552776575088500977e-01 -1.873985052108764648e+00 3.996572494506835938e-01
3.180000000000000000e+02 3.457560729980468750e+01 6.159625053405761719e-01 -3.065822601318359375e+00 -5.850266218185424805e-01 -1.095254778861999512e+00 -1.270044088363647461e+00
3.190000000000000000e+02 3.730463409423828125e+01 6.248185038566589355e-01 -1.961322546005249023e+00 -3.588014747947454453e-03 -5.894731879234313965e-01 -5.420427322387695312e-01
3.200000000000000000e+02 3.711793899536132812e+01 2.118737697601318359e+00 -2.884057283401489258e+00 -5.016385316848754883e-01 -1.015708684921264648e+00 -1.091764211654663086e+00
3.210000000000000000e+02 3.948981857299804688e+01 5.612023472785949707e-01 6.505511403083801270e-01 5.906892195343971252e-02 2.128860205411911011e-01 4.255555868148803711e-01
3.220000000000000000e+02 3.971732330322265625e+01 1.440798759460449219e+00 -1.376040816307067871e+00 1.717477664351463318e-02 -4.076597988605499268e-01 2.242563813924789429e-01
3.230000000000000000e+02 4.054689788818359375e+01 2.039569139480590820e+00 -1.230528019368648529e-02 4.236896038055419922e+00 1.267377138137817383e+00 -2.925892829895019531e+00
3.240000000000000000e+02 3.919818496704101562e+01 2.578833580017089844e+00 -1.113900780677795410e+00 6.272608041763305664e-01 -1.459919959306716919e-01 -1.160953164100646973e+00
3.250000000000000000e+02 4.103913879394531250e+01 1.575970649719238281e+00 1.000971317291259766e+00 6.937689304351806641e+00 2.381598234176635742e+00 -4.012039661407470703e+00
3.260000000000000000e+02 3.963380813598632812e+01 2.563326597213745117e+00 -8.630701899528503418e-01 2.032396316528320312e+00 3.507978618144989014e-01 -1.814444422721862793e+00
3.270000000000000000e+02 3.981764602661132812e+01 2.114273071289062500e+00 -9.309998750686645508e-01 1.732496500015258789e+00 2.404489964246749878e-01 -1.665890812873840332e+00
3.280000000000000000e+02 3.961993789672851562e+01 1.916892528533935547e+00 -1.697803258895874023e+00 8.683046102523803711e-01 -2.488495856523513794e-01 -7.891778349876403809e-01
3.290000000000000000e+02 3.898060989379882812e+01 7.057741284370422363e-01 -1.287894546985626221e-01 3.150497674942016602e-01 5.587809160351753235e-02 3.052676022052764893e-01
3.300000000000000000e+02 3.924624633789062500e+01 5.590165257453918457e-01 3.987185657024383545e-01 3.662320673465728760e-01 2.294851839542388916e-01 4.130175411701202393e-01
3.310000000000000000e+02 3.902176666259765625e+01 1.982635736465454102e+00 -2.393877983093261719e+00 -6.843785047531127930e-01 -9.234769344329833984e-01 -6.227665543556213379e-01
3.320000000000000000e+02 3.939510345458984375e+01 2.130477905273437500e+00 -1.539823412895202637e+00 5.950024127960205078e-01 -2.834463119506835938e-01 -1.134547352790832520e+00
3.330000000000000000e+02 3.977059555053710938e+01 5.377464741468429565e-02 3.088012456893920898e+00 9.859444946050643921e-02 9.559820890426635742e-01 1.549248695373535156e+00
3.340000000000000000e+02 3.986079025268554688e+01 6.599010229110717773e-01 4.060750007629394531e-01 -8.638648688793182373e-02 9.590654820203781128e-02 3.357805609703063965e-01
3.350000000000000000e+02 4.071472549438476562e+01 1.610185146331787109e+00 9.142776727676391602e-01 4.288734912872314453e+00 1.560903787612915039e+00 -3.192527055740356445e+00
3.360000000000000000e+02 4.049974822998046875e+01 1.420676708221435547e+00 6.354795694351196289e-01 2.133389711380004883e+00 8.306608200073242188e-01 -2.085490942001342773e+00
3.370000000000000000e+02 4.083152008056640625e+01 1.424182653427124023e+00 1.250154256820678711e+00 4.445127964019775391e+00 1.708584666252136230e+00 -3.531838417053222656e+00
3.380000000000000000e+02 3.886692428588867188e+01 9.952996969223022461e-01 -7.950261831283569336e-01 2.316155284643173218e-01 -1.690232008695602417e-01 1.497643589973449707e-01
3.390000000000000000e+02 3.475038909912109375e+01 -1.157594442367553711e+00 -1.774434328079223633e+00 -1.637209355831146240e-01 -5.814465880393981934e-01 -5.989386439323425293e-01
3.400000000000000000e+02 3.426312637329101562e+01 1.513817310333251953e-01 -2.894579410552978516e+00 -4.612684845924377441e-01 -1.006754398345947266e+00 -1.388046860694885254e+00
3.410000000000000000e+02 4.078218841552734375e+01 1.104250550270080566e+00 1.801697492599487305e+00 2.351022720336914062e+00 1.245816111564636230e+00 -2.416288137435913086e+00
3.420000000000000000e+02 4.091594314575195312e+01 1.742512226104736328e+00 2.926080524921417236e-01 6.144025325775146484e+00 1.930990099906921387e+00 -3.681745290756225586e+00
3.430000000000000000e+02 4.113616561889648438e+01 1.376564025878906250e+00 1.290829420089721680e+00 7.689231395721435547e+00 2.694018125534057617e+00 -4.544084548950195312e+00
3.440000000000000000e+02 4.007668304443359375e+01 3.986515104770660400e-01 2.428873062133789062e+00 -2.804267406463623047e-01 6.445339322090148926e-01 5.491458773612976074e-01
3.450000000000000000e+02 3.943457031250000000e+01 7.492974996566772461e-01 -6.999805569648742676e-02 1.886493712663650513e-01 3.559539467096328735e-02 3.490045070648193359e-01
3.460000000000000000e+02 3.991438293457031250e+01 1.342995405197143555e+00 -9.138671159744262695e-01 3.760310113430023193e-01 -1.613508313894271851e-01 2.168077416718006134e-02
3.470000000000000000e+02 4.016925811767578125e+01 1.896250844001770020e-01 3.748789548873901367e+00 -3.271943330764770508e-01 1.026478528976440430e+00 1.223047733306884766e+00
3.480000000000000000e+02 4.155971145629882812e+01 1.443815827369689941e+00 3.161014020442962646e-01 1.321626663208007812e+01 4.059710502624511719e+00 -3.584620714187622070e+00
3.490000000000000000e+02 4.162051010131835938e+01 1.636959195137023926e+00 1.198678165674209595e-01 1.274310779571533203e+01 3.858892679214477539e+00 -3.099296808242797852e+00
3.500000000000000000e+02 4.239781188964843750e+01 1.485010862350463867e+00 2.396290063858032227e+00 1.407881164550781250e+01 4.942530632019042969e+00 1.409800052642822266e+00
3.510000000000000000e+02 4.221604537963867188e+01 1.449329972267150879e+00 1.931108355522155762e+00 1.475921344757080078e+01 5.007096767425537109e+00 8.864777684211730957e-01
3.520000000000000000e+02 4.170288467407226562e+01 -9.433887004852294922e-01 3.951364994049072266e+00 1.104865550994873047e+01 4.500006198883056641e+00 3.657756090164184570e+00
3.530000000000000000e+02 4.207870864868164062e+01 -7.608649730682373047e-01 5.149689197540283203e+00 1.265865039825439453e+01 5.342501640319824219e+00 2.915682792663574219e-01
3.540000000000000000e+02 4.247355651855468750e+01 -7.622687816619873047e-01 6.057730197906494141e+00 1.082516574859619141e+01 5.064868927001953125e+00 -1.775516629219055176e+00
3.550000000000000000e+02 4.221508026123046875e+01 -5.142818689346313477e-01 7.059445381164550781e+00 1.332861328125000000e+01 6.116417407989501953e+00 -1.314454317092895508e+00
3.560000000000000000e+02 4.275027847290039062e+01 8.723332285881042480e-01 8.191370010375976562e+00 1.115704822540283203e+01 5.804525375366210938e+00 2.584747076034545898e+00
3.570000000000000000e+02 4.279784393310546875e+01 1.044100999832153320e+00 6.867732524871826172e+00 1.130413341522216797e+01 5.451559543609619141e+00 2.633378028869628906e+00
3.580000000000000000e+02 4.294996643066406250e+01 7.427811026573181152e-01 8.504564285278320312e+00 9.535019874572753906e+00 5.411875247955322266e+00 1.750476002693176270e+00
3.590000000000000000e+02 4.209468460083007812e+01 1.672845482826232910e+00 4.689236879348754883e-01 1.404392814636230469e+01 4.353855609893798828e+00 -4.324132204055786133e-01
3.600000000000000000e+02 4.201942825317382812e+01 1.516360998153686523e+00 8.729443550109863281e-01 1.510823059082031250e+01 4.794352531433105469e+00 -4.290778934955596924e-01
3.610000000000000000e+02 4.293010330200195312e+01 1.739273965358734131e-01 1.079519557952880859e+01 8.676591873168945312e+00 5.841536045074462891e+00 -5.045006275177001953e-01
3.620000000000000000e+02 4.279978942871093750e+01 -3.451989889144897461e-01 9.068730354309082031e+00 9.179932594299316406e+00 5.474598407745361328e+00 -2.437077045440673828e+00
3.630000000000000000e+02 4.252729034423828125e+01 -4.491840302944183350e-01 8.300635337829589844e+00 1.093198204040527344e+01 5.769785404205322266e+00 -2.274613857269287109e+00
3.640000000000000000e+02 4.171861267089843750e+01 1.831683874130249023e+00 -3.730040192604064941e-01 1.230847454071044922e+01 3.580641269683837891e+00 -2.586288928985595703e+00
3.650000000000000000e+02 4.106562042236328125e+01 1.883972287178039551e+00 1.989507824182510376e-01 7.498070240020751953e+00 2.309106349945068359e+00 -3.932120323181152344e+00
3.660000000000000000e+02 4.072790908813476562e+01 1.995634794235229492e+00 9.375815093517303467e-02 5.322020053863525391e+00 1.624733448028564453e+00 -3.388054847717285156e+00
3.670000000000000000e+02 3.992945861816406250e+01 2.419687509536743164e+00 -7.805206179618835449e-01 2.717009544372558594e+00 5.809466838836669922e-01 -2.161169052124023438e+00
3.680000000000000000e+02 3.921650695800781250e+01 2.850500345230102539e-01 9.089202284812927246e-01 7.870028913021087646e-02 2.962861657142639160e-01 1.102995991706848145e+00
3.690000000000000000e+02 3.966998291015625000e+01 -2.262620925903320312e-01 3.456363916397094727e+00 1.782845854759216309e-01 1.090394496917724609e+00 2.569745779037475586e+00
3.700000000000000000e+02 3.952388381958007812e+01 5.534185096621513367e-02 2.199757814407348633e+00 7.582073658704757690e-02 6.826735734939575195e-01 1.552400469779968262e+00
3.710000000000000000e+02 3.999401855468750000e+01 -1.623395085334777832e-02 4.192894935607910156e+00 -2.281131446361541748e-01 1.189434528350830078e+00 2.015180349349975586e+00
3.720000000000000000e+02 4.161610794067382812e+01 -1.071897149085998535e+00 3.549455165863037109e+00 9.712250709533691406e+00 3.978511571884155273e+00 4.361094474792480469e+00
3.730000000000000000e+02 4.177588272094726562e+01 -1.058988571166992188e+00 3.651665925979614258e+00 1.056990051269531250e+01 4.266469955444335938e+00 3.101005554199218750e+00
3.740000000000000000e+02 4.195093917846679688e+01 -1.001596093177795410e+00 3.993358612060546875e+00 1.069276046752929688e+01 4.405835628509521484e+00 1.777993917465209961e+00
3.750000000000000000e+02 4.187565231323242188e+01 -8.438137769699096680e-01 4.678858280181884766e+00 1.221018791198730469e+01 5.066713809967041016e+00 2.256129980087280273e+00
3.760000000000000000e+02 4.007631683349609375e+01 6.314987540245056152e-01 6.147638559341430664e-01 -2.204969376325607300e-01 1.182800754904747009e-01 3.759351074695587158e-01
3.770000000000000000e+02 3.849034118652343750e+01 2.264459371566772461e+00 -2.188436031341552734e+00 -6.878761053085327148e-01 -8.628936409950256348e-01 -4.903553128242492676e-01
3.780000000000000000e+02 4.009153366088867188e+01 1.845439434051513672e+00 -3.801836967468261719e-01 2.074861288070678711e+00 5.084033012390136719e-01 -1.577353239059448242e+00
3.790000000000000000e+02 3.953717422485351562e+01 2.363372087478637695e+00 -1.287446618080139160e+00 1.258429408073425293e+00 -8.705182932317256927e-03 -1.418990850448608398e+00
3.800000000000000000e+02 3.871672058105468750e+01 2.059024095535278320e+00 -2.637674570083618164e+00 -6.525046229362487793e-01 -9.870537519454956055e-01 -2.882677912712097168e-01
3.810000000000000000e+02 3.911643981933593750e+01 2.258849859237670898e+00 -1.778032064437866211e+00 6.379346549510955811e-02 -5.142716169357299805e-01 -8.334533572196960449e-01
3.820000000000000000e+02 3.951387405395507812e+01 3.191093504428863525e-01 1.569167017936706543e+00 2.042050659656524658e-01 5.320116281509399414e-01 7.668430209159851074e-01
3.830000000000000000e+02 4.019288635253906250e+01 1.557600378990173340e+00 -8.419421501457691193e-03 1.225758910179138184e+00 3.652018606662750244e-01 -1.165193915367126465e+00
3.840000000000000000e+02 4.058931732177734375e+01 1.805857181549072266e+00 1.321491748094558716e-01 4.063265323638916016e+00 1.258624315261840820e+00 -2.963403224945068359e+00
3.850000000000000000e+02 4.026166915893554688e+01 1.795565128326416016e+00 -1.385040283203125000e-01 2.546683073043823242e+00 7.224537134170532227e-01 -2.225723505020141602e+00
3.860000000000000000e+02 3.994765472412109375e+01 1.938768029212951660e+00 -9.707576036453247070e-01 1.663167119026184082e+00 2.077228575944900513e-01 -1.447876453399658203e+00
3.870000000000000000e+02 4.012666702270507812e+01 2.065573215484619141e+00 -5.442721247673034668e-01 2.783899545669555664e+00 6.718882322311401367e-01 -2.280053615570068359e+00
3.880000000000000000e+02 3.914293289184570312e+01 9.790632724761962891e-01 -6.360130906105041504e-01 4.391833245754241943e-01 -5.904892459511756897e-02 1.525649130344390869e-01
3.890000000000000000e+02 3.944731140136718750e+01 2.572428464889526367e+00 -1.101533651351928711e+00 1.271924495697021484e+00 5.111724138259887695e-02 -1.495501875877380371e+00
3.900000000000000000e+02 3.974938201904296875e+01 2.316775083541870117e+00 -1.032063007354736328e+00 1.714391231536865234e+00 2.046984583139419556e-01 -1.681033372879028320e+00
3.910000000000000000e+02 3.979726791381835938e+01 2.508388280868530273e+00 -9.511262774467468262e-01 2.267671108245849609e+00 3.949634730815887451e-01 -2.027177333831787109e+00
3.920000000000000000e+02 4.004716110229492188e+01 2.268801450729370117e+00 -7.412904500961303711e-01 2.746306419372558594e+00 6.015048027038574219e-01 -2.162431001663208008e+00
3.930000000000000000e+02 3.083432960510253906e+01 -2.170480340719223022e-01 -1.862261295318603516e+00 4.102181494235992432e-01 -4.356129467487335205e-01 -1.991149224340915680e-02
3.940000000000000000e+02 3.085270309448242188e+01 -9.999262094497680664e-01 -1.512545347213745117e+00 1.713833957910537720e-01 -4.023485779762268066e-01 -2.252505570650100708e-01
3.950000000000000000e+02 3.216926574707031250e+01 -6.736713051795959473e-01 -2.537841558456420898e+00 -1.184479370713233948e-01 -7.968868017196655273e-01 -8.738543987274169922e-01
3.960000000000000000e+02 3.193232536315917969e+01 -3.087860345840454102e-01 -2.064363718032836914e+00 1.044029891490936279e-01 -5.879882574081420898e-01 -3.706932663917541504e-01
3.970000000000000000e+02 3.283817291259765625e+01 -3.977768719196319580e-01 -2.845686435699462891e+00 -4.398615956306457520e-01 -9.856644272804260254e-01 -9.115411043167114258e-01
3.980000000000000000e+02 3.245020675659179688e+01 5.051715970039367676e-01 -1.742354989051818848e+00 2.442197054624557495e-01 -4.494405686855316162e-01 -2.097415924072265625e-01
3.990000000000000000e+02 3.264751434326171875e+01 4.808262735605239868e-02 -2.438654422760009766e+00 -2.158137224614620209e-02 -7.380707263946533203e-01 -4.840311408042907715e-01
4.000000000000000000e+02 3.166022682189941406e+01 1.470156908035278320e-01 -1.925351500511169434e+00 2.336401194334030151e-01 -5.075134038925170898e-01 -1.467493921518325806e-01
4.010000000000000000e+02 3.155240631103515625e+01 -8.315400481224060059e-01 -2.045064687728881836e+00 -1.825460791587829590e-01 -6.682832241058349609e-01 -5.068417787551879883e-01
4.020000000000000000e+02 1.934751129150390625e+01 2.503270149230957031e+00 -1.675732612609863281e+00 -2.039789855480194092e-01 -5.639134645462036133e-01 2.620096504688262939e-01
4.030000000000000000e+02 2.005071449279785156e+01 1.556203603744506836e+00 -2.195417881011962891e+00 -1.093061417341232300e-01 -6.914172172546386719e-01 5.251145958900451660e-01
4.040000000000000000e+02 1.928076744079589844e+01 1.755981087684631348e+00 -2.477565288543701172e+00 -2.215367406606674194e-01 -8.097305893898010254e-01 4.323506355285644531e-01
4.050000000000000000e+02 2.158644676208496094e+01 1.168239593505859375e+00 -2.052775859832763672e+00 -1.267515569925308228e-01 -6.538582444190979004e-01 5.246995091438293457e-01
4.060000000000000000e+02 2.307723426818847656e+01 1.624484539031982422e+00 -1.638004779815673828e+00 -1.687343120574951172e-01 -5.420217514038085938e-01 4.191377162933349609e-01
4.070000000000000000e+02 2.233542251586914062e+01 9.922933578491210938e-01 -2.031161069869995117e+00 -1.476132869720458984e-01 -6.536322832107543945e-01 5.232050418853759766e-01
4.080000000000000000e+02 2.398313713073730469e+01 4.381691217422485352e-01 -2.092681646347045898e+00 -1.885716915130615234e-01 -6.843760013580322266e-01 5.569723248481750488e-01
4.090000000000000000e+02 2.469855880737304688e+01 3.134082555770874023e-01 -2.126986265182495117e+00 -1.234765872359275818e-01 -6.751388311386108398e-01 5.836533904075622559e-01
4.100000000000000000e+02 2.544886207580566406e+01 1.369469165802001953e-01 -2.160275220870971680e+00 -1.715063303709030151e-01 -6.995344758033752441e-01 5.718411803245544434e-01
4.110000000000000000e+02 2.621602630615234375e+01 -5.633327364921569824e-02 -2.182575464248657227e+00 -1.532559990882873535e-01 -7.007493972778320312e-01 5.925748348236083984e-01
4.120000000000000000e+02 2.698558807373046875e+01 -2.541643083095550537e-01 -2.192200899124145508e+00 -1.252867281436920166e-01 -6.952462792396545410e-01 5.652412176132202148e-01
4.130000000000000000e+02 2.852584266662597656e+01 -6.537437438964843750e-01 -2.062345743179321289e+00 -6.194531545042991638e-02 -6.372873187065124512e-01 4.761762022972106934e-01
4.140000000000000000e+02 2.929613304138183594e+01 -8.536532521247863770e-01 -1.852191329002380371e+00 -3.510662540793418884e-02 -5.661893486976623535e-01 3.534314930438995361e-01
4.150000000000000000e+02 2.926754379272460938e+01 -8.154577016830444336e-02 -1.728382706642150879e+00 2.057005167007446289e-01 -4.568046629428863525e-01 1.905692368745803833e-01
4.160000000000000000e+02 3.006602287292480469e+01 -1.052662253379821777e+00 -1.471240401268005371e+00 1.016622632741928101e-01 -4.108734428882598877e-01 1.479392498731613159e-01
4.170000000000000000e+02 3.003009986877441406e+01 -2.786456644535064697e-01 -1.738256931304931641e+00 3.369804322719573975e-01 -4.203829467296600342e-01 -3.358444897457957268e-03
4.180000000000000000e+02 2.011012649536132812e+01 2.305401802062988281e+00 -1.853600978851318359e+00 -1.478525549173355103e-01 -6.004360318183898926e-01 3.072962164878845215e-01
4.190000000000000000e+02 2.087202072143554688e+01 2.110936641693115234e+00 -1.766962528228759766e+00 -9.972660988569259644e-02 -5.600067377090454102e-01 3.920430243015289307e-01
4.200000000000000000e+02 2.163119125366210938e+01 1.921256065368652344e+00 -1.731212735176086426e+00 -1.434600055217742920e-01 -5.624018311500549316e-01 3.989315330982208252e-01
4.210000000000000000e+02 2.237283515930175781e+01 1.747218847274780273e+00 -1.681521177291870117e+00 -1.240747794508934021e-01 -5.416787862777709961e-01 4.427803456783294678e-01
4.220000000000000000e+02 2.399707603454589844e+01 1.007387638092041016e+00 -1.810397982597351074e+00 -1.687957942485809326e-01 -5.937581658363342285e-01 4.958972036838531494e-01
4.230000000000000000e+02 2.471397018432617188e+01 1.074061155319213867e+00 -1.717669606208801270e+00 -1.418896317481994629e-01 -5.578677654266357422e-01 4.927277863025665283e-01
4.240000000000000000e+02 2.545693969726562500e+01 8.995088934898376465e-01 -1.719542026519775391e+00 -1.421903818845748901e-01 -5.585197210311889648e-01 5.178561806678771973e-01
4.250000000000000000e+02 2.697899818420410156e+01 5.122158527374267578e-01 -1.752345085144042969e+00 -8.833447843790054321e-02 -5.522038936614990234e-01 4.805715978145599365e-01
4.260000000000000000e+02 2.775563621520996094e+01 -4.536604583263397217e-01 -2.153508663177490234e+00 -1.429540514945983887e-01 -6.889387965202331543e-01 5.426018238067626953e-01
4.270000000000000000e+02 2.081994247436523438e+01 1.359829425811767578e+00 -2.105756282806396484e+00 -1.545702069997787476e-01 -6.780979633331298828e-01 5.130939483642578125e-01
4.280000000000000000e+02 2.621677017211914062e+01 7.081378102302551270e-01 -1.743098735809326172e+00 -1.162729784846305847e-01 -5.578114986419677734e-01 4.741896390914916992e-01
4.290000000000000000e+02 2.366904449462890625e+01 1.446964621543884277e+00 -1.645497560501098633e+00 -1.177289038896560669e-01 -5.289679765701293945e-01 4.814082384109497070e-01
4.300000000000000000e+02 2.850458717346191406e+01 1.164546683430671692e-01 -1.724193692207336426e+00 2.243563346564769745e-02 -5.105274319648742676e-01 3.135269880294799805e-01
4.310000000000000000e+02 2.774171447753906250e+01 3.146288096904754639e-01 -1.768754839897155762e+00 -3.308826591819524765e-03 -5.316191315650939941e-01 3.877422213554382324e-01
4.320000000000000000e+02 2.338090705871582031e+01 6.175161004066467285e-01 -2.046108961105346680e+00 -1.262973695993423462e-01 -6.517219543457031250e-01 5.539907217025756836e-01
4.330000000000000000e+02 2.305155563354492188e+01 1.057019233703613281e+00 -1.966280698776245117e+00 -1.579483598470687866e-01 -6.372687220573425293e-01 5.307000279426574707e-01
4.340000000000000000e+02 1.611225318908691406e+01 2.416136503219604492e+00 -1.063249588012695312e+00 3.760065510869026184e-02 -3.076946735382080078e-01 3.524435460567474365e-01
4.350000000000000000e+02 1.692862129211425781e+01 2.473628282546997070e+00 -1.322641491889953613e+00 3.072229400277137756e-02 -3.875757753849029541e-01 3.197729885578155518e-01
4.360000000000000000e+02 1.619552993774414062e+01 1.680045008659362793e+00 -1.226607918739318848e+00 -9.601062163710594177e-03 -3.708627223968505859e-01 5.886871740221977234e-02
4.370000000000000000e+02 1.774459457397460938e+01 2.528052330017089844e+00 -1.580986261367797852e+00 -2.825010567903518677e-02 -4.827709197998046875e-01 3.884657323360443115e-01
4.380000000000000000e+02 1.851055526733398438e+01 1.834378838539123535e+00 -2.378438949584960938e+00 -1.284768581390380859e-01 -7.520747780799865723e-01 1.880210936069488525e-01
4.390000000000000000e+02 1.855901145935058594e+01 2.579250097274780273e+00 -1.568231940269470215e+00 -2.069649100303649902e-01 -5.325590372085571289e-01 3.928554952144622803e-01
4.400000000000000000e+02 1.696798706054687500e+01 1.734610080718994141e+00 -1.528989553451538086e+00 1.222951244562864304e-02 -4.550279974937438965e-01 6.268707662820816040e-02
4.410000000000000000e+02 1.774004745483398438e+01 1.786107659339904785e+00 -1.868648171424865723e+00 3.939450718462467194e-03 -5.594125986099243164e-01 5.418999120593070984e-02
4.420000000000000000e+02 1.307423973083496094e+01 1.803115367889404297e+00 -2.049545645713806152e-01 2.353601902723312378e-02 -5.442556366324424744e-02 1.804651916027069092e-01
4.430000000000000000e+02 1.322374725341796875e+01 1.078295350074768066e+00 -8.407755754888057709e-03 1.258525997400283813e-02 1.253251335583627224e-03 7.846007496118545532e-02
4.440000000000000000e+02 1.396254444122314453e+01 1.243136167526245117e+00 -2.014566510915756226e-01 2.663441188633441925e-02 -5.244667455554008484e-02 6.924514472484588623e-02
4.450000000000000000e+02 1.470126342773437500e+01 1.407449364662170410e+00 -4.670460522174835205e-01 1.884128153324127197e-02 -1.344614326953887939e-01 5.179325491189956665e-02
4.460000000000000000e+02 1.544029712677001953e+01 1.569983482360839844e+00 -8.501873612403869629e-01 1.151277124881744385e-02 -2.516023814678192139e-01 4.406252503395080566e-02
4.470000000000000000e+02 1.532874107360839844e+01 2.303210496902465820e+00 -8.288770914077758789e-01 4.223655909299850464e-02 -2.359921634197235107e-01 3.514267206192016602e-01
4.480000000000000000e+02 1.382568740844726562e+01 1.970758438110351562e+00 -3.828692734241485596e-01 2.794834971427917480e-02 -1.064762696623802185e-01 2.349799722433090210e-01
4.490000000000000000e+02 1.457705688476562500e+01 2.137874126434326172e+00 -6.158244013786315918e-01 6.349974870681762695e-02 -1.656973958015441895e-01 2.940854132175445557e-01
4.500000000000000000e+02 1.104393005371093750e+01 6.161050796508789062e-01 2.426775693893432617e-01 8.797720074653625488e-03 7.544258981943130493e-02 5.890308693051338196e-02
4.510000000000000000e+02 1.093760776519775391e+01 1.349887132644653320e+00 7.668861746788024902e-02 -2.046877518296241760e-02 1.686595194041728973e-02 5.991602316498756409e-02
4.520000000000000000e+02 1.032133674621582031e+01 4.645727574825286865e-01 2.436893731355667114e-01 -7.518348749727010727e-03 7.085130363702774048e-02 4.132653400301933289e-02
4.530000000000000000e+02 1.176770782470703125e+01 7.675349712371826172e-01 2.033721059560775757e-01 6.466979160904884338e-03 6.295172870159149170e-02 7.108746469020843506e-02
4.540000000000000000e+02 1.234649181365966797e+01 1.644436478614807129e+00 -7.294410467147827148e-02 -6.746737752109766006e-03 -2.390725165605545044e-02 1.387539356946945190e-01
4.550000000000000000e+02 1.249242305755615234e+01 9.189449548721313477e-01 1.238394379615783691e-01 1.807286217808723450e-02 4.257369041442871094e-02 7.503005862236022949e-02
4.560000000000000000e+02 1.023481845855712891e+01 1.202500104904174805e+00 1.315770149230957031e-01 -2.828891575336456299e-02 3.098642826080322266e-02 3.366851434111595154e-02
4.570000000000000000e+02 1.164158153533935547e+01 1.497171759605407715e+00 1.793419942259788513e-02 -6.176963914185762405e-03 3.527170745655894279e-03 9.095707535743713379e-02
4.580000000000000000e+02 7.887229919433593750e+00 3.867234289646148682e-01 2.617616653442382812e-01 -2.029234310612082481e-03 7.791973650455474854e-02 -8.030776865780353546e-03
4.590000000000000000e+02 8.716233253479003906e+00 3.873925805091857910e-01 2.710169553756713867e-01 -3.836024319753050804e-03 8.015427738428115845e-02 -1.251657726243138313e-03
4.600000000000000000e+02 7.056899547576904297e+00 3.878324329853057861e-01 2.395592331886291504e-01 -1.548052765429019928e-03 7.140335440635681152e-02 -1.218828652054071426e-02
4.610000000000000000e+02 6.178035259246826172e+00 1.128378868103027344e+00 1.249492540955543518e-01 -3.523790277540683746e-03 3.642763942480087280e-02 -3.605223447084426880e-02
4.620000000000000000e+02 4.565147399902343750e+00 3.867084681987762451e-01 1.408942192792892456e-01 5.392867024056613445e-04 4.243005439639091492e-02 -1.655479706823825836e-02
4.630000000000000000e+02 3.734298944473266602e+00 3.859201967716217041e-01 1.037760898470878601e-01 -3.275705385021865368e-04 3.103455528616905212e-02 -1.634458452463150024e-02
4.640000000000000000e+02 2.903336763381958008e+00 3.870553672313690186e-01 6.742088496685028076e-02 9.043528698384761810e-04 2.049757167696952820e-02 -1.575079932808876038e-02
4.650000000000000000e+02 2.880990266799926758e+00 1.127055406570434570e+00 4.901058226823806763e-02 3.368007717654109001e-03 1.571357809007167816e-02 -3.933231905102729797e-02
4.660000000000000000e+02 2.073071718215942383e+00 3.892002105712890625e-01 3.537125512957572937e-02 1.920736744068562984e-03 1.118759810924530029e-02 -1.264789141714572906e-02
4.670000000000000000e+02 2.057110071182250977e+00 1.129200220108032227e+00 3.094151429831981659e-02 7.821442559361457825e-03 1.162888668477535248e-02 -3.351191431283950806e-02
4.680000000000000000e+02 1.234333992004394531e+00 1.129331231117248535e+00 1.396611519157886505e-02 1.264293678104877472e-02 7.982715964317321777e-03 -2.156158164143562317e-02
4.690000000000000000e+02 4.116423428058624268e-01 1.129539847373962402e+00 3.082926152274012566e-03 9.864951483905315399e-03 3.884363221004605293e-03 -6.895605474710464478e-03
4.700000000000000000e+02 4.148346781730651855e-01 3.895398080348968506e-01 2.304024761542677879e-03 1.812250819057226181e-03 1.234882627613842487e-03 -2.046022331342101097e-03
4.710000000000000000e+02 4.530031204223632812e+00 1.126708507537841797e+00 8.961357176303863525e-02 -1.269687782041728497e-03 2.650316618382930756e-02 -4.187605157494544983e-02
4.720000000000000000e+02 5.353859424591064453e+00 1.127378344535827637e+00 1.081418693065643311e-01 -2.211903920397162437e-03 3.177899122238159180e-02 -3.934768587350845337e-02
4.730000000000000000e+02 6.225920200347900391e+00 3.883788883686065674e-01 2.105077654123306274e-01 -1.800947065930813551e-04 6.309830397367477417e-02 -1.422396302223205566e-02
4.740000000000000000e+02 7.002630233764648438e+00 1.127832412719726562e+00 1.381477713584899902e-01 -6.834632717072963715e-03 3.939393907785415649e-02 -2.799251303076744080e-02
4.750000000000000000e+02 7.826575756072998047e+00 1.126723408699035645e+00 1.448765099048614502e-01 -8.842150680720806122e-03 4.081030562520027161e-02 -1.839328370988368988e-02
4.760000000000000000e+02 9.544963836669921875e+00 3.890661597251892090e-01 2.540055513381958008e-01 -9.723166003823280334e-03 7.328471541404724121e-02 1.466841157525777817e-02
4.770000000000000000e+02 9.471539497375488281e+00 1.129066109657287598e+00 1.475097537040710449e-01 -2.786257304251194000e-02 3.589415550231933594e-02 2.164016291499137878e-02
4.780000000000000000e+02 3.705567836761474609e+00 1.125920176506042480e+00 6.899268180131912231e-02 9.967646328732371330e-04 2.099683508276939392e-02 -4.259809851646423340e-02
4.790000000000000000e+02 1.243910908699035645e+00 3.893312513828277588e-01 1.286333706229925156e-02 2.852241275832056999e-03 4.714673385024070740e-03 -7.289413828402757645e-03
4.800000000000000000e+02 5.395359992980957031e+00 3.873783648014068604e-01 1.770660281181335449e-01 -1.160453422926366329e-03 5.277166888117790222e-02 -1.575285382568836212e-02
4.810000000000000000e+02 8.649193763732910156e+00 1.127392530441284180e+00 1.441691070795059204e-01 -1.845036633312702179e-02 3.771562129259109497e-02 -3.185957320965826511e-04
4.820000000000000000e+02 1.338139057159423828e+01 3.142086565494537354e-01 -4.919163286685943604e-01 1.633318066596984863e-01 -9.857535362243652344e-02 -1.567839682102203369e-01
4.830000000000000000e+02 1.410687160491943359e+01 4.760258793830871582e-01 -5.349001884460449219e-01 -2.571929693222045898e-01 -2.376279532909393311e-01 -1.015542969107627869e-01
4.840000000000000000e+02 1.353089809417724609e+01 -4.106113612651824951e-01 -3.642823398113250732e-01 -2.343206703662872314e-01 -1.795809119939804077e-01 -1.364333480596542358e-01
4.850000000000000000e+02 1.483218193054199219e+01 6.374483108520507812e-01 -5.575279593467712402e-01 2.094962745904922485e-01 -1.044095084071159363e-01 -1.797978878021240234e-01
4.860000000000000000e+02 1.495638942718505859e+01 -9.297639876604080200e-02 -4.190696477890014648e-01 -2.717163264751434326e-01 -2.072357833385467529e-01 -9.946157783269882202e-02
4.870000000000000000e+02 1.566942024230957031e+01 6.387124955654144287e-02 -4.565435349941253662e-01 3.039552271366119385e-01 -4.577649012207984924e-02 -1.633676588535308838e-01
4.880000000000000000e+02 1.555786418914794922e+01 7.970982789993286133e-01 -5.820617079734802246e-01 -2.519509196281433105e-01 -2.502037882804870605e-01 -7.974071800708770752e-02
4.890000000000000000e+02 1.424372863769531250e+01 -2.515964508056640625e-01 -4.129351079463958740e-01 1.891385763883590698e-01 -6.713895499706268311e-02 -1.535199135541915894e-01
4.900000000000000000e+02 3.394450664520263672e+00 -2.017819404602050781e+00 -1.859121210873126984e-02 -2.728455141186714172e-02 -1.376272924244403839e-02 -2.758810296654701233e-02
4.910000000000000000e+02 5.013153553009033203e+00 -2.018158435821533203e+00 -4.520705342292785645e-02 -4.237239807844161987e-02 -2.627383545041084290e-02 -4.830905050039291382e-02
4.920000000000000000e+02 9.061181068420410156e+00 -2.646206378936767578e+00 -9.796156734228134155e-02 -1.240961402654647827e-01 -6.661731004714965820e-02 -1.242862492799758911e-01
4.930000000000000000e+02 1.788356781005859375e+01 -2.977638483047485352e+00 1.594921797513961792e-01 3.149217963218688965e-01 1.423241943120956421e-01 1.296585351228713989e-01
4.940000000000000000e+02 1.700186920166015625e+01 -1.875938773155212402e+00 4.799352958798408508e-03 -9.711960703134536743e-02 -2.769607491791248322e-02 -9.963084012269973755e-02
4.950000000000000000e+02 2.011612701416015625e+01 -9.010632634162902832e-01 1.939691454172134399e-01 3.465012609958648682e-01 1.621411144733428955e-01 -1.791429966688156128e-01
4.960000000000000000e+02 1.740824508666992188e+01 -4.525429308414459229e-01 -4.629285931587219238e-01 -1.421170085668563843e-01 -1.815136820077896118e-01 -2.154783112928271294e-03
4.970000000000000000e+02 5.493862032890319824e-01 -1.054341602325439453e+01 -8.085094392299652100e-03 -8.160059154033660889e-02 -2.690570428967475891e-02 -5.734681617468595505e-03
4.980000000000000000e+02 6.691380977630615234e+00 -1.485692977905273438e+01 -1.517109423875808716e-01 -2.333646416664123535e-01 -1.155226752161979675e-01 -1.644912660121917725e-01
4.990000000000000000e+02 1.018668460845947266e+01 -1.258069515228271484e+01 -1.044574454426765442e-01 -3.810165077447891235e-02 -4.276772961020469666e-02 -4.870286211371421814e-02
5.000000000000000000e+02 8.962282180786132812e+00 -1.298109912872314453e+01 -1.730367094278335571e-01 -1.248700693249702454e-01 -8.937203139066696167e-02 -1.268165558576583862e-01
5.010000000000000000e+02 1.269048213958740234e+01 -1.211476039886474609e+01 6.218263879418373108e-02 1.268369406461715698e-01 5.670587345957756042e-02 -8.426444232463836670e-02
5.020000000000000000e+02 1.818213272094726562e+01 -1.577152538299560547e+01 4.991492256522178650e-02 1.158862933516502380e-01 4.974036663770675659e-02 -2.740488350391387939e-01
5.030000000000000000e+02 1.668027687072753906e+01 -1.048186302185058594e+01 -3.278675675392150879e-02 2.289807647466659546e-01 5.885820463299751282e-02 1.407199166715145111e-02
5.040000000000000000e+02 1.702028083801269531e+01 -8.469544410705566406e+00 8.771846443414688110e-02 4.355450868606567383e-01 1.569790691137313843e-01 -3.192498907446861267e-02
5.050000000000000000e+02 1.700538063049316406e+01 -5.570208072662353516e+00 9.913869947195053101e-02 4.114623367786407471e-01 1.531803011894226074e-01 5.355859175324440002e-02
5.060000000000000000e+02 3.526180505752563477e+00 -2.067604064941406250e+01 9.667611122131347656e-02 -2.438940703868865967e-01 -4.416539147496223450e-02 -1.605217307806015015e-01
5.070000000000000000e+02 6.015209197998046875e+00 -2.183722114562988281e+01 2.335794717073440552e-01 1.912851035594940186e-01 1.274593770503997803e-01 -1.756017357110977173e-01
5.080000000000000000e+02 7.743728160858154297e+00 -2.303429985046386719e+01 2.324767857789993286e-01 1.253077536821365356e-01 1.073353588581085205e-01 -1.580761075019836426e-01
5.090000000000000000e+02 3.972572326660156250e+00 -2.385291481018066406e+01 5.408121272921562195e-02 -1.633803099393844604e-01 -3.278972953557968140e-02 -2.556584775447845459e-02
5.100000000000000000e+02 5.946155190467834473e-01 -3.038572883605957031e+01 -1.374626345932483673e-02 -6.014600396156311035e-01 -1.845618933439254761e-01 8.241856470704078674e-03
5.110000000000000000e+02 1.227309513092041016e+01 -3.635558319091796875e+01 7.422165572643280029e-02 4.925772845745086670e-01 1.700396835803985596e-01 2.019700035452842712e-02
5.120000000000000000e+02 1.335664463043212891e+01 -3.705109786987304688e+01 1.999918185174465179e-02 4.660648703575134277e-01 1.458192169666290283e-01 -6.941019743680953979e-02
5.130000000000000000e+02 1.262309455871582031e+01 -3.505111694335937500e+01 1.279336959123611450e-02 7.184724807739257812e-01 2.193797528743743896e-01 2.486662380397319794e-02
5.140000000000000000e+02 1.256085300445556641e+01 -3.052635002136230469e+01 2.311504632234573364e-01 6.372562050819396973e-01 2.605220079421997070e-01 2.390692681074142456e-01
5.150000000000000000e+02 1.414873218536376953e+01 -2.978828811645507812e+01 3.131117820739746094e-01 7.519646286964416504e-01 3.195229172706604004e-01 4.478878676891326904e-01
5.160000000000000000e+02 1.496190071105957031e+01 -2.855059242248535156e+01 4.564512372016906738e-01 6.366359591484069824e-01 3.279261589050292969e-01 4.700679481029510498e-01
5.170000000000000000e+02 1.168972015380859375e+01 -2.293029594421386719e+01 -7.201121002435684204e-02 6.656591314822435379e-03 -1.960638538002967834e-02 -2.400683052837848663e-02
5.180000000000000000e+02 1.037642288208007812e+01 -2.309576988220214844e+01 -3.238046914339065552e-02 9.899531723931431770e-04 -9.417154826223850250e-03 -4.631378129124641418e-02
5.190000000000000000e+02 1.146640014648437500e+01 -2.445915031433105469e+01 1.370114237070083618e-01 8.145209401845932007e-02 6.553905457258224487e-02 -9.383474476635456085e-03
5.200000000000000000e+02 7.236003398895263672e+00 -3.862270736694335938e+01 -1.123434826731681824e-01 1.227882578969001770e-01 3.133433172479271889e-03 1.192422881722450256e-01
5.210000000000000000e+02 9.754916191101074219e+00 -3.386883544921875000e+01 1.072685271501541138e-01 2.907985746860504150e-01 1.194201335310935974e-01 1.691754907369613647e-01
5.220000000000000000e+02 6.096537709236145020e-01 -3.177463340759277344e+01 1.778555847704410553e-02 -5.682969689369201660e-01 -1.651534289121627808e-01 1.852788403630256653e-02
5.230000000000000000e+02 9.375673532485961914e-01 -3.726060867309570312e+01 2.584493160247802734e-02 -3.519719541072845459e-01 -9.783811122179031372e-02 4.735713079571723938e-02
5.240000000000000000e+02 3.220011234283447266e+00 -3.772040557861328125e+01 1.320344302803277969e-02 -2.025736868381500244e-01 -5.681107193231582642e-02 1.092625260353088379e-01
5.250000000000000000e+02 2.216081809997558594e+01 -3.978594207763671875e+01 -3.514642715454101562e-01 3.056462407112121582e-01 -1.374540757387876511e-02 7.005517929792404175e-02
5.260000000000000000e+02 2.254878044128417969e+01 -4.151152420043945312e+01 -4.725401997566223145e-01 4.344138503074645996e-01 -1.143790967762470245e-02 1.229856610298156738e-01
5.270000000000000000e+02 2.511465072631835938e+01 -4.043494033813476562e+01 -5.218434333801269531e-01 1.432587742805480957e+00 2.732233107089996338e-01 -8.459948748350143433e-02
5.280000000000000000e+02 2.631331634521484375e+01 -3.856908416748046875e+01 -2.055992037057876587e-01 1.843152165412902832e+00 4.912658929824829102e-01 -1.626424640417098999e-01
5.290000000000000000e+02 2.886738586425781250e+01 -3.912590026855468750e+01 -3.027258515357971191e-01 1.918276906013488770e+00 4.846653342247009277e-01 -4.738755896687507629e-02
5.300000000000000000e+02 3.975108337402343750e+01 -3.529132461547851562e+01 2.092627137899398804e-01 2.879303216934204102e+00 9.265698194503784180e-01 -9.219542741775512695e-01
5.310000000000000000e+02 3.904140472412109375e+01 -3.217031860351562500e+01 1.410360693931579590e+00 8.264476776123046875e+00 2.902451038360595703e+00 1.817860007286071777e+00
5.320000000000000000e+02 3.852187347412109375e+01 -3.594617080688476562e+01 -8.048802614212036133e-01 4.002995014190673828e+00 9.594344496726989746e-01 7.534414529800415039e-01
5.330000000000000000e+02 3.606328582763671875e+01 -2.943423652648925781e+01 -3.180610537528991699e-01 9.685894846916198730e-01 1.951585263013839722e-01 8.871085047721862793e-01
5.340000000000000000e+02 3.666622543334960938e+01 -3.087724494934082031e+01 1.077246189117431641e+00 2.223186731338500977e+00 9.901298880577087402e-01 1.097499132156372070e+00
5.350000000000000000e+02 3.019184494018554688e+01 -2.525581932067871094e+01 3.697178661823272705e-01 1.597198605537414551e+00 5.900749564170837402e-01 -8.294815421104431152e-01
5.360000000000000000e+02 2.937894630432128906e+01 -2.425775909423828125e+01 5.847141742706298828e-01 3.524163961410522461e+00 1.232663512229919434e+00 -9.832049608230590820e-01
5.370000000000000000e+02 2.939523506164550781e+01 -2.601373863220214844e+01 -4.715774059295654297e-01 2.529956817626953125e+00 6.175138354301452637e-01 -3.991889655590057373e-01
5.380000000000000000e+02 2.244692993164062500e+01 -2.805016517639160156e+01 -4.945336878299713135e-01 2.861317619681358337e-02 -1.397761553525924683e-01 3.280388414859771729e-01
5.390000000000000000e+02 2.318225669860839844e+01 -2.709051513671875000e+01 -4.341070055961608887e-01 6.452130079269409180e-01 6.333179771900177002e-02 6.615214794874191284e-02
5.400000000000000000e+02 2.341008377075195312e+01 -2.904666709899902344e+01 -2.774751484394073486e-01 5.495916008949279785e-01 8.163492381572723389e-02 -6.271895021200180054e-02
5.410000000000000000e+02 2.506118392944335938e+01 -2.887219429016113281e+01 -6.352472901344299316e-01 1.794705748558044434e+00 3.478375077247619629e-01 1.543019115924835205e-01
5.420000000000000000e+02 2.998966407775878906e+01 -3.120485496520996094e+01 8.693938143551349640e-03 1.473467111587524414e+00 4.446483254432678223e-01 -3.188293278217315674e-01
5.430000000000000000e+02 2.514126586914062500e+01 -3.346889114379882812e+01 2.542417868971824646e-02 2.460016012191772461e+00 7.456320524215698242e-01 -7.952880859375000000e-02
5.440000000000000000e+02 2.354196739196777344e+01 -3.894847488403320312e+01 -8.346497267484664917e-02 6.730980277061462402e-01 1.768899112939834595e-01 2.667767107486724854e-01
5.450000000000000000e+02 3.887169265747070312e+01 -3.721004104614257812e+01 -1.059442639350891113e+00 2.902329206466674805e+00 5.528659224510192871e-01 2.067099660634994507e-01
5.460000000000000000e+02 4.051156997680664062e+01 -3.635742568969726562e+01 -5.090482234954833984e-01 1.309489488601684570e+00 2.401323765516281128e-01 -3.345931172370910645e-01
5.470000000000000000e+02 4.632132720947265625e+01 -3.796930313110351562e+01 -1.443953037261962891e+00 8.659489750862121582e-01 -1.734012067317962646e-01 2.756310999393463135e-01
5.480000000000000000e+02 4.824765014648437500e+01 -3.918931961059570312e+01 -1.557830452919006348e+00 3.342426776885986328e+00 5.353788733482360840e-01 1.069687604904174805e+00
5.490000000000000000e+02 4.842424774169921875e+01 -3.580245208740234375e+01 1.052007198333740234e+00 3.471855401992797852e+00 1.357158780097961426e+00 2.036230325698852539e+00
5.500000000000000000e+02 5.801746749877929688e+01 -3.767803573608398438e+01 -1.143985867500305176e+00 1.687950611114501953e+00 1.631894111633300781e-01 -5.850784778594970703e-01
5.510000000000000000e+02 5.837034606933593750e+01 -4.168879699707031250e+01 -2.144094467163085938e+00 2.888437747955322266e+00 2.233029603958129883e-01 -4.684312641620635986e-01
5.520000000000000000e+02 5.886546707153320312e+01 -3.904945755004882812e+01 -2.021353244781494141e+00 1.134367942810058594e+00 -2.660955786705017090e-01 -8.775089979171752930e-01
5.530000000000000000e+02 6.158715820312500000e+01 -3.847634124755859375e+01 -4.387466430664062500e+00 -1.089851498603820801e+00 -1.643195390701293945e+00 2.726939916610717773e-01
5.540000000000000000e+02 6.427846527099609375e+01 -3.731087112426757812e+01 -1.821229696273803711e+00 1.118970274925231934e+00 -2.106778174638748169e-01 7.762648165225982666e-02
5.550000000000000000e+02 7.030046844482421875e+01 -3.484175109863281250e+01 8.118028044700622559e-01 5.898081779479980469e+00 2.012965440750122070e+00 -1.347756981849670410e+00
5.560000000000000000e+02 7.797525787353515625e+01 -4.168467712402343750e+01 -1.351692527532577515e-02 8.168567657470703125e+00 2.446515321731567383e+00 -3.912219312041997910e-03
5.570000000000000000e+02 7.725003051757812500e+01 -3.718907546997070312e+01 -2.295697480440139771e-02 7.717249393463134766e+00 2.308287620544433594e+00 -2.231625318527221680e-01
5.580000000000000000e+02 7.754615783691406250e+01 -3.005211067199707031e+01 -1.131026968359947205e-01 7.595170497894287109e+00 2.244620323181152344e+00 9.920546412467956543e-02
5.590000000000000000e+02 7.463861083984375000e+01 -2.056322860717773438e+01 1.275024771690368652e+00 1.041887187957763672e+01 3.508168935775756836e+00 5.194682162255048752e-04
5.600000000000000000e+02 7.230735778808593750e+01 -1.764544677734375000e+01 1.225225329399108887e+00 3.972905874252319336e+00 1.559439420700073242e+00 -1.911166071891784668e+00
5.610000000000000000e+02 7.756959533691406250e+01 -9.980511665344238281e+00 -2.497321367263793945e-01 9.517282485961914062e+00 2.780265092849731445e+00 -1.227950572967529297e+00
5.620000000000000000e+02 7.931025695800781250e+01 -1.259410476684570312e+01 -2.831763327121734619e-01 1.033730697631835938e+01 3.016239166259765625e+00 -1.771153509616851807e-01
5.630000000000000000e+02 7.308383178710937500e+01 -1.143895912170410156e+01 -2.577389717102050781e+00 5.030348300933837891e-01 -6.223065257072448730e-01 -3.204410076141357422e-01
5.640000000000000000e+02 7.106310272216796875e+01 -1.210101890563964844e+01 -2.471167087554931641e+00 -3.627813458442687988e-01 -8.501845598220825195e-01 -9.972717165946960449e-01
5.650000000000000000e+02 6.941797637939453125e+01 -1.321389484405517578e+01 -4.467192888259887695e-01 4.276310205459594727e-01 -5.726482253521680832e-03 -2.014056682586669922e+00
5.660000000000000000e+02 6.960366821289062500e+01 -1.541251087188720703e+01 -7.912669181823730469e-01 1.451680213212966919e-01 -1.938296705484390259e-01 -1.395785808563232422e+00
5.670000000000000000e+02 7.129457855224609375e+01 -1.701405334472656250e+01 1.319127440452575684e+00 1.290279269218444824e+00 7.828220129013061523e-01 -9.115562438964843750e-01
5.680000000000000000e+02 7.035189819335937500e+01 -1.640978240966796875e+01 -3.821500539779663086e-01 2.513065636157989502e-01 -3.925304487347602844e-02 -8.254916071891784668e-01
5.690000000000000000e+02 7.345471191406250000e+01 -1.948838615417480469e+01 1.412907361984252930e+00 1.007001399993896484e+01 3.444876432418823242e+00 -2.225913524627685547e+00
5.700000000000000000e+02 7.813877105712890625e+01 -1.810758209228515625e+01 1.110315248370170593e-01 8.276094436645507812e+00 2.516137838363647461e+00 1.000558614730834961e+00
5.710000000000000000e+02 7.763925933837890625e+01 -1.150055503845214844e+01 -7.350777983665466309e-01 9.489711761474609375e+00 2.626390218734741211e+00 -6.992166638374328613e-01
5.720000000000000000e+02 7.528828430175781250e+01 -8.023524284362792969e+00 6.528962850570678711e-01 1.436158752441406250e+01 4.504345417022705078e+00 4.158422648906707764e-01
5.730000000000000000e+02 7.659706115722656250e+01 -6.832036495208740234e+00 1.201778650283813477e+00 1.084527015686035156e+01 3.614114522933959961e+00 -4.242556989192962646e-01
5.740000000000000000e+02 7.664407348632812500e+01 -5.591172695159912109e+00 9.067338705062866211e-01 1.032866954803466797e+01 3.370620965957641602e+00 2.116708084940910339e-02
5.750000000000000000e+02 7.945014953613281250e+01 2.865831136703491211e+00 -1.177589036524295807e-02 8.706593513488769531e+00 2.608445167541503906e+00 -1.885070353746414185e-01
5.760000000000000000e+02 6.867745208740234375e+01 4.168783187866210938e+00 3.228925466537475586e-01 2.244473457336425781e+00 7.702097892761230469e-01 2.137059688568115234e+00
5.770000000000000000e+02 6.679700469970703125e+01 5.948286056518554688e+00 -1.082933545112609863e+00 4.951645433902740479e-01 -1.763307005167007446e-01 9.239733815193176270e-01
5.780000000000000000e+02 6.294073486328125000e+01 5.936558246612548828e+00 -7.554601430892944336e-01 2.994870185852050781e+00 6.718230247497558594e-01 -1.410566568374633789e+00
5.790000000000000000e+02 6.316043090820312500e+01 8.368816375732421875e+00 8.501920849084854126e-02 1.125161767005920410e+00 3.630543053150177002e-01 -5.668827891349792480e-01
5.800000000000000000e+02 6.100025558471679688e+01 -3.398749828338623047e+00 1.812776207923889160e+00 1.205411052703857422e+01 4.160066127777099609e+00 -2.478595256805419922e+00
5.810000000000000000e+02 6.498404693603515625e+01 -3.311373949050903320e+00 1.487718105316162109e+00 7.548291206359863281e+00 2.710802793502807617e+00 1.346005916595458984e+00
5.820000000000000000e+02 6.123750686645507812e+01 -4.770349502563476562e+00 3.437474668025970459e-01 1.096005821228027344e+01 3.391141891479492188e+00 -7.938961982727050781e-01
5.830000000000000000e+02 6.334552764892578125e+01 -6.661050319671630859e+00 1.659961462020874023e+00 9.280846595764160156e+00 3.282242536544799805e+00 2.034369707107543945e-01
5.840000000000000000e+02 6.204143142700195312e+01 -9.927707672119140625e+00 -1.932408809661865234e-01 7.276975631713867188e+00 2.125120401382446289e+00 8.323563337326049805e-01
5.850000000000000000e+02 6.138853836059570312e+01 -8.825801849365234375e+00 1.369305968284606934e+00 8.218222618103027344e+00 2.876258611679077148e+00 1.666442036628723145e+00
5.860000000000000000e+02 5.819799423217773438e+01 -1.097992229461669922e+01 -1.394764035940170288e-01 1.606852173805236816e+00 4.402127265930175781e-01 9.657439589500427246e-02
5.870000000000000000e+02 5.905718994140625000e+01 -1.006492424011230469e+01 -3.889395296573638916e-01 1.468130350112915039e+00 3.237572312355041504e-01 9.638482332229614258e-01
5.880000000000000000e+02 5.693225479125976562e+01 -1.024194335937500000e+01 7.467518001794815063e-02 6.287198662757873535e-01 2.110185176134109497e-01 -1.245981931686401367e+00
5.890000000000000000e+02 5.414984512329101562e+01 -1.016560077667236328e+01 1.920555710792541504e+00 4.356531143188476562e+00 1.883126020431518555e+00 -3.097174644470214844e+00
5.900000000000000000e+02 4.770603561401367188e+01 -6.685720920562744141e+00 2.362832069396972656e+00 1.054803180694580078e+01 3.873259067535400391e+00 -2.386696100234985352e+00
5.910000000000000000e+02 4.803448867797851562e+01 -5.422697544097900391e+00 1.037109136581420898e+00 8.361929893493652344e+00 2.819711685180664062e+00 -1.512790679931640625e+00
5.920000000000000000e+02 4.910022735595703125e+01 -4.494409561157226562e+00 1.183367967605590820e+00 8.377537727355957031e+00 2.868271827697753906e+00 -1.277014374732971191e+00
5.930000000000000000e+02 4.575904846191406250e+01 -5.553273677825927734e+00 1.894134759902954102e+00 3.366891384124755859e+00 1.578307867050170898e+00 -2.907485485076904297e+00
5.940000000000000000e+02 4.998437118530273438e+01 -7.657594203948974609e+00 2.838035106658935547e+00 8.771975517272949219e+00 3.483003139495849609e+00 -7.559770345687866211e-02
5.950000000000000000e+02 4.834621429443359375e+01 -1.018373012542724609e+01 2.934279918670654297e+00 1.295753765106201172e+01 4.767545223236083984e+00 1.500267624855041504e+00
5.960000000000000000e+02 4.742426300048828125e+01 -1.111735916137695312e+01 3.319892644882202148e+00 1.380896663665771484e+01 5.138657569885253906e+00 3.903919696807861328e+00
5.970000000000000000e+02 4.543840408325195312e+01 -1.299559497833251953e+01 -1.406443715095520020e+00 3.458404064178466797e+00 6.155880689620971680e-01 1.889434933662414551e+00
5.980000000000000000e+02 4.286822509765625000e+01 -1.376797389984130859e+01 -7.302319049835205078e+00 -3.145308494567871094e-01 -2.285054922103881836e+00 1.599690914154052734e-01
5.990000000000000000e+02 4.071784973144531250e+01 -1.985951805114746094e+01 1.114314198493957520e+00 2.574042320251464844e+00 1.106506943702697754e+00 -6.663091480731964111e-02
6.000000000000000000e+02 4.178538131713867188e+01 -1.424941825866699219e+01 -5.247022151947021484e+00 -5.103679895401000977e-01 -1.727216958999633789e+00 5.805828794836997986e-02
6.010000000000000000e+02 4.086097717285156250e+01 -1.329287910461425781e+01 -5.551014423370361328e+00 -4.156897664070129395e-01 -1.790011286735534668e+00 8.810425400733947754e-01
6.020000000000000000e+02 3.750234222412109375e+01 -1.188692760467529297e+01 -1.543610095977783203e+00 3.212871074676513672e+00 5.007783174514770508e-01 -5.854738131165504456e-02
6.030000000000000000e+02 3.712296676635742188e+01 -7.842541217803955078e+00 1.315806388854980469e+00 1.032330226898193359e+01 3.491732597351074219e+00 1.862047910690307617e+00
6.040000000000000000e+02 3.758608627319335938e+01 -6.104375839233398438e+00 3.646168470382690430e+00 1.105980587005615234e+01 4.411792278289794922e+00 5.015832901000976562e+00
6.050000000000000000e+02 3.526642227172851562e+01 -2.786970615386962891e+00 6.106503009796142578e-01 1.204938530921936035e+00 5.446766614913940430e-01 3.656060099601745605e-01
6.060000000000000000e+02 3.647138214111328125e+01 -1.327420234680175781e+00 -4.788412749767303467e-01 1.344249367713928223e+00 2.596224248409271240e-01 5.954634547233581543e-01
6.070000000000000000e+02 3.717119216918945312e+01 -1.002649784088134766e+00 -3.938297629356384277e-01 1.247372508049011230e+00 2.560628354549407959e-01 1.220135927200317383e+00
6.080000000000000000e+02 4.125989913940429688e+01 -1.328130722045898438e+00 3.367671012878417969e+00 7.028317928314208984e+00 3.118796586990356445e+00 5.872056961059570312e+00
6.090000000000000000e+02 4.182042694091796875e+01 -1.238830924034118652e+00 3.322231769561767578e+00 8.962663650512695312e+00 3.685468673706054688e+00 2.979849576950073242e+00
6.100000000000000000e+02 4.305464172363281250e+01 -5.175837874412536621e-01 7.665416717529296875e+00 7.723483085632324219e+00 4.616670131683349609e+00 -2.582833051681518555e+00
6.110000000000000000e+02 4.357216644287109375e+01 -1.334871053695678711e-01 7.971168041229248047e+00 6.248596191406250000e+00 4.265929222106933594e+00 -2.108766794204711914e+00
6.120000000000000000e+02 4.297238540649414062e+01 -9.692691564559936523e-01 5.583684921264648438e+00 7.760733604431152344e+00 4.003325462341308594e+00 -2.642591238021850586e+00
6.130000000000000000e+02 7.842829895019531250e+01 4.348396778106689453e+00 -3.964753821492195129e-02 7.670610904693603516e+00 2.289288997650146484e+00 -6.460900306701660156e-01
6.140000000000000000e+02 7.941098022460937500e+01 8.329926490783691406e+00 -6.983071099966764450e-03 6.020571231842041016e+00 1.804076433181762695e+00 -2.937153279781341553e-01
6.150000000000000000e+02 7.205720520019531250e+01 1.390312385559082031e+01 6.410692930221557617e-01 1.321021556854248047e+01 4.155385494232177734e+00 -1.114815473556518555e+00
6.160000000000000000e+02 7.192459106445312500e+01 1.052787208557128906e+01 1.864580392837524414e+00 1.295887088775634766e+01 4.447035312652587891e+00 2.704808712005615234e+00
6.170000000000000000e+02 7.138195800781250000e+01 9.435453414916992188e+00 2.090118169784545898e+00 8.886625289916992188e+00 3.293023109436035156e+00 3.610727310180664062e+00
6.180000000000000000e+02 7.011959075927734375e+01 7.879498481750488281e+00 1.946440815925598145e+00 4.183186054229736328e+00 1.838888168334960938e+00 2.465279579162597656e+00
6.190000000000000000e+02 7.936082458496093750e+01 1.250014305114746094e+01 8.836205303668975830e-02 5.069375038146972656e+00 1.547321200370788574e+00 4.366572201251983643e-02
6.200000000000000000e+02 7.941373443603515625e+01 1.665150833129882812e+01 1.268775761127471924e-02 6.563724040985107422e+00 1.972923517227172852e+00 2.984021008014678955e-01
6.210000000000000000e+02 7.018059539794921875e+01 1.759517288208007812e+01 -9.353581070899963379e-02 2.906282186508178711e+00 8.438238501548767090e-01 -1.118854641914367676e+00
6.220000000000000000e+02 7.169808197021484375e+01 1.522493362426757812e+01 1.325154185295104980e+00 1.140363121032714844e+01 3.818635463714599609e+00 -2.304473400115966797e+00
6.230000000000000000e+02 7.824604034423828125e+01 1.785705947875976562e+01 -9.074943512678146362e-02 7.196658611297607422e+00 2.131772756576538086e+00 6.866399049758911133e-01
6.240000000000000000e+02 7.936773681640625000e+01 2.362215995788574219e+01 -1.135710440576076508e-02 8.094915390014648438e+00 2.425067424774169922e+00 -3.035289049148559570e-02
6.250000000000000000e+02 6.707530212402343750e+01 2.988305091857910156e+01 1.208828210830688477e+00 5.141088485717773438e+00 1.904975056648254395e+00 9.565185904502868652e-01
6.260000000000000000e+02 6.349652099609375000e+01 3.058493995666503906e+01 2.521636486053466797e-01 7.658761978149414062e+00 2.373277664184570312e+00 1.104034483432769775e-02
6.270000000000000000e+02 6.348512649536132812e+01 2.808925628662109375e+01 6.587026119232177734e-01 9.720658302307128906e+00 3.113808155059814453e+00 1.145336985588073730e+00
6.280000000000000000e+02 6.401348876953125000e+01 2.711872673034667969e+01 2.251730203628540039e+00 9.070726394653320312e+00 3.396736860275268555e+00 2.167162418365478516e+00
6.290000000000000000e+02 6.324510955810546875e+01 2.622348976135253906e+01 2.766922950744628906e+00 1.067402553558349609e+01 4.032284259796142578e+00 3.812269926071166992e+00
6.300000000000000000e+02 6.482008361816406250e+01 2.133551216125488281e+01 -1.643921136856079102e+00 2.251717567443847656e+00 1.823389530181884766e-01 3.376860141754150391e+00
6.310000000000000000e+02 6.227647399902343750e+01 2.391711997985839844e+01 2.094591259956359863e-01 6.007364273071289062e+00 1.865047097206115723e+00 3.419403314590454102e+00
6.320000000000000000e+02 5.842770004272460938e+01 2.326809692382812500e+01 -6.883150577545166016e+00 -1.330899745225906372e-01 -2.104872226715087891e+00 -4.395877718925476074e-01
6.330000000000000000e+02 5.718508911132812500e+01 2.331262588500976562e+01 -4.297481536865234375e+00 5.238268375396728516e-01 -1.132096290588378906e+00 -6.549879908561706543e-01
6.340000000000000000e+02 5.543382644653320312e+01 2.435865211486816406e+01 6.106797233223915100e-02 3.186333417892456055e+00 9.742203950881958008e-01 -1.773465871810913086e+00
6.350000000000000000e+02 5.462817001342773438e+01 2.535355949401855469e+01 1.745175242424011230e+00 5.463098049163818359e+00 2.162482023239135742e+00 -2.937556028366088867e+00
6.360000000000000000e+02 5.026170349121093750e+01 2.204254722595214844e+01 -5.801145434379577637e-01 3.513079166412353516e+00 8.798893690109252930e-01 -7.785931825637817383e-01
6.370000000000000000e+02 4.576241683959960938e+01 2.476519775390625000e+01 2.180283308029174805e+00 9.144928932189941406e+00 3.397563695907592773e+00 3.217411041259765625e+00
6.380000000000000000e+02 4.915510940551757812e+01 2.192971801757812500e+01 -4.701265692710876465e-01 3.676113605499267578e+00 9.617961049079895020e-01 -3.629276528954505920e-02
6.390000000000000000e+02 4.510846710205078125e+01 2.354671096801757812e+01 1.273947238922119141e+00 5.834877014160156250e+00 2.132647275924682617e+00 2.935178756713867188e+00
6.400000000000000000e+02 4.608122253417968750e+01 2.165697860717773438e+01 -1.582799077033996582e+00 5.999325752258300781e+00 1.324958086013793945e+00 2.285706520080566406e+00
6.410000000000000000e+02 4.343789291381835938e+01 2.089659118652343750e+01 -2.628332614898681641e+00 3.950088739395141602e+00 3.965268135070800781e-01 2.291096687316894531e+00
6.420000000000000000e+02 4.082943725585937500e+01 2.040538978576660156e+01 -9.892988801002502441e-01 6.867185235023498535e-01 -9.077411890029907227e-02 -1.140297412872314453e+00
6.430000000000000000e+02 4.072619628906250000e+01 2.170865440368652344e+01 -4.539431571960449219e+00 -3.741531819105148315e-02 -1.373054027557373047e+00 -3.504222333431243896e-01
6.440000000000000000e+02 3.941509246826171875e+01 2.191533279418945312e+01 -1.894672513008117676e+00 7.731180787086486816e-01 -3.364663422107696533e-01 -7.937946915626525879e-01
6.450000000000000000e+02 3.955148696899414062e+01 2.060439109802246094e+01 -1.393146753311157227e+00 1.636561751365661621e+00 7.302448898553848267e-02 -2.203274250030517578e+00
6.460000000000000000e+02 3.755062866210937500e+01 1.117337417602539062e+01 1.869988322257995605e+00 2.669441699981689453e+00 1.361829042434692383e+00 -1.918912529945373535e+00
6.470000000000000000e+02 3.565871047973632812e+01 1.228437900543212891e+01 1.393417477607727051e+00 9.566092491149902344e-01 7.050080299377441406e-01 -1.130877137184143066e+00
6.480000000000000000e+02 3.832279968261718750e+01 1.006156158447265625e+01 1.725168228149414062e+00 4.200406074523925781e+00 1.777672290802001953e+00 -2.438645839691162109e+00
6.490000000000000000e+02 3.942593765258789062e+01 7.428793907165527344e+00 6.062160134315490723e-01 8.840171813964843750e+00 2.833916425704956055e+00 -1.284370899200439453e+00
6.500000000000000000e+02 3.951127624511718750e+01 6.043368816375732422e+00 6.880006194114685059e-02 7.403471469879150391e+00 2.241681575775146484e+00 -6.584839224815368652e-01
6.510000000000000000e+02 3.991387557983398438e+01 3.530757188796997070e+00 -9.971390962600708008e-01 4.034484863281250000e+00 9.112036824226379395e-01 -2.313873291015625000e+00
6.520000000000000000e+02 4.335888671875000000e+01 1.344241261482238770e+00 5.039159774780273438e+00 9.188180923461914062e+00 4.268202304840087891e+00 1.403412818908691406e+00
6.530000000000000000e+02 4.870250701904296875e+01 6.405865669250488281e+00 -3.079996109008789062e+00 -4.941570162773132324e-01 -1.072245955467224121e+00 1.316766500473022461e+00
6.540000000000000000e+02 4.760662841796875000e+01 7.272751808166503906e+00 -9.747043848037719727e-01 1.163542151451110840e+00 5.665135011076927185e-02 7.147642225027084351e-02
6.550000000000000000e+02 5.090354537963867188e+01 2.210919857025146484e+00 8.376868367195129395e-01 3.259668350219726562e+00 1.229206562042236328e+00 1.383912682533264160e+00
6.560000000000000000e+02 5.019839477539062500e+01 4.222743988037109375e+00 -1.222341209650039673e-01 9.709126949310302734e-01 2.546035647392272949e-01 1.375559091567993164e+00
6.570000000000000000e+02 5.317551422119140625e+01 -1.910666823387145996e+00 1.701177120208740234e+00 7.842776775360107422e+00 2.863186120986938477e+00 3.038389921188354492e+00
6.580000000000000000e+02 5.262516021728515625e+01 -3.051092624664306641e+00 1.301453590393066406e+00 1.019291305541992188e+01 3.448310136795043945e+00 1.827451109886169434e+00
6.590000000000000000e+02 5.381639862060546875e+01 -7.925531864166259766e-01 1.708119988441467285e+00 5.418506622314453125e+00 2.137987852096557617e+00 2.796278238296508789e+00
6.600000000000000000e+02 5.308618164062500000e+01 6.408606052398681641e+00 2.914324998855590820e+00 4.398046493530273438e+00 2.193711519241333008e+00 3.584711551666259766e+00
6.610000000000000000e+02 5.547984313964843750e+01 3.576163351535797119e-01 -6.316680312156677246e-01 1.571591496467590332e+00 2.819770276546478271e-01 1.295961976051330566e+00
6.620000000000000000e+02 5.094123077392578125e+01 5.060206890106201172e+00 -1.663110852241516113e+00 5.669182538986206055e-01 -3.288577795028686523e-01 1.919081330299377441e+00
6.630000000000000000e+02 7.688294219970703125e+01 2.337691879272460938e+01 -1.918568462133407593e-01 7.275206565856933594e+00 2.125005006790161133e+00 -2.058707028627395630e-01
6.640000000000000000e+02 7.932467651367187500e+01 2.918447113037109375e+01 3.786035254597663879e-02 7.439103603363037109e+00 2.243089199066162109e+00 -4.419003799557685852e-02
6.650000000000000000e+02 7.138977813720703125e+01 3.513750457763671875e+01 1.426611002534627914e-02 5.887902259826660156e+00 1.770650506019592285e+00 4.717465341091156006e-01
6.660000000000000000e+02 6.161071014404296875e+01 3.746719360351562500e+01 -8.877609968185424805e-01 1.905066967010498047e+00 3.051917850971221924e-01 -6.037462353706359863e-01
6.670000000000000000e+02 5.850739669799804688e+01 3.626330566406250000e+01 -1.772635340690612793e+00 2.981546521186828613e-01 -4.423442184925079346e-01 5.202161073684692383e-01
6.680000000000000000e+02 5.600744247436523438e+01 3.480925369262695312e+01 6.076362729072570801e-01 2.490778207778930664e+00 9.295243620872497559e-01 1.468131780624389648e+00
6.690000000000000000e+02 5.533376693725585938e+01 3.610446929931640625e+01 -1.360183358192443848e+00 3.924810647964477539e+00 7.693881988525390625e-01 1.337592005729675293e+00
6.700000000000000000e+02 6.256842041015625000e+01 3.559807205200195312e+01 -1.539330959320068359e+00 3.356337547302246094e+00 5.451019406318664551e-01 -6.457778811454772949e-01
6.710000000000000000e+02 6.149175643920898438e+01 3.471244430541992188e+01 -7.790997624397277832e-01 4.476681947708129883e-01 -9.942948073148727417e-02 -1.294115185737609863e-01
6.720000000000000000e+02 6.390148162841796875e+01 3.357637405395507812e+01 -9.123972803354263306e-02 5.038176059722900391e+00 1.484080910682678223e+00 -1.115983501076698303e-01
6.730000000000000000e+02 6.349272918701171875e+01 3.190212821960449219e+01 5.351983904838562012e-01 6.574934482574462891e+00 2.133039951324462891e+00 -6.285008192062377930e-01
6.740000000000000000e+02 7.921498870849609375e+01 3.200327682495117188e+01 3.979419171810150146e-02 7.362330913543701172e+00 2.220637559890747070e+00 1.887508295476436615e-02
6.750000000000000000e+02 7.938928985595703125e+01 3.756232833862304688e+01 8.674037642776966095e-03 7.642314434051513672e+00 2.295296669006347656e+00 8.899120613932609558e-03
6.760000000000000000e+02 7.480852508544921875e+01 3.841941452026367188e+01 -1.692523062229156494e-01 6.637362480163574219e+00 1.940433025360107422e+00 2.643242180347442627e-01
6.770000000000000000e+02 5.452922821044921875e+01 3.821755981445312500e+01 -1.258170962333679199e+00 3.811492919921875000e+00 7.659965753555297852e-01 1.057687044143676758e+00
6.780000000000000000e+02 4.879307556152343750e+01 3.771281051635742188e+01 -1.268143653869628906e+00 4.537477016448974609e+00 9.808000326156616211e-01 -3.705043494701385498e-01
6.790000000000000000e+02 5.356128311157226562e+01 3.076177978515625000e+01 1.021808624267578125e+00 9.331433296203613281e+00 3.105972528457641602e+00 1.273093938827514648e+00
6.800000000000000000e+02 5.415363693237304688e+01 3.287084579467773438e+01 1.469477295875549316e+00 7.208325386047363281e+00 2.603340625762939453e+00 2.343606710433959961e+00
6.810000000000000000e+02 4.830652999877929688e+01 3.015024375915527344e+01 1.164368987083435059e+00 6.033670425415039062e+00 2.159411668777465820e+00 2.120515704154968262e-01
6.820000000000000000e+02 5.359835052490234375e+01 2.953442192077636719e+01 2.552919834852218628e-02 8.928085327148437500e+00 2.686084508895874023e+00 2.384501099586486816e-01
6.830000000000000000e+02 5.357358932495117188e+01 2.831149673461914062e+01 6.374449729919433594e-01 9.216975212097167969e+00 2.956326007843017578e+00 -4.903756678104400635e-01
6.840000000000000000e+02 4.252935791015625000e+01 4.099924087524414062e+01 -5.180168747901916504e-01 2.191451072692871094e+00 5.020302534103393555e-01 -2.475428581237792969e-01
6.850000000000000000e+02 4.442865371704101562e+01 3.732691192626953125e+01 -7.892377972602844238e-01 2.936590909957885742e+00 6.442059278488159180e-01 -7.951894402503967285e-01
6.860000000000000000e+02 4.313979721069335938e+01 3.310207366943359375e+01 1.722532883286476135e-02 1.324086427688598633e+00 4.023935496807098389e-01 -7.672942876815795898e-01
6.870000000000000000e+02 4.184265899658203125e+01 3.425362014770507812e+01 -8.155615925788879395e-01 6.472545266151428223e-01 -5.049213394522666931e-02 -4.003361463546752930e-01
6.880000000000000000e+02 4.518035888671875000e+01 3.109010505676269531e+01 9.774061441421508789e-01 4.326316356658935547e+00 1.591116666793823242e+00 -1.658107876777648926e+00
6.890000000000000000e+02 4.617976379394531250e+01 2.896947860717773438e+01 1.074213981628417969e+00 7.311759948730468750e+00 2.515792131423950195e+00 -1.012962579727172852e+00
6.900000000000000000e+02 4.621832656860351562e+01 2.756900024414062500e+01 3.467268943786621094e-01 8.527393341064453125e+00 2.662236213684082031e+00 5.276321247220039368e-02
6.910000000000000000e+02 3.856222152709960938e+01 3.464822387695312500e+01 -1.447568893432617188e+00 3.802376091480255127e-01 -3.201993703842163086e-01 2.165092825889587402e-01
6.920000000000000000e+02 3.600463104248046875e+01 3.344314956665039062e+01 -3.475022912025451660e-01 2.469581365585327148e+00 6.366236805915832520e-01 4.879039227962493896e-01
6.930000000000000000e+02 4.020153808593750000e+01 3.493189239501953125e+01 -1.413062810897827148e+00 3.488383591175079346e-01 -3.192673623561859131e-01 -1.186171397566795349e-01
6.940000000000000000e+02 3.507314682006835938e+01 3.932739257812500000e+01 -6.171302795410156250e-01 2.004446506500244141e+00 4.161948859691619873e-01 1.758443713188171387e-01
6.950000000000000000e+02 3.019238281250000000e+01 3.402680206298828125e+01 -9.352736920118331909e-02 2.406317949295043945e+00 6.938371658325195312e-01 -6.474374532699584961e-01
6.960000000000000000e+02 2.783240890502929688e+01 2.873414230346679688e+01 1.501079916954040527e+00 8.379508852958679199e-01 7.017092108726501465e-01 -8.885719776153564453e-01
6.970000000000000000e+02 2.900990486145019531e+01 2.986719703674316406e+01 1.192052125930786133e+00 1.659034729003906250e+00 8.553260564804077148e-01 -9.927564859390258789e-01
6.980000000000000000e+02 2.879071998596191406e+01 2.789158248901367188e+01 1.313791275024414062e+00 1.084920167922973633e+00 7.196134328842163086e-01 -1.113421678543090820e+00
6.990000000000000000e+02 2.976179695129394531e+01 2.697318077087402344e+01 1.375363707542419434e+00 1.615228891372680664e+00 8.971778154373168945e-01 -1.331049799919128418e+00
7.000000000000000000e+02 3.067228889465332031e+01 2.593554306030273438e+01 1.313139557838439941e+00 2.644606828689575195e+00 1.187323927879333496e+00 -1.586720705032348633e+00
7.010000000000000000e+02 3.345634078979492188e+01 2.437125205993652344e+01 9.818754792213439941e-01 4.898741722106933594e+00 1.764185190200805664e+00 -6.974956989288330078e-01
7.020000000000000000e+02 3.327086639404296875e+01 2.617431640625000000e+01 1.471100091934204102e+00 4.862562656402587891e+00 1.900098800659179688e+00 -8.411588668823242188e-01
7.030000000000000000e+02 3.524967956542968750e+01 2.658603668212890625e+01 1.177425980567932129e+00 8.559677124023437500e+00 2.921130895614624023e+00 -1.985003829002380371e+00
7.040000000000000000e+02 3.374573516845703125e+01 2.806045150756835938e+01 1.231333613395690918e+00 5.529230117797851562e+00 2.028169155120849609e+00 -9.820359945297241211e-01
7.050000000000000000e+02 3.571491241455078125e+01 3.098374748229980469e+01 6.090111732482910156e-01 4.530227661132812500e+00 1.541771650314331055e+00 1.331263780593872070e+00
7.060000000000000000e+02 3.516764831542968750e+01 2.972406005859375000e+01 5.671812295913696289e-01 6.242437362670898438e+00 2.042885541915893555e+00 5.960009694099426270e-01
7.070000000000000000e+02 3.613702392578125000e+01 3.207975769042968750e+01 3.390392959117889404e-01 2.911514043807983398e+00 9.751660227775573730e-01 1.075543284416198730e+00
7.080000000000000000e+02 2.111299324035644531e+01 3.737867736816406250e+01 -3.725172020494937897e-03 9.014024138450622559e-01 2.693031728267669678e-01 -2.123377174139022827e-01
7.090000000000000000e+02 2.579580497741699219e+01 2.934562873840332031e+01 1.427217483520507812e+00 7.353523373603820801e-01 6.487709283828735352e-01 2.519557811319828033e-02
7.100000000000000000e+02 2.400722312927246094e+01 3.061734199523925781e+01 7.253108024597167969e-01 9.208118319511413574e-01 4.938367903232574463e-01 -5.715462565422058105e-02
7.110000000000000000e+02 2.438167762756347656e+01 2.907913970947265625e+01 8.892514109611511230e-01 8.466660976409912109e-01 5.207752585411071777e-01 4.258630871772766113e-01
7.120000000000000000e+02 2.829458236694335938e+01 3.089658737182617188e+01 9.066404700279235840e-01 1.566306471824645996e+00 7.418840527534484863e-01 -8.140416741371154785e-01
7.130000000000000000e+02 1.572461318969726562e+01 3.585786056518554688e+01 9.326694905757904053e-02 4.763345792889595032e-02 4.227012395858764648e-02 -4.045089706778526306e-03
7.140000000000000000e+02 1.284406471252441406e+01 3.517630767822265625e+01 6.364142894744873047e-02 9.171687066555023193e-03 2.184393629431724548e-02 6.218814477324485779e-02
7.150000000000000000e+02 1.630708312988281250e+01 3.347951889038085938e+01 -1.247654631733894348e-01 -1.394877675920724869e-02 -4.161427170038223267e-02 4.858304187655448914e-02
7.160000000000000000e+02 1.739680862426757812e+01 3.277674102783203125e+01 -7.114371657371520996e-02 1.957262493669986725e-02 -1.547132711857557297e-02 1.226596161723136902e-02
7.170000000000000000e+02 1.984004402160644531e+01 2.797256660461425781e+01 1.300534904003143311e-01 1.051406264305114746e+00 3.544379174709320068e-01 2.322862893342971802e-01
7.180000000000000000e+02 2.420980834960937500e+01 2.780850982666015625e+01 7.501288652420043945e-01 1.048395752906799316e+00 5.395573973655700684e-01 7.468053698539733887e-01
7.190000000000000000e+02 2.118292999267578125e+01 2.631460762023925781e+01 4.771670699119567871e-01 1.041014909744262695e+00 4.554545879364013672e-01 4.986638128757476807e-01
7.200000000000000000e+02 1.944941902160644531e+01 2.423007583618164062e+01 5.664830207824707031e-01 9.245135784149169922e-01 4.472990036010742188e-01 3.605546057224273682e-01
7.210000000000000000e+02 1.984569168090820312e+01 2.324382019042968750e+01 4.901394248008728027e-01 8.654158115386962891e-01 4.066665768623352051e-01 1.585719436407089233e-01
7.220000000000000000e+02 1.754571151733398438e+01 2.406785392761230469e+01 9.350664615631103516e-01 4.726229012012481689e-01 4.223068058490753174e-01 5.523746609687805176e-01
7.230000000000000000e+02 1.734382438659667969e+01 1.862777709960937500e+01 -1.586921960115432739e-01 -2.148937880992889404e-01 -1.120757982134819031e-01 2.933821976184844971e-01
7.240000000000000000e+02 1.484347152709960938e+01 1.860730361938476562e+01 6.124979257583618164e-01 1.391625106334686279e-01 2.254981398582458496e-01 3.257670700550079346e-01
7.250000000000000000e+02 1.618471717834472656e+01 1.959400367736816406e+01 4.777138531208038330e-01 -5.096315592527389526e-02 1.280252039432525635e-01 4.864365458488464355e-01
7.260000000000000000e+02 1.644363594055175781e+01 2.143722152709960938e+01 5.586194992065429688e-01 2.141987085342407227e-01 2.318454682826995850e-01 4.475786089897155762e-01
7.270000000000000000e+02 1.901458168029785156e+01 1.689550399780273438e+01 -4.944850504398345947e-01 -3.043400645256042480e-01 -2.396475225687026978e-01 3.732230067253112793e-01
7.280000000000000000e+02 2.268638420104980469e+01 1.860289192199707031e+01 4.540449678897857666e-01 1.562180042266845703e+00 6.048675179481506348e-01 -6.496877670288085938e-01
7.290000000000000000e+02 2.423932647705078125e+01 1.419917011260986328e+01 3.771859407424926758e-02 5.577248334884643555e-01 1.786330193281173706e-01 -1.372331529855728149e-01
7.300000000000000000e+02 2.027569198608398438e+01 1.010315895080566406e+01 3.048881590366363525e-01 7.413920760154724121e-01 3.138840496540069580e-01 3.456694185733795166e-01
7.310000000000000000e+02 2.030112266540527344e+01 8.803199768066406250e+00 5.737916827201843262e-01 5.291098356246948242e-01 3.308704495429992676e-01 3.726344704627990723e-01
7.320000000000000000e+02 1.909671974182128906e+01 8.306706428527832031e+00 7.748753428459167480e-01 6.730874776840209961e-01 4.343888461589813232e-01 6.251906752586364746e-01
7.330000000000000000e+02 1.798064041137695312e+01 7.539827823638916016e+00 9.083097577095031738e-01 4.635014235973358154e-01 4.115433394908905029e-01 6.330155730247497559e-01
7.340000000000000000e+02 2.021591567993164062e+01 3.075944662094116211e+00 -1.300625443458557129e+00 -1.479598134756088257e-01 -4.345755875110626221e-01 2.315568327903747559e-01
7.350000000000000000e+02 2.175438308715820312e+01 2.685046672821044922e+00 -1.361270070075988770e+00 -1.187798380851745605e-01 -4.440149962902069092e-01 3.018981516361236572e-01
7.360000000000000000e+02 2.630800437927246094e+01 1.489209651947021484e+00 -1.331359863281250000e+00 -5.803184956312179565e-02 -4.168175160884857178e-01 4.160231649875640869e-01
7.370000000000000000e+02 2.784580039978027344e+01 1.105424880981445312e+00 -1.338884234428405762e+00 9.448976069688796997e-02 -3.733183443546295166e-01 3.225426971912384033e-01
7.380000000000000000e+02 3.043833732604980469e+01 2.083361387252807617e+00 -4.788947701454162598e-01 5.882181525230407715e-01 3.279700875282287598e-02 -8.138517290353775024e-02
7.390000000000000000e+02 3.349761962890625000e+01 1.469199776649475098e+00 -1.119917035102844238e+00 2.808387577533721924e-01 -2.517234981060028076e-01 -2.476528435945510864e-01
7.400000000000000000e+02 3.287184143066406250e+01 1.237554430961608887e+00 -8.193418979644775391e-01 4.485566914081573486e-01 -1.112355664372444153e-01 -2.241296619176864624e-01
7.410000000000000000e+02 1.010596179962158203e+01 3.599276351928710938e+01 1.929658055305480957e-01 5.645777285099029541e-02 7.482707500457763672e-02 1.590345501899719238e-01
7.420000000000000000e+02 4.450514793395996094e+00 4.049904251098632812e+01 -5.506938323378562927e-02 -7.429950237274169922e-01 -2.394193261861801147e-01 2.569881454110145569e-02
7.430000000000000000e+02 8.818187713623046875e+00 3.462390136718750000e+01 4.236491918563842773e-01 1.424442082643508911e-01 1.698280125856399536e-01 1.714360117912292480e-01
7.440000000000000000e+02 1.041909027099609375e+01 3.892614364624023438e+01 6.667308043688535690e-03 2.621477469801902771e-02 9.864624589681625366e-03 9.983050078153610229e-02
7.450000000000000000e+02 1.935811758041381836e+00 4.162382888793945312e+01 -8.616343885660171509e-02 -1.081924200057983398e+00 -3.504262864589691162e-01 -2.442090958356857300e-02
7.460000000000000000e+02 8.114512562751770020e-01 3.349636840820312500e+01 2.129402011632919312e-02 -1.358989238739013672e+00 -4.013085365295410156e-01 1.572162285447120667e-02
7.470000000000000000e+02 2.439386844635009766e+00 3.384835052490234375e+01 4.251222312450408936e-02 -1.040162801742553711e+00 -2.992951869964599609e-01 2.299770712852478027e-02
7.480000000000000000e+02 7.767781257629394531e+00 3.366356658935546875e+01 2.797742187976837158e-01 1.718473285436630249e-01 1.354864686727523804e-01 2.174776494503021240e-01
7.490000000000000000e+02 6.963486194610595703e+00 3.250310516357421875e+01 1.291238814592361450e-01 5.736352875828742981e-02 5.594622343778610229e-02 1.025969311594963074e-01
7.500000000000000000e+02 5.965313434600830078e+00 2.996549034118652344e+01 9.198675863444805145e-03 -4.850794076919555664e-01 -1.427642107009887695e-01 -1.596222631633281708e-02
7.510000000000000000e+02 5.652189254760742188e+00 2.873870849609375000e+01 -3.015224635601043701e-02 -6.977266669273376465e-01 -2.183636724948883057e-01 3.769925236701965332e-02
7.520000000000000000e+02 3.584087133407592773e+00 2.607295036315917969e+01 -7.044214010238647461e-02 -7.946317195892333984e-01 -2.595221698284149170e-01 4.909626021981239319e-02
7.530000000000000000e+02 5.811187028884887695e-01 2.470508956909179688e+01 4.525899421423673630e-03 -1.042053461074829102e+00 -3.112582862377166748e-01 -9.329775348305702209e-03
7.540000000000000000e+02 1.663909196853637695e+00 2.316807746887207031e+01 2.012975281104445457e-03 -9.455112218856811523e-01 -2.830494642257690430e-01 -1.962769776582717896e-02
7.550000000000000000e+02 2.179954290390014648e+00 1.751443290710449219e+01 6.237408146262168884e-02 -7.816582322120666504e-01 -2.157852500677108765e-01 1.210663318634033203e-01
7.560000000000000000e+02 1.645251750946044922e+00 1.171504592895507812e+01 -1.309996377676725388e-02 -3.342189490795135498e-01 -1.041956767439842224e-01 2.097089290618896484e-01
7.570000000000000000e+02 3.195249557495117188e+00 3.988240003585815430e+00 -5.204083397984504700e-02 6.313875317573547363e-03 -1.371808722615242004e-02 -3.297363221645355225e-02
7.580000000000000000e+02 1.008553314208984375e+01 2.012834072113037109e+00 -1.087030395865440369e-02 -5.008619651198387146e-02 -1.828695088624954224e-02 5.462567508220672607e-02
7.590000000000000000e+02 1.253415775299072266e+01 7.439440250396728516e+00 -1.258252859115600586e+00 -8.047019839286804199e-01 -6.188864111900329590e-01 8.377466797828674316e-01
7.600000000000000000e+02 1.078243064880371094e+01 2.154132604598999023e+00 -5.814540386199951172e-02 -5.613154545426368713e-02 -3.428308293223381042e-02 8.650092035531997681e-02
7.610000000000000000e+02 1.148022747039794922e+01 2.294380426406860352e+00 -1.330433338880538940e-01 -5.658989772200584412e-02 -5.688996613025665283e-02 1.397591084241867065e-01
7.620000000000000000e+02 1.369711017608642578e+01 2.774463415145874023e+00 -4.776031970977783203e-01 9.179143235087394714e-04 -1.430055797100067139e-01 3.923890888690948486e-01
7.630000000000000000e+02 1.688272094726562500e+01 3.250267028808593750e+00 -1.083439707756042480e+00 5.148689821362495422e-02 -3.095858693122863770e-01 5.398436188697814941e-01
7.640000000000000000e+02 1.774119949340820312e+01 3.302698373794555664e+00 -1.140210509300231934e+00 -3.725976496934890747e-02 -3.532410860061645508e-01 4.940221607685089111e-01
7.650000000000000000e+02 3.396450424194335938e+01 1.735654473304748535e+00 1.873101443052291870e-01 1.902319788932800293e-01 1.132626309990882874e-01 -2.662019431591033936e-01
7.660000000000000000e+02 2.903842353820800781e+01 6.717839241027832031e+00 2.635294795036315918e-01 1.592422723770141602e+00 5.567856431007385254e-01 -3.970271646976470947e-01
7.670000000000000000e+02 2.917065620422363281e+01 8.087461471557617188e+00 1.100560352206230164e-01 1.049804210662841797e+00 3.479580581188201904e-01 -9.378440678119659424e-03
7.680000000000000000e+02 3.020863914489746094e+01 1.046309566497802734e+01 7.162909954786300659e-02 3.086429238319396973e-01 1.140816062688827515e-01 1.004470214247703552e-01
7.690000000000000000e+02 2.924759101867675781e+01 1.249681663513183594e+01 -3.838770836591720581e-02 3.706816732883453369e-01 9.968818724155426025e-02 1.420322060585021973e-01
7.700000000000000000e+02 2.983984947204589844e+01 1.536889553070068359e+01 3.480768501758575439e-01 1.401580870151519775e-01 1.464704871177673340e-01 2.077966034412384033e-01
7.710000000000000000e+02 2.999109077453613281e+01 1.414000320434570312e+01 2.068361341953277588e-01 2.619534432888031006e-01 1.406368613243103027e-01 2.603885233402252197e-01
7.720000000000000000e+02 2.846999168395996094e+01 1.505626296997070312e+01 2.292240113019943237e-01 7.685643434524536133e-02 9.182412922382354736e-02 8.111461997032165527e-02
7.730000000000000000e+02 2.711509895324707031e+01 1.496750926971435547e+01 2.120980620384216309e-01 9.800842404365539551e-02 9.303194284439086914e-02 -6.802134960889816284e-02
7.740000000000000000e+02 2.519647026062011719e+01 1.581326103210449219e+01 2.442135959863662720e-01 3.818568587303161621e-01 1.878211349248886108e-01 -2.828999757766723633e-01
7.750000000000000000e+02 2.169516372680664062e+01 1.614925575256347656e+01 -1.994421184062957764e-01 6.576456427574157715e-01 1.374610513448715210e-01 5.128337070345878601e-02
7.760000000000000000e+02 2.436166381835937500e+01 1.669402313232421875e+01 3.334442079067230225e-01 6.313244700431823730e-01 2.894305884838104248e-01 -4.480569958686828613e-01
7.770000000000000000e+02 1.801401519775390625e+01 1.772413063049316406e+01 -4.969887137413024902e-01 -2.763210237026214600e-01 -2.319929152727127075e-01 3.676032423973083496e-01
7.780000000000000000e+02 2.214896583557128906e+01 2.049931144714355469e+01 2.108356952667236328e-01 1.685274839401245117e+00 5.688331723213195801e-01 -2.938426136970520020e-01
7.790000000000000000e+02 2.310008430480957031e+01 2.557707977294921875e+01 3.030744791030883789e-01 1.272688627243041992e+00 4.727289378643035889e-01 5.217714905738830566e-01
7.800000000000000000e+02 3.306016540527343750e+01 1.241808319091796875e+01 -3.022459447383880615e-01 7.714604586362838745e-02 -6.752996891736984253e-02 -1.085787862539291382e-01
7.810000000000000000e+02 3.917262268066406250e+01 3.423059463500976562e+00 -8.872680664062500000e-01 2.064523458480834961e+00 3.531766235828399658e-01 -1.154961824417114258e+00
7.820000000000000000e+02 3.819530487060546875e+01 3.242033481597900391e+00 -7.131433486938476562e-01 -1.315822362899780273e+00 -6.086897253990173340e-01 -9.058163762092590332e-01
7.830000000000000000e+02 3.501266860961914062e+01 -1.930199503898620605e+00 -4.568139016628265381e-01 7.121158242225646973e-01 7.659057527780532837e-02 -2.685024142265319824e-01
7.840000000000000000e+02 2.990046119689941406e+01 -5.458315849304199219e+00 3.636970371007919312e-02 -1.553203344345092773e+00 -4.550501108169555664e-01 -1.547438204288482666e-01
7.850000000000000000e+02 2.979693984985351562e+01 -7.357586860656738281e+00 -1.532851438969373703e-02 -1.297676682472229004e+00 -3.939015567302703857e-01 3.551505804061889648e-01
7.860000000000000000e+02 2.964627265930175781e+01 -8.558505058288574219e+00 4.075612127780914307e-01 1.428048163652420044e-01 1.651098132133483887e-01 7.071452736854553223e-01
7.870000000000000000e+02 3.078996849060058594e+01 -1.120553112030029297e+01 5.872781872749328613e-01 1.249808311462402344e+00 5.511259436607360840e-01 1.798570156097412109e+00
7.880000000000000000e+02 3.711125946044921875e+01 -9.056215286254882812e+00 1.019743919372558594e+00 7.625754356384277344e+00 2.593649387359619141e+00 -2.660287320613861084e-01
7.890000000000000000e+02 2.917155647277832031e+01 -3.936969995498657227e+00 3.407230079174041748e-01 -1.296763680875301361e-02 9.832660853862762451e-02 -1.219261884689331055e-01
7.900000000000000000e+02 3.012135124206542969e+01 -3.408524751663208008e+00 5.318077206611633301e-01 -5.717716813087463379e-01 -1.198919396847486496e-02 -6.006168127059936523e-01
7.910000000000000000e+02 2.936997985839843750e+01 -9.848750114440917969e+00 1.064182639122009277e+00 1.780683279037475586e+00 8.534597754478454590e-01 1.478551864624023438e+00
7.920000000000000000e+02 2.864502716064453125e+01 -1.101255989074707031e+01 1.126925468444824219e+00 1.920073628425598145e+00 9.140997529029846191e-01 1.449845194816589355e+00
7.930000000000000000e+02 2.738211822509765625e+01 -1.314703083038330078e+01 -5.163961648941040039e-01 1.411306023597717285e+00 2.684729695320129395e-01 6.702685356140136719e-01
7.940000000000000000e+02 2.484987831115722656e+01 -1.356597709655761719e+01 -1.121463537216186523e+00 4.626842960715293884e-02 -3.225585222244262695e-01 -2.305289357900619507e-01
7.950000000000000000e+02 2.243390274047851562e+01 -1.470908164978027344e+01 -6.575609445571899414e-01 -1.207396909594535828e-01 -2.334901988506317139e-01 -2.225199937820434570e-01
7.960000000000000000e+02 2.395557212829589844e+01 -1.701790046691894531e+01 4.588862359523773193e-01 4.449394345283508301e-01 2.711476981639862061e-01 2.395886741578578949e-02
7.970000000000000000e+02 2.215557479858398438e+01 -2.601186561584472656e+01 -9.382162988185882568e-02 2.177875339984893799e-01 3.718977048993110657e-02 1.749986708164215088e-01
7.980000000000000000e+02 2.138317108154296875e+01 -1.374421691894531250e+01 -9.639732241630554199e-01 -1.081476211547851562e-01 -3.216362595558166504e-01 -8.512230589985847473e-03
7.990000000000000000e+02 2.026082992553710938e+01 -1.294892692565917969e+01 -2.720694243907928467e-01 -2.309683337807655334e-02 -8.854987472295761108e-02 1.353040337562561035e-01
8.000000000000000000e+02 1.839089584350585938e+01 -1.089594554901123047e+01 7.418166380375623703e-03 1.056797727942466736e-01 3.392938151955604553e-02 5.489870440214872360e-03
8.010000000000000000e+02 1.929555702209472656e+01 -1.193217468261718750e+01 -1.425888389348983765e-01 -9.848369285464286804e-03 -4.573116078972816467e-02 1.869994215667247772e-02
8.020000000000000000e+02 1.697991561889648438e+01 -1.294193077087402344e+01 -1.397419720888137817e-01 2.610051631927490234e-01 3.637896105647087097e-02 -3.490925580263137817e-02
8.030000000000000000e+02 1.711740875244140625e+01 -1.768100166320800781e+01 1.567824333906173706e-01 1.497275978326797485e-01 9.195300936698913574e-02 -2.609837949275970459e-01
8.040000000000000000e+02 1.664271163940429688e+01 -1.939113426208496094e+01 8.375994861125946045e-02 4.055209085345268250e-02 3.729360923171043396e-02 -5.738204345107078552e-02
8.050000000000000000e+02 1.360327243804931641e+01 -2.198274421691894531e+01 -5.268047377467155457e-02 1.441606599837541580e-02 -1.147932186722755432e-02 3.337878733873367310e-02
8.060000000000000000e+02 1.685801506042480469e+01 -2.166010284423828125e+01 2.449626028537750244e-01 6.217018887400627136e-02 9.213983267545700073e-02 1.772723644971847534e-01
8.070000000000000000e+02 1.859010505676269531e+01 -2.643972969055175781e+01 1.412806957960128784e-01 3.893389925360679626e-02 5.406438186764717102e-02 2.615178823471069336e-01
8.080000000000000000e+02 1.989916229248046875e+01 -2.511647987365722656e+01 2.251084595918655396e-01 -2.002990245819091797e-01 7.442831527441740036e-03 4.508822858333587646e-01
8.090000000000000000e+02 1.588462066650390625e+01 -7.925749421119689941e-01 -3.034480810165405273e-01 -2.640780508518218994e-01 -1.702578365802764893e-01 -7.388126850128173828e-02
8.100000000000000000e+02 1.214812850952148438e+01 -1.471506118774414062e+00 -2.300548404455184937e-01 7.189657539129257202e-02 -4.744748026132583618e-02 -1.195218488574028015e-01
8.110000000000000000e+02 5.253250122070312500e+01 -1.553957366943359375e+01 -3.458894014358520508e+00 1.548158049583435059e+00 -5.732207298278808594e-01 -2.307709455490112305e+00
8.120000000000000000e+02 5.342713928222656250e+01 -1.648698043823242188e+01 -1.635679721832275391e+00 2.534155368804931641e+00 2.695426642894744873e-01 -2.138132095336914062e+00
8.130000000000000000e+02 5.437198257446289062e+01 -1.542922782897949219e+01 -1.884015917778015137e+00 6.223347663879394531e+00 1.301799416542053223e+00 -3.499503135681152344e+00
8.140000000000000000e+02 5.443981933593750000e+01 -1.731801033020019531e+01 1.825735211372375488e+00 7.206565856933593750e+00 2.709690332412719727e+00 -2.924015283584594727e+00
8.150000000000000000e+02 5.714102554321289062e+01 -1.842018127441406250e+01 1.490550637245178223e+00 7.370882987976074219e+00 2.658430099487304688e+00 -3.908164203166961670e-01
8.160000000000000000e+02 6.471566009521484375e+01 -2.019416999816894531e+01 2.680859267711639404e-01 9.881778717041015625e+00 3.044959545135498047e+00 -2.142779529094696045e-01
8.170000000000000000e+02 6.444926452636718750e+01 -1.760299682617187500e+01 -4.913558661937713623e-01 6.210140705108642578e+00 1.715635418891906738e+00 -4.223360121250152588e-02
8.180000000000000000e+02 6.302252578735351562e+01 -1.800208663940429688e+01 4.943198338150978088e-02 6.908207416534423828e+00 2.087291955947875977e+00 -8.296729326248168945e-01
8.190000000000000000e+02 6.684780883789062500e+01 -1.049314498901367188e+01 1.566231489181518555e+00 3.617841243743896484e+00 1.555221796035766602e+00 -2.072365522384643555e+00
8.200000000000000000e+02 6.379716110229492188e+01 -1.045699882507324219e+01 -1.918281316757202148e-01 7.346078395843505859e+00 2.146275043487548828e+00 1.787669062614440918e-01
8.210000000000000000e+02 5.568972015380859375e+01 -1.803217506408691406e+01 1.799480080604553223e+00 8.643292427062988281e+00 3.132831811904907227e+00 -1.848288297653198242e+00
8.220000000000000000e+02 5.545634078979492188e+01 -2.063570022583007812e+01 7.120792269706726074e-01 1.225629520416259766e+01 3.890512466430664062e+00 -4.386657178401947021e-01
8.230000000000000000e+02 5.750354003906250000e+01 -2.456525421142578125e+01 -6.751605868339538574e-01 6.446191787719726562e+00 1.731309413909912109e+00 7.169801592826843262e-01
8.240000000000000000e+02 5.642858886718750000e+01 -2.222461509704589844e+01 2.409407854080200195e+00 8.385400772094726562e+00 3.238442420959472656e+00 9.889354705810546875e-01
8.250000000000000000e+02 5.468773269653320312e+01 -2.599987792968750000e+01 -3.157198905944824219e+00 7.485371112823486328e+00 1.298451662063598633e+00 2.225663185119628906e+00
8.260000000000000000e+02 5.549072265625000000e+01 -2.664644241333007812e+01 -1.965154767036437988e+00 7.525426387786865234e+00 1.668081521987915039e+00 2.172299861907958984e+00
8.270000000000000000e+02 5.784218597412109375e+01 -2.690234375000000000e+01 -3.181380510330200195e+00 7.007985591888427734e+00 1.147981524467468262e+00 1.695839762687683105e+00
8.280000000000000000e+02 5.731619262695312500e+01 -2.911380195617675781e+01 1.213581919670104980e+00 7.283310890197753906e+00 2.549067735671997070e+00 3.033416748046875000e+00
8.290000000000000000e+02 5.314715194702148438e+01 -2.586095809936523438e+01 -3.169046163558959961e+00 2.260326385498046875e+00 -2.726159393787384033e-01 1.342386722564697266e+00
8.300000000000000000e+02 4.672464752197265625e+01 -2.842713356018066406e+01 -1.722599118947982788e-01 1.981720089912414551e+00 5.428380370140075684e-01 -1.730211734771728516e+00
8.310000000000000000e+02 4.962255096435546875e+01 -2.565579032897949219e+01 -3.137200117111206055e+00 1.739000082015991211e+00 -4.194599986076354980e-01 -1.561051130294799805e+00
8.320000000000000000e+02 4.891296768188476562e+01 -2.443611335754394531e+01 -1.255127429962158203e+00 2.132728576660156250e+00 2.632803916931152344e-01 -1.045683860778808594e+00
8.330000000000000000e+02 4.419655227661132812e+01 -2.270603942871093750e+01 1.818669080734252930e+00 3.686546087265014648e+00 1.651564598083496094e+00 1.407305002212524414e+00
8.340000000000000000e+02 4.703604125976562500e+01 -2.215507507324218750e+01 2.004224538803100586e+00 8.207985877990722656e+00 3.063663005828857422e+00 -2.063329696655273438e+00
8.350000000000000000e+02 4.487940979003906250e+01 -2.769735908508300781e+01 -2.592974901199340820e+00 8.466817140579223633e-01 -5.238879323005676270e-01 -1.767583191394805908e-01
8.360000000000000000e+02 4.592788314819335938e+01 -2.727382469177246094e+01 -1.717699646949768066e+00 1.940404415130615234e+00 6.681142002344131470e-02 -1.292574763298034668e+00
8.370000000000000000e+02 4.775687026977539062e+01 -2.927568054199218750e+01 2.089187622070312500e+00 3.181846857070922852e+00 1.581310391426086426e+00 -2.748627901077270508e+00
8.380000000000000000e+02 4.931602096557617188e+01 -3.153051376342773438e+01 1.648401618003845215e+00 8.144006729125976562e+00 2.937722444534301758e+00 -2.374390602111816406e+00
8.390000000000000000e+02 4.965459442138671875e+01 -3.275758743286132812e+01 8.955605030059814453e-01 8.407811164855957031e+00 2.791011571884155273e+00 -1.888380348682403564e-01
8.400000000000000000e+02 5.034402084350585938e+01 -3.389439010620117188e+01 1.835100889205932617e+00 7.118412494659423828e+00 2.686053991317749023e+00 6.982018351554870605e-01
8.410000000000000000e+02 4.665826797485351562e+01 -2.065652847290039062e+01 1.408666968345642090e+00 1.108446598052978516e+01 3.747939825057983398e+00 1.701690852642059326e-01
8.420000000000000000e+02 4.613035964965820312e+01 -1.639662551879882812e+01 -2.128826379776000977e+00 7.244223594665527344e+00 1.534619212150573730e+00 2.004406690597534180e+00
8.430000000000000000e+02 4.052522277832031250e+01 -1.651277351379394531e+01 -7.585429549217224121e-01 1.258511185646057129e+00 1.499904841184616089e-01 -7.239835858345031738e-01
8.440000000000000000e+02 4.753393936157226562e+01 -1.663404083251953125e+01 -2.401085615158081055e+00 6.737606048583984375e+00 1.300956130027770996e+00 2.690305948257446289e+00
8.450000000000000000e+02 4.892700576782226562e+01 -1.666351127624511719e+01 -3.385990381240844727e+00 2.446267843246459961e+00 -2.819167971611022949e-01 1.011736392974853516e+00
8.460000000000000000e+02 5.016098403930664062e+01 -1.636352348327636719e+01 -6.925379276275634766e+00 -2.311557084321975708e-01 -2.146960496902465820e+00 -1.163299679756164551e+00
8.470000000000000000e+02 7.384255218505859375e+01 -2.202036094665527344e+01 6.784640550613403320e-01 1.343846797943115234e+01 4.235079288482666016e+00 3.342196345329284668e-01
8.480000000000000000e+02 7.944680023193359375e+01 -2.638382911682128906e+01 2.647676691412925720e-02 7.579170227050781250e+00 2.281694173812866211e+00 -2.127322554588317871e-01
8.490000000000000000e+02 7.181352996826171875e+01 -2.604213905334472656e+01 -2.034284114837646484e+00 1.489719390869140625e+00 -1.633694320917129517e-01 9.416170120239257812e-01
8.500000000000000000e+02 7.093884277343750000e+01 -2.711029243469238281e+01 -1.780696153640747070e+00 1.207693576812744141e+00 -1.719007641077041626e-01 9.080182909965515137e-01
8.510000000000000000e+02 6.964929199218750000e+01 -2.649434089660644531e+01 -4.049630641937255859e+00 -2.398646175861358643e-01 -1.286848545074462891e+00 1.607151143252849579e-02
8.520000000000000000e+02 6.847088623046875000e+01 -2.903177452087402344e+01 1.722969412803649902e+00 4.148081779479980469e+00 1.761315345764160156e+00 -1.743951678276062012e+00
8.530000000000000000e+02 6.716072845458984375e+01 -2.540393257141113281e+01 5.266581773757934570e-01 4.941864490509033203e+00 1.640556693077087402e+00 -2.597713947296142578e+00
8.540000000000000000e+02 6.353674697875976562e+01 -2.761205482482910156e+01 7.758337259292602539e-01 4.330272197723388672e+00 1.531831741333007812e+00 -2.601305484771728516e+00
8.550000000000000000e+02 6.569450378417968750e+01 -2.895849227905273438e+01 2.401304006576538086e+00 1.011511611938476562e+01 3.754925966262817383e+00 -3.949768781661987305e+00
8.560000000000000000e+02 6.569855499267578125e+01 -3.030948257446289062e+01 3.018811702728271484e+00 1.293446731567382812e+01 4.785983562469482422e+00 -4.284030914306640625e+00
8.570000000000000000e+02 6.609645080566406250e+01 -3.300745773315429688e+01 4.497930705547332764e-01 9.625545501708984375e+00 3.022601366043090820e+00 -9.138769507408142090e-01
8.580000000000000000e+02 6.623881530761718750e+01 -3.435728454589843750e+01 3.553120493888854980e-01 8.153952598571777344e+00 2.552779436111450195e+00 -3.009887635707855225e-01
8.590000000000000000e+02 6.534857177734375000e+01 -3.642572784423828125e+01 -2.502289414405822754e-01 4.617490291595458984e+00 1.310178399085998535e+00 3.735366463661193848e-01
8.600000000000000000e+02 6.736486053466796875e+01 -4.148667907714843750e+01 -1.634474515914916992e+00 4.791311740875244141e+00 9.470511674880981445e-01 -3.896537795662879944e-02
8.610000000000000000e+02 6.659465789794921875e+01 -3.774504089355468750e+01 -2.116428136825561523e+00 5.275477409362792969e+00 9.477147459983825684e-01 -5.916242003440856934e-01
8.620000000000000000e+02 6.114237213134765625e+01 -2.644372558593750000e+01 -5.244574069976806641e+00 -4.780056774616241455e-01 -1.716773867607116699e+00 -4.349709153175354004e-01
8.630000000000000000e+02 6.473711395263671875e+01 -2.166017532348632812e+01 2.123138904571533203e+00 1.293025398254394531e+01 4.516017913818359375e+00 -2.701083421707153320e+00
8.640000000000000000e+02 6.693537902832031250e+01 -1.639407348632812500e+01 -3.225053548812866211e+00 3.714085742831230164e-02 -9.563738107681274414e-01 -4.899052381515502930e-01
8.650000000000000000e+02 6.827582550048828125e+01 -1.606067276000976562e+01 -2.558802843093872070e+00 5.385996028780937195e-02 -7.514828443527221680e-01 -8.554540872573852539e-01
8.660000000000000000e+02 6.241724395751953125e+01 -2.679607200622558594e+01 -3.095831632614135742e+00 1.919409036636352539e+00 -3.529267907142639160e-01 -8.226967453956604004e-01
8.670000000000000000e+02 6.604894256591796875e+01 -2.439887619018554688e+01 2.499526977539062500e+00 7.953868865966796875e+00 3.136018753051757812e+00 -4.805833816528320312e+00
8.680000000000000000e+02 6.590972900390625000e+01 -2.768813896179199219e+01 -8.129459023475646973e-01 7.976541042327880859e+00 2.149078607559204102e+00 -2.613034486770629883e+00
8.690000000000000000e+02 5.596128082275390625e+01 -3.465510559082031250e+01 1.233225345611572266e+00 9.444554328918457031e+00 3.203334093093872070e+00 -1.222926378250122070e+00
8.700000000000000000e+02 5.595091247558593750e+01 -3.331291961669921875e+01 8.540407419204711914e-01 1.177794456481933594e+01 3.789595603942871094e+00 1.562123298645019531e-01
8.710000000000000000e+02 5.975427627563476562e+01 -2.599081039428710938e+01 -2.900907993316650391e+00 1.536913871765136719e+00 -4.091982543468475342e-01 6.727665066719055176e-01
8.720000000000000000e+02 1.725162887573242188e+01 -2.679072189331054688e+01 5.888994932174682617e-01 2.644365429878234863e-01 2.560008168220520020e-01 3.607682585716247559e-01
8.730000000000000000e+02 4.807290077209472656e+00 -1.959848213195800781e+01 6.157918274402618408e-02 -4.016137868165969849e-02 6.425342056900262833e-03 -1.060466244816780090e-01
8.740000000000000000e+02 4.346084117889404297e+00 -1.867092323303222656e+01 -4.891515895724296570e-02 -2.415504902601242065e-01 -8.713969588279724121e-02 -1.549655944108963013e-01
8.750000000000000000e+02 2.133140563964843750e+00 -1.844094276428222656e+01 -9.560302831232547760e-03 -2.775600552558898926e-01 -8.613611012697219849e-02 -1.452438086271286011e-01
8.760000000000000000e+02 3.401558876037597656e+00 -1.829047775268554688e+01 -6.902904808521270752e-02 -2.131799608469009399e-01 -8.466269820928573608e-02 -1.556518524885177612e-01
8.770000000000000000e+02 4.659059524536132812e+00 -1.586040973663330078e+01 -1.154845282435417175e-01 -2.233979552984237671e-01 -1.016647443175315857e-01 -1.360508501529693604e-01
8.780000000000000000e+02 1.875167727470397949e+00 -1.431679058074951172e+01 -2.840498834848403931e-02 -1.720539480447769165e-01 -6.013768166303634644e-02 -5.113231763243675232e-02
8.790000000000000000e+02 4.768195724487304688e+01 1.877902603149414062e+01 -3.298651218414306641e+00 1.469425320625305176e+00 -5.487678050994873047e-01 1.123508691787719727e+00
8.800000000000000000e+02 5.072788619995117188e+01 1.803083801269531250e+01 -1.467641115188598633e+00 8.616794943809509277e-01 -1.817884594202041626e-01 -5.245246458798646927e-03
8.810000000000000000e+02 5.281436538696289062e+01 1.613373184204101562e+01 1.066992163658142090e+00 2.717532634735107422e+00 1.135357379913330078e+00 -1.783303856849670410e+00
8.820000000000000000e+02 5.375759506225585938e+01 1.515820789337158203e+01 1.400383949279785156e+00 5.127122879028320312e+00 1.958251953125000000e+00 -2.110735654830932617e+00
8.830000000000000000e+02 5.723127365112304688e+01 1.352161979675292969e+01 1.725888967514038086e+00 8.151809692382812500e+00 2.963309526443481445e+00 1.232396364212036133e+00
8.840000000000000000e+02 5.507970046997070312e+01 1.907077026367187500e+01 -7.338914275169372559e-01 4.493742942810058594e+00 1.127955436706542969e+00 -2.143739938735961914e+00
8.850000000000000000e+02 5.462662887573242188e+01 1.314989280700683594e+01 8.970620632171630859e-01 9.048028945922851562e+00 2.983527183532714844e+00 -1.528045773506164551e+00
8.860000000000000000e+02 5.480456161499023438e+01 1.051973438262939453e+01 2.010563910007476807e-01 1.232006835937500000e+01 3.756337404251098633e+00 5.664716362953186035e-01
8.870000000000000000e+02 6.007317733764648438e+01 7.827799320220947266e+00 2.829552888870239258e-01 5.682904720306396484e+00 1.789757966995239258e+00 -8.573917746543884277e-01
8.880000000000000000e+02 5.410430526733398438e+01 7.277456760406494141e+00 3.423313379287719727e+00 1.021626281738281250e+01 4.091872692108154297e+00 4.341849327087402344e+00
8.890000000000000000e+02 5.778432083129882812e+01 2.364351511001586914e+00 -2.433139234781265259e-01 3.235071897506713867e+00 8.975273966789245605e-01 -1.187948465347290039e+00
8.900000000000000000e+02 5.182323837280273438e+01 4.068192958831787109e+00 1.251486539840698242e-01 2.943607091903686523e+00 9.206267595291137695e-01 3.016523838043212891e+00
8.910000000000000000e+02 5.815951919555664062e+01 1.116598367691040039e+00 -1.097485780715942383e+00 2.416340589523315430e+00 3.956564664840698242e-01 -1.670041680335998535e+00
8.920000000000000000e+02 4.656377029418945312e+01 8.241741180419921875e+00 5.353356897830963135e-02 2.640608787536621094e+00 8.082427382469177246e-01 -1.280543208122253418e+00
8.930000000000000000e+02 4.444079589843750000e+01 9.867514610290527344e+00 1.112855076789855957e+00 8.871741294860839844e+00 2.995378971099853516e+00 -1.477275609970092773e+00
8.940000000000000000e+02 4.465748214721679688e+01 1.386136722564697266e+01 9.837054014205932617e-01 1.254979515075683594e+01 4.060050010681152344e+00 1.491789817810058594e+00
8.950000000000000000e+02 4.534499359130859375e+01 1.649547767639160156e+01 1.963211297988891602e+00 8.747129440307617188e+00 3.213102102279663086e+00 3.266919136047363281e+00
8.960000000000000000e+02 4.492983627319335938e+01 1.523386669158935547e+01 1.280677914619445801e+00 1.091026878356933594e+01 3.657284021377563477e+00 2.759094476699829102e+00
8.970000000000000000e+02 4.208946609497070312e+01 2.182553291320800781e+01 -4.424504756927490234e+00 -6.494455039501190186e-03 -1.329299688339233398e+00 -3.338974714279174805e-01
8.980000000000000000e+02 4.551213455200195312e+01 2.056225967407226562e+01 -2.313792467117309570e+00 5.658841133117675781e+00 1.003514647483825684e+00 2.576490163803100586e+00
8.990000000000000000e+02 1.666308784484863281e+01 6.971834659576416016e+00 5.874496698379516602e-01 2.780092060565948486e-01 2.596376538276672363e-01 4.226341545581817627e-01
9.000000000000000000e+02 1.052421665191650391e+01 9.115013122558593750e+00 -6.878319382667541504e-01 -8.642802238464355469e-01 -4.656336605548858643e-01 6.672378182411193848e-01
9.010000000000000000e+02 9.529688835144042969e+00 1.093787574768066406e+01 -2.716350555419921875e-01 -7.268393635749816895e-01 -2.995423376560211182e-01 4.123245477676391602e-01
9.020000000000000000e+02 9.464468002319335938e+00 1.351700496673583984e+01 1.535662114620208740e-01 2.925786375999450684e-01 1.338434517383575439e-01 2.943571805953979492e-01
9.030000000000000000e+02 9.457734107971191406e+00 1.224481010437011719e+01 -2.959001436829566956e-02 -2.302042543888092041e-01 -7.793828099966049194e-02 1.826441884040832520e-01
9.040000000000000000e+02 7.645648479461669922e+00 1.408384132385253906e+01 2.590215802192687988e-01 -2.077439427375793457e-01 1.538329105824232101e-02 4.973073005676269531e-01
9.050000000000000000e+02 1.094444179534912109e+01 1.664915084838867188e+01 8.456869721412658691e-01 8.434250354766845703e-01 5.067335963249206543e-01 7.463848590850830078e-01
9.060000000000000000e+02 1.203205108642578125e+01 1.763019752502441406e+01 1.063445091247558594e+00 6.508094668388366699e-01 5.142763853073120117e-01 7.367306351661682129e-01
9.070000000000000000e+02 3.158971214294433594e+01 -1.585833740234375000e+01 3.199250400066375732e-01 1.868490219116210938e+00 6.565245985984802246e-01 1.203997611999511719e+00
9.080000000000000000e+02 2.874732017517089844e+01 -1.476114654541015625e+01 -6.133356690406799316e-01 2.540780782699584961e+00 5.782335400581359863e-01 9.274678230285644531e-01
9.090000000000000000e+02 3.268745040893554688e+01 -1.524388027191162109e+01 -1.780450105667114258e+00 6.089391112327575684e-01 -3.514533042907714844e-01 4.097899794578552246e-01
9.100000000000000000e+02 2.491034889221191406e+01 -1.647781753540039062e+01 2.582255303859710693e-01 8.045964241027832031e-01 3.188465833663940430e-01 1.381331384181976318e-01
9.110000000000000000e+02 2.967234802246093750e+01 -1.844490432739257812e+01 9.813911914825439453e-01 4.509769439697265625e+00 1.647348165512084961e+00 1.923463463783264160e+00
9.120000000000000000e+02 2.362507057189941406e+01 -1.397312259674072266e+01 -1.324368000030517578e+00 -1.144509986042976379e-01 -4.316456913948059082e-01 -2.080039530992507935e-01
9.130000000000000000e+02 3.384065628051757812e+01 -1.481641483306884766e+01 -4.388327598571777344e+00 -3.001898527145385742e-01 -1.406555175781250000e+00 8.115217685699462891e-01
9.140000000000000000e+02 3.755347061157226562e+01 -1.343972110748291016e+01 -3.033802270889282227e+00 2.577237367630004883e+00 -1.369694918394088745e-01 -2.951464653015136719e-01
9.150000000000000000e+02 3.806678771972656250e+01 -1.079330253601074219e+01 6.065940260887145996e-01 3.389345169067382812e+00 1.198781728744506836e+00 -1.296411633491516113e+00
9.160000000000000000e+02 3.763396072387695312e+01 -1.512860679626464844e+01 -3.259275436401367188e+00 2.285650014877319336e+00 -2.920876145362854004e-01 -5.235475897789001465e-01
9.170000000000000000e+02 3.782249069213867188e+01 -1.694565010070800781e+01 2.095601707696914673e-02 1.843386650085449219e+00 5.593028068542480469e-01 -8.083498477935791016e-01
9.180000000000000000e+02 4.153401565551757812e+01 -2.560121917724609375e+01 1.243656396865844727e+00 2.821543931961059570e+00 1.219560146331787109e+00 1.762818694114685059e+00
9.190000000000000000e+02 4.582585525512695312e+01 -1.752956390380859375e+01 -6.153282523155212402e-01 6.563863754272460938e+00 1.784560561180114746e+00 1.254822015762329102e+00
9.200000000000000000e+02 3.905183410644531250e+01 -1.749186325073242188e+01 1.422203034162521362e-01 1.943514704704284668e+00 6.257205009460449219e-01 -9.547585248947143555e-01
9.210000000000000000e+02 3.986433029174804688e+01 -2.245195388793945312e+01 5.255073308944702148e-02 4.480581283569335938e+00 1.359939694404602051e+00 4.781670570373535156e-01
9.220000000000000000e+02 4.305733108520507812e+01 -2.190961456298828125e+01 2.124825954437255859e+00 3.636307477951049805e+00 1.728340029716491699e+00 1.788887500762939453e+00
9.230000000000000000e+02 4.117288208007812500e+01 -2.774970626831054688e+01 -1.467241525650024414e+00 3.296292781829833984e+00 5.487153530120849609e-01 1.138584733009338379e+00
9.240000000000000000e+02 3.986014175415039062e+01 -2.774045372009277344e+01 -1.266587615013122559e+00 6.180936336517333984e+00 1.474304556846618652e+00 1.576169490814208984e+00
9.250000000000000000e+02 3.729324722290039062e+01 -2.836428833007812500e+01 -1.200218081474304199e+00 2.127557992935180664e+00 2.782020270824432373e-01 8.271272182464599609e-01
9.260000000000000000e+02 3.363715362548828125e+01 -2.905766487121582031e+01 -1.511528611183166504e+00 -2.273211926221847534e-01 -5.216549634933471680e-01 -1.270804256200790405e-01
9.270000000000000000e+02 3.291218566894531250e+01 -2.806853103637695312e+01 -1.711675763130187988e+00 -7.519600540399551392e-02 -5.360615253448486328e-01 2.506913840770721436e-01
9.280000000000000000e+02 3.107789802551269531e+01 -2.623076057434082031e+01 -1.222229227423667908e-01 7.663633823394775391e-01 1.932421475648880005e-01 -3.180170953273773193e-01
9.290000000000000000e+02 2.875112915039062500e+01 -2.227666473388671875e+01 4.752474725246429443e-01 5.056077480316162109e+00 1.659397482872009277e+00 -1.765241324901580811e-01
9.300000000000000000e+02 2.745947265625000000e+01 -2.180161476135253906e+01 9.160711765289306641e-01 3.128472089767456055e+00 1.213363051414489746e+00 3.386586308479309082e-01
9.310000000000000000e+02 2.921611213684082031e+01 -1.969299507141113281e+01 8.191005587577819824e-01 5.302746295928955078e+00 1.836554050445556641e+00 1.465729475021362305e+00
9.320000000000000000e+02 1.719755363464355469e+01 -4.028329467773437500e+01 -3.593759238719940186e-01 -4.864029586315155029e-02 -1.224048659205436707e-01 2.175192534923553467e-01
9.330000000000000000e+02 1.885985755920410156e+01 -4.083094406127929688e+01 -5.926778912544250488e-01 -1.259007453918457031e-01 -2.155735790729522705e-01 -1.080024316906929016e-01
9.340000000000000000e+02 1.538898468017578125e+01 -4.064953231811523438e+01 -3.732504844665527344e-01 3.022084943950176239e-02 -1.029088869690895081e-01 5.644821375608444214e-02
9.350000000000000000e+02 1.529249191284179688e+01 -3.895211029052734375e+01 -4.076946899294853210e-02 -5.148589145392179489e-03 -1.377541758120059967e-02 1.407285779714584351e-01
9.360000000000000000e+02 1.558230113983154297e+01 2.315074157714843750e+01 9.403847455978393555e-01 2.531883418560028076e-01 3.580719232559204102e-01 4.350681304931640625e-01
9.370000000000000000e+02 1.030949211120605469e+01 2.265135574340820312e+01 -1.856313943862915039e-01 -2.307892963290214539e-02 -6.261309981346130371e-02 7.151741534471511841e-02
9.380000000000000000e+02 8.936467170715332031e+00 2.230773353576660156e+01 -1.012943685054779053e-01 -1.011605188250541687e-01 -6.073646619915962219e-02 6.156788766384124756e-02
9.390000000000000000e+02 7.397833347320556641e+00 2.446109771728515625e+01 -1.328165531158447266e-01 -2.383999079465866089e-01 -1.113649383187294006e-01 1.799187213182449341e-01
9.400000000000000000e+02 1.946469664573669434e+00 2.567690849304199219e+01 -2.376529388129711151e-02 -9.529796838760375977e-01 -2.930234968662261963e-01 1.853493228554725647e-02
9.410000000000000000e+02 6.630710601806640625e+01 2.029219245910644531e+01 -6.301715373992919922e+00 -4.524677991867065430e-01 -2.026254892349243164e+00 9.183315634727478027e-01
9.420000000000000000e+02 6.500654602050781250e+01 2.015711784362792969e+01 -4.400263309478759766e+00 3.585228025913238525e-01 -1.212522149085998535e+00 6.578750014305114746e-01
9.430000000000000000e+02 6.384499359130859375e+01 2.472002220153808594e+01 6.493776440620422363e-01 6.762459278106689453e+00 2.223551034927368164e+00 1.617505550384521484e+00
9.440000000000000000e+02 6.370829391479492188e+01 1.989447975158691406e+01 1.534714400768280029e-01 3.203965187072753906e+00 1.007230997085571289e+00 2.907645463943481445e+00
9.450000000000000000e+02 6.104712677001953125e+01 1.993700408935546875e+01 8.963579684495925903e-02 7.289452552795410156e+00 2.213726520538330078e+00 2.658146381378173828e+00
9.460000000000000000e+02 5.459754180908203125e+01 1.639237403869628906e+01 5.261920094490051270e-01 5.252608299255371094e+00 1.733640074729919434e+00 -1.168420910835266113e+00
9.470000000000000000e+02 6.147170257568359375e+01 1.746603965759277344e+01 2.730325460433959961e+00 1.193320274353027344e+01 4.399058341979980469e+00 5.059775352478027344e+00
9.480000000000000000e+02 6.067319869995117188e+01 1.346269607543945312e+01 4.042786657810211182e-01 1.076335430145263672e+01 3.350289821624755859e+00 4.909958839416503906e-01
9.490000000000000000e+02 5.589822769165039062e+01 1.288362121582031250e+01 1.426866173744201660e+00 8.616164207458496094e+00 3.012909173965454102e+00 5.823405385017395020e-01
9.500000000000000000e+02 6.153946685791015625e+01 1.013473892211914062e+01 1.245622992515563965e+00 5.177252769470214844e+00 1.926862835884094238e+00 -1.790249228477478027e+00
9.510000000000000000e+02 6.827169799804687500e+01 1.953434371948242188e+01 -3.680752038955688477e+00 -3.961871564388275146e-02 -1.116111278533935547e+00 8.606531023979187012e-01
9.520000000000000000e+02 6.921044158935546875e+01 1.858261108398437500e+01 -1.058391094207763672e+00 1.023249506950378418e+00 -1.054247096180915833e-02 1.144017726182937622e-01
9.530000000000000000e+02 6.945458984375000000e+01 2.045826721191406250e+01 -2.378657341003417969e+00 3.189876556396484375e+00 2.433657795190811157e-01 -1.331395626068115234e+00
9.540000000000000000e+02 6.877765655517578125e+01 2.151647567749023438e+01 -1.380475044250488281e+00 2.336229324340820312e+00 2.867262959480285645e-01 -1.286671280860900879e+00
9.550000000000000000e+02 6.395572662353515625e+01 7.455279350280761719e+00 -1.329184532165527344e+00 4.796673357486724854e-01 -2.548551559448242188e-01 2.371592819690704346e-02
9.560000000000000000e+02 3.181698799133300781e+01 2.327558326721191406e+01 3.752857446670532227e-01 4.883700370788574219e+00 1.577695846557617188e+00 -5.813936591148376465e-01
9.570000000000000000e+02 3.185145378112792969e+01 2.053832054138183594e+01 -2.689293771982192993e-02 3.791531324386596680e+00 1.129391551017761230e+00 -2.560632228851318359e-01
9.580000000000000000e+02 3.814361190795898438e+01 2.179183387756347656e+01 -6.121435165405273438e-01 2.335726499557495117e+00 5.170749425888061523e-01 -1.678281545639038086e+00
9.590000000000000000e+02 3.671578979492187500e+01 2.408596992492675781e+01 1.935068488121032715e+00 3.535407066345214844e+00 1.641142606735229492e+00 -2.643210887908935547e+00
9.600000000000000000e+02 5.299032211303710938e+01 3.204719924926757812e+01 1.373141407966613770e+00 7.932647705078125000e+00 2.791736841201782227e+00 1.239601612091064453e+00
9.610000000000000000e+02 7.245852661132812500e+01 -1.355786323547363281e+00 -1.191657185554504395e+00 1.510529756546020508e+00 9.566178917884826660e-02 -4.432509839534759521e-01
9.620000000000000000e+02 6.779188537597656250e+01 6.866851329803466797e+00 -9.788720011711120605e-01 4.351122379302978516e-01 -1.631279289722442627e-01 6.391652226448059082e-01
9.630000000000000000e+02 7.421640014648437500e+01 -3.651216983795166016e+00 1.029373645782470703e+00 7.464097499847412109e+00 2.548041343688964844e+00 -2.922879219055175781e+00
9.640000000000000000e+02 7.693785095214843750e+01 5.751910209655761719e-01 -5.698387026786804199e-01 7.847267627716064453e+00 2.183228731155395508e+00 -4.104870259761810303e-01
9.650000000000000000e+02 7.628258514404296875e+01 -3.930084943771362305e+00 2.540982365608215332e-01 9.385819435119628906e+00 2.891975402832031250e+00 -8.956076949834823608e-02
9.660000000000000000e+02 6.011981582641601562e+01 -9.384572029113769531e+00 1.161226391792297363e+00 5.119470119476318359e+00 1.884209036827087402e+00 2.322089672088623047e+00
9.670000000000000000e+02 6.125580596923828125e+01 -7.569132804870605469e+00 1.665484547615051270e+00 1.006004047393798828e+01 3.517657518386840820e+00 1.863659024238586426e+00
9.680000000000000000e+02 6.771156311035156250e+01 -1.553737640380859375e+00 1.795829772949218750e+00 2.553322076797485352e+00 1.304745554924011230e+00 1.995162844657897949e+00
9.690000000000000000e+02 6.676529693603515625e+01 -2.553839683532714844e+00 2.244390249252319336e+00 4.322967529296875000e+00 1.970207333564758301e+00 2.869336128234863281e+00
9.700000000000000000e+02 6.852779388427734375e+01 -4.485717117786407471e-01 6.676160097122192383e-01 1.765693545341491699e+00 7.299928665161132812e-01 1.879598498344421387e+00
9.710000000000000000e+02 6.980867004394531250e+01 -8.085086941719055176e-01 -3.918373286724090576e-01 5.135318636894226074e-01 3.650836646556854248e-02 8.518162965774536133e-01
9.720000000000000000e+02 4.446730422973632812e+01 -3.861194992065429688e+01 -2.063710212707519531e+00 1.381426751613616943e-01 -5.776702761650085449e-01 9.896290302276611328e-02
9.730000000000000000e+02 4.259582138061523438e+01 -3.830577468872070312e+01 -2.167139768600463867e+00 -9.113112092018127441e-02 -6.774812340736389160e-01 -3.483612090349197388e-02
9.740000000000000000e+02 4.139823532104492188e+01 -3.744100189208984375e+01 -1.001065969467163086e+00 6.277888417243957520e-01 -1.119831427931785583e-01 2.449401319026947021e-01
9.750000000000000000e+02 3.957647705078125000e+01 -3.100224304199218750e+01 1.350245118141174316e+00 8.154994010925292969e+00 2.851571798324584961e+00 3.232348680496215820e+00
9.760000000000000000e+02 3.779609298706054688e+01 -2.732244300842285156e+01 -3.241040110588073730e-01 2.271483659744262695e+00 5.842139124870300293e-01 1.242331266403198242e+00
9.770000000000000000e+02 4.021514129638671875e+01 -2.989509391784667969e+01 1.758348107337951660e+00 6.348427295684814453e+00 2.432032585144042969e+00 2.899442672729492188e+00
9.780000000000000000e+02 4.072890853881835938e+01 -2.528334426879882812e+01 1.356186866760253906e+00 4.854397773742675781e+00 1.863175392150878906e+00 2.387523651123046875e+00
9.790000000000000000e+02 4.011089324951171875e+01 -2.469199943542480469e+01 1.745935678482055664e+00 7.134847164154052734e+00 2.664234876632690430e+00 2.561174631118774414e+00
9.800000000000000000e+02 5.677101135253906250e+01 5.729776620864868164e-01 -1.870699644088745117e+00 3.426155149936676025e-01 -4.584252238273620605e-01 -3.141278028488159180e-01
9.810000000000000000e+02 5.876659393310546875e+01 4.665683023631572723e-03 -9.800750762224197388e-02 2.773180723190307617e+00 8.025519251823425293e-01 -1.776392340660095215e+00
9.820000000000000000e+02 5.962318801879882812e+01 -9.933733940124511719e-01 1.975116610527038574e+00 4.649409770965576172e+00 1.987357974052429199e+00 -2.943563461303710938e+00
9.830000000000000000e+02 5.031895828247070312e+01 -2.824159431457519531e+01 3.045912683010101318e-01 3.443160533905029297e+00 1.124325513839721680e+00 -1.024888038635253906e+00
9.840000000000000000e+02 5.094164657592773438e+01 -2.678997230529785156e+01 -8.913317322731018066e-01 1.741816878318786621e+00 2.551455199718475342e-01 -1.187201976776123047e+00
9.850000000000000000e+02 9.796468734741210938e+00 -1.856796860694885254e+00 -1.533128023147583008e-01 -1.381931155920028687e-01 -8.745177835226058960e-02 -1.185993775725364685e-01
9.860000000000000000e+02 2.739491653442382812e+01 -2.983639144897460938e+01 -4.549436867237091064e-01 2.032916069030761719e+00 4.733917117118835449e-01 -3.024040907621383667e-02
9.870000000000000000e+02 2.512830924987792969e+01 -3.211868286132812500e+01 1.852059960365295410e-01 2.483741283416748047e+00 8.006841540336608887e-01 -2.390156835317611694e-01
9.880000000000000000e+02 6.593421936035156250e+01 -3.163833427429199219e+01 9.787439703941345215e-01 1.201182937622070312e+01 3.897171974182128906e+00 -2.133182287216186523e+00
9.890000000000000000e+02 6.901128387451171875e+01 -2.779418182373046875e+01 8.353066444396972656e-01 1.854025244712829590e+00 8.067995309829711914e-01 -1.190282940864562988e+00
9.900000000000000000e+02 7.831745910644531250e+01 -2.620381355285644531e+01 -1.778786778450012207e-01 7.744540214538574219e+00 2.269998311996459961e+00 -4.764067828655242920e-01
9.910000000000000000e+02 7.943798065185546875e+01 -2.368432426452636719e+01 1.044616326689720154e-01 6.548583507537841797e+00 1.995913505554199219e+00 -1.646053642034530640e-01
9.920000000000000000e+02 7.918666076660156250e+01 -3.333528137207031250e+01 1.141826901584863663e-02 7.909734249114990234e+00 2.376345634460449219e+00 9.457918349653482437e-04
9.930000000000000000e+02 4.889677810668945312e+01 -8.730587959289550781e+00 3.378486394882202148e+00 1.019792079925537109e+01 4.072922229766845703e+00 7.560954242944717407e-02
9.940000000000000000e+02 3.894861602783203125e+01 -1.162557125091552734e+01 -2.416934818029403687e-01 1.220170259475708008e+00 2.935430109500885010e-01 -6.296774148941040039e-01
9.950000000000000000e+02 6.898160552978515625e+01 7.323086261749267578e+00 7.794737219810485840e-01 1.250521183013916016e+00 6.089984774589538574e-01 1.304877877235412598e+00
9.960000000000000000e+02 4.957331848144531250e+01 1.883429908752441406e+01 -4.424390792846679688e+00 -8.789128065109252930e-02 -1.353684544563293457e+00 5.690743327140808105e-01
9.970000000000000000e+02 3.353530883789062500e+01 1.698740577697753906e+01 2.676758170127868652e-01 2.197721958160400391e+00 7.396193742752075195e-01 -1.097508072853088379e+00
9.980000000000000000e+02 2.165637016296386719e+01 9.015597343444824219e+00 4.278311133384704590e-01 1.717239469289779663e-01 1.798665076494216919e-01 1.247879788279533386e-01
9.990000000000000000e+02 3.190187263488769531e+01 1.798075866699218750e+01 8.113423734903335571e-02 2.506048917770385742e+00 7.761549353599548340e-01 -1.655519753694534302e-01
1.000000000000000000e+03 6.640658569335937500e+01 3.251734542846679688e+01 4.755204617977142334e-01 5.436292648315429688e+00 1.773543834686279297e+00 8.181371092796325684e-01
1.001000000000000000e+03 4.663271713256835938e+01 3.055002975463867188e+01 9.405843019485473633e-01 5.740497589111328125e+00 2.004324436187744141e+00 -8.096736669540405273e-01
1.002000000000000000e+03 2.234865951538085938e+01 2.302054214477539062e+01 1.079863533377647400e-01 1.285886645317077637e+00 4.181618988513946533e-01 1.734327077865600586e-01
1.003000000000000000e+03 2.163122415542602539e+00 1.592152309417724609e+01 5.429815500974655151e-02 -6.935760378837585449e-01 -1.917833685874938965e-01 1.884802132844924927e-01
1.004000000000000000e+03 8.976321220397949219e+00 1.471859073638916016e+01 3.638561069965362549e-01 2.726039290428161621e-01 1.909380108118057251e-01 4.330843091011047363e-01
1.005000000000000000e+03 2.058589553833007812e+01 2.006520462036132812e+01 3.345223665237426758e-01 6.822822093963623047e-01 3.050413727760314941e-01 -2.236047089099884033e-01
1.006000000000000000e+03 1.519824862480163574e+00 9.052508354187011719e+00 -2.786432765424251556e-02 -9.313259273767471313e-02 -3.629907593131065369e-02 1.248638778924942017e-01
1.007000000000000000e+03 4.490840530395507812e+01 8.251299858093261719e+00 -9.625752568244934082e-01 7.272178649902343750e+00 1.892881035804748535e+00 -9.679657220840454102e-01
1.008000000000000000e+03 2.662371444702148438e+01 1.067187404632568359e+01 1.670757681131362915e-01 3.872171640396118164e-01 1.662878841161727905e-01 -1.487122178077697754e-01
1.009000000000000000e+03 4.188392257690429688e+01 1.055524444580078125e+01 1.292812824249267578e+00 7.511991500854492188e+00 2.641441345214843750e+00 -1.800924241542816162e-01
1.010000000000000000e+03 3.935313796997070312e+01 1.054915332794189453e+01 1.324482202529907227e+00 5.801049232482910156e+00 2.137659311294555664e+00 -1.292398571968078613e+00
1.011000000000000000e+03 5.481101989746093750e+01 9.214757919311523438e+00 1.572115898132324219e+00 1.371094703674316406e+01 4.584918975830078125e+00 2.427936077117919922e+00
1.012000000000000000e+03 5.094141006469726562e+01 -1.504702663421630859e+01 -1.806047797203063965e+00 5.583725571632385254e-01 -3.743025660514831543e-01 -1.173674464225769043e+00
1.013000000000000000e+03 9.003959655761718750e+00 -1.880552887916564941e+00 -1.415202468633651733e-01 4.120174795389175415e-02 -3.009554743766784668e-02 -1.033687517046928406e-01
1.014000000000000000e+03 7.427684307098388672e+00 -1.919046998023986816e+00 -9.439862519502639771e-02 3.710643574595451355e-02 -1.718765683472156525e-02 -7.637271285057067871e-02
1.015000000000000000e+03 2.666639089584350586e+00 -1.921723127365112305e+00 -1.963555440306663513e-02 2.476991619914770126e-03 -5.147568881511688232e-03 -7.454639300704002380e-03
1.016000000000000000e+03 3.047602653503417969e+00 -3.139772176742553711e+00 -1.367310248315334320e-02 -1.640965603291988373e-02 -9.024827741086483002e-03 -2.222241275012493134e-02
1.017000000000000000e+03 4.194390773773193359e+00 -2.038577079772949219e+00 -2.704062499105930328e-02 5.575796589255332947e-03 -6.439448799937963486e-03 -2.370246313512325287e-02
1.018000000000000000e+03 1.976042509078979492e+00 -1.940278172492980957e+00 -5.069779697805643082e-03 -1.784666441380977631e-02 -6.874933373183012009e-03 -1.251116115599870682e-02
1.019000000000000000e+03 1.217287063598632812e+00 -2.088383674621582031e+00 -6.437370902858674526e-04 -9.559671161696314812e-04 -4.799112793989479542e-04 -2.397814067080616951e-03
1.020000000000000000e+03 2.114267110824584961e+00 -4.162814712524414062e+01 -6.355034559965133667e-02 -2.180264443159103394e-01 -8.447303622961044312e-02 1.817430742084980011e-02
1.021000000000000000e+03 1.173810958862304688e+00 -3.861419677734375000e+01 -1.622961461544036865e-02 -2.933562397956848145e-01 -9.287575632333755493e-02 4.106079041957855225e-02
1.022000000000000000e+03 6.937558054924011230e-01 -3.453433227539062500e+01 2.077989839017391205e-02 -4.752689301967620850e-01 -1.363467127084732056e-01 3.175725415349006653e-02
1.023000000000000000e+03 6.410470604896545410e-01 -3.315618515014648438e+01 -1.412629242986440659e-02 -5.300357341766357422e-01 -1.632486134767532349e-01 1.580160483717918396e-02
1.024000000000000000e+03 5.960214138031005859e-01 -2.898803520202636719e+01 1.664413698017597198e-02 -6.216942071914672852e-01 -1.815150231122970581e-01 9.208449162542819977e-03
1.025000000000000000e+03 6.107301115989685059e-01 -2.758133697509765625e+01 -1.339293643832206726e-02 -6.350583434104919434e-01 -1.945353746414184570e-01 1.678413711488246918e-03
1.026000000000000000e+03 1.818211555480957031e+00 -2.745386505126953125e+01 1.520488690584897995e-02 -4.843343794345855713e-01 -1.407388448715209961e-01 1.373349130153656006e-02
1.027000000000000000e+03 2.068147659301757812e+00 -2.296420669555664062e+01 2.812468819320201874e-02 -4.136082530021667480e-01 -1.156450733542442322e-01 -3.371680900454521179e-02
1.028000000000000000e+03 7.167513370513916016e-01 -2.178708457946777344e+01 -3.238349221646785736e-03 -6.020413041114807129e-01 -1.815838962793350220e-01 -3.615675866603851318e-02
1.029000000000000000e+03 7.056443691253662109e-01 -2.034797096252441406e+01 2.015841193497180939e-02 -5.219866633415222168e-01 -1.505484730005264282e-01 -4.545595869421958923e-02
1.030000000000000000e+03 2.134800195693969727e+00 -1.700595474243164062e+01 -5.730576068162918091e-02 -2.426457852125167847e-01 -8.998546004295349121e-02 -1.252616792917251587e-01
1.031000000000000000e+03 6.260555982589721680e-01 -1.473690223693847656e+01 4.156139679253101349e-03 -1.406475454568862915e-01 -4.094742238521575928e-02 -1.503083761781454086e-02
1.032000000000000000e+03 5.915257334709167480e-01 -1.334481239318847656e+01 -1.104389224201440811e-02 -1.100439503788948059e-01 -3.632635250687599182e-02 -1.162467338144779205e-02
1.033000000000000000e+03 1.768621802330017090e+00 -1.297767162322998047e+01 -2.364455867791548371e-04 -1.325776576995849609e-01 -3.984423354268074036e-02 -2.198818698525428772e-02
1.034000000000000000e+03 5.461090207099914551e-01 -9.138849258422851562e+00 8.168119937181472778e-03 -6.888426840305328369e-02 -1.821484602987766266e-02 -1.479939091950654984e-03
1.035000000000000000e+03 5.462691187858581543e-01 -7.732067584991455078e+00 -5.023369099944829941e-03 -5.931170284748077393e-02 -1.930052228271961212e-02 -8.909051306545734406e-03
1.036000000000000000e+03 1.634635448455810547e+00 -7.489732742309570312e+00 7.768465671688318253e-03 -6.329185515642166138e-02 -1.665701717138290405e-02 -1.278200279921293259e-02
1.037000000000000000e+03 5.453280806541442871e-01 -6.323631763458251953e+00 2.778319641947746277e-03 -3.909025341272354126e-02 -1.089357957243919373e-02 -4.015645477920770645e-03
1.038000000000000000e+03 7.170917510986328125e+01 -4.134712600708007812e+01 -9.157319068908691406e-01 6.615406513214111328e+00 1.709902405738830566e+00 -2.292501479387283325e-01
1.039000000000000000e+03 5.100729751586914062e+01 -3.899517059326171875e+01 -1.998162031173706055e+00 5.361711502075195312e+00 1.009064912796020508e+00 5.763974785804748535e-01
1.040000000000000000e+03 3.259829711914062500e+01 -4.138382720947265625e+01 -7.007603645324707031e-01 2.354791879653930664e+00 4.962094724178314209e-01 1.561646014451980591e-01
1.041000000000000000e+03 1.212572479248046875e+01 -3.778607559204101562e+01 -1.901820003986358643e-01 3.331085741519927979e-01 4.287797212600708008e-02 1.299303472042083740e-01
1.042000000000000000e+03 7.886456298828125000e+01 4.016780090332031250e+01 -1.917924731969833374e-02 7.578848838806152344e+00 2.267900943756103516e+00 -4.189381375908851624e-02
1.043000000000000000e+03 7.785070800781250000e+01 3.836535644531250000e+01 -4.380495473742485046e-02 7.390233516693115234e+00 2.203928470611572266e+00 1.643154211342334747e-02
1.044000000000000000e+03 7.658923339843750000e+01 3.817123794555664062e+01 -1.296919435262680054e-01 7.244715213775634766e+00 2.134506940841674805e+00 2.070870697498321533e-01
1.045000000000000000e+03 7.908423614501953125e+01 3.495309829711914062e+01 1.353812683373689651e-02 7.491529941558837891e+00 2.251520395278930664e+00 5.948913469910621643e-02
1.046000000000000000e+03 7.747779083251953125e+01 3.334880828857421875e+01 8.390478789806365967e-02 7.045026302337646484e+00 2.138679265975952148e+00 1.183678433299064636e-01
1.047000000000000000e+03 7.914472961425781250e+01 3.344679260253906250e+01 -1.014851266518235207e-03 7.412518501281738281e+00 2.223451137542724609e+00 5.080840736627578735e-02
1.048000000000000000e+03 7.927799224853515625e+01 3.058758163452148438e+01 -5.776987411081790924e-03 7.367349147796630859e+00 2.208471775054931641e+00 -1.619859971106052399e-02
1.049000000000000000e+03 7.800658416748046875e+01 2.899614143371582031e+01 3.817173093557357788e-02 7.161520957946777344e+00 2.159907817840576172e+00 -1.318386197090148926e-01
1.050000000000000000e+03 7.936753082275390625e+01 2.640027999877929688e+01 2.391613088548183441e-02 7.757546901702880859e+00 2.334438800811767578e+00 -7.668139040470123291e-02
1.051000000000000000e+03 7.691082763671875000e+01 2.607886886596679688e+01 5.606882646679878235e-02 7.013637542724609375e+00 2.120912075042724609e+00 -3.313046693801879883e-01
1.052000000000000000e+03 7.936952972412109375e+01 2.501352882385253906e+01 -2.918493188917636871e-02 7.946609020233154297e+00 2.375227212905883789e+00 -7.691926509141921997e-02
1.053000000000000000e+03 7.938233947753906250e+01 2.081638717651367188e+01 -3.819801285862922668e-02 8.025068283081054688e+00 2.396061182022094727e+00 1.124390065670013428e-01
1.054000000000000000e+03 7.940520477294921875e+01 1.941372489929199219e+01 -3.349434584379196167e-02 7.715089797973632812e+00 2.304478645324707031e+00 1.965140551328659058e-01
1.055000000000000000e+03 7.815997314453125000e+01 2.063087463378906250e+01 -1.923655271530151367e-01 7.652559280395507812e+00 2.238058090209960938e+00 2.520742416381835938e-01
1.056000000000000000e+03 7.941401672363281250e+01 1.802678298950195312e+01 -2.853676304221153259e-02 7.205021381378173828e+00 2.152945280075073242e+00 2.727463841438293457e-01
1.057000000000000000e+03 7.940074920654296875e+01 1.388768291473388672e+01 5.643558502197265625e-02 5.349612236022949219e+00 1.621814370155334473e+00 2.058373242616653442e-01
1.058000000000000000e+03 7.806153869628906250e+01 1.247201633453369141e+01 3.245305418968200684e-01 6.212976932525634766e+00 1.961252212524414062e+00 1.436903029680252075e-01
1.059000000000000000e+03 7.934567260742187500e+01 1.111347675323486328e+01 3.716752678155899048e-02 5.120790481567382812e+00 1.547387361526489258e+00 -9.090895205736160278e-02
1.060000000000000000e+03 7.944705200195312500e+01 6.959455966949462891e+00 -4.567049443721771240e-03 6.712206840515136719e+00 2.012291908264160156e+00 -2.787782549858093262e-01
1.061000000000000000e+03 7.947853088378906250e+01 5.597622394561767578e+00 6.593345664441585541e-03 7.440397739410400391e+00 2.234097242355346680e+00 -2.817972302436828613e-01
1.062000000000000000e+03 7.843141937255859375e+01 5.620381832122802734e+00 -5.559526011347770691e-02 7.308064460754394531e+00 2.175740718841552734e+00 -7.027927637100219727e-01
1.063000000000000000e+03 7.947904968261718750e+01 4.232958793640136719e+00 -3.197443485260009766e-02 8.147635459899902344e+00 2.434698343276977539e+00 -2.432035207748413086e-01
1.064000000000000000e+03 7.940896606445312500e+01 1.123423129320144653e-01 -2.884617075324058533e-02 9.176531791687011719e+00 2.744305610656738281e+00 -7.729187607765197754e-03
1.065000000000000000e+03 7.939582061767578125e+01 -1.285585522651672363e+00 -1.147897541522979736e-01 8.959796905517578125e+00 2.653501987457275391e+00 1.779415309429168701e-01
1.066000000000000000e+03 7.935135650634765625e+01 -2.745860815048217773e+00 -2.717201970517635345e-02 8.381747245788574219e+00 2.506372690200805664e+00 3.263191282749176025e-01
1.067000000000000000e+03 7.853456878662109375e+01 -4.721291065216064453e+00 1.819967776536941528e-01 8.361766815185546875e+00 2.563128948211669922e+00 6.202915906906127930e-01
1.068000000000000000e+03 7.944281005859375000e+01 -4.174426078796386719e+00 5.179814621806144714e-02 7.755711078643798828e+00 2.342252731323242188e+00 3.040320277214050293e-01
1.069000000000000000e+03 7.497948455810546875e+01 -9.438982009887695312e+00 1.011572003364562988e+00 1.161037540435791016e+01 3.786584138870239258e+00 1.787795782089233398e+00
1.070000000000000000e+03 7.924175262451171875e+01 -8.373726844787597656e+00 1.192336976528167725e-01 7.823488235473632812e+00 2.382816553115844727e+00 -4.579632878303527832e-01
1.071000000000000000e+03 7.923149108886718750e+01 -1.123273658752441406e+01 -9.162694960832595825e-02 9.654061317443847656e+00 2.868730306625366211e+00 -5.213091969490051270e-01
1.072000000000000000e+03 7.931307220458984375e+01 -1.530917930603027344e+01 -1.306139081716537476e-01 9.872405052185058594e+00 2.922537326812744141e+00 3.153910040855407715e-01
1.073000000000000000e+03 7.383267974853515625e+01 -1.645102691650390625e+01 -3.919118046760559082e-01 5.535847187042236328e+00 1.543180584907531738e+00 9.666219353675842285e-02
1.074000000000000000e+03 7.936997985839843750e+01 -1.810104370117187500e+01 -2.242447435855865479e-02 8.233337402343750000e+00 2.463274002075195312e+00 4.096155464649200439e-01
1.075000000000000000e+03 7.447336578369140625e+01 -2.319913673400878906e+01 1.232151865959167480e+00 1.163471603393554688e+01 3.860060453414916992e+00 6.335199475288391113e-01
1.076000000000000000e+03 7.819950103759765625e+01 -2.234407997131347656e+01 3.725806474685668945e-01 7.504239082336425781e+00 2.363045930862426758e+00 2.311911247670650482e-02
1.077000000000000000e+03 7.945580291748046875e+01 -2.503893852233886719e+01 -4.840191081166267395e-02 7.051105976104736328e+00 2.100811243057250977e+00 -2.317611724138259888e-01
1.078000000000000000e+03 7.735472106933593750e+01 -2.657566070556640625e+01 -3.467084169387817383e-01 7.926385402679443359e+00 2.273903131484985352e+00 -4.139019250869750977e-01
1.079000000000000000e+03 7.927365875244140625e+01 -2.907264709472656250e+01 -1.192015362903475761e-03 7.990268230438232422e+00 2.396722793579101562e+00 -1.346780825406312943e-02
1.080000000000000000e+03 7.760952758789062500e+01 -3.163995361328125000e+01 4.077098146080970764e-02 7.446215152740478516e+00 2.246095895767211914e+00 1.156516298651695251e-01
1.081000000000000000e+03 7.918791198730468750e+01 -3.190226745605468750e+01 5.151908844709396362e-03 7.934998512268066406e+00 2.382045030593872070e+00 1.657580025494098663e-02
1.082000000000000000e+03 7.912367248535156250e+01 -3.612315750122070312e+01 -1.056314446032047272e-02 7.999190330505371094e+00 2.396588087081909180e+00 -5.062906816601753235e-02
1.083000000000000000e+03 7.906421661376953125e+01 -3.748224639892578125e+01 -5.813661031424999237e-03 8.059261322021484375e+00 2.416034460067749023e+00 -3.804101794958114624e-02
1.084000000000000000e+03 7.895065307617187500e+01 -3.883337020874023438e+01 2.167639322578907013e-02 8.121140480041503906e+00 2.442844867706298828e+00 -5.453266948461532593e-02
1.085000000000000000e+03 7.866137695312500000e+01 -4.018986129760742188e+01 -4.732575640082359314e-02 8.162679672241210938e+00 2.434606313705444336e+00 -2.584854140877723694e-02
1.086000000000000000e+03 2.402772521972656250e+01 3.799778747558593750e+01 -1.330702602863311768e-01 1.363053560256958008e+00 3.689949810504913330e-01 -2.716158628463745117e-01
1.087000000000000000e+03 4.648414230346679688e+01 3.818146133422851562e+01 -1.108484745025634766e+00 3.914722442626953125e+00 8.418713212013244629e-01 -6.692304611206054688e-01
1.088000000000000000e+03 4.111976027488708496e-01 2.188135623931884766e+00 2.053875243291258812e-03 3.899662569165229797e-02 1.231515035033226013e-02 -1.324515789747238159e-02
1.089000000000000000e+03 2.136024713516235352e+00 3.252655267715454102e+00 -7.003580220043659210e-03 2.841875143349170685e-02 6.424551364034414291e-03 -4.745943099260330200e-02
1.090000000000000000e+03 4.561897754669189453e+00 2.723982095718383789e+00 -1.421265956014394760e-02 -5.060809198766946793e-03 -5.782040301710367203e-03 -5.357830226421356201e-02
1.091000000000000000e+03 2.960798501968383789e+00 5.356825828552246094e+00 -7.198946923017501831e-02 2.564544789493083954e-03 -2.082747779786586761e-02 1.273273769766092300e-02
1.092000000000000000e+03 5.075215101242065430e-01 9.201202392578125000e+00 -5.989236757159233093e-03 -4.086901247501373291e-02 -1.405747421085834503e-02 4.639713093638420105e-02
1.093000000000000000e+03 5.501101613044738770e-01 1.197790336608886719e+01 -3.810953116044402122e-03 -3.806450366973876953e-01 -1.153367981314659119e-01 7.552888244390487671e-02
1.094000000000000000e+03 7.124466896057128906e-01 1.621029853820800781e+01 1.460099220275878906e-02 -9.060703516006469727e-01 -2.674407958984375000e-01 5.830246210098266602e-02
1.095000000000000000e+03 7.218245267868041992e-01 1.766249656677246094e+01 5.120574031025171280e-03 -9.999800920486450195e-01 -2.984578609466552734e-01 4.122630506753921509e-02
1.096000000000000000e+03 5.738611817359924316e-01 2.194633293151855469e+01 4.782553762197494507e-03 -1.077078223228454590e+00 -3.216887116432189941e-01 -7.271888200193643570e-03
1.097000000000000000e+03 2.771643877029418945e+00 2.410475921630859375e+01 -2.354950830340385437e-02 -8.479353189468383789e-01 -2.614454329013824463e-01 3.194312565028667450e-03
1.098000000000000000e+03 4.689370155334472656e+00 2.530162811279296875e+01 -7.641498744487762451e-02 -6.669723391532897949e-01 -2.230161875486373901e-01 6.840910017490386963e-02
1.099000000000000000e+03 2.220556735992431641e+00 2.923084259033203125e+01 -2.447571838274598122e-03 -9.825865626335144043e-01 -2.955102324485778809e-01 1.033369004726409912e-01
1.100000000000000000e+03 7.298700213432312012e-01 3.055328369140625000e+01 1.952892541885375977e-02 -1.242083191871643066e+00 -3.667662739753723145e-01 4.701885581016540527e-02
1.101000000000000000e+03 3.809837102890014648e+00 3.028262710571289062e+01 3.773463657125830650e-03 -7.647793292999267578e-01 -2.283017486333847046e-01 1.204110532999038696e-01
1.102000000000000000e+03 6.905289292335510254e-01 3.632726669311523438e+01 -8.604545146226882935e-03 -1.356870293617248535e+00 -4.096424579620361328e-01 -6.070376373827457428e-03
1.103000000000000000e+03 1.571995377540588379e+00 3.807604217529296875e+01 9.386919438838958740e-03 -1.111201286315917969e+00 -3.305442929267883301e-01 -6.857550889253616333e-02
1.104000000000000000e+03 6.346971392631530762e-01 3.879151153564453125e+01 -2.542654797434806824e-02 -1.236750483512878418e+00 -3.786531090736389160e-01 -3.443406522274017334e-02
1.105000000000000000e+03 1.086584210395812988e+00 4.005875778198242188e+01 4.466765746474266052e-02 -1.122588753700256348e+00 -3.233763277530670166e-01 -7.788062840700149536e-02
1.106000000000000000e+03 9.346395492553710938e+00 1.921290516853332520e+00 2.600562386214733124e-02 -5.011662840843200684e-02 -7.233302108943462372e-03 2.361394651234149933e-02
1.107000000000000000e+03 8.556940078735351562e+00 1.885954499244689941e+00 3.856974095106124878e-02 -3.366502374410629272e-02 1.471414929255843163e-03 1.919796224683523178e-03
1.108000000000000000e+03 7.755521774291992188e+00 1.868392705917358398e+00 4.628877341747283936e-02 -2.519268169999122620e-02 6.328828167170286179e-03 -1.659754849970340729e-02
1.109000000000000000e+03 6.949691295623779297e+00 1.864472031593322754e+00 4.939041659235954285e-02 -1.440551970154047012e-02 1.049546897411346436e-02 -3.479995205998420715e-02
1.110000000000000000e+03 5.332329273223876953e+00 1.886070847511291504e+00 4.395816847681999207e-02 -5.299825221300125122e-03 1.159750297665596008e-02 -5.105325207114219666e-02
1.111000000000000000e+03 4.518332004547119141e+00 1.912711739540100098e+00 3.698361665010452271e-02 -3.115286584943532944e-03 1.016049925237894058e-02 -5.382167920470237732e-02
1.112000000000000000e+03 3.701665878295898438e+00 1.954643249511718750e+00 3.097731620073318481e-02 4.608753079082816839e-04 9.431457147002220154e-03 -5.551239475607872009e-02
1.113000000000000000e+03 2.057298183441162109e+00 2.081558942794799805e+00 1.432894542813301086e-02 1.848374865949153900e-02 9.843808598816394806e-03 -4.631996527314186096e-02
1.114000000000000000e+03 1.233996272087097168e+00 2.142549037933349609e+00 7.622823584824800491e-03 3.089928068220615387e-02 1.155663095414638519e-02 -3.418703377246856689e-02
1.115000000000000000e+03 1.148901462554931641e+01 8.292493820190429688e+00 -7.927774190902709961e-01 -7.028688192367553711e-01 -4.486938714981079102e-01 7.923482060432434082e-01
1.116000000000000000e+03 1.218713665008544922e+01 2.435769557952880859e+00 -2.097979784011840820e-01 -5.415355414152145386e-02 -7.918546348810195923e-02 1.958305984735488892e-01
1.117000000000000000e+03 1.439737033843994141e+01 3.751411199569702148e+00 -6.070991158485412598e-01 -3.696862235665321350e-02 -1.932203173637390137e-01 6.345636248588562012e-01
1.118000000000000000e+03 1.446197414398193359e+01 2.909321546554565430e+00 -6.167348623275756836e-01 3.950682934373617172e-03 -1.838352680206298828e-01 4.772285819053649902e-01
1.119000000000000000e+03 1.522632598876953125e+01 3.043512105941772461e+00 -7.887864708900451660e-01 6.475473195314407349e-02 -2.172095179557800293e-01 5.361458063125610352e-01
1.120000000000000000e+03 1.865859413146972656e+01 4.142250537872314453e+00 -8.449357151985168457e-01 1.446160301566123962e-02 -2.491422444581985474e-01 3.892139494419097900e-01
1.121000000000000000e+03 1.860351371765136719e+01 3.331042051315307617e+00 -1.195535302162170410e+00 -9.314113110303878784e-02 -3.866029381752014160e-01 3.817559182643890381e-01
1.122000000000000000e+03 2.251731491088867188e+01 2.482493877410888672e+00 -1.358337759971618652e+00 -1.520998626947402954e-01 -4.531312882900238037e-01 3.143743276596069336e-01
1.123000000000000000e+03 2.116345024108886719e+01 3.690861463546752930e+00 -9.410173892974853516e-01 -1.265964955091476440e-01 -3.202841579914093018e-01 1.807743310928344727e-01
1.124000000000000000e+03 2.327698516845703125e+01 2.279889583587646484e+00 -1.361808657646179199e+00 -1.308794617652893066e-01 -4.478064179420471191e-01 3.685866892337799072e-01
1.125000000000000000e+03 2.403305625915527344e+01 2.080610275268554688e+00 -1.341378092765808105e+00 -1.660185903310775757e-01 -4.522190093994140625e-01 3.900831043720245361e-01
1.126000000000000000e+03 2.478866577148437500e+01 1.883142471313476562e+00 -1.319326877593994141e+00 -1.260433644056320190e-01 -4.336110651493072510e-01 4.145208299160003662e-01
1.127000000000000000e+03 2.863254928588867188e+01 9.088650345802307129e-01 -1.435685992240905762e+00 2.067260444164276123e-01 -3.686879873275756836e-01 2.060893774032592773e-01
1.128000000000000000e+03 2.991125297546386719e+01 4.938644409179687500e+00 8.062659502029418945e-01 1.435321092605590820e+00 6.724761128425598145e-01 -8.488175868988037109e-01
1.129000000000000000e+03 2.939561271667480469e+01 6.752498149871826172e-01 -1.437856316566467285e+00 3.066189885139465332e-01 -3.393711745738983154e-01 1.308745443820953369e-01
1.130000000000000000e+03 3.071781921386718750e+01 4.479341804981231689e-01 -1.611789107322692871e+00 4.082027971744537354e-01 -3.610759079456329346e-01 8.462963625788688660e-03
1.131000000000000000e+03 3.105705261230468750e+01 1.387299299240112305e+00 -1.006082653999328613e+00 4.425794482231140137e-01 -1.690509617328643799e-01 -6.031004711985588074e-03
1.132000000000000000e+03 3.314941406250000000e+01 1.864856600761413574e+00 5.813614130020141602e-01 4.538193047046661377e-01 3.105542063713073730e-01 -1.993606835603713989e-01
1.133000000000000000e+03 2.669501304626464844e+01 3.040697336196899414e+00 -5.900905132293701172e-01 8.008189499378204346e-02 -1.530025899410247803e-01 2.178156822919845581e-01
1.134000000000000000e+03 3.011096954345703125e+01 1.146364784240722656e+01 -6.011273339390754700e-02 3.101108670234680176e-01 7.499943673610687256e-02 6.278975307941436768e-02
1.135000000000000000e+03 3.932563018798828125e+01 3.287491321563720703e+00 -9.160219430923461914e-01 2.111890077590942383e+00 3.587604463100433350e-01 -1.344877004623413086e+00
1.136000000000000000e+03 4.025899505615234375e+01 2.985226869583129883e+00 -9.698821306228637695e-01 4.482333660125732422e+00 1.053735494613647461e+00 -2.717890977859497070e+00
1.137000000000000000e+03 4.033781814575195312e+01 2.763466596603393555e+00 -7.556554079055786133e-01 4.666050910949707031e+00 1.173118591308593750e+00 -2.800274133682250977e+00
1.138000000000000000e+03 4.072176742553710938e+01 2.568570375442504883e+00 -7.483431696891784668e-01 5.948227405548095703e+00 1.559965252876281738e+00 -3.194730997085571289e+00
1.139000000000000000e+03 4.125273513793945312e+01 2.346185445785522461e+00 -7.456439733505249023e-01 8.530169486999511719e+00 2.335357666015625000e+00 -3.418245077133178711e+00
1.140000000000000000e+03 4.240605163574218750e+01 1.852334976196289062e+00 7.448533177375793457e-01 1.294562339782714844e+01 4.107142925262451172e+00 2.414050102233886719e-01
1.141000000000000000e+03 4.280040359497070312e+01 1.620555281639099121e+00 2.904817819595336914e+00 1.166348266601562500e+01 4.370490074157714844e+00 1.444369196891784668e+00
1.142000000000000000e+03 4.303581619262695312e+01 1.210045933723449707e+00 5.609596252441406250e+00 1.033908939361572266e+01 4.784605503082275391e+00 2.037193536758422852e+00
1.143000000000000000e+03 4.317376327514648438e+01 8.099478483200073242e-01 7.922139644622802734e+00 8.889677047729492188e+00 5.043545246124267578e+00 1.447397112846374512e+00
1.144000000000000000e+03 4.321396636962890625e+01 6.051214337348937988e-01 8.768167495727539062e+00 8.058554649353027344e+00 5.048017024993896484e+00 7.143968939781188965e-01
1.145000000000000000e+03 4.321757507324218750e+01 -5.726519599556922913e-02 9.172003746032714844e+00 7.281301975250244141e+00 4.935991764068603516e+00 -1.727281928062438965e+00
1.146000000000000000e+03 4.201563644409179688e+01 -1.204617500305175781e+00 3.513952970504760742e+00 9.188951492309570312e+00 3.810871362686157227e+00 1.265245199203491211e+00
1.147000000000000000e+03 3.991278457641601562e+01 -6.493766903877258301e-01 4.474380970001220703e+00 9.885231852531433105e-01 1.638871312141418457e+00 4.298142910003662109e+00
1.148000000000000000e+03 3.783720779418945312e+01 -6.622351408004760742e-01 9.941267967224121094e-02 1.326869010925292969e+00 4.278844892978668213e-01 1.542822837829589844e+00
1.149000000000000000e+03 3.919536590576171875e+01 -6.522912979125976562e-01 2.378717422485351562e+00 1.074909567832946777e+00 1.036088109016418457e+00 3.266553878784179688e+00
1.150000000000000000e+03 3.900675964355468750e+01 -3.205000460147857666e-01 1.575779557228088379e+00 4.971075057983398438e-01 6.218661069869995117e-01 1.937447071075439453e+00
1.151000000000000000e+03 3.881149291992187500e+01 -2.553879618644714355e-01 1.155847907066345215e+00 7.906938791275024414e-01 5.839625000953674316e-01 1.728894829750061035e+00
1.152000000000000000e+03 3.844141387939453125e+01 -3.516231179237365723e-01 5.967543721199035645e-01 8.008044958114624023e-01 4.192676842212677002e-01 1.803824782371520996e+00
1.153000000000000000e+03 3.349637222290039062e+01 -2.497716665267944336e+00 -3.258145451545715332e-01 3.090918622910976410e-02 -8.847161382436752319e-02 -6.953085660934448242e-01
1.154000000000000000e+03 3.605413055419921875e+01 -2.450850009918212891e+00 5.391722917556762695e-01 2.125542402267456055e+00 7.994143962860107422e-01 6.138367652893066406e-01
1.155000000000000000e+03 3.644702529907226562e+01 -3.135828256607055664e+00 1.318046927452087402e+00 2.929070472717285156e+00 1.274135231971740723e+00 1.377278447151184082e+00
1.156000000000000000e+03 3.863716888427734375e+01 -4.141688823699951172e+00 4.391222000122070312e+00 6.101789951324462891e+00 3.147903680801391602e+00 4.810696601867675781e+00
1.157000000000000000e+03 3.184386444091796875e+01 -3.093542337417602539e+00 -1.379948258399963379e-01 -4.859868586063385010e-01 -1.871945112943649292e-01 -7.251303195953369141e-01
1.158000000000000000e+03 2.869688796997070312e+01 -3.056001901626586914e+00 4.896943569183349609e-01 1.006778120994567871e+00 4.489417374134063721e-01 -9.385192394256591797e-01
1.159000000000000000e+03 2.934062004089355469e+01 -3.191420793533325195e+00 4.732740521430969238e-01 -1.219066619873046875e+00 -2.237377613782882690e-01 -8.045158348977565765e-03
1.160000000000000000e+03 3.150228500366210938e+01 -5.947661399841308594e+00 8.599585294723510742e-01 -3.443255424499511719e-01 1.546898931264877319e-01 3.168926239013671875e-01
1.161000000000000000e+03 2.604540061950683594e+01 -1.312327957153320312e+01 -6.484143733978271484e-01 5.078644156455993652e-01 -4.216498881578445435e-02 1.417802274227142334e-01
1.162000000000000000e+03 1.750432205200195312e+01 -9.795459747314453125e+00 -1.306203193962574005e-02 2.982104420661926270e-01 8.554451912641525269e-02 -9.974427521228790283e-02
1.163000000000000000e+03 1.737730598449707031e+01 -4.189617633819580078e+00 -1.059093326330184937e-02 3.894986808300018311e-01 1.136723235249519348e-01 1.182530522346496582e-01
1.164000000000000000e+03 1.600856590270996094e+01 -1.747232556343078613e+00 -1.783051043748855591e-01 2.680391669273376465e-01 2.692021429538726807e-02 8.396010845899581909e-03
1.165000000000000000e+03 1.920708084106445312e+01 -1.620963811874389648e+00 -9.974045306444168091e-02 -1.978348344564437866e-01 -8.927258849143981934e-02 3.296839296817779541e-01
1.166000000000000000e+03 1.898656654357910156e+01 -4.489360749721527100e-01 -3.276945948600769043e-01 5.520124360918998718e-02 -8.174800872802734375e-02 -4.811701923608779907e-02
1.167000000000000000e+03 1.958783912658691406e+01 -6.199331283569335938e-01 -3.368779644370079041e-02 1.749940216541290283e-02 -4.856518469750881195e-03 2.089534401893615723e-01
1.168000000000000000e+03 1.814712142944335938e+01 -1.168308138847351074e+00 -3.511051237583160400e-01 1.134216692298650742e-02 -1.019288897514343262e-01 1.260429024696350098e-01
1.169000000000000000e+03 1.665614891052246094e+01 -5.934844613075256348e-01 -2.900200188159942627e-01 3.714506030082702637e-01 2.442917227745056152e-02 -2.067379802465438843e-01
1.170000000000000000e+03 1.365049934387207031e+01 -1.159017562866210938e+00 -2.753487825393676758e-01 1.286587268114089966e-01 -4.400701820850372314e-02 -1.032191365957260132e-01
1.171000000000000000e+03 1.582588481903076172e+01 -2.680588483810424805e+00 2.183803357183933258e-02 7.150463759899139404e-02 2.800280228257179260e-02 -1.578352600336074829e-01
1.172000000000000000e+03 1.436419486999511719e+01 -1.017814159393310547e+00 -2.504993081092834473e-01 -2.301243692636489868e-01 -1.441870927810668945e-01 -1.627468615770339966e-01
1.173000000000000000e+03 1.137399291992187500e+01 -1.626078248023986816e+00 -2.058007568120956421e-01 -1.660039424896240234e-01 -1.115414127707481384e-01 -1.332751959562301636e-01
1.174000000000000000e+03 1.058962059020996094e+01 -1.772059917449951172e+00 -1.817586869001388550e-01 4.561931267380714417e-02 -4.084181040525436401e-02 -1.209952980279922485e-01
1.175000000000000000e+03 5.505892944335937500e+01 -2.328581047058105469e+01 1.835166931152343750e+00 1.027665519714355469e+01 3.633546590805053711e+00 3.199750900268554688e+00
1.176000000000000000e+03 7.344439697265625000e+01 -1.803155708312988281e+01 7.238180041313171387e-01 6.974231719970703125e+00 2.309414863586425781e+00 -1.364548921585083008e+00
1.177000000000000000e+03 6.515823364257812500e+01 -2.311950492858886719e+01 3.515831470489501953e+00 1.239034366607666016e+01 4.771852493286132812e+00 -5.217260837554931641e+00
1.178000000000000000e+03 4.472977066040039062e+01 -4.742506504058837891e+00 -5.810635685920715332e-01 2.100412368774414062e+00 4.558046162128448486e-01 -1.202725052833557129e+00
1.179000000000000000e+03 5.244068908691406250e+01 -7.738034248352050781e+00 2.669956207275390625e+00 7.992062091827392578e+00 3.198605537414550781e+00 -2.229432582855224609e+00
1.180000000000000000e+03 3.987315750122070312e+01 -1.250557804107666016e+01 -1.690011978149414062e+00 4.573111236095428467e-01 -3.698102533817291260e-01 4.911123514175415039e-01
1.181000000000000000e+03 3.701897048950195312e+01 -1.036297798156738281e+01 5.591909289360046387e-01 4.706044673919677734e+00 1.579570651054382324e+00 -3.103500604629516602e-01
1.182000000000000000e+03 3.686119842529296875e+01 -6.874338150024414062e+00 2.483531951904296875e+00 9.298317909240722656e+00 3.534554958343505859e+00 2.942107915878295898e+00
1.183000000000000000e+03 3.890022277832031250e+01 -7.964166402816772461e-01 1.819175243377685547e+00 1.360183000564575195e+00 9.538074731826782227e-01 2.953796148300170898e+00
1.184000000000000000e+03 6.455386352539062500e+01 -3.939787673950195312e+01 -1.872497677803039551e+00 2.198920249938964844e+00 9.792680293321609497e-02 6.833000779151916504e-01
1.185000000000000000e+03 5.616088485717773438e+01 -3.187506294250488281e+01 1.500247240066528320e+00 1.160001087188720703e+01 3.930077314376831055e+00 2.096669435501098633e+00
1.186000000000000000e+03 1.581080913543701172e+01 -1.693489456176757812e+01 5.605136230587959290e-02 3.845686912536621094e-01 1.321860104799270630e-01 -1.727141737937927246e-01
1.187000000000000000e+03 1.397745323181152344e+01 -2.791642761230468750e+01 3.639405369758605957e-01 4.638782143592834473e-01 2.483456283807754517e-01 2.991443276405334473e-01
1.188000000000000000e+03 7.817832469940185547e+00 -1.384521007537841797e+01 -1.526569426059722900e-01 -1.627477109432220459e-01 -9.462139755487442017e-02 -1.564303040504455566e-01
1.189000000000000000e+03 5.490448379516601562e+01 1.444348335266113281e+01 1.276430368423461914e+00 7.059165477752685547e+00 2.500678777694702148e+00 -1.179459810256958008e+00
1.190000000000000000e+03 5.520404815673828125e+01 7.962001323699951172e+00 2.690203905105590820e+00 1.101658439636230469e+01 4.112036705017089844e+00 2.286990165710449219e+00
1.191000000000000000e+03 4.390166091918945312e+01 8.730249404907226562e+00 -1.801989525556564331e-01 7.648666381835937500e+00 2.240540266036987305e+00 -6.005744934082031250e-01
1.192000000000000000e+03 1.954914474487304688e+01 4.069578170776367188e+00 -8.558224439620971680e-01 -7.145851850509643555e-02 -2.781842947006225586e-01 2.541455030441284180e-01
1.193000000000000000e+03 9.463957786560058594e+00 9.566292762756347656e+00 -5.676592588424682617e-01 -6.675333380699157715e-01 -3.705577850341796875e-01 4.925135374069213867e-01
1.194000000000000000e+03 1.008185672760009766e+01 1.558983707427978516e+01 4.925324618816375732e-01 7.284211516380310059e-01 3.662860691547393799e-01 5.531169772148132324e-01
1.195000000000000000e+03 3.899374771118164062e+01 -1.867610740661621094e+01 6.961594223976135254e-01 2.122161626815795898e+00 8.454962968826293945e-01 -1.033232212066650391e+00
1.196000000000000000e+03 3.973267364501953125e+01 -2.114450263977050781e+01 5.040099024772644043e-01 3.357624292373657227e+00 1.158490300178527832e+00 -9.426421672105789185e-02
1.197000000000000000e+03 3.606983566284179688e+01 -2.831350898742675781e+01 -2.185136079788208008e+00 1.374961733818054199e-01 -6.142919659614562988e-01 -1.540974676609039307e-01
1.198000000000000000e+03 3.020457458496093750e+01 -1.730557823181152344e+01 1.267011642456054688e+00 3.501524686813354492e+00 1.430560827255249023e+00 1.812316656112670898e+00
1.199000000000000000e+03 2.424910926818847656e+01 -3.005677604675292969e+01 2.678044140338897705e-02 1.768417835235595703e+00 5.385594964027404785e-01 -2.514264583587646484e-01
1.200000000000000000e+03 2.501013565063476562e+01 -3.632705688476562500e+01 1.188231110572814941e-01 2.370357275009155273e+00 7.467541098594665527e-01 1.787982136011123657e-01
1.201000000000000000e+03 1.276045799255371094e+01 -3.371125793457031250e+01 7.414402067661285400e-02 8.613537549972534180e-01 2.806493341922760010e-01 9.055344015359878540e-02
1.202000000000000000e+03 1.303526592254638672e+01 -3.236033630371093750e+01 9.893003106117248535e-02 9.461234211921691895e-01 3.135160207748413086e-01 2.340556085109710693e-01
1.203000000000000000e+03 1.600107002258300781e+01 -2.747108840942382812e+01 6.324054002761840820e-01 5.041017532348632812e-01 3.409521281719207764e-01 4.873110949993133545e-01
1.204000000000000000e+03 2.000317001342773438e+01 -2.643844604492187500e+01 -4.233465194702148438e-01 -2.092556506395339966e-01 -1.897806525230407715e-01 3.821553587913513184e-01
1.205000000000000000e+03 1.405633163452148438e+01 3.465202331542968750e+01 -3.524813801050186157e-02 -1.978782564401626587e-02 -1.651078835129737854e-02 3.589500114321708679e-02
1.206000000000000000e+03 1.518960571289062500e+01 3.411217117309570312e+01 -8.422040939331054688e-02 -1.848349347710609436e-02 -3.081117197871208191e-02 5.639563128352165222e-02
1.207000000000000000e+03 1.959820365905761719e+01 3.181157112121582031e+01 4.799666628241539001e-02 4.585606157779693604e-01 1.519671827554702759e-01 -1.216712743043899536e-01
1.208000000000000000e+03 2.264664268493652344e+01 2.432305526733398438e+01 1.558915823698043823e-01 1.241226911544799805e+00 4.191355407238006592e-01 3.377008140087127686e-01
1.209000000000000000e+03 1.419226074218750000e+01 2.187413406372070312e+01 4.998058974742889404e-01 2.223242372274398804e-01 2.166390419006347656e-01 5.139188170433044434e-01
1.210000000000000000e+03 1.298579311370849609e+01 2.277365493774414062e+01 2.935367226600646973e-01 7.263206690549850464e-02 1.098506376147270203e-01 1.876758337020874023e-01
1.211000000000000000e+03 6.583801746368408203e+00 2.553176498413085938e+01 -1.714255213737487793e-01 -4.799007773399353027e-01 -1.953978836536407471e-01 2.223253995180130005e-01
1.212000000000000000e+03 7.105825042724609375e+01 1.648888969421386719e+01 9.850580692291259766e-01 6.378113269805908203e+00 2.208951473236083984e+00 -2.392890930175781250e+00
1.213000000000000000e+03 7.288893127441406250e+01 1.153705310821533203e+01 1.796697735786437988e+00 1.204559993743896484e+01 4.152689456939697266e+00 9.893843531608581543e-01
1.214000000000000000e+03 6.428200531005859375e+01 6.445698261260986328e+00 -1.788121223449707031e+00 8.805507421493530273e-01 -2.722711265087127686e-01 -3.411698043346405029e-01
1.215000000000000000e+03 6.073537445068359375e+01 1.484381294250488281e+01 8.370823860168457031e-01 1.245882034301757812e+01 3.988770723342895508e+00 1.751171588897705078e+00
1.216000000000000000e+03 6.207477569580078125e+01 1.861813354492187500e+01 3.804221630096435547e+00 9.077217102050781250e+00 3.864431619644165039e+00 5.063139915466308594e+00
1.217000000000000000e+03 3.144846725463867188e+01 2.469502067565917969e+01 9.479277729988098145e-01 4.372130393981933594e+00 1.596017360687255859e+00 -1.206941008567810059e+00
1.218000000000000000e+03 3.220491409301757812e+01 1.668254280090332031e+01 3.103208839893341064e-01 1.732666015625000000e+00 6.128960847854614258e-01 -3.291050791740417480e-01
1.219000000000000000e+03 2.220133781433105469e+01 2.172573471069335938e+01 6.211826950311660767e-02 1.420291304588317871e+00 4.447228908538818359e-01 1.715184189379215240e-02
1.220000000000000000e+03 4.612832260131835938e+01 2.613701820373535156e+01 1.250648498535156250e+00 9.727396011352539062e+00 3.293413400650024414e+00 1.436612129211425781e+00
1.221000000000000000e+03 4.334662628173828125e+01 2.223239135742187500e+01 -1.539465188980102539e+00 2.267250299453735352e+00 2.183355242013931274e-01 1.104874014854431152e+00
1.222000000000000000e+03 3.585790634155273438e+01 2.522431945800781250e+01 2.244749546051025391e+00 6.681726932525634766e+00 2.677942991256713867e+00 -2.954491138458251953e+00
1.223000000000000000e+03 6.486873626708984375e+01 2.771430969238281250e+01 1.724935054779052734e+00 6.307523727416992188e+00 2.409737586975097656e+00 1.855840563774108887e+00
1.224000000000000000e+03 5.974631118774414062e+01 2.351763534545898438e+01 -4.201604843139648438e+00 6.264237165451049805e-01 -1.072554230690002441e+00 1.185536533594131470e-01
1.225000000000000000e+03 5.500315475463867188e+01 3.390926742553710938e+01 1.295387983322143555e+00 4.265777111053466797e+00 1.668349623680114746e+00 2.236743450164794922e+00
1.226000000000000000e+03 7.920162200927734375e+01 -9.828575134277343750e+00 1.103574316948652267e-02 8.718922615051269531e+00 2.618987560272216797e+00 -5.785185098648071289e-01
1.227000000000000000e+03 6.604461669921875000e+01 -9.435812950134277344e+00 1.794016718864440918e+00 6.643504142761230469e+00 2.531256198883056641e+00 -3.101224184036254883e+00
1.228000000000000000e+03 6.392791748046875000e+01 -5.646699428558349609e+00 1.815640807151794434e+00 9.576180458068847656e+00 3.417546272277832031e+00 -3.243229687213897705e-01
1.229000000000000000e+03 4.749280166625976562e+01 -3.681476974487304688e+01 -2.711805105209350586e-01 1.794201850891113281e+00 4.569063782691955566e-01 9.479308724403381348e-01
1.230000000000000000e+03 4.087181091308593750e+01 -2.886521530151367188e+01 -1.093338355422019958e-01 3.524591922760009766e+00 1.024577379226684570e+00 1.602116584777832031e+00
1.231000000000000000e+03 6.043600845336914062e+01 -2.125528812408447266e+00 2.513324260711669922e+00 8.539998054504394531e+00 3.315996646881103516e+00 -3.841789722442626953e+00
1.232000000000000000e+03 5.461764144897460938e+01 -8.924523353576660156e+00 2.834493875503540039e+00 3.073788881301879883e+00 1.772484779357910156e+00 -3.052026510238647461e+00
1.233000000000000000e+03 5.236745834350585938e+01 -5.063548088073730469e+00 9.640474319458007812e-01 1.197136783599853516e+01 3.880624532699584961e+00 -2.394245117902755737e-01
1.234000000000000000e+03 4.238624191284179688e+01 -3.657217025756835938e+00 -7.469933509826660156e+00 -1.773156039416790009e-02 -2.246299505233764648e+00 1.871788620948791504e+00
1.235000000000000000e+03 3.953464126586914062e+01 -5.288007855415344238e-01 3.466938257217407227e+00 7.223638892173767090e-01 1.256790637969970703e+00 3.192668676376342773e+00
1.236000000000000000e+03 3.936866760253906250e+01 -4.210005700588226318e-01 2.899625539779663086e+00 5.963097214698791504e-01 1.048780560493469238e+00 2.786883831024169922e+00
1.237000000000000000e+03 3.812879562377929688e+01 -1.177814364433288574e+00 6.760541200637817383e-01 1.821520209312438965e+00 7.492722868919372559e-01 2.656095504760742188e+00
1.238000000000000000e+03 3.920240020751953125e+01 -3.513675034046173096e-01 2.112757921218872070e+00 7.657490372657775879e-01 8.635520935058593750e-01 2.280352354049682617e+00
1.239000000000000000e+03 4.022100830078125000e+01 -8.445186018943786621e-01 4.859841823577880859e+00 2.061794042587280273e+00 2.076490640640258789e+00 5.689286231994628906e+00
1.240000000000000000e+03 3.963337326049804688e+01 -9.656590223312377930e-01 3.570557117462158203e+00 1.474291086196899414e+00 1.513454437255859375e+00 4.528071403503417969e+00
1.241000000000000000e+03 4.101244735717773438e+01 -1.270635724067687988e+00 3.764531135559082031e+00 5.885942459106445312e+00 2.895142078399658203e+00 6.592215061187744141e+00
1.242000000000000000e+03 4.191415405273437500e+01 -2.649111032485961914e+00 -1.135581851005554199e+00 2.060368537902832031e+00 2.774360477924346924e-01 2.463155746459960938e+00
1.243000000000000000e+03 4.278791046142578125e+01 2.103927850723266602e+00 1.010907769203186035e+00 1.154625320434570312e+01 3.767148494720458984e+00 4.716322720050811768e-01
1.244000000000000000e+03 4.295188903808593750e+01 1.437200188636779785e+00 4.138159751892089844e+00 1.095210456848144531e+01 4.527079105377197266e+00 1.824992775917053223e+00
1.245000000000000000e+03 4.325922012329101562e+01 3.898955285549163818e-01 9.111455917358398438e+00 7.579877376556396484e+00 5.007400035858154297e+00 -1.522056311368942261e-01
1.246000000000000000e+03 4.535063934326171875e+01 -3.966346979141235352e+00 -3.867296576499938965e-01 4.119623184204101562e+00 1.119868040084838867e+00 -3.206265211105346680e+00
1.247000000000000000e+03 4.268757629394531250e+01 -1.757755041122436523e+00 2.473398685455322266e+00 6.407975673675537109e+00 2.664412260055541992e+00 -1.271741151809692383e+00
1.248000000000000000e+03 4.326700973510742188e+01 1.666733920574188232e-01 9.149695396423339844e+00 7.194045066833496094e+00 4.903121948242187500e+00 -9.555630087852478027e-01
1.249000000000000000e+03 4.241496658325195312e+01 -1.078251242637634277e+00 4.516181468963623047e+00 9.604391098022460938e+00 4.236171722412109375e+00 -9.599406719207763672e-01
1.250000000000000000e+03 4.163169479370117188e+01 -1.257437586784362793e+00 3.134654760360717773e+00 9.005656242370605469e+00 3.642093420028686523e+00 4.293233871459960938e+00
1.251000000000000000e+03 4.078747558593750000e+01 -1.191834926605224609e+00 4.134444713592529297e+00 4.536807060241699219e+00 2.601375579833984375e+00 7.047717571258544922e+00
1.252000000000000000e+03 4.135933303833007812e+01 -1.837175726890563965e+00 1.726330280303955078e+00 4.918398380279541016e+00 1.993418574333190918e+00 5.036242008209228516e+00
1.253000000000000000e+03 4.210931396484375000e+01 2.406077146530151367e+00 -7.660607099533081055e-01 1.129759979248046875e+01 3.159461736679077148e+00 -1.592651009559631348e+00
1.254000000000000000e+03 3.898688125610351562e+01 4.306190967559814453e+00 -2.149833887815475464e-01 2.222035884857177734e+00 6.021157503128051758e-01 -4.288681447505950928e-01
1.255000000000000000e+03 3.969383621215820312e+01 3.100281476974487305e+00 -9.468588232994079590e-01 2.749562025070190430e+00 5.408109426498413086e-01 -2.025373220443725586e+00
1.256000000000000000e+03 4.106503677368164062e+01 2.429050207138061523e+00 -6.756286621093750000e-01 7.555698394775390625e+00 2.064020872116088867e+00 -3.557662010192871094e+00
1.257000000000000000e+03 4.109398269653320312e+01 2.751812458038330078e+00 -1.049889922142028809e+00 7.576563835144042969e+00 1.958002209663391113e+00 -3.250137329101562500e+00
1.258000000000000000e+03 4.072730636596679688e+01 4.757384777069091797e+00 -1.015184164047241211e+00 6.980632781982421875e+00 1.789634585380554199e+00 -2.406283378601074219e+00
1.259000000000000000e+03 4.162684249877929688e+01 2.193098306655883789e+00 -8.107435107231140137e-01 1.070338726043701172e+01 2.967792987823486328e+00 -2.809711217880249023e+00
1.260000000000000000e+03 4.221171951293945312e+01 1.947356581687927246e+00 2.108215540647506714e-01 1.274981594085693359e+01 3.888191223144531250e+00 -5.779088139533996582e-01
1.261000000000000000e+03 4.130504989624023438e+01 2.644610643386840820e+00 -1.087599277496337891e+00 8.538947105407714844e+00 2.235404253005981445e+00 -3.191231012344360352e+00
1.262000000000000000e+03 3.950301361083984375e+01 3.198267221450805664e+00 -9.550296664237976074e-01 2.606315135955810547e+00 4.953856468200683594e-01 -1.757255077362060547e+00
1.263000000000000000e+03 3.932659912109375000e+01 4.049819946289062500e+00 -5.255118608474731445e-01 3.492281198501586914e+00 8.900308012962341309e-01 -1.406661272048950195e+00
1.264000000000000000e+03 1.292810440063476562e+01 2.600591421127319336e+00 -3.234126269817352295e-01 -5.893957614898681641e-02 -1.147056668996810913e-01 3.003708124160766602e-01
1.265000000000000000e+03 1.202120494842529297e+01 3.268187284469604492e+00 -3.175839483737945557e-01 -1.404167711734771729e-01 -1.374002099037170410e-01 2.691842019557952881e-01
1.266000000000000000e+03 1.058135414123535156e+01 3.036575794219970703e+00 -1.915147751569747925e-01 -1.034556254744529724e-01 -8.849111944437026978e-02 1.270808726549148560e-01
1.267000000000000000e+03 1.130529308319091797e+01 5.055191993713378906e+00 -4.759640395641326904e-01 -3.034737408161163330e-01 -2.338313311338424683e-01 2.824323177337646484e-01
1.268000000000000000e+03 9.875287055969238281e+00 2.880975246429443359e+00 -1.322896480560302734e-01 -9.802491217851638794e-02 -6.909436732530593872e-02 7.076103985309600830e-02
1.269000000000000000e+03 1.509581375122070312e+01 -8.972339034080505371e-01 -3.349983394145965576e-01 2.480173557996749878e-01 -2.609429322183132172e-02 -1.270144432783126831e-01
1.270000000000000000e+03 1.291425037384033203e+01 -1.313007712364196777e+00 -2.527192831039428711e-01 -1.855942010879516602e-01 -1.314940452575683594e-01 -1.592736244201660156e-01
1.271000000000000000e+03 1.478717517852783203e+01 -3.044364213943481445e+00 -5.796219222247600555e-03 1.467551738023757935e-01 4.228768870234489441e-02 -5.929870158433914185e-02
1.272000000000000000e+03 1.674864006042480469e+01 -2.878266096115112305e+00 -4.114452004432678223e-02 1.894293427467346191e-01 4.448544606566429138e-02 6.675573438405990601e-02
1.273000000000000000e+03 1.897516822814941406e+01 -1.027524232864379883e+00 1.406874358654022217e-01 2.215433269739151001e-01 1.086692288517951965e-01 8.640503138303756714e-02
1.274000000000000000e+03 1.822385787963867188e+01 -4.386684000492095947e-01 -1.302480101585388184e-01 1.036394536495208740e-01 -7.982566021382808685e-03 -6.019502133131027222e-02
1.275000000000000000e+03 3.574715042114257812e+01 -1.635285854339599609e+00 -5.961351394653320312e-01 8.730816841125488281e-01 8.308395743370056152e-02 2.587859928607940674e-01
1.276000000000000000e+03 4.068272781372070312e+01 -3.670209646224975586e+00 -1.733499526977539062e+00 1.173036932945251465e+00 -1.681387573480606079e-01 2.506772518157958984e+00
1.277000000000000000e+03 3.427299118041992188e+01 -2.209776163101196289e+00 -4.166402816772460938e-01 5.800075829029083252e-02 -1.075918525457382202e-01 -3.689947724342346191e-01
1.278000000000000000e+03 3.682960510253906250e+01 -2.093429803848266602e+00 2.871540188789367676e-01 2.478317260742187500e+00 8.296413421630859375e-01 1.627258658409118652e+00
1.279000000000000000e+03 3.540457916259765625e+01 -3.591034650802612305e+00 1.477559804916381836e+00 2.193292140960693359e+00 1.101255536079406738e+00 6.171616315841674805e-01
1.280000000000000000e+03 3.267813491821289062e+01 -2.796851873397827148e+00 -3.051627278327941895e-01 -5.517709255218505859e-01 -2.570800781250000000e-01 -5.999690294265747070e-01
1.281000000000000000e+03 1.603278350830078125e+01 3.171812295913696289e+00 -9.302473068237304688e-01 6.756611913442611694e-02 -2.588043510913848877e-01 5.334307551383972168e-01
1.282000000000000000e+03 1.329680156707763672e+01 4.601908683776855469e+00 -5.236583948135375977e-01 -2.924631834030151367e-01 -2.448364645242691040e-01 5.243127346038818359e-01
1.283000000000000000e+03 1.359501266479492188e+01 3.699392080307006836e+00 -4.984210431575775146e-01 -1.592669337987899780e-01 -1.973063945770263672e-01 5.309943556785583496e-01
1.284000000000000000e+03 1.592066097259521484e+01 3.982223272323608398e+00 -7.790691852569580078e-01 8.912305533885955811e-02 -2.069838345050811768e-01 6.636903285980224609e-01
1.285000000000000000e+03 1.129420852661132812e+01 3.164962291717529297e+00 -2.359830290079116821e-01 -1.200334057211875916e-01 -1.068049296736717224e-01 1.763055026531219482e-01
1.286000000000000000e+03 4.928089618682861328e+00 -3.070096492767333984e+00 -2.999076433479785919e-02 -3.101387061178684235e-03 -9.927645325660705566e-03 -4.517819359898567200e-02
1.287000000000000000e+03 7.464826583862304688e+00 -2.752886056900024414e+00 -7.725754380226135254e-02 -9.212180972099304199e-02 -5.081380531191825867e-02 -9.999986737966537476e-02
1.288000000000000000e+03 5.829758644104003906e+00 -1.984112977981567383e+00 -5.375462025403976440e-02 1.721193827688694000e-02 -1.096280477941036224e-02 -4.377186298370361328e-02
1.289000000000000000e+03 8.215764999389648438e+00 -1.898326516151428223e+00 -1.188788861036300659e-01 -9.837017208337783813e-02 -6.517471373081207275e-02 -9.362500160932540894e-02
1.290000000000000000e+03 9.146533966064453125e+00 -3.422702074050903320e+00 -6.817387044429779053e-02 6.208013277500867844e-03 -1.858975738286972046e-02 -1.193790212273597717e-01
1.291000000000000000e+03 6.634828567504882812e+00 -1.948230862617492676e+00 -8.216045051813125610e-02 -6.210213527083396912e-02 -4.327877610921859741e-02 -6.690636277198791504e-02
1.292000000000000000e+03 8.260560989379882812e+00 -2.695756673812866211e+00 -8.718882501125335693e-02 2.127376571297645569e-02 -1.977451704442501068e-02 -1.037459596991539001e-01
1.293000000000000000e+03 2.277931451797485352e+00 -2.734754562377929688e+00 -8.306141011416912079e-03 -9.932983666658401489e-03 -5.471737124025821686e-03 -2.255276776850223541e-02
1.294000000000000000e+03 4.655825495719909668e-01 -3.536217451095581055e+00 -2.194153144955635071e-03 -6.991925649344921112e-03 -2.755823545157909393e-03 -4.140629433095455170e-03
1.295000000000000000e+03 4.062607288360595703e-01 -2.177249908447265625e+00 2.827701682690531015e-04 -1.636257977224886417e-03 -4.060463397763669491e-04 -7.491681608371436596e-04
1.296000000000000000e+03 5.265598297119140625e-01 -4.918722152709960938e+00 -5.665065837092697620e-04 -2.686846442520618439e-02 -8.230491541326045990e-03 -7.778567261993885040e-03
1.297000000000000000e+03 9.872378349304199219e+00 -2.586842060089111328e+00 -1.163876131176948547e-01 2.360979281365871429e-02 -2.783334627747535706e-02 -1.227775663137435913e-01
1.298000000000000000e+03 2.726195907592773438e+01 2.078154802322387695e+00 -9.502317905426025391e-01 9.008152037858963013e-02 -2.580450773239135742e-01 2.894109487533569336e-01
1.299000000000000000e+03 2.707126045227050781e+01 1.295517563819885254e+00 -1.352630257606506348e+00 4.536661435849964619e-04 -4.056529700756072998e-01 3.327882885932922363e-01
1.300000000000000000e+03 2.098713874816894531e+01 2.882043600082397461e+00 -1.390758037567138672e+00 -1.290605962276458740e-01 -4.559455811977386475e-01 2.429009675979614258e-01
1.301000000000000000e+03 2.554743194580078125e+01 1.685813188552856445e+00 -1.331081748008728027e+00 -1.129263862967491150e-01 -4.332024157047271729e-01 3.974889218807220459e-01
1.302000000000000000e+03 3.007760620117187500e+01 4.218789041042327881e-01 -1.638756155967712402e+00 4.309036135673522949e-01 -3.623557686805725098e-01 1.501184999942779541e-01
1.303000000000000000e+03 2.497791671752929688e+01 2.663354158401489258e+00 -9.572206139564514160e-01 -1.173573285341262817e-01 -3.223733901977539062e-01 2.986083924770355225e-01
1.304000000000000000e+03 2.892737770080566406e+01 1.728621363639831543e+00 -9.298421144485473633e-01 3.295806944370269775e-01 -1.800784319639205933e-01 1.473909765481948853e-01
1.305000000000000000e+03 2.037277221679687500e+01 3.892861127853393555e+00 -8.967045545578002930e-01 -1.059354022145271301e-01 -3.007919788360595703e-01 2.169757932424545288e-01
1.306000000000000000e+03 1.943277740478515625e+01 3.256055355072021484e+00 -1.235214352607727051e+00 -1.525185853242874146e-01 -4.163198769092559814e-01 3.106981813907623291e-01
1.307000000000000000e+03 2.271928215026855469e+01 3.277667522430419922e+00 -9.866290688514709473e-01 -1.396959424018859863e-01 -3.378975093364715576e-01 2.381686568260192871e-01
1.308000000000000000e+03 2.423002624511718750e+01 2.863153219223022461e+00 -9.665804505348205566e-01 -1.395124942064285278e-01 -3.318278789520263672e-01 2.865406274795532227e-01
1.309000000000000000e+03 2.915213394165039062e+01 3.256013631820678711e+00 -6.002754718065261841e-02 5.825701951980590820e-01 1.567627936601638794e-01 -8.844577521085739136e-02
1.310000000000000000e+03 2.894771003723144531e+01 5.446751594543457031e+00 6.609584093093872070e-01 1.304981827735900879e+00 5.897820591926574707e-01 -5.420710444450378418e-01
1.311000000000000000e+03 2.649711418151855469e+01 2.267179727554321289e+00 -9.433192610740661621e-01 6.435037124902009964e-03 -2.810652554035186768e-01 2.760615348815917969e-01
1.312000000000000000e+03 2.134290504455566406e+01 4.527586460113525391e+00 -5.838261246681213379e-01 -1.180251389741897583e-01 -2.105553746223449707e-01 1.356126517057418823e-01
1.313000000000000000e+03 3.184503364562988281e+01 1.576048851013183594e+00 -6.044714450836181641e-01 5.216357707977294922e-01 -2.485070005059242249e-02 -1.048646047711372375e-01
1.314000000000000000e+03 3.116112709045410156e+01 2.700538158416748047e+00 5.453886836767196655e-02 5.652772188186645508e-01 1.859448254108428955e-01 -3.573341071605682373e-01
1.315000000000000000e+03 1.445009613037109375e+01 -1.784116148948669434e+00 -2.005014866590499878e-01 1.677503287792205811e-01 -9.825349785387516022e-03 -4.459135234355926514e-02
1.316000000000000000e+03 1.068780136108398438e+01 -2.495498418807983398e+00 -1.251807510852813721e-01 -1.497203260660171509e-01 -8.247032016515731812e-02 -1.392655074596405029e-01
1.317000000000000000e+03 1.302655792236328125e+01 -2.073579788208007812e+00 -1.538089066743850708e-01 7.539543509483337402e-02 -2.352404035627841949e-02 -1.068349555134773254e-01
1.318000000000000000e+03 1.576922702789306641e+01 -5.379661083221435547e+00 -2.047558873891830444e-02 1.977048367261886597e-01 5.316877365112304688e-02 4.037165269255638123e-02
1.319000000000000000e+03 9.162889480590820312e+00 2.750481128692626953e+00 -9.812565892934799194e-02 -6.777083873748779297e-02 -4.976894706487655640e-02 3.649141266942024231e-02
1.320000000000000000e+03 6.142378330230712891e+00 1.870515584945678711e+00 4.801927506923675537e-02 -1.040409039705991745e-02 1.128455530852079391e-02 -4.327162727713584900e-02
1.321000000000000000e+03 1.477182030677795410e+00 7.701203346252441406e+00 -3.438257426023483276e-02 -8.990445174276828766e-03 -1.301190536469221115e-02 7.485502958297729492e-02
1.322000000000000000e+03 3.936656713485717773e+00 3.680140256881713867e+00 -5.540296807885169983e-02 -1.377355190925300121e-03 -1.703409664332866669e-02 -3.990076854825019836e-02
1.323000000000000000e+03 6.170561313629150391e+00 4.097679138183593750e+00 -1.484155505895614624e-01 -4.085483774542808533e-02 -5.678111687302589417e-02 -8.574685081839561462e-03
1.324000000000000000e+03 2.880963325500488281e+00 2.013851881027221680e+00 2.281297743320465088e-02 8.341336622834205627e-03 9.346294216811656952e-03 -5.415985733270645142e-02
1.325000000000000000e+03 1.291096687316894531e+00 3.447226285934448242e+00 -4.995347931981086731e-03 5.212718248367309570e-02 1.413954980671405792e-02 -3.666443377733230591e-02
1.326000000000000000e+03 6.906552791595458984e+00 2.594987630844116211e+00 -2.945952303707599640e-02 -2.838470228016376495e-02 -1.735326834022998810e-02 -2.837853319942951202e-02
1.327000000000000000e+03 5.351699352264404297e+00 2.651693105697631836e+00 -1.701139286160469055e-02 -1.270095258951187134e-02 -8.913703262805938721e-03 -4.749795049428939819e-02
1.328000000000000000e+03 6.132405757904052734e+00 2.611405611038208008e+00 -2.132647857069969177e-02 -1.609938032925128937e-02 -1.122775766998529434e-02 -4.157129302620887756e-02
1.329000000000000000e+03 3.251836395263671875e+01 1.680384397506713867e+00 -4.767929911613464355e-01 3.591336011886596680e-01 -3.529781848192214966e-02 -2.400200068950653076e-01
1.330000000000000000e+03 3.081202316284179688e+01 4.112721920013427734e+00 6.714002490043640137e-01 7.912591695785522461e-01 4.387978315353393555e-01 -8.731482028961181641e-01
1.331000000000000000e+03 3.032306289672851562e+01 3.436090469360351562e+00 2.682433128356933594e-01 8.806226849555969238e-01 3.446598052978515625e-01 -4.791873991489410400e-01
1.332000000000000000e+03 1.773997879028320312e+01 4.144917964935302734e+00 -8.432670831680297852e-01 8.761104196310043335e-02 -2.266968041658401489e-01 5.291007161140441895e-01
1.333000000000000000e+03 1.675357627868652344e+01 5.010221481323242188e+00 -5.965450406074523926e-01 1.959859430789947510e-01 -1.201677247881889343e-01 6.547380089759826660e-01
1.334000000000000000e+03 1.783903121948242188e+01 5.959890365600585938e+00 -8.684641867876052856e-02 3.829530179500579834e-01 8.883198350667953491e-02 4.481296241283416748e-01
1.335000000000000000e+03 1.520734214782714844e+01 6.655884742736816406e+00 -3.540149331092834473e-01 1.083069760352373123e-02 -1.029552668333053589e-01 3.082283139228820801e-01
1.336000000000000000e+03 3.098307228088378906e+01 -3.364025115966796875e+00 1.344945281744003296e-01 -1.280419349670410156e+00 -3.437774479389190674e-01 -5.851426124572753906e-01
1.337000000000000000e+03 3.496030044555664062e+01 -4.691428661346435547e+00 2.397685766220092773e+00 2.165188312530517578e+00 1.368862271308898926e+00 8.359902501106262207e-01
1.338000000000000000e+03 3.285255432128906250e+01 -3.641365289688110352e+00 6.812881231307983398e-01 -7.139203697443008423e-02 1.829688251018524170e-01 -4.455771446228027344e-01
1.339000000000000000e+03 3.198043060302734375e+01 -3.934174060821533203e+00 6.087712645530700684e-01 -6.366353631019592285e-01 -8.359230123460292816e-03 -3.746799230575561523e-01
1.340000000000000000e+03 1.814411354064941406e+01 -1.977718949317932129e+00 1.739018857479095459e-01 5.435860157012939453e-01 2.152463644742965698e-01 2.023889124393463135e-02
1.341000000000000000e+03 1.517905807495117188e+01 -1.727635383605957031e+00 -1.159995272755622864e-01 -2.077249735593795776e-01 -9.711734950542449951e-02 -2.264856994152069092e-01
1.342000000000000000e+03 3.987384414672851562e+01 -2.369693565368652344e+01 1.003734230995178223e+00 6.951662063598632812e+00 2.386618852615356445e+00 1.706614136695861816e+00
1.343000000000000000e+03 4.870547485351562500e+01 -3.031650924682617188e+01 2.835033893585205078e+00 5.839402675628662109e+00 2.602330923080444336e+00 -3.265660047531127930e+00
1.344000000000000000e+03 4.854700088500976562e+01 -2.644995117187500000e+01 -1.677878499031066895e+00 3.700823783874511719e+00 6.068835854530334473e-01 -2.519372463226318359e+00
1.345000000000000000e+03 4.751747894287109375e+01 2.578157615661621094e+01 2.085484266281127930e+00 6.438181400299072266e+00 2.557099819183349609e+00 1.255918741226196289e+00
1.346000000000000000e+03 4.779211425781250000e+01 2.873504638671875000e+01 1.329968214035034180e+00 6.164040088653564453e+00 2.248202323913574219e+00 2.336076349020004272e-01
1.347000000000000000e+03 1.943390083312988281e+01 -2.260649299621582031e+01 4.871161878108978271e-01 1.903291046619415283e-02 1.518447250127792358e-01 3.131461441516876221e-01
1.348000000000000000e+03 1.465252208709716797e+01 -2.133363723754882812e+01 4.969611018896102905e-02 4.431876167654991150e-02 2.820446155965328217e-02 3.237540647387504578e-02
1.349000000000000000e+03 4.660989379882812500e+01 -1.218545341491699219e+01 1.757007837295532227e+00 7.266207218170166016e+00 2.706964492797851562e+00 4.300683498382568359e+00
1.350000000000000000e+03 4.983359527587890625e+01 -8.651955604553222656e+00 3.104766607284545898e+00 8.772335052490234375e+00 3.563130378723144531e+00 1.337687172053847462e-05
1.351000000000000000e+03 3.278733825683593750e+01 1.546728610992431641e+01 3.884882330894470215e-01 1.160331130027770996e+00 4.646458029747009277e-01 -5.944573879241943359e-01
1.352000000000000000e+03 3.101615142822265625e+01 1.604121398925781250e+01 3.208508491516113281e-01 8.221350908279418945e-01 3.428957760334014893e-01 2.966097593307495117e-01
1.353000000000000000e+03 6.033792877197265625e+01 3.585792541503906250e+01 -1.779692411422729492e+00 2.420605421066284180e-01 -4.612895846366882324e-01 2.256740480661392212e-01
1.354000000000000000e+03 6.243654632568359375e+01 3.389278030395507812e+01 8.299680054187774658e-02 2.758255243301391602e+00 8.523755669593811035e-01 -6.738190054893493652e-01
1.355000000000000000e+03 4.924023437500000000e+01 -3.479314804077148438e+01 1.518826961517333984e+00 6.794493198394775391e+00 2.493996143341064453e+00 2.014232397079467773e+00
1.356000000000000000e+03 4.061749267578125000e+01 -4.027270507812500000e+01 -1.252892017364501953e+00 1.199699282646179199e+00 -1.595782116055488586e-02 -3.179678916931152344e-01
1.357000000000000000e+03 3.715980529785156250e+01 -4.131142425537109375e+01 -1.171733856201171875e+00 2.304890155792236328e+00 3.399468958377838135e-01 6.785450875759124756e-02
1.358000000000000000e+03 3.917007827758789062e+01 -3.421594238281250000e+01 6.920784711837768555e-01 6.373456954956054688e+00 2.119660615921020508e+00 -3.533481359481811523e-01
1.359000000000000000e+03 5.240556335449218750e+01 -3.496501922607421875e+01 1.375352382659912109e+00 6.361335754394531250e+00 2.321006536483764648e+00 5.011211633682250977e-01
1.360000000000000000e+03 4.968245315551757812e+01 -2.976564407348632812e+01 1.750538945198059082e+00 4.741685390472412109e+00 1.947667360305786133e+00 -1.509295940399169922e+00
1.361000000000000000e+03 4.761937713623046875e+01 -8.000323295593261719e+00 1.845118880271911621e+00 1.410351181030273438e+01 4.784589290618896484e+00 -2.593429565429687500e+00
1.362000000000000000e+03 4.777937316894531250e+01 -9.175905227661132812e+00 1.441751599311828613e+00 1.612965774536132812e+01 5.271422863006591797e+00 2.795089781284332275e-01
1.363000000000000000e+03 5.725874328613281250e+01 4.124624633789062500e+01 -4.494742751121520996e-01 2.389796972274780273e+00 5.820968151092529297e-01 3.215372562408447266e-01
1.364000000000000000e+03 1.977921867370605469e+01 2.921985816955566406e+01 2.580966800451278687e-02 7.368702292442321777e-01 2.288039624691009521e-01 1.030916813760995865e-02
1.365000000000000000e+03 5.698346328735351562e+01 3.563642883300781250e+01 -8.974416255950927734e-01 8.485667109489440918e-01 -1.466247253119945526e-02 6.502005457878112793e-01
1.366000000000000000e+03 1.599997043609619141e+01 -2.293683242797851562e+01 1.190540492534637451e-01 1.155999079346656799e-01 7.039618492126464844e-02 2.544125914573669434e-01
1.367000000000000000e+03 1.837613868713378906e+01 -2.526430130004882812e+01 1.609478741884231567e-01 8.079750835895538330e-02 7.252361625432968140e-02 5.002362132072448730e-01
1.368000000000000000e+03 4.371250915527343750e+01 -2.755381584167480469e+01 -4.838940143585205078e+00 -5.977793335914611816e-01 -1.631015777587890625e+00 3.287294507026672363e-01
1.369000000000000000e+03 4.039257049560546875e+01 -9.729855060577392578e-01 4.753550052642822266e+00 2.713617563247680664e+00 2.240150213241577148e+00 6.274251461029052734e+00
1.370000000000000000e+03 4.356809616088867188e+01 -4.094920635223388672e+00 -4.022501945495605469e+00 4.973164200782775879e-01 -1.057555675506591797e+00 1.375834494829177856e-01
1.371000000000000000e+03 4.221640396118164062e+01 -1.157802462577819824e+00 3.674910306930541992e+00 9.539310455322265625e+00 3.964266061782836914e+00 5.693884938955307007e-02
1.372000000000000000e+03 3.822685241699218750e+01 -5.139610767364501953e+00 5.838632583618164062e+00 8.716573715209960938e+00 4.366561889648437500e+00 6.158161640167236328e+00
1.373000000000000000e+03 3.965332412719726562e+01 -4.070255756378173828e+00 4.905557155609130859e+00 4.568996906280517578e+00 2.842366218566894531e+00 4.416636466979980469e+00
1.374000000000000000e+03 3.215022659301757812e+01 -1.083250617980957031e+01 8.412809371948242188e-01 1.084295630455017090e+00 5.776729583740234375e-01 2.266108512878417969e+00
1.375000000000000000e+03 3.583120346069335938e+01 -9.223387718200683594e+00 1.561712384223937988e+00 4.364606380462646484e+00 1.777895569801330566e+00 1.992787718772888184e+00
1.376000000000000000e+03 2.170094680786132812e+01 1.943958091735839844e+01 3.887002468109130859e-01 1.345796108245849609e+00 5.203489065170288086e-01 -3.621771931648254395e-01
1.377000000000000000e+03 3.307983779907226562e+01 2.313525772094726562e+01 5.247073769569396973e-01 4.629200935363769531e+00 1.546172499656677246e+00 -7.001770734786987305e-01
1.378000000000000000e+03 4.251252365112304688e+01 -2.767354774475097656e+01 -3.431669473648071289e+00 5.207807421684265137e-01 -8.732666373252868652e-01 7.410137355327606201e-02
1.379000000000000000e+03 2.091646766662597656e+01 3.194105339050292969e+01 1.235970407724380493e-01 7.704594731330871582e-01 2.682169675827026367e-01 -1.015960872173309326e-01
1.380000000000000000e+03 3.104547309875488281e+01 1.386764049530029297e+01 1.856668591499328613e-01 4.324739873409271240e-01 1.854422539472579956e-01 2.674384415149688721e-01
1.381000000000000000e+03 3.634257507324218750e+01 1.640139770507812500e+01 6.146156191825866699e-01 2.480875253677368164e+00 9.286472797393798828e-01 -2.064359664916992188e+00
1.382000000000000000e+03 3.616545486450195312e+01 -7.566983699798583984e+00 2.633003473281860352e+00 5.685682773590087891e+00 2.495605945587158203e+00 1.768006205558776855e+00
1.383000000000000000e+03 2.082160377502441406e+01 1.854552650451660156e+01 2.361189872026443481e-01 6.364910602569580078e-01 2.617830336093902588e-01 -1.833400875329971313e-01
1.384000000000000000e+03 3.517383575439453125e+01 -1.242209339141845703e+01 -1.191906809806823730e+00 1.377266287803649902e+00 5.560785159468650818e-02 1.079396486282348633e+00
1.385000000000000000e+03 3.664573287963867188e+01 -4.187684059143066406e+00 2.587616920471191406e+00 4.375593662261962891e+00 2.088963031768798828e+00 1.932175874710083008e+00
1.386000000000000000e+03 3.679993820190429688e+01 -5.432749748229980469e+00 4.064900398254394531e+00 5.745940208435058594e+00 2.943252086639404297e+00 2.447845458984375000e+00
1.387000000000000000e+03 4.467586898803710938e+01 -1.456451988220214844e+01 -3.312411546707153320e+00 3.147617816925048828e+00 -4.943813011050224304e-02 2.465374708175659180e+00
1.388000000000000000e+03 4.411480712890625000e+01 -1.348277854919433594e+01 -5.238252639770507812e+00 6.602729558944702148e-01 -1.373393893241882324e+00 2.025019749999046326e-02
1.389000000000000000e+03 2.985359573364257812e+01 2.892707252502441406e+01 1.330803275108337402e+00 1.962643027305603027e+00 9.880338907241821289e-01 -1.293367981910705566e+00
1.390000000000000000e+03 3.183883476257324219e+01 2.186124229431152344e+01 -1.480284240096807480e-02 4.358820438385009766e+00 1.303205370903015137e+00 -2.117814570665359497e-01
1.391000000000000000e+03 3.754798889160156250e+01 2.303513336181640625e+01 7.920415401458740234e-01 2.485226392745971680e+00 9.831803441047668457e-01 -1.738018393516540527e+00
1.392000000000000000e+03 3.074423789978027344e+01 2.786735343933105469e+01 1.268870472908020020e+00 2.560939311981201172e+00 1.148942947387695312e+00 -1.370156764984130859e+00
1.393000000000000000e+03 3.401258468627929688e+01 3.074950027465820312e+01 4.059900343418121338e-01 4.474115848541259766e+00 1.464031696319580078e+00 -4.677637219429016113e-01
1.394000000000000000e+03 4.740594100952148438e+01 -1.412581539154052734e+01 -3.326564073562622070e+00 7.648053646087646484e+00 1.296446919441223145e+00 3.111758232116699219e+00
1.395000000000000000e+03 3.197808265686035156e+01 -2.719144630432128906e+01 -4.448730051517486572e-01 3.027901053428649902e-01 -4.262486472725868225e-02 1.304636746644973755e-01
1.396000000000000000e+03 2.688472747802734375e+01 -3.370946884155273438e+01 2.394348084926605225e-01 1.944339513778686523e+00 6.551322937011718750e-01 -1.408955901861190796e-01
1.397000000000000000e+03 2.047883987426757812e+01 1.276851558685302734e+01 3.117272444069385529e-02 4.065990746021270752e-01 1.313315331935882568e-01 3.979203850030899048e-02
1.398000000000000000e+03 2.349015235900878906e+01 1.763349914550781250e+01 4.491303265094757080e-01 1.007654070854187012e+00 4.370353221893310547e-01 -6.367480158805847168e-01
1.399000000000000000e+03 4.598428344726562500e+01 -1.417488193511962891e+01 -3.325990676879882812e+00 6.113051414489746094e+00 8.361182212829589844e-01 3.138241052627563477e+00
1.400000000000000000e+03 2.094099044799804688e+01 2.087802696228027344e+01 3.623500466346740723e-01 9.106310606002807617e-01 3.818943202495574951e-01 -2.259826362133026123e-01
1.401000000000000000e+03 2.364599418640136719e+01 2.675226020812988281e+01 4.255427420139312744e-01 1.285621285438537598e+00 5.133492350578308105e-01 6.983567476272583008e-01
1.402000000000000000e+03 2.037481880187988281e+01 2.518309402465820312e+01 5.059527158737182617e-01 9.903309941291809082e-01 4.488851130008697510e-01 3.833703398704528809e-01
1.403000000000000000e+03 1.852121734619140625e+01 2.494940948486328125e+01 7.801342010498046875e-01 8.604459762573242188e-01 4.921740293502807617e-01 6.828328371047973633e-01
1.404000000000000000e+03 4.667609405517578125e+01 -6.327628612518310547e+00 2.745630502700805664e+00 8.105032920837402344e+00 3.255198955535888672e+00 -3.810430526733398438e+00
1.405000000000000000e+03 2.137544250488281250e+01 2.784390068054199219e+01 3.398524820804595947e-01 9.555745124816894531e-01 3.886280953884124756e-01 4.068165719509124756e-01
1.406000000000000000e+03 2.093558311462402344e+01 2.850736618041992188e+01 2.327092140913009644e-01 9.467385411262512207e-01 3.538343310356140137e-01 3.184549510478973389e-01
1.407000000000000000e+03 2.044227981567382812e+01 1.142214012145996094e+01 3.136264160275459290e-02 5.580616593360900879e-01 1.768272966146469116e-01 1.089891195297241211e-01
1.408000000000000000e+03 4.623405456542968750e+01 -4.648310661315917969e+00 3.041938245296478271e-01 6.208461761474609375e+00 1.953796625137329102e+00 -3.092582702636718750e+00
1.409000000000000000e+03 2.100991821289062500e+01 2.194923210144042969e+01 2.798157632350921631e-01 1.125557541847229004e+00 4.216119945049285889e-01 -1.219018846750259399e-01
1.410000000000000000e+03 3.779771804809570312e+01 -3.151179504394531250e+01 1.538524508476257324e+00 3.953395843505859375e+00 1.647576093673706055e+00 1.162856459617614746e+00
1.411000000000000000e+03 3.313710784912109375e+01 1.930200576782226562e+01 -2.847498282790184021e-02 3.282689809799194336e+00 9.762644767761230469e-01 -8.375409841537475586e-01
1.412000000000000000e+03 3.188015365600585938e+01 1.924677085876464844e+01 7.636721245944499969e-03 3.229446172714233398e+00 9.711248278617858887e-01 -2.781203687191009521e-01
1.413000000000000000e+03 3.303247070312500000e+01 2.177656173706054688e+01 -8.934909477829933167e-03 4.355186462402343750e+00 1.303875446319580078e+00 -7.594483494758605957e-01
1.414000000000000000e+03 3.308605575561523438e+01 2.050703048706054688e+01 -5.232084915041923523e-02 3.778962850570678711e+00 1.117992639541625977e+00 -7.556885480880737305e-01
1.415000000000000000e+03 5.143003082275390625e+01 -1.050946331024169922e+01 2.451933145523071289e+00 5.910320281982421875e+00 2.508676052093505859e+00 -1.698659658432006836e+00
1.416000000000000000e+03 5.194145202636718750e+01 -9.241237640380859375e+00 2.482244968414306641e+00 6.398022651672363281e+00 2.664080381393432617e+00 -1.536016702651977539e+00
1.417000000000000000e+03 3.753196334838867188e+01 -1.674628138542175293e+00 5.224818587303161621e-01 2.456742763519287109e+00 8.937673568725585938e-01 2.172561168670654297e+00
1.418000000000000000e+03 4.290380859375000000e+01 -6.826016306877136230e-01 6.888140201568603516e+00 8.172024726867675781e+00 4.518049240112304688e+00 -2.634083747863769531e+00
1.419000000000000000e+03 3.591286849975585938e+01 -1.335239887237548828e+01 -2.145766019821166992e+00 1.548445701599121094e+00 -1.791961193084716797e-01 1.941435635089874268e-01
1.420000000000000000e+03 3.682571029663085938e+01 -1.263340568542480469e+01 -1.802924036979675293e+00 2.480076789855957031e+00 2.031458467245101929e-01 -7.942344993352890015e-03
1.421000000000000000e+03 3.952540588378906250e+01 -3.866786956787109375e+01 -1.484394311904907227e+00 2.208325862884521484e+00 2.171794772148132324e-01 -1.075054407119750977e-01
1.422000000000000000e+03 4.768740081787109375e+01 -4.133205795288085938e+01 -1.604672431945800781e+00 2.538986682891845703e+00 2.802942991256713867e-01 5.042417645454406738e-01
1.423000000000000000e+03 4.912385559082031250e+01 -2.748212051391601562e+01 -1.493800520896911621e+00 3.140513181686401367e+00 4.940138161182403564e-01 -2.357792854309082031e+00
1.424000000000000000e+03 4.342666244506835938e+01 -4.117833328247070312e+01 -8.110205531120300293e-01 4.700410366058349609e-01 -1.022938638925552368e-01 3.001191071234643459e-04
1.425000000000000000e+03 5.471610260009765625e+01 2.006996917724609375e+01 -1.286783814430236816e+00 4.457165718078613281e+00 9.511145353317260742e-01 -2.578893184661865234e+00
1.426000000000000000e+03 5.875734710693359375e+01 1.985213851928710938e+01 2.533796429634094238e-01 4.644146442413330078e+00 1.469257831573486328e+00 3.767324388027191162e-01
1.427000000000000000e+03 3.883105468750000000e+01 -2.770252227783203125e+01 -1.156048774719238281e+00 6.250002384185791016e+00 1.528186082839965820e+00 1.678296327590942383e+00
1.428000000000000000e+03 3.692568206787109375e+01 -3.276541900634765625e+01 1.692505240440368652e+00 2.811593770980834961e+00 1.351229667663574219e+00 1.441295146942138672e+00
1.429000000000000000e+03 3.828389358520507812e+01 -3.333395767211914062e+01 1.393826961517333984e+00 6.027347564697265625e+00 2.226352453231811523e+00 1.117646336555480957e+00
1.430000000000000000e+03 5.275350952148437500e+01 -3.368232727050781250e+01 2.133800745010375977e+00 6.388124942779541016e+00 2.556577682495117188e+00 3.606021702289581299e-01
1.431000000000000000e+03 3.116147804260253906e+01 1.200518417358398438e+01 -2.595361769199371338e-01 1.060883998870849609e-01 -4.603433236479759216e-02 7.736639678478240967e-02
1.432000000000000000e+03 3.195627212524414062e+01 1.296047210693359375e+01 -1.241047680377960205e-01 1.499262750148773193e-01 7.746454793959856033e-03 -1.041451469063758850e-02
1.433000000000000000e+03 4.783823394775390625e+01 -2.537191963195800781e+01 -2.087059974670410156e+00 3.824055671691894531e+00 5.210986733436584473e-01 -2.403648376464843750e+00
1.434000000000000000e+03 4.795104217529296875e+01 -2.340644073486328125e+01 1.166255593299865723e+00 3.393244504928588867e+00 1.367850065231323242e+00 -2.390848398208618164e+00
1.435000000000000000e+03 4.939448165893554688e+01 -3.655220031738281250e+01 -2.215276211500167847e-01 5.177494049072265625e+00 1.486789941787719727e+00 1.110098481178283691e+00
1.436000000000000000e+03 6.590072631835937500e+01 3.021372604370117188e+01 1.109776139259338379e+00 5.816417217254638672e+00 2.077857971191406250e+00 1.155810475349426270e+00
1.437000000000000000e+03 6.434778594970703125e+01 3.579059600830078125e+01 -1.156985878944396973e+00 4.242834568023681641e+00 9.257546663284301758e-01 -7.959649898111820221e-03
1.438000000000000000e+03 3.935837173461914062e+01 -2.545769119262695312e+01 1.930285096168518066e+00 8.493288993835449219e+00 3.127072334289550781e+00 3.530188560485839844e+00
1.439000000000000000e+03 3.947826004028320312e+01 -2.696492195129394531e+01 -9.710957407951354980e-01 6.276123046875000000e+00 1.591508269309997559e+00 1.686744928359985352e+00
1.440000000000000000e+03 3.487102127075195312e+01 -2.852220153808593750e+01 -2.823168277740478516e+00 -1.871299743652343750e-01 -9.030894637107849121e-01 -1.165838390588760376e-01
1.441000000000000000e+03 3.245523452758789062e+01 -2.994616508483886719e+01 -2.676952481269836426e-01 6.007391810417175293e-01 9.991317242383956909e-02 -5.561140775680541992e-01
1.442000000000000000e+03 2.593344688415527344e+01 3.232943058013916016e+00 -5.738190412521362305e-01 -1.420160382986068726e-02 -1.764061897993087769e-01 2.001475393772125244e-01
1.443000000000000000e+03 2.830549621582031250e+01 -2.346675300598144531e+01 6.445637941360473633e-01 3.831742763519287109e+00 1.342891931533813477e+00 -2.337854951620101929e-01
1.444000000000000000e+03 3.827461242675781250e+01 -2.964366149902343750e+01 -2.641065716743469238e-01 4.715424060821533203e+00 1.335395336151123047e+00 1.199723124504089355e+00
1.445000000000000000e+03 3.587417221069335938e+01 -1.528102016448974609e+01 -4.061212062835693359e+00 3.259418159723281860e-02 -1.208585381507873535e+00 7.062221169471740723e-01
1.446000000000000000e+03 3.690029144287109375e+01 -1.607239151000976562e+01 -1.444889307022094727e+00 8.665498495101928711e-01 -1.735018491744995117e-01 -4.382597655057907104e-02
1.447000000000000000e+03 2.759690666198730469e+01 -2.455917739868164062e+01 1.483456492424011230e-01 2.616998672485351562e+00 8.296033143997192383e-01 2.219700962305068970e-01
1.448000000000000000e+03 4.872416687011718750e+01 -1.544581031799316406e+01 -4.340538024902343750e+00 5.561651706695556641e+00 3.663341104984283447e-01 2.630851507186889648e+00
1.449000000000000000e+03 5.137950515747070312e+01 -1.608052253723144531e+01 -7.131722927093505859e+00 -1.580456346273422241e-01 -2.186930656433105469e+00 -1.253391504287719727e+00
1.450000000000000000e+03 3.474621963500976562e+01 -1.151466560363769531e+01 1.478901784867048264e-02 1.831895470619201660e+00 5.540053248405456543e-01 1.910517334938049316e+00
1.451000000000000000e+03 3.120500564575195312e+01 -1.467353534698486328e+01 -1.571829080581665039e+00 2.558936357498168945e+00 2.961321771144866943e-01 1.252754926681518555e+00
1.452000000000000000e+03 3.863867950439453125e+01 -2.643811035156250000e+01 1.902745127677917480e+00 5.536273002624511719e+00 2.231705427169799805e+00 2.969337701797485352e+00
1.453000000000000000e+03 3.828821945190429688e+01 -1.255373001098632812e+01 -1.886613488197326660e+00 2.638404607772827148e+00 2.255373299121856689e-01 -4.578823745250701904e-01
1.454000000000000000e+03 3.007111930847167969e+01 -1.478142547607421875e+01 -8.926667571067810059e-01 2.688076019287109375e+00 5.386227369308471680e-01 1.114425539970397949e+00
1.455000000000000000e+03 3.031744003295898438e+01 -1.607846832275390625e+01 1.684978902339935303e-01 2.907475948333740234e+00 9.227921366691589355e-01 1.265918135643005371e+00
1.456000000000000000e+03 4.353990936279296875e+01 -2.651378631591796875e+01 -6.843783259391784668e-01 3.239998221397399902e-01 -1.081135496497154236e-01 1.077459380030632019e-01
1.457000000000000000e+03 3.849743652343750000e+01 -2.859836578369140625e+01 -9.067396521568298340e-01 5.017982006072998047e+00 1.233372688293457031e+00 1.703497648239135742e+00
1.458000000000000000e+03 2.783103179931640625e+01 -2.060568809509277344e+01 9.821116328239440918e-01 3.674413919448852539e+00 1.396957635879516602e+00 5.013229846954345703e-01
1.459000000000000000e+03 4.004893493652343750e+01 -1.412822437286376953e+01 -3.646498680114746094e+00 1.400722742080688477e+00 -6.737328171730041504e-01 -1.101527452468872070e+00
1.460000000000000000e+03 2.890602302551269531e+01 -2.099853897094726562e+01 3.617326617240905762e-01 5.480580329895019531e+00 1.752693891525268555e+00 7.197080254554748535e-01
1.461000000000000000e+03 3.009037590026855469e+01 -2.706117057800292969e+01 -5.257610082626342773e-01 1.676425695419311523e+00 3.451994061470031738e-01 -3.521207869052886963e-01
1.462000000000000000e+03 3.939090728759765625e+01 -1.986754226684570312e+01 4.945583641529083252e-01 2.424447298049926758e+00 8.757016658782958984e-01 -7.649960517883300781e-01
1.463000000000000000e+03 4.052381896972656250e+01 -1.871525764465332031e+01 6.712823510169982910e-01 1.828705430030822754e+00 7.499963045120239258e-01 -5.216248631477355957e-01
1.464000000000000000e+03 2.894973754882812500e+01 -1.701192665100097656e+01 2.952474653720855713e-01 3.073856115341186523e+00 1.010731101036071777e+00 7.910204529762268066e-01
1.465000000000000000e+03 2.857835578918457031e+01 -1.808075523376464844e+01 8.740350604057312012e-01 3.400706529617309570e+00 1.282422542572021484e+00 9.655774235725402832e-01
1.466000000000000000e+03 5.395197296142578125e+01 2.639554405212402344e+01 1.742068648338317871e+00 8.561597824096679688e+00 3.091099977493286133e+00 -2.402497053146362305e+00
1.467000000000000000e+03 5.132606887817382812e+01 2.811930465698242188e+01 1.607417106628417969e+00 6.740535736083984375e+00 2.504385948181152344e+00 1.302283257246017456e-01
1.468000000000000000e+03 4.445934295654296875e+01 -1.734871673583984375e+01 -1.126668136566877365e-02 4.630647182464599609e+00 1.385814189910888672e+00 1.284647345542907715e+00
1.469000000000000000e+03 4.726066207885742188e+01 -1.783016204833984375e+01 1.061019182205200195e+00 8.880145072937011719e+00 2.982349395751953125e+00 3.043529748916625977e+00
1.470000000000000000e+03 3.091241455078125000e+01 -2.806717109680175781e+01 -1.053986549377441406e+00 1.387490630149841309e+00 1.000512242317199707e-01 -2.548754811286926270e-01
1.471000000000000000e+03 6.263575744628906250e+01 2.516923141479492188e+01 2.995213985443115234e+00 7.824238300323486328e+00 3.245835542678833008e+00 4.386970520019531250e+00
1.472000000000000000e+03 6.614320373535156250e+01 2.782255363464355469e+01 1.714686274528503418e+00 5.155708312988281250e+00 2.061118364334106445e+00 1.295167922973632812e+00
1.473000000000000000e+03 2.869190788269042969e+01 9.787171363830566406e+00 3.520006313920021057e-02 6.190575361251831055e-01 1.962772756814956665e-01 -4.340204969048500061e-02
1.474000000000000000e+03 2.963931465148925781e+01 9.373767852783203125e+00 3.612390533089637756e-02 5.852286815643310547e-01 1.864057630300521851e-01 1.401914656162261963e-01
1.475000000000000000e+03 2.812679100036621094e+01 8.590646743774414062e+00 1.292381435632705688e-01 7.771616578102111816e-01 2.719199359416961670e-01 -2.526131570339202881e-01
1.476000000000000000e+03 1.145965862274169922e+01 -1.260036563873291016e+01 2.810611017048358917e-02 4.081802815198898315e-02 2.067724242806434631e-02 -4.862841963768005371e-02
1.477000000000000000e+03 9.860281944274902344e+00 -1.158924579620361328e+01 -1.476859021931886673e-02 -7.451066374778747559e-02 -2.678377553820610046e-02 -1.086500808596611023e-01
1.478000000000000000e+03 1.376505374908447266e+01 6.767186164855957031e+00 -1.314352154731750488e+00 -3.241949081420898438e-01 -4.915641248226165771e-01 5.978632569313049316e-01
1.479000000000000000e+03 2.925442504882812500e+01 1.083384799957275391e+01 -2.662153169512748718e-02 4.840258061885833740e-01 1.372212767601013184e-01 5.866613239049911499e-02
1.480000000000000000e+03 5.418174743652343750e+01 4.279580712318420410e-01 2.195583432912826538e-01 4.240388870239257812e+00 1.337984204292297363e+00 2.424903154373168945e+00
1.481000000000000000e+03 6.233215332031250000e+01 2.116051483154296875e+01 -2.332708120346069336e+00 6.373390674591064453e+00 1.212204694747924805e+00 3.723521471023559570e+00
1.482000000000000000e+03 6.108654785156250000e+01 2.115235519409179688e+01 -1.540368676185607910e+00 6.170659065246582031e+00 1.389087200164794922e+00 2.993202686309814453e+00
1.483000000000000000e+03 2.977761459350585938e+01 1.415336966514587402e+00 -1.139492034912109375e+00 4.354215264320373535e-01 -2.112211436033248901e-01 1.070512086153030396e-01
1.484000000000000000e+03 3.198446655273437500e+01 2.109138488769531250e+00 -6.590662896633148193e-02 5.570579767227172852e-01 1.473453938961029053e-01 -1.911518275737762451e-01
1.485000000000000000e+03 3.173661041259765625e+01 3.251169919967651367e+00 7.857325077056884766e-01 8.378830552101135254e-01 4.870846569538116455e-01 -6.461178660392761230e-01
1.486000000000000000e+03 1.786049652099609375e+01 -1.692768669128417969e+01 1.540079712867736816e-01 1.381712555885314941e-01 8.765376359224319458e-02 -3.029816746711730957e-01
1.487000000000000000e+03 1.621648597717285156e+01 -3.969518280029296875e+01 -5.520613193511962891e-01 -1.666094809770584106e-01 -2.156012505292892456e-01 1.493813991546630859e-01
1.488000000000000000e+03 1.419344234466552734e+01 -3.809876632690429688e+01 -1.170252263545989990e-01 1.680027395486831665e-01 1.529325451701879501e-02 -2.896440587937831879e-02
1.489000000000000000e+03 6.098875427246093750e+01 2.387219619750976562e+01 -4.237223267555236816e-01 3.406133413314819336e+00 8.947233557701110840e-01 2.398934841156005859e+00
1.490000000000000000e+03 2.453445816040039062e+01 -3.772088241577148438e+01 2.189094424247741699e-01 1.668179750442504883e+00 5.661267638206481934e-01 2.538604140281677246e-01
1.491000000000000000e+03 5.310029220581054688e+01 3.413968658447265625e+01 -8.331704139709472656e-02 6.144701004028320312e+00 1.818415164947509766e+00 3.979985415935516357e-01
1.492000000000000000e+03 4.721046829223632812e+01 3.220009231567382812e+01 1.952546536922454834e-01 5.066749095916748047e+00 1.578601121902465820e+00 -3.488083779811859131e-01
1.493000000000000000e+03 5.158306503295898438e+01 3.137090873718261719e+01 1.166023373603820801e+00 6.430182456970214844e+00 2.278861761093139648e+00 4.532602131366729736e-01
1.494000000000000000e+03 5.984154510498046875e+01 2.233376693725585938e+01 -2.268905878067016602e+00 2.920466661453247070e+00 1.954682618379592896e-01 2.418987989425659180e+00
1.495000000000000000e+03 6.007574844360351562e+01 7.179267406463623047e-01 -7.687528133392333984e-01 5.481444358825683594e+00 1.413807392120361328e+00 -2.280047655105590820e+00
1.496000000000000000e+03 5.427373504638671875e+01 2.360309600830078125e+01 -1.296125411987304688e+00 5.408507347106933594e+00 1.233714580535888672e+00 -2.107337951660156250e+00
1.497000000000000000e+03 1.504463195800781250e+01 -3.970671844482421875e+01 -3.400577902793884277e-01 7.768808305263519287e-02 -7.871091365814208984e-02 2.996725589036941528e-02
1.498000000000000000e+03 6.574202728271484375e+01 -1.697969818115234375e+01 -1.634741544723510742e+00 3.266767263412475586e+00 4.896076917648315430e-01 3.771786093711853027e-01
1.499000000000000000e+03 6.376994705200195312e+01 -1.640680885314941406e+01 -1.682979226112365723e+00 6.150355339050292969e+00 1.340212821960449219e+00 -8.441835641860961914e-02
1.500000000000000000e+03 2.548203659057617188e+01 -3.076988029479980469e+01 -4.557044431567192078e-02 2.101621150970458984e+00 6.168152093887329102e-01 -1.138187572360038757e-01
1.501000000000000000e+03 1.548364448547363281e+01 -1.468734550476074219e+01 1.867469102144241333e-01 4.481899142265319824e-01 1.904810369014739990e-01 -2.304961979389190674e-01
1.502000000000000000e+03 2.774036407470703125e+01 -1.196998596191406250e+01 2.476177066564559937e-01 1.292782068252563477e+00 4.621199369430541992e-01 9.468071460723876953e-01
1.503000000000000000e+03 3.386338424682617188e+01 -8.452880859375000000e+00 1.987894058227539062e+00 1.931077837944030762e+00 1.175691604614257812e+00 2.226354360580444336e+00
1.504000000000000000e+03 6.107180404663085938e+01 2.245354652404785156e+01 -2.920266151428222656e+00 5.357183456420898438e+00 7.310752272605895996e-01 3.459423780441284180e+00
1.505000000000000000e+03 5.396409606933593750e+01 3.515092086791992188e+01 -7.510580420494079590e-01 5.470179080963134766e+00 1.415736198425292969e+00 1.001975059509277344e+00
1.506000000000000000e+03 6.454044342041015625e+01 2.839798164367675781e+01 1.319975733757019043e+00 6.911448001861572266e+00 2.469427108764648438e+00 1.876413464546203613e+00
1.507000000000000000e+03 6.344544601440429688e+01 2.929643630981445312e+01 -4.447915405035018921e-02 7.717904090881347656e+00 2.302027463912963867e+00 2.509687840938568115e-01
1.508000000000000000e+03 6.457794952392578125e+01 2.933670806884765625e+01 6.797124743461608887e-01 7.641454219818115234e+00 2.496350049972534180e+00 1.167934656143188477e+00
1.509000000000000000e+03 2.688883018493652344e+01 -3.520660400390625000e+01 1.617405414581298828e-01 1.956955432891845703e+00 6.356087923049926758e-01 -8.455850183963775635e-03
1.510000000000000000e+03 5.600463104248046875e+01 2.316732025146484375e+01 -2.101356983184814453e+00 3.012044906616210938e+00 2.732064425945281982e-01 -1.799676060676574707e+00
1.511000000000000000e+03 1.349836826324462891e+01 -3.104393005371093750e+01 2.257425934076309204e-01 9.005218744277954102e-01 3.378793299198150635e-01 3.504596948623657227e-01
1.512000000000000000e+03 1.065226936340332031e+01 -3.595826721191406250e+01 1.294169342145323753e-03 3.705680370330810547e-01 1.115586608648300171e-01 1.883221119642257690e-01
1.513000000000000000e+03 2.803722000122070312e+01 -2.595189285278320312e+01 -3.985306918621063232e-01 2.484439849853515625e+00 6.257727742195129395e-01 5.805372074246406555e-02
1.514000000000000000e+03 2.065228652954101562e+01 -4.061391830444335938e+01 -5.742641687393188477e-01 2.721899189054965973e-02 -1.641135513782501221e-01 -1.385191231966018677e-01
1.515000000000000000e+03 6.184012603759765625e+01 4.096540927886962891e+00 -6.292399764060974121e-01 4.378169536590576172e+00 1.124678969383239746e+00 -1.811223149299621582e+00
1.516000000000000000e+03 6.258066558837890625e+01 -9.612488150596618652e-01 5.360489487648010254e-01 6.781067371368408203e+00 2.195134878158569336e+00 -4.048948884010314941e-01
1.517000000000000000e+03 6.065771102905273438e+01 1.211990356445312500e+01 5.377599596977233887e-01 9.286134719848632812e+00 2.947168350219726562e+00 -5.175815224647521973e-01
1.518000000000000000e+03 5.475804519653320312e+01 1.185518550872802734e+01 5.497172474861145020e-01 1.123350906372070312e+01 3.534967899322509766e+00 -4.051981568336486816e-01
1.519000000000000000e+03 1.323106098175048828e+01 -2.923318672180175781e+01 3.191902935504913330e-01 5.947375297546386719e-01 2.741783559322357178e-01 2.725447714328765869e-01
1.520000000000000000e+03 1.600261497497558594e+01 -1.819119071960449219e+01 3.282711282372474670e-02 1.227786466479301453e-01 4.668172821402549744e-02 -8.518955856561660767e-02
1.521000000000000000e+03 1.564527988433837891e+01 -2.044785308837890625e+01 2.943352796137332916e-02 -4.554696846753358841e-03 7.463649380952119827e-03 4.091890528798103333e-02
1.522000000000000000e+03 7.228141784667968750e+01 -1.233164024353027344e+01 -2.232458829879760742e+00 5.067466497421264648e-01 -5.177136659622192383e-01 -5.973935127258300781e-01
1.523000000000000000e+03 7.215056610107421875e+01 -1.347262096405029297e+01 -7.147852778434753418e-01 1.308119416236877441e+00 1.780002415180206299e-01 -5.607055425643920898e-01
1.524000000000000000e+03 2.133653450012207031e+01 -2.706250762939453125e+01 -5.918650031089782715e-01 -3.216740190982818604e-01 -2.740617096424102783e-01 4.162390232086181641e-01
1.525000000000000000e+03 1.152716350555419922e+01 -3.319002151489257812e+01 1.287740468978881836e-01 5.626250505447387695e-01 2.074197232723236084e-01 1.526652127504348755e-01
1.526000000000000000e+03 1.489277076721191406e+01 -2.541168785095214844e+01 1.782733798027038574e-01 3.114791214466094971e-01 1.469257473945617676e-01 2.269816398620605469e-01
1.527000000000000000e+03 1.262398719787597656e+01 -2.463739013671875000e+01 1.219038590788841248e-01 1.461647897958755493e-01 8.042059838771820068e-02 6.840708851814270020e-02
1.528000000000000000e+03 2.323041534423828125e+01 -2.518801498413085938e+01 1.561281383037567139e-01 7.025235891342163086e-01 2.575955092906951904e-01 1.604020297527313232e-01
1.529000000000000000e+03 2.511418533325195312e+01 -3.488032150268554688e+01 1.062879785895347595e-01 2.376011610031127930e+00 7.446898818016052246e-01 7.750662975013256073e-03
1.530000000000000000e+03 2.708728408813476562e+01 -3.108445549011230469e+01 -6.434588879346847534e-02 1.984098911285400391e+00 5.759258866310119629e-01 -2.632073499262332916e-02
1.531000000000000000e+03 5.255145263671875000e+01 -6.295814514160156250e+00 1.879207968711853027e+00 1.071733760833740234e+01 3.778963804244995117e+00 -2.320329189300537109e+00
1.532000000000000000e+03 5.179185867309570312e+01 -3.981489658355712891e+00 1.392720699310302734e+00 1.023487567901611328e+01 3.488278865814208984e+00 5.263035297393798828e-01
1.533000000000000000e+03 1.691153526306152344e+01 -7.016766071319580078e+00 -4.338697344064712524e-02 4.231615960597991943e-01 1.139323934912681580e-01 -6.262875627726316452e-03
1.534000000000000000e+03 1.566487026214599609e+01 -1.001153564453125000e+01 4.916213825345039368e-02 3.058092594146728516e-01 1.064914166927337646e-01 -2.317440463230013847e-03
1.535000000000000000e+03 3.045573616027832031e+01 -6.488797664642333984e+00 4.808508157730102539e-01 -9.767811298370361328e-01 -1.487790942192077637e-01 3.545659184455871582e-01
1.536000000000000000e+03 6.136688232421875000e+01 -6.184162616729736328e+00 6.160663962364196777e-01 1.063878917694091797e+01 3.376456737518310547e+00 2.821108102798461914e-01
1.537000000000000000e+03 2.530352783203125000e+01 -1.748071861267089844e+01 5.703310966491699219e-01 1.083029985427856445e+00 4.960083067417144775e-01 1.989262700080871582e-01
1.538000000000000000e+03 6.450974273681640625e+01 -2.851127433776855469e+01 2.593596696853637695e+00 8.667120933532714844e+00 3.378215312957763672e+00 -4.600278854370117188e+00
1.539000000000000000e+03 2.894602012634277344e+01 -1.598665714263916016e+01 -1.478688120841979980e-01 2.812300205230712891e+00 7.993294000625610352e-01 9.096608161926269531e-01
1.540000000000000000e+03 3.214850616455078125e+01 -4.751348018646240234e+00 1.116850852966308594e+00 -3.307291567325592041e-01 2.358365207910537720e-01 -1.645498722791671753e-01
1.541000000000000000e+03 5.571875381469726562e+01 -9.693688392639160156e+00 2.292103767395019531e+00 2.548447847366333008e+00 1.452165484428405762e+00 -2.282033205032348633e+00
1.542000000000000000e+03 5.640340042114257812e+01 -1.128362369537353516e+01 5.915076136589050293e-01 2.855340242385864258e+00 1.034054398536682129e+00 -2.407612323760986328e+00
1.543000000000000000e+03 2.639240264892578125e+01 -1.448930263519287109e+01 -4.730575382709503174e-01 1.209764599800109863e+00 2.210121005773544312e-01 5.439258217811584473e-01
1.544000000000000000e+03 7.363193511962890625e+01 -2.415869140625000000e+01 1.514253497123718262e+00 1.199625110626220703e+01 4.053151607513427734e+00 2.124018907546997070e+00
1.545000000000000000e+03 7.285387420654296875e+01 -2.520499801635742188e+01 7.823029160499572754e-01 5.857394695281982422e+00 1.991909265518188477e+00 2.358105421066284180e+00
1.546000000000000000e+03 1.522131443023681641e+01 -6.556663513183593750e+00 1.690789759159088135e-01 2.526654899120330811e-01 1.265233457088470459e-01 -3.269494697451591492e-02
1.547000000000000000e+03 5.302858734130859375e+01 2.550303459167480469e+01 1.150958418846130371e+00 5.828592300415039062e+00 2.093865156173706055e+00 -7.152929306030273438e-01
1.548000000000000000e+03 4.844694519042968750e+01 1.952372550964355469e+01 -3.361778259277343750e+00 1.776375472545623779e-01 -9.552422165870666504e-01 9.355407357215881348e-01
1.549000000000000000e+03 1.971651077270507812e+01 3.314891433715820312e+01 3.926742076873779297e-02 5.356324911117553711e-01 1.724699586629867554e-01 -1.415015906095504761e-01
1.550000000000000000e+03 1.961003684997558594e+01 3.048894882202148438e+01 6.954480707645416260e-02 5.056759715080261230e-01 1.725662201642990112e-01 -6.442731618881225586e-02
1.551000000000000000e+03 6.972485351562500000e+01 -1.205947685241699219e+01 -8.460978269577026367e-01 2.325243502855300903e-01 -1.840720325708389282e-01 -9.506796002388000488e-01
1.552000000000000000e+03 6.851461791992187500e+01 -1.163670253753662109e+01 1.188937425613403320e+00 1.382794380187988281e+00 7.715195417404174805e-01 -1.413608074188232422e+00
1.553000000000000000e+03 1.908742904663085938e+01 -1.382404899597167969e+01 -3.258920013904571533e-01 1.687116920948028564e-01 -4.715409129858016968e-02 -1.161816045641899109e-01
1.554000000000000000e+03 1.650251007080078125e+01 -1.202368831634521484e+01 -4.498314112424850464e-02 2.451957464218139648e-01 6.006378307938575745e-02 8.546440862119197845e-03
1.555000000000000000e+03 3.071742820739746094e+01 -7.966399192810058594e+00 7.787086963653564453e-01 3.448810875415802002e-01 3.370769321918487549e-01 1.472185730934143066e+00
1.556000000000000000e+03 3.130443382263183594e+01 -7.327356338500976562e+00 7.569789886474609375e-01 7.974952459335327148e-02 2.510185539722442627e-01 1.167771220207214355e+00
1.557000000000000000e+03 7.596794128417968750e+01 1.470446109771728516e+01 6.124217510223388672e-01 7.603038787841796875e+00 2.464638233184814453e+00 1.004863858222961426e+00
1.558000000000000000e+03 1.937547302246093750e+01 2.597632789611816406e+01 5.058557987213134766e-01 1.248243927955627441e+00 5.262299180030822754e-01 6.035293936729431152e-01
1.559000000000000000e+03 6.838411712646484375e+01 -2.611414909362792969e+01 -3.039692878723144531e+00 1.045201182365417480e+00 -5.983474850654602051e-01 -2.751022577285766602e-01
1.560000000000000000e+03 6.683881378173828125e+01 -2.650214385986328125e+01 -1.999165773391723633e+00 6.610728263854980469e+00 1.383468747138977051e+00 -2.869256258010864258e+00
1.561000000000000000e+03 1.185744476318359375e+01 1.958629989624023438e+01 5.256071090698242188e-01 4.108511507511138916e-01 2.809374928474426270e-01 4.060804247856140137e-01
1.562000000000000000e+03 8.289614677429199219e+00 2.348255348205566406e+01 -1.963386088609695435e-01 -1.507550776004791260e-01 -1.041281074285507202e-01 1.203086376190185547e-01
1.563000000000000000e+03 6.512400054931640625e+01 -6.263598442077636719e+00 8.067840337753295898e-01 1.178608798980712891e+01 3.777861595153808594e+00 1.165984496474266052e-01
1.564000000000000000e+03 7.822474670410156250e+01 1.651281738281250000e+01 1.624634861946105957e-02 6.862586021423339844e+00 2.063649654388427734e+00 7.484171986579895020e-01
1.565000000000000000e+03 5.900177383422851562e+01 3.117496967315673828e+00 -5.652515888214111328e-01 4.450304985046386719e+00 1.165516018867492676e+00 -1.960081338882446289e+00
1.566000000000000000e+03 6.566443634033203125e+01 6.515720844268798828e+00 -2.280378103256225586e+00 -9.981342405080795288e-02 -7.140574455261230469e-01 2.455249279737472534e-01
1.567000000000000000e+03 4.537293243408203125e+01 1.777390480041503906e+01 7.697225809097290039e-01 6.889735221862792969e+00 2.297837257385253906e+00 2.471277713775634766e+00
1.568000000000000000e+03 6.493267822265625000e+01 -9.979708671569824219e+00 4.114805459976196289e-01 7.807517528533935547e+00 2.465699434280395508e+00 -6.820170283317565918e-01
1.569000000000000000e+03 6.236872100830078125e+01 1.983986854553222656e+01 8.707377314567565918e-01 7.152063369750976562e+00 2.406840324401855469e+00 3.860641717910766602e+00
1.570000000000000000e+03 9.013512611389160156e+00 -2.318467903137207031e+01 1.084673479199409485e-01 3.105126321315765381e-02 4.185558110475540161e-02 -8.908364176750183105e-02
1.571000000000000000e+03 6.593460440635681152e-01 -2.471325492858886719e+01 -1.265423931181430817e-02 -6.441367864608764648e-01 -1.970373094081878662e-01 -1.318333670496940613e-03
1.572000000000000000e+03 5.240809440612792969e+00 -2.077488136291503906e+01 1.412774771451950073e-01 1.380412876605987549e-01 8.379562944173812866e-02 -1.631024926900863647e-01
1.573000000000000000e+03 7.418556976318359375e+01 -1.063128566741943359e+01 -7.166904807090759277e-01 4.268397808074951172e+00 1.065512299537658691e+00 1.134800434112548828e+00
1.574000000000000000e+03 7.787181854248046875e+00 3.541302871704101562e+01 1.569922119379043579e-01 -1.692615076899528503e-02 4.201981797814369202e-02 1.555151678621768951e-02
1.575000000000000000e+03 1.137645721435546875e+01 3.543573760986328125e+01 2.076458334922790527e-01 2.838896960020065308e-02 7.081044465303421021e-02 1.089667603373527527e-01
1.576000000000000000e+03 7.824186706542968750e+01 -2.737448120117187500e+01 -1.700397133827209473e-01 7.778117179870605469e+00 2.282423257827758789e+00 -2.294677048921585083e-01
1.577000000000000000e+03 5.645522308349609375e+01 -3.859134292602539062e+01 -2.380893945693969727e+00 6.703776359558105469e+00 1.296864748001098633e+00 -1.541690468788146973e+00
1.578000000000000000e+03 7.067298889160156250e+01 6.425126552581787109e+00 -1.697350144386291504e-01 4.937971115112304688e+00 1.430470824241638184e+00 1.709264039993286133e+00
1.579000000000000000e+03 7.129127502441406250e+01 8.179943084716796875e+00 1.491281032562255859e+00 6.668436050415039062e+00 2.447915077209472656e+00 2.316997528076171875e+00
1.580000000000000000e+03 7.246821594238281250e+01 9.053030014038085938e+00 7.580578923225402832e-01 9.534964561462402344e+00 3.087906837463378906e+00 5.713723301887512207e-01
1.581000000000000000e+03 6.186702346801757812e+01 -2.398021697998046875e+01 1.919022560119628906e+00 3.538478136062622070e+00 1.637250185012817383e+00 -1.501487851142883301e+00
1.582000000000000000e+03 5.360022735595703125e+01 -8.141687393188476562e+00 2.960307359695434570e+00 5.720068454742431641e+00 2.604112863540649414e+00 -3.342905998229980469e+00
1.583000000000000000e+03 5.936775684356689453e+00 2.667103004455566406e+01 -9.486623108386993408e-02 -7.735662460327148438e-01 -2.605297267436981201e-01 1.818315833806991577e-01
1.584000000000000000e+03 7.122688293457031250e+01 1.845035362243652344e+01 -1.346637964248657227e+00 5.606583118438720703e+00 1.277983546257019043e+00 -8.294122815132141113e-01
1.585000000000000000e+03 1.470493221282958984e+01 3.840075302124023438e+01 9.236045181751251221e-02 1.374455094337463379e-01 6.894178688526153564e-02 3.598774597048759460e-02
1.586000000000000000e+03 6.098034286499023438e+01 1.620194053649902344e+01 1.994838476181030273e+00 1.304130268096923828e+01 4.510842323303222656e+00 3.546852350234985352e+00
1.587000000000000000e+03 1.991901016235351562e+01 1.595460224151611328e+01 -3.132950067520141602e-01 -4.775718599557876587e-02 -1.083156540989875793e-01 2.651528716087341309e-01
1.588000000000000000e+03 2.195354080200195312e+01 1.479560947418212891e+01 -1.410559117794036865e-01 6.137023568153381348e-01 1.417939364910125732e-01 8.980624377727508545e-02
1.589000000000000000e+03 5.909951400756835938e+01 -2.714501762390136719e+01 -2.651795625686645508e+00 1.465846061706542969e+00 -3.557848930358886719e-01 5.995689630508422852e-01
1.590000000000000000e+03 6.699617004394531250e+01 4.077922821044921875e+00 1.354747265577316284e-01 1.540145993232727051e+00 5.026862025260925293e-01 1.643018484115600586e+00
1.591000000000000000e+03 7.031483459472656250e+01 4.284057021141052246e-01 1.973541975021362305e-01 1.223752260208129883e+00 4.263319373130798340e-01 1.527194976806640625e+00
1.592000000000000000e+03 5.934640502929687500e+01 -1.180868721008300781e+01 1.471259891986846924e-01 4.028971195220947266e+00 1.252829074859619141e+00 1.190042495727539062e+00
1.593000000000000000e+03 2.885431051254272461e+00 2.188512229919433594e+01 1.349888183176517487e-02 -7.972604036331176758e-01 -2.351284623146057129e-01 -3.465643851086497307e-03
1.594000000000000000e+03 7.026425170898437500e+01 1.946973419189453125e+01 -2.447325229644775391e+00 3.973713874816894531e+00 4.579166471958160400e-01 -6.906234025955200195e-01
1.595000000000000000e+03 6.488857269287109375e+00 1.344830989837646484e+01 1.111146286129951477e-01 -2.552714943885803223e-01 -4.324705898761749268e-02 5.365028381347656250e-01
1.596000000000000000e+03 7.366403198242187500e+01 1.341011810302734375e+01 1.476520419120788574e+00 9.768399238586425781e+00 3.373475790023803711e+00 4.879747331142425537e-01
1.597000000000000000e+03 7.227614593505859375e+01 1.262678146362304688e+01 7.522705197334289551e-01 1.373883056640625000e+01 4.347330093383789062e+00 3.400687575340270996e-01
1.598000000000000000e+03 7.368988037109375000e+01 -2.075845336914062500e+01 5.234776139259338379e-01 1.317215156555175781e+01 4.108688831329345703e+00 -1.314870953559875488e+00
1.599000000000000000e+03 7.933995056152343750e+01 -1.669760322570800781e+01 2.858579158782958984e-02 9.118597984313964844e+00 2.744155168533325195e+00 4.145411849021911621e-01
1.600000000000000000e+03 6.064050674438476562e+01 8.711311340332031250e+00 -1.014186143875122070e-01 5.751564025878906250e+00 1.695043563842773438e+00 -5.258366465568542480e-01
1.601000000000000000e+03 6.236878204345703125e+01 9.337735176086425781e+00 8.239142894744873047e-01 1.580375671386718750e+00 7.212870121002197266e-01 -1.386198282241821289e+00
1.602000000000000000e+03 6.209756851196289062e+01 7.980379581451416016e+00 -4.681461155414581299e-01 3.186307430267333984e+00 8.154483437538146973e-01 -1.140382766723632812e+00
1.603000000000000000e+03 6.378439903259277344e+00 3.124245452880859375e+01 1.249244902282953262e-02 -2.296320050954818726e-01 -6.514186412096023560e-02 1.687713526189327240e-02
1.604000000000000000e+03 6.020728302001953125e+01 -4.042216491699218750e+01 -1.916128635406494141e+00 1.091260194778442383e+00 -2.474605143070220947e-01 -6.168258190155029297e-01
1.605000000000000000e+03 6.025429153442382812e+01 -3.841751861572265625e+01 -3.793578386306762695e+00 5.875888466835021973e-01 -9.617968201637268066e-01 1.716113090515136719e-01
1.606000000000000000e+03 4.985505294799804688e+01 5.771926879882812500e+00 -4.212491512298583984e+00 -6.951157450675964355e-01 -1.472282171249389648e+00 1.204002022743225098e+00
1.607000000000000000e+03 4.526878738403320312e+01 -2.594689178466796875e+01 -1.201372265815734863e+00 2.618722438812255859e+00 4.252050817012786865e-01 -1.071542739868164062e+00
1.608000000000000000e+03 4.684746170043945312e+01 -1.913400840759277344e+01 1.492672085762023926e+00 1.126448249816894531e+01 3.827146530151367188e+00 2.977557182312011719e+00
1.609000000000000000e+03 6.554237365722656250e+01 -2.654716670513153076e-01 5.354828238487243652e-01 4.816952705383300781e+00 1.605730652809143066e+00 1.276940941810607910e+00
1.610000000000000000e+03 6.632405853271484375e+01 -1.526203060150146484e+01 -1.313037991523742676e+00 2.266690015792846680e+00 2.860956192016601562e-01 5.607128739356994629e-01
1.611000000000000000e+03 6.476841735839843750e+01 -1.886353492736816406e+01 3.721059262752532959e-01 7.442005634307861328e+00 2.344233512878417969e+00 4.198935925960540771e-01
1.612000000000000000e+03 6.151271820068359375e+01 -2.519650077819824219e+01 4.144546389579772949e-01 1.617426514625549316e+00 6.095643639564514160e-01 -1.301146030426025391e+00
1.613000000000000000e+03 4.786789321899414062e+01 2.243865013122558594e+01 2.261426486074924469e-02 4.395471096038818359e+00 1.325425624847412109e+00 1.046682834625244141e+00
1.614000000000000000e+03 7.940872192382812500e+01 -2.230253601074218750e+01 7.838436216115951538e-02 6.429805755615234375e+00 1.952456951141357422e+00 5.079049989581108093e-02
1.615000000000000000e+03 4.988666152954101562e+01 -2.600834369659423828e+00 1.542192816734313965e+00 7.101157188415527344e+00 2.593004941940307617e+00 -1.153820037841796875e+00
1.616000000000000000e+03 5.271254348754882812e+01 -4.201111197471618652e-01 5.925580263137817383e-01 6.090863227844238281e+00 2.005026340484619141e+00 1.671214818954467773e+00
1.617000000000000000e+03 1.338019180297851562e+01 1.837506675720214844e+01 1.075685501098632812e+00 4.262780547142028809e-01 4.505890607833862305e-01 6.114634275436401367e-01
1.618000000000000000e+03 1.176655006408691406e+01 2.161448097229003906e+01 1.982287168502807617e-01 1.232151612639427185e-01 9.643316268920898438e-02 2.868026196956634521e-01
1.619000000000000000e+03 6.538657379150390625e+01 -8.316788673400878906e+00 1.846894025802612305e+00 1.076105976104736328e+01 3.782386302947998047e+00 -2.263401269912719727e+00
1.620000000000000000e+03 5.016665267944335938e+01 -5.545518398284912109e+00 1.998550176620483398e+00 8.874470710754394531e+00 3.261906385421752930e+00 -2.520129978656768799e-01
1.621000000000000000e+03 5.118019485473632812e+01 -5.478281974792480469e+00 2.446109294891357422e+00 9.053133964538574219e+00 3.449773073196411133e+00 -5.117721557617187500e-01
1.622000000000000000e+03 6.687404632568359375e+01 -3.580434036254882812e+01 2.392126470804214478e-01 6.313401222229003906e+00 1.965784192085266113e+00 -6.425292491912841797e-01
1.623000000000000000e+03 6.341564559936523438e+01 -1.912415885925292969e+01 5.652914047241210938e-01 7.261276245117187500e+00 2.347970247268676758e+00 -1.223775744438171387e+00
1.624000000000000000e+03 5.305214691162109375e+01 -9.651310920715332031e+00 2.013903617858886719e+00 5.482553005218505859e+00 2.248936891555786133e+00 -2.485801696777343750e+00
1.625000000000000000e+03 5.638666534423828125e+01 8.422879219055175781e+00 1.807037830352783203e+00 8.475862503051757812e+00 3.084870338439941406e+00 9.832248687744140625e-01
1.626000000000000000e+03 5.192276382446289062e+01 5.759070873260498047e+00 -6.344726681709289551e-01 1.550502777099609375e+00 2.748090326786041260e-01 1.822474360466003418e+00
1.627000000000000000e+03 7.797092437744140625e+01 -1.394532012939453125e+01 -5.029831528663635254e-01 9.069978713989257812e+00 2.570098876953125000e+00 3.656539618968963623e-01
1.628000000000000000e+03 1.681390523910522461e+00 -1.162182712554931641e+01 -1.246326789259910583e-02 -1.195143610239028931e-01 -3.959328681230545044e-02 -1.776233315467834473e-02
1.629000000000000000e+03 2.031576156616210938e+01 2.699552154541015625e+01 3.492088317871093750e-01 1.140859961509704590e+00 4.470206499099731445e-01 4.234619736671447754e-01
1.630000000000000000e+03 7.710627913475036621e-01 3.202645111083984375e+01 -2.386333886533975601e-03 -1.318113803863525391e+00 -3.961500227451324463e-01 2.729354426264762878e-02
1.631000000000000000e+03 7.583769321441650391e+00 2.174107551574707031e+01 2.822720631957054138e-02 -2.196612209081649780e-01 -5.743020400404930115e-02 4.466091468930244446e-02
1.632000000000000000e+03 1.828293609619140625e+01 2.222559547424316406e+01 6.126510500907897949e-01 4.587964117527008057e-01 3.214342296123504639e-01 2.502576708793640137e-01
1.633000000000000000e+03 5.331578063964843750e+01 -1.267949390411376953e+01 4.839131534099578857e-01 3.950746059417724609e+00 1.330397844314575195e+00 -3.734104633331298828e+00
1.634000000000000000e+03 1.872186279296875000e+01 3.311692047119140625e+01 3.019726276397705078e-02 3.193770349025726318e-01 1.048722937703132629e-01 -1.408495455980300903e-01
1.635000000000000000e+03 1.842704010009765625e+01 3.208163833618164062e+01 8.919727988541126251e-03 1.532263904809951782e-01 4.864383488893508911e-02 -6.374627351760864258e-02
1.636000000000000000e+03 6.892642974853515625e+00 3.415042495727539062e+01 2.483716905117034912e-01 -1.200418993830680847e-01 3.849893808364868164e-02 5.249123275279998779e-02
1.637000000000000000e+03 3.982445955276489258e+00 3.608552932739257812e+01 5.722767114639282227e-02 -7.395480275154113770e-01 -2.046961188316345215e-01 -3.805233165621757507e-02
1.638000000000000000e+03 7.248086547851562500e+01 -1.469902515411376953e+01 -3.825485706329345703e-01 2.668965578079223633e+00 6.859251260757446289e-01 -5.642079710960388184e-01
1.639000000000000000e+03 2.058306884765625000e+01 7.541865348815917969e+00 4.228208363056182861e-01 1.556352972984313965e-01 1.735368371009826660e-01 1.681650727987289429e-01
1.640000000000000000e+03 1.856188201904296875e+01 3.396152496337890625e+01 2.596540935337543488e-02 3.383650481700897217e-01 1.092991307377815247e-01 -1.538221389055252075e-01
1.641000000000000000e+03 3.420280838012695312e+01 2.650901222229003906e+01 1.618354201316833496e+00 6.140326023101806641e+00 2.327604055404663086e+00 -1.158817768096923828e+00
1.642000000000000000e+03 1.802532005310058594e+01 3.469800949096679688e+01 5.618466436862945557e-02 2.657830715179443359e-01 9.659032523632049561e-02 -1.355556696653366089e-01
1.643000000000000000e+03 4.715887832641601562e+01 6.228835105895996094e+00 -1.655506730079650879e+00 3.128102302551269531e+00 4.417786300182342529e-01 -6.505395174026489258e-01
1.644000000000000000e+03 1.492419147491455078e+01 3.679819107055664062e+01 1.224816441535949707e-01 4.502190649509429932e-02 5.025106668472290039e-02 3.020728006958961487e-02
1.645000000000000000e+03 1.493583297729492188e+01 2.081330299377441406e+01 4.828516542911529541e-01 1.690698862075805664e-01 1.955764591693878174e-01 5.989804267883300781e-01
1.646000000000000000e+03 1.617884826660156250e+01 1.847835350036621094e+01 -1.877021789550781250e-01 -1.840147376060485840e-01 -1.115150749683380127e-01 2.450229078531265259e-01
1.647000000000000000e+03 3.433810806274414062e+01 2.271476745605468750e+01 2.282703965902328491e-01 4.712652206420898438e+00 1.482276678085327148e+00 -1.020431876182556152e+00
1.648000000000000000e+03 2.202775764465332031e+01 3.067439460754394531e+01 3.424677550792694092e-01 8.883808255195617676e-01 3.692545592784881592e-01 6.988834589719772339e-02
1.649000000000000000e+03 1.688883972167968750e+01 2.286965751647949219e+01 8.911494016647338867e-01 3.233833014965057373e-01 3.643598258495330811e-01 4.272984862327575684e-01
1.650000000000000000e+03 1.431081581115722656e+01 2.295415115356445312e+01 6.863037347793579102e-01 9.310193359851837158e-02 2.338216900825500488e-01 2.914412915706634521e-01
1.651000000000000000e+03 8.189256787300109863e-01 2.903246688842773438e+01 -1.633114367723464966e-02 -1.148269057273864746e+00 -3.493800759315490723e-01 4.783781990408897400e-02
1.652000000000000000e+03 3.937522888183593750e+00 2.872309303283691406e+01 -4.008927941322326660e-02 -7.705331444740295410e-01 -2.431867271661758423e-01 1.251474767923355103e-01
1.653000000000000000e+03 5.043276786804199219e+00 2.775983047485351562e+01 -9.439145773649215698e-02 -7.728666067123413086e-01 -2.601774334907531738e-01 1.007062122225761414e-01
1.654000000000000000e+03 7.789088439941406250e+01 -1.527280139923095703e+01 -2.954864501953125000e-01 8.878591537475585938e+00 2.574931621551513672e+00 7.480285763740539551e-01
1.655000000000000000e+03 8.283075332641601562e+00 3.423715353012084961e+00 -1.526970267295837402e-01 -7.683829218149185181e-02 -6.886059790849685669e-02 2.210460416972637177e-02
1.656000000000000000e+03 1.299556541442871094e+01 2.176509857177734375e+01 3.376749455928802490e-01 1.674817651510238647e-01 1.515470147132873535e-01 3.792152106761932373e-01
1.657000000000000000e+03 1.163758468627929688e+01 2.267718887329101562e+01 -4.109119251370429993e-02 2.023885957896709442e-02 -6.255699787288904190e-03 8.215495198965072632e-02
1.658000000000000000e+03 7.012312889099121094e+00 2.287200927734375000e+01 -6.456153094768524170e-02 -2.750472724437713623e-01 -1.018826365470886230e-01 7.645394653081893921e-02
1.659000000000000000e+03 7.101789855957031250e+01 -1.485151958465576172e+01 -1.303748488426208496e-01 1.301841378211975098e+00 3.514399826526641846e-01 -1.764071345329284668e+00
1.660000000000000000e+03 6.874895477294921875e+01 -1.428347587585449219e+01 -4.761005342006683350e-01 4.175703227519989014e-01 -1.755906268954277039e-02 -1.828973054885864258e+00
1.661000000000000000e+03 3.733598327636718750e+01 3.383090209960937500e+01 -5.258235931396484375e-01 1.067380428314208984e+00 1.624670475721359253e-01 4.887132644653320312e-01
1.662000000000000000e+03 3.091064643859863281e+01 2.994927024841308594e+01 9.607826471328735352e-01 2.746839284896850586e+00 1.112286567687988281e+00 -1.209549546241760254e+00
1.663000000000000000e+03 6.306937026977539062e+01 -2.430144309997558594e+01 1.216354608535766602e+00 5.574117660522460938e+00 2.037141561508178711e+00 -2.427857160568237305e+00
1.664000000000000000e+03 6.576555633544921875e+01 -2.654172706604003906e+01 -1.639849305152893066e+00 8.386260986328125000e+00 2.023923635482788086e+00 -3.045177459716796875e+00
1.665000000000000000e+03 3.690459823608398438e+01 2.123015785217285156e+01 -4.262855648994445801e-01 3.401152372360229492e+00 8.924600481986999512e-01 -2.110784053802490234e+00
1.666000000000000000e+03 7.735366058349609375e+01 -2.434200477600097656e+01 3.616621196269989014e-01 7.835832118988037109e+00 2.459248304367065430e+00 -5.390707850456237793e-01
1.667000000000000000e+03 7.550634765625000000e+01 -2.430087089538574219e+01 9.141544699668884277e-01 8.802460670471191406e+00 2.914984703063964844e+00 -1.979421228170394897e-01
1.668000000000000000e+03 5.387721252441406250e+01 -2.484314346313476562e+01 -2.333634376525878906e+00 3.850621461868286133e+00 4.550961256027221680e-01 1.868046522140502930e+00
1.669000000000000000e+03 6.544221496582031250e+01 -4.986939430236816406e+00 1.095747709274291992e+00 1.058357715606689453e+01 3.503797292709350586e+00 1.897549629211425781e+00
1.670000000000000000e+03 6.598865509033203125e+01 -3.721238613128662109e+00 2.110252380371093750e+00 7.222995758056640625e+00 2.799974441528320312e+00 2.985848188400268555e+00
1.671000000000000000e+03 4.562740325927734375e+01 9.232243537902832031e+00 1.180888295173645020e+00 6.674004077911376953e+00 2.356467723846435547e+00 -2.457176685333251953e+00
1.672000000000000000e+03 4.467909240722656250e+01 1.112745857238769531e+01 1.142980098724365234e+00 1.106464004516601562e+01 3.662286043167114258e+00 -1.956823110580444336e+00
1.673000000000000000e+03 5.534765625000000000e+01 2.781362533569335938e+00 -2.335742563009262085e-01 4.374731063842773438e+00 1.242347002029418945e+00 1.542938351631164551e+00
1.674000000000000000e+03 7.114314270019531250e+01 -8.908089995384216309e-01 -2.179185628890991211e+00 -6.647230684757232666e-02 -6.736973524093627930e-01 1.964595466852188110e-01
1.675000000000000000e+03 3.597992324829101562e+01 3.516124725341796875e+01 -1.153376579284667969e+00 2.373896360397338867e+00 3.661559522151947021e-01 3.984517753124237061e-01
1.676000000000000000e+03 7.291011047363281250e+01 -4.162559509277343750e-01 -8.957041501998901367e-01 3.256278276443481445e+00 7.081722617149353027e-01 -1.131422877311706543e+00
1.677000000000000000e+03 6.913026428222656250e+01 7.824921607971191406e-01 3.300253450870513916e-01 1.729971885681152344e+00 6.179991364479064941e-01 1.957936167716979980e+00
1.678000000000000000e+03 6.305177688598632812e+01 -3.814507675170898438e+01 -2.671954393386840820e+00 3.061000406742095947e-01 -7.097563147544860840e-01 -9.710021615028381348e-01
1.679000000000000000e+03 7.926414489746093750e+01 3.633873367309570312e+01 -3.897238150238990784e-02 7.568883419036865234e+00 2.258973360061645508e+00 5.185986682772636414e-02
1.680000000000000000e+03 7.940616607666015625e+01 -2.090270996093750000e+01 5.153536796569824219e-02 6.737520694732666016e+00 2.036716938018798828e+00 2.040627449750900269e-01
1.681000000000000000e+03 7.939559173583984375e+01 -2.772705078125000000e+01 -9.818113595247268677e-02 7.918422698974609375e+00 2.346072435379028320e+00 -9.443245828151702881e-02
1.682000000000000000e+03 7.710613250732421875e+01 -3.840473175048828125e+01 -5.574677139520645142e-02 7.776080131530761719e+00 2.316100120544433594e+00 -1.660475879907608032e-01
1.683000000000000000e+03 7.916432189941406250e+01 -3.474219894409179688e+01 3.158688172698020935e-02 7.935030460357666016e+00 2.389985084533691406e+00 -3.766715899109840393e-02
1.684000000000000000e+03 7.655641937255859375e+01 -2.759376525878906250e+01 -4.457359015941619873e-01 7.757489681243896484e+00 2.193526029586791992e+00 -6.986001133918762207e-02
1.685000000000000000e+03 7.587813568115234375e+01 -2.994336509704589844e+01 -1.181555464863777161e-01 7.072959423065185547e+00 2.086441278457641602e+00 3.599033355712890625e-01
1.686000000000000000e+03 7.919510650634765625e+01 -3.046350669860839844e+01 -1.936196908354759216e-02 7.972320079803466797e+00 2.385887384414672852e+00 9.319108910858631134e-03
1.687000000000000000e+03 7.752484893798828125e+01 -3.454094696044921875e+01 5.711452662944793701e-02 7.512230396270751953e+00 2.270803451538085938e+00 -1.284031569957733154e-01
1.688000000000000000e+03 7.761534118652343750e+01 -3.312893295288085938e+01 1.315346211194992065e-01 7.431799411773681641e+00 2.269000291824340820e+00 -3.541846945881843567e-02
1.689000000000000000e+03 7.555041503906250000e+01 -3.831520080566406250e+01 -9.299625456333160400e-02 7.400168895721435547e+00 2.192151784896850586e+00 -4.671387076377868652e-01
1.690000000000000000e+03 7.651647949218750000e+01 -3.947344207763671875e+01 -6.134067848324775696e-02 7.795630455017089844e+00 2.320286989212036133e+00 -2.793889939785003662e-01
1.691000000000000000e+03 7.825378417968750000e+01 1.517411041259765625e+01 6.136508285999298096e-02 6.491437435150146484e+00 1.965840697288513184e+00 7.072630524635314941e-01
1.692000000000000000e+03 7.941494750976562500e+01 1.527414131164550781e+01 6.608520168811082840e-03 5.906649112701416016e+00 1.773977279663085938e+00 2.761268913745880127e-01
1.693000000000000000e+03 7.936841583251953125e+01 2.222260665893554688e+01 -4.079722985625267029e-02 8.133223533630371094e+00 2.427727937698364258e+00 2.410479076206684113e-02
1.694000000000000000e+03 7.769288635253906250e+01 3.183900642395019531e+01 5.751596391201019287e-02 7.056560516357421875e+00 2.134222984313964844e+00 4.123195260763168335e-02
1.695000000000000000e+03 7.808644866943359375e+01 2.761143875122070312e+01 7.134211063385009766e-02 7.265750408172607422e+00 2.201127767562866211e+00 -1.923065036535263062e-01
1.696000000000000000e+03 7.935420227050781250e+01 2.778900337219238281e+01 -1.664174534380435944e-02 7.574462890625000000e+00 2.267346382141113281e+00 -7.334809005260467529e-02
1.697000000000000000e+03 7.812093353271484375e+01 2.487716102600097656e+01 -1.527904253453016281e-02 7.525170326232910156e+00 2.252967357635498047e+00 -1.991272866725921631e-01
1.698000000000000000e+03 7.811315155029296875e+01 2.349267196655273438e+01 -1.347199380397796631e-01 7.631974697113037109e+00 2.249176502227783203e+00 -1.338018923997879028e-01
1.699000000000000000e+03 7.272306060791015625e+01 1.585000038146972656e+01 5.409780740737915039e-01 9.083306312561035156e+00 2.887285470962524414e+00 -1.175535097718238831e-02
1.700000000000000000e+03 7.713902282714843750e+01 1.899246978759765625e+01 -3.947183787822723389e-01 7.478803157806396484e+00 2.125225543975830078e+00 6.223834753036499023e-01
1.701000000000000000e+03 7.381935119628906250e+01 9.078577995300292969e+00 8.343792557716369629e-01 8.323217391967773438e+00 2.747279167175292969e+00 -1.513321399688720703e-01
1.702000000000000000e+03 7.813742828369140625e+01 9.620379447937011719e+00 2.284709215164184570e-01 6.358692169189453125e+00 1.976148962974548340e+00 -5.948974490165710449e-01
1.703000000000000000e+03 7.937586212158203125e+01 9.718706130981445312e+00 7.456237077713012695e-02 5.444463253021240234e+00 1.655707716941833496e+00 -2.102103978395462036e-01
1.704000000000000000e+03 7.485502624511718750e+01 -1.692230033874511719e+01 -3.019971847534179688e-01 7.471662521362304688e+00 2.150899648666381836e+00 5.380060672760009766e-01
1.705000000000000000e+03 7.932543182373046875e+01 -1.394776248931884766e+01 -1.990721002221107483e-02 1.035503005981445312e+01 3.100537061691284180e+00 1.624218076467514038e-01
1.706000000000000000e+03 7.939222717285156250e+01 -1.950337409973144531e+01 7.386000454425811768e-02 7.380297183990478516e+00 2.236247062683105469e+00 3.509232401847839355e-01
1.707000000000000000e+03 7.708370971679687500e+01 -2.215356445312500000e+01 6.830177307128906250e-01 8.121068000793457031e+00 2.641225814819335938e+00 1.762362420558929443e-01
1.708000000000000000e+03 7.927458953857421875e+01 -6.870471000671386719e+00 1.898400485515594482e-01 7.228811740875244141e+00 2.225595474243164062e+00 -1.633413136005401611e-01
1.709000000000000000e+03 7.942505645751953125e+01 -5.472684383392333984e+00 6.525932997465133667e-02 7.114394187927246094e+00 2.153896093368530273e+00 1.129315122961997986e-01
1.710000000000000000e+03 7.820035552978515625e+01 3.485087454319000244e-01 -2.696183025836944580e-01 8.425668716430664062e+00 2.446815013885498047e+00 -7.167577743530273438e-02
1.711000000000000000e+03 7.942317199707031250e+01 1.495026946067810059e+00 -5.343655124306678772e-02 9.051597595214843750e+00 2.699448347091674805e+00 -1.010278835892677307e-01
1.712000000000000000e+03 7.822332763671875000e+01 8.236617088317871094e+00 3.025023080408573151e-02 6.599193096160888672e+00 1.988833069801330566e+00 -7.131928205490112305e-01
1.713000000000000000e+03 7.806004333496093750e+01 4.166708755493164062e+01 4.816253483295440674e-02 7.552971363067626953e+00 2.280340194702148438e+00 -1.331241708248853683e-02
1.714000000000000000e+03 7.920906829833984375e+01 3.883837127685546875e+01 -2.160114608705043793e-02 7.630118846893310547e+00 2.282555341720581055e+00 -9.849448688328266144e-03
1.715000000000000000e+03 7.501635742187500000e+01 3.645777893066406250e+01 -8.351755887269973755e-02 6.619289398193359375e+00 1.960731506347656250e+00 3.111807703971862793e-01
1.716000000000000000e+03 7.696020507812500000e+01 9.455621719360351562e+00 3.146111965179443359e-01 6.952907562255859375e+00 2.180255651473999023e+00 -7.364898920059204102e-01
1.717000000000000000e+03 7.822409057617187500e+01 1.722571015357971191e+00 -1.717207133769989014e-01 8.271557807922363281e+00 2.429950952529907227e+00 -3.899489939212799072e-01
1.718000000000000000e+03 7.830921936035156250e+01 3.057493925094604492e+00 -1.394042223691940308e-01 7.982427597045898438e+00 2.352906942367553711e+00 -5.592018961906433105e-01
1.719000000000000000e+03 7.562210845947265625e+01 7.470956444740295410e-01 -7.945684790611267090e-01 6.724981784820556641e+00 1.779124021530151367e+00 -8.030256628990173340e-01
1.720000000000000000e+03 7.475581359863281250e+01 -4.806911468505859375e+00 1.414089441299438477e+00 1.221723079681396484e+01 4.089395999908447266e+00 -2.953059196472167969e+00
1.721000000000000000e+03 7.798773193359375000e+01 -1.276272010803222656e+01 -5.424413084983825684e-01 9.261783599853515625e+00 2.615802764892578125e+00 -1.548333168029785156e-01
1.722000000000000000e+03 7.584060668945312500e+01 -1.431748008728027344e+01 -1.070333242416381836e+00 7.503488540649414062e+00 1.929946660995483398e+00 7.699352502822875977e-01
1.723000000000000000e+03 7.582315826416015625e+01 -1.820993804931640625e+01 1.348498463630676270e-01 8.307203292846679688e+00 2.532615900039672852e+00 1.054201483726501465e+00
1.724000000000000000e+03 7.819506072998046875e+01 -1.951513290405273438e+01 1.369278132915496826e-01 7.916076183319091797e+00 2.415901184082031250e+00 7.874343991279602051e-01
1.725000000000000000e+03 7.777626037597656250e+01 -8.372421264648437500e+00 6.302714347839355469e-01 9.098971366882324219e+00 2.918772697448730469e+00 -1.027025222778320312e+00
1.726000000000000000e+03 1.948971557617187500e+01 7.174771308898925781e+00 4.082826673984527588e-01 3.146312534809112549e-01 2.168741822242736816e-01 2.389360964298248291e-01
1.727000000000000000e+03 5.422010803222656250e+01 -3.418756484985351562e+01 1.609502673149108887e+00 7.180607318878173828e+00 2.637032985687255859e+00 6.964361667633056641e-01
1.728000000000000000e+03 5.541828155517578125e+01 -2.979047584533691406e+01 1.078133940696716309e+00 7.597639560699462891e+00 2.602731943130493164e+00 1.541682600975036621e+00
1.729000000000000000e+03 5.660913848876953125e+01 -3.046827125549316406e+01 1.657387375831604004e+00 1.015948867797851562e+01 3.545062780380249023e+00 3.517370223999023438e+00
1.730000000000000000e+03 4.467695617675781250e+01 2.224484252929687500e+01 -9.817571043968200684e-01 4.795430660247802734e+00 1.144102096557617188e+00 2.169855833053588867e+00
1.731000000000000000e+03 2.167922019958496094e+01 1.150096607208251953e+01 1.602528840303421021e-01 4.658724367618560791e-01 1.878375858068466187e-01 1.806376278400421143e-01
1.732000000000000000e+03 1.576585006713867188e+01 2.039386367797851562e+01 5.395730137825012207e-01 1.220589131116867065e-01 1.984895765781402588e-01 5.248116254806518555e-01
1.733000000000000000e+03 3.956792068481445312e+01 3.772153854370117188e+01 -2.838773131370544434e-01 1.086700081825256348e+00 2.408468276262283325e-01 2.366827987134456635e-02
1.734000000000000000e+03 7.554981231689453125e+01 -5.411651611328125000e+00 1.328793406486511230e+00 1.234906673431396484e+01 4.103358268737792969e+00 -1.449990510940551758e+00
1.735000000000000000e+03 2.082013702392578125e+01 1.688804817199707031e+01 -1.963025778532028198e-01 5.252650976181030273e-01 9.868875145912170410e-02 -1.032149326056241989e-02
1.736000000000000000e+03 1.991567039489746094e+01 1.770312500000000000e+01 -1.338246613740921021e-01 2.935936748981475830e-01 4.793071001768112183e-02 -2.337630139663815498e-03
1.737000000000000000e+03 5.932682037353515625e+01 1.256314373016357422e+01 1.273470163345336914e+00 8.889363288879394531e+00 3.048849821090698242e+00 1.041992187500000000e+00
1.738000000000000000e+03 7.534384918212890625e+01 -6.640589714050292969e+00 6.793754696846008301e-01 1.441223335266113281e+01 4.527482509613037109e+00 -1.088695764541625977e+00
1.739000000000000000e+03 6.444221496582031250e+01 -4.506697177886962891e+00 1.826485991477966309e+00 9.059397697448730469e+00 3.265765190124511719e+00 4.393808841705322266e-01
1.740000000000000000e+03 5.694125366210937500e+01 -3.692324829101562500e+01 2.191462814807891846e-01 5.053585052490234375e+00 1.581819415092468262e+00 -1.133780121803283691e+00
1.741000000000000000e+03 5.672716522216796875e+01 -4.037837982177734375e+01 -2.444126844406127930e+00 4.493085861206054688e+00 6.146877408027648926e-01 -6.659343838691711426e-01
1.742000000000000000e+03 6.555794525146484375e+01 -1.102384376525878906e+01 -3.029984235763549805e-02 6.057990550994873047e+00 1.808307290077209473e+00 -1.169755816459655762e+00
1.743000000000000000e+03 3.521253967285156250e+01 2.193436050415039062e+01 -1.128464266657829285e-01 4.449280261993408203e+00 1.300930142402648926e+00 -1.497674703598022461e+00
1.744000000000000000e+03 8.170523643493652344e+00 1.311242294311523438e+01 1.617224812507629395e-01 -1.906494200229644775e-01 -8.678081445395946503e-03 5.463414192199707031e-01
1.745000000000000000e+03 4.662512969970703125e+01 1.818953323364257812e+01 6.878094077110290527e-01 5.181870460510253906e+00 1.760903954505920410e+00 2.607674121856689453e+00
1.746000000000000000e+03 9.094302177429199219e+00 1.665375328063964844e+01 6.193873882293701172e-01 1.014429703354835510e-01 2.162491083145141602e-01 3.596946895122528076e-01
1.747000000000000000e+03 2.178489112854003906e+01 1.386006832122802734e+01 -7.962635159492492676e-02 5.199098587036132812e-01 1.320850402116775513e-01 1.173127740621566772e-01
1.748000000000000000e+03 5.058185195922851562e+01 2.884348106384277344e+01 1.788718938827514648e+00 6.190261840820312500e+00 2.393694162368774414e+00 5.744300484657287598e-01
1.749000000000000000e+03 1.478633689880371094e+01 4.439587116241455078e+00 -6.025644540786743164e-01 -3.846670500934123993e-03 -1.819233298301696777e-01 7.082142829895019531e-01
1.750000000000000000e+03 1.682271385192871094e+01 4.101744174957275391e+00 -8.059494495391845703e-01 8.441025763750076294e-02 -2.164617478847503662e-01 6.320468783378601074e-01
1.751000000000000000e+03 1.013328552246093750e+01 7.916183471679687500e+00 -6.145763993263244629e-01 -4.910149574279785156e-01 -3.316774070262908936e-01 4.428077638149261475e-01
1.752000000000000000e+03 7.675608634948730469e+00 2.606403112411499023e+00 -4.070642590522766113e-02 -3.944334387779235840e-02 -2.404493093490600586e-02 -1.407329458743333817e-02
1.753000000000000000e+03 7.315632629394531250e+01 -1.310259628295898438e+01 -1.058609127998352051e+00 2.379755735397338867e+00 3.963440060615539551e-01 3.499432206153869629e-01
1.754000000000000000e+03 4.419972991943359375e+01 3.205641937255859375e+01 6.368006467819213867e-01 2.230624198913574219e+00 8.602274060249328613e-01 -1.265717744827270508e+00
1.755000000000000000e+03 5.566847991943359375e+01 1.568658828735351562e+01 1.131482720375061035e+00 6.160877227783203125e+00 2.187707901000976562e+00 -3.634915351867675781e-01
1.756000000000000000e+03 4.515953826904296875e+01 3.342329025268554688e+01 -2.922306954860687256e-01 3.839588403701782227e+00 1.064207315444946289e+00 -1.120584368705749512e+00
1.757000000000000000e+03 5.821998596191406250e+01 -2.801955223083496094e+01 8.630133271217346191e-01 4.705897808074951172e+00 1.670673251152038574e+00 1.898243784904479980e+00
1.758000000000000000e+03 5.657257461547851562e+01 -2.695747375488281250e+01 -2.475469827651977539e+00 7.321927547454833984e+00 1.453937411308288574e+00 1.724885940551757812e+00
1.759000000000000000e+03 4.730783462524414062e+01 1.984990310668945312e+01 -1.766032576560974121e+00 4.473830223083496094e+00 8.123392462730407715e-01 2.988462686538696289e+00
1.760000000000000000e+03 4.614937591552734375e+01 1.950485801696777344e+01 -2.927896261215209961e+00 5.957603931427001953e+00 9.089122414588928223e-01 2.461217641830444336e+00
1.761000000000000000e+03 4.339738082885742188e+01 1.261840915679931641e+01 1.867622613906860352e+00 9.196000099182128906e+00 3.319086790084838867e+00 -1.660286933183670044e-01
1.762000000000000000e+03 5.783055496215820312e+01 1.207789134979248047e+01 1.641743063926696777e+00 8.529202461242675781e+00 3.051283836364746094e+00 1.496994495391845703e+00
1.763000000000000000e+03 5.179595184326171875e+01 1.709900665283203125e+01 1.155441626906394958e-01 1.750643730163574219e+00 5.598563551902770996e-01 -1.047821283340454102e+00
1.764000000000000000e+03 6.672737121582031250e+01 -3.976289367675781250e+01 -1.976768732070922852e+00 4.853171348571777344e+00 8.629207611083984375e-01 -1.163361743092536926e-01
1.765000000000000000e+03 5.023611068725585938e+01 -3.096694946289062500e+01 2.413912296295166016e+00 5.852147579193115234e+00 2.479818105697631836e+00 -9.869545102119445801e-01
1.766000000000000000e+03 6.773088836669921875e+01 -3.269263839721679688e+01 1.584783554077148438e+00 7.300886631011962891e+00 2.665701150894165039e+00 -2.028272390365600586e+00
1.767000000000000000e+03 6.707727050781250000e+01 -3.020179557800292969e+01 2.842856168746948242e+00 6.715184211730957031e+00 2.867412090301513672e+00 -2.270246982574462891e+00
1.768000000000000000e+03 6.268610763549804688e+01 -7.589707851409912109e+00 1.876787304878234863e+00 8.836302757263183594e+00 3.213927030563354492e+00 1.436434499919414520e-02
1.769000000000000000e+03 6.451768493652343750e+01 -7.341718673706054688e+00 1.637321352958679199e+00 1.067772483825683594e+01 3.694513797760009766e+00 -9.245836138725280762e-01
1.770000000000000000e+03 4.458572769165039062e+01 1.246106147766113281e+01 8.132307529449462891e-01 1.287472248077392578e+01 4.106386184692382812e+00 -4.194389879703521729e-01
1.771000000000000000e+03 4.122577667236328125e+01 1.330547428131103516e+01 1.784679532051086426e+00 5.790154457092285156e+00 2.272450208663940430e+00 -6.066340804100036621e-01
1.772000000000000000e+03 3.435873413085937500e+01 3.323952484130859375e+01 -5.715609788894653320e-01 3.484861135482788086e+00 8.739899992942810059e-01 -1.442637890577316284e-01
1.773000000000000000e+03 2.806630897521972656e+01 3.231751632690429688e+01 5.486791133880615234e-01 1.741510272026062012e+00 6.870568394660949707e-01 -7.177896499633789062e-01
1.774000000000000000e+03 1.360672092437744141e+01 -1.317588233947753906e+01 1.045671701431274414e-01 2.241490483283996582e-01 9.861486405134201050e-02 -1.512292623519897461e-01
1.775000000000000000e+03 7.770520019531250000e+01 -3.719277858734130859e+00 2.331463620066642761e-02 8.737009048461914062e+00 2.628097057342529297e+00 6.259447336196899414e-01
1.776000000000000000e+03 4.342487716674804688e+01 1.403347587585449219e+01 1.742468118667602539e+00 8.655343055725097656e+00 3.119343280792236328e+00 3.449566066265106201e-01
1.777000000000000000e+03 6.655946350097656250e+01 -9.063771367073059082e-01 7.770186662673950195e-01 4.065816402435302734e+00 1.452850461006164551e+00 1.975806832313537598e+00
1.778000000000000000e+03 6.331085205078125000e+01 -2.214272975921630859e+00 1.290273666381835938e+00 7.470914840698242188e+00 2.628356456756591797e+00 -8.905993402004241943e-02
1.779000000000000000e+03 3.499508285522460938e+01 2.818034744262695312e+01 5.517065525054931641e-01 7.683176517486572266e+00 2.470464944839477539e+00 -3.155844509601593018e-01
1.780000000000000000e+03 5.616901397705078125e+01 -2.835585403442382812e+01 -5.242382287979125977e-01 7.653349399566650391e+00 2.138733386993408203e+00 2.014131784439086914e+00
1.781000000000000000e+03 7.449194335937500000e+01 -1.974346756935119629e+00 -6.095708012580871582e-01 6.494300365447998047e+00 1.765418887138366699e+00 -1.102932214736938477e+00
1.782000000000000000e+03 7.349652099609375000e+01 -2.413463115692138672e+00 5.001800060272216797e-01 4.100196361541748047e+00 1.380113005638122559e+00 -1.456094026565551758e+00
1.783000000000000000e+03 6.978104400634765625e+01 -3.375461578369140625e+01 1.275579690933227539e+00 5.671579360961914062e+00 2.084147691726684570e+00 -1.652624607086181641e+00
1.784000000000000000e+03 7.141643524169921875e+01 -2.921563148498535156e+01 8.296100497245788574e-01 3.140110969543457031e+00 1.190916299819946289e+00 8.559036254882812500e-01
1.785000000000000000e+03 6.410840606689453125e+01 -2.638681793212890625e+01 -1.787516951560974121e+00 7.986695289611816406e+00 1.859753489494323730e+00 -2.890986919403076172e+00
1.786000000000000000e+03 3.571853637695312500e+01 2.070263290405273438e+01 -3.700146079063415527e-01 3.736715078353881836e+00 1.010010123252868652e+00 -1.868888974189758301e+00
1.787000000000000000e+03 3.627665710449218750e+01 2.246638679504394531e+01 -6.346590071916580200e-02 4.052734375000000000e+00 1.196780562400817871e+00 -1.844955205917358398e+00
1.788000000000000000e+03 4.608121109008789062e+01 3.255571365356445312e+01 -1.968080103397369385e-01 4.617553710937500000e+00 1.326223731040954590e+00 -7.041960358619689941e-01
1.789000000000000000e+03 6.736789703369140625e+01 -1.166950511932373047e+01 8.109850883483886719e-01 2.670190095901489258e+00 1.044352531433105469e+00 -1.357106566429138184e+00
1.790000000000000000e+03 7.085648345947265625e+01 -1.349932098388671875e+01 -2.749250233173370361e-01 3.789367079734802246e-01 3.120350465178489685e-02 -1.548392534255981445e+00
1.791000000000000000e+03 4.360435485839843750e+01 1.546951580047607422e+01 1.659343004226684570e+00 7.887460231781005859e+00 2.864041090011596680e+00 8.860304355621337891e-01
1.792000000000000000e+03 4.396871185302734375e+01 1.667116355895996094e+01 9.883965253829956055e-01 7.035599708557128906e+00 2.407198905944824219e+00 8.845357298851013184e-01
1.793000000000000000e+03 5.249313354492187500e+01 1.814311599731445312e+01 -8.895662426948547363e-01 3.135851383209228516e+00 6.738855838775634766e-01 -1.507848620414733887e+00
1.794000000000000000e+03 5.356286621093750000e+01 1.723463821411132812e+01 -1.294653564691543579e-01 4.199307441711425781e+00 1.220952630043029785e+00 -1.808851242065429688e+00
1.795000000000000000e+03 5.593883895874023438e+01 1.051901340484619141e+01 1.360537648200988770e+00 1.069399738311767578e+01 3.616360425949096680e+00 1.611856222152709961e+00
1.796000000000000000e+03 5.891126632690429688e+01 1.139112663269042969e+01 1.158101558685302734e+00 8.213888168334960938e+00 2.811596870422363281e+00 8.852595686912536621e-01
1.797000000000000000e+03 5.149491786956787109e+00 -1.744867897033691406e+01 -6.734538078308105469e-02 -2.454688847064971924e-01 -9.384427964687347412e-02 -1.471609175205230713e-01
1.798000000000000000e+03 5.787125587463378906e+00 -1.611890792846679688e+01 -1.144748851656913757e-01 -2.886970043182373047e-01 -1.209515631198883057e-01 -1.600057184696197510e-01
1.799000000000000000e+03 1.552395629882812500e+01 -1.572786140441894531e+01 1.599511355161666870e-01 5.081408023834228516e-01 2.004275768995285034e-01 -2.428040355443954468e-01
1.800000000000000000e+03 4.053748321533203125e+01 2.696159124374389648e+00 -7.287749648094177246e-01 5.240906715393066406e+00 1.353639483451843262e+00 -3.026452541351318359e+00
1.801000000000000000e+03 1.746773529052734375e+01 -1.149320793151855469e+01 -1.080483198165893555e-01 2.572664916515350342e-01 4.476545751094818115e-02 -4.022885859012603760e-02
1.802000000000000000e+03 1.450443267822265625e+01 -1.410626792907714844e+01 1.711028516292572021e-01 3.629977107048034668e-01 1.602301746606826782e-01 -2.531035542488098145e-01
1.803000000000000000e+03 5.541008377075195312e+01 -1.930189323425292969e+01 1.327621459960937500e+00 1.099001407623291016e+01 3.695290565490722656e+00 -2.009406328201293945e+00
1.804000000000000000e+03 5.633961486816406250e+01 -1.689456748962402344e+01 4.683989584445953369e-01 6.730931282043457031e+00 2.159799098968505859e+00 -7.307078838348388672e-01
1.805000000000000000e+03 5.079627609252929688e+01 -2.535549545288085938e+01 -5.187938213348388672e+00 2.688517868518829346e-01 -1.475725889205932617e+00 -3.386218547821044922e-01
1.806000000000000000e+03 9.596256256103515625e+00 -2.872120285034179688e+01 1.751535683870315552e-01 1.825585216283798218e-01 1.073136255145072937e-01 5.945225711911916733e-03
1.807000000000000000e+03 5.199371719360351562e+01 -2.539647293090820312e+01 -5.652247905731201172e+00 3.934621810913085938e-01 -1.577635765075683594e+00 2.043828368186950684e-01
1.808000000000000000e+03 5.348869705200195312e+01 -1.454731178283691406e+01 -9.279438257217407227e-01 3.855031251907348633e+00 8.781262636184692383e-01 -4.101345062255859375e+00
1.809000000000000000e+03 1.377051448822021484e+01 -2.498216629028320312e+01 1.690461039543151855e-01 2.402616590261459351e-01 1.227923333644866943e-01 1.336217820644378662e-01
1.810000000000000000e+03 6.315929293632507324e-01 -2.615898132324218750e+01 1.409511081874370575e-02 -6.406313180923461914e-01 -1.879608631134033203e-01 4.153675865381956100e-03
1.811000000000000000e+03 6.550325393676757812e+00 -2.316576766967773438e+01 1.649733483791351318e-01 1.433164477348327637e-01 9.248693287372589111e-02 -1.402740478515625000e-01
1.812000000000000000e+03 1.423384284973144531e+01 -2.370499801635742188e+01 8.674987405538558960e-02 1.737637966871261597e-01 7.815410196781158447e-02 1.675249934196472168e-01
1.813000000000000000e+03 1.297891235351562500e+01 -2.316751861572265625e+01 1.370562706142663956e-02 7.163690775632858276e-02 2.560275979340076447e-02 3.856954351067543030e-02
1.814000000000000000e+03 1.991411685943603516e+00 -1.564979171752929688e+01 -1.451135706156492233e-02 -1.975194960832595825e-01 -6.360925734043121338e-02 -7.019758224487304688e-02
1.815000000000000000e+03 6.654220819473266602e-01 -1.612508964538574219e+01 -1.596420444548130035e-02 -2.030694186687469482e-01 -6.571009010076522827e-02 -3.455661237239837646e-02
1.816000000000000000e+03 1.777249145507812500e+01 -1.855028152465820312e+01 1.951054483652114868e-01 1.318724900484085083e-01 9.809338301420211792e-02 -1.824603080749511719e-01
1.817000000000000000e+03 4.105270767211914062e+01 -2.113852882385253906e+01 1.005467653274536133e+00 3.237093210220336914e+00 1.272768259048461914e+00 7.233769893646240234e-01
1.818000000000000000e+03 4.687815856933593750e+01 -2.630574035644531250e+01 -1.559034347534179688e+00 3.829937696456909180e+00 6.812710165977478027e-01 -2.417182207107543945e+00
1.819000000000000000e+03 5.535623550415039062e+01 -2.201624488830566406e+01 1.345050215721130371e+00 1.339604949951171875e+01 4.422329902648925781e+00 1.885063886642456055e+00
1.820000000000000000e+03 5.693541336059570312e+01 -1.964005088806152344e+01 2.222662687301635742e+00 7.670743942260742188e+00 2.968022108078002930e+00 -2.212933301925659180e-01
1.821000000000000000e+03 5.503959655761718750e+01 -2.769034767150878906e+01 -1.721799015998840332e+00 7.003124713897705078e+00 1.584397792816162109e+00 1.588918566703796387e+00
1.822000000000000000e+03 1.521162629127502441e+00 -4.002551651000976562e+01 1.835476234555244446e-02 -2.405326813459396362e-01 -6.665337830781936646e-02 5.176112800836563110e-02
1.823000000000000000e+03 5.486228466033935547e-01 3.761011886596679688e+01 3.562303259968757629e-02 -1.328381896018981934e+00 -3.878276646137237549e-01 -2.519549988210201263e-02
1.824000000000000000e+03 2.061201333999633789e+00 3.685670471191406250e+01 3.438256308436393738e-02 -1.107684254646301270e+00 -3.219905197620391846e-01 -8.888017386198043823e-02
1.825000000000000000e+03 7.827689051628112793e-01 3.493837738037109375e+01 1.841910067014396191e-03 -1.372290492057800293e+00 -4.111345708370208740e-01 -9.701927192509174347e-03
1.826000000000000000e+03 8.135501742362976074e-01 2.751509094238281250e+01 -8.055620826780796051e-03 -1.085598349571228027e+00 -3.280962109565734863e-01 2.796794660389423370e-02
1.827000000000000000e+03 6.611778140068054199e-01 2.608972740173339844e+01 -1.473930012434720993e-02 -1.044759273529052734e+00 -3.178495764732360840e-01 6.819317117333412170e-03
1.828000000000000000e+03 7.841023802757263184e-01 -3.590498352050781250e+01 -1.573434844613075256e-02 -4.201577901840209961e-01 -1.307676434516906738e-01 2.643912844359874725e-02
1.829000000000000000e+03 1.915350317955017090e+00 -3.282588195800781250e+01 2.185467071831226349e-02 -4.116905033588409424e-01 -1.169507503509521484e-01 5.519658327102661133e-02
1.830000000000000000e+03 5.572022795677185059e-01 2.332745933532714844e+01 -4.095320124179124832e-03 -1.061137914657592773e+00 -3.195699751377105713e-01 -7.197080180048942566e-03
1.831000000000000000e+03 2.318623781204223633e+00 2.693026924133300781e+01 -4.151903465390205383e-02 -9.237111210823059082e-01 -2.895690500736236572e-01 6.225935369729995728e-02
1.832000000000000000e+03 5.668036937713623047e+00 3.453415679931640625e+01 1.666819602251052856e-01 -4.056472778320312500e-01 -7.168959826231002808e-02 -1.402738410979509354e-02
1.833000000000000000e+03 2.907656669616699219e+00 -2.872123718261718750e+01 2.034216374158859253e-02 -3.550747632980346680e-01 -1.004197821021080017e-01 2.030269987881183624e-02
1.834000000000000000e+03 5.466154575347900391e+00 -2.375568389892578125e+01 7.907464355230331421e-02 2.156854420900344849e-02 3.019295632839202881e-02 -5.978376418352127075e-02
1.835000000000000000e+03 1.632885932922363281e+00 -1.025527477264404297e+01 1.011139247566461563e-02 -9.536258876323699951e-02 -2.557535842061042786e-02 -8.583236485719680786e-03
1.836000000000000000e+03 7.011490464210510254e-01 -2.324431037902832031e+01 2.524999156594276428e-02 -6.357703804969787598e-01 -1.831561177968978882e-01 -6.685776636004447937e-03
1.837000000000000000e+03 2.617691516876220703e+00 -3.656752014160156250e+01 -1.362891774624586105e-02 -2.734254002571105957e-01 -8.611629903316497803e-02 7.913342118263244629e-02
1.838000000000000000e+03 6.126126646995544434e-01 2.054524612426757812e+01 1.430596923455595970e-03 -1.083348989486694336e+00 -3.245755136013031006e-01 3.649392747320234776e-04
1.839000000000000000e+03 6.686707139015197754e-01 1.911841011047363281e+01 1.604763418436050415e-02 -1.060767531394958496e+00 -3.134159743785858154e-01 1.888712868094444275e-02
1.840000000000000000e+03 6.487054824829101562e-01 1.478579235076904297e+01 3.109117271378636360e-03 -7.660878896713256836e-01 -2.288936227560043335e-01 7.893840968608856201e-02
1.841000000000000000e+03 5.904684066772460938e-01 1.337711811065673828e+01 -1.379517372697591782e-03 -5.801669359207153320e-01 -1.744639277458190918e-01 8.170429617166519165e-02
1.842000000000000000e+03 4.996182620525360107e-01 7.801633358001708984e+00 -8.442242629826068878e-03 6.442581862211227417e-02 1.679507270455360413e-02 2.611666917800903320e-02
1.843000000000000000e+03 5.045005083084106445e-01 6.387797355651855469e+00 -4.815808031708002090e-03 1.129748225212097168e-01 3.244770318269729614e-02 6.882858928292989731e-03
1.844000000000000000e+03 7.019252777099609375e-01 -1.751312065124511719e+01 -3.466475754976272583e-03 -2.950300574302673340e-01 -8.954896032810211182e-02 -5.035398527979850769e-02
1.845000000000000000e+03 5.378394126892089844e+00 -4.048293685913085938e+01 -8.053219318389892578e-02 -2.500662393867969513e-02 -3.166164457798004150e-02 4.883707687258720398e-02
1.846000000000000000e+03 4.063467025756835938e+00 -3.898269271850585938e+01 -4.247121512889862061e-02 -1.684336066246032715e-01 -6.327144801616668701e-02 7.546604424715042114e-02
1.847000000000000000e+03 3.463239669799804688e+00 -3.482675552368164062e+01 3.984844312071800232e-03 -2.566275000572204590e-01 -7.579279690980911255e-02 8.537425100803375244e-02
1.848000000000000000e+03 2.034501552581787109e+00 -3.412330627441406250e+01 -5.522209219634532928e-03 -3.804315626621246338e-01 -1.157861277461051941e-01 5.538016185164451599e-02
1.849000000000000000e+03 1.833863496780395508e+00 -3.151423072814941406e+01 -3.745847847312688828e-03 -4.499785602092742920e-01 -1.361173242330551147e-01 3.487375751137733459e-02
1.850000000000000000e+03 4.705009460449218750e+00 -2.463209533691406250e+01 4.613769426941871643e-02 -1.298784017562866211e-01 -2.512221224606037140e-02 -2.830847539007663727e-02
1.851000000000000000e+03 1.909058451652526855e+00 -2.454554939270019531e+01 1.847539655864238739e-02 -4.667055606842041016e-01 -1.344690471887588501e-01 -2.852237550541758537e-03
1.852000000000000000e+03 2.137922048568725586e+00 -2.138043785095214844e+01 6.407395750284194946e-02 -3.896542191505432129e-01 -9.767407923936843872e-02 -7.330377399921417236e-02
1.853000000000000000e+03 7.108066082000732422e-01 -1.891711044311523438e+01 -1.017385441809892654e-02 -4.174150824546813965e-01 -1.282766759395599365e-01 -6.641606986522674561e-02
1.854000000000000000e+03 6.907896995544433594e+00 -8.388055801391601562e+00 2.429091371595859528e-02 -9.905130416154861450e-02 -2.242811769247055054e-02 -8.099881559610366821e-02
1.855000000000000000e+03 5.640586614608764648e-01 -1.194627666473388672e+01 7.582368329167366028e-03 -8.855488151311874390e-02 -2.429175376892089844e-02 -1.964827766641974449e-03
1.856000000000000000e+03 3.118905067443847656e+00 -1.383020591735839844e+01 -2.728314884006977081e-02 -1.648426502943038940e-01 -5.763773992657661438e-02 -5.624502524733543396e-02
1.857000000000000000e+03 3.704204559326171875e+00 -8.517250061035156250e+00 7.531479350291192532e-04 -1.100492402911186218e-01 -3.278882801532745361e-02 -5.183502659201622009e-02
1.858000000000000000e+03 2.710108280181884766e+00 -7.304650783538818359e+00 -2.119882265105843544e-03 -8.283668011426925659e-02 -2.548696845769882202e-02 -4.096148535609245300e-02
1.859000000000000000e+03 1.443934798240661621e+00 -3.288904190063476562e+00 -7.226418238133192062e-03 -2.568772062659263611e-02 -9.874241426587104797e-03 -1.274374499917030334e-02
1.860000000000000000e+03 4.801741540431976318e-01 4.973449230194091797e+00 -3.977640997618436813e-03 1.161702871322631836e-01 3.365779295563697815e-02 -5.443524569272994995e-03
1.861000000000000000e+03 1.462882041931152344e+00 4.820569992065429688e+00 -1.934949867427349091e-02 5.478116869926452637e-02 1.062950119376182556e-02 -1.522260345518589020e-02
1.862000000000000000e+03 1.582946062088012695e+00 1.037759113311767578e+01 -2.893985435366630554e-02 -1.996291279792785645e-01 -6.857069581747055054e-02 1.732075661420822144e-01
1.863000000000000000e+03 5.251386165618896484e-01 1.058862781524658203e+01 -5.890294443815946579e-03 -1.937430351972579956e-01 -5.988999828696250916e-02 6.286606192588806152e-02
1.864000000000000000e+03 1.757686376571655273e+00 1.307455444335937500e+01 4.436360613908618689e-04 -4.772419631481170654e-01 -1.430394947528839111e-01 2.295674979686737061e-01
1.865000000000000000e+03 1.816030263900756836e+00 2.051166725158691406e+01 2.131094224750995636e-02 -9.140916466712951660e-01 -2.678342163562774658e-01 7.189854513853788376e-03
1.866000000000000000e+03 1.967716932296752930e+00 1.908021163940429688e+01 4.012023285031318665e-02 -8.673573136329650879e-01 -2.481711208820343018e-01 4.270135238766670227e-02
1.867000000000000000e+03 1.722814321517944336e+00 2.442980384826660156e+01 -1.071122754365205765e-02 -9.502473473548889160e-01 -2.882875502109527588e-01 -4.476014524698257446e-03
1.868000000000000000e+03 4.394982528686523438e+01 -1.984619331359863281e+01 2.254676580429077148e+00 3.756218671798706055e+00 1.803268551826477051e+00 1.171835660934448242e+00
1.869000000000000000e+03 5.672481918334960938e+01 -2.093720817565917969e+01 2.198043107986450195e+00 8.890793800354003906e+00 3.326651096343994141e+00 2.952603101730346680e-01
1.870000000000000000e+03 4.699496078491210938e+01 -2.421868705749511719e+01 -8.705525994300842285e-01 5.051725387573242188e+00 1.254351854324340820e+00 -1.388770341873168945e+00
1.871000000000000000e+03 3.441118240356445312e+01 1.354833602905273438e+01 8.217570781707763672e-01 7.161429524421691895e-01 4.613699913024902344e-01 -1.051292181015014648e+00
1.872000000000000000e+03 3.435470962524414062e+01 1.237630558013916016e+01 2.613240182399749756e-01 1.354141533374786377e-01 1.190214529633522034e-01 -3.740793764591217041e-01
1.873000000000000000e+03 3.254878616333007812e+01 1.394465541839599609e+01 3.785490095615386963e-01 4.254452586174011230e-01 2.411982864141464233e-01 -2.004183232784271240e-01
1.874000000000000000e+03 3.902865600585937500e+01 8.821111679077148438e+00 1.423439145088195801e+00 7.645735740661621094e+00 2.720752477645874023e+00 -2.214759111404418945e+00
1.875000000000000000e+03 4.047288513183593750e+01 7.664497375488281250e+00 8.652101159095764160e-01 7.428277015686035156e+00 2.488046169281005859e+00 -1.199774503707885742e+00
1.876000000000000000e+03 3.336816406250000000e+01 1.354132080078125000e+01 5.236293077468872070e-01 3.673063218593597412e-01 2.672806978225708008e-01 -5.186296701431274414e-01
1.877000000000000000e+03 3.893918991088867188e+01 1.177452754974365234e+01 1.354157686233520508e+00 4.516314983367919922e+00 1.761141777038574219e+00 -1.484840631484985352e+00
1.878000000000000000e+03 3.837347030639648438e+01 1.300507068634033203e+01 1.512156844139099121e+00 3.592383861541748047e+00 1.531362175941467285e+00 -1.683106660842895508e+00
1.879000000000000000e+03 3.701937484741210938e+01 1.243731594085693359e+01 1.534443020820617676e+00 2.262447834014892578e+00 1.139067292213439941e+00 -1.608360409736633301e+00
1.880000000000000000e+03 4.086995697021484375e+01 2.739358901977539062e+00 -7.780959606170654297e-01 6.816696643829345703e+00 1.811580181121826172e+00 -3.302252054214477539e+00
1.881000000000000000e+03 2.566749191284179688e+01 1.469087314605712891e+01 1.651657819747924805e-01 3.351638317108154297e-01 1.500988900661468506e-01 -1.614044755697250366e-01
1.882000000000000000e+03 2.393891906738281250e+01 1.518732738494873047e+01 8.767122402787208557e-03 6.552172303199768066e-01 1.991952955722808838e-01 -1.728248447179794312e-01
1.883000000000000000e+03 5.975614929199218750e+01 1.664993286132812500e+01 2.300049781799316406e+00 8.862490653991699219e+00 3.348762035369873047e+00 2.050820112228393555e+00
1.884000000000000000e+03 6.758461761474609375e+01 2.069979095458984375e+01 -3.869998693466186523e+00 1.188569050282239914e-02 -1.157433986663818359e+00 4.720359295606613159e-02
1.885000000000000000e+03 4.058155059814453125e+01 -1.096003174781799316e+00 4.713408946990966797e+00 3.914697408676147461e+00 2.588431835174560547e+00 6.774241924285888672e+00
1.886000000000000000e+03 4.366584014892578125e+01 1.285177022218704224e-01 7.982609748840332031e+00 6.318721771240234375e+00 4.290399551391601562e+00 -1.345490574836730957e+00
1.887000000000000000e+03 4.003354263305664062e+01 3.060842037200927734e+00 -8.532451987266540527e-01 3.782275199890136719e+00 8.787090182304382324e-01 -2.456073999404907227e+00
1.888000000000000000e+03 4.148605346679687500e+01 2.578565359115600586e+00 -1.115901827812194824e+00 9.466862678527832031e+00 2.505288362503051758e+00 -2.984684228897094727e+00
1.889000000000000000e+03 4.201299667358398438e+01 2.032938480377197266e+00 -3.949363529682159424e-01 1.233383178710937500e+01 3.581668615341186523e+00 -1.516197204589843750e+00
1.890000000000000000e+03 4.194798660278320312e+01 2.851371526718139648e+00 -1.235673427581787109e+00 1.014155101776123047e+01 2.671763181686401367e+00 -2.200040102005004883e+00
1.891000000000000000e+03 3.958771896362304688e+01 3.460470199584960938e+00 -7.903145551681518555e-01 3.266556262969970703e+00 7.428725361824035645e-01 -1.892576456069946289e+00
1.892000000000000000e+03 4.188751602172851562e+01 2.487752437591552734e+00 -9.886117577552795410e-01 1.069314002990722656e+01 2.911358594894409180e+00 -2.226950407028198242e+00
1.893000000000000000e+03 4.168121337890625000e+01 2.945583343505859375e+00 -1.317130804061889648e+00 9.311438560485839844e+00 2.398292303085327148e+00 -2.636274337768554688e+00
1.894000000000000000e+03 4.259738922119140625e+01 1.740841150283813477e+00 1.702845692634582520e+00 1.251151084899902344e+01 4.264307022094726562e+00 1.010603904724121094e+00
1.895000000000000000e+03 4.081657791137695312e+01 -2.056850194931030273e+00 1.771691679954528809e+00 4.480525970458984375e+00 1.875665307044982910e+00 6.702470779418945312e+00
1.896000000000000000e+03 4.098213958740234375e+01 -1.721031785011291504e+00 2.186148643493652344e+00 4.364985466003417969e+00 1.965340256690979004e+00 6.752503871917724609e+00
1.897000000000000000e+03 4.314910125732421875e+01 -2.825555205345153809e-01 8.537276268005371094e+00 7.347758293151855469e+00 4.765510082244873047e+00 -2.363212823867797852e+00
1.898000000000000000e+03 4.259806442260742188e+01 -9.574811458587646484e-01 5.222851753234863281e+00 9.449719429016113281e+00 4.401771068572998047e+00 -1.912820339202880859e+00
1.899000000000000000e+03 4.564096832275390625e+01 -2.698287725448608398e+00 1.031155943870544434e+00 4.976731777191162109e+00 1.802366375923156738e+00 -4.176051139831542969e+00
1.900000000000000000e+03 4.205637741088867188e+01 -1.439266443252563477e+00 2.766283750534057617e+00 7.788773059844970703e+00 3.166517019271850586e+00 1.031401276588439941e+00
1.901000000000000000e+03 4.255606079101562500e+01 -1.387404918670654297e+00 3.068928480148315430e+00 8.099441528320312500e+00 3.350511074066162109e+00 -1.121876478195190430e+00
1.902000000000000000e+03 4.373317337036132812e+01 3.482341170310974121e-01 7.529908657073974609e+00 6.390243530273437500e+00 4.176045894622802734e+00 -9.461142420768737793e-01
1.903000000000000000e+03 3.857139587402343750e+01 -7.211323976516723633e-01 1.308452129364013672e+00 9.939336776733398438e-01 6.907157301902770996e-01 2.572842836380004883e+00
1.904000000000000000e+03 3.955129241943359375e+01 -3.125391960144042969e+00 -1.900394707918167114e-01 4.944694042205810547e+00 1.426396250724792480e+00 5.420416355133056641e+00
1.905000000000000000e+03 4.094488525390625000e+01 -2.765916585922241211e+00 3.902769088745117188e-01 2.740035533905029297e+00 9.390937089920043945e-01 5.871073722839355469e+00
1.906000000000000000e+03 3.998781204223632812e+01 3.936680078506469727e+00 -7.901059389114379883e-01 4.784210205078125000e+00 1.198231339454650879e+00 -2.301159620285034180e+00
1.907000000000000000e+03 9.605709075927734375e+00 5.925634860992431641e+00 -4.904877245426177979e-01 -2.622872889041900635e-01 -2.258325070142745972e-01 1.903450489044189453e-01
1.908000000000000000e+03 1.190695571899414062e+01 4.040781497955322266e+00 -3.907471895217895508e-01 -2.198633104562759399e-01 -1.831831485033035278e-01 2.929113209247589111e-01
1.909000000000000000e+03 1.374932575225830078e+01 -1.916438341140747070e+00 -1.842391490936279297e-01 -1.861337572336196899e-01 -1.111118718981742859e-01 -1.789982020854949951e-01
1.910000000000000000e+03 1.512161350250244141e+01 -2.473004579544067383e+00 -8.114085346460342407e-02 4.828653112053871155e-02 -9.856297634541988373e-03 3.686624020338058472e-02
1.911000000000000000e+03 1.277407741546630859e+01 3.444233894348144531e+00 -4.041171967983245850e-01 -1.525097787380218506e-01 -1.669881045818328857e-01 3.625410795211791992e-01
1.912000000000000000e+03 1.255592060089111328e+01 4.189347267150878906e+00 -4.574335217475891113e-01 -2.384045124053955078e-01 -2.087514102458953857e-01 4.124223589897155762e-01
1.913000000000000000e+03 1.226898002624511719e+01 -2.229567766189575195e+00 -1.631920486688613892e-01 -1.600615680217742920e-01 -9.697608649730682373e-02 -1.498872935771942139e-01
1.914000000000000000e+03 1.450567150115966797e+01 -4.179049491882324219e+00 7.387496531009674072e-02 1.737838834524154663e-01 7.429765164852142334e-02 -7.547610998153686523e-02
1.915000000000000000e+03 3.446877670288085938e+01 -3.059342384338378906e+00 6.452825665473937988e-01 8.402258157730102539e-01 4.456525146961212158e-01 -1.256060600280761719e-01
1.916000000000000000e+03 3.870049285888671875e+01 -3.148105382919311523e+00 1.266565322875976562e+00 5.221864700317382812e+00 1.946529030799865723e+00 4.029678344726562500e+00
1.917000000000000000e+03 3.562777709960937500e+01 -4.255002021789550781e+00 2.295519351959228516e+00 2.722437858581542969e+00 1.505387187004089355e+00 9.735620617866516113e-01
1.918000000000000000e+03 1.512162876129150391e+01 3.783411979675292969e+00 -7.065987586975097656e-01 5.699451640248298645e-02 -1.948812752962112427e-01 6.414614915847778320e-01
1.919000000000000000e+03 1.330456447601318359e+01 6.039698123931884766e+00 -7.577949166297912598e-01 -4.972757101058959961e-01 -3.765211999416351318e-01 5.687367320060729980e-01
1.920000000000000000e+03 5.903849601745605469e+00 -3.847089052200317383e+00 -3.272581472992897034e-02 -9.294979274272918701e-03 -1.260623801499605179e-02 -7.679314166307449341e-02
1.921000000000000000e+03 4.007173061370849609e+00 -3.163973093032836914e+00 -2.562726847827434540e-02 -4.699236154556274414e-02 -2.178588882088661194e-02 -4.985384643077850342e-02
1.922000000000000000e+03 8.436099052429199219e+00 -4.318241596221923828e+00 -3.248364478349685669e-02 -1.396620366722345352e-02 -1.393495500087738037e-02 -1.086993589997291565e-01
1.923000000000000000e+03 5.815090179443359375e+00 -2.941064119338989258e+00 -4.628212004899978638e-02 -6.898082047700881958e-02 -3.457888215780258179e-02 -7.519248127937316895e-02
1.924000000000000000e+03 8.336815834045410156e+00 -3.500242948532104492e+00 -5.821320042014122009e-02 -1.156897395849227905e-01 -5.217088386416435242e-02 -1.256843060255050659e-01
1.925000000000000000e+03 9.968685150146484375e+00 -3.342116594314575195e+00 -6.955633312463760376e-02 -1.366768330335617065e-01 -6.186994910240173340e-02 -1.411398053169250488e-01
1.926000000000000000e+03 6.658596515655517578e+00 -2.832158565521240234e+00 -5.764940008521080017e-02 1.200195588171482086e-02 -1.369423326104879379e-02 -7.586980611085891724e-02
1.927000000000000000e+03 6.744383811950683594e+00 -3.685820341110229492e+00 -4.495420306921005249e-02 -9.319591522216796875e-02 -4.144503548741340637e-02 -9.757461398839950562e-02
1.928000000000000000e+03 7.541689872741699219e+00 -3.584007501602172852e+00 -4.702941700816154480e-02 -8.180042495951056480e-04 -1.435422617942094803e-02 -9.749044477939605713e-02
1.929000000000000000e+03 1.639323949813842773e+00 -4.641033172607421875e+00 -7.234032964333891869e-04 -2.534681558609008789e-02 -7.821066305041313171e-03 -1.421278808265924454e-02
1.930000000000000000e+03 2.805308723449707031e+01 1.897186398506164551e+00 -9.830961227416992188e-01 2.245606333017349243e-01 -2.275606542825698853e-01 1.761089712381362915e-01
1.931000000000000000e+03 2.117232513427734375e+01 5.379792213439941406e+00 -2.713550031185150146e-01 -5.992097780108451843e-02 -9.938279539346694946e-02 8.804844319820404053e-02
1.932000000000000000e+03 2.194733428955078125e+01 3.495085716247558594e+00 -9.868246316909790039e-01 -1.499123722314834595e-01 -3.410211205482482910e-01 1.886308342218399048e-01
1.933000000000000000e+03 2.080597305297851562e+01 6.373984336853027344e+00 6.620360910892486572e-02 5.586101487278938293e-02 3.661938756704330444e-02 9.971416741609573364e-02
1.934000000000000000e+03 2.573474884033203125e+01 2.463181018829345703e+00 -9.473538994789123535e-01 -6.256008148193359375e-02 -3.029741942882537842e-01 3.237940669059753418e-01
1.935000000000000000e+03 2.348021316528320312e+01 3.065202713012695312e+00 -9.795079231262207031e-01 -1.601147353649139404e-01 -3.418867886066436768e-01 2.506025731563568115e-01
1.936000000000000000e+03 2.903903388977050781e+01 2.526607513427734375e+00 -5.752016901969909668e-01 4.966511428356170654e-01 -2.356516569852828979e-02 -4.018868319690227509e-03
1.937000000000000000e+03 2.411096382141113281e+01 5.459677219390869141e+00 -6.368160992860794067e-02 -1.157306283712387085e-01 -5.382367223501205444e-02 -1.810760982334613800e-02
1.938000000000000000e+03 2.745242118835449219e+01 2.860526323318481445e+00 -5.687032938003540039e-01 2.080808132886886597e-01 -1.081867516040802002e-01 1.254442185163497925e-01
1.939000000000000000e+03 2.840838432312011719e+01 3.493974208831787109e+00 -1.867249161005020142e-01 4.998364150524139404e-01 9.393344819545745850e-02 -9.968577325344085693e-02
1.940000000000000000e+03 2.058408737182617188e+01 4.770447254180908203e+00 -5.162752270698547363e-01 -5.138587579131126404e-02 -1.702983379364013672e-01 1.547584086656570435e-01
1.941000000000000000e+03 2.518160629272460938e+01 3.446620464324951172e+00 -5.947198867797851562e-01 -9.758673608303070068e-02 -2.076919972896575928e-01 1.970086693763732910e-01
1.942000000000000000e+03 2.444023895263671875e+01 3.656734466552734375e+00 -6.214200854301452637e-01 -1.274420768022537231e-01 -2.246586531400680542e-01 1.683477163314819336e-01
1.943000000000000000e+03 1.148936271667480469e+01 -2.371613740921020508e+00 -1.363813579082489014e-01 4.058102518320083618e-02 -2.874010056257247925e-02 -1.273945420980453491e-01
1.944000000000000000e+03 1.317625141143798828e+01 -2.836352348327636719e+00 -1.219956874847412109e-01 -1.358392834663391113e-01 -7.735048979520797729e-02 -1.442602276802062988e-01
1.945000000000000000e+03 1.161008644104003906e+01 -3.129473686218261719e+00 -8.706979453563690186e-02 -1.492031216621398926e-01 -7.088187336921691895e-02 -1.447711139917373657e-01
1.946000000000000000e+03 2.963913917541503906e+00 3.029835700988769531e+00 -1.086944434791803360e-02 9.367679245769977570e-03 -4.505293909460306168e-04 -5.101261660456657410e-02
1.947000000000000000e+03 5.405301570892333984e+00 3.399306774139404297e+00 -7.330106943845748901e-02 -1.749861985445022583e-02 -2.723990567028522491e-02 -3.806383535265922546e-02
1.948000000000000000e+03 3.769450187683105469e+00 2.846995353698730469e+00 -1.476186327636241913e-02 3.655883192550390959e-04 -4.318882245570421219e-03 -5.279189348220825195e-02
1.949000000000000000e+03 4.318861961364746094e-01 3.572649955749511719e+00 -1.383316353894770145e-03 8.627288043498992920e-02 2.546686865389347076e-02 -1.415031310170888901e-02
1.950000000000000000e+03 6.142911911010742188e+00 3.351869344711303711e+00 -8.477757871150970459e-02 -3.041153028607368469e-02 -3.455673158168792725e-02 -2.687202952802181244e-02
1.951000000000000000e+03 8.430783271789550781e+00 2.657248258590698242e+00 -5.981601029634475708e-02 -5.747247487306594849e-02 -3.518654406070709229e-02 1.141355652362108231e-02
1.952000000000000000e+03 6.872893333435058594e+00 3.327140808105468750e+00 -1.002895683050155640e-01 -3.725740686058998108e-02 -4.126409441232681274e-02 -1.676680520176887512e-02
1.953000000000000000e+03 8.958535194396972656e+00 3.559087991714477539e+00 -1.816673278808593750e-01 -1.020565703511238098e-01 -8.511716872453689575e-02 5.766639113426208496e-02
1.954000000000000000e+03 8.720657348632812500e+00 4.383643627166748047e+00 -2.811923027038574219e-01 -1.215475052595138550e-01 -1.208219453692436218e-01 6.760144233703613281e-02
1.955000000000000000e+03 9.651301383972167969e+00 3.717069864273071289e+00 -2.405303418636322021e-01 -1.207017302513122559e-01 -1.083696261048316956e-01 9.343709796667098999e-02
1.956000000000000000e+03 3.367734909057617188e+01 -3.351163864135742188e+00 6.182904243469238281e-01 1.364449709653854370e-01 2.264206260442733765e-01 -1.913871318101882935e-01
1.957000000000000000e+03 3.303833007812500000e+01 -4.475585937500000000e+00 1.325521826744079590e+00 1.625217497348785400e-01 4.464130699634552002e-01 1.989651098847389221e-02
1.958000000000000000e+03 1.843532180786132812e+01 6.702792167663574219e+00 2.583911716938018799e-01 3.842970728874206543e-01 1.928064823150634766e-01 3.846476376056671143e-01
1.959000000000000000e+03 3.102280616760253906e+01 -4.206797599792480469e+00 4.292466938495635986e-01 -7.773705720901489258e-01 -1.044371649622917175e-01 -6.755924224853515625e-01
1.960000000000000000e+03 3.208318328857421875e+01 -6.729884624481201172e+00 1.454931616783142090e+00 2.169791162014007568e-01 5.015732049942016602e-01 1.077809333801269531e+00
1.961000000000000000e+03 3.387620162963867188e+01 -4.208625316619873047e+00 1.527362704277038574e+00 7.143120765686035156e-01 6.725024580955505371e-01 1.151783689856529236e-01
1.962000000000000000e+03 1.079501342773437500e+01 -3.245940446853637695e+00 -7.861194759607315063e-02 1.936878450214862823e-02 -1.777294836938381195e-02 -1.268405467271804810e-01
1.963000000000000000e+03 3.040599060058593750e+01 9.606397151947021484e-01 -1.209667921066284180e+00 5.416429638862609863e-01 -2.004074752330780029e-01 5.148003250360488892e-02
1.964000000000000000e+03 1.971965217590332031e+01 5.018793582916259766e+00 -4.476735591888427734e-01 7.576277013868093491e-03 -1.320291906595230103e-01 2.322388142347335815e-01
1.965000000000000000e+03 2.246773910522460938e+01 5.123801708221435547e+00 -3.025044798851013184e-01 -1.143945530056953430e-01 -1.250697076320648193e-01 3.457879275083541870e-02
1.966000000000000000e+03 3.964279174804687500e+01 -2.869322967529296875e+01 -1.246536850929260254e+00 6.623218536376953125e+00 1.613004446029663086e+00 1.296396017074584961e+00
1.967000000000000000e+03 4.574058532714843750e+01 7.476217269897460938e+00 -1.136634349822998047e+00 5.918180942535400391e+00 1.434463977813720703e+00 -1.440236449241638184e+00
1.968000000000000000e+03 4.501958465576171875e+01 1.901792716979980469e+01 -1.597065806388854980e+00 5.905333995819091797e+00 1.292480349540710449e+00 1.634317874908447266e+00
1.969000000000000000e+03 4.221688461303710938e+01 2.054358482360839844e+01 -1.429728627204895020e+00 2.001168966293334961e+00 1.714321076869964600e-01 8.098376989364624023e-01
1.970000000000000000e+03 3.211510848999023438e+01 -1.417286205291748047e+01 -1.796670794486999512e+00 1.827054023742675781e+00 9.114954620599746704e-03 2.070885181427001953e+00
1.971000000000000000e+03 3.369736480712890625e+01 -1.181776523590087891e+01 4.826828837394714355e-02 1.334655165672302246e+00 4.148770570755004883e-01 2.272235393524169922e+00
1.972000000000000000e+03 3.181677818298339844e+01 2.876545143127441406e+01 1.184767723083496094e+00 3.456298351287841797e+00 1.392319798469543457e+00 -1.329049348831176758e+00
1.973000000000000000e+03 3.261327743530273438e+01 2.743737220764160156e+01 1.367448210716247559e+00 4.113097667694091797e+00 1.644163846969604492e+00 -1.112067818641662598e+00
1.974000000000000000e+03 1.666793251037597656e+01 -2.415329360961914062e+01 1.863428950309753418e-01 2.068505436182022095e-01 1.179580315947532654e-01 3.493215739727020264e-01
1.975000000000000000e+03 1.127643966674804688e+01 -2.577624511718750000e+01 1.749501824378967285e-01 1.518626660108566284e-01 9.804385155439376831e-02 -1.903232187032699585e-02
1.976000000000000000e+03 1.200137233734130859e+01 -3.185481643676757812e+01 2.067946046590805054e-01 6.293886899948120117e-01 2.508549690246582031e-01 1.659636497497558594e-01
1.977000000000000000e+03 4.768800354003906250e+01 2.730406951904296875e+01 1.757005691528320312e+00 6.807974338531494141e+00 2.569494009017944336e+00 6.413132548332214355e-01
1.978000000000000000e+03 5.131574630737304688e+01 2.973765563964843750e+01 1.563592672348022461e+00 6.416976928710937500e+00 2.394170999526977539e+00 9.043602645397186279e-02
1.979000000000000000e+03 3.929618072509765625e+01 1.947864151000976562e+01 -2.437858432531356812e-01 1.938577532768249512e+00 5.084375143051147461e-01 -2.272587776184082031e+00
1.980000000000000000e+03 3.032984733581542969e+01 1.307947540283203125e+01 6.821142882108688354e-02 3.051953911781311035e-01 1.120220497250556946e-01 2.738355696201324463e-01
1.981000000000000000e+03 4.052098083496093750e+01 6.458903312683105469e+00 1.013058498501777649e-01 7.547166824340820312e+00 2.294541835784912109e+00 -1.831059336662292480e+00
1.982000000000000000e+03 4.061891937255859375e+01 5.520484924316406250e+00 -4.706666171550750732e-01 7.307749271392822266e+00 2.051124811172485352e+00 -2.087321281433105469e+00
1.983000000000000000e+03 5.230584335327148438e+01 2.845858573913574219e+01 1.419124364852905273e+00 7.107828617095947266e+00 2.558085918426513672e+00 -2.290356159210205078e-01
1.984000000000000000e+03 5.220703506469726562e+01 3.039536476135253906e+01 1.209050297737121582e+00 7.191185474395751953e+00 2.520070791244506836e+00 9.188534617424011230e-01
1.985000000000000000e+03 4.117785644531250000e+01 -2.246085166931152344e+01 1.360203146934509277e+00 4.165949821472167969e+00 1.657845973968505859e+00 1.914343714714050293e+00
1.986000000000000000e+03 4.108422470092773438e+01 -2.362481880187988281e+01 1.428634881973266602e+00 3.797159194946289062e+00 1.567738175392150879e+00 2.461282253265380859e+00
1.987000000000000000e+03 2.996549034118652344e+01 -4.340271949768066406e+00 1.613226830959320068e-01 -1.483720421791076660e+00 -3.967193365097045898e-01 -4.154385924339294434e-01
1.988000000000000000e+03 2.893862342834472656e+01 -2.876422882080078125e+01 -7.933682799339294434e-01 2.013357162475585938e+00 3.659966588020324707e-01 -2.459903508424758911e-01
1.989000000000000000e+03 3.925360870361328125e+01 -1.494853973388671875e+01 -2.955238580703735352e+00 1.879256010055541992e+00 -3.227947652339935303e-01 -8.832989335060119629e-01
1.990000000000000000e+03 2.949327850341796875e+01 4.027326583862304688e+00 1.065978482365608215e-01 8.412981629371643066e-01 2.843688130378723145e-01 -3.377012014389038086e-01
1.991000000000000000e+03 4.148804855346679688e+01 -3.215308189392089844e+00 -4.651219367980957031e+00 -6.052280776202678680e-03 -1.397181510925292969e+00 2.673955202102661133e+00
1.992000000000000000e+03 3.325118637084960938e+01 1.814141845703125000e+01 1.550689488649368286e-01 2.639062166213989258e+00 8.382393121719360352e-01 -1.034897446632385254e+00
1.993000000000000000e+03 3.968978118896484375e+01 5.082312583923339844e+00 -2.875638306140899658e-01 5.579361915588378906e+00 1.587539434432983398e+00 -1.208214998245239258e+00
1.994000000000000000e+03 6.777154541015625000e+01 4.993040084838867188e+00 2.907444536685943604e-01 1.448197126388549805e+00 5.216824412345886230e-01 1.841688990592956543e+00
1.995000000000000000e+03 6.734893035888671875e+01 1.415112167596817017e-01 7.245970368385314941e-01 3.141757249832153320e+00 1.159906268119812012e+00 2.019604206085205078e+00
1.996000000000000000e+03 4.452042007446289062e+01 -2.642679595947265625e+01 -1.383201003074645996e+00 1.017495512962341309e+00 -1.097116619348526001e-01 -1.042724490165710449e+00
1.997000000000000000e+03 4.129410552978515625e+01 -2.657339096069335938e+01 -1.018399477005004883e+00 3.944426059722900391e+00 8.778079748153686523e-01 1.745588421821594238e+00
1.998000000000000000e+03 4.003836059570312500e+01 -2.040328979492187500e+00 1.798573493957519531e+00 3.714558124542236328e+00 1.653939485549926758e+00 6.282382011413574219e+00
1.999000000000000000e+03 3.493395233154296875e+01 -1.425787925720214844e+01 -3.447925806045532227e+00 -7.139322906732559204e-02 -1.055795669555664062e+00 6.813294887542724609e-01
2.000000000000000000e+03 7.158743286132812500e+01 1.322232633829116821e-01 -3.538867831230163574e-02 9.086377620697021484e-01 2.619747221469879150e-01 -8.811005204916000366e-02
2.001000000000000000e+03 7.042706298828125000e+01 4.338363170623779297e+00 1.543023586273193359e-01 3.435520172119140625e+00 1.076946735382080078e+00 1.590097427368164062e+00
2.002000000000000000e+03 6.610633087158203125e+01 3.136536598205566406e+01 5.895870327949523926e-01 5.592726707458496094e+00 1.854694128036499023e+00 8.646357655525207520e-01
2.003000000000000000e+03 2.336537742614746094e+01 1.607449150085449219e+01 5.436584353446960449e-03 8.000800609588623047e-01 2.416549921035766602e-01 -2.491188198328018188e-01
2.004000000000000000e+03 2.090744590759277344e+01 1.520233440399169922e+01 -1.946806460618972778e-01 3.013975322246551514e-01 3.201506659388542175e-02 1.223933324217796326e-01
2.005000000000000000e+03 8.772453308105468750e+00 -5.869452953338623047e+00 -7.262713625095784664e-04 -3.015677444636821747e-02 -9.264914318919181824e-03 -1.076564192771911621e-01
2.006000000000000000e+03 1.103626060485839844e+01 -1.133570480346679688e+01 -1.836543786339461803e-03 9.455684572458267212e-03 2.285742200911045074e-03 -1.160783991217613220e-01
2.007000000000000000e+03 6.565559387207031250e+01 2.915239524841308594e+01 1.412144184112548828e+00 5.683833122253417969e+00 2.128793239593505859e+00 1.133030891418457031e+00
2.008000000000000000e+03 2.785847091674804688e+01 6.641061782836914062e+00 4.802010357379913330e-01 5.894644260406494141e-01 3.208996355533599854e-01 -3.562177717685699463e-01
2.009000000000000000e+03 1.820441436767578125e+01 -1.260136604309082031e+01 -7.618365436792373657e-02 1.872406154870986938e-01 3.331708908081054688e-02 -1.576021313667297363e-02
2.010000000000000000e+03 6.077283477783203125e+01 2.449364662170410156e+00 -7.926978468894958496e-01 5.019609451293945312e+00 1.268073439598083496e+00 -1.990151882171630859e+00
2.011000000000000000e+03 6.254195022583007812e+01 6.950679779052734375e+00 -8.410132527351379395e-01 3.423922777175903320e+00 7.748728990554809570e-01 -1.466161847114562988e+00
2.012000000000000000e+03 5.229048538208007812e+01 2.618924140930175781e+01 1.863443970680236816e+00 6.029911518096923828e+00 2.368006467819213867e+00 -6.464578509330749512e-01
2.013000000000000000e+03 5.203747940063476562e+01 2.197462654113769531e+01 -1.014750719070434570e+00 4.440347671508789062e+00 1.027679085731506348e+00 -1.773596048355102539e+00
2.014000000000000000e+03 4.100105285644531250e+01 -2.453491973876953125e+01 1.951028704643249512e+00 4.060676097869873047e+00 1.803511500358581543e+00 2.205642461776733398e+00
2.015000000000000000e+03 3.296512603759765625e+01 2.966319847106933594e+01 8.161501884460449219e-01 4.222170352935791016e+00 1.511496186256408691e+00 -9.444018602371215820e-01
2.016000000000000000e+03 6.274109268188476562e+01 -5.680566310882568359e+00 1.520911574363708496e+00 9.720411300659179688e+00 3.372396945953369141e+00 1.170690581202507019e-01
2.017000000000000000e+03 1.111200046539306641e+01 7.386281013488769531e+00 -8.562680482864379883e-01 -5.765437483787536621e-01 -4.298435449600219727e-01 5.689508914947509766e-01
2.018000000000000000e+03 5.952828598022460938e+01 1.852526664733886719e+00 -6.546826362609863281e-01 4.800630092620849609e+00 1.243784308433532715e+00 -2.412291288375854492e+00
2.019000000000000000e+03 5.596576309204101562e+01 6.766929626464843750e+00 1.415471076965332031e+00 7.641252517700195312e+00 2.717017173767089844e+00 5.588259100914001465e-01
2.020000000000000000e+03 6.620993041992187500e+01 -1.335595607757568359e+01 -7.653909921646118164e-01 3.725683212280273438e+00 8.880876302719116211e-01 -3.195118606090545654e-01
2.021000000000000000e+03 6.034554672241210938e+01 1.078317356109619141e+01 1.146509528160095215e+00 7.732144832611083984e+00 2.663596153259277344e+00 -5.101241469383239746e-01
2.022000000000000000e+03 5.617142486572265625e+01 1.398534870147705078e+01 1.211301088333129883e+00 8.110027313232421875e+00 2.796398639678955078e+00 3.906117379665374756e-01
2.023000000000000000e+03 4.762735748291015625e+01 -2.736544799804687500e+01 -1.546426773071289062e+00 3.728650093078613281e+00 6.546670198440551758e-01 -2.577347517013549805e+00
2.024000000000000000e+03 4.844041061401367188e+01 -2.826610183715820312e+01 -4.591035246849060059e-01 4.120485305786132812e+00 1.098414540290832520e+00 -2.366746902465820312e+00
2.025000000000000000e+03 6.953418731689453125e+01 6.137475013732910156e+00 9.171666949987411499e-02 3.262467145919799805e+00 1.006255149841308594e+00 2.270008802413940430e+00
2.026000000000000000e+03 7.239195251464843750e+01 8.194262504577636719e+00 3.216117024421691895e-01 8.591563224792480469e+00 2.673952579498291016e+00 9.803763628005981445e-01
2.027000000000000000e+03 5.138408279418945312e+01 1.905506324768066406e+01 -2.397821187973022461e+00 2.804208517074584961e+00 1.219162121415138245e-01 -1.434413790702819824e+00
2.028000000000000000e+03 6.407491302490234375e+01 3.825835037231445312e+01 -7.701725959777832031e-01 3.606408596038818359e+00 8.508708477020263672e-01 -3.918395042419433594e-01
2.029000000000000000e+03 6.355796051025390625e+01 -2.033217239379882812e+01 1.796832680702209473e+00 8.379785537719726562e+00 3.052985429763793945e+00 -2.053427219390869141e+00
2.030000000000000000e+03 1.690167427062988281e+01 -2.561573791503906250e+01 2.342633605003356934e-01 3.322093486785888672e-01 1.699418127536773682e-01 3.867614865303039551e-01
2.031000000000000000e+03 2.051742362976074219e+01 1.405109024047851562e+01 -7.060420513153076172e-02 2.442023009061813354e-01 5.207943171262741089e-02 9.261231124401092529e-02
2.032000000000000000e+03 7.560486602783203125e+01 1.956010937690734863e+00 -3.791562914848327637e-01 6.703784942626953125e+00 1.897388577461242676e+00 -7.258896827697753906e-01
2.033000000000000000e+03 4.824475860595703125e+01 5.581817626953125000e+00 -1.938900232315063477e+00 1.440890312194824219e+00 -1.494029760360717773e-01 -5.756767988204956055e-01
2.034000000000000000e+03 6.072998809814453125e+01 -3.870062232017517090e-01 -1.205332800745964050e-01 6.527650833129882812e+00 1.922135233879089355e+00 -1.796342015266418457e+00
2.035000000000000000e+03 7.358103942871093750e+01 -3.863921356201171875e+01 -2.972641587257385254e-01 6.841793060302734375e+00 1.963358640670776367e+00 -6.546812057495117188e-01
2.036000000000000000e+03 7.497825622558593750e+01 -3.275235748291015625e+01 4.757672250270843506e-01 6.451282024383544922e+00 2.078114748001098633e+00 -8.288533240556716919e-02
2.037000000000000000e+03 7.567652893066406250e+01 -3.563572692871093750e+01 6.741564720869064331e-02 7.080779075622558594e+00 2.144458532333374023e+00 -4.288040101528167725e-01
2.038000000000000000e+03 7.823916625976562500e+01 1.921730422973632812e+01 -1.726137250661849976e-01 7.516844749450683594e+00 2.203269243240356445e+00 5.079389810562133789e-01
2.039000000000000000e+03 7.209834289550781250e+01 1.722173881530761719e+01 -8.547580242156982422e-01 7.844518184661865234e+00 2.096928119659423828e+00 -3.645233809947967529e-01
2.040000000000000000e+03 7.379296875000000000e+01 -2.617383575439453125e+01 -1.942782998085021973e+00 8.366339683532714844e+00 1.927066922187805176e+00 8.449758887290954590e-01
2.041000000000000000e+03 7.725138854980468750e+01 3.496316146850585938e+01 -7.907967083156108856e-03 7.079643249511718750e+00 2.121520519256591797e+00 1.664148271083831787e-01
2.042000000000000000e+03 7.590705871582031250e+01 3.305049896240234375e+01 1.281989812850952148e-01 6.667429447174072266e+00 2.038688659667968750e+00 1.626019775867462158e-01
2.043000000000000000e+03 7.830064392089843750e+01 -2.371942329406738281e+01 3.431288301944732666e-01 7.454943180084228516e+00 2.339421510696411133e+00 -3.144007325172424316e-01
2.044000000000000000e+03 7.651230621337890625e+01 -2.541219329833984375e+01 -2.017560452222824097e-01 8.339371681213378906e+00 2.441284656524658203e+00 -7.302321791648864746e-01
2.045000000000000000e+03 7.778198242187500000e+01 -2.857035636901855469e+01 -2.053115367889404297e-01 7.723253250122070312e+00 2.255382537841796875e+00 -7.294216752052307129e-02
2.046000000000000000e+03 7.465433502197265625e+01 -2.522402954101562500e+01 -2.264072746038436890e-01 8.668905258178710938e+00 2.532749414443969727e+00 -4.439289569854736328e-01
2.047000000000000000e+03 7.641571807861328125e+01 -2.330758476257324219e+01 9.277233481407165527e-01 8.742079734802246094e+00 2.900940895080566406e+00 -1.560830473899841309e-01
2.048000000000000000e+03 7.617517089843750000e+01 -3.153038978576660156e+01 1.931900680065155029e-01 6.959189891815185547e+00 2.145714044570922852e+00 1.384916752576828003e-01
2.049000000000000000e+03 7.596936035156250000e+01 -3.429642105102539062e+01 2.820455431938171387e-01 6.936736106872558594e+00 2.165634393692016602e+00 -2.567258775234222412e-01
2.050000000000000000e+03 7.110256195068359375e+01 -3.390735244750976562e+01 1.272728443145751953e+00 5.246734619140625000e+00 1.955838918685913086e+00 -1.058357596397399902e+00
2.051000000000000000e+03 7.497037506103515625e+01 -4.060739517211914062e+01 -2.841795682907104492e-01 7.418959140777587891e+00 2.140433788299560547e+00 -3.495745956897735596e-01
2.052000000000000000e+03 7.811449432373046875e+01 2.207483482360839844e+01 -1.422774791717529297e-01 7.695480346679687500e+00 2.265960931777954102e+00 6.083058938384056091e-02
2.053000000000000000e+03 7.694287109375000000e+01 2.038554954528808594e+01 -4.035542607307434082e-01 7.485330104827880859e+00 2.124532699584960938e+00 3.797668516635894775e-01
2.054000000000000000e+03 7.563179016113281250e+01 2.326935958862304688e+01 -4.572043418884277344e-01 6.921742916107177734e+00 1.939361453056335449e+00 -3.732642233371734619e-01
2.055000000000000000e+03 7.688018035888671875e+01 2.193231391906738281e+01 -4.319447278976440430e-01 7.411797046661376953e+00 2.093955755233764648e+00 -1.029098313301801682e-02
2.056000000000000000e+03 7.710384368896484375e+01 1.503982925415039062e+01 3.281397521495819092e-01 7.032424449920654297e+00 2.208169221878051758e+00 8.817082047462463379e-01
2.057000000000000000e+03 7.824149322509765625e+01 1.383673191070556641e+01 2.624213695526123047e-01 6.225632190704345703e+00 1.946416020393371582e+00 4.865278601646423340e-01
2.058000000000000000e+03 7.535243988037109375e+01 1.302181434631347656e+01 1.208661556243896484e+00 8.173256874084472656e+00 2.814575433731079102e+00 4.914206564426422119e-01
2.059000000000000000e+03 7.824550628662109375e+01 -2.090652847290039062e+01 2.939432859420776367e-01 7.585555553436279297e+00 2.363849639892578125e+00 5.552507042884826660e-01
2.060000000000000000e+03 7.714405059814453125e+01 -2.092418289184570312e+01 6.444735527038574219e-01 8.130156517028808594e+00 2.632388830184936523e+00 5.777837038040161133e-01
2.061000000000000000e+03 7.799728393554687500e+01 1.105194282531738281e+01 3.436231911182403564e-01 6.244896411895751953e+00 1.976555824279785156e+00 -2.258165180683135986e-01
2.062000000000000000e+03 7.689679718017578125e+01 2.474766349792480469e+01 -1.471381336450576782e-01 7.138347148895263672e+00 2.097362756729125977e+00 -3.337629139423370361e-01
2.063000000000000000e+03 7.811965179443359375e+01 2.624307632446289062e+01 -2.612841874361038208e-02 7.393659591674804688e+00 2.210259437561035156e+00 -2.357543408870697021e-01
2.064000000000000000e+03 7.787438201904296875e+01 3.039937400817871094e+01 1.023254692554473877e-01 7.093274593353271484e+00 2.158679962158203125e+00 -4.578551277518272400e-02
2.065000000000000000e+03 7.675480651855468750e+01 2.874558067321777344e+01 1.823235750198364258e-01 6.827495574951171875e+00 2.102945804595947266e+00 -1.890953034162521362e-01
2.066000000000000000e+03 7.667553710937500000e+01 1.078363704681396484e+01 7.869122028350830078e-01 7.130207061767578125e+00 2.375135898590087891e+00 -3.793401420116424561e-01
2.067000000000000000e+03 7.804693603515625000e+01 -1.669839096069335938e+01 -1.597120910882949829e-01 8.663267135620117188e+00 2.551066637039184570e+00 9.758770465850830078e-01
2.068000000000000000e+03 7.580170440673828125e+01 -1.953130531311035156e+01 6.297186017036437988e-01 8.824650764465332031e+00 2.836310863494873047e+00 8.741700649261474609e-01
2.069000000000000000e+03 7.788128662109375000e+01 -6.837931632995605469e+00 6.666769981384277344e-01 8.980313301086425781e+00 2.894097089767456055e+00 -1.243040189146995544e-01
2.070000000000000000e+03 7.826278686523437500e+01 3.710655212402343750e+01 -4.292933642864227295e-02 7.455558776855468750e+00 2.223788976669311523e+00 5.182889848947525024e-02
2.071000000000000000e+03 7.675438690185546875e+01 -3.141732454299926758e+00 -3.506205677986145020e-01 9.032757759094238281e+00 2.604640960693359375e+00 3.992269635200500488e-01
2.072000000000000000e+03 7.817625427246093750e+01 -1.030953168869018555e+00 -2.712349295616149902e-01 8.544626235961914062e+00 2.482017517089843750e+00 2.174013257026672363e-01
2.073000000000000000e+03 7.556203460693359375e+01 2.843329238891601562e+01 2.162341326475143433e-01 6.465000629425048828e+00 2.004370450973510742e+00 -2.272367924451828003e-01
2.074000000000000000e+03 7.831926727294921875e+01 6.905602455139160156e+00 4.541007429361343384e-02 6.914554595947265625e+00 2.087989330291748047e+00 -7.692997455596923828e-01
2.075000000000000000e+03 7.554129791259765625e+01 -2.072499275207519531e+01 1.185034632682800293e+00 8.888574600219726562e+00 3.022082805633544922e+00 5.699920058250427246e-01
2.076000000000000000e+03 7.547525024414062500e+01 3.468255996704101562e+01 8.455153554677963257e-02 6.623202800750732422e+00 2.012326240539550781e+00 2.559843361377716064e-01
2.077000000000000000e+03 7.493690490722656250e+01 3.108802795410156250e+01 2.821595072746276855e-01 6.329539299011230469e+00 1.983509540557861328e+00 4.700100794434547424e-02
2.078000000000000000e+03 7.626776885986328125e+01 3.153114700317382812e+01 2.033392488956451416e-01 6.703641414642333984e+00 2.072094202041625977e+00 4.981406033039093018e-02
2.079000000000000000e+03 7.334411621093750000e+01 1.781301879882812500e+01 -9.766902923583984375e-01 7.779957294464111328e+00 2.040980100631713867e+00 2.723441720008850098e-01
2.080000000000000000e+03 7.552311706542968750e+01 1.029290580749511719e+01 9.123932123184204102e-01 7.654038429260253906e+00 2.569929599761962891e+00 -4.955555498600006104e-01
2.081000000000000000e+03 7.700759124755859375e+01 8.100862503051757812e+00 2.054029405117034912e-01 7.024530410766601562e+00 2.168979883193969727e+00 -9.434768557548522949e-01
2.082000000000000000e+03 7.686608886718750000e+01 3.662482833862304688e+01 -7.223074138164520264e-02 7.109406471252441406e+00 2.111152648925781250e+00 1.875389218330383301e-01
2.083000000000000000e+03 7.319423675537109375e+01 4.555685997009277344e+00 -2.004328370094299316e-01 5.775417327880859375e+00 1.672495245933532715e+00 7.270436733961105347e-02
2.084000000000000000e+03 7.706026458740234375e+01 3.363687753677368164e+00 -1.628802269697189331e-01 7.323264598846435547e+00 2.148115396499633789e+00 -8.020138740539550781e-01
2.085000000000000000e+03 7.740553283691406250e+01 4.524474143981933594e+00 -1.870320439338684082e-01 7.342087268829345703e+00 2.146516561508178711e+00 -8.378416895866394043e-01
2.086000000000000000e+03 7.702358245849609375e+01 -4.631822586059570312e+00 4.300301969051361084e-01 9.677540779113769531e+00 3.032271385192871094e+00 3.826336860656738281e-01
2.087000000000000000e+03 7.497148895263671875e+01 -1.326968288421630859e+01 -1.637814879417419434e+00 6.797215461730957031e+00 1.547820210456848145e+00 9.034852385520935059e-01
2.088000000000000000e+03 7.608860015869140625e+01 -9.835507392883300781e+00 -4.440204799175262451e-02 9.898612022399902344e+00 2.956263065338134766e+00 -8.307393193244934082e-01
2.089000000000000000e+03 7.587503814697265625e+01 -3.001855373382568359e+00 -2.640586197376251221e-01 8.525893211364746094e+00 2.478550434112548828e+00 -2.011484354734420776e-01
2.090000000000000000e+03 7.644949340820312500e+01 -8.245448112487792969e+00 1.148511409759521484e+00 1.100145053863525391e+01 3.644988536834716797e+00 -6.009197831153869629e-01
2.091000000000000000e+03 4.747479629516601562e+01 -1.540024089813232422e+01 -4.056268692016601562e+00 6.531019210815429688e+00 7.424251437187194824e-01 2.755681753158569336e+00
2.092000000000000000e+03 2.112550544738769531e+01 2.324369239807128906e+01 2.874336838722229004e-01 1.081194281578063965e+00 4.105883836746215820e-01 1.488318443298339844e-01
2.093000000000000000e+03 2.149794578552246094e+01 2.460481262207031250e+01 3.610202372074127197e-01 1.109403014183044434e+00 4.411269724369049072e-01 3.521422147750854492e-01
2.094000000000000000e+03 6.501737976074218750e+01 -2.531365203857421875e+01 -1.048913836479187012e+00 8.794432640075683594e+00 2.323655605316162109e+00 -3.084188938140869141e+00
2.095000000000000000e+03 4.414173507690429688e+01 3.454445648193359375e+01 -6.736064553260803223e-01 2.584038972854614258e+00 5.731297731399536133e-01 -1.017568945884704590e+00
2.096000000000000000e+03 3.049326705932617188e+01 -8.808022499084472656e+00 9.999681711196899414e-01 3.775216341018676758e-01 4.132469296455383301e-01 1.789713501930236816e+00
2.097000000000000000e+03 6.700386047363281250e+01 -2.766818046569824219e+01 -4.617274552583694458e-02 6.599483013153076172e+00 1.965993046760559082e+00 -2.732627153396606445e+00
2.098000000000000000e+03 3.853287506103515625e+01 -1.586495876312255859e+01 -2.039871931076049805e+00 2.103682041168212891e+00 1.914308592677116394e-02 -5.958421826362609863e-01
2.099000000000000000e+03 3.916403198242187500e+01 -1.333553314208984375e+01 -3.533509731292724609e+00 1.943987250328063965e+00 -4.768567383289337158e-01 -3.865127861499786377e-01
2.100000000000000000e+03 2.859056854248046875e+01 -2.517241287231445312e+01 -1.819722652435302734e-01 2.861322879791259766e+00 8.038052320480346680e-01 4.470788687467575073e-02
2.101000000000000000e+03 2.897012519836425781e+01 -2.756993484497070312e+01 -8.165711760520935059e-01 2.254600048065185547e+00 4.314086437225341797e-01 -9.651611745357513428e-02
2.102000000000000000e+03 2.252547740936279297e+00 3.219906997680664062e+01 5.030826106667518616e-02 -1.050409317016601562e+00 -3.000303208827972412e-01 7.273688167333602905e-02
2.103000000000000000e+03 4.281708717346191406e+00 3.294058609008789062e+01 1.132206320762634277e-01 -7.192528247833251953e-01 -1.818096637725830078e-01 5.583597719669342041e-02
2.104000000000000000e+03 3.044406890869140625e+00 2.796408271789550781e+01 -6.449713557958602905e-02 -8.885658383369445801e-01 -2.859188914299011230e-01 9.375324100255966187e-02
2.105000000000000000e+03 4.261107921600341797e+00 2.436139106750488281e+01 -5.573470145463943481e-02 -6.843059062957763672e-01 -2.220121771097183228e-01 3.450461477041244507e-02
2.106000000000000000e+03 3.197766304016113281e+00 2.966113853454589844e+01 -1.364766992628574371e-02 -8.886415362358093262e-01 -2.706867456436157227e-01 1.230757459998130798e-01
2.107000000000000000e+03 4.303288936614990234e+00 3.121873855590820312e+01 7.591667026281356812e-02 -6.848114728927612305e-01 -1.826684325933456421e-01 1.117220595479011536e-01
2.108000000000000000e+03 2.036896944046020508e+00 3.067593955993652344e+01 2.730918815359473228e-03 -1.062168002128601074e+00 -3.178311288356781006e-01 9.133522957563400269e-02
2.109000000000000000e+03 2.343298912048339844e+00 3.543350982666015625e+01 4.471135139465332031e-02 -1.068998813629150391e+00 -3.072862327098846436e-01 -1.257193274796009064e-02
2.110000000000000000e+03 5.142976284027099609e+00 2.609045791625976562e+01 -1.191798597574234009e-01 -6.796737909317016602e-01 -2.396560907363891602e-01 8.639870584011077881e-02
2.111000000000000000e+03 4.909357070922851562e+00 3.217139816284179688e+01 1.195672005414962769e-01 -5.822893977165222168e-01 -1.388166546821594238e-01 8.155293017625808716e-02
2.112000000000000000e+03 6.236769676208496094e+00 3.288138580322265625e+01 1.510279029607772827e-01 -2.334794849157333374e-01 -2.473547495901584625e-02 7.894092053174972534e-02
2.113000000000000000e+03 2.698395967483520508e+00 3.908408355712890625e+01 2.060952596366405487e-02 -1.079091787338256836e+00 -3.175446689128875732e-01 -8.070509135723114014e-02
2.114000000000000000e+03 3.890855312347412109e+00 -3.571646881103515625e+01 2.365035191178321838e-02 -1.855972707271575928e-01 -4.858407378196716309e-02 1.234907656908035278e-01
2.115000000000000000e+03 1.773449063301086426e+00 -2.883774757385253906e+01 -5.278941709548234940e-03 -4.818749427795410156e-01 -1.461461633443832397e-01 1.595019921660423279e-02
2.116000000000000000e+03 2.935381174087524414e+00 -2.997849655151367188e+01 1.295470539480447769e-02 -3.532887995243072510e-01 -1.021002307534217834e-01 3.317782655358314514e-02
2.117000000000000000e+03 1.778008222579956055e+00 -3.018795394897460938e+01 1.951377280056476593e-02 -4.683912396430969238e-01 -1.346632391214370728e-01 2.914177253842353821e-02
2.118000000000000000e+03 1.719911456108093262e+00 2.187243652343750000e+01 6.599735468626022339e-03 -9.428546428680419922e-01 -2.808764874935150146e-01 -1.196914725005626678e-02
2.119000000000000000e+03 3.601471185684204102e+00 2.349707412719726562e+01 -1.398842036724090576e-02 -7.322474718093872070e-01 -2.238707691431045532e-01 8.515182882547378540e-03
2.120000000000000000e+03 2.058431148529052734e+00 -1.990991592407226562e+01 2.149689756333827972e-02 -3.589154183864593506e-01 -1.012255549430847168e-01 -1.440679579973220825e-01
2.121000000000000000e+03 3.291907787322998047e+00 -1.509234809875488281e+01 -6.427786499261856079e-02 -2.078931778669357300e-01 -8.165131509304046631e-02 -1.022373288869857788e-01
2.122000000000000000e+03 6.046457767486572266e+00 -1.379379940032958984e+01 -9.177181124687194824e-02 -2.304373085498809814e-01 -9.666273742914199829e-02 -1.128494516015052795e-01
2.123000000000000000e+03 5.433406352996826172e+00 1.714591979980468750e+01 2.771845161914825439e-01 -4.511147141456604004e-01 -5.217906460165977478e-02 2.375822663307189941e-01
2.124000000000000000e+03 4.112943172454833984e+00 2.069157218933105469e+01 6.107170134782791138e-02 -6.444965004920959473e-01 -1.750274300575256348e-01 3.793071210384368896e-02
2.125000000000000000e+03 4.959479331970214844e+00 1.171714019775390625e+01 -8.844938874244689941e-02 -2.412088215351104736e-01 -9.889746457338333130e-02 4.641534388065338135e-01
2.126000000000000000e+03 3.046248197555541992e+00 -2.445886802673339844e+01 3.099801391363143921e-02 -3.299018740653991699e-01 -8.967115730047225952e-02 -1.526717562228441238e-02
2.127000000000000000e+03 4.879513263702392578e+00 -2.278692817687988281e+01 1.048302873969078064e-01 -5.550806596875190735e-02 1.479666493833065033e-02 -5.563867837190628052e-02
2.128000000000000000e+03 3.455682992935180664e+00 -1.632530593872070312e+01 -5.676258727908134460e-02 -1.885690689086914062e-01 -7.359949499368667603e-02 -1.087930724024772644e-01
2.129000000000000000e+03 2.684430599212646484e+00 -9.982882499694824219e+00 -6.333774887025356293e-03 -1.173572242259979248e-01 -3.710730001330375671e-02 -3.022972494363784790e-02
2.130000000000000000e+03 1.624535083770751953e+00 -8.879781723022460938e+00 -4.450467415153980255e-03 -8.647891879081726074e-02 -2.727881632745265961e-02 -1.968480274081230164e-02
2.131000000000000000e+03 5.377255916595458984e+00 -5.018951892852783203e+00 -1.505891792476177216e-02 -3.701913729310035706e-02 -1.562341675162315369e-02 -8.237798511981964111e-02
2.132000000000000000e+03 2.545175313949584961e+00 8.887807846069335938e+00 -7.975099235773086548e-02 -1.108676567673683167e-01 -5.718559399247169495e-02 1.865431219339370728e-01
2.133000000000000000e+03 1.529532313346862793e+00 6.272733211517333984e+00 -2.781448885798454285e-02 3.845917433500289917e-02 3.193405224010348320e-03 2.205389924347400665e-02
2.134000000000000000e+03 1.926818013191223145e+00 1.445751953125000000e+01 2.767915837466716766e-02 -5.946153998374938965e-01 -1.700808703899383545e-01 2.206820398569107056e-01
2.135000000000000000e+03 3.551661729812622070e+00 1.532682514190673828e+01 1.116819530725479126e-01 -5.440521240234375000e-01 -1.297110468149185181e-01 3.007709980010986328e-01
2.136000000000000000e+03 2.804873466491699219e+00 -4.478909969329833984e+00 -7.428500335663557053e-03 -5.129006132483482361e-02 -1.761556789278984070e-02 -3.909202665090560913e-02
2.137000000000000000e+03 1.647390246391296387e+00 -6.086064338684082031e+00 -3.554327413439750671e-03 -5.576402693986892700e-02 -1.779550686478614807e-02 -2.652022615075111389e-02
2.138000000000000000e+03 2.671979427337646484e+00 1.015614223480224609e+01 -6.898682564496994019e-02 -1.876134723424911499e-01 -7.698009163141250610e-02 2.504265308380126953e-01
2.139000000000000000e+03 4.084053993225097656e+00 -1.207565402984619141e+01 -1.445155870169401169e-02 -1.481149345636367798e-01 -4.876994714140892029e-02 -4.776627197861671448e-02
2.140000000000000000e+03 2.676973819732666016e+00 -8.663209915161132812e+00 1.476318296045064926e-02 -9.198346734046936035e-02 -2.316608466207981110e-02 -2.121581695973873138e-02
2.141000000000000000e+03 4.705886840820312500e+00 -3.653127288818359375e+01 -7.959705777466297150e-03 -1.454663872718811035e-01 -4.602782800793647766e-02 1.093381419777870178e-01
2.142000000000000000e+03 2.237625598907470703e+00 -3.538262939453125000e+01 2.408505789935588837e-02 -3.204680681228637695e-01 -8.891490101814270020e-02 8.635750412940979004e-02
2.143000000000000000e+03 3.302319288253784180e+00 -3.370352172851562500e+01 3.158686310052871704e-02 -2.690197229385375977e-01 -7.122986018657684326e-02 9.269285202026367188e-02
2.144000000000000000e+03 5.529898643493652344e+00 -3.261605453491210938e+01 5.674932152032852173e-02 -9.405428916215896606e-02 -1.119148917496204376e-02 9.043252468109130859e-02
2.145000000000000000e+03 1.868446350097656250e+00 -2.602063369750976562e+01 -7.499529980123043060e-03 -4.847441613674163818e-01 -1.476731002330780029e-01 5.614674650132656097e-03
2.146000000000000000e+03 6.678042888641357422e+00 -2.472193336486816406e+01 5.309989303350448608e-02 6.572629511356353760e-02 3.564785420894622803e-02 -8.917210996150970459e-02
2.147000000000000000e+03 3.269804000854492188e+00 -1.948672103881835938e+01 5.056040361523628235e-02 -1.957382261753082275e-01 -4.355334863066673279e-02 -1.843036264181137085e-01
2.148000000000000000e+03 2.711121082305908203e+00 1.144804859161376953e+01 -4.560505226254463196e-02 -2.920323312282562256e-01 -1.012912169098854065e-01 3.105324804782867432e-01
2.149000000000000000e+03 5.240241527557373047e+00 1.029128551483154297e+01 -1.947437971830368042e-01 -1.656980663537979126e-01 -1.081325560808181763e-01 3.999854922294616699e-01
2.150000000000000000e+03 2.898647308349609375e+00 1.272127628326416016e+01 6.321930792182683945e-03 -3.904675543308258057e-01 -1.152436807751655579e-01 3.320361971855163574e-01
2.151000000000000000e+03 3.179330587387084961e+00 1.400016784667968750e+01 4.277035966515541077e-02 -4.824664592742919922e-01 -1.319088339805603027e-01 3.361307680606842041e-01
2.152000000000000000e+03 4.327253818511962891e+00 1.641323471069335938e+01 1.842962354421615601e-01 -5.366590023040771484e-01 -1.057088226079940796e-01 2.730874121189117432e-01
2.153000000000000000e+03 2.979230403900146484e+00 2.056667137145996094e+01 4.635292291641235352e-02 -7.742909789085388184e-01 -2.183814048767089844e-01 1.819098927080631256e-02
2.154000000000000000e+03 5.913655281066894531e+00 1.878616333007812500e+01 2.393616586923599243e-01 -4.132323563098907471e-01 -5.216120928525924683e-02 1.220253258943557739e-01
2.155000000000000000e+03 2.535911560058593750e+01 3.123301887512207031e+01 6.298329830169677734e-01 1.192683219909667969e+00 5.467548370361328125e-01 -3.232276141643524170e-01
2.156000000000000000e+03 7.211697387695312500e+01 1.951836776733398438e+01 -2.005676746368408203e+00 6.636244297027587891e+00 1.389170289039611816e+00 -5.466078519821166992e-01
2.157000000000000000e+03 2.296303176879882812e+01 2.782651519775390625e+01 5.173208713531494141e-01 1.008782744407653809e+00 4.578310847282409668e-01 4.683647751808166504e-01
2.158000000000000000e+03 4.066946029663085938e+01 8.852527618408203125e+00 1.081729412078857422e+00 7.148155689239501953e+00 2.468965530395507812e+00 -7.477894425392150879e-01
2.159000000000000000e+03 4.100429153442382812e+01 1.132610988616943359e+01 1.505698323249816895e+00 6.367654323577880859e+00 2.362005710601806641e+00 -4.089781343936920166e-01
2.160000000000000000e+03 5.342810058593750000e+01 -3.791587448120117188e+01 -1.437120199203491211e+00 6.282524108886718750e+00 1.453621149063110352e+00 2.716447114944458008e-01
2.161000000000000000e+03 6.007339859008789062e+01 3.988333129882812500e+01 -9.849913418292999268e-02 1.298220396041870117e+00 3.599163889884948730e-01 -1.628074198961257935e-01
2.162000000000000000e+03 3.441746902465820312e+01 2.047056770324707031e+01 -2.171327620744705200e-01 3.865750074386596680e+00 1.094585180282592773e+00 -1.360255956649780273e+00
2.163000000000000000e+03 5.428309249877929688e+01 1.829410743713378906e+01 -5.945388674736022949e-01 4.469713687896728516e+00 1.162552356719970703e+00 -1.855631113052368164e+00
2.164000000000000000e+03 5.190594482421875000e+01 -4.124984741210937500e+01 -2.716048717498779297e+00 5.947204589843750000e+00 9.693468213081359863e-01 -2.008194715017452836e-04
2.165000000000000000e+03 2.163632774353027344e+01 1.023844528198242188e+01 3.743722438812255859e-01 2.884652614593505859e-01 1.988512575626373291e-01 2.104453891515731812e-01
2.166000000000000000e+03 2.432789230346679688e+01 1.305777835845947266e+01 1.005666777491569519e-01 4.373080134391784668e-01 1.613624095916748047e-01 -6.459582597017288208e-02
2.167000000000000000e+03 3.677442550659179688e+01 1.384582519531250000e+01 1.163110733032226562e+00 2.300858497619628906e+00 1.039190769195556641e+00 -1.704995632171630859e+00
2.168000000000000000e+03 3.511328506469726562e+01 1.612019348144531250e+01 5.046233534812927246e-01 2.134003162384033203e+00 7.915879487991333008e-01 -1.703210711479187012e+00
2.169000000000000000e+03 4.933768463134765625e+01 -9.458094596862792969e+00 3.066337823867797852e+00 9.468643188476562500e+00 3.760494232177734375e+00 -1.790854185819625854e-01
2.170000000000000000e+03 5.033031082153320312e+01 -1.307294750213623047e+01 -1.185764521360397339e-01 4.711186885833740234e+00 1.377783060073852539e+00 -9.003365635871887207e-01
2.171000000000000000e+03 2.413156127929687500e+01 -2.805272293090820312e+01 -5.579339265823364258e-01 1.438323616981506348e+00 2.641169130802154541e-01 4.349758476018905640e-02
2.172000000000000000e+03 2.323370742797851562e+01 -2.249300003051757812e+01 7.729654312133789062e-01 6.287440061569213867e-01 4.205128252506256104e-01 2.454608380794525146e-01
2.173000000000000000e+03 7.486843109130859375e+01 -2.150367355346679688e+01 1.278520584106445312e+00 1.059025669097900391e+01 3.560633182525634766e+00 6.665515154600143433e-02
2.174000000000000000e+03 7.549813842773437500e+01 -2.238145256042480469e+01 1.241860985755920410e+00 9.555583953857421875e+00 3.239233493804931641e+00 9.061715006828308105e-02
2.175000000000000000e+03 3.357296371459960938e+01 -6.778506278991699219e+00 2.327939748764038086e+00 1.353559732437133789e+00 1.104449868202209473e+00 1.433461666107177734e+00
2.176000000000000000e+03 4.230730056762695312e+01 1.601034164428710938e+01 1.385829448699951172e+00 5.486181259155273438e+00 2.061603307723999023e+00 -3.880202770233154297e-01
2.177000000000000000e+03 5.484640884399414062e+01 2.256984329223632812e+01 -1.575018405914306641e+00 4.545623779296875000e+00 8.911815881729125977e-01 -2.599107503890991211e+00
2.178000000000000000e+03 5.365475463867187500e+01 2.459415817260742188e+01 -1.870896667242050171e-01 5.998622894287109375e+00 1.743459939956665039e+00 -1.234193682670593262e+00
2.179000000000000000e+03 4.712048339843750000e+01 -5.133243560791015625e+00 3.501566350460052490e-01 7.825067996978759766e+00 2.452567338943481445e+00 -2.323857784271240234e+00
2.180000000000000000e+03 1.449896144866943359e+01 -9.826110839843750000e+00 -3.561323508620262146e-02 1.860308647155761719e-01 4.512528702616691589e-02 -2.023972570896148682e-02
2.181000000000000000e+03 2.866054916381835938e+01 4.387537002563476562e+00 2.098458409309387207e-01 6.932199001312255859e-01 2.709197103977203369e-01 -1.387194395065307617e-01
2.182000000000000000e+03 4.449332714080810547e+00 1.342355251312255859e+01 5.711746960878372192e-02 -3.658646941184997559e-01 -9.262416511774063110e-02 4.359676241874694824e-01
2.183000000000000000e+03 8.267066001892089844e+00 1.208981323242187500e+01 -9.174257516860961914e-02 -1.912679076194763184e-01 -8.490314334630966187e-02 5.792536735534667969e-01
2.184000000000000000e+03 5.598396682739257812e+01 9.391968727111816406e+00 2.184403181076049805e+00 9.315402030944824219e+00 3.449941635131835938e+00 1.793310523033142090e+00
2.185000000000000000e+03 5.150285720825195312e+01 -2.243971109390258789e+00 1.523227095603942871e+00 7.637269973754882812e+00 2.748149156570434570e+00 2.109239101409912109e-01
2.186000000000000000e+03 2.212096214294433594e+01 2.584836578369140625e+01 3.960857093334197998e-01 1.118501543998718262e+00 4.543761610984802246e-01 4.964663088321685791e-01
2.187000000000000000e+03 5.320438385009765625e+01 1.920056915283203125e+01 -1.600545287132263184e+00 4.256551265716552734e+00 7.968018054962158203e-01 -2.213286876678466797e+00
2.188000000000000000e+03 4.601478576660156250e+00 2.954760551452636719e+01 -1.112763863056898117e-02 -7.020642161369323730e-01 -2.139575630426406860e-01 1.241005361080169678e-01
2.189000000000000000e+03 6.380490875244140625e+01 -1.370565891265869141e+01 -1.358676433563232422e+00 6.089827060699462891e+00 1.419345140457153320e+00 6.062799692153930664e-01
2.190000000000000000e+03 4.621508789062500000e+01 3.460100173950195312e+01 -8.112311363220214844e-01 4.215913772583007812e+00 1.021404743194580078e+00 -8.069666028022766113e-01
2.191000000000000000e+03 6.277490615844726562e+00 2.399470138549804688e+01 -1.005611792206764221e-01 -4.468804597854614258e-01 -1.642324924468994141e-01 1.200639605522155762e-01
2.192000000000000000e+03 5.705087184906005859e+00 2.512673950195312500e+01 -6.949188560247421265e-02 -5.948678851127624512e-01 -1.993079334497451782e-01 1.095411181449890137e-01
2.193000000000000000e+03 4.749221420288085938e+01 -4.135387420654296875e+00 8.109681606292724609e-01 7.187595367431640625e+00 2.399569034576416016e+00 -2.582724094390869141e+00
2.194000000000000000e+03 4.955282592773437500e+01 2.951053428649902344e+01 1.457033753395080566e+00 5.944045543670654297e+00 2.220323801040649414e+00 3.009179234504699707e-01
2.195000000000000000e+03 1.531464576721191406e+01 2.182121086120605469e+01 5.731875300407409668e-01 2.592323720455169678e-01 2.497259676456451416e-01 5.281742811203002930e-01
2.196000000000000000e+03 4.435097885131835938e+01 7.446993827819824219e+00 -9.841781854629516602e-01 7.259819507598876953e+00 1.882692456245422363e+00 -1.103901505470275879e+00
2.197000000000000000e+03 2.719261169433593750e+01 1.343277835845947266e+01 1.549329608678817749e-01 2.928933203220367432e-01 1.343478858470916748e-01 -2.310931682586669922e-02
2.198000000000000000e+03 7.708354949951171875e+01 1.774860572814941406e+01 -1.870468109846115112e-01 7.440208435058593750e+00 2.175948619842529297e+00 9.331552386283874512e-01
2.199000000000000000e+03 1.626218795776367188e+01 -4.031166553497314453e+00 1.367486119270324707e-01 2.236873954534530640e-01 1.081307977437973022e-01 2.640291117131710052e-03
2.200000000000000000e+03 1.410961914062500000e+01 -6.266099452972412109e+00 2.269458957016468048e-02 6.958673149347305298e-02 2.768439613282680511e-02 -6.016807630658149719e-02
2.201000000000000000e+03 1.025606536865234375e+01 -2.446004867553710938e+01 1.196116134524345398e-01 4.251421988010406494e-02 4.863774776458740234e-02 -9.917376190423965454e-02
2.202000000000000000e+03 2.537771606445312500e+01 -1.486738204956054688e+01 -4.012172222137451172e-01 7.031103372573852539e-01 9.056793153285980225e-02 3.677751421928405762e-01
2.203000000000000000e+03 1.109775924682617188e+01 -3.451932907104492188e+01 1.234849244356155396e-01 4.499498307704925537e-01 1.720304340124130249e-01 1.219422966241836548e-01
2.204000000000000000e+03 3.000706291198730469e+01 -1.363522815704345703e+01 -8.849160075187683105e-01 2.445054292678833008e+00 4.680414497852325439e-01 1.349354267120361328e+00
2.205000000000000000e+03 2.714152717590332031e+01 -1.894118690490722656e+01 9.851171374320983887e-01 2.516574621200561523e+00 1.050507545471191406e+00 4.501505196094512939e-01
2.206000000000000000e+03 3.159861946105957031e+01 2.667446708679199219e+01 1.197570681571960449e+00 3.535468816757202148e+00 1.419911861419677734e+00 -1.259006381034851074e+00
2.207000000000000000e+03 3.193570518493652344e+01 3.104049491882324219e+01 5.193302035331726074e-01 3.205922126770019531e+00 1.117575645446777344e+00 -1.070104122161865234e+00
2.208000000000000000e+03 9.182160377502441406e+00 8.257626533508300781e+00 -6.060688495635986328e-01 -3.825928568840026855e-01 -2.965985238552093506e-01 3.665863573551177979e-01
2.209000000000000000e+03 9.406206130981445312e+00 4.467927455902099609e+00 -3.022424876689910889e-01 -1.690253913402557373e-01 -1.413803696632385254e-01 1.143415272235870361e-01
2.210000000000000000e+03 4.703027725219726562e+01 3.359435272216796875e+01 -3.029556274414062500e-01 4.699741363525390625e+00 1.319035768508911133e+00 -7.115494608879089355e-01
2.211000000000000000e+03 5.923983383178710938e+01 -1.917480659484863281e+01 2.270250082015991211e+00 5.709858894348144531e+00 2.394032716751098633e+00 -3.795489668846130371e-01
2.212000000000000000e+03 6.233990097045898438e+01 -1.941025543212890625e+01 1.515112161636352539e+00 6.870822429656982422e+00 2.515780210494995117e+00 -1.805251955986022949e+00
2.213000000000000000e+03 9.344567298889160156e+00 2.087358283996582031e+01 1.824257522821426392e-01 -3.450345620512962341e-02 4.437668994069099426e-02 7.267775386571884155e-02
2.214000000000000000e+03 1.313910293579101562e+01 1.953728675842285156e+01 5.406147837638854980e-01 4.353904724121093750e-01 2.928015887737274170e-01 5.337060689926147461e-01
2.215000000000000000e+03 5.528110504150390625e+01 -1.070670890808105469e+01 8.131867647171020508e-01 3.186438798904418945e+00 1.199887752532958984e+00 -2.899821519851684570e+00
2.216000000000000000e+03 1.475022125244140625e+01 -2.245529747009277344e+01 8.289470523595809937e-02 1.132428497076034546e-01 5.884126573801040649e-02 1.437024325132369995e-01
2.217000000000000000e+03 7.261621856689453125e+01 -1.610881423950195312e+01 -1.519734710454940796e-01 4.223491191864013672e+00 1.221455335617065430e+00 -7.478438615798950195e-01
2.218000000000000000e+03 4.155259704589843750e+01 -1.602602195739746094e+01 -1.353135228157043457e+00 5.353637337684631348e-01 -2.453314363956451416e-01 -4.471805393695831299e-01
2.219000000000000000e+03 7.154827117919921875e+01 -3.600387191772460938e+01 3.365941345691680908e-01 5.906861782073974609e+00 1.873036742210388184e+00 -1.178187370300292969e+00
2.220000000000000000e+03 6.789286804199218750e+01 -3.731885910034179688e+01 -1.171449899673461914e+00 5.733269214630126953e+00 1.368545770645141602e+00 -1.167872905731201172e+00
2.221000000000000000e+03 5.205961227416992188e+01 2.756975936889648438e+01 1.700916528701782227e+00 6.684010505676269531e+00 2.515478134155273438e+00 -2.649262547492980957e-01
2.222000000000000000e+03 2.138967895507812500e+01 -1.572442531585693359e+01 -1.036949083209037781e-02 -6.495233625173568726e-02 -2.259654738008975983e-02 -3.380508422851562500e-01
2.223000000000000000e+03 1.094139003753662109e+01 -3.123843955993652344e+01 1.979531496763229370e-01 4.154562652111053467e-01 1.840228289365768433e-01 1.391411870718002319e-01
2.224000000000000000e+03 1.389249134063720703e+01 -2.657917499542236328e+00 -6.575386971235275269e-02 9.752492606639862061e-02 9.531317278742790222e-03 -6.619158387184143066e-02
2.225000000000000000e+03 2.567889976501464844e+01 -2.784377670288085938e+01 -5.729640126228332520e-01 1.962545275688171387e+00 4.168743491172790527e-01 1.213794574141502380e-01
2.226000000000000000e+03 2.863086891174316406e+01 -2.657721328735351562e+01 -5.584557652473449707e-01 2.347888469696044922e+00 5.368298292160034180e-01 -1.031610649079084396e-02
2.227000000000000000e+03 5.826362228393554688e+01 7.792256832122802734e+00 9.888419508934020996e-01 6.751062870025634766e+00 2.321971416473388672e+00 -2.341850697994232178e-01
2.228000000000000000e+03 1.968680191040039062e+01 -1.709095954895019531e+01 2.442666292190551758e-01 5.626431480050086975e-02 9.015928208827972412e-02 -3.050292730331420898e-01
2.229000000000000000e+03 5.076457214355468750e+01 -3.204452133178710938e+01 2.380425214767456055e+00 6.183714866638183594e+00 2.569242000579833984e+00 -4.536494612693786621e-01
2.230000000000000000e+03 5.153515625000000000e+01 -3.300312805175781250e+01 2.223079442977905273e+00 5.945182323455810547e+00 2.450478553771972656e+00 1.005100905895233154e-01
2.231000000000000000e+03 3.864364242553710938e+01 -3.051037216186523438e+01 8.830103278160095215e-01 5.456864356994628906e+00 1.901962399482727051e+00 1.541883707046508789e+00
2.232000000000000000e+03 4.353919601440429688e+01 -1.495886421203613281e+01 -2.314572811126708984e+00 9.293560981750488281e-01 -4.155650138854980469e-01 1.305386304855346680e+00
2.233000000000000000e+03 3.840156173706054688e+01 -1.421118259429931641e+01 -3.099128484725952148e+00 2.440467357635498047e+00 -1.975983679294586182e-01 -1.088129997253417969e+00
2.234000000000000000e+03 3.946522140502929688e+01 -1.641530799865722656e+01 -1.084222555160522461e+00 1.580819368362426758e+00 1.489790230989456177e-01 -6.622732281684875488e-01
2.235000000000000000e+03 2.819999504089355469e+01 -1.932659912109375000e+01 8.882346749305725098e-01 3.629287242889404297e+00 1.355256557464599609e+00 8.597974777221679688e-01
2.236000000000000000e+03 6.091490936279296875e+01 1.883645820617675781e+01 1.494092583656311035e+00 7.879405498504638672e+00 2.812049388885498047e+00 2.469408035278320312e+00
2.237000000000000000e+03 4.431584548950195312e+01 -1.860251235961914062e+01 1.213044047355651855e+00 4.372975349426269531e+00 1.675805807113647461e+00 7.402445673942565918e-01
2.238000000000000000e+03 2.896325111389160156e+01 -1.250362300872802734e+01 -4.665373265743255615e-01 2.410346746444702148e+00 5.831428170204162598e-01 1.058715462684631348e+00
2.239000000000000000e+03 4.604966735839843750e+01 -2.508663940429687500e+01 -1.017521619796752930e+00 3.648414611816406250e+00 7.892678380012512207e-01 -1.160773396492004395e+00
2.240000000000000000e+03 4.774726104736328125e+01 -1.291255855560302734e+01 -1.485277533531188965e+00 8.950860977172851562e+00 2.239674806594848633e+00 1.748905897140502930e+00
2.241000000000000000e+03 7.550337219238281250e+01 -4.343604564666748047e+00 4.714736044406890869e-01 9.785714149475097656e+00 3.077156305313110352e+00 -5.757982730865478516e-01
2.242000000000000000e+03 7.500534820556640625e+01 -3.246427059173583984e+00 -3.461327403783798218e-02 8.591747283935546875e+00 2.567140340805053711e+00 -1.053393959999084473e+00
2.243000000000000000e+03 3.570535278320312500e+01 -3.033633995056152344e+01 4.425193071365356445e-01 1.042015314102172852e+00 4.453603923320770264e-01 5.591935515403747559e-01
2.244000000000000000e+03 7.282904052734375000e+01 2.059451866149902344e+01 -1.427715063095092773e+00 6.528221130371093750e+00 1.530151724815368652e+00 -6.838398575782775879e-01
2.245000000000000000e+03 6.809375000000000000e+01 -1.262050914764404297e+01 -2.503647506237030029e-01 2.027296781539916992e+00 5.330795645713806152e-01 -1.200047612190246582e+00
2.246000000000000000e+03 6.606240081787109375e+01 -1.214476585388183594e+01 -1.882176548242568970e-01 4.393670558929443359e+00 1.261635899543762207e+00 -7.390238642692565918e-01
2.247000000000000000e+03 3.551430130004882812e+01 -8.259298324584960938e+00 2.407490253448486328e+00 4.146614074707031250e+00 1.966231226921081543e+00 2.097273588180541992e+00
2.248000000000000000e+03 5.456110000610351562e+01 -3.286352920532226562e+01 2.512172460556030273e+00 7.611168861389160156e+00 3.037002325057983398e+00 5.364611148834228516e-01
2.249000000000000000e+03 5.487916564941406250e+01 -3.133545303344726562e+01 2.031802654266357422e+00 8.105379104614257812e+00 3.041154623031616211e+00 1.205533027648925781e+00
2.250000000000000000e+03 1.711583328247070312e+01 3.418537902832031250e+01 6.571629084646701813e-03 1.091076135635375977e-01 3.470377251505851746e-02 -7.125011831521987915e-02
2.251000000000000000e+03 1.767224121093750000e+01 3.656105041503906250e+01 9.253623336553573608e-02 3.349424004554748535e-01 1.282435953617095947e-01 -9.478791803121566772e-02
2.252000000000000000e+03 1.674344825744628906e+01 6.001235008239746094e+00 -1.675929129123687744e-01 3.093698024749755859e-01 4.253306984901428223e-02 5.453680157661437988e-01
2.253000000000000000e+03 1.901322746276855469e+01 1.852175903320312500e+01 9.276019781827926636e-02 3.946011886000633240e-02 3.966609388589859009e-02 3.712020069360733032e-02
2.254000000000000000e+03 5.877529144287109375e+01 -2.232843589782714844e+01 2.166799545288085938e+00 4.800843715667724609e+00 2.090292930603027344e+00 1.216351389884948730e-01
2.255000000000000000e+03 2.613113784790039062e+01 -2.947911834716796875e+01 -4.185159504413604736e-01 1.995403885841369629e+00 4.730663597583770752e-01 1.321810483932495117e-01
2.256000000000000000e+03 6.379552459716796875e+01 -3.545791387557983398e+00 1.764241456985473633e+00 8.070741653442382812e+00 2.950495004653930664e+00 1.313566565513610840e-01
2.257000000000000000e+03 6.250769424438476562e+01 -4.277490615844726562e+00 1.718174457550048828e+00 9.523047447204589844e+00 3.372366428375244141e+00 -1.058743834495544434e+00
2.258000000000000000e+03 3.573683547973632812e+01 2.362312889099121094e+01 7.089284658432006836e-01 5.059302806854248047e+00 1.730469346046447754e+00 -1.735673308372497559e+00
2.259000000000000000e+03 3.464767837524414062e+01 2.372499084472656250e+01 6.028069257736206055e-01 5.008954048156738281e+00 1.683528304100036621e+00 -1.031865000724792480e+00
2.260000000000000000e+03 5.127047538757324219e+00 3.054660606384277344e+01 3.620327636599540710e-02 -5.870648026466369629e-01 -1.652584522962570190e-01 7.472442090511322021e-02
2.261000000000000000e+03 1.774200439453125000e+01 2.091300201416015625e+01 5.753394961357116699e-01 1.862100958824157715e-01 2.284648716449737549e-01 2.639498412609100342e-01
2.262000000000000000e+03 1.576247215270996094e+01 -1.274379158020019531e+01 -3.565329685807228088e-02 3.841651976108551025e-01 1.045535728335380554e-01 -9.770024567842483521e-02
2.263000000000000000e+03 4.561294937133789062e+01 -1.890174102783203125e+01 1.876055359840393066e+00 6.796838283538818359e+00 2.601868152618408203e+00 1.162719249725341797e+00
2.264000000000000000e+03 4.309763717651367188e+01 -1.824898719787597656e+01 1.050558090209960938e+00 2.779943704605102539e+00 1.149150490760803223e+00 8.848583698272705078e-01
2.265000000000000000e+03 5.970460891723632812e+01 -2.301953887939453125e+01 2.486466407775878906e+00 3.685940980911254883e+00 1.851722240447998047e+00 -9.642673283815383911e-02
2.266000000000000000e+03 6.430998992919921875e+01 2.647508144378662109e+00 -6.749828346073627472e-03 3.724959611892700195e+00 1.115462899208068848e+00 -1.268070638179779053e-01
2.267000000000000000e+03 4.882588958740234375e+01 -7.756723403930664062e+00 2.770730972290039062e+00 1.040936470031738281e+01 3.954028844833374023e+00 1.558019220829010010e-01
2.268000000000000000e+03 2.026366424560546875e+01 -1.483248805999755859e+01 -1.750642508268356323e-01 5.897070467472076416e-02 -3.482806682586669922e-02 -3.452836871147155762e-01
2.269000000000000000e+03 1.969018745422363281e+01 2.200064086914062500e+01 4.645407795906066895e-01 6.658163666725158691e-01 3.391071557998657227e-01 3.772709518671035767e-02
2.270000000000000000e+03 1.869123458862304688e+01 2.338685989379882812e+01 6.889153718948364258e-01 6.537277698516845703e-01 4.027929306030273438e-01 3.310066759586334229e-01
2.271000000000000000e+03 4.516654205322265625e+01 -2.379666900634765625e+01 6.836435794830322266e-01 3.831835269927978516e+00 1.354643583297729492e+00 5.478374361991882324e-01
2.272000000000000000e+03 6.127458953857421875e+01 6.634136676788330078e+00 -3.826383948326110840e-01 4.254160881042480469e+00 1.161456704139709473e+00 -1.568163752555847168e+00
2.273000000000000000e+03 5.298643875122070312e+01 6.350648999214172363e-01 1.049432829022407532e-01 5.654953002929687500e+00 1.727968811988830566e+00 2.102928876876831055e+00
2.274000000000000000e+03 6.856628417968750000e+01 5.770318984985351562e+00 2.875097095966339111e-01 1.606892704963684082e+00 5.683206915855407715e-01 2.238900661468505859e+00
2.275000000000000000e+03 5.428103637695312500e+01 -2.886363792419433594e+01 3.148176074028015137e-01 6.209504604339599609e+00 1.957296609878540039e+00 1.593463540077209473e+00
2.276000000000000000e+03 1.224992465972900391e+01 -2.866097259521484375e+01 2.755805850028991699e-01 4.055413305759429932e-01 2.043365687131881714e-01 1.559180915355682373e-01
2.277000000000000000e+03 1.034699440002441406e+01 -3.253528594970703125e+01 1.827317327260971069e-01 3.600710034370422363e-01 1.628408133983612061e-01 1.226275488734245300e-01
2.278000000000000000e+03 3.418447494506835938e+01 -3.016572570800781250e+01 1.022282149642705917e-02 1.327158063650131226e-01 4.288158565759658813e-02 -1.578286141157150269e-01
2.279000000000000000e+03 3.177573204040527344e+01 -2.897026824951171875e+01 -7.880204916000366211e-01 9.597876667976379395e-01 5.153015255928039551e-02 -5.377293229103088379e-01
2.280000000000000000e+03 3.826180267333984375e+01 4.085347747802734375e+01 -3.436865210533142090e-01 1.598701596260070801e+00 3.765045106410980225e-01 1.020337864756584167e-01
2.281000000000000000e+03 4.109732627868652344e+00 -2.181684303283691406e+01 1.537714302539825439e-01 -1.609500050544738770e-01 -2.153571229428052902e-03 -7.899685949087142944e-02
2.282000000000000000e+03 5.668716907501220703e+00 3.166938591003417969e+01 9.617090225219726562e-02 -4.179389476776123047e-01 -9.653041511774063110e-02 7.647046446800231934e-02
2.283000000000000000e+03 6.798920440673828125e+01 1.295174956321716309e+00 4.907740652561187744e-01 2.287812948226928711e+00 8.335761427879333496e-01 2.192862749099731445e+00
2.284000000000000000e+03 8.984683990478515625e+00 -2.453504562377929688e+01 1.080946475267410278e-01 8.730904012918472290e-02 5.862110853195190430e-02 -1.555391699075698853e-01
2.285000000000000000e+03 1.119271373748779297e+01 -2.692609024047851562e+01 2.195295393466949463e-01 2.153068780899047852e-01 1.304509192705154419e-01 5.149440374225378036e-03
2.286000000000000000e+03 2.960274696350097656e+01 -1.170831298828125000e+01 1.719990372657775879e-01 1.729324460029602051e+00 5.703970193862915039e-01 1.209631919860839844e+00
2.287000000000000000e+03 5.857171630859375000e+01 2.219283103942871094e+01 -1.786134600639343262e+00 7.367669939994812012e-01 -3.148102760314941406e-01 9.296073764562606812e-02
2.288000000000000000e+03 2.279964637756347656e+01 3.003769302368164062e+01 4.370859563350677490e-01 9.413155317306518555e-01 4.135204255580902100e-01 1.842301189899444580e-01
2.289000000000000000e+03 2.183627891540527344e+01 2.967422866821289062e+01 2.957252860069274902e-01 9.370137453079223633e-01 3.698216974735260010e-01 2.080573290586471558e-01
2.290000000000000000e+03 4.393564224243164062e+01 1.774233055114746094e+01 2.007175534963607788e-01 6.178050518035888672e+00 1.913630485534667969e+00 9.414277672767639160e-01
2.291000000000000000e+03 4.284432601928710938e+01 1.721781730651855469e+01 6.524708271026611328e-01 5.493419170379638672e+00 1.843767046928405762e+00 2.799116671085357666e-01
2.292000000000000000e+03 3.672851562500000000e+01 -1.431120872497558594e+01 -2.933102369308471680e+00 1.834098100662231445e+00 -3.297012448310852051e-01 -7.817559242248535156e-01
2.293000000000000000e+03 4.417215347290039062e+01 -1.611874961853027344e+01 -1.575201392173767090e+00 3.313643455505371094e+00 5.215326547622680664e-01 1.620303750038146973e+00
2.294000000000000000e+03 4.250989151000976562e+01 -1.539911842346191406e+01 -2.081395149230957031e+00 5.255296826362609863e-01 -4.667596518993377686e-01 1.217283457517623901e-01
2.295000000000000000e+03 2.258067703247070312e+01 1.692809486389160156e+01 -1.054183393716812134e-02 1.028941035270690918e+00 3.055197596549987793e-01 -2.498819530010223389e-01
2.296000000000000000e+03 4.324650192260742188e+01 6.966489315032958984e+00 -8.972226381301879883e-01 7.776391983032226562e+00 2.063750743865966797e+00 -1.229452729225158691e+00
2.297000000000000000e+03 4.330728149414062500e+01 1.135798835754394531e+01 1.558166742324829102e+00 8.711231231689453125e+00 3.080819368362426758e+00 -4.905090853571891785e-02
2.298000000000000000e+03 5.070801162719726562e+01 3.247135162353515625e+01 7.924847602844238281e-01 6.044046401977539062e+00 2.050959348678588867e+00 1.802237033843994141e-01
2.299000000000000000e+03 5.883874130249023438e+01 -1.761109352111816406e+01 1.104812264442443848e+00 6.321305751800537109e+00 2.227835416793823242e+00 -2.084931284189224243e-01
2.300000000000000000e+03 5.826890182495117188e+01 -1.971979331970214844e+01 2.339970111846923828e+00 6.515161991119384766e+00 2.656539678573608398e+00 -1.828662008047103882e-01
2.301000000000000000e+03 6.356974411010742188e+01 2.365905761718750000e+01 -4.294743537902832031e-01 6.588703632354736328e+00 1.847768783569335938e+00 2.882200956344604492e+00
2.302000000000000000e+03 6.357927322387695312e+01 2.120781135559082031e+01 -2.698699951171875000e+00 5.418615818023681641e+00 8.159747719764709473e-01 4.043464183807373047e+00
2.303000000000000000e+03 2.786380577087402344e+01 -2.671917724609375000e+01 -6.018648147583007812e-01 2.413678884506225586e+00 5.435442328453063965e-01 7.920243591070175171e-02
2.304000000000000000e+03 2.571892166137695312e+01 1.329975223541259766e+01 1.107102930545806885e-01 3.689204752445220947e-01 1.438892334699630737e-01 -1.212787702679634094e-01
2.305000000000000000e+03 2.718465995788574219e+01 9.219800949096679688e+00 2.016278803348541260e-01 4.460415244102478027e-01 1.943008303642272949e-01 -2.516653835773468018e-01
2.306000000000000000e+03 5.440332412719726562e+01 2.100185966491699219e+01 -1.545921444892883301e+00 4.490679740905761719e+00 8.834275007247924805e-01 -2.710355043411254883e+00
2.307000000000000000e+03 1.872436714172363281e+01 5.023230552673339844e+00 -4.548127055168151855e-01 1.416214108467102051e-01 -9.395738691091537476e-02 3.310732543468475342e-01
2.308000000000000000e+03 5.998830413818359375e+01 6.591333389282226562e+00 -2.055819779634475708e-01 5.678021430969238281e+00 1.641731858253479004e+00 -1.287859082221984863e+00
2.309000000000000000e+03 5.970059967041015625e+01 9.551562309265136719e+00 7.381862401962280273e-01 6.427820205688476562e+00 2.149801969528198242e+00 -7.741069048643112183e-02
2.310000000000000000e+03 3.408415603637695312e+01 2.535685920715332031e+01 1.467601060867309570e+00 5.670265674591064453e+00 2.141360044479370117e+00 -9.928813576698303223e-01
2.311000000000000000e+03 1.681887245178222656e+01 -1.573702144622802734e+01 1.327946037054061890e-01 2.391469478607177734e-01 1.115824654698371887e-01 -2.396907806396484375e-01
2.312000000000000000e+03 1.337055110931396484e+01 -2.624022102355957031e+01 2.514341771602630615e-01 2.949970960617065430e-01 1.639293730258941650e-01 1.466667950153350830e-01
2.313000000000000000e+03 1.557263278961181641e+01 -2.631100654602050781e+01 3.408321142196655273e-01 4.008562266826629639e-01 2.225065082311630249e-01 2.873611748218536377e-01
2.314000000000000000e+03 5.741958618164062500e+01 -2.352623748779296875e+01 6.497911810874938965e-01 7.179681301116943359e+00 2.348841905593872070e+00 8.981848359107971191e-01
2.315000000000000000e+03 1.026732158660888672e+01 -3.770663452148437500e+01 -1.067530289292335510e-01 3.245942592620849609e-01 6.535237282514572144e-02 1.377460956573486328e-01
2.316000000000000000e+03 1.260890483856201172e+01 -4.038052749633789062e+01 -3.570143282413482666e-01 3.010858297348022461e-01 -1.677854731678962708e-02 5.438885837793350220e-02
2.317000000000000000e+03 1.697933006286621094e+01 3.789029312133789062e+01 7.255045324563980103e-02 3.096062242984771729e-01 1.146470010280609131e-01 -5.862002074718475342e-02
2.318000000000000000e+03 1.638208198547363281e+01 3.499070358276367188e+01 4.369727522134780884e-02 8.974639326333999634e-02 4.003310203552246094e-02 -2.878015860915184021e-02
2.319000000000000000e+03 7.137248992919921875e+01 -1.603553581237792969e+01 -5.698037892580032349e-02 1.851982593536376953e+00 5.385006666183471680e-01 -1.537536382675170898e+00
2.320000000000000000e+03 1.006023883819580078e+01 1.760449600219726562e+01 6.665964722633361816e-01 3.576368689537048340e-01 3.072700202465057373e-01 3.407810628414154053e-01
2.321000000000000000e+03 3.854124069213867188e+01 2.047267913818359375e+01 -1.195875406265258789e+00 2.338547945022583008e+00 3.428018093109130859e-01 -2.317279815673828125e+00
2.322000000000000000e+03 4.604451751708984375e+01 -2.288532829284667969e+01 1.211745738983154297e+00 5.590971946716308594e+00 2.040815353393554688e+00 8.276806026697158813e-02
2.323000000000000000e+03 4.021845626831054688e+01 -2.614242935180664062e+01 5.026704668998718262e-01 5.012115955352783203e+00 1.654435992240905762e+00 1.611317157745361328e+00
2.324000000000000000e+03 4.219074630737304688e+01 1.393397617340087891e+01 2.032173156738281250e+00 6.728552341461181641e+00 2.628217697143554688e+00 -3.046874403953552246e-01
2.325000000000000000e+03 4.023497009277343750e+01 1.244700527191162109e+01 1.569260597229003906e+00 5.534554481506347656e+00 2.131144523620605469e+00 -8.942419290542602539e-01
2.326000000000000000e+03 4.704567718505859375e+01 2.431399154663085938e+01 1.624376416206359863e+00 5.964125633239746094e+00 2.276550531387329102e+00 9.256817698478698730e-01
2.327000000000000000e+03 5.116921997070312500e+01 -3.636885070800781250e+01 2.326479554176330566e-02 5.787428855895996094e+00 1.743208050727844238e+00 6.064209938049316406e-01
2.328000000000000000e+03 5.015422439575195312e+01 -3.567239379882812500e+01 3.864403963088989258e-01 5.651419162750244141e+00 1.811357855796813965e+00 5.069115161895751953e-01
2.329000000000000000e+03 6.712142181396484375e+01 2.198212242126464844e+01 -9.508542418479919434e-01 1.198981881141662598e+00 7.443828135728836060e-02 -2.577100396156311035e-01
2.330000000000000000e+03 1.820885086059570312e+01 1.928724098205566406e+01 2.145266979932785034e-01 -1.574191078543663025e-02 5.963543429970741272e-02 1.410168111324310303e-01
2.331000000000000000e+03 1.891473960876464844e+01 2.020091247558593750e+01 3.847169578075408936e-01 2.418354600667953491e-01 1.879657208919525146e-01 -1.050516124814748764e-02
2.332000000000000000e+03 7.463308715820312500e+01 -1.941510200500488281e+01 8.558815121650695801e-01 9.008722305297851562e+00 2.959381103515625000e+00 3.075284957885742188e-01
2.333000000000000000e+03 7.696598052978515625e+01 -1.816981124877929688e+01 1.151477321982383728e-01 8.391684532165527344e+00 2.552049636840820312e+00 1.163748621940612793e+00
2.334000000000000000e+03 5.229493331909179688e+01 -3.010130310058593750e+01 2.035788059234619141e+00 4.780025482177734375e+00 2.044744014739990234e+00 2.947342991828918457e-01
2.335000000000000000e+03 5.359427642822265625e+01 -3.107575035095214844e+01 2.357512950897216797e+00 5.810784816741943359e+00 2.450489282608032227e+00 7.362474799156188965e-01
2.336000000000000000e+03 6.650200653076171875e+01 3.378476715087890625e+01 -1.872365623712539673e-01 5.346159934997558594e+00 1.547677040100097656e+00 6.636368036270141602e-01
2.337000000000000000e+03 6.489196014404296875e+01 3.171033287048339844e+01 6.736927628517150879e-01 5.547709465026855469e+00 1.866420745849609375e+00 5.964156985282897949e-01
2.338000000000000000e+03 9.078954696655273438e+00 1.861991500854492188e+01 4.659220576286315918e-01 1.687183789908885956e-02 1.448381692171096802e-01 1.785815060138702393e-01
2.339000000000000000e+03 4.653028106689453125e+01 2.297391319274902344e+01 -6.042475104331970215e-01 6.327471256256103516e+00 1.716967105865478516e+00 1.496365189552307129e+00
2.340000000000000000e+03 4.453548431396484375e+01 2.099440765380859375e+01 -2.557702064514160156e+00 4.908819675445556641e+00 7.053352594375610352e-01 2.036848306655883789e+00
2.341000000000000000e+03 3.313613510131835938e+01 -3.096600723266601562e+01 2.661874890327453613e-01 3.420772254467010498e-01 1.824794113636016846e-01 -2.001864612102508545e-01
2.342000000000000000e+03 7.476364898681640625e+01 -2.716349220275878906e+01 -8.644144535064697266e-01 7.652015686035156250e+00 2.036280393600463867e+00 6.799682974815368652e-01
2.343000000000000000e+03 7.295719146728515625e+01 -2.714483070373535156e+01 -1.181391835212707520e+00 6.015218257904052734e+00 1.450147867202758789e+00 2.396200656890869141e+00
2.344000000000000000e+03 6.143780136108398438e+01 -1.593551278114318848e+00 1.192960619926452637e+00 7.936540126800537109e+00 2.738850116729736328e+00 -1.290051937103271484e+00
2.345000000000000000e+03 4.889109039306640625e+01 2.068926048278808594e+01 -8.485016226768493652e-01 1.945803403854370117e+00 3.291905522346496582e-01 6.987690329551696777e-01
2.346000000000000000e+03 4.848425674438476562e+01 -1.187502002716064453e+01 1.215827465057373047e+00 8.476449966430664062e+00 2.907683134078979492e+00 1.683682054281234741e-01
2.347000000000000000e+03 5.083092880249023438e+01 -8.914720535278320312e+00 2.846073865890502930e+00 7.747407436370849609e+00 3.178044319152832031e+00 -7.890210151672363281e-01
2.348000000000000000e+03 3.496576690673828125e+01 3.177379608154296875e+01 2.513520978391170502e-02 4.017498016357421875e+00 1.212789893150329590e+00 1.480202376842498779e-01
2.349000000000000000e+03 2.879349708557128906e+01 3.365415954589843750e+01 2.022157162427902222e-01 2.035233974456787109e+00 6.712349653244018555e-01 -6.719205975532531738e-01
2.350000000000000000e+03 5.643820762634277344e+00 3.697777557373046875e+01 3.796626254916191101e-02 -4.561250507831573486e-01 -1.254476457834243774e-01 -3.830410540103912354e-02
2.351000000000000000e+03 6.228736877441406250e+01 2.249185180664062500e+01 -2.569137096405029297e+00 6.201938152313232422e+00 1.089840292930603027e+00 3.620239257812500000e+00
2.352000000000000000e+03 1.190038681030273438e+01 4.125699996948242188e+01 1.503270305693149567e-02 7.483903318643569946e-02 2.696152031421661377e-02 3.870246559381484985e-02
2.353000000000000000e+03 5.822849273681640625e+01 1.304359912872314453e+01 1.408535599708557129e+00 8.659844398498535156e+00 3.020514011383056641e+00 1.508328557014465332e+00
2.354000000000000000e+03 5.848696899414062500e+01 1.405422210693359375e+01 1.848279714584350586e+00 8.636634826660156250e+00 3.145474433898925781e+00 1.755539178848266602e+00
2.355000000000000000e+03 7.300045013427734375e+01 9.835663795471191406e+00 1.458287358283996582e+00 9.078461647033691406e+00 3.161024808883666992e+00 4.091489315032958984e-02
2.356000000000000000e+03 6.328454208374023438e+01 -2.305678367614746094e+01 3.382602453231811523e+00 6.654944896697998047e+00 3.011264324188232422e+00 -2.324508666992187500e+00
2.357000000000000000e+03 6.285671997070312500e+01 -2.563252258300781250e+01 -1.299549460411071777e+00 4.199646472930908203e+00 8.700290918350219727e-01 -2.953767299652099609e+00
2.358000000000000000e+03 7.410344696044921875e+01 -1.231957530975341797e+01 -1.473248720169067383e+00 4.586907386779785156e+00 9.340975880622863770e-01 1.314654469490051270e+00
2.359000000000000000e+03 3.495503997802734375e+01 -3.438273239135742188e+01 9.700654745101928711e-01 1.918869972229003906e+00 8.666806221008300781e-01 1.163607358932495117e+00
2.360000000000000000e+03 4.056758499145507812e+01 -1.759824371337890625e+01 1.441872864961624146e-01 1.347971916198730469e+00 4.476477503776550293e-01 -5.675990581512451172e-01
2.361000000000000000e+03 4.357990646362304688e+01 -2.100707435607910156e+01 2.364086389541625977e+00 3.663718700408935547e+00 1.808341503143310547e+00 1.476367115974426270e+00
2.362000000000000000e+03 1.509719944000244141e+01 1.955176925659179688e+01 4.410465061664581299e-01 1.252452582120895386e-01 1.698875278234481812e-01 6.425988078117370605e-01
2.363000000000000000e+03 1.727872467041015625e+01 1.970971107482910156e+01 3.569528758525848389e-01 -8.222779631614685059e-02 8.241751790046691895e-02 2.504343986511230469e-01
2.364000000000000000e+03 5.194833374023437500e+01 3.338171005249023438e+01 4.528962075710296631e-01 5.863673686981201172e+00 1.894971013069152832e+00 2.590638697147369385e-01
2.365000000000000000e+03 4.938755798339843750e+01 3.143520164489746094e+01 8.134427666664123535e-01 5.784393310546875000e+00 1.979350805282592773e+00 8.706997334957122803e-02
2.366000000000000000e+03 7.528073883056640625e+01 7.364244461059570312e+00 1.224726215004920959e-01 7.354454517364501953e+00 2.243078231811523438e+00 -8.983724117279052734e-01
2.367000000000000000e+03 7.219052886962890625e+01 -2.815890502929687500e+01 2.003503143787384033e-01 3.971106290817260742e+00 1.251436948776245117e+00 1.817040443420410156e+00
2.368000000000000000e+03 7.025935363769531250e+01 -2.840322685241699219e+01 1.007415056228637695e+00 2.006509304046630859e+00 9.041772484779357910e-01 3.925240933895111084e-01
2.369000000000000000e+03 7.388229370117187500e+01 1.652625083923339844e+01 -2.183612883090972900e-01 8.513489723205566406e+00 2.488538503646850586e+00 8.095333576202392578e-01
2.370000000000000000e+03 7.318791198730468750e+01 1.910212898254394531e+01 -1.450400710105895996e+00 7.318931579589843750e+00 1.760559201240539551e+00 3.908739238977432251e-02
2.371000000000000000e+03 5.540675735473632812e+01 1.694719910621643066e+00 -4.831291437149047852e-01 3.279313087463378906e+00 8.388551473617553711e-01 2.065729856491088867e+00
2.372000000000000000e+03 5.657529449462890625e+01 1.892451882362365723e+00 3.151280581951141357e-01 2.511966228485107422e+00 8.481283187866210938e-01 4.489403665065765381e-01
2.373000000000000000e+03 2.699174308776855469e+01 -2.292671585083007812e+01 7.021201848983764648e-01 2.700117111206054688e+00 1.020671129226684570e+00 3.814734816551208496e-01
2.374000000000000000e+03 2.583032798767089844e+01 -2.239067268371582031e+01 8.330845236778259277e-01 1.994733810424804688e+00 8.483454585075378418e-01 3.307518959045410156e-01
2.375000000000000000e+03 4.160406589508056641e+00 -2.744435691833496094e+01 1.124798692762851715e-02 -2.262095659971237183e-01 -6.448847800493240356e-02 1.194689702242612839e-02
2.376000000000000000e+03 1.206890964508056641e+01 -1.095621490478515625e+01 -2.197470050305128098e-03 9.546607732772827148e-02 2.798058092594146729e-02 -1.004015654325485229e-01
2.377000000000000000e+03 1.473394489288330078e+01 -1.198655319213867188e+01 -2.342191711068153381e-02 2.625808715820312500e-01 7.174768298864364624e-02 -6.267936527729034424e-02
2.378000000000000000e+03 4.367649841308593750e+01 1.981185722351074219e+01 -1.710222840309143066e+00 4.276888847351074219e+00 7.699998021125793457e-01 1.600243568420410156e+00
2.379000000000000000e+03 8.078953742980957031e+00 1.582471179962158203e+01 4.823936223983764648e-01 -5.397435650229454041e-02 1.285257786512374878e-01 4.297141432762145996e-01
2.380000000000000000e+03 3.355472183227539062e+01 -9.403722763061523438e+00 1.547870397567749023e+00 1.624895572662353516e+00 9.518297910690307617e-01 2.375254631042480469e+00
2.381000000000000000e+03 2.691600227355957031e+01 -3.235564422607421875e+01 7.230963557958602905e-02 1.804849863052368164e+00 5.631478428840637207e-01 -6.167076900601387024e-02
2.382000000000000000e+03 6.434114074707031250e+01 2.563212203979492188e+01 2.557246923446655273e+00 5.745008468627929688e+00 2.490676641464233398e+00 1.467473626136779785e+00
2.383000000000000000e+03 3.309887313842773438e+01 -1.352788448333740234e+01 -1.042282462120056152e+00 8.776432871818542480e-01 -4.939173534512519836e-02 2.144884824752807617e+00
2.384000000000000000e+03 3.665768432617187500e+01 -1.162569522857666016e+01 -1.000361323356628418e+00 2.866116762161254883e+00 5.597266554832458496e-01 4.624124467372894287e-01
2.385000000000000000e+03 8.240488052368164062e+00 1.087813568115234375e+01 -3.691301047801971436e-01 -2.257588803768157959e-01 -1.784666925668716431e-01 5.092051029205322266e-01
2.386000000000000000e+03 2.523953628540039062e+01 7.296047210693359375e+00 3.548498451709747314e-01 7.286919653415679932e-02 1.283157169818878174e-01 -1.894416660070419312e-01
2.387000000000000000e+03 6.819441986083984375e+01 -3.400658798217773438e+01 1.272018194198608398e+00 6.222943782806396484e+00 2.248488664627075195e+00 -1.788877487182617188e+00
2.388000000000000000e+03 6.964634704589843750e+01 -2.951671409606933594e+01 1.923893451690673828e+00 3.093255519866943359e+00 1.505144715309143066e+00 -7.304125428199768066e-01
2.389000000000000000e+03 2.299050521850585938e+01 1.390515327453613281e+01 -3.683199360966682434e-02 5.840516686439514160e-01 1.641658991575241089e-01 2.267003990709781647e-03
2.390000000000000000e+03 5.006822204589843750e+01 -6.594307422637939453e+00 2.549617290496826172e+00 8.979393959045410156e+00 3.458703279495239258e+00 -1.845366209745407104e-01
2.391000000000000000e+03 5.528277969360351562e+01 -3.625801467895507812e+01 1.842145919799804688e-01 7.621735095977783203e+00 2.341784954071044922e+00 -4.940404891967773438e-01
2.392000000000000000e+03 5.030375289916992188e+01 -3.744334793090820312e+01 -1.086132764816284180e+00 5.378050804138183594e+00 1.287575483322143555e+00 8.152906894683837891e-01
2.393000000000000000e+03 7.311907768249511719e+00 -1.286810207366943359e+01 -9.826875478029251099e-02 -1.532944291830062866e-01 -7.546895742416381836e-02 -1.143267452716827393e-01
2.394000000000000000e+03 6.562671661376953125e+01 -2.034905672073364258e+00 1.293291091918945312e+00 5.853329658508300781e+00 2.143986225128173828e+00 1.552882671356201172e+00
2.395000000000000000e+03 3.772407913208007812e+01 -3.830863237380981445e+00 2.349858045578002930e+00 6.153706550598144531e+00 2.551069259643554688e+00 3.103183984756469727e+00
2.396000000000000000e+03 6.357479095458984375e+01 -1.267849063873291016e+01 -1.142024755477905273e+00 6.593262672424316406e+00 1.635371327400207520e+00 7.189639806747436523e-01
2.397000000000000000e+03 6.097560119628906250e+01 -1.046210002899169922e+01 -1.012747764587402344e+00 6.878822326660156250e+00 1.759822249412536621e+00 1.404296159744262695e+00
2.398000000000000000e+03 3.226395416259765625e+01 3.530506896972656250e+01 -6.040340065956115723e-01 2.830482959747314453e+00 6.679346561431884766e-01 -3.534039258956909180e-01
2.399000000000000000e+03 5.274499893188476562e+01 4.727610111236572266e+00 -2.397974431514739990e-01 4.190167427062988281e+00 1.185110926628112793e+00 3.715945959091186523e+00
2.400000000000000000e+03 6.387300491333007812e+01 -4.072956466674804688e+01 -1.370533704757690430e+00 1.192189335823059082e+00 -5.350329726934432983e-02 1.985034495592117310e-01
2.401000000000000000e+03 6.986031341552734375e+01 2.233863639831542969e+01 -1.067672610282897949e+00 3.643374919891357422e+00 7.727106809616088867e-01 -1.347918152809143066e+00
2.402000000000000000e+03 1.538543796539306641e+01 5.740493774414062500e+00 -4.794709086418151855e-01 8.566742390394210815e-02 -1.181410402059555054e-01 6.885541677474975586e-01
2.403000000000000000e+03 5.126182174682617188e+01 -6.506278991699218750e+00 2.523051977157592773e+00 8.749332427978515625e+00 3.381715297698974609e+00 -2.654677927494049072e-01
2.404000000000000000e+03 5.071528625488281250e+01 -4.689402103424072266e+00 1.839161872863769531e+00 9.145079612731933594e+00 3.295272350311279297e+00 -7.167220115661621094e-01
2.405000000000000000e+03 5.185997009277343750e+01 -2.679028129577636719e+01 -5.309072732925415039e-01 1.763017416000366211e+00 3.696330487728118896e-01 6.303176879882812500e-01
2.406000000000000000e+03 5.411006164550781250e+01 -2.683016967773437500e+01 -1.629596829414367676e+00 6.140026092529296875e+00 1.353128790855407715e+00 2.651643514633178711e+00
2.407000000000000000e+03 1.861755371093750000e+01 -1.942621421813964844e+01 3.123371005058288574e-01 4.913102462887763977e-02 1.084404364228248596e-01 -1.264133304357528687e-01
2.408000000000000000e+03 7.091674041748046875e+01 2.314326477050781250e+01 -4.286479651927947998e-01 4.581299304962158203e+00 1.245795369148254395e+00 -1.283830642700195312e+00
2.409000000000000000e+03 4.971051788330078125e+01 -1.445735645294189453e+01 -2.024742126464843750e+00 3.960088491439819336e+00 5.806038975715637207e-01 8.130875229835510254e-01
2.410000000000000000e+03 4.667870712280273438e+01 -3.800838708877563477e+00 1.459305882453918457e-01 6.458189487457275391e+00 1.981235980987548828e+00 -3.171605110168457031e+00
2.411000000000000000e+03 5.487427902221679688e+01 6.161319732666015625e+00 5.322757363319396973e-01 7.916256427764892578e+00 2.534559726715087891e+00 1.166817069053649902e+00
2.412000000000000000e+03 1.557728481292724609e+01 -1.372208690643310547e+01 -1.590093411505222321e-02 3.078889250755310059e-01 8.759640157222747803e-02 -8.166030049324035645e-02
2.413000000000000000e+03 5.952816390991210938e+01 1.518455886840820312e+01 1.943967342376708984e+00 9.372570991516113281e+00 3.394961595535278320e+00 2.049062728881835938e+00
2.414000000000000000e+03 6.355401229858398438e+01 -2.172685050964355469e+01 3.253500699996948242e+00 7.926709651947021484e+00 3.354063034057617188e+00 -2.872077465057373047e+00
2.415000000000000000e+03 5.672988128662109375e+01 -1.290503215789794922e+01 7.483699824661016464e-03 4.302113533020019531e+00 1.292879223823547363e+00 -2.026187896728515625e+00
2.416000000000000000e+03 5.322631454467773438e+01 4.103389739990234375e+01 -1.383049249649047852e+00 3.964736700057983398e+00 7.745062708854675293e-01 1.792099922895431519e-01
2.417000000000000000e+03 2.132339096069335938e+01 -2.472812080383300781e+01 3.510906994342803955e-01 3.115472849458456039e-03 1.062618568539619446e-01 2.598595619201660156e-01
2.418000000000000000e+03 6.534703063964843750e+01 3.308566284179687500e+01 -4.453394934535026550e-02 5.338980674743652344e+00 1.588334083557128906e+00 6.630825400352478027e-01
2.419000000000000000e+03 6.662354278564453125e+01 3.567040634155273438e+01 -5.479361414909362793e-01 5.130136966705322266e+00 1.374660253524780273e+00 3.614780306816101074e-01
2.420000000000000000e+03 5.586809539794921875e+01 -1.219089889526367188e+01 3.867985010147094727e-01 3.712779760360717773e+00 1.229873538017272949e+00 -2.611247301101684570e+00
2.421000000000000000e+03 5.154787063598632812e+01 -2.872265625000000000e+01 9.417590498924255371e-01 3.790840864181518555e+00 1.419780015945434570e+00 -1.609768271446228027e-01
2.422000000000000000e+03 3.744889831542968750e+01 -3.431096267700195312e+01 8.969477415084838867e-01 3.167264223098754883e+00 1.219263672828674316e+00 1.386237502098083496e+00
2.423000000000000000e+03 3.696457672119140625e+01 -3.774983215332031250e+01 -9.322290420532226562e-01 2.927788734436035156e+00 5.986679196357727051e-01 7.403854727745056152e-01
2.424000000000000000e+03 6.789264678955078125e+01 -2.710710525512695312e+01 -8.989757299423217773e-01 4.236876964569091797e+00 1.001370429992675781e+00 -2.353367328643798828e+00
2.425000000000000000e+03 4.927273178100585938e+01 4.914408206939697266e+00 -6.497638225555419922e-01 3.606494665145874023e-01 -8.673429489135742188e-02 2.115904092788696289e-01
2.426000000000000000e+03 4.954421234130859375e+01 3.447058200836181641e+00 7.249326109886169434e-01 1.903526663780212402e+00 7.885378003120422363e-01 3.435322344303131104e-01
2.427000000000000000e+03 6.362661743164062500e+01 -8.129861831665039062e+00 1.850251793861389160e+00 8.614754676818847656e+00 3.139501810073852539e+00 -9.854679554700851440e-02
2.428000000000000000e+03 6.318830490112304688e+01 -9.491346359252929688e+00 6.518657207489013672e-01 8.135900497436523438e+00 2.636329889297485352e+00 3.209381103515625000e-01
2.429000000000000000e+03 8.001656532287597656e+00 2.048174667358398438e+01 1.760400533676147461e-01 -1.669492721557617188e-01 2.727233804762363434e-03 7.403060793876647949e-02
2.430000000000000000e+03 2.084288787841796875e+01 3.066461563110351562e+01 1.433156281709671021e-01 7.799860835075378418e-01 2.769905030727386475e-01 -1.906374655663967133e-02
2.431000000000000000e+03 2.296154594421386719e+01 2.885870742797851562e+01 4.906932413578033447e-01 1.022203207015991211e+00 4.538689553737640381e-01 3.513118922710418701e-01
2.432000000000000000e+03 8.214846611022949219e+00 8.408229827880859375e+00 -5.460700988769531250e-01 -2.932845354080200195e-01 -2.518063783645629883e-01 3.301501572132110596e-01
2.433000000000000000e+03 5.845206451416015625e+01 1.017313385009765625e+01 1.391404628753662109e+00 8.040859222412109375e+00 2.829679012298583984e+00 8.331894874572753906e-01
2.434000000000000000e+03 2.865797805786132812e+01 1.371404266357421875e+01 2.017175704240798950e-01 2.041253596544265747e-01 1.217528805136680603e-01 1.289223730564117432e-01
2.435000000000000000e+03 4.202792644500732422e+00 2.696818161010742188e+01 -9.558165073394775391e-02 -7.469139099121093750e-01 -2.527486681938171387e-01 1.004545465111732483e-01
2.436000000000000000e+03 5.854630279541015625e+01 -2.505612564086914062e+01 -5.152836441993713379e-01 5.007078170776367188e+00 1.347538352012634277e+00 1.763241887092590332e+00
2.437000000000000000e+03 5.634857559204101562e+01 -2.453224182128906250e+01 -1.108245253562927246e+00 8.750755310058593750e+00 2.292752981185913086e+00 1.239342689514160156e+00
2.438000000000000000e+03 2.357375907897949219e+01 -2.350939941406250000e+01 5.681135654449462891e-01 8.158136010169982910e-01 4.151781499385833740e-01 2.421487271785736084e-01
2.439000000000000000e+03 2.325779342651367188e+01 -1.594970703125000000e+01 7.409738004207611084e-02 6.319341808557510376e-02 4.118723794817924500e-02 -2.005431503057479858e-01
2.440000000000000000e+03 6.504541015625000000e+01 -1.587102985382080078e+01 -2.146820783615112305e+00 5.089268207550048828e+00 8.827342391014099121e-01 6.377393007278442383e-01
2.441000000000000000e+03 6.181446456909179688e+01 -1.846382141113281250e+01 9.717742800712585449e-01 6.480701446533203125e+00 2.235742568969726562e+00 -1.127966880798339844e+00
2.442000000000000000e+03 5.110836791992187500e+01 -2.792667579650878906e+01 -7.731445133686065674e-02 3.310921669006347656e+00 9.700821638107299805e-01 -1.847788840532302856e-01
2.443000000000000000e+03 3.327294921875000000e+01 1.447619819641113281e+01 5.872414112091064453e-01 8.406796455383300781e-01 4.283763170242309570e-01 -6.894481182098388672e-01
2.444000000000000000e+03 3.119901847839355469e+01 -1.246497249603271484e+01 -3.373213410377502441e-01 1.738590002059936523e+00 4.203805923461914062e-01 1.866088390350341797e+00
2.445000000000000000e+03 6.711963653564453125e+01 -2.891365814208984375e+01 1.640761017799377441e+00 6.851595401763916016e+00 2.547707080841064453e+00 -1.969518423080444336e+00
2.446000000000000000e+03 3.130838012695312500e+01 -3.077695083618164062e+01 -1.108131930232048035e-01 1.009266972541809082e+00 2.695361077785491943e-01 -3.920465409755706787e-01
2.447000000000000000e+03 3.577027130126953125e+01 -3.206328964233398438e+01 1.361541986465454102e+00 1.867858290672302246e+00 9.688200950622558594e-01 9.260796904563903809e-01
2.448000000000000000e+03 1.582293415069580078e+01 -7.343937873840332031e+00 6.787238270044326782e-02 2.269419431686401367e-01 8.844429254531860352e-02 -3.257481008768081665e-02
2.449000000000000000e+03 2.473328399658203125e+01 3.277377319335937500e+01 3.724865019321441650e-01 1.208042979240417480e+00 4.741588532924652100e-01 -3.017669320106506348e-01
2.450000000000000000e+03 5.546464920043945312e+01 -2.566325950622558594e+01 -3.582483768463134766e+00 7.745829582214355469e+00 1.249003767967224121e+00 1.950564861297607422e+00
2.451000000000000000e+03 5.529782485961914062e+01 -1.622664260864257812e+01 -1.553776383399963379e+00 6.951879024505615234e+00 1.619430780410766602e+00 -1.420452475547790527e+00
2.452000000000000000e+03 5.630342864990234375e+01 -2.341424942016601562e+01 3.939737379550933838e-01 8.112951278686523438e+00 2.552077531814575195e+00 2.626553475856781006e-01
2.453000000000000000e+03 3.713261413574218750e+01 1.807712936401367188e+01 2.459692358970642090e-01 2.787040710449218750e+00 9.099029898643493652e-01 -2.380981206893920898e+00
2.454000000000000000e+03 8.572478294372558594e+00 -1.207968044281005859e+01 -7.974539697170257568e-02 -1.434014290571212769e-01 -6.694404780864715576e-02 -9.549131244421005249e-02
2.455000000000000000e+03 4.380654335021972656e+00 -1.326353263854980469e+01 -5.686883255839347839e-02 -1.938319653272628784e-01 -7.521024346351623535e-02 -7.550615817308425903e-02
2.456000000000000000e+03 3.231054687500000000e+01 -3.902285385131835938e+01 -4.250270426273345947e-01 2.128029108047485352e+00 5.109006166458129883e-01 3.360096514225006104e-01
2.457000000000000000e+03 5.600279998779296875e+01 -1.369847297668457031e+01 -4.194038510322570801e-01 4.952150344848632812e+00 1.359823942184448242e+00 -2.596837520599365234e+00
2.458000000000000000e+03 6.502589416503906250e+01 5.066123485565185547e+00 9.599642455577850342e-02 1.541927695274353027e+00 4.913772344589233398e-01 -1.243979781866073608e-01
2.459000000000000000e+03 6.309411239624023438e+01 2.844952106475830078e+00 -4.714105427265167236e-01 4.413147449493408203e+00 1.182520985603332520e+00 -8.795837163925170898e-01
2.460000000000000000e+03 5.870167160034179688e+01 2.103702354431152344e+01 -5.173224210739135742e-01 3.187472343444824219e+00 8.010449409484863281e-01 2.531129419803619385e-01
2.461000000000000000e+03 5.871461105346679688e+01 1.859248352050781250e+01 1.265280365943908691e+00 5.883110523223876953e+00 2.144517183303833008e+00 4.244336485862731934e-01
2.462000000000000000e+03 5.633144760131835938e+01 2.186299133300781250e+01 -2.340859889984130859e+00 3.013274669647216797e+00 2.017243951559066772e-01 -2.658102512359619141e+00
2.463000000000000000e+03 7.522745513916015625e+01 -1.128426742553710938e+01 -1.985688090324401855e+00 8.325508117675781250e+00 1.901945948600769043e+00 4.291083514690399170e-01
2.464000000000000000e+03 7.617711639404296875e+01 -1.224321365356445312e+01 -1.337850928306579590e+00 8.407024383544921875e+00 2.120752096176147461e+00 6.608145311474800110e-03
2.465000000000000000e+03 6.881123352050781250e+01 -3.540682983398437500e+01 2.617999613285064697e-01 6.236454010009765625e+00 1.949476242065429688e+00 -1.674163341522216797e+00
2.466000000000000000e+03 6.997311401367187500e+01 -3.266685104370117188e+01 1.870873332023620605e+00 5.129676342010498047e+00 2.100164890289306641e+00 -1.601755142211914062e+00
2.467000000000000000e+03 4.988191223144531250e+01 -1.534397220611572266e+01 -2.962769985198974609e+00 2.034434318542480469e+00 -2.785007059574127197e-01 1.334448814392089844e+00
2.468000000000000000e+03 5.185319137573242188e+01 -1.449615287780761719e+01 -1.571091532707214355e+00 1.804045319557189941e+00 6.988615542650222778e-02 -2.914571523666381836e+00
2.469000000000000000e+03 6.631150817871093750e+01 6.710273027420043945e-01 4.425083100795745850e-01 3.492432594299316406e+00 1.180482268333435059e+00 1.673868656158447266e+00
2.470000000000000000e+03 4.303625106811523438e+01 2.051408529281616211e+00 1.670619249343872070e+00 1.081039333343505859e+01 3.744303703308105469e+00 8.083907365798950195e-01
2.471000000000000000e+03 4.331470108032226562e+01 -1.146594643592834473e+00 4.875566005706787109e+00 6.252793312072753906e+00 3.338507652282714844e+00 -3.054083347320556641e+00
2.472000000000000000e+03 4.353964233398437500e+01 4.664652645587921143e-01 8.204192161560058594e+00 6.788634777069091797e+00 4.497848033905029297e+00 -1.824237555265426636e-01
2.473000000000000000e+03 4.344013977050781250e+01 -7.377697229385375977e-01 6.420265674591064453e+00 6.311478137969970703e+00 3.819523096084594727e+00 -3.142621755599975586e+00
2.474000000000000000e+03 4.458706665039062500e+01 -1.704221129417419434e+00 3.015850067138671875e+00 4.524496078491210938e+00 2.262103796005249023e+00 -4.004374027252197266e+00
2.475000000000000000e+03 4.342937469482421875e+01 1.127241849899291992e+00 6.024258613586425781e+00 8.544345855712890625e+00 4.370581626892089844e+00 1.245571255683898926e+00
2.476000000000000000e+03 4.520978927612304688e+01 5.627634048461914062e+00 -1.292566895484924316e+00 6.556460857391357422e+00 1.579168081283569336e+00 -1.394740819931030273e+00
2.477000000000000000e+03 4.349131011962890625e+01 9.096678495407104492e-01 6.934830188751220703e+00 7.820060729980468750e+00 4.426467418670654297e+00 7.889481782913208008e-01
2.478000000000000000e+03 4.380366134643554688e+01 -3.166001558303833008e+00 -1.570904493331909180e+00 3.169975996017456055e+00 4.797214567661285400e-01 -2.779651165008544922e+00
2.479000000000000000e+03 4.069602203369140625e+01 2.975588798522949219e+00 -1.045438766479492188e+00 6.223278999328613281e+00 1.553352117538452148e+00 -3.169648885726928711e+00
2.480000000000000000e+03 4.019833755493164062e+01 3.451511144638061523e+00 -1.042753458023071289e+00 4.666529655456542969e+00 1.087132930755615234e+00 -2.559769630432128906e+00
2.481000000000000000e+03 3.983824157714843750e+01 2.970896005630493164e+00 -8.074728250503540039e-01 3.112315654754638672e+00 6.914528012275695801e-01 -2.198481798171997070e+00
2.482000000000000000e+03 3.873645019531250000e+01 -2.331969499588012695e+00 7.894293069839477539e-01 3.820261716842651367e+00 1.382907271385192871e+00 4.726812362670898438e+00
2.483000000000000000e+03 4.016061019897460938e+01 -1.327452301979064941e+00 3.384684085845947266e+00 2.986870050430297852e+00 1.911466240882873535e+00 6.217920303344726562e+00
2.484000000000000000e+03 4.217657089233398438e+01 2.734856367111206055e+00 -1.009115695953369141e+00 1.064263820648193359e+01 2.890056610107421875e+00 -1.748757719993591309e+00
2.485000000000000000e+03 4.175180053710937500e+01 -1.814112782478332520e+00 1.745480418205261230e+00 5.528996944427490234e+00 2.182343244552612305e+00 3.274821281433105469e+00
2.486000000000000000e+03 4.127986145019531250e+01 -2.334557533264160156e+00 -7.577197998762130737e-02 2.970106124877929688e+00 8.683002591133117676e-01 4.963195323944091797e+00
2.487000000000000000e+03 4.146414947509765625e+01 -1.302393555641174316e+00 3.099467039108276367e+00 7.787024497985839844e+00 3.265947580337524414e+00 5.254345893859863281e+00
2.488000000000000000e+03 4.228658676147460938e+01 -1.777223587036132812e+00 1.944509148597717285e+00 6.497132778167724609e+00 2.532492637634277344e+00 3.516185879707336426e-01
2.489000000000000000e+03 4.393878555297851562e+01 -2.302135944366455078e+00 1.359007477760314941e+00 4.265213012695312500e+00 1.687266111373901367e+00 -3.595583677291870117e+00
2.490000000000000000e+03 1.037595081329345703e+01 3.967310428619384766e+00 -2.986532747745513916e-01 -1.858598738908767700e-01 -1.453539431095123291e-01 1.555812358856201172e-01
2.491000000000000000e+03 1.115961074829101562e+01 4.098458766937255859e+00 -3.670810163021087646e-01 -2.025793194770812988e-01 -1.708980947732925415e-01 2.364676743745803833e-01
2.492000000000000000e+03 1.172441768646240234e+01 5.933470726013183594e+00 -6.459046006202697754e-01 -4.780365526676177979e-01 -3.371823430061340332e-01 3.873659968376159668e-01
2.493000000000000000e+03 1.452529430389404297e+01 -2.473762989044189453e+00 -1.195106431841850281e-01 -1.521963626146316528e-01 -8.151210099458694458e-02 -2.072390615940093994e-01
2.494000000000000000e+03 1.240626049041748047e+01 -2.993717193603515625e+00 -7.575732469558715820e-02 5.065052956342697144e-02 -7.532039191573858261e-03 -1.230352073907852173e-01
2.495000000000000000e+03 3.466622924804687500e+01 -3.882423877716064453e+00 1.501853585243225098e+00 1.127725243568420410e+00 7.888736128807067871e-01 3.178064525127410889e-01
2.496000000000000000e+03 3.699958801269531250e+01 -3.544597387313842773e+00 1.984215974807739258e+00 4.240789890289306641e+00 1.867501735687255859e+00 1.886428475379943848e+00
2.497000000000000000e+03 3.708969497680664062e+01 -2.854037046432495117e+00 1.095183372497558594e+00 3.796757459640502930e+00 1.467582225799560547e+00 1.811404109001159668e+00
2.498000000000000000e+03 3.786947631835937500e+01 -2.957134723663330078e+00 1.474201917648315430e+00 4.353366851806640625e+00 1.748270630836486816e+00 3.123874425888061523e+00
2.499000000000000000e+03 2.214831924438476562e+01 4.353425979614257812e+00 -6.079467535018920898e-01 -1.428990513086318970e-01 -2.252537459135055542e-01 1.293210834264755249e-01
2.500000000000000000e+03 1.973974800109863281e+01 6.082860469818115234e+00 -6.892389804124832153e-02 1.243211403489112854e-01 1.661917194724082947e-02 1.968427896499633789e-01
2.501000000000000000e+03 4.036052703857421875e+01 -3.014644384384155273e+00 5.896316766738891602e-01 4.092403411865234375e+00 1.404610514640808105e+00 6.280077934265136719e+00
2.502000000000000000e+03 7.749413490295410156e+00 -5.360924720764160156e+00 -1.392377424053847790e-03 -4.072275385260581970e-02 -1.263453997671604156e-02 -8.953544497489929199e-02
2.503000000000000000e+03 6.074765205383300781e+00 -5.355409622192382812e+00 1.259006466716527939e-02 -7.899093627929687500e-02 -1.992026157677173615e-02 -7.154107093811035156e-02
2.504000000000000000e+03 4.986092090606689453e+00 -4.167342185974121094e+00 -1.772248558700084686e-02 -8.311212062835693359e-02 -3.025038167834281921e-02 -7.091964036226272583e-02
2.505000000000000000e+03 6.081063270568847656e+00 -4.630037784576416016e+00 -2.512027323246002197e-02 -9.223573654890060425e-02 -3.520680218935012817e-02 -8.438577502965927124e-02
2.506000000000000000e+03 3.944661378860473633e+00 -4.431177616119384766e+00 -1.066355593502521515e-02 -2.810565009713172913e-02 -1.163076236844062805e-02 -4.109425842761993408e-02
2.507000000000000000e+03 3.882826089859008789e+00 -5.825247764587402344e+00 -5.328335799276828766e-03 -7.688044011592864990e-02 -2.466263249516487122e-02 -6.346635520458221436e-02
2.508000000000000000e+03 3.543984222412109375e+01 -5.451177597045898438e+00 3.184180498123168945e+00 3.170396804809570312e+00 1.906373143196105957e+00 1.293383240699768066e+00
2.509000000000000000e+03 2.293677520751953125e+01 4.073251724243164062e+00 -6.400147676467895508e-01 -1.471898853778839111e-01 -2.361613959074020386e-01 1.287268698215484619e-01
2.510000000000000000e+03 2.369344329833984375e+01 3.855684518814086914e+00 -6.345480680465698242e-01 -1.486054807901382446e-01 -2.349460721015930176e-01 1.625233441591262817e-01
2.511000000000000000e+03 2.541876411437988281e+01 4.239351272583007812e+00 -2.710351049900054932e-01 -4.824396595358848572e-02 -9.578372538089752197e-02 7.117777317762374878e-02
2.512000000000000000e+03 2.390874099731445312e+01 4.652041435241699219e+00 -3.361816704273223877e-01 -1.175676509737968445e-01 -1.361248046159744263e-01 4.505722969770431519e-02
2.513000000000000000e+03 2.318216896057128906e+01 4.858916759490966797e+00 -3.490390777587890625e-01 -1.393717974424362183e-01 -1.465232670307159424e-01 6.004768610000610352e-02
2.514000000000000000e+03 2.821997070312500000e+01 2.680127859115600586e+00 -5.610330104827880859e-01 2.735863327980041504e-01 -8.623400330543518066e-02 1.608419418334960938e-01
2.515000000000000000e+03 2.977264404296875000e+01 2.773180007934570312e+00 -3.534719645977020264e-01 5.391944050788879395e-01 5.571673065423965454e-02 -9.595016390085220337e-02
2.516000000000000000e+03 2.689673995971679688e+01 3.818799495697021484e+00 -1.855571269989013672e-01 1.706613600254058838e-01 -4.468729719519615173e-03 8.670224994421005249e-02
2.517000000000000000e+03 2.765328216552734375e+01 3.673743724822998047e+00 -2.323508858680725098e-01 3.150714933872222900e-01 2.481618709862232208e-02 9.458990395069122314e-02
2.518000000000000000e+03 2.706876754760742188e+01 5.441292762756347656e+00 3.279854357242584229e-01 2.697911262512207031e-01 1.793329715728759766e-01 -1.947806328535079956e-01
2.519000000000000000e+03 1.420745658874511719e+01 5.210476398468017578e+00 -5.847817659378051758e-01 -2.513281404972076416e-01 -2.508329749107360840e-01 7.186940312385559082e-01
2.520000000000000000e+03 3.807247161865234375e+01 -2.192675352096557617e+00 5.031728148460388184e-01 3.694557428359985352e+00 1.259319067001342773e+00 3.198360681533813477e+00
2.521000000000000000e+03 1.255778312683105469e+01 -3.753043651580810547e+00 -4.094955325126647949e-02 -1.366124898195266724e-01 -5.326861515641212463e-02 -1.335799843072891235e-01
2.522000000000000000e+03 1.270838356018066406e+01 -4.494947433471679688e+00 2.366369008086621761e-04 7.272481918334960938e-02 2.188843674957752228e-02 -7.762793451547622681e-02
2.523000000000000000e+03 1.355285739898681641e+01 -4.355282306671142578e+00 1.625817269086837769e-02 -1.049422174692153931e-01 -2.660521306097507477e-02 -1.080271378159523010e-01
2.524000000000000000e+03 6.928973197937011719e+00 4.793516159057617188e+00 -2.474303841590881348e-01 -7.290590554475784302e-02 -9.610088169574737549e-02 3.344992548227310181e-02
2.525000000000000000e+03 5.486948966979980469e+00 4.862902641296386719e+00 -1.745554506778717041e-01 -3.864191100001335144e-02 -6.395921111106872559e-02 1.997659541666507721e-02
2.526000000000000000e+03 4.165555477142333984e+00 9.088498115539550781e+00 -1.616940498352050781e-01 -1.308069676160812378e-01 -8.775030076503753662e-02 2.767409384250640869e-01
2.527000000000000000e+03 3.595980405807495117e+00 4.793484210968017578e+00 -8.518733084201812744e-02 -3.164974739775061607e-03 -2.650569193065166473e-02 -9.526322595775127411e-03
2.528000000000000000e+03 4.662960052490234375e+00 3.490936994552612305e+00 -6.482626497745513916e-02 -1.165344007313251495e-02 -2.294391021132469177e-02 -3.916446119546890259e-02
2.529000000000000000e+03 3.794038057327270508e+00 5.570426940917968750e+00 -1.172108873724937439e-01 -2.321399748325347900e-02 -4.212746396660804749e-02 3.797674924135208130e-02
2.530000000000000000e+03 2.386475086212158203e+00 4.448893547058105469e+00 -3.877103328704833984e-02 2.188914828002452850e-02 -5.064565688371658325e-03 -2.266222611069679260e-02
2.531000000000000000e+03 3.944062423706054688e+01 -1.628555178642272949e+00 1.894436001777648926e+00 2.731021642684936523e+00 1.387637376785278320e+00 5.283136367797851562e+00
2.532000000000000000e+03 9.996789932250976562e+00 4.761422157287597656e+00 -3.843779265880584717e-01 -2.013535797595977783e-01 -1.757194548845291138e-01 1.573407351970672607e-01
2.533000000000000000e+03 8.642662048339843750e+00 5.258861541748046875e+00 -3.670300841331481934e-01 -1.662514060735702515e-01 -1.599844545125961304e-01 1.157617866992950439e-01
2.534000000000000000e+03 3.455950164794921875e+01 -6.100184440612792969e+00 2.858825206756591797e+00 2.099639654159545898e+00 1.487539529800415039e+00 1.437832236289978027e+00
2.535000000000000000e+03 3.239044570922851562e+01 -5.511397838592529297e+00 1.391957521438598633e+00 2.202042192220687866e-02 4.241933822631835938e-01 3.164125680923461914e-01
2.536000000000000000e+03 9.251814842224121094e+00 -4.206518650054931641e+00 -3.060991130769252777e-02 -1.289054155349731445e-01 -4.785459861159324646e-02 -1.405899822711944580e-01
2.537000000000000000e+03 1.007853507995605469e+01 -4.113106250762939453e+00 -3.983096405863761902e-02 9.802298154681921005e-04 -1.165522076189517975e-02 -1.231830120086669922e-01
2.538000000000000000e+03 1.091224670410156250e+01 -4.012545585632324219e+00 -3.946826606988906860e-02 -1.345462352037429810e-01 -5.220435187220573425e-02 -1.455763876438140869e-01
2.539000000000000000e+03 4.500166320800781250e+01 6.975461959838867188e+00 -1.344586849212646484e+00 6.953139781951904297e+00 1.682565927505493164e+00 -1.065474152565002441e+00
2.540000000000000000e+03 4.156243133544921875e+01 6.706046581268310547e+00 -1.896515786647796631e-01 7.633553981781005859e+00 2.233170747756958008e+00 -1.640547513961791992e+00
2.541000000000000000e+03 3.853904342651367188e+01 -1.692238330841064453e+00 1.420062184333801270e+00 2.411770582199096680e+00 1.149549841880798340e+00 3.881043672561645508e+00
2.542000000000000000e+03 3.114301681518554688e+01 -5.095678329467773438e+00 6.768751740455627441e-01 -5.550549030303955078e-01 3.654608130455017090e-02 -1.469685137271881104e-01
2.543000000000000000e+03 1.873663520812988281e+01 5.908125877380371094e+00 -1.553479433059692383e-01 2.245032042264938354e-01 2.074658125638961792e-02 3.229902386665344238e-01
2.544000000000000000e+03 4.199111175537109375e+01 -1.649493098258972168e+00 1.945677518844604492e+00 6.318078517913818359e+00 2.479126930236816406e+00 1.649778485298156738e+00
2.545000000000000000e+03 4.046427917480468750e+01 -2.428629398345947266e+00 3.028039634227752686e-01 4.468465805053710938e+00 1.431380867958068848e+00 6.375142097473144531e+00
2.546000000000000000e+03 1.215984153747558594e+01 6.736551284790039062e+00 -9.834719896316528320e-01 -5.493562817573547363e-01 -4.598484933376312256e-01 5.066977143287658691e-01
2.547000000000000000e+03 2.794731330871582031e+01 5.532094955444335938e+00 3.778224587440490723e-01 6.200978159904479980e-01 2.993760704994201660e-01 -2.133574187755584717e-01
2.548000000000000000e+03 2.633757400512695312e+01 5.273482799530029297e+00 1.186418533325195312e-01 1.021794751286506653e-01 6.624639779329299927e-02 -8.704739063978195190e-02
2.549000000000000000e+03 4.892888641357421875e+01 -1.336974239349365234e+01 -1.159786105155944824e+00 6.230552196502685547e+00 1.521229863166809082e+00 7.393188476562500000e-01
2.550000000000000000e+03 4.868567276000976562e+01 -1.434769439697265625e+01 -2.587000370025634766e+00 6.050249099731445312e+00 1.038974642753601074e+00 1.515937447547912598e+00
2.551000000000000000e+03 6.205703353881835938e+01 -2.899534225463867188e+00 2.034958600997924805e+00 8.492671012878417969e+00 3.158288717269897461e+00 -1.190942525863647461e+00
2.552000000000000000e+03 4.249046707153320312e+01 -2.283354187011718750e+01 1.738514780998229980e+00 3.139900684356689453e+00 1.463524699211120605e+00 1.882123708724975586e+00
2.553000000000000000e+03 3.419749832153320312e+01 -1.301634883880615234e+01 -1.108291983604431152e+00 7.524449825286865234e-01 -1.067541018128395081e-01 1.524780511856079102e+00
2.554000000000000000e+03 3.982679367065429688e+01 9.468841552734375000e+00 1.093156099319458008e+00 6.803732395172119141e+00 2.369066476821899414e+00 -1.009082913398742676e+00
2.555000000000000000e+03 4.164246749877929688e+01 8.866344451904296875e+00 7.879140973091125488e-01 7.548886299133300781e+00 2.501040220260620117e+00 -4.501748383045196533e-01
2.556000000000000000e+03 5.054581832885742188e+01 2.730508613586425781e+01 1.920365214347839355e+00 5.876414299011230469e+00 2.339033842086791992e+00 3.588316738605499268e-01
2.557000000000000000e+03 4.086751937866210938e+01 -1.499562454223632812e+01 -2.713120460510253906e+00 6.842799782752990723e-01 -6.086521744728088379e-01 -8.600286245346069336e-01
2.558000000000000000e+03 5.104597091674804688e+01 2.101650619506835938e+01 -9.983260631561279297e-01 3.256366014480590820e+00 6.774119734764099121e-01 -1.435261249542236328e+00
2.559000000000000000e+03 6.189944839477539062e+01 2.207251340150833130e-01 -3.070985972881317139e-01 6.513581275939941406e+00 1.861944794654846191e+00 -1.078967690467834473e+00
2.560000000000000000e+03 6.454376983642578125e+01 -1.280563116073608398e+00 7.277867197990417480e-01 6.221650123596191406e+00 2.084830999374389648e+00 8.603797554969787598e-01
2.561000000000000000e+03 4.612133789062500000e+01 6.465210437774658203e+00 -1.282127618789672852e+00 4.917371749877929688e+00 1.090573191642761230e+00 -1.315135717391967773e+00
2.562000000000000000e+03 4.482037734985351562e+01 -3.103275060653686523e+00 -3.665075302124023438e-01 3.984364986419677734e+00 1.085357308387756348e+00 -3.558676719665527344e+00
2.563000000000000000e+03 5.598683166503906250e+01 4.063219070434570312e+00 -2.739177048206329346e-01 5.648453235626220703e+00 1.612360715866088867e+00 8.964864015579223633e-01
2.564000000000000000e+03 6.416542053222656250e+01 -2.394298934936523438e+01 1.834826946258544922e+00 8.071748733520507812e+00 2.971972703933715820e+00 -2.779299974441528320e+00
2.565000000000000000e+03 5.020731735229492188e+01 1.997195053100585938e+01 -1.750716924667358398e+00 1.966461420059204102e+00 6.472336500883102417e-02 -1.384519338607788086e+00
2.566000000000000000e+03 5.210562515258789062e+01 2.007125854492187500e+01 -1.601811051368713379e+00 3.579406261444091797e+00 5.932785868644714355e-01 -2.249393701553344727e+00
2.567000000000000000e+03 2.199642944335937500e+01 5.725455284118652344e+00 -1.113548874855041504e-01 -7.123205810785293579e-02 -5.477608367800712585e-02 3.697362542152404785e-02
2.568000000000000000e+03 3.570319366455078125e+01 -1.151674365997314453e+01 -4.538706541061401367e-01 2.655719995498657227e+00 6.605548262596130371e-01 8.601149916648864746e-01
2.569000000000000000e+03 3.242965698242187500e+01 2.537722396850585938e+01 1.243032574653625488e+00 4.365196228027343750e+00 1.682468652725219727e+00 -8.106794953346252441e-01
2.570000000000000000e+03 3.196984291076660156e+01 -8.112051963806152344e+00 1.486978650093078613e+00 5.863513946533203125e-01 6.219990253448486328e-01 1.908840656280517578e+00
2.571000000000000000e+03 4.257130432128906250e+01 7.868733882904052734e+00 -2.952261269092559814e-01 7.776457786560058594e+00 2.244369506835937500e+00 -9.427291750907897949e-01
2.572000000000000000e+03 4.274203109741210938e+01 8.961769104003906250e+00 4.305040538311004639e-01 7.956326961517333984e+00 2.516049385070800781e+00 -5.170496106147766113e-01
2.573000000000000000e+03 4.183449935913085938e+01 1.830220031738281250e+01 2.627464532852172852e-01 3.703490257263183594e+00 1.189871072769165039e+00 -4.284290671348571777e-01
2.574000000000000000e+03 3.912053680419921875e+01 1.714717483520507812e+01 8.032999634742736816e-01 3.031370401382446289e+00 1.150401115417480469e+00 -2.005533456802368164e+00
2.575000000000000000e+03 3.440092849731445312e+01 1.931902503967285156e+01 -1.051272451877593994e-01 3.336252212524414062e+00 9.693375229835510254e-01 -1.522185206413269043e+00
2.576000000000000000e+03 4.889533996582031250e+01 -6.637167930603027344e+00 1.988793492317199707e+00 9.971044540405273438e+00 3.587951421737670898e+00 -4.000257849693298340e-01
2.577000000000000000e+03 2.676497650146484375e+01 -2.017201995849609375e+01 1.035467267036437988e+00 2.399205446243286133e+00 1.030401825904846191e+00 3.927017450332641602e-01
2.578000000000000000e+03 2.455819129943847656e+01 -1.787819290161132812e+01 6.290689706802368164e-01 7.982542514801025391e-01 4.281969666481018066e-01 5.611018836498260498e-02
2.579000000000000000e+03 3.420694732666015625e+01 2.167344284057617188e+01 -3.213895484805107117e-02 4.231528759002685547e+00 1.259817004203796387e+00 -1.110664844512939453e+00
2.580000000000000000e+03 3.609886169433593750e+01 -6.148201465606689453e+00 3.754229068756103516e+00 5.068444252014160156e+00 2.646802186965942383e+00 2.393729925155639648e+00
2.581000000000000000e+03 2.735820770263671875e+01 7.645897865295410156e+00 3.227972984313964844e-01 5.492500066757202148e-01 2.616142034530639648e-01 -3.950052559375762939e-01
2.582000000000000000e+03 3.176684951782226562e+01 1.482181358337402344e+01 2.927590608596801758e-01 6.572476029396057129e-01 2.850019931793212891e-01 -7.702802121639251709e-02
2.583000000000000000e+03 7.564366912841796875e+01 1.598964309692382812e+01 1.192098185420036316e-01 7.826088905334472656e+00 2.383589744567871094e+00 1.069815158843994141e+00
2.584000000000000000e+03 7.620347595214843750e+01 1.825022125244140625e+01 -4.600895941257476807e-01 7.576046466827392578e+00 2.134787082672119141e+00 8.388673663139343262e-01
2.585000000000000000e+03 3.119809913635253906e+01 -1.363488388061523438e+01 -1.005091071128845215e+00 1.973549962043762207e+00 2.905376553535461426e-01 2.004662036895751953e+00
2.586000000000000000e+03 4.273210144042968750e+01 1.930571174621582031e+01 -7.582659721374511719e-01 3.910964488983154297e+00 9.458095431327819824e-01 6.193270683288574219e-01
2.587000000000000000e+03 4.379872512817382812e+01 1.881455993652343750e+01 -5.855426788330078125e-01 5.288403034210205078e+00 1.410858154296875000e+00 1.224285483360290527e+00
2.588000000000000000e+03 8.964719772338867188e+00 7.154173374176025391e+00 -5.279142856597900391e-01 -2.924774885177612305e-01 -2.461175322532653809e-01 2.878032624721527100e-01
2.589000000000000000e+03 2.770839691162109375e+01 -2.866943550109863281e+01 -6.322798132896423340e-01 2.177435636520385742e+00 4.635467529296875000e-01 3.458250686526298523e-02
2.590000000000000000e+03 4.801551437377929688e+01 -3.350003004074096680e+00 9.064172506332397461e-01 7.021528244018554688e+00 2.378383636474609375e+00 -2.584680557250976562e+00
2.591000000000000000e+03 5.078044891357421875e+01 -3.118442773818969727e+00 1.631438493728637695e+00 8.056599617004394531e+00 2.906411647796630859e+00 -3.797751367092132568e-01
2.592000000000000000e+03 3.392148590087890625e+01 1.584213352203369141e+01 4.947290420532226562e-01 1.740933299064636230e+00 6.706987023353576660e-01 -1.159574151039123535e+00
2.593000000000000000e+03 3.736104965209960938e+01 -4.657362461090087891e+00 3.119248867034912109e+00 6.334261894226074219e+00 2.836053371429443359e+00 2.527287960052490234e+00
2.594000000000000000e+03 7.133149719238281250e+01 3.301342010498046875e+00 2.182082533836364746e-01 3.596849203109741211e+00 1.144517302513122559e+00 9.510969519615173340e-01
2.595000000000000000e+03 6.472525024414062500e+01 4.793010950088500977e-01 1.729446202516555786e-01 5.041992187500000000e+00 1.564481019973754883e+00 7.283002734184265137e-01
2.596000000000000000e+03 2.172251701354980469e+01 1.274703788757324219e+01 1.456403080374002457e-02 4.407792091369628906e-01 1.366029828786849976e-01 1.251903921365737915e-01
2.597000000000000000e+03 2.301069450378417969e+01 1.284076499938964844e+01 3.517006710171699524e-02 5.162482261657714844e-01 1.654254794120788574e-01 5.503791570663452148e-02
2.598000000000000000e+03 5.299361038208007812e+01 1.828711628913879395e+00 -2.268877327442169189e-01 4.942647933959960938e+00 1.414728045463562012e+00 2.671439170837402344e+00
2.599000000000000000e+03 7.720800018310546875e+01 1.385488605499267578e+01 3.598040044307708740e-01 6.821782588958740234e+00 2.154475927352905273e+00 6.850548982620239258e-01
2.600000000000000000e+03 7.684883117675781250e+01 -1.682765960693359375e+01 -1.983128786087036133e-01 8.330908775329589844e+00 2.439778804779052734e+00 1.137825727462768555e+00
2.601000000000000000e+03 7.699691772460937500e+01 -1.958487701416015625e+01 4.173943996429443359e-01 8.231408119201660156e+00 2.594640731811523438e+00 1.028523087501525879e+00
2.602000000000000000e+03 7.595615386962890625e+01 6.242224693298339844e+00 -3.235678002238273621e-02 7.143998622894287109e+00 2.133492469787597656e+00 -9.896053671836853027e-01
2.603000000000000000e+03 7.691323852539062500e+01 1.980537772178649902e+00 -3.907541334629058838e-01 7.412770271301269531e+00 2.106604814529418945e+00 -6.996596455574035645e-01
2.604000000000000000e+03 7.594915008544921875e+01 9.266503334045410156e+00 5.784163475036621094e-01 7.455990791320800781e+00 2.410322189331054688e+00 -7.685515880584716797e-01
2.605000000000000000e+03 7.450833129882812500e+01 8.236352920532226562e+00 4.526993632316589355e-01 7.782144546508789062e+00 2.470453023910522461e+00 -6.940464973449707031e-01
2.606000000000000000e+03 7.653464508056640625e+01 -1.551441955566406250e+01 -6.011147499084472656e-01 8.141261100769042969e+00 2.262043952941894531e+00 8.979056477546691895e-01
2.607000000000000000e+03 7.579927825927734375e+01 -1.702448272705078125e+01 -1.811950802803039551e-01 8.107649803161621094e+00 2.377936363220214844e+00 1.056605696678161621e+00
2.608000000000000000e+03 7.400772094726562500e+01 5.305552482604980469e+00 -2.379239201545715332e-01 6.491367816925048828e+00 1.876033186912536621e+00 -3.795290589332580566e-01
2.609000000000000000e+03 7.489886474609375000e+01 5.747796058654785156e+00 -2.282341867685317993e-01 6.958308219909667969e+00 2.019022226333618164e+00 -7.607011795043945312e-01
2.610000000000000000e+03 7.691188049316406250e+01 -1.338804340362548828e+01 -9.178836345672607422e-01 8.673636436462402344e+00 2.326725959777832031e+00 2.563154995441436768e-01
2.611000000000000000e+03 7.457711791992187500e+01 9.720910072326660156e+00 9.497551321983337402e-01 8.276493072509765625e+00 2.767874479293823242e+00 -5.177511572837829590e-01
2.612000000000000000e+03 7.606089782714843750e+01 1.196672821044921875e+01 8.701390624046325684e-01 7.392757892608642578e+00 2.478868961334228516e+00 9.487919509410858154e-02
2.613000000000000000e+03 7.694663238525390625e+01 1.279527664184570312e+01 7.450210452079772949e-01 7.021108150482177734e+00 2.329838752746582031e+00 2.503127157688140869e-01
2.614000000000000000e+03 7.545399475097656250e+01 -1.606940078735351562e+01 -7.300716638565063477e-01 7.385935783386230469e+00 1.996759295463562012e+00 8.063619732856750488e-01
2.615000000000000000e+03 7.458371734619140625e+01 1.829841804504394531e+01 -8.737947940826416016e-01 7.837516784667968750e+00 2.089116573333740234e+00 6.896394491195678711e-01
2.616000000000000000e+03 7.696350860595703125e+01 1.638477516174316406e+01 -2.296318300068378448e-02 7.243535518646240234e+00 2.166171789169311523e+00 1.035599231719970703e+00
2.617000000000000000e+03 7.438891601562500000e+01 1.529661846160888672e+01 6.907505989074707031e-01 8.370454788208007812e+00 2.718361616134643555e+00 9.612607955932617188e-01
2.618000000000000000e+03 7.569351196289062500e+01 -1.865603208541870117e+00 -8.457942008972167969e-01 8.081569671630859375e+00 2.170732498168945312e+00 -3.220098912715911865e-01
2.619000000000000000e+03 7.514450836181640625e+01 1.724335861206054688e+01 -3.774892687797546387e-01 7.784965038299560547e+00 2.222242832183837891e+00 9.808618426322937012e-01
2.620000000000000000e+03 7.481600952148437500e+01 2.039483070373535156e+01 -1.044062256813049316e+00 7.390596389770507812e+00 1.903960227966308594e+00 1.312172263860702515e-01
2.621000000000000000e+03 7.427066802978515625e+01 1.926720619201660156e+01 -1.143774390220642090e+00 7.569272994995117188e+00 1.927649497985839844e+00 2.401129901409149170e-01
2.622000000000000000e+03 7.628021240234375000e+01 -2.144378089904785156e+01 9.404597878456115723e-01 8.875578880310058594e+00 2.944811582565307617e+00 4.419941008090972900e-01
2.623000000000000000e+03 7.688896179199218750e+01 -2.038620948791503906e+00 -4.764943718910217285e-01 8.474719047546386719e+00 2.399467468261718750e+00 1.954675465822219849e-01
2.624000000000000000e+03 7.398390197753906250e+01 2.201322364807128906e+01 -1.042772173881530762e+00 6.662925243377685547e+00 1.686045885086059570e+00 -5.177250504493713379e-01
2.625000000000000000e+03 7.467551422119140625e+01 2.693661499023437500e+01 2.080859392881393433e-01 6.198760032653808594e+00 1.922053813934326172e+00 -3.780622482299804688e-01
2.626000000000000000e+03 7.687445831298828125e+01 2.740350151062011719e+01 5.911137163639068604e-02 6.915952205657958984e+00 2.092519044876098633e+00 -2.868623435497283936e-01
2.627000000000000000e+03 7.572799682617187500e+01 2.717754364013671875e+01 2.138478755950927734e-01 6.537482738494873047e+00 2.025399208068847656e+00 -3.596710860729217529e-01
2.628000000000000000e+03 7.497821807861328125e+01 -3.165649414062500000e+01 3.014155924320220947e-01 6.503983497619628906e+00 2.041619777679443359e+00 2.414904534816741943e-01
2.629000000000000000e+03 7.343986511230468750e+01 -3.679551315307617188e+01 -2.423610910773277283e-02 6.537298679351806641e+00 1.953918814659118652e+00 -8.403162956237792969e-01
2.630000000000000000e+03 7.546055603027343750e+01 -3.698255920410156250e+01 -2.313619293272495270e-02 7.200191974639892578e+00 2.153116703033447266e+00 -4.256390929222106934e-01
2.631000000000000000e+03 7.655078125000000000e+01 3.011007690429687500e+01 1.487250030040740967e-01 6.755569458007812500e+00 2.071288347244262695e+00 -7.349592447280883789e-02
2.632000000000000000e+03 7.545449066162109375e+01 -2.836934280395507812e+01 -6.179646253585815430e-01 7.445620536804199219e+00 2.048296689987182617e+00 4.123204052448272705e-01
2.633000000000000000e+03 7.618974304199218750e+01 -3.294818115234375000e+01 2.403969764709472656e-01 6.970725536346435547e+00 2.163336753845214844e+00 -1.480851974338293076e-02
2.634000000000000000e+03 7.444876098632812500e+01 -3.042220687866210938e+01 1.710244864225387573e-01 6.368110656738281250e+00 1.961740612983703613e+00 5.290994048118591309e-01
2.635000000000000000e+03 7.384419250488281250e+01 3.420444107055664062e+01 1.346284896135330200e-01 6.257931232452392578e+00 1.917767882347106934e+00 3.218525946140289307e-01
2.636000000000000000e+03 7.529368591308593750e+01 2.972188949584960938e+01 3.238197863101959229e-01 6.405862331390380859e+00 2.018904685974121094e+00 -9.816084802150726318e-02
2.637000000000000000e+03 2.286726379394531250e+01 6.820577621459960938e+00 2.086123377084732056e-01 -4.495386034250259399e-02 4.909754171967506409e-02 -4.276374354958534241e-02
2.638000000000000000e+03 3.533262634277343750e+01 -6.872956752777099609e+00 3.041113376617431641e+00 3.751202821731567383e+00 2.037694931030273438e+00 2.068317651748657227e+00
2.639000000000000000e+03 3.322286605834960938e+01 -8.110694885253906250e+00 2.033612728118896484e+00 1.226768493652343750e+00 9.781143665313720703e-01 2.074036598205566406e+00
2.640000000000000000e+03 4.276696777343750000e+01 -1.923378562927246094e+01 1.356933951377868652e+00 2.916643142700195312e+00 1.282073140144348145e+00 7.013191580772399902e-01
2.641000000000000000e+03 2.702068138122558594e+01 -1.556995964050292969e+01 -2.458520382642745972e-01 1.826151013374328613e+00 4.740896821022033691e-01 5.566065311431884766e-01
2.642000000000000000e+03 2.430283737182617188e+01 -1.531824016571044922e+01 -1.957029849290847778e-02 2.435228079557418823e-01 6.718575209379196167e-02 3.747097402811050415e-02
2.643000000000000000e+03 2.227693557739257812e+01 -1.676843833923339844e+01 2.669802010059356689e-01 6.494306027889251709e-03 8.204235136508941650e-02 -2.437649220228195190e-01
2.644000000000000000e+03 4.931934356689453125e+00 2.194398117065429688e+01 3.399374336004257202e-02 -5.516304969787597656e-01 -1.552910357713699341e-01 3.148164972662925720e-02
2.645000000000000000e+03 3.139488220214843750e+00 2.508392524719238281e+01 -4.180005565285682678e-02 -8.229129314422607422e-01 -2.594138979911804199e-01 2.955454029142856598e-02
2.646000000000000000e+03 2.739219903945922852e+00 2.308520126342773438e+01 9.344747522845864296e-04 -8.336789608001708984e-01 -2.498233467340469360e-01 -4.766110796481370926e-03
2.647000000000000000e+03 5.217732906341552734e+00 2.344320869445800781e+01 -3.188105300068855286e-02 -5.579926371574401855e-01 -1.769621074199676514e-01 4.750419780611991882e-02
2.648000000000000000e+03 4.080100059509277344e+00 -1.707717895507812500e+01 -7.443082332611083984e-02 -2.446357905864715576e-01 -9.571998566389083862e-02 -1.662192642688751221e-01
2.649000000000000000e+03 4.660144329071044922e+00 -1.453794574737548828e+01 -7.182461768388748169e-02 -1.836475282907485962e-01 -7.664164155721664429e-02 -8.957228809595108032e-02
2.650000000000000000e+03 4.359804153442382812e+00 2.274062538146972656e+01 -9.593985043466091156e-03 -6.508581042289733887e-01 -1.981356292963027954e-01 1.769260130822658539e-02
2.651000000000000000e+03 3.195320606231689453e+00 1.921274375915527344e+01 7.566716521978378296e-02 -7.263870835304260254e-01 -1.952159702777862549e-01 6.669223308563232422e-02
2.652000000000000000e+03 4.791354179382324219e+00 1.828073501586914062e+01 2.008401751518249512e-01 -5.315342545509338379e-01 -9.920822083950042725e-02 1.559428870677947998e-01
2.653000000000000000e+03 3.561453342437744141e+00 1.774066352844238281e+01 1.307819336652755737e-01 -6.428762674331665039e-01 -1.536282896995544434e-01 1.552748382091522217e-01
2.654000000000000000e+03 6.984589576721191406e+00 1.511855792999267578e+01 3.392920494079589844e-01 -2.097649574279785156e-01 3.885813057422637939e-02 4.478476345539093018e-01
2.655000000000000000e+03 3.104989290237426758e+00 -2.589904403686523438e+01 1.296119112521409988e-02 -3.252075910568237305e-01 -9.367392212152481079e-02 7.923644967377185822e-03
2.656000000000000000e+03 2.997233867645263672e+00 -2.738307952880859375e+01 1.591768697835505009e-03 -3.402783274650573730e-01 -1.016059666872024536e-01 1.084728259593248367e-02
2.657000000000000000e+03 5.505320072174072266e+00 -2.618324661254882812e+01 3.703820705413818359e-02 -5.376567319035530090e-02 -5.018239840865135193e-03 -3.735547140240669250e-02
2.658000000000000000e+03 6.234569072723388672e+00 1.612902450561523438e+01 3.286821544170379639e-01 -3.489292860031127930e-01 -6.074145901948213577e-03 3.478043079376220703e-01
2.659000000000000000e+03 4.794240951538085938e+00 1.456600284576416016e+01 1.403603702783584595e-01 -4.027982652187347412e-01 -7.873137295246124268e-02 4.295621216297149658e-01
2.660000000000000000e+03 3.697696208953857422e+00 -9.744793891906738281e+00 1.763997226953506470e-02 -1.202284470200538635e-01 -3.077654168009757996e-02 -3.205122798681259155e-02
2.661000000000000000e+03 2.769936323165893555e+00 -1.128136634826660156e+01 5.248802714049816132e-03 -1.258146017789840698e-01 -3.616974130272865295e-02 -2.367954701185226440e-02
2.662000000000000000e+03 6.283669948577880859e+00 8.362349510192871094e+00 -3.638275265693664551e-01 -1.177582591772079468e-01 -1.444757282733917236e-01 2.959160804748535156e-01
2.663000000000000000e+03 4.107912063598632812e+00 3.435512542724609375e+01 9.931740909814834595e-02 -7.265673279762268066e-01 -1.881749629974365234e-01 8.579756133258342743e-03
2.664000000000000000e+03 3.071636199951171875e+00 -3.121858406066894531e+01 2.718858234584331512e-02 -3.251754939556121826e-01 -8.939607441425323486e-02 5.340094119310379028e-02
2.665000000000000000e+03 3.958431005477905273e+00 -2.868577384948730469e+01 1.636986806988716125e-02 -2.435243874788284302e-01 -6.814635545015335083e-02 1.099569536745548248e-02
2.666000000000000000e+03 6.209109783172607422e+00 9.370087623596191406e+00 -3.194747567176818848e-01 -1.238518059253692627e-01 -1.329979747533798218e-01 3.792364001274108887e-01
2.667000000000000000e+03 6.297054767608642578e+00 -1.054783344268798828e+01 5.886920844204723835e-04 -1.312477439641952515e-01 -3.919771686196327209e-02 -7.518757134675979614e-02
2.668000000000000000e+03 2.931056976318359375e+00 -1.256334686279296875e+01 -2.874248288571834564e-02 -1.612093299627304077e-01 -5.698554590344429016e-02 -4.320323094725608826e-02
2.669000000000000000e+03 3.425438165664672852e+00 3.190380287170410156e+01 7.023058831691741943e-02 -8.404523730278015137e-01 -2.310665249824523926e-01 8.728539943695068359e-02
2.670000000000000000e+03 5.339293479919433594e+00 3.318138504028320312e+01 1.371341049671173096e-01 -4.841804206371307373e-01 -1.041138917207717896e-01 5.947944149374961853e-02
2.671000000000000000e+03 7.786867618560791016e+00 -3.449718093872070312e+01 6.186922639608383179e-02 9.632475674152374268e-02 4.745819419622421265e-02 1.550524234771728516e-01
2.672000000000000000e+03 4.013666629791259766e+00 -2.971558761596679688e+01 4.460221901535987854e-02 -2.387789636850357056e-01 -5.825302377343177795e-02 3.529701009392738342e-02
2.673000000000000000e+03 4.370252132415771484e+00 -3.086152267456054688e+01 3.194581717252731323e-02 -2.240630537271499634e-01 -5.763516947627067566e-02 4.892670735716819763e-02
2.674000000000000000e+03 3.182533264160156250e+00 -3.247599411010742188e+01 1.457553170621395111e-02 -3.124283850193023682e-01 -8.935585618019104004e-02 6.218688935041427612e-02
2.675000000000000000e+03 2.391721963882446289e+00 7.663753509521484375e+00 -6.438001245260238647e-02 -4.149286076426506042e-02 -3.176186233758926392e-02 1.075483709573745728e-01
2.676000000000000000e+03 5.196002483367919922e+00 9.289282798767089844e+00 -2.377882450819015503e-01 -1.366800069808959961e-01 -1.123404726386070251e-01 3.485684096813201904e-01
2.677000000000000000e+03 3.336903572082519531e+00 6.804517269134521484e+00 -1.212425157427787781e-01 -3.733396157622337341e-02 -4.757294431328773499e-02 9.248976409435272217e-02
2.678000000000000000e+03 4.681586742401123047e+00 7.171748161315917969e+00 -2.196670472621917725e-01 -5.688333883881568909e-02 -8.296511322259902954e-02 1.576230525970458984e-01
2.679000000000000000e+03 2.760352373123168945e+00 -5.914304256439208984e+00 3.840733319520950317e-03 -5.162103846669197083e-02 -1.433409191668033600e-02 -2.605891413986682892e-02
2.680000000000000000e+03 5.261121273040771484e+00 3.864997482299804688e+01 -1.746273599565029144e-02 -5.110092163085937500e-01 -1.585415750741958618e-01 -2.688596956431865692e-02
2.681000000000000000e+03 3.505967140197753906e+00 3.766966247558593750e+01 3.426710888743400574e-02 -8.846806883811950684e-01 -2.551240622997283936e-01 -1.401913538575172424e-02
2.682000000000000000e+03 1.408160400390625000e+01 2.087383079528808594e+01 4.196945428848266602e-01 3.435946702957153320e-01 2.289867550134658813e-01 5.799186229705810547e-01
2.683000000000000000e+03 2.173313713073730469e+01 1.775067520141601562e+01 7.532969117164611816e-02 8.804458379745483398e-01 2.867326736450195312e-01 -1.202930808067321777e-01
2.684000000000000000e+03 4.937754821777343750e+01 -2.855498886108398438e+01 3.952365815639495850e-01 3.876914739608764648e+00 1.281645417213439941e+00 -1.614397168159484863e+00
2.685000000000000000e+03 5.075158309936523438e+01 -2.932733917236328125e+01 1.229683160781860352e+00 4.276350498199462891e+00 1.651810050010681152e+00 -4.393287301063537598e-01
2.686000000000000000e+03 2.877149200439453125e+01 -1.351887607574462891e+01 -6.222058534622192383e-01 2.401452302932739258e+00 5.337738990783691406e-01 1.174782514572143555e+00
2.687000000000000000e+03 2.745674705505371094e+01 -1.452424335479736328e+01 -5.101712346076965332e-01 1.995488166809082031e+00 4.455950856208801270e-01 6.441999673843383789e-01
2.688000000000000000e+03 7.321885681152343750e+01 1.457050228118896484e+01 1.157348752021789551e+00 1.021120643615722656e+01 3.410566568374633789e+00 1.695945709943771362e-01
2.689000000000000000e+03 7.484347534179687500e+01 1.412315940856933594e+01 1.085226535797119141e+00 8.401091575622558594e+00 2.845895290374755859e+00 5.947294831275939941e-01
2.690000000000000000e+03 5.716501712799072266e+00 -3.509795379638671875e+01 2.662959694862365723e-02 -6.397268921136856079e-02 -1.120292767882347107e-02 1.242544800043106079e-01
2.691000000000000000e+03 3.582354354858398438e+01 -1.036204910278320312e+01 4.339598417282104492e-01 3.842330455780029297e+00 1.282887101173400879e+00 1.507925868034362793e+00
2.692000000000000000e+03 5.181050109863281250e+01 -9.034047275781631470e-02 7.117084264755249023e-01 6.107630729675292969e+00 2.045801877975463867e+00 1.065792083740234375e+00
2.693000000000000000e+03 5.060401535034179688e+01 -1.353610277175903320e+00 1.462739586830139160e+00 6.409209251403808594e+00 2.361584663391113281e+00 -4.194234013557434082e-01
2.694000000000000000e+03 8.922680854797363281e+00 3.693635559082031250e+01 3.305913507938385010e-02 -9.916727431118488312e-03 6.942722480744123459e-03 8.371379971504211426e-02
2.695000000000000000e+03 4.938604736328125000e+01 -1.097983837127685547e+01 2.877362012863159180e+00 7.884582519531250000e+00 3.228583335876464844e+00 -1.174151822924613953e-01
2.696000000000000000e+03 1.111181640625000000e+01 1.859295845031738281e+01 6.402329206466674805e-01 4.438915252685546875e-01 3.252373337745666504e-01 3.934349715709686279e-01
2.697000000000000000e+03 1.790497398376464844e+01 -1.453351020812988281e+01 -1.823326945304870605e-02 1.847161799669265747e-01 4.994487389922142029e-02 -2.477298974990844727e-01
2.698000000000000000e+03 1.578139972686767578e+01 -1.114336585998535156e+01 -1.180002838373184204e-01 3.283396959304809570e-01 6.310182809829711914e-02 -3.959044441580772400e-02
2.699000000000000000e+03 7.418218231201171875e+01 -6.140739321708679199e-01 -1.118335723876953125e+00 5.594977855682373047e+00 1.342992663383483887e+00 -1.040966391563415527e+00
2.700000000000000000e+03 5.987446594238281250e+01 2.111531257629394531e+01 -9.979739189147949219e-01 4.377347469329833984e+00 1.013812065124511719e+00 1.779724359512329102e+00
2.701000000000000000e+03 1.985503196716308594e+01 1.932826995849609375e+01 2.940588891506195068e-01 4.846946597099304199e-01 2.336260676383972168e-01 -1.272551715373992920e-01
2.702000000000000000e+03 2.657335853576660156e+01 8.361900329589843750e+00 2.690450549125671387e-01 3.846910297870635986e-01 1.961208283901214600e-01 -2.683821916580200195e-01
2.703000000000000000e+03 6.555172729492187500e+01 3.704056262969970703e+00 1.693387180566787720e-01 2.449295520782470703e+00 7.855902910232543945e-01 4.791011214256286621e-01
2.704000000000000000e+03 6.607175445556640625e+01 4.702572822570800781e+00 -5.130444094538688660e-02 1.078093647956848145e+00 3.080367743968963623e-01 9.241582155227661133e-01
2.705000000000000000e+03 4.488650894165039062e+01 -2.174175834655761719e+01 2.249337673187255859e+00 5.095553874969482422e+00 2.203467369079589844e+00 1.248811006546020508e+00
2.706000000000000000e+03 4.536120605468750000e+01 -2.040346717834472656e+01 2.569273471832275391e+00 6.509460926055908203e+00 2.723620414733886719e+00 1.155759453773498535e+00
2.707000000000000000e+03 4.281524658203125000e+01 -2.256273269653320312e+00 4.850745499134063721e-01 4.369719028472900391e+00 1.456438064575195312e+00 -1.412975072860717773e+00
2.708000000000000000e+03 4.156042861938476562e+01 7.768500328063964844e+00 1.912076324224472046e-01 7.626276969909667969e+00 2.345245361328125000e+00 -1.006620287895202637e+00
2.709000000000000000e+03 5.824390792846679688e+01 -2.316605567932128906e+01 1.611766457557678223e+00 5.402005672454833984e+00 2.104131698608398438e+00 7.748796343803405762e-01
2.710000000000000000e+03 6.602108001708984375e+01 2.154847145080566406e+01 -1.016746401786804199e+00 4.194725155830383301e-01 -1.791821718215942383e-01 1.113372087478637695e+00
2.711000000000000000e+03 5.447287750244140625e+01 4.481384754180908203e+00 -4.418798983097076416e-01 5.991055011749267578e+00 1.664752602577209473e+00 2.130100488662719727e+00
2.712000000000000000e+03 6.028386688232421875e+01 -2.470321846008300781e+01 7.089537382125854492e-01 2.156941890716552734e+00 8.597686886787414551e-01 4.371166527271270752e-01
2.713000000000000000e+03 5.419337463378906250e+01 1.780840754508972168e+00 -7.404948472976684570e-01 4.501708030700683594e+00 1.128363847732543945e+00 2.571242570877075195e+00
2.714000000000000000e+03 5.506284332275390625e+01 3.634641885757446289e+00 -5.029345750808715820e-01 5.392689704895019531e+00 1.466926574707031250e+00 1.761227726936340332e+00
2.715000000000000000e+03 4.998736953735351562e+01 -3.972904443740844727e+00 1.634444832801818848e+00 8.478994369506835938e+00 3.034031867980957031e+00 -7.701995968818664551e-01
2.716000000000000000e+03 4.328800964355468750e+01 -2.432987594604492188e+01 1.272776722908020020e+00 2.425975799560546875e+00 1.109625697135925293e+00 1.436505436897277832e+00
2.717000000000000000e+03 1.674723243713378906e+01 -1.477070426940917969e+01 6.909877061843872070e-02 2.650161385536193848e-01 1.002344712615013123e-01 -1.488124430179595947e-01
2.718000000000000000e+03 7.466563415527343750e+01 -1.814057731628417969e+01 1.642495989799499512e-01 8.345484733581542969e+00 2.552920341491699219e+00 4.650191664695739746e-01
2.719000000000000000e+03 2.253274345397949219e+01 -2.406549453735351562e+01 4.586778879165649414e-01 4.777648150920867920e-01 2.809328138828277588e-01 2.420056611299514771e-01
2.720000000000000000e+03 1.955433654785156250e+01 -2.376024055480957031e+01 4.498990476131439209e-01 -2.939348295331001282e-02 1.261516660451889038e-01 3.790091872215270996e-01
2.721000000000000000e+03 5.258132553100585938e+01 3.020693778991699219e+00 -3.189544081687927246e-01 4.259159088134765625e+00 1.182061433792114258e+00 2.983164310455322266e+00
2.722000000000000000e+03 5.353679275512695312e+01 3.692026376724243164e+00 -6.302583217620849609e-01 5.335099220275878906e+00 1.411452293395996094e+00 3.035999059677124023e+00
2.723000000000000000e+03 1.379376316070556641e+01 -1.105291366577148438e+01 1.187313161790370941e-02 2.403219789266586304e-01 7.565853744745254517e-02 -8.002735674381256104e-02
2.724000000000000000e+03 4.304466247558593750e+01 1.015727138519287109e+01 9.053803682327270508e-01 8.293974876403808594e+00 2.759806632995605469e+00 -2.388188093900680542e-01
2.725000000000000000e+03 4.207669067382812500e+01 1.160457611083984375e+01 1.596284031867980957e+00 7.370200634002685547e+00 2.689945459365844727e+00 -1.742752194404602051e-01
2.726000000000000000e+03 4.466546249389648438e+01 2.003191757202148438e+01 -2.660861968994140625e+00 5.443454742431640625e+00 8.347777724266052246e-01 2.434853553771972656e+00
2.727000000000000000e+03 8.299220085144042969e+00 9.604394912719726562e+00 -4.814320802688598633e-01 -2.785729765892028809e-01 -2.280015200376510620e-01 3.933424651622772217e-01
2.728000000000000000e+03 6.508233070373535156e+00 1.171430587768554688e+01 -1.231932267546653748e-01 -1.930023580789566040e-01 -9.485867619514465332e-02 5.381104946136474609e-01
2.729000000000000000e+03 4.035992050170898438e+01 1.040133476257324219e+01 1.328860163688659668e+00 6.332260608673095703e+00 2.298336267471313477e+00 -6.174581050872802734e-01
2.730000000000000000e+03 6.499051666259765625e+01 2.644228744506835938e+01 2.833595514297485352e+00 5.824638843536376953e+00 2.597470283508300781e+00 1.939517378807067871e+00
2.731000000000000000e+03 6.486412048339843750e+01 2.441449737548828125e+01 1.109870195388793945e+00 4.821541786193847656e+00 1.779423594474792480e+00 1.768965363502502441e+00
2.732000000000000000e+03 2.911425590515136719e+01 3.174917602539062500e+01 6.047519445419311523e-01 2.071456909179687500e+00 8.028626441955566406e-01 -9.459189176559448242e-01
2.733000000000000000e+03 3.000384902954101562e+01 3.092292785644531250e+01 7.701067924499511719e-01 2.302660703659057617e+00 9.218302369117736816e-01 -1.117621898651123047e+00
2.734000000000000000e+03 7.414479064941406250e+01 -2.812245559692382812e+01 -6.113115549087524414e-01 6.785733222961425781e+00 1.852326512336730957e+00 8.886246085166931152e-01
2.735000000000000000e+03 3.392030334472656250e+01 -3.191680526733398438e+01 1.038385272026062012e+00 6.884189248085021973e-01 5.180412530899047852e-01 2.814500927925109863e-01
2.736000000000000000e+03 3.713041687011718750e+01 -2.963177490234375000e+01 -1.610966026782989502e-01 2.419762611389160156e+00 6.775998473167419434e-01 1.073740839958190918e+00
2.737000000000000000e+03 6.628141021728515625e+01 3.293407678604125977e+00 4.868884384632110596e-01 1.940980553627014160e+00 7.283607125282287598e-01 1.222932219505310059e+00
2.738000000000000000e+03 6.910901641845703125e+01 -3.046401596069335938e+01 2.511171817779541016e+00 4.181011676788330078e+00 2.007654905319213867e+00 -1.467784762382507324e+00
2.739000000000000000e+03 5.249577331542968750e+01 -3.110042953491210938e+01 2.216535806655883789e+00 5.334627151489257812e+00 2.265348911285400391e+00 3.514830172061920166e-01
2.740000000000000000e+03 1.292534637451171875e+01 -2.747530364990234375e+01 3.011791706085205078e-01 3.684675395488739014e-01 2.008940130472183228e-01 1.390086710453033447e-01
2.741000000000000000e+03 6.351113128662109375e+01 2.246541786193847656e+01 -1.528451085090637207e+00 5.490997314453125000e+00 1.188763856887817383e+00 3.445063114166259766e+00
2.742000000000000000e+03 6.471819305419921875e+01 2.351713562011718750e+01 1.242827400565147400e-01 4.600342750549316406e+00 1.417387723922729492e+00 1.837440848350524902e+00
2.743000000000000000e+03 3.637465667724609375e+01 1.939263916015625000e+01 -2.849100828170776367e-01 3.202347755432128906e+00 8.752312660217285156e-01 -2.233747005462646484e+00
2.744000000000000000e+03 3.442965698242187500e+01 1.831455230712890625e+01 9.254126995801925659e-02 2.861893653869628906e+00 8.863304853439331055e-01 -1.508783459663391113e+00
2.745000000000000000e+03 6.016159057617187500e+01 -1.253500938415527344e+01 -6.969074010848999023e-01 5.911187648773193359e+00 1.564284086227416992e+00 1.383329749107360840e+00
2.746000000000000000e+03 6.007553100585937500e+01 -1.107967185974121094e+01 -2.999851107597351074e-01 5.504195213317871094e+00 1.561262965202331543e+00 2.143050670623779297e+00
2.747000000000000000e+03 3.051481246948242188e+01 -9.957026481628417969e+00 1.227800846099853516e+00 7.261779308319091797e-01 5.861936211585998535e-01 1.731511712074279785e+00
2.748000000000000000e+03 2.999600791931152344e+01 -1.261398220062255859e+01 -2.996927797794342041e-01 1.920203804969787598e+00 4.861533045768737793e-01 1.611887693405151367e+00
2.749000000000000000e+03 5.116921615600585938e+01 -7.688780307769775391e+00 2.607485055923461914e+00 8.506622314453125000e+00 3.334232091903686523e+00 -5.277274847030639648e-01
2.750000000000000000e+03 1.483473396301269531e+01 -7.505808353424072266e+00 -2.547352947294712067e-02 1.977203637361526489e-01 5.167405307292938232e-02 2.555441483855247498e-02
2.751000000000000000e+03 1.354141521453857422e+01 -9.415562629699707031e+00 1.841742359101772308e-02 1.961059123277664185e-01 6.435700505971908569e-02 -5.871738865971565247e-02
2.752000000000000000e+03 7.051174163818359375e+01 2.132902336120605469e+01 -1.469330668449401855e+00 4.274196624755859375e+00 8.414597511291503906e-01 -1.269971847534179688e+00
2.753000000000000000e+03 7.150167083740234375e+01 2.217933273315429688e+01 -1.147701025009155273e+00 5.217669963836669922e+00 1.220990657806396484e+00 -1.288946390151977539e+00
2.754000000000000000e+03 5.378884887695312500e+01 5.451146602630615234e+00 -4.641980826854705811e-01 7.034659385681152344e+00 1.971138358116149902e+00 2.964141845703125000e+00
2.755000000000000000e+03 1.881171607971191406e+01 -2.115081405639648438e+01 4.508314728736877441e-01 2.211856842041015625e-02 1.418850123882293701e-01 1.097197756171226501e-01
2.756000000000000000e+03 1.772615432739257812e+01 -2.042034149169921875e+01 2.505675554275512695e-01 6.663303077220916748e-02 9.516017138957977295e-02 4.810121282935142517e-02
2.757000000000000000e+03 1.164769935607910156e+01 -1.005398082733154297e+01 1.236367132514715195e-02 3.048581257462501526e-02 1.285484526306390762e-02 -1.041728332638740540e-01
2.758000000000000000e+03 1.022743034362792969e+01 -2.711414909362792969e+01 1.746381223201751709e-01 1.807670742273330688e-01 1.066215559840202332e-01 -2.764582633972167969e-02
2.759000000000000000e+03 5.694919204711914062e+01 1.260254001617431641e+01 1.273735880851745605e+00 8.831832885742187500e+00 3.031670808792114258e+00 1.074414730072021484e+00
2.760000000000000000e+03 5.951159667968750000e+01 1.380677032470703125e+01 1.194294214248657227e+00 9.753516197204589844e+00 3.284343242645263672e+00 1.383791565895080566e+00
2.761000000000000000e+03 5.764330291748046875e+01 1.443407440185546875e+01 1.666842937469482422e+00 7.800776004791259766e+00 2.840285539627075195e+00 1.223385214805603027e+00
2.762000000000000000e+03 2.849666404724121094e+01 -3.245133972167968750e+01 1.391541063785552979e-01 1.711001515388488770e+00 5.550466775894165039e-01 -1.544062644243240356e-01
2.763000000000000000e+03 2.995943260192871094e+01 -3.242640686035156250e+01 1.607064604759216309e-01 1.302836060523986816e+00 4.390627741813659668e-01 -1.993729770183563232e-01
2.764000000000000000e+03 5.691070556640625000e+01 -1.597764015197753906e+01 -5.671616792678833008e-01 6.692751407623291016e+00 1.837676882743835449e+00 -1.011124372482299805e+00
2.765000000000000000e+03 5.747810745239257812e+01 -1.203809738159179688e+01 5.729734301567077637e-01 3.009664535522460938e+00 1.074791312217712402e+00 -1.174752116203308105e+00
2.766000000000000000e+03 5.275430679321289062e+01 -2.705573844909667969e+01 -1.409088134765625000e+00 2.966918706893920898e+00 4.673491418361663818e-01 1.730547547340393066e+00
2.767000000000000000e+03 4.897047424316406250e+01 2.519540596008300781e+01 1.720124125480651855e+00 5.321036338806152344e+00 2.112348079681396484e+00 3.545914590358734131e-01
2.768000000000000000e+03 1.689213371276855469e+01 -1.388969135284423828e+01 -4.677146673202514648e-02 3.487581312656402588e-01 9.059599786996841431e-02 -1.345840096473693848e-01
2.769000000000000000e+03 6.428797912597656250e+01 -8.987621307373046875e+00 1.152624011039733887e+00 8.224145889282226562e+00 2.813030958175659180e+00 -2.611485719680786133e-01
2.770000000000000000e+03 6.313269424438476562e+01 -1.526839923858642578e+01 -1.463320970535278320e+00 6.368546485900878906e+00 1.471567630767822266e+00 4.782051742076873779e-01
2.771000000000000000e+03 5.809821701049804688e+01 8.952869415283203125e+00 1.220276355743408203e+00 7.292415142059326172e+00 2.553807497024536133e+00 5.760905146598815918e-01
2.772000000000000000e+03 5.543460845947265625e+00 -9.755527496337890625e+00 1.140407007187604904e-02 -1.525685638189315796e-01 -4.234934598207473755e-02 -5.934320390224456787e-02
2.773000000000000000e+03 5.768062973022460938e+01 -2.565425682067871094e+01 -1.757529735565185547e+00 6.676559448242187500e+00 1.475708961486816406e+00 1.849950313568115234e+00
2.774000000000000000e+03 5.001679992675781250e+01 -2.703661918640136719e+01 -1.529490709304809570e+00 2.493975162506103516e+00 2.893453240394592285e-01 -1.900150179862976074e+00
2.775000000000000000e+03 7.176712799072265625e+01 6.840310096740722656e+00 7.038551266305148602e-04 6.216446399688720703e+00 1.865145087242126465e+00 9.689465165138244629e-01
2.776000000000000000e+03 6.781375122070312500e+01 3.233220815658569336e+00 5.147598981857299805e-01 1.970013618469238281e+00 7.454320788383483887e-01 2.060808181762695312e+00
2.777000000000000000e+03 5.377279663085937500e+01 2.023243713378906250e+01 -1.440254211425781250e+00 4.432961463928222656e+00 8.978121280670166016e-01 -2.567346334457397461e+00
2.778000000000000000e+03 5.531906509399414062e+01 1.745747566223144531e+01 3.320632874965667725e-01 5.032561779022216797e+00 1.609387516975402832e+00 -1.298655509948730469e+00
2.779000000000000000e+03 6.095349502563476562e+01 -1.201249313354492188e+01 -9.472085237503051758e-01 6.294940471649169922e+00 1.604319691658020020e+00 1.041801571846008301e+00
2.780000000000000000e+03 1.443618583679199219e+01 -2.659310913085937500e+01 3.756108582019805908e-01 3.900291621685028076e-01 2.296920120716094971e-01 2.133500128984451294e-01
2.781000000000000000e+03 7.124695587158203125e+01 2.039333343505859375e+01 -1.832202792167663574e+00 5.387143611907958984e+00 1.066482305526733398e+00 -1.308674931526184082e+00
2.782000000000000000e+03 7.438916778564453125e+01 2.327114677429199219e+01 -4.243258833885192871e-01 6.482061862945556641e+00 1.817320823669433594e+00 -6.209455132484436035e-01
2.783000000000000000e+03 5.263746261596679688e+01 -1.094142341613769531e+01 1.787372589111328125e+00 4.714798450469970703e+00 1.950651288032531738e+00 -2.716240644454956055e+00
2.784000000000000000e+03 5.491516494750976562e+01 -1.181349277496337891e+01 6.444343328475952148e-01 3.898286819458007812e+00 1.362816333770751953e+00 -3.369280576705932617e+00
2.785000000000000000e+03 5.348147964477539062e+01 -2.777177429199218750e+01 -8.949106931686401367e-01 4.285437583923339844e+00 1.017158031463623047e+00 1.581312537193298340e+00
2.786000000000000000e+03 6.159538650512695312e+01 5.409467697143554688e+00 -8.093220591545104980e-01 4.316648483276367188e+00 1.052197933197021484e+00 -1.797188282012939453e+00
2.787000000000000000e+03 5.651418304443359375e+01 -2.568126296997070312e+01 -2.709299802780151367e+00 7.874414443969726562e+00 1.549534440040588379e+00 1.696305155754089355e+00
2.788000000000000000e+03 2.672614097595214844e+01 3.204324340820312500e+01 5.420650243759155273e-01 1.494976520538330078e+00 6.111124753952026367e-01 -4.775665998458862305e-01
2.789000000000000000e+03 2.364245033264160156e+01 3.355497360229492188e+01 2.506036162376403809e-01 1.151388406753540039e+00 4.205976128578186035e-01 -3.345054984092712402e-01
2.790000000000000000e+03 5.049463272094726562e+01 -1.424783420562744141e+01 -1.296623826026916504e+00 2.897055387496948242e+00 4.801295101642608643e-01 -5.746256113052368164e-01
2.791000000000000000e+03 4.531300354003906250e+01 3.567227554321289062e+01 -9.560770392417907715e-01 3.698665380477905273e+00 8.227764964103698730e-01 -9.844430685043334961e-01
2.792000000000000000e+03 7.781415939331054688e+00 -2.461035728454589844e+01 3.858443722128868103e-02 1.121884435415267944e-01 4.523186385631561279e-02 -1.372625827789306641e-01
2.793000000000000000e+03 9.857608795166015625e+00 6.862010002136230469e+00 -6.654534935951232910e-01 -3.292593955993652344e-01 -2.984138727188110352e-01 3.257575333118438721e-01
2.794000000000000000e+03 1.541505050659179688e+01 -2.419152069091796875e+01 1.426549106836318970e-01 2.613421678543090820e-01 1.211991235613822937e-01 2.377416044473648071e-01
2.795000000000000000e+03 6.752180480957031250e+01 -1.366222381591796875e+01 -3.632712364196777344e-01 1.705601572990417480e+00 4.026990830898284912e-01 -9.452055096626281738e-01
2.796000000000000000e+03 7.547359466552734375e+01 4.049073791503906250e+01 -9.295074641704559326e-02 6.992659091949462891e+00 2.069912433624267578e+00 1.940982043743133545e-01
2.797000000000000000e+03 3.037724733352661133e+00 3.067441940307617188e+01 1.985489577054977417e-02 -9.102897047996520996e-01 -2.671304345130920410e-01 1.291190534830093384e-01
2.798000000000000000e+03 3.007897949218750000e+01 -2.902207946777343750e+01 -5.500736832618713379e-01 1.611577153205871582e+00 3.184510469436645508e-01 -4.178647398948669434e-01
2.799000000000000000e+03 5.816240310668945312e+01 4.174015998840332031e+00 -7.289604842662811279e-02 4.974387168884277344e+00 1.470447301864624023e+00 -1.195905208587646484e+00
2.800000000000000000e+03 5.911439132690429688e+01 8.454567909240722656e+00 4.782441854476928711e-01 6.725803375244140625e+00 2.161214351654052734e+00 -2.247654348611831665e-01
2.801000000000000000e+03 4.222220611572265625e+01 -2.394702529907226562e+01 1.585316300392150879e+00 3.266872644424438477e+00 1.455656647682189941e+00 1.995154261589050293e+00
2.802000000000000000e+03 2.289024353027343750e+01 1.479674339294433594e+01 -7.104225456714630127e-02 6.752674579620361328e-01 1.812675595283508301e-01 -5.548162013292312622e-02
2.803000000000000000e+03 2.088474845886230469e+01 3.336786651611328125e+01 9.111359715461730957e-02 7.488837242126464844e-01 2.519991993904113770e-01 -2.165806144475936890e-01
2.804000000000000000e+03 1.944095802307128906e+01 3.432283020019531250e+01 6.126246601343154907e-02 4.737047553062438965e-01 1.604901701211929321e-01 -1.650457680225372314e-01
2.805000000000000000e+03 5.042515182495117188e+01 3.052249717712402344e+01 1.343468070030212402e+00 6.272895336151123047e+00 2.284909009933471680e+00 4.484122395515441895e-01
2.806000000000000000e+03 5.096120834350585938e+01 3.475957107543945312e+01 -5.662407279014587402e-01 5.652138233184814453e+00 1.525769352912902832e+00 -1.564067304134368896e-01
2.807000000000000000e+03 1.369848346710205078e+01 -7.378629684448242188e+00 7.307223975658416748e-02 1.121656075119972229e-01 5.557135492563247681e-02 -6.402672827243804932e-02
2.808000000000000000e+03 7.219785308837890625e+01 2.134684753417968750e+01 -1.436206698417663574e+00 6.006062984466552734e+00 1.370956897735595703e+00 -8.165993690490722656e-01
2.809000000000000000e+03 5.642306518554687500e+01 1.678076553344726562e+01 1.142307639122009277e+00 5.837292671203613281e+00 2.093880176544189453e+00 -3.333680331707000732e-01
2.810000000000000000e+03 5.705811309814453125e+01 1.787541961669921875e+01 8.212715387344360352e-01 5.310152530670166016e+00 1.839427232742309570e+00 -5.669265389442443848e-01
2.811000000000000000e+03 5.715953063964843750e+01 1.047067356109619141e+01 1.665733814239501953e+00 8.304065704345703125e+00 2.990939855575561523e+00 1.239441990852355957e+00
2.812000000000000000e+03 4.827159500122070312e+01 -4.489598751068115234e+00 1.036980509757995605e+00 8.150095939636230469e+00 2.756123065948486328e+00 -1.967376470565795898e+00
2.813000000000000000e+03 2.402094650268554688e+01 -2.620849037170410156e+01 -2.427349835634231567e-01 1.222213745117187500e+00 2.938436269760131836e-01 1.446290761232376099e-01
2.814000000000000000e+03 2.483597946166992188e+01 -2.710861015319824219e+01 -5.492899417877197266e-01 1.612910270690917969e+00 3.190861046314239502e-01 1.754993498325347900e-01
2.815000000000000000e+03 6.724787902832031250e+01 3.823029327392578125e+01 -6.932799816131591797e-01 4.898555278778076172e+00 1.261582612991333008e+00 1.095691919326782227e-01
2.816000000000000000e+03 1.231068325042724609e+01 -9.609416007995605469e+00 1.752002723515033722e-02 1.042298004031181335e-01 3.652494773268699646e-02 -8.621834218502044678e-02
2.817000000000000000e+03 3.753013992309570312e+01 1.994471549987792969e+01 -6.042234897613525391e-01 2.841318130493164062e+00 6.711283922195434570e-01 -2.394636631011962891e+00
2.818000000000000000e+03 6.667277526855468750e+01 2.868872261047363281e+01 1.685692191123962402e+00 5.316071033477783203e+00 2.100528955459594727e+00 1.128121972084045410e+00
2.819000000000000000e+03 7.315763854980468750e+01 3.194733810424804688e+01 3.936851024627685547e-01 5.920860290527343750e+00 1.894363641738891602e+00 2.409912198781967163e-01
2.820000000000000000e+03 6.822573089599609375e+01 -3.015727615356445312e+01 2.449890613555908203e+00 5.562296390533447266e+00 2.403656005859375000e+00 -1.797696113586425781e+00
2.821000000000000000e+03 1.456698513031005859e+01 -5.179018974304199219e+00 4.939001053571701050e-02 7.879082858562469482e-02 3.845424950122833252e-02 -6.515172123908996582e-02
2.822000000000000000e+03 6.436914825439453125e+01 -1.143779945373535156e+01 -6.479317545890808105e-01 6.846880912780761719e+00 1.859684705734252930e+00 2.656914293766021729e-01
2.823000000000000000e+03 5.636448860168457031e+00 -1.255479145050048828e+01 -4.799984768033027649e-02 -1.567170172929763794e-01 -6.141506135463714600e-02 -7.207494974136352539e-02
2.824000000000000000e+03 5.216988086700439453e+00 -1.143723297119140625e+01 -2.439308911561965942e-02 -1.787720471620559692e-01 -6.094954162836074829e-02 -6.032091751694679260e-02
2.825000000000000000e+03 3.426108169555664062e+01 1.470874404907226562e+01 6.267678141593933105e-01 1.294071555137634277e+00 5.762518048286437988e-01 -1.190781354904174805e+00
2.826000000000000000e+03 4.174804306030273438e+01 -1.881945991516113281e+01 1.047634124755859375e+00 2.096626520156860352e+00 9.432781934738159180e-01 2.332081496715545654e-01
2.827000000000000000e+03 7.463099670410156250e+01 -1.522165107727050781e+01 -7.458497881889343262e-01 6.252610206604003906e+00 1.652028083801269531e+00 6.079727411270141602e-01
2.828000000000000000e+03 2.743656730651855469e+01 -1.763113975524902344e+01 4.694746136665344238e-01 2.359505176544189453e+00 8.486939072608947754e-01 4.794229865074157715e-01
2.829000000000000000e+03 2.793564224243164062e+01 -1.646652412414550781e+01 1.369946748018264771e-01 2.532535314559936523e+00 8.008589744567871094e-01 6.742526292800903320e-01
2.830000000000000000e+03 5.897630214691162109e+00 2.238368606567382812e+01 4.108131179236806929e-05 -4.503021538257598877e-01 -1.350783258676528931e-01 5.309143662452697754e-02
2.831000000000000000e+03 1.622979736328125000e+01 4.100424194335937500e+01 5.892273783683776855e-02 3.761486411094665527e-01 1.305214166641235352e-01 6.706762942485511303e-04
2.832000000000000000e+03 2.787821197509765625e+01 -2.762445640563964844e+01 -7.558525800704956055e-01 2.257666587829589844e+00 4.505441784858703613e-01 2.755479328334331512e-02
2.833000000000000000e+03 8.198610305786132812e+00 -3.104493904113769531e+01 1.396414041519165039e-01 1.038397699594497681e-01 7.304435223340988159e-02 6.823080778121948242e-02
2.834000000000000000e+03 9.124686241149902344e+00 -3.531071090698242188e+01 4.158851876854896545e-02 2.389090210199356079e-01 8.414926379919052124e-02 1.513101756572723389e-01
2.835000000000000000e+03 6.158453750610351562e+01 -1.994169807434082031e+01 2.431797981262207031e+00 5.695517539978027344e+00 2.438194751739501953e+00 -1.510713100433349609e+00
2.836000000000000000e+03 1.232768154144287109e+01 -2.592603302001953125e+01 2.183356583118438721e-01 2.251832634210586548e-01 1.330556720495223999e-01 5.026834085583686829e-02
2.837000000000000000e+03 1.016767597198486328e+01 -2.581551361083984375e+01 1.597806215286254883e-01 1.311593949794769287e-01 8.728200197219848633e-02 -7.326957583427429199e-02
2.838000000000000000e+03 1.953887557983398438e+01 -1.596200561523437500e+01 1.021438930183649063e-02 9.925419837236404419e-02 3.284057602286338806e-02 -3.317067027091979980e-01
2.839000000000000000e+03 2.314528465270996094e+01 -1.955222892761230469e+01 8.226845860481262207e-01 4.840665161609649658e-01 3.920253217220306396e-01 1.873092353343963623e-02
2.840000000000000000e+03 6.727613830566406250e+01 -3.144131469726562500e+01 2.797027587890625000e+00 7.526380062103271484e+00 3.097022294998168945e+00 -2.789770126342773438e+00
2.841000000000000000e+03 6.838280487060546875e+01 -3.109784126281738281e+01 2.383429050445556641e+00 5.625184059143066406e+00 2.402583837509155273e+00 -1.654308319091796875e+00
2.842000000000000000e+03 5.258364105224609375e+01 2.391346168518066406e+01 -2.386006265878677368e-01 5.311989784240722656e+00 1.522016763687133789e+00 -1.189184188842773438e+00
2.843000000000000000e+03 4.899116134643554688e+01 2.845704841613769531e+01 1.719927072525024414e+00 6.254297256469726562e+00 2.392267227172851562e+00 6.870850920677185059e-01
2.844000000000000000e+03 4.896025466918945312e+01 2.736470222473144531e+01 1.980037212371826172e+00 5.831132411956787109e+00 2.343350887298583984e+00 7.707971930503845215e-01
2.845000000000000000e+03 2.558443450927734375e+01 -2.627447891235351562e+01 -3.744276165962219238e-01 1.921297788619995117e+00 4.640610516071319580e-01 1.704652011394500732e-01
2.846000000000000000e+03 2.696352386474609375e+01 -2.746072959899902344e+01 -6.188110113143920898e-01 2.209456682205200195e+00 4.771936833858489990e-01 1.200677976012229919e-01
2.847000000000000000e+03 4.746520233154296875e+01 2.112586593627929688e+01 -1.807375907897949219e+00 4.453320503234863281e+00 7.937833666801452637e-01 1.962963700294494629e+00
2.848000000000000000e+03 2.298233413696289062e+01 1.165066242218017578e+01 1.923848986625671387e-01 3.465459942817687988e-01 1.616792678833007812e-01 8.244465291500091553e-02
2.849000000000000000e+03 2.295058631896972656e+01 1.042258167266845703e+01 2.809196412563323975e-01 2.718459367752075195e-01 1.658296734094619751e-01 4.030559957027435303e-02
2.850000000000000000e+03 1.154339408874511719e+01 -2.991557693481445312e+01 2.535049319267272949e-01 4.360038936138153076e-01 2.068526595830917358e-01 1.241697371006011963e-01
2.851000000000000000e+03 6.386557102203369141e+00 -3.133959770202636719e+01 9.175346046686172485e-02 -4.682460799813270569e-02 1.347865629941225052e-02 6.875766813755035400e-02
2.852000000000000000e+03 2.632364273071289062e+01 -2.130786514282226562e+01 1.020675063133239746e+00 2.223359584808349609e+00 9.732103943824768066e-01 4.197976291179656982e-01
2.853000000000000000e+03 5.521326446533203125e+01 -1.449533653259277344e+01 -9.107188582420349121e-01 5.358953952789306641e+00 1.334470510482788086e+00 -2.675982475280761719e+00
2.854000000000000000e+03 5.608983612060546875e+01 -1.529096889495849609e+01 -6.196039319038391113e-01 6.162881851196289062e+00 1.662983417510986328e+00 -2.107616901397705078e+00
2.855000000000000000e+03 2.770594787597656250e+01 1.030644321441650391e+01 6.542535871267318726e-02 5.470775365829467773e-01 1.837508678436279297e-01 -1.582606136798858643e-01
2.856000000000000000e+03 2.629539299011230469e+01 9.640418052673339844e+00 1.873273849487304688e-01 3.932864367961883545e-01 1.741841435432434082e-01 -2.090676873922348022e-01
2.857000000000000000e+03 7.290972232818603516e+00 1.247787570953369141e+01 -4.386708512902259827e-02 -2.274680435657501221e-01 -8.140053600072860718e-02 5.719103217124938965e-01
2.858000000000000000e+03 5.307549953460693359e+00 1.546168708801269531e+01 2.473404109477996826e-01 -4.108826220035552979e-01 -4.906266555190086365e-02 3.805561363697052002e-01
2.859000000000000000e+03 3.538960647583007812e+01 1.491899108886718750e+01 8.081771135330200195e-01 1.802147269248962402e+00 7.830973267555236816e-01 -1.638193011283874512e+00
2.860000000000000000e+03 3.791197204589843750e+01 1.416999816894531250e+01 1.241434335708618164e+00 3.001796960830688477e+00 1.272969365119934082e+00 -1.814792990684509277e+00
2.861000000000000000e+03 4.160364532470703125e+01 1.504472351074218750e+01 1.703054666519165039e+00 5.601828098297119141e+00 2.191464900970458984e+00 -6.910002231597900391e-01
2.862000000000000000e+03 5.863704681396484375e+01 -2.077581977844238281e+01 2.792815208435058594e+00 5.688715934753417969e+00 2.544459342956542969e+00 -4.256987594999372959e-04
2.863000000000000000e+03 6.094306945800781250e+01 -2.057553672790527344e+01 2.722072601318359375e+00 5.308086395263671875e+00 2.409047842025756836e+00 -1.378856301307678223e+00
2.864000000000000000e+03 4.426752090454101562e+01 -2.433129310607910156e+01 6.510266065597534180e-01 2.713628530502319336e+00 1.009396553039550781e+00 5.136277675628662109e-01
2.865000000000000000e+03 5.674441909790039062e+01 1.505146789550781250e+01 1.488479971885681152e+00 7.260499000549316406e+00 2.624693632125854492e+00 4.396971762180328369e-01
2.866000000000000000e+03 4.241462707519531250e+01 3.811419677734375000e+01 -5.831726789474487305e-01 1.959836125373840332e+00 4.129990339279174805e-01 -7.341966629028320312e-01
2.867000000000000000e+03 1.985181045532226562e+01 2.086225891113281250e+01 4.235056042671203613e-01 6.236861348152160645e-01 3.141575157642364502e-01 -7.478456944227218628e-02
2.868000000000000000e+03 5.329434585571289062e+01 -3.243733978271484375e+01 2.554397344589233398e+00 6.331932067871093750e+00 2.665898799896240234e+00 6.215772032737731934e-01
2.869000000000000000e+03 1.810873222351074219e+01 -2.383820724487304688e+01 2.936010956764221191e-01 6.187835708260536194e-02 1.066438332200050354e-01 4.409837722778320312e-01
2.870000000000000000e+03 3.507052230834960938e+01 2.464514350891113281e+01 1.346200108528137207e+00 5.730609416961669922e+00 2.123042821884155273e+00 -1.476015806198120117e+00
2.871000000000000000e+03 5.266870880126953125e+01 -2.809772109985351562e+01 1.593863219022750854e-01 3.720611095428466797e+00 1.163999199867248535e+00 7.742171883583068848e-01
2.872000000000000000e+03 7.345215606689453125e+01 2.015498352050781250e+01 -1.675898432731628418e+00 7.041448593139648438e+00 1.609665036201477051e+00 -3.876222968101501465e-01
2.873000000000000000e+03 4.218457031250000000e+01 1.274266147613525391e+01 1.900985479354858398e+00 7.188208580017089844e+00 2.726758241653442383e+00 -1.031254380941390991e-01
2.874000000000000000e+03 2.702254486083984375e+01 1.196853065490722656e+01 8.299246430397033691e-02 3.976846933364868164e-01 1.442031413316726685e-01 -8.333106338977813721e-02
2.875000000000000000e+03 2.829603195190429688e+01 1.152863311767578125e+01 4.918376356363296509e-02 4.300262331962585449e-01 1.437630057334899902e-01 -3.132783574983477592e-03
2.876000000000000000e+03 3.063641357421875000e+01 -3.499874114990234375e+01 3.306771516799926758e-01 1.452445626258850098e+00 5.349368453025817871e-01 1.445972770452499390e-01
2.877000000000000000e+03 4.975532913208007812e+01 3.361674499511718750e+01 -9.600698202848434448e-02 5.482231140136718750e+00 1.615867257118225098e+00 -1.763022243976593018e-01
2.878000000000000000e+03 6.271641540527343750e+01 -1.091086483001708984e+01 -6.974154710769653320e-01 7.384652614593505859e+00 2.006171226501464844e+00 9.215990304946899414e-01
2.879000000000000000e+03 4.521047973632812500e+01 -1.568711280822753906e+01 -2.186990022659301758e+00 5.184554100036621094e+00 8.992691636085510254e-01 2.124619483947753906e+00
2.880000000000000000e+03 4.310026550292968750e+01 -1.637795066833496094e+01 -6.700047850608825684e-01 1.736653923988342285e+00 3.199947476387023926e-01 7.007642984390258789e-01
2.881000000000000000e+03 1.303670310974121094e+01 2.068646430969238281e+01 3.736533522605895996e-01 2.674108445644378662e-01 1.923192590475082397e-01 5.046811699867248535e-01
2.882000000000000000e+03 5.986690902709960938e+01 1.870616912841796875e+01 1.275662899017333984e+00 7.114336013793945312e+00 2.516999721527099609e+00 1.508071303367614746e+00
2.883000000000000000e+03 5.986278533935546875e+01 1.990971755981445312e+01 2.640056014060974121e-01 5.640382766723632812e+00 1.771316528320312500e+00 1.327020525932312012e+00
2.884000000000000000e+03 6.481054306030273438e+00 1.778160095214843750e+01 3.463894128799438477e-01 -3.462751507759094238e-01 3.428140189498662949e-05 2.075805366039276123e-01
2.885000000000000000e+03 8.204377174377441406e+00 1.761771202087402344e+01 4.886789619922637939e-01 -8.245639503002166748e-02 1.218667700886726379e-01 2.455533593893051147e-01
2.886000000000000000e+03 3.176217842102050781e+01 4.095439910888671875e+01 -6.340995430946350098e-01 2.145265579223632812e+00 4.533497691154479980e-01 -1.059338450431823730e-02
2.887000000000000000e+03 1.871663856506347656e+01 -1.767532539367675781e+01 2.621070742607116699e-01 6.150088831782341003e-02 9.708239138126373291e-02 -2.816852629184722900e-01
2.888000000000000000e+03 9.886899948120117188e+00 -3.056040954589843750e+01 2.100952118635177612e-01 2.678641080856323242e-01 1.433877944946289062e-01 7.664328813552856445e-02
2.889000000000000000e+03 5.838270950317382812e+01 1.511402988433837891e+01 1.969936251640319824e+00 8.064538955688476562e+00 3.010342359542846680e+00 1.405993580818176270e+00
2.890000000000000000e+03 1.005195426940917969e+01 1.959223747253417969e+01 3.788764774799346924e-01 1.339160948991775513e-01 1.538377702236175537e-01 1.851056516170501709e-01
2.891000000000000000e+03 7.407466411590576172e+00 1.840901565551757812e+01 3.883561491966247559e-01 -2.259890139102935791e-01 4.871014133095741272e-02 1.601244807243347168e-01
2.892000000000000000e+03 8.367945671081542969e+00 -3.690684890747070312e+01 -4.113991186022758484e-02 1.551697850227355957e-01 3.420896083116531372e-02 1.746177375316619873e-01
2.893000000000000000e+03 3.951432037353515625e+01 1.367128753662109375e+01 1.510208845138549805e+00 4.207518100738525391e+00 1.715318083763122559e+00 -1.388968229293823242e+00
2.894000000000000000e+03 4.234519958496093750e+01 2.338247776031494141e+00 -4.165290892124176025e-01 1.155855751037597656e+01 3.342608451843261719e+00 -9.632182121276855469e-01
2.895000000000000000e+03 4.400546646118164062e+01 1.075925584882497787e-02 6.983844280242919922e+00 5.600644588470458984e+00 3.775346755981445312e+00 -1.928035974502563477e+00
2.896000000000000000e+03 4.334665679931640625e+01 1.635304689407348633e+00 3.759696722030639648e+00 9.707452774047851562e+00 4.040144920349121094e+00 1.341111421585083008e+00
2.897000000000000000e+03 4.687969207763671875e+01 5.194662094116210938e+00 -1.085883021354675293e+00 4.188241481781005859e+00 9.307075738906860352e-01 -1.335513114929199219e+00
2.898000000000000000e+03 4.654513549804687500e+01 4.341461658477783203e+00 -8.789235353469848633e-02 4.588500022888183594e+00 1.350182294845581055e+00 -1.073688745498657227e+00
2.899000000000000000e+03 4.136995697021484375e+01 3.573941469192504883e+00 -1.393273830413818359e+00 8.056108474731445312e+00 1.998850345611572266e+00 -2.746286869049072266e+00
2.900000000000000000e+03 4.120734024047851562e+01 3.111622333526611328e+00 -1.259377241134643555e+00 7.973554611206054688e+00 2.014253139495849609e+00 -3.168947219848632812e+00
2.901000000000000000e+03 4.275619506835937500e+01 -2.931139469146728516e+00 -1.507679104804992676e+00 2.009229660034179688e+00 1.504651308059692383e-01 -8.103197813034057617e-01
2.902000000000000000e+03 4.263639450073242188e+01 2.796648263931274414e+00 -6.396839022636413574e-01 1.055336570739746094e+01 2.974104642868041992e+00 -1.022567987442016602e+00
2.903000000000000000e+03 4.337912750244140625e+01 -1.966537117958068848e+00 1.921702504158020020e+00 4.900640010833740234e+00 2.046702861785888672e+00 -2.867926359176635742e+00
2.904000000000000000e+03 4.042025375366210938e+01 3.817443609237670898e+00 -9.616197943687438965e-01 5.747315883636474609e+00 1.435708880424499512e+00 -2.656142234802246094e+00
2.905000000000000000e+03 4.043595886230468750e+01 3.211574554443359375e+00 -9.247351288795471191e-01 5.393326759338378906e+00 1.340577483177185059e+00 -2.789756536483764648e+00
2.906000000000000000e+03 3.936091613769531250e+01 -8.957323431968688965e-01 2.967370510101318359e+00 1.226243019104003906e+00 1.258084058761596680e+00 4.083961486816406250e+00
2.907000000000000000e+03 3.943460845947265625e+01 -2.279400348663330078e+00 1.696337819099426270e+00 3.724687814712524414e+00 1.626307725906372070e+00 5.641731262207031250e+00
2.908000000000000000e+03 1.208703231811523438e+01 4.713334083557128906e+00 -4.780735671520233154e-01 -3.201859891414642334e-01 -2.394778728485107422e-01 3.758232593536376953e-01
2.909000000000000000e+03 1.078054809570312500e+01 6.439045429229736328e+00 -6.810430288314819336e-01 -3.907576203346252441e-01 -3.215401768684387207e-01 3.042756319046020508e-01
2.910000000000000000e+03 4.930213928222656250e+00 -5.972413539886474609e+00 4.724821541458368301e-03 -7.827086001634597778e-02 -2.206381224095821381e-02 -5.290725454688072205e-02
2.911000000000000000e+03 1.414229202270507812e+01 -3.391398906707763672e+00 -1.014639884233474731e-01 -9.018056094646453857e-02 -5.749336630105972290e-02 -1.112155541777610779e-01
2.912000000000000000e+03 1.336672782897949219e+01 -3.598684787750244141e+00 -4.017041530460119247e-03 8.879638463258743286e-02 2.543380297720432281e-02 -1.105832532048225403e-01
2.913000000000000000e+03 9.613368034362792969e+00 -9.125464439392089844e+00 3.509872779250144958e-02 -9.390874952077865601e-02 -1.764300465583801270e-02 -1.095086112618446350e-01
2.914000000000000000e+03 2.614818954467773438e+01 3.981453418731689453e+00 -2.508233189582824707e-01 1.670773886144161224e-02 -7.023467868566513062e-02 1.022275835275650024e-01
2.915000000000000000e+03 2.271802330017089844e+01 5.858247280120849609e+00 -2.996279112994670868e-02 -1.093941330909729004e-01 -4.180707782506942749e-02 1.207280438393354416e-02
2.916000000000000000e+03 2.606633377075195312e+01 5.904873371124267578e+00 2.540206909179687500e-01 8.560487627983093262e-02 1.018876656889915466e-01 -1.648442298173904419e-01
2.917000000000000000e+03 6.851904869079589844e+00 -4.529972076416015625e+00 -1.531839743256568909e-02 -3.060312569141387939e-02 -1.377645693719387054e-02 -8.963608741760253906e-02
2.918000000000000000e+03 6.895312786102294922e+00 -5.445623874664306641e+00 -1.711991988122463226e-02 -9.574639052152633667e-02 -3.385989367961883545e-02 -1.172556281089782715e-01
2.919000000000000000e+03 7.637699127197265625e+00 -4.438683509826660156e+00 -3.122031502425670624e-02 -1.116897985339164734e-01 -4.287303239107131958e-02 -1.241765320301055908e-01
2.920000000000000000e+03 2.466923713684082031e+01 4.480412006378173828e+00 -2.881696522235870361e-01 -1.157736554741859436e-01 -1.211829930543899536e-01 6.097083166241645813e-02
2.921000000000000000e+03 2.502608489990234375e+01 6.007364749908447266e+00 1.639174073934555054e-01 -4.204026982188224792e-02 3.656314313411712646e-02 -9.287057816982269287e-02
2.922000000000000000e+03 2.369787216186523438e+01 6.565875530242919922e+00 1.937337964773178101e-01 -6.874049454927444458e-02 3.749798983335494995e-02 -6.639486551284790039e-02
2.923000000000000000e+03 2.784282875061035156e+01 4.551320552825927734e+00 2.611762285232543945e-01 5.187379121780395508e-01 2.339742481708526611e-01 -1.150567755103111267e-01
2.924000000000000000e+03 1.262131500244140625e+01 5.345166683197021484e+00 -5.789476633071899414e-01 -3.873718976974487305e-01 -2.898958623409271240e-01 4.769441485404968262e-01
2.925000000000000000e+03 2.542421579360961914e+00 6.406851768493652344e+00 -6.938289105892181396e-02 -8.504084311425685883e-03 -2.336609177291393280e-02 5.037163570523262024e-02
2.926000000000000000e+03 4.795893669128417969e+00 4.178657531738281250e+00 -1.051861792802810669e-01 -1.733543165028095245e-02 -3.675648197531700134e-02 -2.121283113956451416e-02
2.927000000000000000e+03 1.173978328704833984e+01 -3.892430543899536133e+00 -3.497244417667388916e-02 3.377534449100494385e-02 -3.591300628613680601e-04 -1.143432036042213440e-01
2.928000000000000000e+03 1.285795402526855469e+01 -5.216416358947753906e+00 1.097704656422138214e-02 -6.803773343563079834e-02 -1.711820624768733978e-02 -1.507333964109420776e-01
2.929000000000000000e+03 4.603125381469726562e+01 -3.372029304504394531e+00 2.764284014701843262e-01 5.938093662261962891e+00 1.864356637001037598e+00 -3.856672763824462891e+00
2.930000000000000000e+03 6.865705490112304688e+00 4.061735630035400391e+00 -1.680417805910110474e-01 -5.833370238542556763e-02 -6.791264563798904419e-02 8.551954291760921478e-03
2.931000000000000000e+03 4.758046150207519531e+00 4.811020851135253906e+00 -1.386361718177795410e-01 -2.676724083721637726e-02 -4.962102696299552917e-02 9.852954186499118805e-03
2.932000000000000000e+03 4.693205833435058594e+00 6.344939231872558594e+00 -2.000964730978012085e-01 -4.768292233347892761e-02 -7.433381676673889160e-02 9.840679913759231567e-02
2.933000000000000000e+03 6.212679862976074219e+00 4.849260807037353516e+00 -2.161511778831481934e-01 -5.312751233577728271e-02 -8.078360557556152344e-02 3.235112875699996948e-02
2.934000000000000000e+03 7.515178203582763672e+00 4.030456066131591797e+00 -1.887561082839965820e-01 -6.492102891206741333e-02 -7.610314339399337769e-02 1.784924976527690887e-02
2.935000000000000000e+03 4.219680309295654297e+00 4.418793201446533203e+00 -9.563928097486495972e-02 -1.062603760510683060e-02 -3.187959641218185425e-02 -1.534228492528200150e-02
2.936000000000000000e+03 3.410965728759765625e+01 -5.145439624786376953e+00 2.222457408905029297e+00 1.189955353736877441e+00 1.023723840713500977e+00 6.454098820686340332e-01
2.937000000000000000e+03 1.044185066223144531e+01 5.488049030303955078e+00 -4.996415078639984131e-01 -3.111490607261657715e-01 -2.432371675968170166e-01 2.415645122528076172e-01
2.938000000000000000e+03 9.380061149597167969e+00 5.149416446685791016e+00 -4.241682887077331543e-01 -2.042187750339508057e-01 -1.885161250829696655e-01 1.466720998287200928e-01
2.939000000000000000e+03 7.961222171783447266e+00 6.333040237426757812e+00 -4.268816411495208740e-01 -1.675960421562194824e-01 -1.783433109521865845e-01 1.734750568866729736e-01
2.940000000000000000e+03 4.931528854370117188e+01 -3.299396514892578125e+00 1.351753473281860352e+00 7.465829372406005859e+00 2.645274877548217773e+00 -1.621642231941223145e+00
2.941000000000000000e+03 4.744141387939453125e+01 -2.703839063644409180e+00 1.367690920829772949e+00 6.324848651885986328e+00 2.307761907577514648e+00 -3.164243698120117188e+00
2.942000000000000000e+03 4.527588272094726562e+01 6.346741199493408203e+00 -1.468311667442321777e+00 6.889583110809326172e+00 1.626381397247314453e+00 -1.261332750320434570e+00
2.943000000000000000e+03 1.188200378417968750e+01 -4.659271717071533203e+00 -1.120369974523782730e-02 -1.126756444573402405e-01 -3.716380149126052856e-02 -1.449090093374252319e-01
2.944000000000000000e+03 1.535143661499023438e+01 -3.601869344711303711e+00 -3.865681216120719910e-02 -3.817409276962280273e-02 -2.304927073419094086e-02 2.041733590885996819e-03
2.945000000000000000e+03 5.690123748779296875e+01 1.964104080200195312e+01 -8.808794617652893066e-02 4.038085460662841797e+00 1.184999227523803711e+00 -1.494306564331054688e+00
2.946000000000000000e+03 4.866423034667968750e+01 -2.754877805709838867e+00 1.531294226646423340e+00 6.737421035766601562e+00 2.480614423751831055e+00 -2.170908212661743164e+00
2.947000000000000000e+03 4.978207397460937500e+01 -5.681351423263549805e-01 1.644945383071899414e+00 5.369813442230224609e+00 2.104427814483642578e+00 -9.079684019088745117e-01
2.948000000000000000e+03 5.198210144042968750e+01 7.507272362709045410e-01 5.110633969306945801e-01 5.272447109222412109e+00 1.735053062438964844e+00 1.606476545333862305e+00
2.949000000000000000e+03 3.269186401367187500e+01 -7.450420856475830078e+00 1.617585420608520508e+00 7.045581340789794922e-01 6.966430544853210449e-01 1.666144490242004395e+00
2.950000000000000000e+03 3.172686958312988281e+01 -9.628583908081054688e+00 1.198688745498657227e+00 8.467551469802856445e-01 6.136332154273986816e-01 2.203955650329589844e+00
2.951000000000000000e+03 1.146906280517578125e+01 -2.790737724304199219e+01 2.340229302644729614e-01 2.978874146938323975e-01 1.595731079578399658e-01 5.355856940150260925e-02
2.952000000000000000e+03 8.054293632507324219e+00 -6.272512435913085938e+00 1.518579386174678802e-02 -1.359733641147613525e-01 -3.623627126216888428e-02 -1.248376965522766113e-01
2.953000000000000000e+03 1.019150161743164062e+01 -4.898079395294189453e+00 -7.438745349645614624e-03 -1.222863495349884033e-01 -3.891753032803535461e-02 -1.408988684415817261e-01
2.954000000000000000e+03 4.909648513793945312e+01 -5.474477767944335938e+00 1.840840220451354980e+00 9.053861618041992188e+00 3.268410682678222656e+00 -8.689420819282531738e-01
2.955000000000000000e+03 1.475607776641845703e+01 -8.588122367858886719e+00 6.632073968648910522e-02 2.083479911088943481e-01 8.240061998367309570e-02 -5.756919458508491516e-02
2.956000000000000000e+03 3.344948577880859375e+01 -1.056795120239257812e+01 8.094903826713562012e-01 1.410877346992492676e+00 6.661103367805480957e-01 2.389613866806030273e+00
2.957000000000000000e+03 3.393693161010742188e+01 -7.622588634490966797e+00 2.443998813629150391e+00 1.875854015350341797e+00 1.295955777168273926e+00 2.029417991638183594e+00
2.958000000000000000e+03 4.467870712280273438e+01 -2.284745693206787109e+00 1.332292675971984863e+00 4.188333034515380859e+00 1.656187772750854492e+00 -4.251408576965332031e+00
2.959000000000000000e+03 3.468212127685546875e+01 -8.503530502319335938e+00 2.096739768981933594e+00 2.573882818222045898e+00 1.401186823844909668e+00 2.217073917388916016e+00
2.960000000000000000e+03 3.480696868896484375e+01 -7.674501895904541016e+00 2.557730913162231445e+00 2.981773614883422852e+00 1.661851286888122559e+00 2.019285202026367188e+00
2.961000000000000000e+03 7.200303554534912109e+00 7.391709804534912109e+00 -4.351991415023803711e-01 -1.544339507818222046e-01 -1.768899261951446533e-01 2.179761379957199097e-01
2.962000000000000000e+03 4.153588485717773438e+01 4.905710220336914062e+00 -1.182345032691955566e+00 7.993892669677734375e+00 2.043464183807373047e+00 -2.476527929306030273e+00
2.963000000000000000e+03 1.589558601379394531e+01 -8.655616760253906250e+00 -1.513895578682422638e-02 2.551012635231018066e-01 7.198869436979293823e-02 6.572096608579158783e-03
2.964000000000000000e+03 4.196448516845703125e+01 -1.979223442077636719e+01 1.356610417366027832e+00 2.651859998703002930e+00 1.202541112899780273e+00 5.191042423248291016e-01
2.965000000000000000e+03 3.289768981933593750e+01 -6.112763404846191406e+00 1.819306850433349609e+00 5.497323870658874512e-01 7.107117772102355957e-01 8.490789532661437988e-01
2.966000000000000000e+03 4.329225540161132812e+01 -1.728630828857421875e+01 1.728076934814453125e-01 2.420042753219604492e+00 7.778550982475280762e-01 6.877297759056091309e-01
2.967000000000000000e+03 2.131824111938476562e+01 -1.762072181701660156e+01 4.126565456390380859e-01 4.060431197285652161e-02 1.359782665967941284e-01 -2.679243087768554688e-01
2.968000000000000000e+03 2.027770805358886719e+01 -1.916494560241699219e+01 5.099468231201171875e-01 4.560411348938941956e-02 1.666652709245681763e-01 -1.461557596921920776e-01
2.969000000000000000e+03 7.037734985351562500e+01 2.419734764099121094e+01 9.327590465545654297e-02 4.109352111816406250e+00 1.260788321495056152e+00 -1.041655182838439941e+00
2.970000000000000000e+03 3.477415466308593750e+01 1.726202964782714844e+01 3.137187361717224121e-01 2.502588033676147461e+00 8.448920249938964844e-01 -1.622541069984436035e+00
2.971000000000000000e+03 6.817643737792968750e+01 2.266338539123535156e+01 -5.741662383079528809e-01 1.765105485916137695e+00 3.572817742824554443e-01 -8.592413663864135742e-01
2.972000000000000000e+03 6.887693786621093750e+01 2.747168540954589844e+01 1.545222043991088867e+00 4.311972141265869141e+00 1.757158279418945312e+00 2.522030472755432129e-01
2.973000000000000000e+03 5.123676681518554688e+01 -3.039852523803710938e+01 2.079538583755493164e+00 4.888190269470214844e+00 2.090318679809570312e+00 -1.988145709037780762e-01
2.974000000000000000e+03 5.182740783691406250e+01 -2.788768386840820312e+01 -3.481592833995819092e-01 3.614561557769775391e+00 9.799206852912902832e-01 1.333198249340057373e-01
2.975000000000000000e+03 5.785916137695312500e+01 -2.153899192810058594e+01 2.729319334030151367e+00 6.192407608032226562e+00 2.676518201828002930e+00 1.590439975261688232e-01
2.976000000000000000e+03 7.325279235839843750e+01 -3.322306060791015625e+01 8.397992849349975586e-01 5.702301979064941406e+00 1.962630391120910645e+00 -3.466953039169311523e-01
2.977000000000000000e+03 5.379550170898437500e+01 -1.147591686248779297e+01 6.305056810379028320e-01 4.455728054046630859e+00 1.525870203971862793e+00 -3.235962390899658203e+00
2.978000000000000000e+03 6.128714370727539062e+01 1.313076138496398926e+00 -6.475198864936828613e-01 5.694450855255126953e+00 1.514079332351684570e+00 -1.689698338508605957e+00
2.979000000000000000e+03 6.233703613281250000e+01 -2.152351760864257812e+01 3.098308563232421875e+00 5.681455612182617188e+00 2.633929252624511719e+00 -1.976824879646301270e+00
2.980000000000000000e+03 1.054597759246826172e+01 -2.830011367797851562e+01 2.369552850723266602e-01 2.504563629627227783e-01 1.462234854698181152e-01 2.590825222432613373e-02
2.981000000000000000e+03 6.575508117675781250e+01 2.258582115173339844e+01 -2.505070269107818604e-01 2.375989913940429688e+00 6.376448869705200195e-01 1.569710254669189453e+00
2.982000000000000000e+03 6.689464569091796875e+01 1.645188450813293457e+00 4.877410829067230225e-01 2.848758697509765625e+00 1.000949859619140625e+00 1.763989567756652832e+00
2.983000000000000000e+03 5.440320968627929688e+01 2.928725719451904297e+00 -4.023101031780242920e-01 4.648440361022949219e+00 1.273838996887207031e+00 2.487733125686645508e+00
2.984000000000000000e+03 4.156505203247070312e+01 5.749193191528320312e+00 -7.324289083480834961e-01 7.833541870117187500e+00 2.130333900451660156e+00 -2.159551620483398438e+00
2.985000000000000000e+03 5.732799530029296875e+01 3.415781259536743164e+00 -1.459802389144897461e-01 4.310596466064453125e+00 1.249384880065917969e+00 -3.386859893798828125e-01
2.986000000000000000e+03 3.996945142745971680e+00 1.229038429260253906e+01 -3.195479512214660645e-02 -3.155646324157714844e-01 -1.042558327317237854e-01 4.181156158447265625e-01
2.987000000000000000e+03 7.060672760009765625e+00 1.065875816345214844e+01 -2.807908654212951660e-01 -1.738605201244354248e-01 -1.363954097032546997e-01 4.974171519279479980e-01
2.988000000000000000e+03 5.163113784790039062e+01 2.595692396163940430e+00 3.755300343036651611e-01 3.813717603683471680e+00 1.256774306297302246e+00 2.311838865280151367e+00
2.989000000000000000e+03 5.551496124267578125e+01 5.092453479766845703e+00 -1.793022155761718750e-01 6.671046257019042969e+00 1.947523117065429688e+00 1.117902398109436035e+00
2.990000000000000000e+03 4.057734298706054688e+01 1.900416374206542969e+01 3.780527412891387939e-02 2.277761459350585938e+00 6.946700215339660645e-01 -1.275867342948913574e+00
2.991000000000000000e+03 2.083895874023437500e+01 -2.341851234436035156e+01 5.610578060150146484e-01 1.897135563194751740e-02 1.740087568759918213e-01 3.114676475524902344e-01
2.992000000000000000e+03 6.381046295166015625e+01 5.299752235412597656e+00 -7.650595307350158691e-01 2.177094936370849609e+00 4.236106276512145996e-01 -1.168186783790588379e+00
2.993000000000000000e+03 7.344579315185546875e+01 -2.920909118652343750e+01 -1.977014243602752686e-01 5.870175838470458984e+00 1.701742410659790039e+00 1.188269019126892090e+00
2.994000000000000000e+03 5.645003318786621094e+00 -2.485117340087890625e+01 4.481140524148941040e-02 1.779492571949958801e-02 1.878189854323863983e-02 -5.880053341388702393e-02
2.995000000000000000e+03 5.337645053863525391e+00 -2.770385742187500000e+01 2.895768173038959503e-02 -9.962400048971176147e-02 -2.119989506900310516e-02 -2.024210803210735321e-02
2.996000000000000000e+03 5.875595092773437500e+01 6.575098991394042969e+00 4.656695723533630371e-01 6.069028854370117188e+00 1.960409522056579590e+00 -9.709395766258239746e-01
2.997000000000000000e+03 2.687030220031738281e+01 6.279849529266357422e+00 2.904454171657562256e-01 2.944414615631103516e-01 1.754660606384277344e-01 -2.479389905929565430e-01
2.998000000000000000e+03 5.758410263061523438e+01 1.605631256103515625e+01 1.681680083274841309e+00 7.007835865020751953e+00 2.606854677200317383e+00 7.945976853370666504e-01
2.999000000000000000e+03 5.836834335327148438e+01 1.723485755920410156e+01 1.934767961502075195e+00 6.673687934875488281e+00 2.582536697387695312e+00 8.808718323707580566e-01
3.000000000000000000e+03 5.196261978149414062e+01 1.676407217979431152e+00 2.858438789844512939e-01 4.677208900451660156e+00 1.488915920257568359e+00 1.902669072151184082e+00
3.001000000000000000e+03 2.225646972656250000e+01 3.197388839721679688e+01 2.885958552360534668e-01 9.268636703491210938e-01 3.646378517150878906e-01 -1.550302952527999878e-01
3.002000000000000000e+03 2.359148406982421875e+01 3.208927917480468750e+01 3.197687268257141113e-01 1.099838376045227051e+00 4.258821308612823486e-01 -2.025914639234542847e-01
3.003000000000000000e+03 6.177792739868164062e+01 -1.144040393829345703e+01 -6.250813603401184082e-01 6.616328239440917969e+00 1.797374129295349121e+00 1.324552655220031738e+00
3.004000000000000000e+03 2.184040069580078125e+01 6.707569599151611328e+00 1.621913015842437744e-01 -3.002070449292659760e-02 3.965117782354354858e-02 2.400913834571838379e-02
3.005000000000000000e+03 4.335042572021484375e+01 -2.540669822692871094e+01 5.797414183616638184e-01 1.795723676681518555e+00 7.126395106315612793e-01 1.020971775054931641e+00
3.006000000000000000e+03 2.573799514770507812e+01 -1.974592971801757812e+01 1.029524326324462891e+00 1.662648081779479980e+00 8.076516985893249512e-01 3.043929934501647949e-01
3.007000000000000000e+03 1.942114067077636719e+01 -1.859696960449218750e+01 3.480668663978576660e-01 7.142604142427444458e-02 1.258478760719299316e-01 -2.037996500730514526e-01
3.008000000000000000e+03 2.422571563720703125e+01 1.060802173614501953e+01 2.677795886993408203e-01 2.599339485168457031e-01 1.583140641450881958e-01 -3.074683807790279388e-02
3.009000000000000000e+03 8.087232589721679688e+00 7.322531223297119141e+00 -4.806480109691619873e-01 -2.098730057477951050e-01 -2.071563005447387695e-01 2.334816753864288330e-01
3.010000000000000000e+03 7.839128971099853516e+00 5.404885768890380859e+00 -3.499599099159240723e-01 -1.208468377590179443e-01 -1.412420272827148438e-01 8.953490108251571655e-02
3.011000000000000000e+03 2.612595558166503906e+01 -1.862851333618164062e+01 8.246387839317321777e-01 1.736545801162719727e+00 7.683553695678710938e-01 2.337076514959335327e-01
3.012000000000000000e+03 4.440408325195312500e+01 -2.539480590820312500e+01 2.177306711673736572e-01 1.941895008087158203e+00 6.478877067565917969e-01 7.516258955001831055e-02
3.013000000000000000e+03 6.969343566894531250e+01 1.835312247276306152e+00 5.334104299545288086e-01 1.893179297447204590e+00 7.279769182205200195e-01 1.934090256690979004e+00
3.014000000000000000e+03 7.211530303955078125e+01 1.349107027053833008e+00 9.887805581092834473e-02 3.125715017318725586e+00 9.673779010772705078e-01 -9.416157752275466919e-02
3.015000000000000000e+03 7.447753143310546875e+01 1.416795969009399414e+00 -5.323053002357482910e-01 5.619236469268798828e+00 1.526079416275024414e+00 -8.191582560539245605e-01
3.016000000000000000e+03 2.661214256286621094e+01 -2.837706184387207031e+01 -6.990125179290771484e-01 2.114931344985961914e+00 4.247756600379943848e-01 1.009085997939109802e-01
3.017000000000000000e+03 6.372546386718750000e+01 -2.233127057552337646e-01 2.684609889984130859e-01 6.034586429595947266e+00 1.890914201736450195e+00 1.377763301134109497e-01
3.018000000000000000e+03 1.072266197204589844e+01 -1.023908138275146484e+01 1.190221961587667465e-02 -1.051747519522905350e-02 4.154233320150524378e-04 -1.126775518059730530e-01
3.019000000000000000e+03 7.446247100830078125e+01 3.257260131835937500e+01 2.962188124656677246e-01 6.281476974487304688e+00 1.973308682441711426e+00 2.133980542421340942e-01
3.020000000000000000e+03 7.440584564208984375e+01 2.802238655090332031e+01 3.768633902072906494e-01 6.125336170196533203e+00 1.950659871101379395e+00 -2.980833351612091064e-01
3.021000000000000000e+03 2.598529434204101562e+01 -1.612037277221679688e+01 1.577782034873962402e-01 1.356325149536132812e+00 4.542310237884521484e-01 3.261661529541015625e-01
3.022000000000000000e+03 2.646267318725585938e+01 7.051600456237792969e+00 3.948642909526824951e-01 2.378623187541961670e-01 1.898179799318313599e-01 -2.698704004287719727e-01
3.023000000000000000e+03 2.635211181640625000e+01 4.661840438842773438e+00 4.337167833000421524e-03 8.392629027366638184e-02 2.647903747856616974e-02 -2.583445236086845398e-02
3.024000000000000000e+03 2.496700096130371094e+01 -2.543310737609863281e+01 -1.191597245633602142e-02 1.576150298118591309e+00 4.692702889442443848e-01 2.663155794143676758e-01
3.025000000000000000e+03 2.030611038208007812e+01 -1.813031387329101562e+01 4.122877418994903564e-01 4.438763111829757690e-02 1.370026171207427979e-01 -2.500915825366973877e-01
3.026000000000000000e+03 2.057152175903320312e+01 -1.657853698730468750e+01 1.471428126096725464e-01 2.720034494996070862e-02 5.230294540524482727e-02 -3.598797321319580078e-01
3.027000000000000000e+03 3.595017242431640625e+01 1.762242126464843750e+01 2.397789359092712402e-01 2.744070291519165039e+00 8.951547741889953613e-01 -2.101191043853759766e+00
3.028000000000000000e+03 3.537162780761718750e+01 1.876074409484863281e+01 -3.006476350128650665e-02 3.116852521896362305e+00 9.260362982749938965e-01 -1.904576420783996582e+00
3.029000000000000000e+03 7.482929229736328125e+01 2.157431602478027344e+01 -8.237481713294982910e-01 6.997806072235107422e+00 1.852217435836791992e+00 -3.048990964889526367e-01
3.030000000000000000e+03 7.568244171142578125e+01 2.464513397216796875e+01 -8.372031152248382568e-02 6.741173267364501953e+00 1.997235894203186035e+00 -4.488575458526611328e-01
3.031000000000000000e+03 7.330618286132812500e+01 2.330125617980957031e+01 -6.567804217338562012e-01 6.073296546936035156e+00 1.624954819679260254e+00 -7.605782747268676758e-01
3.032000000000000000e+03 7.574343872070312500e+01 2.593039321899414062e+01 -2.528243325650691986e-02 6.642687320709228516e+00 1.985221505165100098e+00 -4.356366395950317383e-01
3.033000000000000000e+03 7.274597167968750000e+01 2.563086318969726562e+01 1.828601211309432983e-01 5.459073066711425781e+00 1.692579865455627441e+00 -6.790454387664794922e-01
3.034000000000000000e+03 7.570708465576171875e+01 2.192740631103515625e+01 -5.787436962127685547e-01 7.157073020935058594e+00 1.973498821258544922e+00 -1.381268203258514404e-01
3.035000000000000000e+03 4.393731689453125000e+01 6.701372146606445312e+00 -1.196502685546875000e+00 7.776503562927246094e+00 1.974000334739685059e+00 -1.252853870391845703e+00
3.036000000000000000e+03 4.362262344360351562e+01 3.670672178268432617e+00 -6.039294004440307617e-01 8.738448143005371094e+00 2.440355539321899414e+00 -1.022623181343078613e+00
3.037000000000000000e+03 7.833673858642578125e+01 -2.495909309387207031e+01 -1.600978523492813110e-02 7.552501678466796875e+00 2.260947465896606445e+00 -6.234726309776306152e-01
3.038000000000000000e+03 7.381909179687500000e+01 1.061858654022216797e+01 1.647171497344970703e+00 8.884282112121582031e+00 3.159436225891113281e+00 1.981513500213623047e-01
3.039000000000000000e+03 7.489315795898437500e+01 1.132297229766845703e+01 1.546648740768432617e+00 8.578981399536132812e+00 3.037689208984375000e+00 -3.542094677686691284e-02
3.040000000000000000e+03 7.592654418945312500e+01 8.240197181701660156e+00 2.386591285467147827e-01 7.305370807647705078e+00 2.263209104537963867e+00 -9.292263984680175781e-01
3.041000000000000000e+03 7.221537780761718750e+01 3.952565431594848633e+00 -9.495566785335540771e-02 4.848476409912109375e+00 1.426056265830993652e+00 4.390533566474914551e-01
3.042000000000000000e+03 7.484138488769531250e+01 4.714599609375000000e+00 -2.278821915388107300e-01 6.580740928649902344e+00 1.905857563018798828e+00 -7.233960628509521484e-01
3.043000000000000000e+03 7.557884216308593750e+01 1.904031181335449219e+01 -6.285815834999084473e-01 7.560534954071044922e+00 2.079586029052734375e+00 6.381569504737854004e-01
3.044000000000000000e+03 7.511983489990234375e+01 1.970385742187500000e+01 -1.002788901329040527e+00 7.570017814636230469e+00 1.970168590545654297e+00 3.778555989265441895e-01
3.045000000000000000e+03 7.518710327148437500e+01 8.861603736877441406e+00 5.769720077514648438e-01 7.626947402954101562e+00 2.461175680160522461e+00 -6.937552094459533691e-01
3.046000000000000000e+03 7.433446502685546875e+01 6.753975868225097656e+00 5.538468062877655029e-02 7.238039493560791016e+00 2.188027381896972656e+00 -6.408624053001403809e-01
3.047000000000000000e+03 7.351484680175781250e+01 5.914321541786193848e-01 -5.155774354934692383e-01 4.413026809692382812e+00 1.169234752655029297e+00 -9.370574951171875000e-01
3.048000000000000000e+03 7.630780792236328125e+01 1.360748386383056641e+01 8.328627943992614746e-01 7.352719306945800781e+00 2.455674648284912109e+00 5.498783588409423828e-01
3.049000000000000000e+03 7.434243011474609375e+01 2.082160377502441406e+01 -1.222222805023193359e+00 7.030526638031005859e+00 1.742491126060485840e+00 -2.492046952247619629e-01
3.050000000000000000e+03 7.246753692626953125e+01 -3.018739700317382812e+01 9.930399656295776367e-01 4.736866950988769531e+00 1.718972086906433105e+00 7.936412692070007324e-01
3.051000000000000000e+03 7.198175811767578125e+01 3.125052070617675781e+01 6.587479114532470703e-01 5.571853637695312500e+00 1.869180440902709961e+00 3.432362675666809082e-01
3.052000000000000000e+03 7.243702697753906250e+01 -3.454063034057617188e+01 8.111121058464050293e-01 5.857532501220703125e+00 2.000593423843383789e+00 -7.749806642532348633e-01
3.053000000000000000e+03 3.979131698608398438e+01 1.564774322509765625e+01 1.310815691947937012e+00 3.728521585464477539e+00 1.511801123619079590e+00 -1.641334891319274902e+00
3.054000000000000000e+03 7.368115234375000000e+01 3.053111267089843750e+01 5.026536583900451660e-01 5.954391479492187500e+00 1.937113523483276367e+00 7.385006546974182129e-02
3.055000000000000000e+03 4.234853363037109375e+01 -2.092354393005371094e+01 1.875768899917602539e+00 3.226909160614013672e+00 1.530803442001342773e+00 1.260106801986694336e+00
3.056000000000000000e+03 4.882467269897460938e+00 -2.903009986877441406e+01 4.540941119194030762e-02 -1.746187061071395874e-01 -3.876278921961784363e-02 1.864173635840415955e-02
3.057000000000000000e+03 7.316807556152343750e+01 8.493490219116210938e+00 7.638788223266601562e-01 8.137807846069335938e+00 2.670506000518798828e+00 -1.545705795288085938e-01
3.058000000000000000e+03 7.371752166748046875e+01 7.666759490966796875e+00 2.193762362003326416e-01 7.806951522827148438e+00 2.407898187637329102e+00 -3.014523088932037354e-01
3.059000000000000000e+03 7.279486846923828125e+01 7.211457252502441406e+00 2.333230525255203247e-01 7.278271675109863281e+00 2.253478527069091797e+00 3.558120429515838623e-01
3.060000000000000000e+03 3.820994853973388672e+00 -1.092062854766845703e+01 -1.527533959597349167e-02 -1.498822718858718872e-01 -4.954728484153747559e-02 -4.397908598184585571e-02
3.061000000000000000e+03 3.209817409515380859e+00 -2.309731292724609375e+01 4.719478264451026917e-02 -3.102528452873229980e-01 -7.891742140054702759e-02 -3.962646797299385071e-02
3.062000000000000000e+03 6.871685028076171875e+01 2.441183090209960938e+00 4.810173511505126953e-01 2.113327264785766602e+00 7.783033847808837891e-01 2.051075220108032227e+00
3.063000000000000000e+03 4.378575325012207031e+00 1.949747848510742188e+01 1.190670952200889587e-01 -5.912786722183227539e-01 -1.416634768247604370e-01 7.570601254701614380e-02
3.064000000000000000e+03 6.370637416839599609e+00 2.131034088134765625e+01 7.546666264533996582e-02 -3.590267300605773926e-01 -8.506802469491958618e-02 5.821007862687110901e-02
3.065000000000000000e+03 6.947874546051025391e+00 1.921864509582519531e+01 2.510127723217010498e-01 -3.091235458850860596e-01 -1.743323169648647308e-02 1.081645861268043518e-01
3.066000000000000000e+03 5.232193470001220703e+00 2.093763732910156250e+01 8.093088120222091675e-02 -5.137974023818969727e-01 -1.298599690198898315e-01 4.674263671040534973e-02
3.067000000000000000e+03 2.544857597351074219e+01 1.074216461181640625e+01 1.795864701271057129e-01 3.357860147953033447e-01 1.546117365360260010e-01 -1.346740722656250000e-01
3.068000000000000000e+03 4.583976745605468750e+00 -3.461708450317382812e+01 3.240627050399780273e-02 -1.598691046237945557e-01 -3.823884949088096619e-02 1.135323569178581238e-01
3.069000000000000000e+03 5.910644531250000000e+00 1.451756000518798828e+01 2.000245004892349243e-01 -3.479284942150115967e-01 -4.437119513750076294e-02 4.672168493270874023e-01
3.070000000000000000e+03 6.565630435943603516e+00 -3.361594772338867188e+01 6.369226425886154175e-02 -8.763928897678852081e-03 1.647849939763545990e-02 1.232132017612457275e-01
3.071000000000000000e+03 6.104959487915039062e+00 1.031728744506835938e+01 -2.570859789848327637e-01 -1.563175916671752930e-01 -1.240210756659507751e-01 4.557957649230957031e-01
3.072000000000000000e+03 7.242008972167968750e+01 3.347605133056640625e+01 3.115313947200775146e-01 5.909954071044921875e+00 1.866445660591125488e+00 4.379193782806396484e-01
3.073000000000000000e+03 3.760203599929809570e+00 -7.212296485900878906e+00 1.364993676543235779e-02 -8.347801864147186279e-02 -2.094842493534088135e-02 -3.710211440920829773e-02
3.074000000000000000e+03 3.396669864654541016e+00 8.498871803283691406e+00 -1.247669532895088196e-01 -9.864919632673263550e-02 -6.702484190464019775e-02 2.091052532196044922e-01
3.075000000000000000e+03 6.317102909088134766e+00 7.375311374664306641e+00 -3.505384624004364014e-01 -8.962143212556838989e-02 -1.320479661226272583e-01 1.975507587194442749e-01
3.076000000000000000e+03 5.491143226623535156e+00 6.415981769561767578e+00 -2.548930048942565918e-01 -5.538759753108024597e-02 -9.308417886495590210e-02 1.141929924488067627e-01
3.077000000000000000e+03 5.221466827392578125e+01 2.484428977966308594e+01 5.641871690750122070e-01 5.738701820373535156e+00 1.890866756439208984e+00 -7.207469344139099121e-01
3.078000000000000000e+03 4.840956115722656250e+01 2.376085853576660156e+01 7.101141810417175293e-01 5.124778270721435547e+00 1.750467777252197266e+00 4.901035428047180176e-01
3.079000000000000000e+03 4.779951477050781250e+01 4.692399501800537109e+00 -2.950291037559509277e-01 2.628700017929077148e+00 7.001013159751892090e-01 -9.159315228462219238e-01
3.080000000000000000e+03 4.817730331420898438e+01 3.262494802474975586e+00 1.061569929122924805e+00 2.923497200012207031e+00 1.195520162582397461e+00 -7.489768862724304199e-01
3.081000000000000000e+03 4.728017807006835938e+00 -8.470938682556152344e+00 1.775340922176837921e-02 -1.126200556755065918e-01 -2.845999412238597870e-02 -4.515224322676658630e-02
3.082000000000000000e+03 5.666994094848632812e+01 5.570154666900634766e+00 2.421687841415405273e-01 6.731714725494384766e+00 2.092164993286132812e+00 5.960678681731224060e-02
3.083000000000000000e+03 4.190122604370117188e+01 -1.782553291320800781e+01 4.093358218669891357e-01 1.587237596511840820e+00 5.989720225334167480e-01 -6.737567484378814697e-02
3.084000000000000000e+03 2.295270156860351562e+01 9.204250335693359375e+00 3.914036452770233154e-01 1.330048590898513794e-01 1.573225557804107666e-01 3.172701224684715271e-02
3.085000000000000000e+03 6.849867820739746094e+00 -1.171691417694091797e+01 -3.570991382002830505e-02 -1.895952075719833374e-01 -6.759153306484222412e-02 -8.483822643756866455e-02
3.086000000000000000e+03 5.701634597778320312e+01 9.256105422973632812e+00 1.596650600433349609e+00 8.685176849365234375e+00 3.084547996520996094e+00 9.693617224693298340e-01
3.087000000000000000e+03 6.437950897216796875e+01 -1.479681777954101562e+01 -1.675035357475280762e+00 5.408859252929687500e+00 1.120147109031677246e+00 5.358390808105468750e-01
3.088000000000000000e+03 6.477144622802734375e+01 -1.242249870300292969e+01 -1.015512466430664062e+00 5.987376689910888672e+00 1.491559267044067383e+00 1.849848031997680664e-02
3.089000000000000000e+03 3.657267379760742188e+01 1.514721488952636719e+01 8.754048347473144531e-01 2.284552335739135742e+00 9.479871392250061035e-01 -1.991456151008605957e+00
3.090000000000000000e+03 6.074307250976562500e+01 -2.356607055664062500e+01 2.175643444061279297e+00 3.199356555938720703e+00 1.612499952316284180e+00 -8.778129220008850098e-01
3.091000000000000000e+03 3.467301940917968750e+01 -1.045537281036376953e+01 8.692192435264587402e-01 2.245342493057250977e+00 9.343685507774353027e-01 2.151443958282470703e+00
3.092000000000000000e+03 5.311035537719726562e+01 2.285679626464843750e+01 -9.711339473724365234e-01 5.124326705932617188e+00 1.245957732200622559e+00 -1.829670548439025879e+00
3.093000000000000000e+03 5.760881042480468750e+01 2.092344284057617188e+01 -6.693090200424194336e-01 2.798496246337890625e+00 6.387561559677124023e-01 -1.112396478652954102e+00
3.094000000000000000e+03 5.532357025146484375e+01 2.148846054077148438e+01 -1.768080711364746094e+00 4.116417884826660156e+00 7.045010924339294434e-01 -2.742638826370239258e+00
3.095000000000000000e+03 6.085147094726562500e+01 -1.910403060913085938e+01 1.845979094505310059e+00 5.868134498596191406e+00 2.314234018325805664e+00 -1.145932316780090332e+00
3.096000000000000000e+03 5.431464004516601562e+01 -1.355626869201660156e+01 -7.706441283226013184e-01 4.752092838287353516e+00 1.194434642791748047e+00 -3.466123819351196289e+00
3.097000000000000000e+03 5.692259979248046875e+01 -1.450796604156494141e+01 -4.900871217250823975e-01 5.528268814086914062e+00 1.511454463005065918e+00 -1.426113486289978027e+00
3.098000000000000000e+03 5.030168533325195312e+01 2.813681840896606445e+00 8.671590089797973633e-01 2.609597921371459961e+00 1.043027043342590332e+00 9.743658900260925293e-01
3.099000000000000000e+03 4.870612335205078125e+01 4.084630012512207031e+00 1.376506090164184570e-01 1.919124484062194824e+00 6.170325279235839844e-01 -3.193518817424774170e-01
3.100000000000000000e+03 4.982918167114257812e+01 2.798586654663085938e+01 1.918897628784179688e+00 5.782106399536132812e+00 2.310301303863525391e+00 3.344679772853851318e-01
3.101000000000000000e+03 2.979184722900390625e+01 3.281677627563476562e+01 3.206386864185333252e-01 2.298443555831909180e+00 7.857246398925781250e-01 -8.885715603828430176e-01
3.102000000000000000e+03 5.114896392822265625e+01 -1.157235527038574219e+01 1.751863718032836914e+00 5.243286132812500000e+00 2.098545074462890625e+00 -1.778400063514709473e+00
3.103000000000000000e+03 5.263111495971679688e+01 -1.367745208740234375e+01 -6.952149271965026855e-01 3.030523300170898438e+00 7.005925178527832031e-01 -3.213370323181152344e+00
3.104000000000000000e+03 4.231292724609375000e+01 -1.690574455261230469e+01 -8.330251276493072510e-02 1.328060269355773926e+00 3.734273314476013184e-01 2.146278768777847290e-01
3.105000000000000000e+03 5.072896957397460938e+01 2.582024955749511719e+01 1.756374478340148926e+00 5.375668048858642578e+00 2.139612674713134766e+00 9.722875058650970459e-02
3.106000000000000000e+03 4.052899551391601562e+01 1.440455245971679688e+01 1.671866416931152344e+00 5.006433486938476562e+00 2.003489971160888672e+00 -1.109298110008239746e+00
3.107000000000000000e+03 5.332779312133789062e+01 -2.977333450317382812e+01 1.385165810585021973e+00 5.474026679992675781e+00 2.057757616043090820e+00 7.278267145156860352e-01
3.108000000000000000e+03 6.033021545410156250e+01 3.752606391906738281e+00 -7.439318895339965820e-01 4.986193180084228516e+00 1.272678256034851074e+00 -2.109367132186889648e+00
3.109000000000000000e+03 5.869620132446289062e+01 5.317137241363525391e+00 -2.576748430728912354e-01 5.579220771789550781e+00 1.596463799476623535e+00 -1.285761356353759766e+00
3.110000000000000000e+03 5.537045001983642578e+00 1.986021423339843750e+01 1.435669809579849243e-01 -4.618140757083892822e-01 -9.547413140535354614e-02 8.794915676116943359e-02
3.111000000000000000e+03 8.005456924438476562e+00 1.927251052856445312e+01 3.152256608009338379e-01 -1.377436369657516479e-01 5.324460566043853760e-02 1.091280579566955566e-01
3.112000000000000000e+03 6.184200286865234375e+01 -1.574061775207519531e+01 -9.781205654144287109e-01 6.598873138427734375e+00 1.686225771903991699e+00 8.756329119205474854e-02
3.113000000000000000e+03 6.943163299560546875e+01 5.075085639953613281e+00 1.617907434701919556e-01 3.150671720504760742e+00 9.937387704849243164e-01 2.108453512191772461e+00
3.114000000000000000e+03 7.240646362304687500e+01 5.667920589447021484e+00 -2.811335027217864990e-01 5.999536514282226562e+00 1.715520858764648438e+00 5.973167419433593750e-01
3.115000000000000000e+03 3.835971450805664062e+01 1.863678932189941406e+01 5.109121650457382202e-02 2.484877109527587891e+00 7.607904672622680664e-01 -2.408142328262329102e+00
3.116000000000000000e+03 7.553477478027343750e+01 -5.346879959106445312e-01 -8.895363211631774902e-01 7.250552654266357422e+00 1.908304929733276367e+00 -7.173489928245544434e-01
3.117000000000000000e+03 3.570919036865234375e+01 -3.554847717285156250e+01 2.225354462862014771e-01 2.447532892227172852e+00 8.010205030441284180e-01 1.074480414390563965e+00
3.118000000000000000e+03 6.899601745605468750e+01 -3.201068496704101562e+01 2.497854471206665039e+00 5.146493434906005859e+00 2.293304443359375000e+00 -1.817613840103149414e+00
3.119000000000000000e+03 1.074039459228515625e+01 -9.186262130737304688e+00 2.103866077959537506e-02 -8.370108902454376221e-03 3.800565842539072037e-03 -1.118166074156761169e-01
3.120000000000000000e+03 5.601096343994140625e+01 1.937358856201171875e+01 -2.191586941480636597e-01 4.316294193267822266e+00 1.229140639305114746e+00 -1.838699221611022949e+00
3.121000000000000000e+03 5.756828689575195312e+01 1.890097045898437500e+01 7.007589936256408691e-01 4.972061634063720703e+00 1.701846241950988770e+00 -4.655728042125701904e-01
3.122000000000000000e+03 5.174737930297851562e+01 -1.294915962219238281e+01 4.074391126632690430e-01 3.595906257629394531e+00 1.201003551483154297e+00 -2.480938434600830078e+00
3.123000000000000000e+03 2.867912864685058594e+01 -2.999849128723144531e+01 -3.118282556533813477e-01 1.816773653030395508e+00 4.514836072921752930e-01 -1.804857552051544189e-01
3.124000000000000000e+03 6.502931976318359375e+01 -1.339242744445800781e+01 -1.085109233856201172e+00 5.343831062316894531e+00 1.277616620063781738e+00 1.502612084150314331e-01
3.125000000000000000e+03 2.876498413085937500e+01 -3.532745361328125000e+01 3.177693188190460205e-01 1.622629880905151367e+00 5.821197628974914551e-01 -1.243292726576328278e-02
3.126000000000000000e+03 1.102574634552001953e+01 2.028098869323730469e+01 3.484257459640502930e-01 2.313189059495925903e-01 1.739233881235122681e-01 2.429770380258560181e-01
3.127000000000000000e+03 3.509405517578125000e+01 -3.836114883422851562e+01 -5.237897634506225586e-01 2.352034330368041992e+00 5.484734177589416504e-01 6.574401855468750000e-01
3.128000000000000000e+03 2.562238883972167969e+01 1.197896575927734375e+01 1.707234233617782593e-01 3.472529947757720947e-01 1.553929299116134644e-01 -8.575910329818725586e-02
3.129000000000000000e+03 4.843575668334960938e+01 3.587161254882812500e+01 -8.786877989768981934e-01 4.808930873870849609e+00 1.179072976112365723e+00 -5.795906782150268555e-01
3.130000000000000000e+03 5.192325210571289062e+01 3.742879104614257812e+01 -1.429669380187988281e+00 5.125653743743896484e+00 1.108795404434204102e+00 1.235420107841491699e-01
3.131000000000000000e+03 5.163301849365234375e+01 2.541348648071289062e+01 1.118500232696533203e+00 5.586886882781982422e+00 2.011616230010986328e+00 -2.940445542335510254e-01
3.132000000000000000e+03 5.044519424438476562e+01 2.363689041137695312e+01 5.178107619285583496e-01 4.485637664794921875e+00 1.501034617424011230e+00 -3.138432800769805908e-01
3.133000000000000000e+03 1.944576263427734375e+01 3.619655990600585938e+01 3.598425537347793579e-02 5.762023925781250000e-01 1.836559921503067017e-01 -1.532623022794723511e-01
3.134000000000000000e+03 2.222739982604980469e+01 3.358299636840820312e+01 1.237646713852882385e-01 1.019922137260437012e+00 3.431060314178466797e-01 -2.684644460678100586e-01
3.135000000000000000e+03 7.307785034179687500e+01 3.605886459350585938e+01 3.068167949095368385e-03 6.178155422210693359e+00 1.854367017745971680e+00 3.833658993244171143e-01
3.136000000000000000e+03 5.592995071411132812e+01 1.839855003356933594e+01 1.174887791275978088e-01 4.807209014892578125e+00 1.477409362792968750e+00 -1.285860538482666016e+00
3.137000000000000000e+03 2.523801612854003906e+01 -1.837715148925781250e+01 7.626764774322509766e-01 1.250683903694152832e+00 6.040080785751342773e-01 2.222053408622741699e-01
3.138000000000000000e+03 2.433101844787597656e+01 -2.442758750915527344e+01 2.983838319778442383e-01 1.290904402732849121e+00 4.767864942550659180e-01 2.860161066055297852e-01
3.139000000000000000e+03 2.711404037475585938e+01 -2.562255287170410156e+01 -2.344466149806976318e-01 2.461752414703369141e+00 6.681917905807495117e-01 2.144137471914291382e-01
3.140000000000000000e+03 6.921942901611328125e+01 3.245460510253906250e+01 5.068924427032470703e-01 5.234992980957031250e+00 1.722565650939941406e+00 7.556961178779602051e-01
3.141000000000000000e+03 9.233921051025390625e+00 -3.180598449707031250e+01 1.571423560380935669e-01 2.148527652025222778e-01 1.115985363721847534e-01 1.152585521340370178e-01
3.142000000000000000e+03 3.250550460815429688e+01 -1.219856357574462891e+01 -2.839957177639007568e-01 1.349955320358276367e+00 3.197878599166870117e-01 2.251050472259521484e+00
3.143000000000000000e+03 6.469219207763671875e+01 2.247817611694335938e+01 -9.578256607055664062e-01 4.013690948486328125e+00 9.167595505714416504e-01 2.547195434570312500e+00
3.144000000000000000e+03 6.527594757080078125e+01 2.513395309448242188e+01 1.419969558715820312e+00 4.994139671325683594e+00 1.924232840538024902e+00 1.345160484313964844e+00
3.145000000000000000e+03 4.105762863159179688e+01 1.620365142822265625e+01 1.216540098190307617e+00 4.382926464080810547e+00 1.679839968681335449e+00 -1.109193921089172363e+00
3.146000000000000000e+03 7.421115875244140625e+01 1.234643650054931641e+01 1.369050741195678711e+00 9.106799125671386719e+00 3.142755031585693359e+00 2.543148696422576904e-01
3.147000000000000000e+03 7.025347137451171875e+01 3.157002449035644531e+01 7.280139923095703125e-01 5.341116428375244141e+00 1.820739150047302246e+00 6.366890072822570801e-01
3.148000000000000000e+03 4.383747863769531250e+01 -7.529791593551635742e-01 5.803495883941650391e+00 5.601174354553222656e+00 3.421401262283325195e+00 -3.359570503234863281e+00
3.149000000000000000e+03 4.580280685424804688e+01 4.713683605194091797e+00 -6.429550051689147949e-01 5.737959384918212891e+00 1.528501272201538086e+00 -1.329013824462890625e+00
3.150000000000000000e+03 4.456399154663085938e+01 -1.133575886487960815e-01 5.749603271484375000e+00 4.949253559112548828e+00 3.209656953811645508e+00 -2.504632711410522461e+00
3.151000000000000000e+03 4.400324630737304688e+01 1.201684594154357910e+00 5.253517150878906250e+00 7.044618129730224609e+00 3.689440488815307617e+00 2.969262003898620605e-01
3.152000000000000000e+03 4.355634307861328125e+01 2.598061561584472656e+00 9.139235615730285645e-01 9.339234352111816406e+00 3.075947284698486328e+00 8.129611611366271973e-02
3.153000000000000000e+03 4.429277420043945312e+01 2.596918344497680664e-01 6.568899631500244141e+00 5.412664890289306641e+00 3.594469308853149414e+00 -1.529637694358825684e+00
3.154000000000000000e+03 4.414872741699218750e+01 1.587204456329345703e+00 4.157614707946777344e+00 7.242712974548339844e+00 3.420098304748535156e+00 3.149114847183227539e-01
3.155000000000000000e+03 4.239691925048828125e+01 2.696733713150024414e+00 -7.478680014610290527e-01 1.091298389434814453e+01 3.049534797668457031e+00 -1.169555187225341797e+00
3.156000000000000000e+03 4.404588699340820312e+01 -1.067889571189880371e+00 4.941117763519287109e+00 5.290501594543457031e+00 3.069485902786254883e+00 -3.542628526687622070e+00
3.157000000000000000e+03 4.097627639770507812e+01 3.637875795364379883e+00 -1.183333396911621094e+00 7.220053195953369141e+00 1.811015963554382324e+00 -2.980531215667724609e+00
3.158000000000000000e+03 4.235944366455078125e+01 3.536092519760131836e+00 -1.340566039085388184e+00 9.482744216918945312e+00 2.442653417587280273e+00 -1.906640529632568359e+00
3.159000000000000000e+03 4.371734619140625000e+01 -1.449987411499023438e+00 3.782006502151489258e+00 5.291919231414794922e+00 2.722177743911743164e+00 -3.688988685607910156e+00
3.160000000000000000e+03 4.670614624023437500e+01 -3.034271240234375000e+00 1.017203450202941895e+00 5.932963371276855469e+00 2.085049867630004883e+00 -3.415901660919189453e+00
3.161000000000000000e+03 4.536978530883789062e+01 -2.003991842269897461e+00 1.953680634498596191e+00 4.613723754882812500e+00 1.970221281051635742e+00 -4.211161136627197266e+00
3.162000000000000000e+03 2.542046356201171875e+01 5.456552982330322266e+00 3.259189054369926453e-02 -2.932432107627391815e-02 9.802709100767970085e-04 -6.587491929531097412e-02
3.163000000000000000e+03 2.578197097778320312e+01 4.907926082611083984e+00 -3.446863032877445221e-03 -5.224184598773717880e-03 -2.601314336061477661e-03 -3.269337117671966553e-02
3.164000000000000000e+03 2.435379981994628906e+01 7.104022026062011719e+00 2.425066679716110229e-01 -7.334290537983179092e-03 7.055170834064483643e-02 -1.223830357193946838e-01
3.165000000000000000e+03 8.567915916442871094e+00 -5.130139827728271484e+00 2.624837507028132677e-04 -1.324452757835388184e-01 -3.965483605861663818e-02 -1.392297893762588501e-01
3.166000000000000000e+03 6.719664573669433594e+00 -6.351240634918212891e+00 2.953147701919078827e-02 -1.048071607947349548e-01 -2.258270606398582458e-02 -8.264016360044479370e-02
3.167000000000000000e+03 2.341751861572265625e+01 5.676161289215087891e+00 -3.877356275916099548e-02 -9.180313348770141602e-02 -3.917300701141357422e-02 -2.859347313642501831e-02
3.168000000000000000e+03 2.524003219604492188e+01 8.136246681213378906e+00 3.000476956367492676e-01 1.760818809270858765e-01 1.428388804197311401e-01 -2.035946100950241089e-01
3.169000000000000000e+03 2.437734985351562500e+01 6.273300647735595703e+00 1.774176508188247681e-01 -6.104017421603202820e-02 3.491324186325073242e-02 -1.155606359243392944e-01
3.170000000000000000e+03 6.305163860321044922e+00 6.458809852600097656e+00 -3.235699534416198730e-01 -8.664861321449279785e-02 -1.230655685067176819e-01 1.286770701408386230e-01
3.171000000000000000e+03 3.892513513565063477e+00 6.347470760345458984e+00 -1.476412266492843628e-01 -3.272823244333267212e-02 -5.411083623766899109e-02 8.260094374418258667e-02
3.172000000000000000e+03 7.038895130157470703e+00 5.567465782165527344e+00 -3.127857446670532227e-01 -9.386748820543289185e-02 -1.219959706068038940e-01 9.105748683214187622e-02
3.173000000000000000e+03 8.090555191040039062e+00 4.180140972137451172e+00 -2.357039600610733032e-01 -1.037905886769294739e-01 -1.018483638763427734e-01 4.780696704983711243e-02
3.174000000000000000e+03 8.779496192932128906e+00 6.174395084381103516e+00 -4.970327615737915039e-01 -2.008571624755859375e-01 -2.093669772148132324e-01 1.807851791381835938e-01
3.175000000000000000e+03 1.360165596008300781e+01 -5.125586986541748047e+00 1.324468199163675308e-02 6.890006363391876221e-02 2.464342303574085236e-02 -2.156037278473377228e-02
3.176000000000000000e+03 7.630263328552246094e+00 4.654861927032470703e+00 -2.569226920604705811e-01 -9.634555876255035400e-02 -1.059804782271385193e-01 5.100936442613601685e-02
3.177000000000000000e+03 9.759335517883300781e+00 -6.875155925750732422e+00 2.059862017631530762e-02 -1.628061942756175995e-02 1.295399735681712627e-03 -1.319510787725448608e-01
3.178000000000000000e+03 9.369172096252441406e+00 -4.983735561370849609e+00 -1.754776574671268463e-02 -1.246389467269182205e-02 -9.003498591482639313e-03 -1.170588731765747070e-01
3.179000000000000000e+03 1.103929138183593750e+01 -4.795772075653076172e+00 -1.432975055649876595e-03 4.167580977082252502e-03 8.203818579204380512e-04 -1.122371479868888855e-01
3.180000000000000000e+03 1.117698478698730469e+01 -5.602271080017089844e+00 1.280266977846622467e-02 -9.257441014051437378e-02 -2.393152192234992981e-02 -1.299891322851181030e-01
3.181000000000000000e+03 4.438507080078125000e+01 5.743315696716308594e+00 -1.355362176895141602e+00 7.706632614135742188e+00 1.905381202697753906e+00 -1.269722342491149902e+00
3.182000000000000000e+03 4.508245849609375000e+01 4.947046279907226562e+00 -1.078081250190734863e+00 6.893503665924072266e+00 1.744626760482788086e+00 -1.207280993461608887e+00
3.183000000000000000e+03 4.278712844848632812e+01 4.836557388305664062e+00 -1.231741070747375488e+00 8.599156379699707031e+00 2.210224628448486328e+00 -1.868069291114807129e+00
3.184000000000000000e+03 4.351585769653320312e+01 7.768908023834228516e+00 -7.588124275207519531e-01 7.886500835418701172e+00 2.138306617736816406e+00 -1.018650174140930176e+00
3.185000000000000000e+03 1.242217063903808594e+01 -7.313445568084716797e+00 4.854817315936088562e-02 1.995656266808509827e-02 2.055142074823379517e-02 -7.319876551628112793e-02
3.186000000000000000e+03 6.196933746337890625e+01 2.874464273452758789e+00 -7.183247804641723633e-01 4.876439571380615234e+00 1.247434496879577637e+00 -1.623296380043029785e+00
3.187000000000000000e+03 1.207109546661376953e+01 -8.365079879760742188e+00 3.546487540006637573e-02 6.757105886936187744e-02 3.091077879071235657e-02 -8.676156401634216309e-02
3.188000000000000000e+03 6.179730224609375000e+01 -1.301032924652099609e+01 -9.968588948249816895e-01 6.505240917205810547e+00 1.652514576911926270e+00 1.128305077552795410e+00
3.189000000000000000e+03 5.516472625732421875e+01 -1.283939170837402344e+01 -9.090528823435306549e-03 4.495225906372070312e+00 1.345840692520141602e+00 -3.260191917419433594e+00
3.190000000000000000e+03 4.243310165405273438e+01 5.684304237365722656e+00 -1.034996509552001953e+00 8.129078865051269531e+00 2.128224611282348633e+00 -1.947289586067199707e+00
3.191000000000000000e+03 4.249599838256835938e+01 6.940152168273925781e+00 -6.529135704040527344e-01 7.921587467193603516e+00 2.180602073669433594e+00 -1.427875876426696777e+00
3.192000000000000000e+03 1.293661975860595703e+01 -1.028008174896240234e+01 8.019205779419280589e-06 1.123075112700462341e-01 3.369465842843055725e-02 -8.344524353742599487e-02
3.193000000000000000e+03 2.576717185974121094e+01 8.888390541076660156e+00 2.852075695991516113e-01 2.456994205713272095e-01 1.592720896005630493e-01 -2.372522503137588501e-01
3.194000000000000000e+03 6.309095382690429688e+01 9.209716320037841797e-01 -1.834196299314498901e-01 5.445918083190917969e+00 1.578749537467956543e+00 -4.746021330356597900e-01
3.195000000000000000e+03 7.561862945556640625e+01 -2.634748840332031250e+01 -9.359263777732849121e-01 8.405913352966308594e+00 2.240995883941650391e+00 3.068640269339084625e-02
3.196000000000000000e+03 2.564400863647460938e+01 6.570029735565185547e+00 2.258153706789016724e-01 8.345817029476165771e-02 9.278206527233123779e-02 -1.971820145845413208e-01
3.197000000000000000e+03 2.593810081481933594e+01 7.707462310791015625e+00 3.353293240070343018e-01 2.216222137212753296e-01 1.670854538679122925e-01 -2.911968827247619629e-01
3.198000000000000000e+03 5.100004577636718750e+01 3.443070173263549805e+00 2.063728868961334229e-01 2.129711151123046875e+00 7.008252739906311035e-01 2.048013687133789062e+00
3.199000000000000000e+03 4.899443054199218750e+01 2.671022415161132812e+00 1.263151407241821289e+00 2.860997676849365234e+00 1.237244725227355957e+00 -3.119513094425201416e-01
3.200000000000000000e+03 2.132230949401855469e+01 -1.975455665588378906e+01 6.473400592803955078e-01 1.322826445102691650e-01 2.338868081569671631e-01 -5.804266408085823059e-02
3.201000000000000000e+03 7.334272003173828125e+01 -3.124708938598632812e+01 6.475748419761657715e-01 5.505663871765136719e+00 1.845971703529357910e+00 3.934106230735778809e-01
3.202000000000000000e+03 7.065371704101562500e+01 -3.021438026428222656e+01 1.982385158538818359e+00 3.477329969406127930e+00 1.637914538383483887e+00 -1.869173496961593628e-01
3.203000000000000000e+03 7.278678894042968750e+00 -3.030413436889648438e+01 1.130155175924301147e-01 3.374308347702026367e-02 4.402758181095123291e-02 4.907519370317459106e-02
3.204000000000000000e+03 1.049309730529785156e+01 -2.940316963195800781e+01 2.060274183750152588e-01 2.884311079978942871e-01 1.483375579118728638e-01 7.613236457109451294e-02
3.205000000000000000e+03 4.703974151611328125e+01 -2.007013320922851562e+00 1.794765591621398926e+00 5.487960815429687500e+00 2.184818029403686523e+00 -3.415309429168701172e+00
3.206000000000000000e+03 1.286577129364013672e+01 -8.854568481445312500e+00 2.199356816709041595e-02 4.842609539628028870e-02 2.112589962780475616e-02 -9.051959961652755737e-02
3.207000000000000000e+03 1.233839607238769531e+01 -6.304615974426269531e+00 1.865837909281253815e-02 -3.322799876332283020e-02 -4.370886366814374924e-03 -9.887302666902542114e-02
3.208000000000000000e+03 7.301074218750000000e+01 2.230340003967285156e+01 -8.851406574249267578e-01 6.138812541961669922e+00 1.576101660728454590e+00 -9.040781259536743164e-01
3.209000000000000000e+03 4.867644119262695312e+01 -3.854547977447509766e+00 1.315089344978332520e+00 7.672048568725585938e+00 2.696141481399536133e+00 -1.717023134231567383e+00
3.210000000000000000e+03 5.738935852050781250e+01 2.206781578063964844e+01 -1.848548054695129395e+00 1.687161922454833984e+00 -4.841583222150802612e-02 -2.164307117462158203e+00
3.211000000000000000e+03 5.704329299926757812e+01 4.413735866546630859e+00 -2.965027987957000732e-01 5.570822238922119141e+00 1.582295775413513184e+00 -2.922925353050231934e-01
3.212000000000000000e+03 5.631900024414062500e+01 3.027694702148437500e+00 -4.111286699771881104e-01 4.307629585266113281e+00 1.168950319290161133e+00 4.916941225528717041e-01
3.213000000000000000e+03 4.795237064361572266e+00 -1.050432395935058594e+01 1.070467755198478699e-02 -1.373009830713272095e-01 -3.797889128327369690e-02 -5.121378973126411438e-02
3.214000000000000000e+03 2.477169799804687500e+01 -1.927327919006347656e+01 8.913959264755249023e-01 1.079459547996520996e+00 5.912566184997558594e-01 1.212752610445022583e-01
3.215000000000000000e+03 5.116426086425781250e+01 2.279163932800292969e+01 -2.466857284307479858e-01 4.342013359069824219e+00 1.228598237037658691e+00 -1.128561735153198242e+00
3.216000000000000000e+03 4.778737545013427734e+00 -7.233796596527099609e+00 7.503627333790063858e-03 -1.045264899730682373e-01 -2.910685911774635315e-02 -7.397135347127914429e-02
3.217000000000000000e+03 2.429240989685058594e+01 1.183493709564208984e+01 1.428553760051727295e-01 3.828684985637664795e-01 1.577171534299850464e-01 -5.069115385413169861e-02
3.218000000000000000e+03 5.709416961669921875e+01 7.360336780548095703e+00 1.503607630729675293e+00 7.607298374176025391e+00 2.733271837234497070e+00 2.651060819625854492e-01
3.219000000000000000e+03 1.821393775939941406e+01 -2.237590599060058594e+01 3.355912268161773682e-01 5.783941596746444702e-02 1.180291920900344849e-01 2.586545646190643311e-01
3.220000000000000000e+03 3.468289184570312500e+01 -9.417666435241699219e+00 1.486599326133728027e+00 2.436040163040161133e+00 1.176791906356811523e+00 2.180181980133056641e+00
3.221000000000000000e+03 7.118495178222656250e+01 -3.275563812255859375e+01 1.404877543449401855e+00 5.006619453430175781e+00 1.923449158668518066e+00 -8.604953885078430176e-01
3.222000000000000000e+03 2.523314285278320312e+01 -2.348954582214355469e+01 5.641469359397888184e-01 1.575859665870666504e+00 6.420019865036010742e-01 3.621214628219604492e-01
3.223000000000000000e+03 4.003412628173828125e+01 -1.564920902252197266e+01 -2.233672380447387695e+00 1.463689565658569336e+00 -2.309948056936264038e-01 -8.937320113182067871e-01
3.224000000000000000e+03 7.047998046875000000e+01 2.576666355133056641e+00 4.177299737930297852e-01 2.572903394699096680e+00 8.971900343894958496e-01 1.306129574775695801e+00
3.225000000000000000e+03 7.250229644775390625e+01 2.698373556137084961e+00 6.566133350133895874e-03 4.145962238311767578e+00 1.245758533477783203e+00 9.773574024438858032e-02
3.226000000000000000e+03 6.987501525878906250e+01 -3.111918449401855469e+01 2.094910383224487305e+00 4.218929767608642578e+00 1.894152045249938965e+00 -1.007381558418273926e+00
3.227000000000000000e+03 7.407775115966796875e+01 -3.221334838867187500e+01 6.580181717872619629e-01 6.069612979888916016e+00 2.018289327621459961e+00 1.184814423322677612e-01
3.228000000000000000e+03 7.362239074707031250e+01 2.100793457031250000e+01 -1.099104285240173340e+00 6.667227268218994141e+00 1.670436859130859375e+00 -4.546980261802673340e-01
3.229000000000000000e+03 7.443233489990234375e+01 2.463045120239257812e+01 -1.909984946250915527e-01 6.287468910217285156e+00 1.828941226005554199e+00 -5.701331496238708496e-01
3.230000000000000000e+03 7.316285705566406250e+01 2.443649673461914062e+01 -8.007959276437759399e-02 5.819838047027587891e+00 1.721927523612976074e+00 -8.046503067016601562e-01
3.231000000000000000e+03 7.460607910156250000e+01 2.587230682373046875e+01 1.274839937686920166e-01 6.215379238128662109e+00 1.902858972549438477e+00 -5.550619959831237793e-01
3.232000000000000000e+03 7.103367614746093750e+01 2.606267738342285156e+01 6.819675564765930176e-01 4.607561588287353516e+00 1.586858749389648438e+00 -5.900306105613708496e-01
3.233000000000000000e+03 7.168988037109375000e+01 2.799523162841796875e+01 8.197334408760070801e-01 5.034488201141357422e+00 1.756266474723815918e+00 -1.901045143604278564e-01
3.234000000000000000e+03 7.416329956054687500e+01 3.785088539123535156e+00 -2.432109713554382324e-01 5.753895282745361328e+00 1.653205394744873047e+00 -4.893955886363983154e-01
3.235000000000000000e+03 5.567832565307617188e+01 2.042323493957519531e+01 -1.107929110527038574e+00 3.901297807693481445e+00 8.380106091499328613e-01 -2.558320283889770508e+00
3.236000000000000000e+03 5.753120040893554688e+01 -1.732133483886718750e+01 1.075515985488891602e+00 6.999230861663818359e+00 2.422424077987670898e+00 -4.802881777286529541e-01
3.237000000000000000e+03 6.660606384277343750e+01 2.304573249816894531e+01 2.605444192886352539e-01 2.001780986785888672e+00 6.786976456642150879e-01 5.875780582427978516e-01
3.238000000000000000e+03 6.866249847412109375e+01 2.456645584106445312e+01 8.192342519760131836e-01 3.115007400512695312e+00 1.180272459983825684e+00 -6.051560640335083008e-01
3.239000000000000000e+03 2.205216407775878906e+01 -2.281735992431640625e+01 6.994953751564025879e-01 2.623059749603271484e-01 2.885403931140899658e-01 1.915359348058700562e-01
3.240000000000000000e+03 6.580657005310058594e+00 -2.779895019531250000e+01 6.847403943538665771e-02 -9.575710631906986237e-03 1.766949892044067383e-02 -2.328728511929512024e-02
3.241000000000000000e+03 6.654702186584472656e+00 -2.621068382263183594e+01 4.617231711745262146e-02 2.840692177414894104e-02 2.237377129495143890e-02 -8.323338627815246582e-02
3.242000000000000000e+03 4.451616287231445312e+00 -3.218711853027343750e+01 5.789857730269432068e-02 -1.961330324411392212e-01 -4.147033765912055969e-02 8.306923508644104004e-02
3.243000000000000000e+03 6.454256439208984375e+01 3.880386352539062500e+00 -3.190041482448577881e-01 2.585905075073242188e+00 6.800702810287475586e-01 -1.658224165439605713e-01
3.244000000000000000e+03 6.215790939331054688e+01 -2.276790809631347656e+01 3.149891614913940430e+00 4.987365245819091797e+00 2.441177129745483398e+00 -2.075409412384033203e+00
3.245000000000000000e+03 2.535735893249511719e+01 9.633852958679199219e+00 2.801625132560729980e-01 2.530635595321655273e-01 1.599678248167037964e-01 -1.444190293550491333e-01
3.246000000000000000e+03 4.986051940917968750e+01 -1.824786186218261719e+00 1.699210166931152344e+00 6.608099937438964844e+00 2.492192983627319336e+00 -1.197339534759521484e+00
3.247000000000000000e+03 5.797323226928710938e+00 -8.560365676879882812e+00 1.606080681085586548e-02 -1.337448507547378540e-01 -3.530521318316459656e-02 -8.382824063301086426e-02
3.248000000000000000e+03 4.651383876800537109e+00 -9.582410812377929688e+00 -1.153218094259500504e-03 -1.295588016510009766e-01 -3.921360522508621216e-02 -6.287686526775360107e-02
3.249000000000000000e+03 5.775725173950195312e+01 1.985974884033203125e+01 2.932893335819244385e-01 4.152815341949462891e+00 1.333831310272216797e+00 -7.297220826148986816e-01
3.250000000000000000e+03 7.241140842437744141e+00 1.682482528686523438e+01 4.296832978725433350e-01 -2.268208116292953491e-01 6.085874512791633606e-02 2.933051288127899170e-01
3.251000000000000000e+03 1.206291961669921875e+01 -5.453644275665283203e+00 4.414757713675498962e-02 1.954299397766590118e-02 1.910717040300369263e-02 -8.755140006542205811e-02
3.252000000000000000e+03 2.416812896728515625e+01 -2.024705505371093750e+01 9.706794619560241699e-01 8.509151935577392578e-01 5.464783906936645508e-01 1.814733296632766724e-01
3.253000000000000000e+03 6.008692932128906250e+01 5.173751831054687500e+00 -3.201079666614532471e-01 5.035272121429443359e+00 1.414549231529235840e+00 -1.835694909095764160e+00
3.254000000000000000e+03 6.867308044433593750e+01 3.501295089721679688e+01 -1.650222539901733398e-01 5.295292377471923828e+00 1.539080977439880371e+00 6.245726943016052246e-01
3.255000000000000000e+03 4.967369079589843750e+01 2.641395950317382812e+01 2.039106845855712891e+00 5.492743968963623047e+00 2.259555101394653320e+00 4.541111588478088379e-01
3.256000000000000000e+03 7.221571922302246094e+00 9.519315719604492188e+00 -4.237545430660247803e-01 -1.672293245792388916e-01 -1.772951632738113403e-01 4.163555800914764404e-01
3.257000000000000000e+03 7.137736511230468750e+01 5.113617420196533203e+00 -2.694130502641201019e-02 4.751481533050537109e+00 1.417362093925476074e+00 1.176022768020629883e+00
3.258000000000000000e+03 6.958679199218750000e+01 3.409379720687866211e+00 4.189129769802093506e-01 2.586935758590698242e+00 9.017546176910400391e-01 1.926171660423278809e+00
3.259000000000000000e+03 5.363970279693603516e+00 8.252868652343750000e+00 -2.708071172237396240e-01 -8.879047632217407227e-02 -1.078792810440063477e-01 2.522503435611724854e-01
3.260000000000000000e+03 1.027693557739257812e+01 -5.717595577239990234e+00 1.205421239137649536e-02 -1.445701252669095993e-02 -7.208397728390991688e-04 -1.111702173948287964e-01
3.261000000000000000e+03 5.756697177886962891e+00 -7.296765327453613281e+00 2.077420428395271301e-02 -9.661010652780532837e-02 -2.275077253580093384e-02 -6.905943900346755981e-02
3.262000000000000000e+03 9.117896080017089844e+00 -2.745914077758789062e+01 1.640120595693588257e-01 1.359649002552032471e-01 8.999308943748474121e-02 -4.124058037996292114e-02
3.263000000000000000e+03 5.162699890136718750e+01 -3.138747406005859375e+01 2.566653490066528320e+00 5.262516498565673828e+00 2.348751068115234375e+00 -5.861295387148857117e-02
3.264000000000000000e+03 6.806712341308593750e+01 2.575227355957031250e+01 1.668640017509460449e+00 3.722863674163818359e+00 1.617451071739196777e+00 5.093999952077865601e-02
3.265000000000000000e+03 7.153364562988281250e+01 2.494279098510742188e+01 3.101320564746856689e-01 4.919861793518066406e+00 1.568998217582702637e+00 -9.219001531600952148e-01
3.266000000000000000e+03 2.306647872924804688e+01 -1.777542304992675781e+01 5.653629899024963379e-01 2.663597166538238525e-01 2.495168298482894897e-01 -1.124426722526550293e-01
3.267000000000000000e+03 1.165461063385009766e+01 -9.250895500183105469e+00 2.056140452623367310e-02 5.685461219400167465e-03 7.874060422182083130e-03 -1.046395674347877502e-01
3.268000000000000000e+03 2.855517578125000000e+01 -3.121352386474609375e+01 -1.565863192081451416e-01 1.671640753746032715e+00 4.545163512229919434e-01 -1.687134057283401489e-01
3.269000000000000000e+03 4.845483398437500000e+01 3.409593963623046875e+01 -4.864102900028228760e-01 5.013129234313964844e+00 1.358015656471252441e+00 -5.069488286972045898e-01
3.270000000000000000e+03 8.145939826965332031e+00 -1.088041877746582031e+01 -1.538027194328606129e-03 -1.227948069572448730e-01 -3.729984909296035767e-02 -9.219734370708465576e-02
3.271000000000000000e+03 6.013942337036132812e+01 -2.208964729309082031e+01 2.709742546081542969e+00 4.292712211608886719e+00 2.100736379623413086e+00 -7.817434072494506836e-01
3.272000000000000000e+03 5.835084152221679688e+01 -1.867427825927734375e+01 1.907996058464050293e+00 6.647617340087890625e+00 2.566684007644653320e+00 -3.302614390850067139e-01
3.273000000000000000e+03 5.961290740966796875e+01 -2.076864242553710938e+01 2.794304609298706055e+00 5.186675071716308594e+00 2.394293785095214844e+00 -6.166080832481384277e-01
3.274000000000000000e+03 2.472274589538574219e+01 -2.183332061767578125e+01 9.243519306182861328e-01 1.237795233726501465e+00 6.486441493034362793e-01 3.133635222911834717e-01
3.275000000000000000e+03 4.187568664550781250e+01 -2.483675575256347656e+01 1.410286068916320801e+00 2.862914562225341797e+00 1.281960129737854004e+00 2.119081974029541016e+00
3.276000000000000000e+03 4.060224151611328125e+01 1.759979057312011719e+01 7.444106340408325195e-01 3.354117155075073242e+00 1.229558348655700684e+00 -1.388945817947387695e+00
3.277000000000000000e+03 7.240378570556640625e+01 2.293542480468750000e+01 -6.675967574119567871e-01 5.664541244506835938e+00 1.499083399772644043e+00 -9.915201067924499512e-01
3.278000000000000000e+03 6.579351806640625000e+01 2.350030899047851562e+01 4.854311347007751465e-01 3.398266077041625977e+00 1.165109157562255859e+00 1.333261966705322266e+00
3.279000000000000000e+03 2.855383682250976562e+01 -3.379411315917968750e+01 2.298044264316558838e-01 1.584148406982421875e+00 5.441858768463134766e-01 -3.085596859455108643e-02
3.280000000000000000e+03 2.896617698669433594e+01 -3.710836410522460938e+01 -2.336142770946025848e-02 1.800496697425842285e+00 5.331405997276306152e-01 5.055568180978298187e-03
3.281000000000000000e+03 3.449303054809570312e+01 -3.300308227539062500e+01 1.106782913208007812e+00 1.134071588516235352e+00 6.722563505172729492e-01 7.152175903320312500e-01
3.282000000000000000e+03 2.595636749267578125e+01 3.415171813964843750e+01 1.835909485816955566e-01 1.534515619277954102e+00 5.154319405555725098e-01 -4.508155882358551025e-01
3.283000000000000000e+03 3.299883651733398438e+01 3.228497314453125000e+01 -9.485030919313430786e-02 3.408669233322143555e+00 9.941456913948059082e-01 -6.633672714233398438e-01
3.284000000000000000e+03 3.088647460937500000e+01 3.209314346313476562e+01 3.319745063781738281e-01 2.715426206588745117e+00 9.142202138900756836e-01 -9.844408035278320312e-01
3.285000000000000000e+03 5.110083007812500000e+01 8.290804624557495117e-01 9.190778136253356934e-01 4.876883506774902344e+00 1.738788366317749023e+00 7.630587220191955566e-01
3.286000000000000000e+03 2.201768684387207031e+01 3.537583160400390625e+01 2.650070562958717346e-02 1.006078958511352539e+00 3.097738921642303467e-01 -2.834696471691131592e-01
3.287000000000000000e+03 1.957113647460937500e+01 -2.014285278320312500e+01 4.708837270736694336e-01 6.910736858844757080e-02 1.619973331689834595e-01 -1.381600461900234222e-02
3.288000000000000000e+03 5.878128433227539062e+01 -1.515084266662597656e+01 -2.689892351627349854e-01 5.930098056793212891e+00 1.698332667350769043e+00 -1.420003473758697510e-01
3.289000000000000000e+03 5.857650375366210938e+01 -1.403422927856445312e+01 -2.510372102260589600e-01 5.313567161560058594e+00 1.518759012222290039e+00 -2.279246598482131958e-01
3.290000000000000000e+03 5.773121643066406250e+01 6.143284797668457031e+00 5.034492611885070801e-01 6.217389106750488281e+00 2.016251564025878906e+00 -6.357029080390930176e-01
3.291000000000000000e+03 6.749357604980468750e+01 3.214719009399414062e+01 4.354654550552368164e-01 5.368595123291015625e+00 1.741218209266662598e+00 8.361302018165588379e-01
3.292000000000000000e+03 7.248200988769531250e+01 2.990946578979492188e+01 6.340078115463256836e-01 5.530777931213378906e+00 1.849435687065124512e+00 4.247053712606430054e-02
3.293000000000000000e+03 6.243844985961914062e+01 -1.688229560852050781e+01 -5.260800719261169434e-01 6.673910617828369141e+00 1.844349145889282227e+00 -3.807004690170288086e-01
3.294000000000000000e+03 4.861297988891601562e+01 3.259734725952148438e+01 4.365329444408416748e-01 5.403261184692382812e+00 1.751938343048095703e+00 -2.806038558483123779e-01
3.295000000000000000e+03 8.858985900878906250e+00 -2.975948524475097656e+01 1.598237305879592896e-01 1.474086493253707886e-01 9.216970950365066528e-02 3.259549289941787720e-02
3.296000000000000000e+03 8.538474082946777344e+00 -3.311510467529296875e+01 1.200514808297157288e-01 1.605281829833984375e-01 8.417389541864395142e-02 1.213897690176963806e-01
3.297000000000000000e+03 6.130312728881835938e+01 -1.460131549835205078e+01 -8.533727526664733887e-01 6.399202823638916016e+00 1.663749098777770996e+00 6.798220276832580566e-01
3.298000000000000000e+03 4.944850540161132812e+01 -1.250853252410888672e+01 2.473491132259368896e-01 6.858147144317626953e+00 2.131648778915405273e+00 -2.571847289800643921e-02
3.299000000000000000e+03 5.999751281738281250e+01 -1.821938705444335938e+01 1.397818207740783691e+00 6.164889335632324219e+00 2.268812179565429688e+00 -5.856553316116333008e-01
3.300000000000000000e+03 7.879433631896972656e+00 -2.770154953002929688e+01 1.048242449760437012e-01 7.242089509963989258e-02 5.317354202270507812e-02 -4.619169235229492188e-02
3.301000000000000000e+03 7.803306102752685547e+00 -2.918305206298828125e+01 1.296493709087371826e-01 7.381399720907211304e-02 6.103901192545890808e-02 5.793592426925897598e-03
3.302000000000000000e+03 4.672503662109375000e+01 3.606595230102539062e+01 -8.839844465255737305e-01 4.201985359191894531e+00 9.954003095626831055e-01 -8.673117160797119141e-01
3.303000000000000000e+03 4.955373001098632812e+01 2.301266098022460938e+01 4.534485638141632080e-01 4.430232048034667969e+00 1.465104222297668457e+00 -8.619770407676696777e-02
3.304000000000000000e+03 7.337529754638671875e+01 6.219812393188476562e+00 -2.261978536844253540e-01 6.820884227752685547e+00 1.978405952453613281e+00 -8.659408241510391235e-02
3.305000000000000000e+03 2.050627517700195312e+01 3.484641647338867188e+01 3.940682113170623779e-02 7.681450247764587402e-01 2.422655671834945679e-01 -2.131613343954086304e-01
3.306000000000000000e+03 6.329492950439453125e+01 4.104678153991699219e+00 -4.202002584934234619e-01 3.363443136215209961e+00 8.829728364944458008e-01 -1.020054101943969727e+00
3.307000000000000000e+03 6.046622848510742188e+01 -1.620486640930175781e+01 -4.488659650087356567e-02 6.370139122009277344e+00 1.897575736045837402e+00 -2.017750963568687439e-02
3.308000000000000000e+03 5.020251083374023438e+01 3.973039245605468750e+01 -1.590145230293273926e+00 4.646813392639160156e+00 9.170003533363342285e-01 6.333671510219573975e-03
3.309000000000000000e+03 6.244216156005859375e+01 1.915918111801147461e+00 -5.267117023468017578e-01 5.240413665771484375e+00 1.414110541343688965e+00 -1.071519136428833008e+00
3.310000000000000000e+03 5.149269866943359375e+01 2.370128250122070312e+01 7.407044619321823120e-02 4.994491577148437500e+00 1.520568609237670898e+00 -9.487460255622863770e-01
3.311000000000000000e+03 2.523755455017089844e+01 -2.080071067810058594e+01 9.760754108428955078e-01 1.481835246086120605e+00 7.373732328414916992e-01 2.422849535942077637e-01
3.312000000000000000e+03 2.388304901123046875e+01 -1.862872314453125000e+01 7.698933482170104980e-01 6.061466932296752930e-01 4.128120243549346924e-01 6.339490413665771484e-02
3.313000000000000000e+03 5.828588485717773438e+01 -1.299891567230224609e+01 4.769767820835113525e-02 3.992468833923339844e+00 1.212049961090087891e+00 -2.880629897117614746e-01
3.314000000000000000e+03 3.342885208129882812e+01 -3.560749816894531250e+01 3.953143358230590820e-01 1.578265905380249023e+00 5.920740962028503418e-01 6.681475639343261719e-01
3.315000000000000000e+03 3.410662841796875000e+01 3.527255630493164062e+01 -8.435351252555847168e-01 2.775945186614990234e+00 5.797230005264282227e-01 6.839823722839355469e-02
3.316000000000000000e+03 4.614682769775390625e+01 3.618259191513061523e+00 5.562567710876464844e-01 5.263113975524902344e+00 1.745811223983764648e+00 -1.064507603645324707e+00
3.317000000000000000e+03 4.472804641723632812e+01 5.788190364837646484e-01 5.439279556274414062e+00 5.194710731506347656e+00 3.190196990966796875e+00 -1.449558019638061523e+00
3.318000000000000000e+03 4.411812210083007812e+01 2.938196182250976562e+00 7.594701647758483887e-01 8.265621185302734375e+00 2.707527399063110352e+00 -2.352827191352844238e-01
3.319000000000000000e+03 4.422059631347656250e+01 2.003543615341186523e+00 2.880719184875488281e+00 7.456514835357666016e+00 3.101170301437377930e+00 1.070585399866104126e-01
3.320000000000000000e+03 4.503570175170898438e+01 1.335214972496032715e-01 5.247703552246093750e+00 4.663072109222412109e+00 2.973232746124267578e+00 -2.207237958908081055e+00
3.321000000000000000e+03 4.551880264282226562e+01 4.077987670898437500e+00 -2.332003600895404816e-02 6.099394798278808594e+00 1.822822451591491699e+00 -9.705095887184143066e-01
3.322000000000000000e+03 4.148447799682617188e+01 4.177226543426513672e+00 -1.452779173851013184e+00 8.192016601562500000e+00 2.021771192550659180e+00 -2.598340988159179688e+00
3.323000000000000000e+03 4.438296127319335938e+01 -7.675027847290039062e-01 5.340311050415039062e+00 4.944032192230224609e+00 3.085302829742431641e+00 -3.426120758056640625e+00
3.324000000000000000e+03 4.418223190307617188e+01 -2.363162934780120850e-01 6.456229209899902344e+00 5.139090061187744141e+00 3.478595972061157227e+00 -2.539333343505859375e+00
3.325000000000000000e+03 4.412493133544921875e+01 -1.713790893554687500e+00 2.966111183166503906e+00 5.003343582153320312e+00 2.390836477279663086e+00 -3.840614318847656250e+00
3.326000000000000000e+03 4.564937210083007812e+01 -9.900261163711547852e-01 3.619831323623657227e+00 4.514600753784179688e+00 2.440329551696777344e+00 -3.636217117309570312e+00
3.327000000000000000e+03 1.005341339111328125e+01 -8.033999443054199219e+00 2.426128089427947998e-02 -3.269559890031814575e-02 -2.530295401811599731e-03 -1.187001168727874756e-01
3.328000000000000000e+03 5.858793735504150391e+00 -6.219647884368896484e+00 -1.059157028794288635e-02 -8.432624489068984985e-02 -2.847534604370594025e-02 -1.006007790565490723e-01
3.329000000000000000e+03 5.481656551361083984e+00 5.611972808837890625e+00 -2.259381860494613647e-01 -4.929775744676589966e-02 -8.257078379392623901e-02 6.105081364512443542e-02
3.330000000000000000e+03 2.420611381530761719e+01 8.145682334899902344e+00 3.567970097064971924e-01 6.847406178712844849e-02 1.275813281536102295e-01 -1.236824765801429749e-01
3.331000000000000000e+03 7.131849765777587891e+00 6.434384346008300781e+00 -3.663624525070190430e-01 -1.166163608431816101e-01 -1.448936462402343750e-01 1.402221322059631348e-01
3.332000000000000000e+03 8.592183113098144531e+00 -7.050523757934570312e+00 1.963521353900432587e-02 -5.022643506526947021e-02 -9.177366271615028381e-03 -1.156987771391868591e-01
3.333000000000000000e+03 9.208385467529296875e+00 -6.411597728729248047e+00 1.643165014684200287e-02 -1.121130734682083130e-01 -2.870442718267440796e-02 -1.151511892676353455e-01
3.334000000000000000e+03 4.358557510375976562e+01 5.989293098449707031e+00 -1.183233022689819336e+00 7.918529510498046875e+00 2.020589113235473633e+00 -1.515639066696166992e+00
3.335000000000000000e+03 7.241229534149169922e+00 8.426881790161132812e+00 -4.465220570564270020e-01 -1.493550240993499756e-01 -1.787631213665008545e-01 3.026463985443115234e-01
3.336000000000000000e+03 9.463505744934082031e+00 -5.739745140075683594e+00 2.257971838116645813e-02 -1.169711798429489136e-01 -2.831743843853473663e-02 -1.479203701019287109e-01
3.337000000000000000e+03 4.241904067993164062e+01 4.406757354736328125e+00 -1.440741896629333496e+00 8.774755477905273438e+00 2.200203895568847656e+00 -2.066304683685302734e+00
3.338000000000000000e+03 5.027212524414062500e+01 1.022527575492858887e+00 1.411965966224670410e+00 4.088685512542724609e+00 1.650195479393005371e+00 2.422602474689483643e-01
3.339000000000000000e+03 4.861033248901367188e+01 -6.613349318504333496e-01 2.049629926681518555e+00 5.194933891296386719e+00 2.173369169235229492e+00 -1.886966228485107422e+00
3.340000000000000000e+03 1.130502891540527344e+01 -6.422530174255371094e+00 3.423139825463294983e-02 7.282745093107223511e-03 1.245424337685108185e-02 -1.007616668939590454e-01
3.341000000000000000e+03 4.922704696655273438e+01 -2.209765195846557617e+00 1.573004841804504395e+00 6.514974594116210938e+00 2.426393985748291016e+00 -1.766808390617370605e+00
3.342000000000000000e+03 4.436932754516601562e+01 9.447112679481506348e-01 5.562165737152099609e+00 5.994977474212646484e+00 3.467142820358276367e+00 -4.199340641498565674e-01
3.343000000000000000e+03 4.735358047485351562e+01 3.846818685531616211e+00 3.758412003517150879e-01 3.743089437484741211e+00 1.235679149627685547e+00 -1.015420913696289062e+00
3.344000000000000000e+03 4.635935211181640625e+01 -2.329464673995971680e+00 1.504343509674072266e+00 5.583432674407958984e+00 2.126332759857177734e+00 -3.785487651824951172e+00
3.345000000000000000e+03 6.596777343750000000e+01 2.039711952209472656e+00 3.489480614662170410e-01 3.031732320785522461e+00 1.014204144477844238e+00 1.164448976516723633e+00
3.346000000000000000e+03 4.459848022460937500e+01 6.419923305511474609e+00 -1.194164276123046875e+00 7.204019069671630859e+00 1.802956461906433105e+00 -1.304140090942382812e+00
3.347000000000000000e+03 7.865336418151855469e+00 -7.760129928588867188e+00 3.246656805276870728e-02 -1.475058197975158691e-01 -3.451177850365638733e-02 -1.098614782094955444e-01
3.348000000000000000e+03 6.331983184814453125e+01 -1.180209064483642578e+01 -8.732908368110656738e-01 6.794081687927246094e+00 1.776237368583679199e+00 6.173381209373474121e-01
3.349000000000000000e+03 6.257592010498046875e+01 -1.234863281250000000e+01 -1.176774859428405762e+00 6.811223030090332031e+00 1.690334320068359375e+00 8.366849422454833984e-01
3.350000000000000000e+03 2.054323005676269531e+01 -2.080897712707519531e+01 6.398531198501586914e-01 6.807545572519302368e-02 2.123785763978958130e-01 6.241223961114883423e-02
3.351000000000000000e+03 1.979141616821289062e+01 -2.168011093139648438e+01 5.366293191909790039e-01 7.028281688690185547e-02 1.820736527442932129e-01 1.774819791316986084e-01
3.352000000000000000e+03 2.043865203857421875e+01 -2.237159347534179688e+01 6.155008077621459961e-01 3.672225028276443481e-02 1.956669092178344727e-01 2.338254600763320923e-01
3.353000000000000000e+03 2.297376251220703125e+01 7.983411312103271484e+00 3.412692248821258545e-01 6.358672399073839188e-03 1.042883694171905518e-01 -2.628322318196296692e-02
3.354000000000000000e+03 6.925720214843750000e+01 2.342776679992675781e+01 4.562105610966682434e-02 3.362147569656372070e+00 1.022330641746520996e+00 -1.153603434562683105e+00
3.355000000000000000e+03 2.422421455383300781e+01 9.381472587585449219e+00 2.975565493106842041e-01 1.822549402713775635e-01 1.439434438943862915e-01 -1.079012081027030945e-01
3.356000000000000000e+03 4.978545761108398438e+01 2.138825893402099609e+00 1.364430189132690430e+00 3.109354496002197266e+00 1.342135429382324219e+00 2.263895124197006226e-01
3.357000000000000000e+03 7.812797069549560547e+00 -2.612421798706054688e+01 9.371510148048400879e-02 7.191943377256393433e-02 4.969036206603050232e-02 -9.527339786291122437e-02
3.358000000000000000e+03 4.870977783203125000e+01 -1.678113937377929688e+00 1.870253801345825195e+00 6.022040843963623047e+00 2.367688417434692383e+00 -2.110748291015625000e+00
3.359000000000000000e+03 4.773057937622070312e+01 -8.319211006164550781e-01 2.330097913742065430e+00 5.098777770996093750e+00 2.228662729263305664e+00 -2.571657419204711914e+00
3.360000000000000000e+03 4.811295700073242188e+01 -2.196392536163330078e+00 1.582681417465209961e+00 6.126290798187255859e+00 2.312691688537597656e+00 -2.575258731842041016e+00
3.361000000000000000e+03 2.602711486816406250e+01 -2.528697586059570312e+01 -1.240552961826324463e-01 2.001312017440795898e+00 5.631770491600036621e-01 3.508771955966949463e-01
3.362000000000000000e+03 2.627336883544921875e+01 -2.696326828002929688e+01 -5.687580108642578125e-01 2.054172992706298828e+00 4.456245005130767822e-01 2.009026855230331421e-01
3.363000000000000000e+03 3.780500793457031250e+01 1.532832336425781250e+01 1.151261806488037109e+00 2.798902750015258789e+00 1.185049414634704590e+00 -1.995109915733337402e+00
3.364000000000000000e+03 4.853584289550781250e+01 1.874326586723327637e+00 1.913467764854431152e+00 3.479539871215820312e+00 1.617902278900146484e+00 -8.586460351943969727e-01
3.365000000000000000e+03 9.521914482116699219e+00 -1.039892101287841797e+01 7.957725785672664642e-03 -9.156693518161773682e-02 -2.508276328444480896e-02 -1.165745183825492859e-01
3.366000000000000000e+03 8.573925971984863281e+00 -8.653415679931640625e+00 2.668256871402263641e-02 -7.386998087167739868e-02 -1.415622327476739883e-02 -1.136819645762443542e-01
3.367000000000000000e+03 3.206374359130859375e+01 -3.189664077758789062e+01 4.536602199077606201e-01 9.284721612930297852e-01 4.146397113800048828e-01 -2.472925782203674316e-01
3.368000000000000000e+03 7.407547760009765625e+01 2.922801399230957031e+01 4.137364029884338379e-01 5.980489730834960938e+00 1.918267846107482910e+00 -1.423054784536361694e-01
3.369000000000000000e+03 5.662294769287109375e+01 2.071994590759277344e+01 -6.721999049186706543e-01 3.391581296920776367e+00 8.158144354820251465e-01 -2.166630506515502930e+00
3.370000000000000000e+03 5.593117237091064453e+00 -3.009087181091308594e+01 6.009504944086074829e-02 -9.274945408105850220e-02 -9.796322323381900787e-03 3.808554261922836304e-02
3.371000000000000000e+03 7.377576446533203125e+01 2.638451004028320312e+01 2.799218595027923584e-01 5.905488967895507812e+00 1.855623245239257812e+00 -5.403278470039367676e-01
3.372000000000000000e+03 6.006481170654296875e+01 -1.989626502990722656e+01 2.518516540527343750e+00 5.413631439208984375e+00 2.379644393920898438e+00 -8.882945179939270020e-01
3.373000000000000000e+03 5.717046260833740234e+00 1.107368755340576172e+01 -1.654171794652938843e-01 -2.095102518796920776e-01 -1.124782264232635498e-01 4.860846996307373047e-01
3.374000000000000000e+03 1.038981723785400391e+01 -7.195612907409667969e+00 4.978265240788459778e-02 -7.698390632867813110e-02 -8.160376921296119690e-03 -1.062478497624397278e-01
3.375000000000000000e+03 6.752276611328125000e+01 2.381541442871093750e+01 8.180984854698181152e-01 2.668647050857543945e+00 1.046023726463317871e+00 -9.376192837953567505e-02
3.376000000000000000e+03 3.881451034545898438e+01 1.482840442657470703e+01 1.311364173889160156e+00 3.509678125381469727e+00 1.446312665939331055e+00 -1.791719079017639160e+00
3.377000000000000000e+03 5.966622543334960938e+01 -1.384768581390380859e+01 -4.871077239513397217e-01 5.695165157318115234e+00 1.562417268753051758e+00 5.316991209983825684e-01
3.378000000000000000e+03 5.782082366943359375e+01 -1.632052803039550781e+01 1.534205973148345947e-01 6.426633834838867188e+00 1.974016427993774414e+00 -2.230522036552429199e-01
3.379000000000000000e+03 7.358639717102050781e+00 -6.849386692047119141e+00 5.905120633542537689e-03 -6.076339259743690491e-02 -1.645748130977153778e-02 -1.014076769351959229e-01
3.380000000000000000e+03 7.504548549652099609e+00 -9.620176315307617188e+00 1.443142909556627274e-02 -1.549775004386901855e-01 -4.216382279992103577e-02 -9.550566971302032471e-02
3.381000000000000000e+03 3.262352371215820312e+01 -8.928138732910156250e+00 1.523369431495666504e+00 8.544888496398925781e-01 7.133574485778808594e-01 2.202294826507568359e+00
3.382000000000000000e+03 6.252981185913085938e+01 -1.411405658721923828e+01 -1.406444787979125977e+00 6.548884868621826172e+00 1.542732000350952148e+00 6.878290176391601562e-01
3.383000000000000000e+03 6.108491897583007812e+01 -1.741372489929199219e+01 4.787415266036987305e-01 6.369626045227050781e+00 2.054510354995727539e+00 -5.781080722808837891e-01
3.384000000000000000e+03 7.330160522460937500e+01 2.745581245422363281e+01 4.486348330974578857e-01 5.610449790954589844e+00 1.817725419998168945e+00 -3.850727081298828125e-01
3.385000000000000000e+03 7.155000305175781250e+01 -3.109407997131347656e+01 1.520623207092285156e+00 4.182680606842041016e+00 1.710991144180297852e+00 -3.183167427778244019e-02
3.386000000000000000e+03 7.198992156982421875e+01 2.387694168090820312e+01 -3.568947911262512207e-01 5.202744007110595703e+00 1.453754663467407227e+00 -1.020063638687133789e+00
3.387000000000000000e+03 7.398339080810546875e+01 -3.524501800537109375e+01 4.461309015750885010e-01 6.342658519744873047e+00 2.036636829376220703e+00 -6.086257100105285645e-01
3.388000000000000000e+03 7.065919494628906250e+01 -3.184023666381835938e+01 2.139964103698730469e+00 4.446218967437744141e+00 1.975854992866516113e+00 -8.238657116889953613e-01
3.389000000000000000e+03 2.216280364990234375e+01 -1.867940521240234375e+01 6.572133898735046387e-01 1.491459757089614868e-01 2.419078052043914795e-01 -1.226975992321968079e-01
3.390000000000000000e+03 2.144581222534179688e+01 -2.166759872436523438e+01 7.130666375160217285e-01 1.965027302503585815e-01 2.728708088397979736e-01 1.677977442741394043e-01
3.391000000000000000e+03 5.137486267089843750e+01 2.463873481750488281e+01 7.072052955627441406e-01 5.112768650054931641e+00 1.745992183685302734e+00 -4.585592150688171387e-01
3.392000000000000000e+03 3.145788574218750000e+01 -3.677910995483398438e+01 1.471002697944641113e-01 1.737294793128967285e+00 5.653185248374938965e-01 3.370554745197296143e-01
3.393000000000000000e+03 5.765270614624023438e+01 -1.538038921356201172e+01 -1.111671552062034607e-01 5.968999862670898438e+00 1.757349729537963867e+00 -9.658243060111999512e-01
3.394000000000000000e+03 6.891948699951171875e+01 3.013830184936523438e+01 1.108551144599914551e+00 4.932960510253906250e+00 1.812453508377075195e+00 6.932532787322998047e-01
3.395000000000000000e+03 7.014735412597656250e+01 3.383707809448242188e+01 2.066378593444824219e-01 5.606761932373046875e+00 1.744019985198974609e+00 6.788798570632934570e-01
3.396000000000000000e+03 3.172636795043945312e+01 3.349428176879882812e+01 -1.860951334238052368e-01 2.865474939346313477e+00 8.038139939308166504e-01 -6.633729338645935059e-01
3.397000000000000000e+03 6.799824523925781250e+01 3.336760711669921875e+01 2.136567384004592896e-01 5.319227695465087891e+00 1.659865260124206543e+00 7.770164608955383301e-01
3.398000000000000000e+03 7.288893127441406250e+01 2.863723564147949219e+01 6.363930702209472656e-01 5.607838630676269531e+00 1.873269557952880859e+00 -1.415263861417770386e-01
3.399000000000000000e+03 3.005267715454101562e+01 -3.362089920043945312e+01 4.502080082893371582e-01 1.371373295783996582e+00 5.464743971824645996e-01 -5.432097986340522766e-02
3.400000000000000000e+03 3.024629592895507812e+01 3.580100631713867188e+01 -3.937362730503082275e-01 2.406649589538574219e+00 6.038740277290344238e-01 -4.509986042976379395e-01
3.401000000000000000e+03 3.316203308105468750e+01 3.715915679931640625e+01 -8.082801699638366699e-01 2.463023185729980469e+00 4.964228868484497070e-01 8.161147683858871460e-02
3.402000000000000000e+03 4.690819549560546875e+01 4.093960189819335938e+01 -1.300574660301208496e+00 3.806452512741088867e+00 7.517633438110351562e-01 -2.360609471797943115e-01
3.403000000000000000e+03 7.645423889160156250e+00 4.138116836547851562e+01 -7.964833080768585205e-02 -2.322132885456085205e-01 -9.355848282575607300e-02 -3.201512387022376060e-03
3.404000000000000000e+03 2.809940528869628906e+01 -4.134317779541015625e+01 -4.814330637454986572e-01 1.931196689605712891e+00 4.349290728569030762e-01 -4.695166274905204773e-02
3.405000000000000000e+03 7.659783363342285156e+00 3.923117446899414062e+01 -5.207340791821479797e-02 -2.078398019075393677e-01 -7.797396183013916016e-02 1.374009065330028534e-03
3.406000000000000000e+03 4.327003479003906250e+01 3.872445344924926758e+00 -9.614228606224060059e-01 9.010570526123046875e+00 2.414744138717651367e+00 -1.219320416450500488e+00
3.407000000000000000e+03 4.381179428100585938e+01 4.052858352661132812e+00 -7.822121381759643555e-01 8.392462730407714844e+00 2.283075094223022461e+00 -1.113605856895446777e+00
3.408000000000000000e+03 4.454356002807617188e+01 1.600317835807800293e+00 4.076898097991943359e+00 6.430403232574462891e+00 3.152190446853637695e+00 -1.035276949405670166e-01
3.409000000000000000e+03 4.474775314331054688e+01 1.268580555915832520e+00 4.528834342956542969e+00 5.883858203887939453e+00 3.123807907104492188e+00 -5.490050911903381348e-01
3.410000000000000000e+03 4.176280975341796875e+01 3.416312456130981445e+00 -1.488162755966186523e+00 9.052477836608886719e+00 2.269294500350952148e+00 -2.574331521987915039e+00
3.411000000000000000e+03 4.341134643554687500e+01 3.247863054275512695e+00 -2.738847434520721436e-01 9.225117683410644531e+00 2.685369729995727539e+00 -6.809591650962829590e-01
3.412000000000000000e+03 4.436917114257812500e+01 -1.350772500038146973e+00 3.757015466690063477e+00 4.893717765808105469e+00 2.595220088958740234e+00 -3.954796075820922852e+00
3.413000000000000000e+03 4.604276657104492188e+01 -1.629996895790100098e+00 2.392987012863159180e+00 4.858890056610107422e+00 2.175563097000122070e+00 -3.988827466964721680e+00
3.414000000000000000e+03 4.672879791259765625e+01 -1.350242257118225098e+00 2.548850059509277344e+00 5.031113624572753906e+00 2.273988962173461914e+00 -3.404139518737792969e+00
3.415000000000000000e+03 4.224497985839843750e+01 4.954973697662353516e+00 -1.278056383132934570e+00 8.478785514831542969e+00 2.160218715667724609e+00 -2.181259155273437500e+00
3.416000000000000000e+03 4.495768356323242188e+01 4.337462425231933594e+00 -6.015469431877136230e-01 6.963760852813720703e+00 1.908664226531982422e+00 -1.185676813125610352e+00
3.417000000000000000e+03 4.432274627685546875e+01 5.058580875396728516e+00 -1.194532036781311035e+00 7.614194393157958984e+00 1.925898671150207520e+00 -1.349622607231140137e+00
3.418000000000000000e+03 4.285482025146484375e+01 6.339639186859130859e+00 -9.551143646240234375e-01 7.994702816009521484e+00 2.111876487731933594e+00 -1.577720999717712402e+00
3.419000000000000000e+03 6.643019199371337891e+00 -7.255911350250244141e+00 9.579201228916645050e-03 -1.216707378625869751e-01 -3.362746164202690125e-02 -9.945811331272125244e-02
3.420000000000000000e+03 4.766648864746093750e+01 -1.650161981582641602e+00 2.042093753814697266e+00 5.632039546966552734e+00 2.302240133285522461e+00 -2.916875600814819336e+00
3.421000000000000000e+03 5.010313796997070312e+01 2.036149501800537109e-01 1.502935290336608887e+00 4.958433151245117188e+00 1.938410520553588867e+00 -3.316238820552825928e-01
3.422000000000000000e+03 4.733400344848632812e+01 -1.161237120628356934e+00 2.356535434722900391e+00 5.059124469757080078e+00 2.224697828292846680e+00 -2.957718372344970703e+00
3.423000000000000000e+03 4.819405364990234375e+01 -1.196902990341186523e+00 2.039945125579833984e+00 5.402023792266845703e+00 2.232590675354003906e+00 -2.333410263061523438e+00
3.424000000000000000e+03 4.316795730590820312e+01 5.366616249084472656e+00 -1.305890083312988281e+00 8.297016143798828125e+00 2.097337961196899414e+00 -1.588593482971191406e+00
3.425000000000000000e+03 1.128141212463378906e+01 -7.276614665985107422e+00 2.040627039968967438e-02 -1.466509513556957245e-02 1.722352462820708752e-03 -1.233006939291954041e-01
3.426000000000000000e+03 1.041269302368164062e+01 -6.483466148376464844e+00 2.033565007150173187e-02 -1.020046249032020569e-01 -2.450069226324558258e-02 -1.241290345788002014e-01
3.427000000000000000e+03 5.904753494262695312e+01 -1.639428138732910156e+01 3.746381998062133789e-01 6.404490470886230469e+00 2.033738613128662109e+00 -2.626473307609558105e-01
3.428000000000000000e+03 4.738650512695312500e+01 -1.750153452157974243e-01 2.770212173461914062e+00 4.551352024078369141e+00 2.196469306945800781e+00 -2.459339857101440430e+00
3.429000000000000000e+03 1.102819633483886719e+01 -8.194445610046386719e+00 5.064586549997329712e-02 -5.457523837685585022e-02 -1.178812817670404911e-03 -1.098300814628601074e-01
3.430000000000000000e+03 2.237486076354980469e+01 -2.065188980102539062e+01 8.411967754364013672e-01 2.914481759071350098e-01 3.397934734821319580e-01 8.572988957166671753e-02
3.431000000000000000e+03 2.353268432617187500e+01 -2.133764076232910156e+01 8.593401908874511719e-01 7.102664113044738770e-01 4.708819985389709473e-01 1.625628322362899780e-01
3.432000000000000000e+03 6.854213714599609375e+01 2.849370765686035156e+01 1.534747242927551270e+00 4.511977195739746094e+00 1.814017295837402344e+00 5.200518965721130371e-01
3.433000000000000000e+03 6.984757232666015625e+01 2.530637168884277344e+01 9.098811745643615723e-01 4.081962585449218750e+00 1.497553110122680664e+00 -6.920738816261291504e-01
3.434000000000000000e+03 7.231983947753906250e+01 -3.218289566040039062e+01 1.302880287170410156e+00 5.154909610748291016e+00 1.937336921691894531e+00 -1.717419326305389404e-01
3.435000000000000000e+03 7.096421813964843750e+01 3.062917900085449219e+01 7.695019841194152832e-01 5.271034717559814453e+00 1.812160968780517578e+00 3.604181706905364990e-01
3.436000000000000000e+03 6.987739562988281250e+01 2.812458801269531250e+01 1.238732814788818359e+00 4.520971775054931641e+00 1.727911353111267090e+00 8.773455023765563965e-02
3.437000000000000000e+03 7.122232055664062500e+01 3.256641769409179688e+01 4.199909269809722900e-01 5.585905075073242188e+00 1.801768779754638672e+00 5.057802796363830566e-01
3.438000000000000000e+03 6.803594207763671875e+01 2.935619544982910156e+01 1.419769644737243652e+00 5.031443119049072266e+00 1.935363769531250000e+00 9.464082717895507812e-01
3.439000000000000000e+03 7.050760650634765625e+01 2.721653556823730469e+01 1.092547774314880371e+00 4.662651062011718750e+00 1.726559638977050781e+00 -2.057734429836273193e-01
3.440000000000000000e+03 7.219548034667968750e+01 2.678409385681152344e+01 6.326916813850402832e-01 5.248802661895751953e+00 1.764448404312133789e+00 -4.843250215053558350e-01
3.441000000000000000e+03 5.590730190277099609e+00 1.265499687194824219e+01 5.156884901225566864e-03 -2.849743366241455078e-01 -8.394523710012435913e-02 5.173180103302001953e-01
3.442000000000000000e+03 7.072731781005859375e+01 -3.903348159790039062e+01 -9.358102679252624512e-01 6.186638832092285156e+00 1.575248599052429199e+00 -8.412011861801147461e-01
3.443000000000000000e+03 6.989451599121093750e+01 -3.699633789062500000e+01 -2.169890105724334717e-01 6.220786571502685547e+00 1.801139235496520996e+00 -1.134146332740783691e+00
3.444000000000000000e+03 3.487236404418945312e+01 -3.663652801513671875e+01 -1.493297517299652100e-01 2.386300325393676758e+00 6.710911393165588379e-01 8.973402380943298340e-01
3.445000000000000000e+03 3.220968246459960938e+01 -3.409526824951171875e+01 6.331800222396850586e-01 1.255068659782409668e+00 5.664746165275573730e-01 2.547785937786102295e-01
3.446000000000000000e+03 7.426316261291503906e+00 -3.228972625732421875e+01 1.087570190429687500e-01 5.354773625731468201e-02 4.869142547249794006e-02 1.040024161338806152e-01
3.447000000000000000e+03 6.006040954589843750e+01 -1.496935558319091797e+01 -5.186347961425781250e-01 6.208357810974121094e+00 1.706916809082031250e+00 2.476260066032409668e-01
3.448000000000000000e+03 6.933371734619140625e+01 2.641133689880371094e+01 1.300625562667846680e+00 3.948921442031860352e+00 1.574864029884338379e+00 -2.165669947862625122e-01
3.449000000000000000e+03 5.370455169677734375e+01 -3.543872833251953125e+01 6.788330078125000000e-01 7.055270671844482422e+00 2.320230960845947266e+00 1.916658282279968262e-01
3.450000000000000000e+03 4.375754165649414062e+01 3.079535722732543945e+00 1.602157503366470337e-01 8.825077056884765625e+00 2.695587635040283203e+00 -4.627484679222106934e-01
3.451000000000000000e+03 4.508539581298828125e+01 -1.393913507461547852e+00 3.353672504425048828e+00 4.374763011932373047e+00 2.318530559539794922e+00 -4.101462841033935547e+00
3.452000000000000000e+03 4.513161087036132812e+01 9.831159114837646484e-01 4.553305625915527344e+00 5.161058902740478516e+00 2.914309263229370117e+00 -1.185650587081909180e+00
3.453000000000000000e+03 4.435522079467773438e+01 2.414206266403198242e+00 2.069793224334716797e+00 7.514083862304687500e+00 2.875163078308105469e+00 -3.472952917218208313e-02
3.454000000000000000e+03 4.464282608032226562e+01 3.236713409423828125e+00 6.124550700187683105e-01 7.402474880218505859e+00 2.404479026794433594e+00 -5.128629207611083984e-01
3.455000000000000000e+03 4.283854675292968750e+01 3.254911422729492188e+00 -8.536754250526428223e-01 9.841054916381835938e+00 2.696213722229003906e+00 -1.166778445243835449e+00
3.456000000000000000e+03 4.527101135253906250e+01 -4.201036691665649414e-01 4.560363292694091797e+00 4.442793369293212891e+00 2.700947046279907227e+00 -3.127674579620361328e+00
3.457000000000000000e+03 4.570578002929687500e+01 -1.351757049560546875e-01 4.312273502349853516e+00 4.432744026184082031e+00 2.623505115509033203e+00 -2.802634477615356445e+00
3.458000000000000000e+03 4.483885955810546875e+01 1.799738049507141113e+00 3.538079977035522461e+00 6.121231555938720703e+00 2.897793531417846680e+00 -4.253586232662200928e-01
3.459000000000000000e+03 4.496318054199218750e+01 2.702357530593872070e+00 1.728108048439025879e+00 6.560728549957275391e+00 2.486650943756103516e+00 -4.167528152465820312e-01
3.460000000000000000e+03 4.563376998901367188e+01 8.275933265686035156e-01 4.246087074279785156e+00 4.629030227661132812e+00 2.662535190582275391e+00 -1.715701103210449219e+00
3.461000000000000000e+03 4.514312744140625000e+01 3.214494705200195312e+00 8.696570992469787598e-01 6.513073921203613281e+00 2.214819192886352539e+00 -7.307355403900146484e-01
3.462000000000000000e+03 4.471134948730468750e+01 -1.023117184638977051e+00 4.398540973663330078e+00 4.743077754974365234e+00 2.742485523223876953e+00 -3.596815824508666992e+00
3.463000000000000000e+03 4.365451049804687500e+01 4.915838241577148438e+00 -1.249128580093383789e+00 8.355914115905761719e+00 2.132035732269287109e+00 -1.482456922531127930e+00
3.464000000000000000e+03 4.308690643310546875e+01 3.482810735702514648e+00 -8.152986764907836914e-01 9.462996482849121094e+00 2.594309329986572266e+00 -1.173719406127929688e+00
3.465000000000000000e+03 4.253659439086914062e+01 3.145056962966918945e+00 -1.031913399696350098e+00 1.024324893951416016e+01 2.763400554656982422e+00 -1.416061043739318848e+00
3.466000000000000000e+03 4.505308151245117188e+01 3.778618812561035156e+00 8.183001726865768433e-02 6.851285457611083984e+00 2.079934597015380859e+00 -8.903406262397766113e-01
3.467000000000000000e+03 4.435743331909179688e+01 4.429415702819824219e+00 -8.565028309822082520e-01 7.768058300018310547e+00 2.073466539382934570e+00 -1.147987484931945801e+00
3.468000000000000000e+03 4.668027877807617188e+01 -6.935311555862426758e-01 3.026314973831176758e+00 4.673445224761962891e+00 2.309928178787231445e+00 -3.108669519424438477e+00
3.469000000000000000e+03 4.595613098144531250e+01 2.284296154975891113e-01 3.955365896224975586e+00 4.396289825439453125e+00 2.505496740341186523e+00 -2.381359577178955078e+00
3.470000000000000000e+03 4.505539703369140625e+01 1.567879199981689453e+00 3.706045150756835938e+00 5.714138984680175781e+00 2.826055288314819336e+00 -6.296554207801818848e-01
3.471000000000000000e+03 4.689277648925781250e+01 3.093383312225341797e+00 1.337165236473083496e+00 4.221384048461914062e+00 1.667564749717712402e+00 -1.000303387641906738e+00
3.472000000000000000e+03 7.023701477050781250e+01 2.913996505737304688e+01 1.155178546905517578e+00 4.837017059326171875e+00 1.797658681869506836e+00 2.546251118183135986e-01
3.473000000000000000e+03 4.918764114379882812e+01 6.482446193695068359e-01 1.919886231422424316e+00 4.205884456634521484e+00 1.837731242179870605e+00 -9.264895319938659668e-01
3.474000000000000000e+03 4.829064178466796875e+01 1.042907834053039551e+00 2.224979877471923828e+00 4.018270492553710938e+00 1.872974991798400879e+00 -1.328880548477172852e+00
3.475000000000000000e+03 4.943598556518554688e+01 1.406264781951904297e+00 1.625617980957031250e+00 3.811453580856323242e+00 1.631121397018432617e+00 -4.328754246234893799e-01
3.476000000000000000e+03 4.766355133056640625e+01 2.461382389068603516e+00 1.686875224113464355e+00 3.724550008773803711e+00 1.623427629470825195e+00 -1.049499154090881348e+00
3.477000000000000000e+03 9.238787651062011719e+00 -7.662072658538818359e+00 3.471048548817634583e-02 -1.191761791706085205e-01 -2.533970586955547333e-02 -1.094069331884384155e-01
3.478000000000000000e+03 6.987982940673828125e+01 3.700950241088867188e+01 -2.888978719711303711e-01 5.672778129577636719e+00 1.615164041519165039e+00 4.766617417335510254e-01
3.479000000000000000e+03 7.130426025390625000e+01 2.932877349853515625e+01 9.252650737762451172e-01 5.162424087524414062e+00 1.826306819915771484e+00 1.781286895275115967e-01
3.480000000000000000e+03 2.789742660522460938e+01 3.544686126708984375e+01 -9.642566740512847900e-02 1.914454579353332520e+00 5.454086661338806152e-01 -4.964508116245269775e-01
3.481000000000000000e+03 4.552568054199218750e+01 3.034501075744628906e-01 4.548251152038574219e+00 4.573466777801513672e+00 2.736515283584594727e+00 -2.213853359222412109e+00
3.482000000000000000e+03 4.636311721801757812e+01 2.556125819683074951e-02 3.585648536682128906e+00 4.455072879791259766e+00 2.412216424942016602e+00 -2.534514665603637695e+00
3.483000000000000000e+03 4.396926498413085938e+01 3.503185987472534180e+00 -8.998832851648330688e-02 8.406502723693847656e+00 2.494954347610473633e+00 -6.656877994537353516e-01
3.484000000000000000e+03 4.611283493041992188e+01 -5.095472335815429688e-01 3.575959444046020508e+00 4.431124687194824219e+00 2.402125120162963867e+00 -3.166279792785644531e+00
3.485000000000000000e+03 4.451775741577148438e+01 2.824588537216186523e+00 1.184422492980957031e+00 7.424089431762695312e+00 2.582553625106811523e+00 -3.938837647438049316e-01
3.486000000000000000e+03 4.421471786499023438e+01 3.919901609420776367e+00 -4.882484078407287598e-01 7.953577041625976562e+00 2.239598512649536133e+00 -9.869431257247924805e-01
3.487000000000000000e+03 4.581847763061523438e+01 2.010986566543579102e+00 2.711460113525390625e+00 5.129369258880615234e+00 2.352248907089233398e+00 -9.780857563018798828e-01
3.488000000000000000e+03 4.456078720092773438e+01 3.636876821517944336e+00 5.184807628393173218e-02 7.494326591491699219e+00 2.263852357864379883e+00 -7.648538351058959961e-01
3.489000000000000000e+03 4.474957656860351562e+01 2.295992136001586914e+00 2.363300800323486328e+00 6.727871894836425781e+00 2.727351903915405273e+00 -3.074871301651000977e-01
3.490000000000000000e+03 4.273498916625976562e+01 3.653444290161132812e+00 -1.239352822303771973e+00 9.523927688598632812e+00 2.485372543334960938e+00 -1.620669960975646973e+00
3.491000000000000000e+03 4.542300033569335938e+01 2.458302259445190430e+00 2.063954591751098633e+00 5.847809314727783203e+00 2.373529195785522461e+00 -6.794750094413757324e-01
3.492000000000000000e+03 4.645816040039062500e+01 1.250639915466308594e+00 3.187359333038330078e+00 4.429783821105957031e+00 2.285142898559570312e+00 -1.580763459205627441e+00
3.493000000000000000e+03 4.797975540161132812e+01 -3.315786123275756836e-01 2.379836797714233398e+00 4.752937316894531250e+00 2.139832258224487305e+00 -2.154419898986816406e+00
3.494000000000000000e+03 4.319405746459960938e+01 4.528613090515136719e+00 -1.286000609397888184e+00 8.647564888000488281e+00 2.208469390869140625e+00 -1.567625999450683594e+00
3.495000000000000000e+03 4.576551818847656250e+01 2.974263906478881836e+00 1.397701501846313477e+00 5.597869396209716797e+00 2.098671197891235352e+00 -7.785111665725708008e-01
3.496000000000000000e+03 4.817477035522460938e+01 2.789949178695678711e-01 2.403498411178588867e+00 4.439194202423095703e+00 2.052807807922363281e+00 -1.797988653182983398e+00
3.497000000000000000e+03 4.745465850830078125e+01 1.106318235397338867e+00 2.609496831893920898e+00 4.053461074829101562e+00 1.998887300491333008e+00 -1.602188110351562500e+00
3.498000000000000000e+03 4.683993530273437500e+01 -1.077258288860321045e-01 3.223425149917602539e+00 4.353060722351074219e+00 2.272945642471313477e+00 -2.574484586715698242e+00
3.499000000000000000e+03 4.384642028808593750e+01 4.441193103790283203e+00 -1.093991160392761230e+00 8.210778236389160156e+00 2.135035991668701172e+00 -1.311798453330993652e+00
3.500000000000000000e+03 7.452876281738281250e+01 -3.390945816040039062e+01 4.724748432636260986e-01 6.465592861175537109e+00 2.081420421600341797e+00 -2.815075218677520752e-01
3.501000000000000000e+03 3.064594268798828125e+01 3.814641571044921875e+01 -6.000635623931884766e-01 2.306227207183837891e+00 5.118491053581237793e-01 -1.629976183176040649e-01
3.502000000000000000e+03 4.509801101684570312e+01 2.096364259719848633e+00 2.871893405914306641e+00 5.978959083557128906e+00 2.655255794525146484e+00 -5.071727037429809570e-01
3.503000000000000000e+03 4.655044555664062500e+01 4.938960075378417969e-01 3.391331672668457031e+00 4.347903728485107422e+00 2.321770668029785156e+00 -2.157490968704223633e+00
3.504000000000000000e+03 4.686118316650390625e+01 8.561657667160034180e-01 3.059006690979003906e+00 4.252282142639160156e+00 2.193386554718017578e+00 -1.876486182212829590e+00
3.505000000000000000e+03 4.286840820312500000e+01 4.096099853515625000e+00 -1.314050912857055664e+00 9.150220870971679688e+00 2.350851058959960938e+00 -1.740176081657409668e+00
3.506000000000000000e+03 4.638278961181640625e+01 2.441379547119140625e+00 1.989227652549743652e+00 4.721076965332031250e+00 2.013091325759887695e+00 -1.071648001670837402e+00
3.507000000000000000e+03 4.749572753906250000e+01 4.080924987792968750e-01 2.739737749099731445e+00 4.286400318145751953e+00 2.107841491699218750e+00 -2.003928899765014648e+00
3.508000000000000000e+03 4.702822113037109375e+01 1.807427167892456055e+00 2.482487201690673828e+00 4.150825500488281250e+00 1.989993810653686523e+00 -1.299292922019958496e+00
3.509000000000000000e+03 2.744298553466796875e+01 4.111747741699218750e+01 -4.657812416553497314e-01 1.906398296356201172e+00 4.321851432323455811e-01 -9.279660880565643311e-02
3.510000000000000000e+03 7.219223785400390625e+01 3.831912612915039062e+01 -2.980546951293945312e-01 6.106355190277099609e+00 1.742490053176879883e+00 2.995814979076385498e-01
3.511000000000000000e+03 4.587643814086914062e+01 1.417697548866271973e+00 3.377729177474975586e+00 4.847286224365234375e+00 2.467504739761352539e+00 -1.256764888763427734e+00
3.512000000000000000e+03 4.614501953125000000e+01 7.002882361412048340e-01 3.753367662429809570e+00 4.489855766296386719e+00 2.472966909408569336e+00 -1.977803587913513184e+00
3.513000000000000000e+03 5.257075881958007812e+01 -3.635301208496093750e+01 7.877305150032043457e-02 6.307000160217285156e+00 1.915731906890869141e+00 2.711352705955505371e-01
3.514000000000000000e+03 8.250326156616210938e+00 -4.152295684814453125e+01 -2.041620761156082153e-01 1.708901077508926392e-01 -9.981591254472732544e-03 2.822728827595710754e-02
3.515000000000000000e+03 9.559585571289062500e+00 -3.961231994628906250e+01 -1.963678151369094849e-01 2.423371374607086182e-01 1.379079651087522507e-02 1.315522193908691406e-01
3.516000000000000000e+03 3.314458084106445312e+01 -3.289019012451171875e+01 8.362909555435180664e-01 9.464821815490722656e-01 5.348319411277770996e-01 3.511799573898315430e-01
3.517000000000000000e+03 7.312802314758300781e+00 3.740133285522460938e+01 2.351422607898712158e-02 -1.583712995052337646e-01 -4.045712202787399292e-02 -8.745556697249412537e-04
3.518000000000000000e+03 1.939944839477539062e+01 3.968295669555664062e+01 3.108319640159606934e-02 6.626446843147277832e-01 2.081183791160583496e-01 -9.634508937597274780e-02
3.519000000000000000e+03 1.875414276123046875e+01 3.523244094848632812e+01 7.083735615015029907e-02 4.188571274280548096e-01 1.469083428382873535e-01 -1.760496348142623901e-01
3.520000000000000000e+03 6.315387725830078125e+01 4.101435089111328125e+01 -3.516238927841186523e-01 2.731507301330566406e+00 7.139650583267211914e-01 -1.736130863428115845e-01
3.521000000000000000e+03 6.757093811035156250e+01 4.105166244506835938e+01 -6.050817966461181641e-01 4.894250869750976562e+00 1.286750674247741699e+00 5.950000882148742676e-02
3.522000000000000000e+03 7.211322021484375000e+01 4.104043197631835938e+01 -3.564329743385314941e-01 6.122846126556396484e+00 1.729923963546752930e+00 9.346065670251846313e-02
3.523000000000000000e+03 5.757669067382812500e+01 3.870239257812500000e+01 -5.577489137649536133e-01 1.642158508300781250e+00 3.253228962421417236e-01 8.217555284500122070e-01
3.524000000000000000e+03 5.773842811584472656e+00 -3.752407455444335938e+01 -2.767138369381427765e-02 -2.240934595465660095e-02 -1.502421870827674866e-02 1.142023950815200806e-01
3.525000000000000000e+03 1.197788333892822266e+01 3.758844757080078125e+01 3.836499899625778198e-02 7.578942924737930298e-02 3.424632921814918518e-02 1.217342242598533630e-01
3.526000000000000000e+03 2.741701316833496094e+01 3.821830749511718750e+01 -3.315279781818389893e-01 1.863388895988464355e+00 4.595582783222198486e-01 -2.992550134658813477e-01
3.527000000000000000e+03 2.307796859741210938e+01 4.098471832275390625e+01 -1.649925112724304199e-01 1.233459949493408203e+00 3.205402493476867676e-01 -7.675899565219879150e-02
3.528000000000000000e+03 2.678365898132324219e+01 -3.683353042602539062e+01 1.472139805555343628e-01 1.815804719924926758e+00 5.889056324958801270e-01 -6.255862116813659668e-02
3.529000000000000000e+03 3.262538146972656250e+01 2.441197395324707031e+00 4.368174672126770020e-01 5.691047906875610352e-01 3.017766773700714111e-01 -6.585108637809753418e-01
3.530000000000000000e+03 3.216842269897460938e+01 1.002953886985778809e+00 -1.377335906028747559e+00 3.168628215789794922e-01 -3.181419372558593750e-01 -8.958315104246139526e-02
3.531000000000000000e+03 3.141635322570800781e+01 7.417591810226440430e-01 -1.383995413780212402e+00 4.400361478328704834e-01 -2.831877768039703369e-01 2.056564576923847198e-02
3.532000000000000000e+03 3.972482681274414062e+01 -6.046416163444519043e-01 3.822056293487548828e+00 7.342036366462707520e-01 1.366878032684326172e+00 3.735406160354614258e+00
3.533000000000000000e+03 3.989475631713867188e+01 -8.833360671997070312e-01 4.030704975128173828e+00 1.518746733665466309e+00 1.664835572242736816e+00 4.924043178558349609e+00
3.534000000000000000e+03 4.007053756713867188e+01 -7.246374487876892090e-01 4.812252521514892578e+00 1.403752565383911133e+00 1.864801526069641113e+00 4.973335266113281250e+00
3.535000000000000000e+03 3.999660491943359375e+01 -1.101583003997802734e+00 3.811055898666381836e+00 2.214658737182617188e+00 1.807714343070983887e+00 5.546995639801025391e+00
3.536000000000000000e+03 4.039111328125000000e+01 -1.568531036376953125e+00 2.591324090957641602e+00 3.725247144699096680e+00 1.894971370697021484e+00 6.726710319519042969e+00
3.537000000000000000e+03 4.068059539794921875e+01 -1.670206546783447266e+00 2.436677694320678711e+00 4.810747623443603516e+00 2.174227714538574219e+00 6.956138610839843750e+00
3.538000000000000000e+03 4.165442276000976562e+01 -1.480666160583496094e+00 2.612112522125244141e+00 7.244048595428466797e+00 2.956848382949829102e+00 4.035425186157226562e+00
3.539000000000000000e+03 4.186843872070312500e+01 -1.455109953880310059e+00 2.716777324676513672e+00 7.059046745300292969e+00 2.932747125625610352e+00 2.592291355133056641e+00
3.540000000000000000e+03 4.228905487060546875e+01 -1.448939800262451172e+00 2.849702119827270508e+00 8.108388900756835938e+00 3.287427425384521484e+00 -1.145425736904144287e-01
3.541000000000000000e+03 4.274628829956054688e+01 -8.066635727882385254e-01 6.186028957366943359e+00 9.135648727416992188e+00 4.596503257751464844e+00 -2.419996023178100586e+00
3.542000000000000000e+03 4.350014877319335938e+01 -4.084028303623199463e-01 7.592629909515380859e+00 6.431021213531494141e+00 4.207095146179199219e+00 -2.658702135086059570e+00
3.543000000000000000e+03 4.311306381225585938e+01 1.007898092269897461e+00 7.032668113708496094e+00 9.442641258239746094e+00 4.942592620849609375e+00 1.744483947753906250e+00
3.544000000000000000e+03 4.257747268676757812e+01 2.239518404006958008e+00 3.282743394374847412e-01 1.158228778839111328e+01 3.573168754577636719e+00 -1.763710528612136841e-01
3.545000000000000000e+03 4.181691741943359375e+01 2.116098642349243164e+00 -6.536434888839721680e-01 1.167007160186767578e+01 3.304928541183471680e+00 -2.297191381454467773e+00
3.546000000000000000e+03 4.167747497558593750e+01 2.551843166351318359e+00 -1.028984069824218750e+00 1.017417049407958984e+01 2.743556022644042969e+00 -2.751198291778564453e+00
3.547000000000000000e+03 4.144016265869140625e+01 2.265251398086547852e+00 -7.611330151557922363e-01 9.719064712524414062e+00 2.687379598617553711e+00 -3.196565389633178711e+00
3.548000000000000000e+03 4.088573074340820312e+01 2.486168861389160156e+00 -8.085562586784362793e-01 6.798736572265625000e+00 1.797054052352905273e+00 -3.418558359146118164e+00
3.549000000000000000e+03 4.016062545776367188e+01 2.811218261718750000e+00 -7.112306356430053711e-01 3.683367490768432617e+00 8.916410207748413086e-01 -2.654130935668945312e+00
3.550000000000000000e+03 3.998902130126953125e+01 2.885161399841308594e+00 -8.618488907814025879e-01 3.449720382690429688e+00 7.763614654541015625e-01 -2.470000505447387695e+00
3.551000000000000000e+03 3.951085281372070312e+01 3.742413520812988281e+00 -8.915371894836425781e-01 3.297643899917602539e+00 7.218319773674011230e-01 -1.738059163093566895e+00
3.552000000000000000e+03 3.862528991699218750e+01 3.321901559829711914e+00 -6.745091676712036133e-01 -4.671174287796020508e-01 -3.424879908561706543e-01 -7.053202390670776367e-01
3.553000000000000000e+03 3.898968505859375000e+01 3.593409776687622070e+00 -1.014622330665588379e+00 1.317054510116577148e+00 9.072966873645782471e-02 -5.638915300369262695e-01
3.554000000000000000e+03 1.724485015869140625e+01 -1.086871147155761719e+00 -1.957224458456039429e-01 1.835971921682357788e-01 -3.637575777247548103e-03 -1.306664794683456421e-01
3.555000000000000000e+03 3.558095169067382812e+01 1.364468860626220703e+01 9.246804714202880859e-01 1.519793272018432617e+00 7.333421707153320312e-01 -1.569831728935241699e+00
3.556000000000000000e+03 5.506555938720703125e+01 -2.450859069824218750e+01 -1.149999856948852539e+00 7.604983329772949219e+00 1.936494946479797363e+00 1.910839200019836426e+00
3.557000000000000000e+03 2.083045005798339844e+01 2.950794219970703125e+01 1.807654947042465210e-01 8.745490908622741699e-01 3.165943622589111328e-01 1.808606833219528198e-01
3.558000000000000000e+03 1.057382965087890625e+01 2.135858345031738281e+01 1.675606817007064819e-01 5.945314094424247742e-02 6.810414791107177734e-02 1.429959386587142944e-01
3.559000000000000000e+03 5.587941741943359375e+01 1.172084999084472656e+01 1.056181788444519043e+00 9.663203239440917969e+00 3.215815544128417969e+00 6.242228746414184570e-01
3.560000000000000000e+03 3.514241409301757812e+01 -2.958752822875976562e+01 -1.030437946319580078e-01 -2.410566359758377075e-01 -1.032301336526870728e-01 2.416817694902420044e-01
3.561000000000000000e+03 1.684729766845703125e+01 -1.676322937011718750e+01 1.193247735500335693e-01 1.884947717189788818e-01 9.234586358070373535e-02 -2.822492420673370361e-01
3.562000000000000000e+03 5.233931732177734375e+01 2.944093132019042969e+01 1.214623570442199707e+00 8.032840728759765625e+00 2.774239301681518555e+00 6.330637931823730469e-01
3.563000000000000000e+03 5.310384368896484375e+01 2.715991592407226562e+01 1.602850079536437988e+00 8.098262786865234375e+00 2.910333633422851562e+00 -1.046376466751098633e+00
3.564000000000000000e+03 5.140069961547851562e+01 2.672074508666992188e+01 1.891410827636718750e+00 6.174367904663085938e+00 2.419733762741088867e+00 -1.126248240470886230e-01
3.565000000000000000e+03 6.470741271972656250e+01 3.047385978698730469e+01 6.727314591407775879e-01 6.425945281982421875e+00 2.129602909088134766e+00 3.140217363834381104e-01
3.566000000000000000e+03 6.154139328002929688e+01 9.071160316467285156e+00 2.076487392187118530e-01 5.018762588500976562e+00 1.567923426628112793e+00 -1.433172702789306641e+00
3.567000000000000000e+03 6.042081832885742188e+01 1.785789108276367188e+01 2.759316444396972656e+00 8.310619354248046875e+00 3.320980787277221680e+00 2.444540500640869141e+00
3.568000000000000000e+03 2.710605049133300781e+01 3.007283210754394531e+01 1.337378025054931641e+00 1.066317200660705566e+00 7.211085557937622070e-01 -5.430030226707458496e-01
3.569000000000000000e+03 1.660286903381347656e+01 -4.181995010375976562e+01 -5.077074170112609863e-01 -1.120984032750129700e-01 -1.859417408704757690e-01 1.452637091279029846e-02
3.570000000000000000e+03 1.247596931457519531e+01 -4.182666015625000000e+01 -3.631097376346588135e-01 3.111141324043273926e-01 -1.559868268668651581e-02 1.952977478504180908e-02
3.571000000000000000e+03 3.816091156005859375e+01 -3.500525665283203125e+01 9.398310631513595581e-02 3.993774652481079102e+00 1.226327300071716309e+00 1.382606625556945801e+00
3.572000000000000000e+03 2.247624015808105469e+01 1.550149536132812500e+01 -1.642969399690628052e-01 7.600311636924743652e-01 1.787202656269073486e-01 -4.022166877985000610e-02
3.573000000000000000e+03 7.715655517578125000e+01 3.940990447998046875e+01 -7.793493568897247314e-02 7.444946765899658203e+00 2.210103511810302734e+00 6.891793757677078247e-02
3.574000000000000000e+03 5.477236938476562500e+01 -3.992575454711914062e+01 -2.810648202896118164e+00 5.850266933441162109e+00 9.118855595588684082e-01 3.273065686225891113e-01
3.575000000000000000e+03 1.326745128631591797e+01 -3.906946945190429688e+01 -1.838336437940597534e-01 2.750261425971984863e-01 2.735774964094161987e-02 7.194132357835769653e-02
3.576000000000000000e+03 3.904501342773437500e+01 -1.303597092628479004e+00 1.860283374786376953e+00 2.049261331558227539e+00 1.172863483428955078e+00 4.086695194244384766e+00
3.577000000000000000e+03 4.280272674560546875e+01 -1.224587321281433105e+00 4.254561424255371094e+00 7.959469795227050781e+00 3.664209365844726562e+00 -1.938988804817199707e+00
3.578000000000000000e+03 4.305622482299804688e+01 -1.535553932189941406e+00 3.075223922729492188e+00 6.140541076660156250e+00 2.764729499816894531e+00 -2.465843915939331055e+00
3.579000000000000000e+03 3.995933914184570312e+01 3.259999513626098633e+00 -7.857779264450073242e-01 3.861020803451538086e+00 9.225728511810302734e-01 -2.455038547515869141e+00
3.580000000000000000e+03 3.993421936035156250e+01 4.471316337585449219e+00 -8.047415614128112793e-01 4.952188014984130859e+00 1.244233965873718262e+00 -1.952660918235778809e+00
3.581000000000000000e+03 4.376176071166992188e+01 7.022780179977416992e-01 7.336558818817138672e+00 6.747495174407958984e+00 4.225215911865234375e+00 -3.849961236119270325e-02
3.582000000000000000e+03 4.349735260009765625e+01 6.770040988922119141e-01 7.806771278381347656e+00 7.374948978424072266e+00 4.554516315460205078e+00 3.917157351970672607e-01
3.583000000000000000e+03 4.381454467773437500e+01 9.137769341468811035e-01 6.408347129821777344e+00 7.037293910980224609e+00 4.033692359924316406e+00 2.993525266647338867e-01
3.584000000000000000e+03 4.365317916870117188e+01 1.327697157859802246e+00 5.200274944305419922e+00 8.163821220397949219e+00 4.009228706359863281e+00 1.031343698501586914e+00
3.585000000000000000e+03 4.374201965332031250e+01 1.653760910034179688e+00 3.862219095230102539e+00 8.244365692138671875e+00 3.631975412368774414e+00 7.579173445701599121e-01
3.586000000000000000e+03 4.381879425048828125e+01 2.056547164916992188e+00 2.676292657852172852e+00 8.455134391784667969e+00 3.339428186416625977e+00 5.022965073585510254e-01
3.587000000000000000e+03 4.339776992797851562e+01 2.070062160491943359e+00 2.142148733139038086e+00 9.644149780273437500e+00 3.535889387130737305e+00 6.468111276626586914e-01
3.588000000000000000e+03 4.457645034790039062e+01 1.942132353782653809e+00 3.246187448501586914e+00 6.802744388580322266e+00 3.014679670333862305e+00 -3.113278932869434357e-02
3.589000000000000000e+03 4.143438720703125000e+01 2.883121252059936523e+00 -1.157242178916931152e+00 8.870093345642089844e+00 2.313855171203613281e+00 -3.010226011276245117e+00
3.590000000000000000e+03 3.969806289672851562e+01 -1.291708469390869141e+00 2.780218124389648438e+00 2.194298028945922852e+00 1.492354869842529297e+00 4.950913906097412109e+00
3.591000000000000000e+03 3.984094238281250000e+01 -1.600016713142395020e+00 2.437857866287231445e+00 3.265439748764038086e+00 1.710989356040954590e+00 6.072551727294921875e+00
3.592000000000000000e+03 4.879308700561523438e+01 -3.760123825073242188e+01 -1.343112945556640625e+00 4.004618167877197266e+00 7.984515428543090820e-01 1.514471173286437988e+00
3.593000000000000000e+03 5.109364700317382812e+01 -3.505884552001953125e+01 1.325554609298706055e+00 5.880158424377441406e+00 2.161713838577270508e+00 2.459760606288909912e-01
3.594000000000000000e+03 4.294309997558593750e+01 3.595641708374023438e+01 -7.383576631546020508e-01 1.839448809623718262e+00 3.303273320198059082e-01 -9.522683024406433105e-01
3.595000000000000000e+03 6.709279060363769531e+00 2.022780036926269531e+01 1.578929722309112549e-01 -3.244769573211669922e-01 -4.997519403696060181e-02 6.796414405107498169e-02
3.596000000000000000e+03 6.246139526367187500e+01 -2.037111663818359375e+01 2.525302648544311523e+00 6.289591789245605469e+00 2.644468307495117188e+00 -2.216432094573974609e+00
3.597000000000000000e+03 7.379753875732421875e+01 -1.418207740783691406e+01 -8.287036418914794922e-01 4.456575393676757812e+00 1.088361501693725586e+00 6.107800602912902832e-01
3.598000000000000000e+03 6.269101715087890625e+01 -8.559277534484863281e+00 1.156997203826904297e+00 8.579621315002441406e+00 2.920985698699951172e+00 3.447541296482086182e-01
3.599000000000000000e+03 5.701889038085937500e+01 1.162655925750732422e+01 1.466468334197998047e+00 8.986387252807617188e+00 3.135856628417968750e+00 1.450727224349975586e+00
3.600000000000000000e+03 5.025445175170898438e+01 -1.003466415405273438e+01 2.921264171600341797e+00 7.736004829406738281e+00 3.197180747985839844e+00 -5.260715484619140625e-01
3.601000000000000000e+03 4.215859222412109375e+01 -2.155734062194824219e+00 5.364902019500732422e-01 4.262608528137207031e+00 1.439729571342468262e+00 1.153106212615966797e+00
3.602000000000000000e+03 4.623480987548828125e+01 -1.536617088317871094e+01 -3.688850402832031250e+00 7.038015365600585938e+00 1.004749417304992676e+00 3.110801219940185547e+00
3.603000000000000000e+03 4.244850158691406250e+01 -2.660636711120605469e+01 -8.011892437934875488e-01 1.199967980384826660e+00 1.196336299180984497e-01 1.694320201873779297e+00
3.604000000000000000e+03 3.870809173583984375e+01 3.651780843734741211e+00 -8.880844712257385254e-01 -2.943957149982452393e-01 -3.547440469264984131e-01 -4.314142465591430664e-01
3.605000000000000000e+03 2.984189987182617188e+01 -3.005797004699707031e+01 -4.909936785697937012e-01 1.598494529724121094e+00 3.322502672672271729e-01 -3.422050774097442627e-01
3.606000000000000000e+03 5.759989547729492188e+01 -1.369996833801269531e+01 1.653149910271167755e-02 4.633673667907714844e+00 1.395061492919921875e+00 -1.219089627265930176e+00
3.607000000000000000e+03 7.767606353759765625e+01 -5.494816303253173828e+00 5.760703682899475098e-01 9.070699691772460938e+00 2.894031047821044922e+00 2.651292085647583008e-01
3.608000000000000000e+03 3.720726013183593750e+01 3.677393341064453125e+01 -6.617377400398254395e-01 1.517610669136047363e+00 2.567618787288665771e-01 6.530625820159912109e-01
3.609000000000000000e+03 5.257537078857421875e+01 3.552268981933593750e+01 -8.419194817543029785e-01 5.213342189788818359e+00 1.311426758766174316e+00 3.251902461051940918e-01
3.610000000000000000e+03 6.812345886230468750e+01 -3.880982971191406250e+01 -1.212840199470520020e+00 5.485931873321533203e+00 1.281927466392517090e+00 -4.481718838214874268e-01
3.611000000000000000e+03 5.379104995727539062e+01 2.188143920898437500e+01 -1.582466602325439453e+00 4.861780643463134766e+00 9.837941527366638184e-01 -2.454988479614257812e+00
3.612000000000000000e+03 3.489957427978515625e+01 -3.113943862915039062e+01 8.914787769317626953e-01 5.869272947311401367e-01 4.435218274593353271e-01 4.199626743793487549e-01
3.613000000000000000e+03 5.009733200073242188e+01 3.636594772338867188e+01 -1.082076072692871094e+00 5.157923698425292969e+00 1.222754359245300293e+00 -1.761170178651809692e-01
3.614000000000000000e+03 6.602466583251953125e+01 2.588404464721679688e+01 2.103051424026489258e+00 4.601814746856689453e+00 2.011459827423095703e+00 8.582136631011962891e-01
3.615000000000000000e+03 5.114211654663085938e+01 -1.369445133209228516e+01 -4.095880091190338135e-01 2.879376888275146484e+00 7.409366965293884277e-01 -1.365282297134399414e+00
3.616000000000000000e+03 2.271318817138671875e+01 2.691102409362792969e+01 5.242953300476074219e-01 1.076664328575134277e+00 4.802878797054290771e-01 5.769134163856506348e-01
3.617000000000000000e+03 2.174820709228515625e+01 7.824954032897949219e+00 4.014957845211029053e-01 9.748606383800506592e-02 1.496945470571517944e-01 7.778903841972351074e-02
3.618000000000000000e+03 4.399889755249023438e+01 4.623084962368011475e-01 6.970766544342041016e+00 6.001855373382568359e+00 3.891786575317382812e+00 -8.674598932266235352e-01
3.619000000000000000e+03 4.375696563720703125e+01 5.198979973793029785e-01 7.356494426727294922e+00 6.734457969665527344e+00 4.227285861968994141e+00 -2.767267823219299316e-01
3.620000000000000000e+03 4.066683578491210938e+01 3.493794679641723633e+00 -1.156111359596252441e+00 6.258550643920898438e+00 1.530731797218322754e+00 -2.891344785690307617e+00
3.621000000000000000e+03 4.403721618652343750e+01 7.323048114776611328e-01 6.372304916381835938e+00 6.338111400604248047e+00 3.813124895095825195e+00 -4.468311071395874023e-01
3.622000000000000000e+03 6.180075454711914062e+01 -4.171712112426757812e+01 -1.118465542793273926e+00 3.865656256675720215e-01 -2.195699661970138550e-01 2.465800493955612183e-01
3.623000000000000000e+03 6.554076385498046875e+01 -3.848339843750000000e+01 -1.820264458656311035e+00 4.196394443511962891e+00 7.128390073776245117e-01 3.365665078163146973e-01
3.624000000000000000e+03 6.496956825256347656e+00 3.596110153198242188e+01 7.750658690929412842e-02 -2.741530835628509521e-01 -5.899395421147346497e-02 -1.722549833357334137e-02
3.625000000000000000e+03 6.156412124633789062e+01 -3.954017639160156250e+01 -1.569601655006408691e+00 -8.646690845489501953e-01 -7.302812337875366211e-01 3.116408735513687134e-02
3.626000000000000000e+03 6.763475036621093750e+01 -1.484027862548828125e+01 -7.403327226638793945e-01 7.857773900032043457e-01 1.363340299576520920e-02 -9.364832043647766113e-01
3.627000000000000000e+03 6.503013610839843750e+01 -2.728229713439941406e+01 -1.479514718055725098e+00 9.054532051086425781e+00 2.272505044937133789e+00 -2.645951509475708008e+00
3.628000000000000000e+03 3.644410705566406250e+01 -3.650769805908203125e+01 -3.474974334239959717e-01 2.720307350158691406e+00 7.118429541587829590e-01 9.893909692764282227e-01
3.629000000000000000e+03 5.086145019531250000e+01 -1.238857269287109375e+01 6.848584413528442383e-01 4.751562595367431641e+00 1.630926370620727539e+00 -1.428341269493103027e+00
3.630000000000000000e+03 5.017265701293945312e+01 -1.175111675262451172e+01 1.435882687568664551e+00 6.510084152221679688e+00 2.383790016174316406e+00 -1.014459371566772461e+00
3.631000000000000000e+03 5.743907165527343750e+01 -2.253492355346679688e+01 1.571125984191894531e+00 7.101792335510253906e+00 2.601875543594360352e+00 9.359369985759258270e-03
3.632000000000000000e+03 6.109946060180664062e+01 -2.248401069641113281e+01 3.077383041381835938e+00 4.015264511108398438e+00 2.127794265747070312e+00 -1.223599672317504883e+00
3.633000000000000000e+03 2.639685440063476562e+01 -2.408636283874511719e+01 4.253626763820648193e-01 2.333324432373046875e+00 8.276061415672302246e-01 3.310923874378204346e-01
3.634000000000000000e+03 3.928505325317382812e+01 -2.964211463928222656e+01 -8.724965155124664307e-02 6.199490070343017578e+00 1.833672165870666504e+00 1.582519650459289551e+00
3.635000000000000000e+03 4.332615375518798828e+00 -2.598015785217285156e+01 2.476459927856922150e-02 -1.668408811092376709e-01 -4.262288287281990051e-02 -1.770168542861938477e-02
3.636000000000000000e+03 7.591283321380615234e+00 3.338785648345947266e+00 -1.224373430013656616e-01 -5.924624204635620117e-02 -5.450507253408432007e-02 1.417685532942414284e-03
3.637000000000000000e+03 4.394970703125000000e+01 2.506158828735351562e+00 1.504069209098815918e+00 8.416501998901367188e+00 2.976171493530273438e+00 5.316778272390365601e-02
3.638000000000000000e+03 4.090290451049804688e+01 3.264297008514404297e+00 -1.159850955009460449e+00 6.983013153076171875e+00 1.746948599815368652e+00 -3.000433683395385742e+00
3.639000000000000000e+03 4.086765670776367188e+01 4.119191169738769531e+00 -1.286307334899902344e+00 6.813609123229980469e+00 1.658190488815307617e+00 -2.659558057785034180e+00
3.640000000000000000e+03 1.768588447570800781e+01 3.547984695434570312e+01 7.015183568000793457e-02 2.806890606880187988e-01 1.052522659301757812e-01 -1.308815926313400269e-01
3.641000000000000000e+03 1.789416122436523438e+01 3.348356246948242188e+01 6.352888885885477066e-03 1.429598629474639893e-01 4.479382187128067017e-02 -9.387779235839843750e-02
3.642000000000000000e+03 5.218439865112304688e+01 -1.375668764114379883e+00 1.252479553222656250e+00 7.194644451141357422e+00 2.534137248992919922e+00 1.002867221832275391e+00
3.643000000000000000e+03 5.099978256225585938e+01 2.435656636953353882e-02 1.173755168914794922e+00 5.346536159515380859e+00 1.956087350845336914e+00 3.414057493209838867e-01
3.644000000000000000e+03 4.602159500122070312e+01 5.493337631225585938e+00 -1.367559075355529785e+00 5.394519329071044922e+00 1.208088040351867676e+00 -1.117563724517822266e+00
3.645000000000000000e+03 4.382328033447265625e+01 -4.649114906787872314e-01 7.005964279174804688e+00 5.694205284118652344e+00 3.810050964355468750e+00 -2.798448085784912109e+00
3.646000000000000000e+03 4.388095092773437500e+01 -2.121071815490722656e-01 7.207029342651367188e+00 5.806461334228515625e+00 3.904047250747680664e+00 -2.391461849212646484e+00
3.647000000000000000e+03 4.277101898193359375e+01 2.556065797805786133e+00 -1.444275081157684326e-01 1.081368446350097656e+01 3.200777053833007812e+00 -4.795598089694976807e-01
3.648000000000000000e+03 4.290765762329101562e+01 2.878255367279052734e+00 -3.792060911655426025e-01 1.022547817230224609e+01 2.953881740570068359e+00 -6.831513047218322754e-01
3.649000000000000000e+03 6.649408721923828125e+01 2.692094993591308594e+01 2.324709653854370117e+00 4.598314762115478516e+00 2.076907396316528320e+00 1.159677624702453613e+00
3.650000000000000000e+03 4.299098587036132812e+01 2.387617826461791992e+00 7.283381223678588867e-01 1.053189182281494141e+01 3.378068923950195312e+00 8.255554735660552979e-02
3.651000000000000000e+03 7.738838195800781250e+01 -3.589361953735351562e+01 3.399082645773887634e-02 7.592038154602050781e+00 2.287808656692504883e+00 -1.745111197233200073e-01
3.652000000000000000e+03 2.705586433410644531e+01 4.613790988922119141e+00 6.923403590917587280e-02 2.141633331775665283e-01 8.501920849084854126e-02 -1.375123020261526108e-02
3.653000000000000000e+03 1.775682067871093750e+01 5.032451152801513672e+00 -5.375932455062866211e-01 2.316468358039855957e-01 -9.178392589092254639e-02 4.959325194358825684e-01
3.654000000000000000e+03 7.808857727050781250e+01 -2.452614784240722656e+00 -2.466309368610382080e-01 8.682074546813964844e+00 2.530633211135864258e+00 5.508177876472473145e-01
3.655000000000000000e+03 7.691525268554687500e+01 -7.560530900955200195e-01 -6.235465407371520996e-01 8.172472953796386719e+00 2.264678001403808594e+00 -5.031457170844078064e-03
3.656000000000000000e+03 4.125159835815429688e+01 9.724438667297363281e+00 9.848074913024902344e-01 7.180655956268310547e+00 2.449639081954956055e+00 -2.958110868930816650e-01
3.657000000000000000e+03 1.195149326324462891e+01 2.058501052856445312e+01 3.321841359138488770e-01 2.720907330513000488e-01 1.812824606895446777e-01 3.715779781341552734e-01
3.658000000000000000e+03 5.048237609863281250e+01 1.709822177886962891e+00 1.157086491584777832e+00 3.693672657012939453e+00 1.455227732658386230e+00 5.782409906387329102e-01
3.659000000000000000e+03 6.685752105712890625e+01 2.560583829879760742e+00 3.005926012992858887e-01 2.367254257202148438e+00 8.003540635108947754e-01 1.698211431503295898e+00
3.660000000000000000e+03 7.074642944335937500e+01 1.567631959915161133e+00 5.169166326522827148e-01 1.968371629714965820e+00 7.455864548683166504e-01 1.113375782966613770e+00
3.661000000000000000e+03 3.641545867919921875e+01 -3.398131179809570312e+01 1.177652835845947266e+00 2.668305397033691406e+00 1.153787493705749512e+00 1.355158209800720215e+00
3.662000000000000000e+03 2.199937057495117188e+01 2.730489730834960938e+01 4.190320670604705811e-01 1.056223630905151367e+00 4.425767064094543457e-01 4.707121849060058594e-01
3.663000000000000000e+03 2.412180900573730469e+01 3.541535568237304688e+01 8.501299656927585602e-03 1.336968421936035156e+00 4.036409258842468262e-01 -3.734394609928131104e-01
3.664000000000000000e+03 2.186602973937988281e+01 2.872119712829589844e+01 3.561631739139556885e-01 9.432734847068786621e-01 3.898310065269470215e-01 3.042984306812286377e-01
3.665000000000000000e+03 4.986191940307617188e+01 -1.373657131195068359e+01 -1.101894855499267578e+00 4.912117958068847656e+00 1.143066883087158203e+00 1.323781460523605347e-01
3.666000000000000000e+03 5.224056243896484375e+01 -1.203436946868896484e+01 9.367835521697998047e-01 4.386861801147460938e+00 1.597093701362609863e+00 -2.740587711334228516e+00
3.667000000000000000e+03 6.557016754150390625e+01 -1.426693725585937500e+01 -1.360734105110168457e+00 4.091754913330078125e+00 8.193061947822570801e-01 1.575012952089309692e-01
3.668000000000000000e+03 8.993963241577148438e+00 -2.596958160400390625e+01 9.933821111917495728e-02 1.054628714919090271e-01 6.144032627344131470e-02 -1.014769896864891052e-01
3.669000000000000000e+03 3.081291007995605469e+01 -2.973085403442382812e+01 -4.647554755210876465e-01 1.266178369522094727e+00 2.404268682003021240e-01 -4.616904854774475098e-01
3.670000000000000000e+03 6.927881717681884766e+00 -3.598092269897460938e+01 -6.755869369953870773e-03 6.039111316204071045e-02 1.609057374298572540e-02 1.479253321886062622e-01
3.671000000000000000e+03 5.925608444213867188e+01 -1.276416683197021484e+01 -1.784001737833023071e-01 4.421996116638183594e+00 1.273078799247741699e+00 6.124349832534790039e-01
3.672000000000000000e+03 3.127578544616699219e+01 -8.657329559326171875e+00 1.271464228630065918e+00 3.983289003372192383e-01 5.009379386901855469e-01 1.793608188629150391e+00
3.673000000000000000e+03 3.613580322265625000e+01 -4.832136154174804688e+00 2.884063243865966797e+00 4.007309913635253906e+00 2.067411899566650391e+00 1.547235369682312012e+00
3.674000000000000000e+03 3.321287155151367188e+01 -5.340806484222412109e+00 1.988825201988220215e+00 5.658854842185974121e-01 7.664132118225097656e-01 4.737931787967681885e-01
3.675000000000000000e+03 6.726953125000000000e+01 3.106242942810058594e+01 9.612993597984313965e-01 5.336522102355957031e+00 1.889346480369567871e+00 9.625254869461059570e-01
3.676000000000000000e+03 6.107324600219726562e+01 7.726170539855957031e+00 -3.998609185218811035e-01 5.059712886810302734e+00 1.397955536842346191e+00 -1.423960804939270020e+00
3.677000000000000000e+03 5.913500976562500000e+01 -2.400709533691406250e+01 6.711550951004028320e-01 3.672785520553588867e+00 1.303182125091552734e+00 6.542573571205139160e-01
3.678000000000000000e+03 5.132619094848632812e+01 -7.423092722892761230e-01 1.126787304878234863e+00 6.182083606719970703e+00 2.192661285400390625e+00 2.709254026412963867e-01
3.679000000000000000e+03 6.556895446777343750e+01 2.718714141845703125e+01 2.371231079101562500e+00 5.886963844299316406e+00 2.477458477020263672e+00 1.502134323120117188e+00
3.680000000000000000e+03 1.429786109924316406e+01 2.004354286193847656e+01 4.717938303947448730e-01 3.135069608688354492e-01 2.355902343988418579e-01 6.381385326385498047e-01
3.681000000000000000e+03 6.129327011108398438e+01 -2.144188308715820312e+01 3.036350011825561523e+00 4.909653663635253906e+00 2.383801221847534180e+00 -1.715242266654968262e+00
3.682000000000000000e+03 4.926417922973632812e+01 -1.153153181076049805e+00 1.757915258407592773e+00 5.756089210510253906e+00 2.254201412200927734e+00 -1.497820973396301270e+00
3.683000000000000000e+03 4.230158233642578125e+01 2.976176023483276367e+00 -1.103874325752258301e+00 1.021214962005615234e+01 2.732482433319091797e+00 -1.660476684570312500e+00
3.684000000000000000e+03 5.288638305664062500e+01 2.103576087951660156e+01 -1.418438315391540527e+00 4.413375377655029297e+00 8.984811305999755859e-01 -2.278148412704467773e+00
3.685000000000000000e+03 6.832749176025390625e+01 3.134844398498535156e+01 8.975329995155334473e-01 5.183280944824218750e+00 1.824244260787963867e+00 8.737273812294006348e-01
3.686000000000000000e+03 4.237978363037109375e+01 -2.556236076354980469e+01 7.814307212829589844e-01 2.327337980270385742e+00 9.326305985450744629e-01 1.522284269332885742e+00
3.687000000000000000e+03 4.411868667602539062e+01 -5.405929684638977051e-01 5.938313484191894531e+00 5.263474464416503906e+00 3.360536336898803711e+00 -3.043435335159301758e+00
3.688000000000000000e+03 4.321073532104492188e+01 2.761053800582885742e+00 1.369694322347640991e-01 9.854004859924316406e+00 2.997292280197143555e+00 -3.462048470973968506e-01
3.689000000000000000e+03 4.546985626220703125e+00 -3.340828704833984375e+01 2.758501656353473663e-02 -1.835384368896484375e-01 -4.678602889180183411e-02 9.864880144596099854e-02
3.690000000000000000e+03 5.115190124511718750e+01 1.566527962684631348e+00 8.546397686004638672e-01 4.188289165496826172e+00 1.512878656387329102e+00 1.414156436920166016e+00
3.691000000000000000e+03 1.570642471313476562e+01 4.830463886260986328e+00 -6.006739139556884766e-01 8.258465677499771118e-02 -1.554267853498458862e-01 7.352509498596191406e-01
3.692000000000000000e+03 1.368650341033935547e+01 -8.472724914550781250e+00 -2.876325743272900581e-03 1.452119797468185425e-01 4.270069301128387451e-02 -3.435206785798072815e-02
3.693000000000000000e+03 6.536662292480468750e+01 2.831226348876953125e+01 1.543414115905761719e+00 6.452653884887695312e+00 2.398820400238037109e+00 1.322817087173461914e+00
3.694000000000000000e+03 5.226106643676757812e+01 -3.203812408447265625e+01 2.660511255264282227e+00 5.626041412353515625e+00 2.485965728759765625e+00 2.737088501453399658e-02
3.695000000000000000e+03 6.546042633056640625e+01 2.806987524032592773e+00 -1.764549687504768372e-02 3.137199640274047852e+00 9.358662962913513184e-01 8.499483466148376465e-01
3.696000000000000000e+03 3.701045608520507812e+01 -3.929165267944335938e+01 -1.159729361534118652e+00 2.579789876937866211e+00 4.260181784629821777e-01 2.358228117227554321e-01
3.697000000000000000e+03 3.671139526367187500e+01 -3.495888900756835938e+01 3.963086009025573730e-01 2.786105155944824219e+00 9.547241330146789551e-01 1.270609259605407715e+00
3.698000000000000000e+03 6.045808029174804688e+01 -2.123313522338867188e+01 3.111891269683837891e+00 4.575404167175292969e+00 2.306188583374023438e+00 -1.054756283760070801e+00
3.699000000000000000e+03 5.928142547607421875e+01 -2.156216621398925781e+01 3.016672372817993164e+00 4.726610183715820312e+00 2.322984695434570312e+00 -3.405653238296508789e-01
3.700000000000000000e+03 3.113154411315917969e+01 -3.292646408081054688e+01 3.935279250144958496e-01 1.146292805671691895e+00 4.619462192058563232e-01 -6.964544206857681274e-02
3.701000000000000000e+03 5.244134140014648438e+01 -2.911280441284179688e+01 9.259778261184692383e-01 4.574445247650146484e+00 1.650126934051513672e+00 5.345044732093811035e-01
3.702000000000000000e+03 3.744712066650390625e+01 -3.577786636352539062e+01 -2.311604917049407959e-01 3.018434524536132812e+00 8.361821770668029785e-01 9.432539939880371094e-01
3.703000000000000000e+03 5.029808425903320312e+01 2.475304794311523438e+01 1.064725399017333984e+00 5.023474216461181641e+00 1.826459884643554688e+00 -5.647595971822738647e-02
3.704000000000000000e+03 6.581958770751953125e+01 2.442140960693359375e+01 1.175267577171325684e+00 3.918539762496948242e+00 1.528142213821411133e+00 9.616540074348449707e-01
3.705000000000000000e+03 6.686051940917968750e+01 2.499775123596191406e+01 1.465552568435668945e+00 3.376189470291137695e+00 1.452522516250610352e+00 4.894571602344512939e-01
3.706000000000000000e+03 4.208317184448242188e+01 3.211032390594482422e+00 -1.327069401741027832e+00 9.784102439880371094e+00 2.537109851837158203e+00 -2.145454645156860352e+00
3.707000000000000000e+03 3.604330062866210938e+01 -3.713557720184326172e+00 1.800555825233459473e+00 2.762820005416870117e+00 1.369012713432312012e+00 9.762774705886840820e-01
3.708000000000000000e+03 4.893877792358398438e+01 -5.775218456983566284e-02 2.020405292510986328e+00 4.749618053436279297e+00 2.031007051467895508e+00 -1.370956301689147949e+00
3.709000000000000000e+03 1.323011970520019531e+01 -5.864448547363281250e+00 7.283551990985870361e-02 1.000085696578025818e-01 5.185322836041450500e-02 -7.211712002754211426e-02
3.710000000000000000e+03 2.702174949645996094e+01 -2.660724639892578125e+01 -6.120895743370056152e-01 2.274677038192749023e+00 4.987762272357940674e-01 1.863993406295776367e-01
3.711000000000000000e+03 6.767905426025390625e+01 2.705369758605957031e+01 1.861502408981323242e+00 4.153187274932861328e+00 1.804406881332397461e+00 5.458517670631408691e-01
3.712000000000000000e+03 5.467883110046386719e+00 7.292511940002441406e+00 -2.880089581012725830e-01 -7.446775585412979126e-02 -1.087430119514465332e-01 1.825858205556869507e-01
3.713000000000000000e+03 4.429107284545898438e+01 3.327525854110717773e+00 2.162574678659439087e-01 8.005273818969726562e+00 2.466459512710571289e+00 -6.106825470924377441e-01
3.714000000000000000e+03 7.712151336669921875e+01 6.745664119720458984e+00 -3.725166991353034973e-02 7.117230892181396484e+00 2.123993873596191406e+00 -9.812228679656982422e-01
3.715000000000000000e+03 7.389608764648437500e+01 2.682260990142822266e+00 -2.479431629180908203e-01 5.299463748931884766e+00 1.515456199645996094e+00 -5.869674682617187500e-01
3.716000000000000000e+03 6.263033390045166016e+00 5.623896121978759766e+00 -2.640591263771057129e-01 -6.794837862253189087e-02 -9.960224479436874390e-02 7.262689620256423950e-02
3.717000000000000000e+03 6.074796676635742188e+01 -1.351459026336669922e+01 -9.265676140785217285e-01 6.117165565490722656e+00 1.557179450988769531e+00 8.047260642051696777e-01
3.718000000000000000e+03 4.536688613891601562e+01 1.424655914306640625e+00 3.675705671310424805e+00 5.287999153137207031e+00 2.689111471176147461e+00 -9.696736335754394531e-01
3.719000000000000000e+03 7.587993621826171875e+01 4.055037021636962891e+00 -2.907957136631011963e-01 6.867782115936279297e+00 1.973096013069152832e+00 -8.619583845138549805e-01
3.720000000000000000e+03 4.358051681518554688e+01 -2.346619033813476562e+01 1.595305800437927246e+00 3.395212888717651367e+00 1.497155547142028809e+00 1.713110566139221191e+00
3.721000000000000000e+03 3.979171991348266602e+00 2.183143997192382812e+01 3.352920711040496826e-02 -6.836178898811340332e-01 -1.950266063213348389e-01 1.308563724160194397e-02
3.722000000000000000e+03 2.426073455810546875e+01 -2.280672454833984375e+01 7.056660652160644531e-01 1.160862922668457031e+00 5.599586963653564453e-01 2.747722864151000977e-01
3.723000000000000000e+03 2.479832458496093750e+01 5.284275054931640625e+00 -4.437519237399101257e-02 -6.412858515977859497e-02 -3.255113214254379272e-02 -4.739208146929740906e-02
3.724000000000000000e+03 1.203779697418212891e+01 -2.705129241943359375e+01 2.459861338138580322e-01 2.770414650440216064e-01 1.569082885980606079e-01 7.172797620296478271e-02
3.725000000000000000e+03 7.742009735107421875e+01 5.558797359466552734e+00 -1.311772596091032028e-02 7.219524383544921875e+00 2.161921977996826172e+00 -9.345743656158447266e-01
3.726000000000000000e+03 7.655548858642578125e+01 5.098192691802978516e+00 -1.677817106246948242e-01 7.128135204315185547e+00 2.088106155395507812e+00 -9.825746417045593262e-01
3.727000000000000000e+03 4.477190780639648438e+01 -5.838887691497802734e-01 5.049238681793212891e+00 4.610435485839843750e+00 2.897902250289916992e+00 -3.164682865142822266e+00
3.728000000000000000e+03 7.417995452880859375e+01 2.011454200744628906e+01 -1.314643025398254395e+00 7.265044212341308594e+00 1.785120368003845215e+00 -7.137977518141269684e-03
3.729000000000000000e+03 2.629623985290527344e+01 -1.739044952392578125e+01 4.782297909259796143e-01 1.745591402053833008e+00 6.671463847160339355e-01 3.402127325534820557e-01
3.730000000000000000e+03 6.695317268371582031e+00 -2.928766822814941406e+01 8.664952218532562256e-02 -2.722647227346897125e-02 1.782691478729248047e-02 2.352658892050385475e-03
3.731000000000000000e+03 3.676125526428222656e+00 1.122038841247558594e+01 -6.726326793432235718e-02 -2.529266178607940674e-01 -9.605696052312850952e-02 3.627477586269378662e-01
3.732000000000000000e+03 3.768931579589843750e+01 1.667313575744628906e+01 6.986159682273864746e-01 2.700776576995849609e+00 1.019817709922790527e+00 -2.250154733657836914e+00
3.733000000000000000e+03 6.430995941162109375e+01 1.436175704002380371e+00 -1.112658753991127014e-01 4.638342380523681641e+00 1.358122944831848145e+00 2.097479701042175293e-01
3.734000000000000000e+03 6.537539672851562500e+01 1.246989965438842773e+00 2.420760244131088257e-01 3.981264114379882812e+00 1.267002105712890625e+00 8.989697098731994629e-01
3.735000000000000000e+03 4.461151123046875000e+00 1.076642036437988281e+01 -1.361519694328308105e-01 -2.093717306852340698e-01 -1.036571115255355835e-01 3.963373005390167236e-01
3.736000000000000000e+03 3.737379550933837891e+00 1.016668415069580078e+01 -1.256695538759231567e-01 -1.793017536401748657e-01 -9.149139374494552612e-02 3.209923803806304932e-01
3.737000000000000000e+03 5.467244625091552734e+00 4.133469581604003906e+00 -1.266352832317352295e-01 -2.797770686447620392e-02 -4.638389870524406433e-02 -1.329571288079023361e-02
3.738000000000000000e+03 4.202374267578125000e+01 3.950659990310668945e+00 -1.463560938835144043e+00 8.935592651367187500e+00 2.241609334945678711e+00 -2.353034257888793945e+00
3.739000000000000000e+03 4.350012588500976562e+01 4.232167720794677734e+00 -1.126862764358520508e+00 8.747556686401367188e+00 2.286208152770996094e+00 -1.378855466842651367e+00
3.740000000000000000e+03 6.764588928222656250e+01 2.832521438598632812e+01 1.761681199073791504e+00 4.689279079437255859e+00 1.935288071632385254e+00 9.155400395393371582e-01
3.741000000000000000e+03 4.535093688964843750e+01 1.800762057304382324e+00 3.227847814559936523e+00 5.569611072540283203e+00 2.639237642288208008e+00 -8.007469773292541504e-01
3.742000000000000000e+03 7.506637573242187500e+01 3.078853130340576172e+00 -4.017588198184967041e-01 6.478245735168457031e+00 1.822946190834045410e+00 -8.419871926307678223e-01
3.743000000000000000e+03 7.590472412109375000e+01 2.011112785339355469e+01 -7.224153280258178711e-01 7.489171504974365234e+00 2.030026912689208984e+00 3.545438945293426514e-01
3.744000000000000000e+03 7.545457458496093750e+01 2.097487640380859375e+01 -8.037638664245605469e-01 7.360504627227783203e+00 1.967022180557250977e+00 9.686994552612304688e-02
3.745000000000000000e+03 4.659061908721923828e+00 5.536995410919189453e+00 -1.668719500303268433e-01 -2.981282770633697510e-02 -5.900543183088302612e-02 4.530120640993118286e-02
3.746000000000000000e+03 4.725746917724609375e+01 -6.890934109687805176e-01 2.663494348526000977e+00 4.739112854003906250e+00 2.220782041549682617e+00 -2.775665998458862305e+00
3.747000000000000000e+03 4.527768611907958984e+00 8.076395988464355469e+00 -2.201857417821884155e-01 -8.206550776958465576e-02 -9.067537635564804077e-02 2.217860966920852661e-01
3.748000000000000000e+03 3.818886041641235352e+00 7.811789989471435547e+00 -1.649098545312881470e-01 -7.812835276126861572e-02 -7.291146367788314819e-02 1.815101057291030884e-01
3.749000000000000000e+03 6.936137390136718750e+01 2.897120475769042969e+01 1.425102114677429199e+00 4.670721054077148438e+00 1.828746914863586426e+00 5.231627225875854492e-01
3.750000000000000000e+03 3.164581537246704102e+00 7.663478851318359375e+00 -1.031452193856239319e-01 -6.694956123828887939e-02 -5.102843418717384338e-02 1.394233256578445435e-01
3.751000000000000000e+03 6.998769378662109375e+01 3.041530036926269531e+01 9.384788870811462402e-01 5.078971862792968750e+00 1.805235266685485840e+00 5.723714232444763184e-01
3.752000000000000000e+03 3.972930192947387695e+00 7.059759140014648438e+00 -1.705791801214218140e-01 -6.047848984599113464e-02 -6.931730359792709351e-02 1.389477998018264771e-01
3.753000000000000000e+03 4.695737457275390625e+01 4.008935093879699707e-01 3.067252635955810547e+00 4.276087284088134766e+00 2.203001976013183594e+00 -2.181376218795776367e+00
3.754000000000000000e+03 1.115754413604736328e+01 -1.603091955184936523e-01 -3.666013181209564209e-01 -1.404388397932052612e-01 -1.521120518445968628e-01 -8.508287370204925537e-02
3.755000000000000000e+03 1.126386642456054688e+01 -8.940912485122680664e-01 -2.890635728836059570e-01 7.613956183195114136e-02 -6.387720257043838501e-02 -1.141109019517898560e-01
3.756000000000000000e+03 1.049932956695556641e+01 -1.051980972290039062e+00 -2.405326813459396362e-01 -1.493583619594573975e-01 -1.169673129916191101e-01 -9.957498311996459961e-02
3.757000000000000000e+03 1.279222297668457031e+01 -5.713624954223632812e-01 -3.475557565689086914e-01 1.140866950154304504e-01 -7.004071772098541260e-02 -1.327339410781860352e-01
3.758000000000000000e+03 1.264629268646240234e+01 1.541289687156677246e-01 -4.528689384460449219e-01 -1.912911683320999146e-01 -1.932480335235595703e-01 -9.998036921024322510e-02
3.759000000000000000e+03 1.190196800231933594e+01 -3.807745641097426414e-03 -4.047595262527465820e-01 1.048462614417076111e-01 -8.997397869825363159e-02 -1.226490139961242676e-01
3.760000000000000000e+03 1.202809429168701172e+01 -7.334445118904113770e-01 -3.145635128021240234e-01 -1.802621036767959595e-01 -1.484476923942565918e-01 -1.254992783069610596e-01
3.761000000000000000e+03 1.041281127929687500e+01 -3.140535950660705566e-01 -3.401762843132019043e-01 7.290644943714141846e-02 -8.018095046281814575e-02 -8.856643736362457275e-02
3.762000000000000000e+03 8.970457077026367188e+00 -1.137874245643615723e+00 -1.819623410701751709e-01 -1.080515459179878235e-01 -8.700416237115859985e-02 -8.271569013595581055e-02
3.763000000000000000e+03 8.943898200988769531e+00 -3.978742659091949463e-01 -2.118256092071533203e-01 7.972700893878936768e-02 -3.962957859039306641e-02 -3.164570406079292297e-02
3.764000000000000000e+03 9.675095558166503906e+00 -3.934291601181030273e-01 -2.846704125404357910e-01 -1.124080047011375427e-01 -1.191235259175300598e-01 -4.568983986973762512e-02
3.765000000000000000e+03 8.210844039916992188e+00 -3.997015058994293213e-01 -1.586341857910156250e-01 -7.838225364685058594e-02 -7.110492885112762451e-02 -2.571357786655426025e-02
3.766000000000000000e+03 7.471634387969970703e+00 -4.002913832664489746e-01 -1.218138858675956726e-01 6.524091213941574097e-02 -1.697189360857009888e-02 -1.268799509853124619e-02
3.767000000000000000e+03 6.697712898254394531e+00 -3.948567509651184082e-01 -8.853530883789062500e-02 -6.335700303316116333e-02 -4.556769505143165588e-02 -2.469434216618537903e-02
3.768000000000000000e+03 5.996616840362548828e+00 -2.975540459156036377e-01 -6.353858858346939087e-02 7.079439610242843628e-02 2.176741836592555046e-03 1.298019755631685257e-02
3.769000000000000000e+03 4.704762458801269531e+00 -2.634612619876861572e-01 -1.827422343194484711e-02 2.731426060199737549e-02 2.712010871618986130e-03 -3.841034602373838425e-03
3.770000000000000000e+03 1.328154802322387695e+00 -5.921700596809387207e-01 3.953436855226755142e-03 -2.625454450026154518e-03 3.983947099186480045e-04 3.539123572409152985e-03
3.771000000000000000e+03 2.050547361373901367e+00 -1.302320599555969238e+00 -1.291237398982048035e-02 1.644206792116165161e-02 1.058908179402351379e-03 4.424335900694131851e-03
3.772000000000000000e+03 1.100269436836242676e+00 -2.579847574234008789e-01 -3.587950486689805984e-04 -1.544775906950235367e-02 -4.741966258734464645e-03 -2.901593688875436783e-03
3.773000000000000000e+03 7.313934564590454102e-01 -1.136229634284973145e+00 -2.538572531193494797e-03 -2.269740682095289230e-03 -1.442493987269699574e-03 -1.149122603237628937e-03
3.774000000000000000e+03 3.948557078838348389e-01 -5.465090870857238770e-01 4.884515074081718922e-04 3.848272375762462616e-03 1.301017240621149540e-03 1.097694854252040386e-03
3.775000000000000000e+03 9.735026359558105469e+00 -1.133429169654846191e+00 -2.123229354619979858e-01 5.297596752643585205e-02 -4.780409112572669983e-02 -9.895908832550048828e-02
3.776000000000000000e+03 8.204030990600585938e+00 -1.139701485633850098e+00 -1.486623734235763550e-01 6.923333555459976196e-02 -2.382870949804782867e-02 -5.953863635659217834e-02
3.777000000000000000e+03 7.431449413299560547e+00 -1.140291333198547363e+00 -1.112224310636520386e-01 -8.857046067714691162e-02 -5.993786826729774475e-02 -5.070072039961814880e-02
3.778000000000000000e+03 6.624156475067138672e+00 -1.134856700897216797e+00 -7.780638337135314941e-02 6.257664412260055542e-02 -4.568921867758035660e-03 -4.801760986447334290e-02
3.779000000000000000e+03 5.799453258514404297e+00 -1.182115197181701660e+00 -7.228454947471618652e-02 -6.342814117670059204e-02 -4.071380943059921265e-02 -2.148345112800598145e-02
3.780000000000000000e+03 5.011734962463378906e+00 -1.248350262641906738e+00 -3.280106186866760254e-02 4.219253361225128174e-02 2.817440778017044067e-03 -3.472944349050521851e-02
3.781000000000000000e+03 4.251304149627685547e+00 -1.270629644393920898e+00 -3.688928857445716858e-02 -5.078539252281188965e-02 -2.630240283906459808e-02 -1.775225624442100525e-02
3.782000000000000000e+03 3.500344753265380859e+00 -1.290351510047912598e+00 -2.293148823082447052e-02 3.663471713662147522e-02 4.110969137400388718e-03 -1.227942388504743576e-02
3.783000000000000000e+03 2.764770030975341797e+00 -1.311714053153991699e+00 -2.352246548980474472e-03 -4.123216867446899414e-02 -1.307532470673322678e-02 -1.967893727123737335e-02
3.784000000000000000e+03 2.804219961166381836e+00 -9.161376357078552246e-01 -6.037752609699964523e-03 1.251394301652908325e-02 1.942857168614864349e-03 -4.039958119392395020e-03
3.785000000000000000e+03 1.783497571945190430e+00 -7.618596553802490234e-01 -1.129819173365831375e-02 1.822453550994396210e-02 2.077903132885694504e-03 9.047307539731264114e-04
3.786000000000000000e+03 2.272170543670654297e+00 -9.032281041145324707e-01 1.119869109243154526e-02 -2.459586225450038910e-02 -4.019151441752910614e-03 -1.497492659837007523e-02
3.787000000000000000e+03 4.855762481689453125e+00 -7.518115043640136719e-01 -5.264560878276824951e-02 -3.581191599369049072e-02 -2.653725631535053253e-02 -1.319767907261848450e-02
3.788000000000000000e+03 3.442619800567626953e+00 -8.362870812416076660e-01 -2.359728887677192688e-02 -2.231609076261520386e-02 -1.377401407808065414e-02 -3.826372092589735985e-03
3.789000000000000000e+03 2.681409835815429688e+00 -5.107127428054809570e-01 -1.853272132575511932e-02 -1.203094795346260071e-02 -9.169100783765316010e-03 4.422805737704038620e-03
3.790000000000000000e+03 2.254583597183227539e+00 -2.807539403438568115e-01 6.167947780340909958e-03 -1.222392171621322632e-02 -1.816792297177016735e-03 -1.421147258952260017e-03
3.791000000000000000e+03 1.365055561065673828e+00 -1.241105675697326660e+00 -1.210138783790171146e-03 -7.410832215100526810e-03 -2.586291171610355377e-03 -2.588140312582254410e-03
3.792000000000000000e+03 1.685097575187683105e+00 -2.159404754638671875e-01 5.321105010807514191e-03 2.168076671659946442e-02 8.100561797618865967e-03 5.313021596521139145e-03
3.793000000000000000e+03 3.307399272918701172e+00 -3.059355318546295166e-01 1.556138275191187859e-03 1.659382879734039307e-02 5.444990005344152451e-03 -1.197646651417016983e-02
3.794000000000000000e+03 4.001618385314941406e+00 -2.834403216838836670e-01 -1.622384600341320038e-02 -1.802048273384571075e-02 -1.027329824864864349e-02 1.297818031162023544e-03
3.795000000000000000e+03 5.375914096832275391e+00 -2.288835346698760986e-01 -5.214053392410278320e-02 -5.460636690258979797e-02 -3.202407062053680420e-02 -2.071940712630748749e-02
3.796000000000000000e+03 4.139993190765380859e+00 -7.940700054168701172e-01 -1.803419925272464752e-02 2.783317305147647858e-02 2.939691999927163124e-03 -1.773926056921482086e-02
3.797000000000000000e+03 5.566827297210693359e+00 -6.509987115859985352e-01 -2.776968106627464294e-02 1.607012189924716949e-02 -3.509867936372756958e-03 -2.071470022201538086e-02
3.798000000000000000e+03 4.148735809326171875e+01 3.892815411090850830e-01 2.425664520263671875e+01 1.154196262359619141e+00 7.623252391815185547e+00 -1.976810693740844727e+00
3.799000000000000000e+03 4.148258209228515625e+01 3.703944981098175049e-01 3.035002136230468750e+01 1.862074971199035645e+00 9.663628578186035156e+00 6.544258594512939453e+00
3.800000000000000000e+03 4.148158264160156250e+01 3.509393930435180664e-01 3.266030502319335938e+01 6.075751304626464844e+00 1.162081718444824219e+01 1.171572208404541016e+01
3.801000000000000000e+03 4.148438644409179688e+01 3.316616415977478027e-01 3.296517562866210938e+01 1.205281829833984375e+01 1.350539779663085938e+01 1.626475906372070312e+01
3.802000000000000000e+03 4.149089431762695312e+01 3.132999539375305176e-01 3.176241493225097656e+01 1.909080123901367188e+01 1.525596427917480469e+01 1.926679229736328125e+01
3.803000000000000000e+03 4.150085830688476562e+01 2.965579032897949219e-01 2.911108207702636719e+01 2.641430473327636719e+01 1.665761566162109375e+01 2.076188468933105469e+01
3.804000000000000000e+03 4.151388931274414062e+01 2.820770144462585449e-01 2.616216468811035156e+01 3.392191314697265625e+01 1.802522277832031250e+01 2.028180122375488281e+01
3.805000000000000000e+03 4.152949142456054688e+01 2.704121768474578857e-01 2.278015327453613281e+01 4.012449645996093750e+01 1.887139511108398438e+01 1.817803955078125000e+01
3.806000000000000000e+03 4.154706573486328125e+01 2.620103359222412109e-01 2.067067146301269531e+01 4.508792495727539062e+01 1.972757911682128906e+01 1.449017143249511719e+01
3.807000000000000000e+03 4.156594085693359375e+01 2.571934461593627930e-01 1.922011375427246094e+01 4.785724258422851562e+01 2.012320709228515625e+01 9.946478843688964844e+00
3.808000000000000000e+03 4.158539581298828125e+01 2.561460733413696289e-01 1.950634574890136719e+01 4.862735748291015625e+01 2.044011116027832031e+01 5.330090045928955078e+00
3.809000000000000000e+03 4.160467910766601562e+01 2.589083611965179443e-01 2.117676734924316406e+01 4.751123046875000000e+01 2.060639953613281250e+01 1.075238823890686035e+00
3.810000000000000000e+03 4.162305450439453125e+01 2.653744518756866455e-01 2.346226882934570312e+01 4.487691497802734375e+01 2.050175476074218750e+01 -2.065419912338256836e+00
3.811000000000000000e+03 4.163982009887695312e+01 2.752965688705444336e-01 2.697908973693847656e+01 4.169339370727539062e+01 2.060174560546875000e+01 -3.811809301376342773e+00
3.812000000000000000e+03 4.165433120727539062e+01 2.882945537567138672e-01 2.997018432617187500e+01 3.793006515502929688e+01 2.037007522583007812e+01 -4.330007553100585938e+00
3.813000000000000000e+03 4.166603088378906250e+01 3.038703203201293945e-01 3.328717803955078125e+01 3.500679016113281250e+01 2.048819160461425781e+01 -3.335765600204467773e+00
3.814000000000000000e+03 4.167447280883789062e+01 3.214271962642669678e-01 3.549676895141601562e+01 3.226687240600585938e+01 2.032909202575683594e+01 -1.486344337463378906e+00
3.815000000000000000e+03 4.167933273315429688e+01 3.402924239635467529e-01 3.727289581298828125e+01 3.125296211242675781e+01 2.055775833129882812e+01 1.365916490554809570e+00
3.816000000000000000e+03 4.168042755126953125e+01 3.597430288791656494e-01 3.758369827270507812e+01 3.078538894653320312e+01 2.051072502136230469e+01 4.568886280059814453e+00
3.817000000000000000e+03 4.167770767211914062e+01 3.790336847305297852e-01 3.689500808715820312e+01 3.236725997924804688e+01 2.077867889404296875e+01 7.866800308227539062e+00
3.818000000000000000e+03 4.167128372192382812e+01 3.974251747131347656e-01 3.458556365966796875e+01 3.475080490112304688e+01 2.080091094970703125e+01 1.079578495025634766e+01
3.819000000000000000e+03 4.166139984130859375e+01 4.142127633094787598e-01 3.115238380432128906e+01 3.857717132568359375e+01 2.091886711120605469e+01 1.272922801971435547e+01
3.820000000000000000e+03 4.164843368530273438e+01 4.287531673908233643e-01 2.663883590698242188e+01 4.286041259765625000e+01 2.084977531433105469e+01 1.329835796356201172e+01
3.821000000000000000e+03 4.163288497924804688e+01 4.404892325401306152e-01 2.158980369567871094e+01 4.714896011352539062e+01 2.062162971496582031e+01 1.215649890899658203e+01
3.822000000000000000e+03 4.161534881591796875e+01 4.489712119102478027e-01 1.686991310119628906e+01 5.066568374633789062e+01 2.026067924499511719e+01 9.259595870971679688e+00
3.823000000000000000e+03 4.159649276733398438e+01 4.538741111755371094e-01 1.260311508178710938e+01 5.253270339965820312e+01 1.954074478149414062e+01 4.880040168762207031e+00
3.824000000000000000e+03 4.157704544067382812e+01 4.550100564956665039e-01 1.003411293029785156e+01 5.243946456909179688e+01 1.874207305908203125e+01 -3.840362429618835449e-01
3.825000000000000000e+03 4.155774688720703125e+01 4.523355066776275635e-01 8.501633644104003906e+00 4.971100997924804688e+01 1.746379280090332031e+01 -6.029170036315917969e+00
3.826000000000000000e+03 4.153934097290039062e+01 4.459529519081115723e-01 8.920186042785644531e+00 4.494396209716796875e+01 1.615924453735351562e+01 -1.092397880554199219e+01
3.827000000000000000e+03 4.152253341674804688e+01 4.361069798469543457e-01 1.063103485107421875e+01 3.750241470336914062e+01 1.444003391265869141e+01 -1.498414039611816406e+01
3.828000000000000000e+03 4.150796127319335938e+01 4.231748580932617188e-01 1.324922752380371094e+01 2.885930252075195312e+01 1.263255977630615234e+01 -1.704330062866210938e+01
3.829000000000000000e+03 4.149618911743164062e+01 4.076521396636962891e-01 1.964991950988769531e+01 1.594450092315673828e+01 1.067832660675048828e+01 -1.601013946533203125e+01
