# el_label, x, y, sXX, sYY, sZZ, sXY
1.000000000000000000e+00 7.789620208740234375e+01 -4.895188808441162109e+00 5.319213595793553101e-15 2.279662969625808472e-15 2.279662969625808472e-15 -1.779450542536802071e-14
2.000000000000000000e+00 7.957922363281250000e+01 -4.880930423736572266e+00 -4.572300789937658316e-14 -1.110974715543867897e-13 -4.704614451375536965e-14 -7.640747098068036147e-15
3.000000000000000000e+00 7.709211730957031250e+01 -5.645199775695800781e+00 -3.384765341271633865e-14 7.699576246760278520e-14 1.294443119180662891e-14 4.214816294373022187e-14
4.000000000000000000e+00 7.792307281494140625e+01 -5.638720035552978516e+00 3.208917574476673196e-14 1.967562939832190327e-13 6.865363990195619270e-14 -7.262709178631684970e-14
5.000000000000000000e+00 7.875382995605468750e+01 -5.633569240570068359e+00 -2.380797432978551051e-15 -1.020341711614042562e-15 -1.020341711614042562e-15 3.567702244439520994e-16
6.000000000000000000e+00 7.958459472656250000e+01 -5.629650115966796875e+00 -1.580022564336407837e-14 3.897942285244725136e-14 6.953759755648014976e-15 5.529339176601295522e-15
7.000000000000000000e+00 7.705450439453125000e+01 -4.904270172119140625e+00 -9.546908348503219122e-15 -4.091532088856169105e-15 -4.091532088856169105e-15 6.168780357406269954e-14
8.000000000000000000e+00 7.873770904541015625e+01 -4.887435436248779297e+00 3.896779478414734432e-14 1.082023807033073715e-13 4.415105366267595144e-14 -2.107655141993930448e-14
9.000000000000000000e+00 4.667380142211914062e+01 1.783008193969726562e+01 9.387668864924841872e-14 1.774857116745159891e-13 8.140872280763475355e-14 5.032625588507512460e-14
1.000000000000000000e+01 4.846055984497070312e+01 1.932104110717773438e+01 1.625921619563541753e-13 6.968235125200117341e-14 6.968235125200117341e-14 1.404386471074966017e-14
1.100000000000000000e+01 5.002156448364257812e+01 1.845916557312011719e+01 8.490272016253158638e-15 -4.211226229929379561e-14 -1.008659623787924384e-14 -1.534121543992836290e-13
1.200000000000000000e+01 5.124794387817382812e+01 1.728234863281250000e+01 -3.952071417519242846e-14 -1.693744869021591298e-14 -1.693744869021591298e-14 -1.329958821023879967e-13
1.300000000000000000e+01 5.291247940063476562e+01 1.551353359222412109e+01 1.965159941242147768e-13 1.299720964534345491e-13 9.794642446278936654e-14 -1.275241305782881529e-14
1.400000000000000000e+01 5.340974807739257812e+01 1.487505340576171875e+01 2.505751140434442359e-14 3.309955662420677180e-13 1.068159232939236425e-13 -1.551726141243298107e-13
1.500000000000000000e+01 5.383908462524414062e+01 1.418407154083251953e+01 2.310723227344491093e-13 1.905328921979893009e-13 1.264815617692260918e-13 -1.544907729305808330e-13
1.600000000000000000e+01 5.557143020629882812e+01 1.291847801208496094e+01 -1.019941509722288586e-13 1.621674935179187593e-13 1.805200005320153900e-14 -9.503545682614661372e-14
1.700000000000000000e+01 6.112506103515625000e+01 1.167125701904296875e+01 -2.411478236877522691e-14 1.726688860252331703e-13 4.456623194397033028e-14 -2.522066519657865241e-14
1.800000000000000000e+01 6.029079437255859375e+01 1.319399738311767578e+01 4.483477526956783366e-14 1.107168013953635510e-13 4.666547435473213101e-14 3.876582486007223993e-14
1.900000000000000000e+01 6.094330596923828125e+01 1.325701904296875000e+01 -5.583615099685572403e-14 2.182116961354108736e-14 -1.020449390677462265e-14 -5.786819997797773563e-14
2.000000000000000000e+01 6.109041976928710938e+01 1.564680767059326172e+01 1.634302502356854703e-13 3.445472260363985351e-13 1.523932347501089080e-13 5.328772023790138979e-14
2.100000000000000000e+01 6.191034317016601562e+01 1.793140602111816406e+01 8.033987564841707507e-14 1.030578007372821847e-13 5.501930291570977793e-14 5.056565111289171299e-14
2.200000000000000000e+01 6.369286727905273438e+01 1.962724685668945312e+01 -5.821788228365862294e-14 -1.164524206231920544e-13 -5.240109019442884541e-14 1.191803546043285200e-13
2.300000000000000000e+01 6.421991729736328125e+01 2.033665084838867188e+01 2.407309479524315926e-14 -2.184377082426608441e-13 -5.830938217075282148e-14 -7.123828978973512083e-14
2.400000000000000000e+01 6.310378646850585938e+01 2.555637550354003906e+01 6.112351700086546269e-14 7.194674137055503960e-14 3.992107615617343508e-14 -2.095633203373550163e-14
2.500000000000000000e+01 6.180999755859375000e+01 2.474978637695312500e+01 -2.392597872483224336e-14 -1.025399112408037494e-14 -1.025399112408037494e-14 5.053452095801422295e-14
2.600000000000000000e+01 6.041379547119140625e+01 2.402497863769531250e+01 -1.400261878019629092e-13 1.229925720731134264e-13 -5.110083278698834483e-15 1.058117877578102980e-14
2.700000000000000000e+01 5.621696853637695312e+01 2.392627525329589844e+01 1.063330670801436451e-13 3.413357785439150027e-14 4.213999415798690140e-14 -5.462651679740901378e-14
2.800000000000000000e+01 5.652673339843750000e+01 2.324174880981445312e+01 -4.368215993999849389e-14 1.642828668241280710e-13 3.618021274286523092e-14 -8.120284636760691233e-14
2.900000000000000000e+01 5.523570632934570312e+01 2.505661773681640625e+01 -4.097937775519779752e-15 3.255695138395381383e-14 8.537704167233504948e-15 -5.616414587095511224e-14
3.000000000000000000e+01 5.428311538696289062e+01 2.631385993957519531e+01 -2.542244199714178282e-14 -3.377080719560963951e-14 -1.775797458841883725e-14 -1.518329868300041796e-13
3.100000000000000000e+01 4.596647644042968750e+01 2.614943695068359375e+01 -6.931715807899016535e-14 6.179454327794389745e-14 -2.256783127412812125e-15 1.387508661974566279e-14
3.200000000000000000e+01 5.382946014404296875e+01 2.790777969360351562e+01 -2.209618088272382458e-14 1.735339980437136664e-13 4.543134735058261542e-14 -5.809426968346811937e-14
3.300000000000000000e+01 5.391767883300781250e+01 2.870468521118164062e+01 1.762251640186757173e-13 1.212760225360529076e-13 8.925035054540772506e-14 6.403283631139285864e-15
3.400000000000000000e+01 5.383165359497070312e+01 3.093406105041503906e+01 -4.837233044674427163e-14 7.077089700944019790e-14 6.719570815841725137e-15 7.435791213447270898e-14
3.500000000000000000e+01 5.203562545776367188e+01 3.220447921752929688e+01 4.458349786356716193e-14 -4.380034136493120289e-14 2.349469284149640312e-16 -9.509661260493837420e-14
3.600000000000000000e+01 5.411268615722656250e+01 3.220043182373046875e+01 7.330599208167296044e-15 9.464358550342888421e-14 3.059225507466567517e-14 4.601124982319543255e-14
3.700000000000000000e+01 5.605553436279296875e+01 3.454536819458007812e+01 -8.962799849087516035e-14 -3.841199886921338458e-14 -3.841199886921338458e-14 -3.348170256873401161e-15
3.800000000000000000e+01 5.840173721313476562e+01 3.577345275878906250e+01 2.906926611857992004e-14 -5.616816758338867566e-14 -8.129670608849216135e-15 -2.350316528855131426e-14
3.900000000000000000e+01 6.002085494995117188e+01 3.557103729248046875e+01 8.157552731187164841e-14 -1.480428599804836653e-13 -1.994019912295724728e-14 -2.112134252219011188e-15
4.000000000000000000e+01 6.112141036987304688e+01 3.499010467529296875e+01 6.474592455056604745e-14 -8.662911561057098919e-14 -6.564957656814661424e-15 -9.875217471826038679e-15
4.100000000000000000e+01 6.153622055053710938e+01 3.438441085815429688e+01 2.465467100495975089e-14 -3.518466103863936156e-14 -3.158997518323651554e-15 2.063672320933040462e-15
4.200000000000000000e+01 6.198194885253906250e+01 3.380059051513671875e+01 6.922018466499080952e-15 6.015526347446370492e-14 2.012318534461848829e-14 -2.665613870855409323e-14
4.300000000000000000e+01 6.355001068115234375e+01 3.223738098144531250e+01 7.475470302454809146e-14 1.235396333842952998e-13 5.948829617926851276e-14 -4.791184606716715477e-14
4.400000000000000000e+01 6.331665420532226562e+01 3.080742263793945312e+01 3.451321802135087768e-14 3.807989622413299191e-13 1.245936540788042390e-13 -5.771408063915892117e-14
4.500000000000000000e+01 6.335466384887695312e+01 3.155238914489746094e+01 -5.644505926571431742e-14 1.588130533114115450e-13 3.071039923014870499e-14 -6.529484255796830228e-14
4.600000000000000000e+01 6.317417144775390625e+01 2.777790451049804688e+01 -5.489192948923346527e-14 -2.352511191221467318e-14 -2.352511191221467318e-14 4.604060798514726660e-14
4.700000000000000000e+01 6.301409912109375000e+01 2.630207824707031250e+01 5.960833853558633946e-15 1.626829638882998363e-13 5.059313902609600955e-14 -4.384586769178022703e-14
4.800000000000000000e+01 6.376761627197265625e+01 2.640315437316894531e+01 4.299140457151261197e-14 1.099267839298548322e-13 4.587545688922341214e-14 -2.102151121902672004e-14
4.900000000000000000e+01 6.100687408447265625e+01 1.246316337585449219e+01 -5.475326850170204179e-15 8.915532700125294863e-14 2.510399996062152861e-14 2.723568542732906356e-14
5.000000000000000000e+01 5.462917709350585938e+01 9.544518470764160156e+00 -6.308714943677184994e-14 1.559664398499693849e-13 2.786378915683833390e-14 2.602368122969593578e-14
5.100000000000000000e+01 5.403871536254882812e+01 7.676880836486816406e+00 -7.928906012658054614e-14 -1.140451936446768011e-13 -5.800027613137720417e-14 8.953317145836414692e-14
5.200000000000000000e+01 5.564547348022460938e+01 2.652529716491699219e+00 7.703033496437791672e-14 7.876394713312792617e-14 4.673828530687811067e-14 -5.421379829979346143e-14
5.300000000000000000e+01 5.217696762084960938e+01 6.155902862548828125e+00 2.438706517542826857e-13 -3.273684762942347115e-14 6.334014801372134240e-14 4.764615554853600388e-14
5.400000000000000000e+01 5.536865997314453125e+01 3.355073451995849609e+00 8.030171850820916335e-14 -5.708687645863963489e-14 6.964453123090626890e-15 1.783884590609088883e-13
5.500000000000000000e+01 5.492601013183593750e+01 5.467963218688964844e+00 1.642535120503080259e-13 -6.113961740312687243e-14 3.093416839415434605e-14 1.053445389731164084e-13
5.600000000000000000e+01 5.036865234375000000e+01 3.544655799865722656e+00 5.795909000134991107e-14 1.163415067409467873e-13 5.229017970031536733e-14 7.541074020659191413e-14
5.700000000000000000e+01 5.186438369750976562e+01 2.368694543838500977e+00 1.129151364965587379e-13 -1.803625472715161826e-13 -2.023422119960816001e-14 9.968143931810002911e-14
5.800000000000000000e+01 5.028038024902343750e+01 1.496106266975402832e+00 1.558327848271562344e-13 1.811628511051363577e-13 1.010986880691823464e-13 6.769202711386090865e-15
5.900000000000000000e+01 4.943194961547851562e+01 1.297021150588989258e+00 -4.876080686140940590e-14 2.485346116735086264e-14 -7.172203199997794626e-15 7.409384791910028634e-14
6.000000000000000000e+01 4.762334823608398438e+01 7.580268383026123047e+00 -7.334022576526919024e-14 -3.143152581199133710e-14 -3.143152581199133710e-14 4.657082435210709373e-15
6.100000000000000000e+01 4.543087387084960938e+01 8.695908546447753906e+00 -9.333433684125327923e-14 -1.998438883181550413e-14 -3.399561651607450885e-14 1.362972150371682609e-14
6.200000000000000000e+01 4.274494552612304688e+01 5.075952529907226562e+00 -1.937484867637825903e-14 -1.226808775010510000e-13 -4.261671785322877770e-14 8.688136879852689787e-14
6.300000000000000000e+01 3.927947235107421875e+01 7.413863658905029297e+00 -1.467510330919671868e-13 -2.916480533639298489e-13 -1.315197272920218263e-13 -5.164405958001799801e-14
6.400000000000000000e+01 4.593472671508789062e+01 9.253253936767578125e+00 -6.115968869584501033e-14 1.953965248879373923e-14 -1.248601187855491804e-14 3.824953456179822076e-14
6.500000000000000000e+01 3.934695434570312500e+01 6.620702743530273438e+00 1.056995203169153186e-13 -2.749568422336784446e-13 -5.077719928553436901e-14 -2.729002936715900496e-15
6.600000000000000000e+01 4.022419357299804688e+01 2.932470560073852539e+00 2.362000026991106783e-13 1.469795151472913508e-13 1.149538499329097463e-13 1.158806801600589798e-13
6.700000000000000000e+01 3.963942337036132812e+01 3.646396398544311523e+00 1.231717093770623439e-13 1.214142989706262776e-13 7.337580114905387085e-14 3.159469485081861650e-14
6.800000000000000000e+01 3.862838745117187500e+01 3.282386779785156250e+00 -7.491066211892834226e-15 8.829144148648007673e-14 2.424011275178276220e-14 6.908704294414369507e-14
6.900000000000000000e+01 4.545643997192382812e+01 9.843622207641601562e+00 1.093185041594431015e-14 4.685078568183358508e-15 4.685078568183358508e-15 -1.128801099901238780e-13
7.000000000000000000e+01 3.836819839477539062e+01 1.083789920806884766e+01 1.530453552518046267e-13 1.628116315811195536e-13 9.475709469462453849e-14 2.508006280953212208e-13
7.100000000000000000e+01 3.601001739501953125e+01 1.193895053863525391e+01 5.786900364283809051e-13 1.279137657340251311e-13 2.119811352277109484e-13 -4.951919272853586018e-14
7.200000000000000000e+01 3.843536376953125000e+01 9.753739356994628906e+00 1.192488897341567600e-13 -4.039522825938744732e-14 2.365610047530986720e-14 1.235925017927311242e-13
7.300000000000000000e+01 3.974984741210937500e+01 9.112429618835449219e+00 1.590134951880498027e-14 -1.606061034761362832e-14 -4.777795548978532871e-17 1.171656545520321710e-14
7.400000000000000000e+01 3.913404464721679688e+01 8.213794708251953125e+00 8.858552454950319177e-14 -2.365404692863254388e-13 -4.438648138816760069e-14 9.580167944210106479e-15
7.500000000000000000e+01 4.481993484497070312e+01 1.252575302124023438e+01 -1.034227652113974341e-14 1.556959178554070955e-13 4.360609299320326870e-14 2.820591423456381835e-14
7.600000000000000000e+01 4.485017013549804688e+01 1.332823657989501953e+01 5.406617400961419295e-14 3.434278686084701881e-13 1.192482121077989565e-13 6.640808779614926216e-14
7.700000000000000000e+01 4.093889999389648438e+01 2.121303939819335938e+01 1.755150658058063362e-13 2.946979411801858850e-14 6.149545933240019302e-14 9.495925774221161686e-14
7.800000000000000000e+01 4.337884902954101562e+01 2.257825088500976562e+01 1.014690786363577069e-13 -2.264200594931918033e-15 2.976146483120792330e-14 1.834139732996044325e-14
7.900000000000000000e+01 4.518519973754882812e+01 2.425130081176757812e+01 2.358230357681328354e-14 -8.139519738553299688e-14 -1.734386865083568235e-14 8.881879742317702608e-14
8.000000000000000000e+01 4.464895248413085938e+01 2.364184570312500000e+01 3.575790667931970715e-15 4.728342893546740033e-14 1.525776710921758483e-14 1.764159903772967442e-14
8.100000000000000000e+01 1.184473609924316406e+01 1.782161521911621094e+01 -3.672177850428531842e-14 2.587677793396137016e-13 6.661380160585123056e-14 1.770070499678907949e-13
8.200000000000000000e+01 1.277422142028808594e+01 1.782322120666503906e+01 -1.442824538230164100e-13 -6.183533638468366456e-14 -6.183533638468366456e-14 -2.016792088150795581e-13
8.300000000000000000e+01 3.561392724514007568e-01 2.037337875366210938e+01 -1.349151537287807817e-14 -2.865755389610570580e-14 -1.264472044188195629e-14 2.154834368936226624e-14
8.400000000000000000e+01 1.069234490394592285e+00 1.790974807739257812e+01 -5.350809195275559385e-15 -1.395460488698777035e-13 -4.346905661486467898e-14 1.142529809910336480e-13
8.500000000000000000e+01 3.570708930492401123e-01 1.393553638458251953e+01 7.551057489788709498e-14 -1.963930727029092327e-13 -3.626474663100121010e-14 3.175706090241189883e-14
8.600000000000000000e+01 1.062326073646545410e+00 1.063968086242675781e+01 1.152074583735812618e-13 3.623673863956729940e-15 3.564933653723949269e-14 -1.898368716727032862e-14
8.700000000000000000e+01 3.611147105693817139e-01 6.692234516143798828e+00 -7.614756400301306294e-14 1.503691241617685637e-13 2.226647008050572363e-14 -7.635596121309193296e-14
8.800000000000000000e+01 6.098900318145751953e+00 1.861457228660583496e+00 -4.548940298878742516e-14 2.092592863312675577e-13 4.913096364749132416e-14 3.525774981759204063e-14
8.900000000000000000e+01 1.037162208557128906e+01 7.514211654663085938e+00 1.298359206605703697e-13 6.708170260591450607e-14 5.907528969045089395e-14 1.129342929936938411e-13
9.000000000000000000e+01 1.082285213470458984e+01 2.087239503860473633e+00 5.822332531737767908e-15 9.399718416819302647e-14 2.994585373942981743e-14 2.382323871052798026e-14
9.100000000000000000e+01 1.143077087402343750e+01 3.587796211242675781e+00 -2.077265768250791123e-13 -8.902567675021441640e-14 -8.902567675021441640e-14 6.023724271123076512e-14
9.200000000000000000e+01 1.119575119018554688e+01 8.759910583496093750e+00 7.407481339470958770e-14 7.749729406380384544e-14 4.547163223755402994e-14 -1.612360147739549943e-13
9.300000000000000000e+01 1.372706794738769531e+01 2.683954715728759766e+00 -7.834661738814752141e-14 -3.357712125375868217e-14 -3.357712125375868217e-14 1.885164150705696123e-15
9.400000000000000000e+01 1.689830970764160156e+01 3.203437328338623047e+00 -1.895502526640113761e-13 -1.727377193106588438e-13 -1.086863888818956347e-13 -6.749975741109776051e-14
9.500000000000000000e+01 1.709355545043945312e+01 7.182054519653320312e+00 4.817099071518192444e-14 1.121466065628559661e-13 4.809527952222454605e-14 -6.080049929236414075e-14
9.600000000000000000e+01 2.000653839111328125e+01 1.026107597351074219e+01 -5.145362963281628621e-14 -3.880591323539989146e-13 -1.318538377440003906e-13 -1.075130314095139317e-13
9.700000000000000000e+01 1.936326408386230469e+01 8.769632339477539062e+00 -1.936541611747763514e-13 -3.575003249163544172e-13 -1.653463471825919462e-13 -2.016609400084731774e-13
9.800000000000000000e+01 1.685333251953125000e+01 1.862671089172363281e+01 4.046774037830963566e-13 3.618032455121426849e-14 1.322573235824908711e-13 -2.566235052692440732e-14
9.900000000000000000e+01 2.248818588256835938e+01 2.038333511352539062e+01 -7.859428982192467883e-14 -4.683172794874013167e-13 -1.640734667270396518e-13 5.780082358922133956e-14
1.000000000000000000e+02 2.022153282165527344e+01 1.261162853240966797e+01 4.605874211351503392e-15 -2.267807930377355174e-13 -6.665248051835465093e-14 -7.934184044358985610e-14
1.010000000000000000e+02 2.336698150634765625e+01 1.815729141235351562e+01 -1.047611704416834266e-14 -1.832044037959265625e-13 -5.810415625202847156e-14 -2.221265130110307989e-14
1.020000000000000000e+02 1.842922782897949219e+01 1.707094573974609375e+01 4.118017775736615427e-13 2.565506401069894693e-13 2.005057225936898724e-13 -4.630416059261954764e-13
1.030000000000000000e+02 1.847494697570800781e+01 1.880781936645507812e+01 1.362959089123635947e-13 3.553706062601504068e-14 5.154989323320584294e-14 -3.994648849984377970e-13
1.040000000000000000e+02 1.949234008789062500e+01 2.720993614196777344e+01 -1.018213765797797155e-13 -8.214038715696758697e-13 -2.769675764777157490e-13 -9.719393394497580219e-14
1.050000000000000000e+02 2.535717391967773438e+01 2.873642921447753906e+01 1.132690200856580065e-13 1.743589810292850428e-13 8.628839830160384139e-14 6.670483393075854472e-14
1.060000000000000000e+02 2.704997634887695312e+01 2.914912414550781250e+01 1.277270119098145029e-13 3.186467474429466318e-14 4.787750735148546544e-14 -6.096429513557238833e-14
1.070000000000000000e+02 2.621930313110351562e+01 2.901157569885253906e+01 1.362477838884323944e-13 1.270183231597693529e-13 7.897983211446052421e-14 -3.307588908370447632e-15
1.080000000000000000e+02 2.120022010803222656e+01 3.872469329833984375e+01 1.201709088141655890e-13 1.718860751160396910e-14 4.120785472832427798e-14 -1.154552917436183976e-14
1.090000000000000000e+02 2.300313949584960938e+01 3.615447998046875000e+01 5.472302434328737974e-14 -9.092465007905919938e-14 -1.086048704310518809e-14 -5.300300874740669632e-14
1.100000000000000000e+02 1.522151565551757812e+01 3.531394577026367188e+01 7.943161238347165587e-14 3.404212201301055896e-14 3.404212201301055896e-14 2.426552882239807474e-15
1.110000000000000000e+02 1.115950870513916016e+01 3.483656311035156250e+01 1.571312253489248745e-13 -2.415994616552282620e-14 3.989138256917448833e-14 -1.013916331434408253e-15
1.120000000000000000e+02 1.496250438690185547e+01 3.390766525268554688e+01 2.116281732104582924e-13 4.494684111662136661e-14 7.697250633100297112e-14 -7.076095623077122143e-14
1.130000000000000000e+02 1.588997268676757812e+01 3.446528625488281250e+01 1.218713443964375420e-13 1.894834251526048008e-13 9.340642950945998724e-14 1.482618688193257372e-13
1.140000000000000000e+02 1.715318107604980469e+01 3.303285598754882812e+01 5.004172396556524904e-15 -1.922968891326232166e-13 -5.618781535963318641e-14 -1.876342980186400389e-14
1.150000000000000000e+02 1.946486473083496094e+01 3.074909973144531250e+01 -3.694018425566894526e-14 -3.132126719443406593e-13 -1.050458548271238080e-13 2.311563924485299931e-14
1.160000000000000000e+02 1.971696472167968750e+01 2.948534774780273438e+01 -3.777735773941720554e-14 -4.736998011727056035e-13 -1.534431490288895583e-13 3.707822690914887309e-14
1.170000000000000000e+02 1.957615089416503906e+01 2.796592330932617188e+01 -3.123302914651644897e-15 -7.333537531580003321e-13 -2.209431097278946599e-13 3.379765856355407445e-15
1.180000000000000000e+02 1.938669013977050781e+01 2.572824859619140625e+01 -1.189916627687345740e-13 -6.686342560353886189e-13 -2.362877688649733798e-13 -1.207219139107498784e-13
1.190000000000000000e+02 1.879837036132812500e+01 2.542923927307128906e+01 -4.248797900964149110e-14 -2.469638805523838299e-13 -8.683555448047580727e-14 -1.803990442271474759e-13
1.200000000000000000e+02 1.693360328674316406e+01 2.410768127441406250e+01 4.596722782686073205e-14 -2.090545076459393581e-13 -4.892618157403133550e-14 1.041192888742541178e-13
1.210000000000000000e+02 1.514071655273437500e+01 2.114775848388671875e+01 2.762452809904059059e-13 -5.889409240237425402e-14 6.520535522115677995e-14 -1.933812539354345938e-13
1.220000000000000000e+02 1.455412006378173828e+01 1.923239326477050781e+01 1.105765869494068632e-13 -4.101195294828330340e-13 -8.986288411528056685e-14 -2.484896782697226802e-13
1.230000000000000000e+02 1.622785377502441406e+01 2.376670265197753906e+01 2.261784374157568833e-13 1.426845702137344296e-13 1.106589049993528251e-13 -1.118619026956577979e-15
1.240000000000000000e+02 2.247237777709960938e+01 1.327752780914306641e+01 1.893995485620358910e-13 -5.608161436870644223e-14 3.999537788630658230e-14 -4.178903537365450185e-15
1.250000000000000000e+02 2.014908790588378906e+01 1.104533100128173828e+01 2.703562640958296487e-14 -4.001718390250069701e-13 -1.119408656480996855e-13 -3.602326092587079809e-14
1.260000000000000000e+02 2.509589576721191406e+01 1.480038738250732422e+01 5.555806465926127480e-13 -8.215064913053016227e-14 1.420289938176139133e-13 -1.114396051024417467e-13
1.270000000000000000e+02 1.968138313293457031e+01 7.752306938171386719e+00 2.809798021422699188e-14 -3.082146625595083567e-13 -8.403499928257354701e-14 -1.933849673278753567e-13
1.280000000000000000e+02 1.470170974731445312e+01 6.619600296020507812e+00 1.601863037830816849e-13 2.059041142882939157e-13 1.098271254214126802e-13 -4.799182630617869483e-14
1.290000000000000000e+02 9.972024917602539062e+00 2.741071701049804688e+00 -3.360079074243675634e-14 -1.440033937363457972e-14 -1.440033937363457972e-14 2.460754717397220515e-14
1.300000000000000000e+02 9.887961387634277344e+00 1.078399372100830078e+01 -7.633477183688341938e-14 -1.242167989561754338e-13 -6.016547530367580277e-14 8.808116047512651314e-14
1.310000000000000000e+02 9.725289344787597656e+00 1.159681320190429688e+01 -4.060689162851092993e-14 -1.089048488433878858e-13 -4.485352180275646583e-14 -4.020305342431439166e-14
1.320000000000000000e+02 9.092506408691406250e+00 1.144522857666015625e+01 1.173053624722864008e-13 -1.835269505541092111e-14 2.968580107209559116e-14 1.463765225565363814e-13
1.330000000000000000e+02 9.756271362304687500e+00 1.325156116485595703e+01 -4.851126079075292197e-14 -6.654149209721002545e-14 -3.451582688282842093e-14 4.583175676540866827e-14
1.340000000000000000e+02 9.695980072021484375e+00 1.242592620849609375e+01 2.536784733555945415e-14 1.087193469338732996e-14 1.087193469338732996e-14 5.480225241704175798e-14
1.350000000000000000e+02 1.103515243530273438e+01 1.654702377319335938e+01 6.027236408535571743e-14 2.583101342144757812e-14 2.583101342144757812e-14 1.604725738141993263e-13
1.360000000000000000e+02 1.225390148162841797e+01 1.736163520812988281e+01 -2.125098464171235046e-13 -2.454851101042765382e-13 -1.373984883116727285e-13 4.277167744873126842e-14
1.370000000000000000e+02 1.301644134521484375e+01 1.849133110046386719e+01 -6.984210166585333446e-14 2.445733502873248533e-13 5.241937932982596027e-14 2.560329666039125839e-15
1.380000000000000000e+02 1.399922847747802734e+01 2.302303695678710938e+01 4.066972995354911635e-13 -2.374596829932129616e-13 5.077128360743074498e-14 -1.867456926943344975e-15
1.390000000000000000e+02 1.235019302368164062e+01 2.284472084045410156e+01 6.187797670087480384e-13 1.279384719910306445e-13 2.240154676341754580e-13 1.749766611713454018e-14
1.400000000000000000e+02 9.132006645202636719e+00 2.325624847412109375e+01 1.307401181673689683e-13 1.017824266167331737e-13 6.975676140235156919e-14 4.390153130894199063e-14
1.410000000000000000e+02 7.883398532867431641e+00 2.428685760498046875e+01 -1.102995190842281925e-13 -1.387731211411127874e-13 -7.472179071234957837e-14 1.483316778867066477e-13
1.420000000000000000e+02 7.320919513702392578e+00 2.482366561889648438e+01 -1.457228570667448708e-13 -4.284602457983038848e-13 -1.722549240832510486e-13 1.629829761819537315e-13
1.430000000000000000e+02 1.059873223304748535e+00 2.275588417053222656e+01 -4.388717240642013573e-14 -6.455973993249597420e-14 -3.253407471811436968e-14 8.432598559314150033e-14
1.440000000000000000e+02 3.551040589809417725e-01 2.359231567382812500e+01 -1.720281225412942372e-13 2.236548348865524671e-13 1.548801268713793228e-14 7.925717780644589427e-14
1.450000000000000000e+02 5.661963939666748047e+00 2.634677124023437500e+01 1.005677068314711486e-13 -6.317260625200715740e-13 -1.593474972198111184e-13 -6.311394955922297600e-15
1.460000000000000000e+02 3.337189257144927979e-01 2.683280372619628906e+01 -5.602837326577382593e-14 1.818671081788014732e-13 3.775162149034783088e-14 -9.319578257987320979e-14
1.470000000000000000e+02 6.153832435607910156e+00 3.023024749755859375e+01 8.049556708038599351e-14 -5.602642373474242543e-13 -1.439306031129905517e-13 -6.876628850767743661e-14
1.480000000000000000e+02 6.345705986022949219e+00 3.098035621643066406e+01 -7.240692420640293392e-14 -4.427900917019361726e-13 -1.545591047725017320e-13 -7.512304716012288552e-14
1.490000000000000000e+02 1.029214978218078613e+00 3.235115814208984375e+01 2.038658548616026356e-14 -5.860252062263315853e-13 -1.696915990969521948e-13 1.304948580834255911e-13
1.500000000000000000e+02 1.424426794052124023e+00 3.800038146972656250e+01 -2.232281640622297419e-14 -9.245859286521884712e-13 -2.840726243645563809e-13 -1.270510245607639997e-15
1.510000000000000000e+02 3.844236135482788086e-01 3.402584457397460938e+01 -2.911914619477783128e-14 -7.444947978420268786e-13 -2.320841815169755185e-13 4.590665819486847155e-14
1.520000000000000000e+02 6.581723690032958984e+00 3.174380111694335938e+01 1.137947293903054935e-13 -1.799855837286701288e-13 -1.985725596269621168e-14 -3.310719753901736340e-14
1.530000000000000000e+02 8.586860656738281250e+00 3.430524444580078125e+01 3.766523497174961710e-13 2.071733762190955397e-13 1.751477110047139352e-13 1.277954250668983383e-13
1.540000000000000000e+02 8.855484008789062500e+00 3.554590988159179688e+01 2.116617970303324991e-13 -9.229159862560176730e-14 3.581105884379286175e-14 -3.215165628308799817e-14
1.550000000000000000e+02 9.819254875183105469e+00 3.621153640747070312e+01 1.142523982323659371e-13 3.214362344613271201e-15 3.524002650020369165e-14 7.479299569002756387e-14
1.560000000000000000e+02 1.516358661651611328e+01 3.823956680297851562e+01 1.221248986270004333e-13 7.807415060593833611e-14 6.005971815801341984e-14 1.960408628509137385e-14
1.570000000000000000e+02 6.275846099853515625e+01 2.446221351623535156e+01 -9.431814866883020398e-14 -1.754658735203615955e-14 -3.355942165329285631e-14 -6.520551531038381102e-15
1.580000000000000000e+02 6.514206695556640625e+01 1.997408294677734375e+01 1.429737616614871511e-15 6.923917006147056741e-14 2.120067223989816063e-14 -3.104563454188122296e-14
1.590000000000000000e+02 6.700174713134765625e+01 2.003578948974609375e+01 -1.528048656574201858e-13 1.175159958493460222e-13 -1.058665907894976513e-14 1.479081749656066536e-13
1.600000000000000000e+02 6.855626678466796875e+01 1.883700180053710938e+01 1.644739303519743290e-13 4.761335165655473933e-14 6.362618087561375257e-14 1.424522798982794103e-13
1.610000000000000000e+02 6.907132720947265625e+01 1.828722000122070312e+01 -2.477931325840093679e-13 -1.290725339109233261e-13 -1.130597013037325238e-13 -7.662281047279492774e-14
1.620000000000000000e+02 7.014947509765625000e+01 1.719085121154785156e+01 -1.277098510223031308e-14 5.743427516349472461e-14 1.339898718778591291e-14 -1.127661264604777613e-13
1.630000000000000000e+02 7.965518188476562500e+01 1.422962188720703125e+01 4.378823557004904443e-14 -7.273551200356540014e-14 -8.684183268868085614e-15 6.363816808588329543e-14
1.640000000000000000e+02 7.895419311523437500e+01 1.983000564575195312e+01 -4.802424395113601141e-14 2.996748086226547203e-13 7.549517245077422278e-14 -2.945579096933458041e-14
1.650000000000000000e+02 7.965214538574218750e+01 1.980276298522949219e+01 -1.132822202471080175e-13 3.174580552860878369e-13 6.125275389982573482e-14 4.291355843201167912e-16
1.660000000000000000e+02 7.964453125000000000e+01 2.617699623107910156e+01 3.702862465975766126e-14 -7.563248665591951192e-14 -1.158115876825514465e-14 -2.947899289582577020e-14
1.670000000000000000e+02 6.665631103515625000e+01 3.006745529174804688e+01 -1.168902756705503254e-13 -1.415977252984534918e-13 -7.754640164595386076e-14 6.637090643789658739e-14
1.680000000000000000e+02 6.574314880371093750e+01 2.679090118408203125e+01 1.526790778766211332e-14 -2.908377748703228072e-13 -8.267095775310595585e-14 7.533418875695085948e-14
1.690000000000000000e+02 6.857007598876953125e+01 2.181233215332031250e+01 -5.792894918095481405e-14 1.124261545405041973e-13 1.634916059142527828e-14 -6.364191535964194846e-14
1.700000000000000000e+02 6.978234863281250000e+01 1.864890480041503906e+01 1.623450045186089485e-13 1.153273846863853147e-13 8.330171947200371019e-14 6.877580576987278593e-15
1.710000000000000000e+02 7.065236663818359375e+01 1.659251403808593750e+01 1.831200799719615024e-13 1.156526859957124342e-13 8.963182707979674979e-14 -7.084352500246957063e-14
1.720000000000000000e+02 7.178736877441406250e+01 1.367149543762207031e+01 7.307204158164132268e-14 1.685694362959025416e-13 7.249244065275772808e-14 -9.271910631847637974e-15
1.730000000000000000e+02 7.965361785888671875e+01 1.343123531341552734e+01 -4.723944420858237903e-14 2.550547324882933287e-14 -6.520191965552271651e-15 -1.996329940549476656e-14
1.740000000000000000e+02 7.161447143554687500e+01 1.038810443878173828e+01 -2.104991901001173477e-14 5.960503087192731142e-14 1.156653305035490464e-14 1.433391572753725529e-13
1.750000000000000000e+02 7.071831512451171875e+01 9.032185554504394531e+00 -8.375890719935011330e-14 1.413882574387292923e-13 1.728880303893468029e-14 2.340558031676404083e-13
1.760000000000000000e+02 7.025863647460937500e+01 8.455184936523437500e+00 1.246814202446669406e-13 2.021254799818017478e-13 9.804206464692974410e-14 2.414883097567248164e-15
1.770000000000000000e+02 6.929286193847656250e+01 7.705389499664306641e+00 5.620791714553742546e-14 -1.360392104955004955e-13 -2.394938902142845771e-14 7.283321894809707819e-14
1.780000000000000000e+02 6.930670928955078125e+01 6.813908100128173828e+00 -3.136271285535639775e-14 7.806073360405382799e-14 1.400940656342240798e-14 7.638317807575310814e-15
1.790000000000000000e+02 6.631991577148437500e+01 7.031815528869628906e+00 -1.947891853240971138e-13 -3.773012718227830575e-14 -6.975579239665991027e-14 9.911317169005069705e-15
1.800000000000000000e+02 6.482484436035156250e+01 7.135158538818359375e+00 -1.973831796793501514e-13 -1.532192070701626774e-13 -1.051807160248538486e-13 1.216082627392839344e-13
1.810000000000000000e+02 6.420901489257812500e+01 6.097765445709228516e+00 -1.589861326357216997e-13 -6.813691592281317932e-14 -6.813691592281317932e-14 6.029078196976081494e-14
1.820000000000000000e+02 6.298828125000000000e+01 7.355155467987060547e+00 -7.113270882692576680e-14 1.525183516808137352e-13 2.441569251735321161e-14 6.338361096831085506e-14
1.830000000000000000e+02 6.408026885986328125e+01 7.040242195129394531e+00 -8.885063230946663171e-14 -6.095431369932194365e-14 -4.494148448026293041e-14 4.593256046239550805e-14
1.840000000000000000e+02 6.221223449707031250e+01 9.558679580688476562e+00 -3.485188551058567008e-14 1.480512354422661159e-13 3.395980396306459703e-14 -1.338006989275511427e-13
1.850000000000000000e+02 2.911126708984375000e+01 2.718175315856933594e+01 1.621157770742912008e-13 8.091593259144935768e-14 7.290951289972216753e-14 1.393659222314463930e-14
1.860000000000000000e+02 2.773659896850585938e+01 2.913745880126953125e+01 7.989502072078269457e-14 -1.030121219445026548e-13 -6.935131383555524776e-15 1.547185299257021474e-14
1.870000000000000000e+02 2.882322692871093750e+01 2.947901344299316406e+01 1.554104609759188182e-13 -8.780497352421298696e-14 2.028164488025903378e-14 -3.864682011911479975e-14
1.880000000000000000e+02 3.228099822998046875e+01 3.757877731323242188e+01 7.447180079642873318e-14 6.622969588119392848e-14 4.221044697040772509e-14 -5.194462159805466120e-15
1.890000000000000000e+02 3.008060455322265625e+01 3.732717132568359375e+01 3.167211705032944857e-14 2.501150057464956999e-14 1.700508596512006337e-14 9.060971475894057797e-15
1.900000000000000000e+02 2.847726058959960938e+01 2.766386413574218750e+01 5.957236250521760756e-14 7.700083111275915493e-14 4.097195944064574435e-14 -1.313050281568153843e-13
1.910000000000000000e+02 3.078758049011230469e+01 2.540233421325683594e+01 1.850716167773810983e-15 -1.879295059414171076e-13 -5.582363523802709449e-14 -1.381593407387415873e-13
1.920000000000000000e+02 3.579105758666992188e+01 2.570745086669921875e+01 5.149147506489960835e-14 1.364451493414062244e-13 5.638098630545221313e-14 -6.153270845328864813e-14
1.930000000000000000e+02 3.117346763610839844e+01 2.467964744567871094e+01 2.107093525268582956e-13 1.017417419302106552e-13 9.373532901474704304e-14 -1.274007754761136146e-13
1.940000000000000000e+02 3.161111640930175781e+01 2.229848670959472656e+01 2.499061104810438444e-14 -1.216521254934245511e-14 3.847619634331873525e-15 2.735600137528885339e-14
1.950000000000000000e+02 3.042877769470214844e+01 1.594312381744384766e+01 7.042367448743813707e-14 -1.070712732343347129e-13 -1.099427928525579384e-14 1.076634695431439789e-14
1.960000000000000000e+02 3.114453697204589844e+01 1.608494186401367188e+01 6.296296085417721344e-14 -1.102687209662660262e-13 -1.419172871125300162e-14 -1.532043670529267820e-13
1.970000000000000000e+02 2.824186897277832031e+01 1.474629211425781250e+01 4.564137696255743393e-13 1.041040016236220722e-13 1.681553252761217032e-13 -1.441130607860927060e-13
1.980000000000000000e+02 2.656861877441406250e+01 1.547248268127441406e+01 7.910518485913786702e-13 1.102674876862948239e-13 2.703957934294121124e-13 -2.350979382958334751e-13
1.990000000000000000e+02 2.387437820434570312e+01 1.755946350097656250e+01 2.121043954621953942e-13 -2.919435933236222414e-14 5.487301016132359321e-14 2.210487821702623173e-14
2.000000000000000000e+02 2.484475517272949219e+01 1.641011619567871094e+01 4.220933227504913843e-13 8.939524738949683469e-14 1.534465778182600437e-13 -1.903845191306846596e-13
2.010000000000000000e+02 3.698793792724609375e+01 3.412203216552734375e+01 7.154251014307097534e-14 -9.515403466249863773e-14 -7.083455746465698935e-15 7.824283891144992453e-14
2.020000000000000000e+02 3.856416702270507812e+01 3.648281478881835938e+01 5.450305327501722696e-14 4.829769159749811719e-16 1.649580909964930980e-14 1.075484001172594822e-14
2.030000000000000000e+02 3.691833877563476562e+01 3.284703445434570312e+01 6.721452414830755839e-14 2.880622511900778060e-14 2.880622511900778060e-14 5.805341559035614996e-14
2.040000000000000000e+02 3.626342773437500000e+01 3.347551727294921875e+01 6.002108667935504571e-14 1.047151934933064632e-13 4.942088608467752608e-14 7.773840707443746556e-14
2.050000000000000000e+02 3.638681411743164062e+01 3.219575119018554688e+01 1.088374114682592875e-13 1.381465064955247901e-13 7.409517606676158108e-14 1.248399170497571653e-13
2.060000000000000000e+02 3.520345306396484375e+01 3.191457939147949219e+01 1.558581788749149183e-14 2.955511066459783065e-14 1.354227805740702839e-14 5.593080862277728660e-14
2.070000000000000000e+02 3.568230438232421875e+01 3.066670417785644531e+01 6.892269144732204866e-14 2.125420878792277923e-13 8.443943379796495230e-14 2.853898622414904884e-14
2.080000000000000000e+02 3.526550674438476562e+01 2.814056587219238281e+01 8.689717104519087409e-14 8.299259310383735877e-14 5.096692788945575425e-14 -8.970358432295634510e-15
2.090000000000000000e+02 3.271781539916992188e+01 2.626616287231445312e+01 2.448990785012573890e-14 1.049567503492044446e-14 1.049567503492044446e-14 1.279741528304172583e-15
2.100000000000000000e+02 3.471627044677734375e+01 2.714717292785644531e+01 -6.120004812171578323e-14 1.110242540264261280e-13 1.494726177141310342e-14 -2.404159872213245536e-14
2.110000000000000000e+02 3.672996902465820312e+01 2.437503623962402344e+01 1.753651206453515909e-13 1.938230121106138126e-13 1.107564425372950523e-13 2.058868585330924511e-14
2.120000000000000000e+02 3.428478622436523438e+01 2.284894561767578125e+01 2.607246016306241643e-14 9.695694090259762699e-14 3.690882031969801302e-14 -1.442326211806635450e-13
2.130000000000000000e+02 3.985225296020507812e+01 3.422524261474609375e+01 8.867299933603203788e-14 -9.925013014135813938e-14 -3.173140850960430234e-15 -7.884950423706418854e-14
2.140000000000000000e+02 4.176079177856445312e+01 3.351999664306640625e+01 6.126930153548329483e-14 -1.949267604153901573e-14 1.253298747877669428e-14 -1.172436578161448195e-13
2.150000000000000000e+02 4.108033370971679688e+01 3.396601867675781250e+01 1.264635369081085203e-13 8.708214948834405722e-14 6.406370388605669985e-14 3.187421911154432463e-14
2.160000000000000000e+02 4.239966583251953125e+01 3.303248214721679688e+01 1.390035005502388010e-13 1.224804898345213666e-13 7.844519847068076590e-14 -6.099729553919741587e-14
2.170000000000000000e+02 4.418273544311523438e+01 3.145048332214355469e+01 9.480492156295830530e-14 2.350722155992912565e-13 9.896314182630122636e-14 -2.560508432342643859e-14
2.180000000000000000e+02 4.649400329589843750e+01 2.971579742431640625e+01 6.628750249171224546e-15 1.629692203668903216e-13 5.087938872842291682e-14 8.042829402964916247e-15
2.190000000000000000e+02 4.581218719482421875e+01 2.852873611450195312e+01 -1.256241509743020318e-14 4.036705594356176929e-14 8.341392423246059284e-15 -4.101824809714729736e-14
2.200000000000000000e+02 4.590432357788085938e+01 2.690942573547363281e+01 -3.651116545601643115e-14 -1.071495390786610102e-13 -4.309821203802959022e-14 1.007984860401482663e-13
2.210000000000000000e+02 5.196557617187500000e+01 2.681865310668945312e+01 8.827780764416107151e-15 1.808050610000843522e-14 8.072485720514183810e-15 -2.720609687241557634e-14
2.220000000000000000e+02 4.680511474609375000e+01 2.472022056579589844e+01 1.416198853744195588e-14 1.547600074350632959e-13 5.067659887645487027e-14 5.052771420125008739e-14
2.230000000000000000e+02 4.627867126464843750e+01 2.541481018066406250e+01 5.191343638603559962e-14 9.087504105340440952e-14 4.283654323183200274e-14 1.466728350102766698e-14
2.240000000000000000e+02 5.122599792480468750e+01 3.539078903198242188e+01 3.203940070065428025e-14 -3.201977664133229262e-14 5.887651983699818161e-18 -1.445929964302705706e-14
2.250000000000000000e+02 4.312033081054687500e+01 3.595108795166015625e+01 9.505375951407088464e-14 4.073732453799272513e-14 4.073732453799272513e-14 -5.040432521775765895e-14
2.260000000000000000e+02 4.099258804321289062e+01 3.547696685791015625e+01 1.737570319831210908e-13 5.159182475222671982e-14 6.760465397128573306e-14 4.053428396427229130e-14
2.270000000000000000e+02 3.535095977783203125e+01 3.913357543945312500e+01 7.996512794376103850e-14 1.372104063398008056e-13 6.515266299557398444e-14 -9.479557582493477498e-16
2.280000000000000000e+02 5.368299484252929688e+01 2.602684783935546875e+01 4.782695642519332879e-14 1.119991618436615155e-13 4.794783480303009549e-14 -1.345143614550625699e-13
2.290000000000000000e+02 4.262405395507812500e+01 2.221538734436035156e+01 1.601143534164101156e-13 1.601223358549050402e-13 9.607100542614183114e-14 6.731860078060258878e-14
2.300000000000000000e+02 3.785509490966796875e+01 2.316185569763183594e+01 9.203668236605969111e-14 2.739179055018942099e-13 1.097863729722543813e-13 1.068616088629667504e-13
2.310000000000000000e+02 3.234781265258789062e+01 1.903943061828613281e+01 -3.700419622955884724e-14 -1.988627361740324950e-13 -7.076008209276965499e-14 1.732811044988496335e-14
2.320000000000000000e+02 4.011169815063476562e+01 2.199394798278808594e+01 7.801929675227414762e-14 1.935651617289424475e-13 8.147534025487040976e-14 -9.430706270161653970e-14
2.330000000000000000e+02 4.415701675415039062e+01 1.603481292724609375e+01 -7.396525158880637527e-16 1.140603724750915982e-13 3.399621621540116490e-14 1.506968242684023074e-13
2.340000000000000000e+02 7.490380096435546875e+01 -4.294907093048095703e+00 -4.344934107598438788e-14 -8.724757163481103306e-14 -3.920907381323862628e-14 2.106100158909361003e-14
2.350000000000000000e+02 7.560331726074218750e+01 -4.244445323944091797e+00 4.920457271643185419e-16 2.289656094930925256e-13 6.883729697371165912e-14 8.855988994438748763e-14
2.360000000000000000e+02 7.274946594238281250e+01 -1.730702519416809082e+00 -1.519374666499821031e-14 -3.652171863950627248e-15 -5.653775516333003903e-15 1.463765598259860606e-14
2.370000000000000000e+02 7.962276458740234375e+01 2.260142087936401367e+00 -9.958256007996935111e-14 4.882365670609567498e-14 -1.522767202860163954e-14 6.354353756501604500e-14
2.380000000000000000e+02 7.897012329101562500e+01 7.078491687774658203e+00 -7.343266585893484105e-15 1.341057256562527833e-13 3.802874017750333679e-14 -5.769195613857663885e-14
2.390000000000000000e+02 7.965538024902343750e+01 7.849836349487304688e+00 9.593068933623147276e-14 4.111315305668945819e-14 4.111315305668945819e-14 -3.866637302766921802e-14
2.400000000000000000e+02 7.824185180664062500e+01 1.109609413146972656e+01 1.161371024441812741e-14 -8.652459174487980853e-14 -2.247326470424838851e-14 -1.122937666789801392e-13
2.410000000000000000e+02 7.791898345947265625e+01 -4.162247180938720703e+00 8.180234240635561593e-15 -4.224513466366368319e-14 -1.021946944928207868e-14 -5.346519058101011079e-14
2.420000000000000000e+02 7.958555603027343750e+01 -4.118602275848388672e+00 -5.324664252809134524e-14 2.293095895729724970e-14 -9.094705410051407563e-15 -4.201067848496253462e-15
2.430000000000000000e+02 7.821181488037109375e+01 2.623469924926757812e+01 -7.909416123354912065e-14 -1.711503389099228167e-13 -7.507335004304158121e-14 -1.723775405726955812e-14
2.440000000000000000e+02 7.960147094726562500e+01 3.175540542602539062e+01 -1.782848669314596873e-14 4.498687121608224704e-13 1.296120600170064252e-13 -1.897002283176522225e-14
2.450000000000000000e+02 7.188274383544921875e+01 4.129253768920898438e+01 -1.724866722976198252e-14 9.554734932935848857e-14 2.348960429106577291e-14 -3.175148319045422926e-15
2.460000000000000000e+02 6.233493804931640625e+01 3.557615661621093750e+01 5.696873907942018311e-14 7.016612226136420549e-14 3.814045704698260097e-14 -3.157294304473312607e-14
2.470000000000000000e+02 6.183053970336914062e+01 3.742484664916992188e+01 -4.120948103158300624e-14 2.339690127837329436e-13 5.782786088089769683e-14 -3.524128349709741703e-14
2.480000000000000000e+02 5.737407302856445312e+01 3.573211288452148438e+01 2.914903290528875202e-14 2.393018000825062469e-14 1.592376370465522356e-14 -2.496877284465827407e-14
2.490000000000000000e+02 5.569562149047851562e+01 3.579526901245117188e+01 -4.860929299593634567e-14 2.042920225483546917e-15 -1.396991195819078171e-14 2.574532926256922760e-14
2.500000000000000000e+02 5.850018310546875000e+01 3.724398040771484375e+01 9.429076578771136696e-14 1.753485255758489847e-14 3.354768516477570073e-14 -2.708222338607731844e-14
2.510000000000000000e+02 7.875699615478515625e+01 3.337130355834960938e+01 2.196276811133358875e-14 2.839183152903573815e-13 9.176432400406775436e-14 6.664687654837561648e-14
2.520000000000000000e+02 7.952770233154296875e+01 3.812504577636718750e+01 -3.590883693909210916e-14 -1.538950106130636264e-14 -1.538950106130636264e-14 -8.032819337000854376e-14
2.530000000000000000e+02 7.498739624023437500e+01 4.072363662719726562e+01 -2.790537339235083653e-14 1.024179249438719741e-13 2.235376699011564633e-14 1.033154715479687319e-14
2.540000000000000000e+02 7.753584289550781250e+01 4.079038238525390625e+01 4.549461054734714460e-14 -2.625325934565384683e-14 5.772405445211284056e-15 -2.027425705889308177e-14
2.550000000000000000e+02 5.106503677368164062e+01 3.697632598876953125e+01 8.323708746999641805e-14 -3.295338652019134951e-14 1.508510960731516276e-14 -6.326582595479746107e-14
2.560000000000000000e+02 1.111112117767333984e+00 5.032090187072753906e+00 5.175742308154672455e-14 1.823100725288975821e-13 7.022025105482554430e-14 -3.735361087282840220e-14
2.570000000000000000e+02 1.944922256469726562e+01 3.209053993225097656e+00 -3.681465397288585795e-14 -1.301550826750957901e-13 -5.009091963914177881e-14 -8.275267949185705074e-14
2.580000000000000000e+02 2.177663993835449219e+01 2.601504564285278320e+00 -2.250232979280047257e-14 -9.643855504481210067e-15 -9.643855504481210067e-15 -6.503321102122039399e-14
2.590000000000000000e+02 2.480227088928222656e+01 1.880633354187011719e+00 6.277697867698153397e-15 -1.574378783808852433e-13 -4.534805351868141654e-14 -2.782266570724913762e-14
2.600000000000000000e+02 2.928460693359375000e+01 5.747923254966735840e-01 1.849046225377640185e-13 -1.495099074926009575e-13 1.061841603820822336e-14 -8.518988338989210742e-16
2.610000000000000000e+02 2.933883094787597656e+01 5.956280708312988281e+00 2.183986498593970538e-13 9.359941749616240703e-14 9.359941749616240703e-14 -1.971369709185058494e-13
2.620000000000000000e+02 2.649519157409667969e+01 2.837535381317138672e+00 1.398232658128550909e-13 -1.688304850739827390e-13 -8.702167472404188919e-15 1.113233244194426763e-13
2.630000000000000000e+02 2.856487274169921875e+01 7.437274456024169922e+00 -6.934860671825582301e-14 1.603011546744657900e-14 -1.599554805286913101e-14 -2.154823764083727000e-13
2.640000000000000000e+02 3.008834266662597656e+01 9.967189788818359375e+00 -1.663548144451975491e-14 -2.816351752504830941e-13 -8.948119751672062305e-14 -1.402481239866706919e-13
2.650000000000000000e+02 3.142942237854003906e+01 1.454962825775146484e+01 3.221595895868539783e-13 -4.566939274669445936e-13 -4.036031017316983605e-14 -4.788179333819857220e-14
2.660000000000000000e+02 2.816258811950683594e+01 1.536496543884277344e+01 7.139816624208983331e-13 3.148645420455488397e-14 2.236404421027127221e-13 -7.360389695735408688e-14
2.670000000000000000e+02 2.973129272460937500e+01 1.566263008117675781e+01 2.112785451148860294e-13 -4.670489865622913517e-14 4.937209359878388937e-14 2.149825354899343594e-14
2.680000000000000000e+02 3.202299499511718750e+01 1.260792636871337891e+01 3.691685629067520402e-13 2.096225109997091468e-14 1.170392450490498337e-13 -1.413837579997134775e-13
2.690000000000000000e+02 3.273041152954101562e+01 1.223910331726074219e+01 5.092768654707535703e-13 1.725105654029959745e-13 2.045362306173775790e-13 -1.295734759721930973e-13
2.700000000000000000e+02 3.476000595092773438e+01 1.223009490966796875e+01 5.975396501385621395e-13 -4.129274437029810396e-14 1.668740693587869584e-13 6.412269126050348933e-14
2.710000000000000000e+02 3.375490570068359375e+01 1.261783218383789062e+01 6.096545252139151660e-13 -1.787449371119255968e-15 1.823601220116849442e-13 2.672049457782058046e-14
2.720000000000000000e+02 3.929272079467773438e+01 2.224716567993164062e+01 1.450207412923704142e-13 3.927627401914199345e-14 5.528910323820100670e-14 1.279224800089864833e-13
2.730000000000000000e+02 3.161392593383789062e+01 1.910764503479003906e+01 7.998269879521888170e-14 -2.859783536281884642e-13 -6.179869035125365451e-14 -2.019728886904197801e-14
2.740000000000000000e+02 3.303081130981445312e+01 1.694701790809631348e+00 8.362611276201137311e-14 1.616548691782404568e-13 7.358429322682283336e-14 -2.350092700398819477e-15
2.750000000000000000e+02 3.346175384521484375e+01 1.940028071403503418e+00 -2.294526873190816385e-13 6.179145330175231376e-14 -5.029836817231972401e-14 -3.998503053182292377e-14
2.760000000000000000e+02 3.232406234741210938e+01 9.582289457321166992e-01 2.592104861916938452e-13 3.398449598991659659e-13 1.797166338272579433e-13 -2.959708216357381794e-13
2.770000000000000000e+02 3.059250068664550781e+01 1.966414451599121094e+00 1.790878643298521311e-13 -6.050090712705208373e-14 3.557608851609272982e-14 -6.495775055001540288e-14
2.780000000000000000e+02 2.794172668457031250e+01 1.046575546264648438e+00 7.745670424497141937e-14 -1.255521785847738339e-14 1.947044650887127387e-14 -2.898268918697516350e-14
2.790000000000000000e+02 2.561279487609863281e+01 1.749494552612304688e+00 -1.869316672482336517e-14 -1.223887256731476247e-13 -4.232456941345719148e-14 -6.368540541928577325e-14
2.800000000000000000e+02 4.712963867187500000e+01 7.075756072998046875e+00 2.671016416399586701e-14 6.863589964390889864e-14 2.860381812593189299e-14 9.842643464586658952e-14
2.810000000000000000e+02 4.648626708984375000e+01 8.686865806579589844e+00 -1.081184092450483691e-13 -1.835893091196860727e-13 -8.751231347654125914e-14 2.798218869275496089e-16
2.820000000000000000e+02 4.603974914550781250e+01 9.936201572418212891e-01 8.378556502026610064e-14 8.165905153673450045e-14 4.963338632235289594e-14 -4.156119960446909289e-14
2.830000000000000000e+02 4.769898223876953125e+01 9.522807598114013672e-01 2.241799072224236189e-14 -3.614323806065168621e-14 -4.117574116819502569e-15 9.819028863643566862e-14
2.840000000000000000e+02 5.017967987060546875e+01 5.761965751647949219e+00 1.181250193146854421e-13 3.918727118517630059e-14 4.719368748877170172e-14 7.066057943838979782e-14
2.850000000000000000e+02 4.922243499755859375e+01 1.991838932037353516e+00 1.418222635683752397e-13 2.895357022712763406e-13 1.294073897518954741e-13 6.779375894719970232e-16
2.860000000000000000e+02 5.560108566284179688e+01 6.038600921630859375e+00 1.030902454872938134e-13 -7.805928348364812863e-14 7.509288431687115989e-15 1.284117025223980441e-14
2.870000000000000000e+02 5.732588577270507812e+01 2.201995611190795898e+00 4.781335985232400276e-14 -2.082632975580409052e-13 -4.813498165052824962e-14 -6.525008533703538505e-14
2.880000000000000000e+02 5.900300216674804688e+01 1.514915823936462402e+00 6.068138613118945202e-14 3.130835366893340577e-15 1.914366797408414284e-14 -1.120715187861477669e-13
2.890000000000000000e+02 5.904080200195312500e+01 -7.228755950927734375e-01 2.510719225839314062e-13 1.610035652163058911e-14 8.015168525632790364e-14 -1.402732910295995117e-13
2.900000000000000000e+02 5.938830947875976562e+01 -1.190736293792724609e+00 1.409392893191030449e-13 1.519044493056981304e-13 8.785311887693492139e-14 -1.776240016616165152e-13
2.910000000000000000e+02 5.978623962402343750e+01 -1.594248056411743164e+00 1.901940790190875807e-13 1.730136487635564047e-13 1.089623183347931956e-13 -1.053513220129580208e-13
2.920000000000000000e+02 6.136478424072265625e+01 -1.581655025482177734e+00 1.800384114795244850e-13 -2.430973174497030875e-13 -1.891767111342722296e-14 -1.420367729682014968e-13
2.930000000000000000e+02 6.362863922119140625e+01 -1.230192780494689941e+00 1.231039653760068395e-14 -1.319769624532132757e-13 -3.589997019820025115e-14 5.050790548874559832e-15
2.940000000000000000e+02 6.846735382080078125e+01 -1.049018979072570801e+00 1.256644934595138596e-13 -3.764568816183241906e-14 2.640564226693078997e-14 3.989210762937733801e-14
2.950000000000000000e+02 6.977010345458984375e+01 -1.057668209075927734e+00 1.137571617850288708e-13 -8.849977771018674444e-14 7.577217932958069113e-15 8.919399236122921293e-14
2.960000000000000000e+02 7.375061798095703125e+01 -2.898885250091552734e+00 -1.721423025825841169e-14 8.984323972716784512e-14 2.178870284067283003e-14 5.153105522045890730e-14
2.970000000000000000e+02 7.322904968261718750e+01 -2.308978557586669922e+00 3.234922163583738020e-14 6.533377219222410992e-14 2.930489713197891033e-14 4.338818868532441642e-14
2.980000000000000000e+02 7.375423431396484375e+01 -1.767564415931701660e+00 -6.264833893624907613e-14 6.465260862483293569e-14 6.012815312619564697e-16 2.960699990294662909e-14
2.990000000000000000e+02 6.907892608642578125e+01 -1.104803800582885742e+00 7.000337673901055324e-14 -1.574950361641659635e-14 1.627616159796500817e-14 7.814198269842035499e-15
3.000000000000000000e+02 2.270057296752929688e+01 2.358854675292968750e+01 -5.666580282803236612e-14 -3.445419947609162925e-13 -1.203623382602450609e-13 -3.438722695264448403e-14
3.010000000000000000e+02 1.934116363525390625e+01 2.648835563659667969e+01 -7.293526947758227630e-14 -6.260202859570407341e-13 -2.096866652751341875e-13 -2.454026565290590156e-13
3.020000000000000000e+02 6.083352279663085938e+01 1.737630844116210938e+01 3.769484656595926964e-14 6.190588406479458072e-14 2.988021885041297621e-14 4.776338829656778806e-14
3.030000000000000000e+02 5.419363784790039062e+01 2.177141189575195312e+01 1.094788796836103362e-13 1.841723659429944648e-13 8.809537029984965129e-14 -1.178536028533308522e-13
3.040000000000000000e+02 4.927016448974609375e+01 1.890337371826171875e+01 1.461828433909490021e-13 1.999026351352448105e-13 1.038256462683635750e-13 9.500122314255038392e-14
3.050000000000000000e+02 2.735843276977539062e+01 1.537398338317871094e+01 7.770570211590444032e-13 -1.244850441261755036e-13 1.957715944651133855e-13 -1.033823634338792985e-13
3.060000000000000000e+02 6.740032958984375000e+01 3.236329269409179688e+01 9.739592758597342970e-14 3.162468117240413434e-13 1.240928204377517163e-13 3.176035416651082355e-14
3.070000000000000000e+02 2.487493515014648438e+01 2.960120391845703125e+01 7.613544126747195939e-14 3.262947434489772702e-14 3.262947434489772702e-14 2.523398394264127903e-14
3.080000000000000000e+02 5.218469619750976562e+01 3.041598701477050781e+01 -3.187371639749012921e-15 1.358868258801576578e-13 3.980983701327642232e-14 8.605081572429437720e-14
3.090000000000000000e+02 5.237847518920898438e+01 1.611842727661132812e+01 -5.116326673849751205e-14 -6.767806123462657975e-14 -3.565239940837676424e-14 -1.479791088927415177e-13
3.100000000000000000e+02 5.396729278564453125e+01 1.510557937622070312e+01 3.745801276577517824e-14 2.390893201736216112e-13 8.296420055944539462e-14 -1.519240327074386498e-13
3.110000000000000000e+02 5.440476608276367188e+01 1.265991592407226562e+01 -9.434313275264241683e-14 1.883219735753297042e-13 2.819365089155347059e-14 -5.213130681259656174e-14
3.120000000000000000e+02 6.033268356323242188e+01 1.485859203338623047e+01 -1.154066508766223194e-15 4.112639319809457961e-13 1.230329586040385115e-13 6.262818886946684357e-15
3.130000000000000000e+02 5.520313262939453125e+01 1.117844104766845703e+01 5.828155883250141223e-14 9.360423541956638949e-14 4.556573759799398271e-14 -1.093380960315130934e-14
3.140000000000000000e+02 5.498810195922851562e+01 8.872096061706542969e+00 -6.841536614576176900e-14 -2.094652305339311793e-13 -8.336417629340245328e-14 4.606954940688905153e-14
3.150000000000000000e+02 5.444731521606445312e+01 8.330684661865234375e+00 1.050232627643546413e-13 -7.409788106647863769e-16 3.128468418025533160e-14 -6.970441222511241167e-15
3.160000000000000000e+02 5.147257995605468750e+01 5.847724914550781250e+00 1.448484480146353115e-13 4.889217743636381161e-15 4.492129799106396593e-14 1.438984023084677322e-13
3.170000000000000000e+02 4.878652572631835938e+01 6.466627120971679688e+00 -1.104655714232079255e-13 -9.309333902710048569e-14 -6.106767381271888118e-14 4.067098999976145185e-15
3.180000000000000000e+02 4.552039718627929688e+01 7.622378826141357422e+00 -1.096768414477790332e-13 -3.215100440653179126e-13 -1.293560663315554415e-13 1.102568218474229977e-14
3.190000000000000000e+02 4.477769851684570312e+01 1.025691223144531250e+01 1.216952699636258961e-13 1.665324914643454002e-13 8.646832842839138888e-14 3.138771387982755567e-14
3.200000000000000000e+02 4.541388320922851562e+01 1.569785881042480469e+01 1.001041494163613932e-13 3.174074772547413881e-13 1.252534859684517610e-13 1.738800482721167273e-13
3.210000000000000000e+02 4.728650665283203125e+01 1.837441825866699219e+01 1.440673074544138177e-13 1.599218194393674242e-14 4.801784377018655792e-14 8.107406347830636850e-14
3.220000000000000000e+02 1.549935054779052734e+01 2.348819160461425781e+01 1.585384384536481228e-13 2.051978920981911703e-13 1.091209032313099347e-13 7.242183198627460960e-14
3.230000000000000000e+02 1.958604049682617188e+01 1.599054908752441406e+01 2.724722574301563505e-13 2.282917507378384725e-13 1.502292078714093093e-13 -3.362002245609757578e-13
3.240000000000000000e+02 1.993242454528808594e+01 1.767407035827636719e+01 3.754323241178525450e-13 3.508445365284738882e-14 1.231550262161332232e-13 -9.740449955939964322e-14
3.250000000000000000e+02 2.116733169555664062e+01 1.380993652343750000e+01 1.406799922051577695e-14 6.029142402073483370e-15 6.029142402073483370e-15 -1.668151565232395273e-13
3.260000000000000000e+02 2.087087249755859375e+01 1.168140983581542969e+01 -2.721647980228301955e-14 -2.861699050470123407e-13 -9.401591376072271355e-14 -6.079484111227648202e-14
3.270000000000000000e+02 1.976725006103515625e+01 9.484721183776855469e+00 -9.648054924427107437e-14 -2.243526002997098256e-13 -9.624994621844698561e-14 -1.719712832424016846e-13
3.280000000000000000e+02 1.885167312622070312e+01 8.163247108459472656e+00 -2.208989284893658755e-13 -3.463011941009369599e-13 -1.701600286455745570e-13 -1.719726656001716036e-13
3.290000000000000000e+02 1.779354858398437500e+01 7.437653541564941406e+00 -6.755379133686900683e-14 -2.348308993007502954e-13 -9.071540583603307506e-14 -5.331428319112728464e-14
3.300000000000000000e+02 1.363642692565917969e+01 3.379537820816040039e+00 -9.296492883229673376e-14 -2.685968580797698513e-13 -1.084685320078618287e-13 5.519093550774602230e-14
3.310000000000000000e+02 1.067609786987304688e+01 9.363813400268554688e+00 1.447706294037051644e-13 -2.945733934556216127e-14 3.459398769506925875e-14 -4.453838150066460888e-14
3.320000000000000000e+02 1.021654701232910156e+01 1.003013324737548828e+01 4.379141702579893158e-14 -1.184850964086950342e-13 -2.240810245961611519e-14 1.473019975309700080e-13
3.330000000000000000e+02 9.900403022766113281e+00 1.405609798431396484e+01 1.344478320992534282e-13 -1.100592175311580420e-14 3.703257522142365532e-14 2.205176586310159809e-14
3.340000000000000000e+02 1.035102844238281250e+01 1.552326488494873047e+01 1.697135812959993384e-13 4.985891731488882594e-14 6.587174653394783919e-14 7.068979868693828217e-14
3.350000000000000000e+02 1.029973602294921875e+01 1.627870559692382812e+01 -1.279489480945222857e-13 -1.234616928006207481e-13 -7.542318820278476332e-14 7.591769281365540190e-14
3.360000000000000000e+02 1.075638008117675781e+01 2.292699813842773438e+01 4.448594812835049428e-13 2.821559446589821940e-13 2.181046277827461410e-13 -2.293629357079905728e-14
3.370000000000000000e+02 1.377082538604736328e+01 1.844011497497558594e+01 -2.002785551334998471e-13 -4.518412553833339729e-13 -1.956359472208082928e-13 -1.011600606884086040e-13
3.380000000000000000e+02 1.192724609375000000e+01 3.449718475341796875e+01 1.037261165089294057e-13 3.301631429190876599e-14 4.102273059550416712e-14 -1.171036347996342111e-14
3.390000000000000000e+02 1.344194316864013672e+01 3.435322952270507812e+01 1.883871070208417708e-13 -5.651551546626693012e-14 3.956148017687788343e-14 -5.846742496618331786e-14
3.400000000000000000e+02 1.265661621093750000e+01 3.443439102172851562e+01 1.024647624777233479e-13 -7.046390516430092732e-14 9.600257871653083974e-15 -7.326105190162343628e-14
3.410000000000000000e+02 1.644024848937988281e+01 3.339301300048828125e+01 1.532934478139236223e-13 1.228858865793408528e-13 8.285380167323205813e-14 4.296163644561430683e-14
3.420000000000000000e+02 1.782541275024414062e+01 3.256650161743164062e+01 -5.896741411538742803e-15 -5.399699174661425072e-14 -1.796812007450084014e-14 1.341927193280675890e-13
3.430000000000000000e+02 1.844383811950683594e+01 3.201149749755859375e+01 -7.561364186690899825e-14 -1.953936009302034704e-13 -8.130217283913374060e-14 4.083203637402291197e-14
3.440000000000000000e+02 1.964221572875976562e+01 2.872927856445312500e+01 -5.021994816799702638e-15 -6.884165004543418842e-13 -2.080315493436721286e-13 -2.232333479038669383e-14
3.450000000000000000e+02 2.268217658996582031e+01 2.613666152954101562e+01 -4.512501619114220319e-14 -1.794676196932923351e-13 -6.737779144295671929e-14 1.053606054940599279e-13
3.460000000000000000e+02 1.997690963745117188e+01 2.588102149963378906e+01 -1.425271677752120575e-14 -4.636178051707628978e-13 -1.433611530269468526e-13 -7.279241228883015502e-14
3.470000000000000000e+02 1.823321723937988281e+01 2.495771789550781250e+01 -2.215249332712318497e-14 -1.009958243880677842e-13 -3.694449395930457514e-14 -3.926883368173331168e-14
3.480000000000000000e+02 1.571436405181884766e+01 2.283316230773925781e+01 2.588816205677246796e-13 -9.493000461234524234e-14 4.918548207610839995e-14 -4.048164933692990908e-14
3.490000000000000000e+02 1.475966167449951172e+01 2.326430320739746094e+01 2.191525362875076932e-13 -2.263341288477258018e-13 -2.154476158702832780e-15 2.127968347321804177e-14
3.500000000000000000e+02 1.318190574645996094e+01 2.286194801330566406e+01 6.550943598346292696e-13 2.350037753371531091e-13 2.670294541040618697e-13 5.849695592285639179e-14
3.510000000000000000e+02 1.155095005035400391e+01 2.286997413635253906e+01 5.680265285912255990e-13 -3.106574310404904005e-14 1.610882380178452200e-13 3.760147304198574458e-14
3.520000000000000000e+02 8.461320877075195312e+00 2.374569129943847656e+01 -2.618879336210421654e-14 -1.942275685987496225e-13 -6.612490774122320447e-14 9.907444873183401945e-14
3.530000000000000000e+02 6.766944408416748047e+00 2.536039161682128906e+01 -1.995338844238553344e-13 -5.430240133420805027e-13 -2.227673611982644575e-13 3.554652503335448133e-13
3.540000000000000000e+02 6.284805774688720703e+00 2.592009925842285156e+01 -1.867403801036893185e-13 -1.086552505955018511e-12 -3.819878441335688990e-13 3.117241436766809981e-13
3.550000000000000000e+02 5.871055126190185547e+00 2.712607383728027344e+01 -2.549854316406807708e-13 -1.024298484572638834e-12 -3.837851531799524318e-13 2.362780381504753224e-13
3.560000000000000000e+02 6.000499725341796875e+00 2.946853065490722656e+01 -7.335894180527172126e-14 -7.177037826891496941e-13 -2.373188180259527824e-13 -3.964033216800368076e-14
3.570000000000000000e+02 3.302197754383087158e-01 3.082530403137207031e+01 -1.689997561381620383e-13 -5.756889106048324045e-13 -2.234065932466347548e-13 5.307766961950947937e-14
3.580000000000000000e+02 7.380244731903076172e+00 3.317674636840820312e+01 6.240362772965551974e-14 -1.562593777244478122e-13 -2.815672703131676113e-14 1.401010519619730332e-13
3.590000000000000000e+02 9.346743583679199219e+00 3.472570419311523438e+01 4.162626732022445264e-13 4.114543856450700310e-14 1.372224274313882386e-13 1.549726059285605473e-13
3.600000000000000000e+02 6.808323669433593750e+01 1.938326835632324219e+01 -2.555189675297608876e-13 -6.375717960310431365e-14 -9.578284481748591817e-14 -4.221611531489075086e-14
3.610000000000000000e+02 6.961300659179687500e+01 1.774720382690429688e+01 9.956019163389825954e-14 9.413846926379504376e-14 5.810959759168163319e-14 5.735470150029786662e-14
3.620000000000000000e+02 7.109427642822265625e+01 1.593793487548828125e+01 -1.471463196515282457e-13 3.987692541083075193e-14 -3.218081793339606922e-14 -4.438563096708855737e-14
3.630000000000000000e+02 7.167352294921875000e+01 1.445771408081054688e+01 -8.545595464983304912e-14 1.921307622547441252e-13 3.200244295909968062e-14 -4.434602370647494629e-14
3.640000000000000000e+02 7.186870574951171875e+01 1.207500171661376953e+01 6.398038294910118884e-14 2.104239634100057987e-13 8.232130255247938067e-14 5.637762527871750806e-14
3.650000000000000000e+02 7.185990142822265625e+01 1.122160053253173828e+01 1.099279697759809882e-13 1.157384057299745694e-13 6.769991468466574069e-14 2.130161417266199231e-13
3.660000000000000000e+02 7.000769042968750000e+01 7.722286224365234375e+00 -1.297001785485751846e-13 -1.013367382086786950e-13 -6.931107299429709045e-14 6.741353623333085077e-14
3.670000000000000000e+02 6.709290313720703125e+01 7.136469841003417969e+00 -1.206360722037433386e-13 -5.950225189410747462e-15 -3.797588870972645747e-14 -7.765671752293836633e-15
3.680000000000000000e+02 6.209969711303710938e+01 8.544717788696289062e+00 -7.339484244970814752e-14 1.229545165768591852e-13 1.486790325458484802e-14 -1.572054525401586633e-13
3.690000000000000000e+02 6.328648376464843750e+01 8.411407470703125000e+00 -5.882634331912106607e-14 1.006038175400784940e-13 1.253324328272676508e-14 2.601748941885150684e-14
3.700000000000000000e+02 6.171509170532226562e+01 1.018258476257324219e+01 1.221527897278876229e-13 2.124795158613482227e-13 1.003896943872761849e-13 -3.935307619053543537e-14
3.710000000000000000e+02 6.134442901611328125e+01 1.089515495300292969e+01 3.437987809479410573e-14 1.748625522808230914e-13 6.277273080675105366e-14 2.579537705129069519e-14
3.720000000000000000e+02 6.093324661254882812e+01 1.405338859558105469e+01 7.494985263933190422e-14 2.608761188842290135e-13 1.007477860360574129e-13 -2.267427578702720103e-15
3.730000000000000000e+02 6.097982025146484375e+01 1.485192012786865234e+01 -1.383152354586178467e-13 3.753560504950181897e-13 7.111224451092010290e-14 8.778069417181288969e-14
3.740000000000000000e+02 6.127596282958984375e+01 1.643115043640136719e+01 1.353266050651072416e-13 2.410009041289851162e-13 1.128982568239858542e-13 -4.294576982444633928e-14
3.750000000000000000e+02 6.154160308837890625e+01 1.719828605651855469e+01 -8.095388644374992837e-14 7.968284913189085938e-14 -3.813106747500405024e-16 5.656733694197994822e-14
3.760000000000000000e+02 6.238026428222656250e+01 1.861906814575195312e+01 1.102037637036069884e-13 1.387320840888842111e-13 7.468075366012100202e-14 1.951157334659225917e-13
3.770000000000000000e+02 6.561206817626953125e+01 2.051171684265136719e+01 -9.417360588451304665e-15 -4.036011620262491481e-15 -4.036011620262491481e-15 2.964741353892602627e-14
3.780000000000000000e+02 2.974116706848144531e+01 2.666291236877441406e+01 -1.774628892187851692e-15 -4.365206994158023213e-14 -1.362800965013042515e-14 -1.684355779851820500e-13
3.790000000000000000e+02 3.030800819396972656e+01 2.606841468811035156e+01 1.820401061879486915e-13 9.231436009496038486e-14 8.230634056249908070e-14 -8.122683434067315411e-14
3.800000000000000000e+02 3.143319511413574219e+01 2.390441703796386719e+01 3.367129098870262627e-14 1.288079208182010826e-13 4.874376455851064938e-14 -3.889053521496238508e-14
3.810000000000000000e+02 3.156578826904296875e+01 2.310249519348144531e+01 5.251336271752150842e-14 -9.187164646661666323e-14 -1.180748512472854644e-14 -4.021827291231065693e-14
3.820000000000000000e+02 3.162121009826660156e+01 1.989942359924316406e+01 -5.102882566910930950e-14 -1.133713958757949503e-13 -4.932006544703174122e-14 1.796618714531520583e-14
3.830000000000000000e+02 3.236123657226562500e+01 1.985859489440917969e+01 4.068693285389467229e-14 -1.884420083083510056e-13 -4.432652500802915230e-14 -1.768689090585889856e-13
3.840000000000000000e+02 3.147901916503906250e+01 1.753261947631835938e+01 -1.121566354329514570e-13 -2.768218597057336972e-13 -1.166935471863528306e-13 -8.024415414911376110e-14
3.850000000000000000e+02 3.125692749023437500e+01 1.681189537048339844e+01 3.457936790639964952e-14 -3.740633291397094107e-13 -1.018451883699929283e-13 -1.115034375053468307e-13
3.860000000000000000e+02 3.093531990051269531e+01 1.128780269622802734e+01 5.018139969856748317e-14 -1.614974836803770297e-13 -3.339482282285061165e-14 -1.906930017538110977e-13
3.870000000000000000e+02 2.438224983215332031e+01 1.698783683776855469e+01 1.953446898596972181e-13 1.509273120977455696e-14 6.313122903134696373e-14 -2.087005020840956848e-13
3.880000000000000000e+02 2.292893028259277344e+01 1.883082580566406250e+01 1.170964773712299123e-13 -4.587951112772215012e-13 -1.025095874612920455e-13 1.382849455604240330e-13
3.890000000000000000e+02 2.244019508361816406e+01 2.118822669982910156e+01 5.731141472856138286e-14 -5.244493533028415921e-13 -1.401413842827894940e-13 -1.227247995474979245e-14
3.900000000000000000e+02 2.287859725952148438e+01 2.436819267272949219e+01 8.687180749061829133e-14 -2.372749078379671195e-13 -4.512093349233643746e-14 -4.360986398388444485e-14
3.910000000000000000e+02 2.206812858581542969e+01 2.370572853088378906e+01 6.442523787673556934e-14 -2.926458175182139465e-13 -6.846617457006987095e-14 -1.497454300857826992e-14
3.920000000000000000e+02 2.367882347106933594e+01 2.668600463867187500e+01 -1.639045005947213640e-14 -1.442773309677514160e-13 -4.820033193647481340e-14 1.182587590407933181e-14
3.930000000000000000e+02 2.345474624633789062e+01 2.795031929016113281e+01 1.130174851816413695e-13 -2.003347168060345962e-13 -2.619516982613114692e-14 7.541442649397836484e-15
3.940000000000000000e+02 2.409138298034667969e+01 2.743737411499023438e+01 8.708070614420193589e-14 8.307125197145118212e-14 5.104558675706957760e-14 2.501432077084745319e-15
3.950000000000000000e+02 4.474716567993164062e+01 3.085507392883300781e+01 -3.105056766176603200e-14 -5.476918425078095010e-14 -2.574592557376409463e-14 -8.218020041599397030e-14
3.960000000000000000e+02 4.564207458496093750e+01 2.488188362121582031e+01 6.401108619937326272e-14 2.743332362491190946e-14 2.743332362491190946e-14 3.139412422517237622e-14
3.970000000000000000e+02 4.405163574218750000e+01 2.307241249084472656e+01 4.959420257821291200e-16 -4.553840215072019193e-14 -1.351273778337153467e-14 2.094011982312505432e-15
3.980000000000000000e+02 4.422452545166015625e+01 1.994821739196777344e+01 1.770766964049458325e-13 3.046447642762739605e-13 1.445164382043659379e-13 5.806799810957607999e-14
3.990000000000000000e+02 4.180733108520507812e+01 2.199545097351074219e+01 1.719943903012027819e-13 2.796093367149303510e-14 5.998659549774285060e-14 5.169767761261214248e-15
4.000000000000000000e+02 3.852515029907226562e+01 2.263582992553710938e+01 -1.028044091370451663e-13 -1.813118746937444903e-13 -8.523488582686325477e-14 -1.301108743315126937e-13
4.010000000000000000e+02 3.621702575683593750e+01 2.500664138793945312e+01 2.427747198695436037e-14 4.685762123771792728e-15 8.688970699085966920e-15 -7.290795435909921962e-14
4.020000000000000000e+02 3.549799728393554688e+01 2.648001670837402344e+01 7.668722563436772277e-14 2.387452215091290242e-13 9.462973482067538189e-14 -3.623993534191023713e-14
4.030000000000000000e+02 3.529903030395507812e+01 2.899904060363769531e+01 -1.588354594504487894e-15 -6.807234278959572137e-16 -6.807234278959572137e-16 2.164455816184088222e-14
4.040000000000000000e+02 3.598204421997070312e+01 3.145856285095214844e+01 1.864124021702488754e-14 9.949099920650295026e-14 3.543967216587153024e-14 1.014290580236658357e-13
4.050000000000000000e+02 3.756422424316406250e+01 3.340668869018554688e+01 5.903415777053222513e-14 1.168022520066716585e-13 5.275092157790844949e-14 6.482005687410974382e-14
4.060000000000000000e+02 3.909260940551757812e+01 3.417318725585937500e+01 2.568343758155289258e-13 1.856997255890880522e-14 8.262130129360611974e-14 -1.147393117339632826e-14
4.070000000000000000e+02 6.294384384155273438e+01 3.265194320678710938e+01 1.110223431200971222e-13 2.305848112275910022e-13 1.024821435938010061e-13 2.754900122045253474e-14
4.080000000000000000e+02 6.322279357910156250e+01 2.929010200500488281e+01 -1.363636173380353145e-13 7.881129288674765254e-14 -1.726569767419947748e-14 -1.723612775401082986e-14
4.090000000000000000e+02 6.318991470336914062e+01 2.853430938720703125e+01 1.345508042005852389e-13 1.491665271120476421e-13 8.511519668328443311e-14 -3.743257467230323710e-14
4.100000000000000000e+02 6.313224029541015625e+01 2.702123451232910156e+01 6.174987414843749467e-14 1.179661294863076915e-13 5.391480244567627145e-14 -1.123042529468671474e-14
4.110000000000000000e+02 6.240550994873046875e+01 2.522069931030273438e+01 1.009026304350790770e-13 -2.506964896296210409e-15 2.951869841226126279e-14 -4.565496743678953973e-14
4.120000000000000000e+02 6.113819503784179688e+01 2.434560966491699219e+01 -5.135966318577968315e-14 1.152415565319059310e-13 1.916457105315648446e-14 2.870312426866798716e-14
4.130000000000000000e+02 5.890003967285156250e+01 2.356482315063476562e+01 -2.721812304620069289e-13 -7.089814846317210595e-14 -1.029238136775537105e-13 -7.839935704757536317e-14
4.140000000000000000e+02 5.812560272216796875e+01 2.341753768920898438e+01 -2.757611576153368160e-13 -2.668145144114984074e-14 -9.073278017584715527e-14 -6.550349048979955957e-14
4.150000000000000000e+02 5.473496627807617188e+01 2.565116500854492188e+01 4.879320078944419936e-14 2.325095140292415818e-13 8.439081410679255546e-14 2.091653673180760009e-14
4.160000000000000000e+02 5.393108367919921875e+01 2.945414543151855469e+01 -1.711373149313258346e-13 -1.648464622184403483e-13 -1.007951317896771393e-13 5.787431809695575344e-15
4.170000000000000000e+02 5.338680267333984375e+01 3.305782318115234375e+01 -4.548822730705663619e-15 4.380145267215800053e-14 1.177578915184229053e-14 -8.681492753414427055e-14
4.180000000000000000e+02 5.345506286621093750e+01 3.175287437438964844e+01 2.926882369282124419e-14 9.260794171447872536e-14 3.656303097744270647e-14 -1.949614040629328582e-14
4.190000000000000000e+02 5.453894042968750000e+01 3.279406356811523438e+01 1.201924505560801604e-14 5.151105084334360248e-15 5.151105084334360248e-15 -2.260455142294101605e-14
4.200000000000000000e+02 5.930051803588867188e+01 3.571806716918945312e+01 4.433734670096327324e-14 7.563983043157220670e-15 1.557039849971967455e-14 -2.589437656809988331e-14
4.210000000000000000e+02 7.435649108886718750e+01 -4.381293773651123047e+00 -8.786356787537225044e-14 -3.765581528774979148e-14 -3.765581528774979148e-14 1.093068100225733086e-13
4.220000000000000000e+02 7.631526947021484375e+01 -4.200279712677001953e+00 -2.848271613139705116e-14 3.354407002815681937e-14 1.518405660808162111e-15 -3.152221593558796053e-14
4.230000000000000000e+02 7.811451721191406250e+01 -1.143191576004028320e+00 -9.143557188251352080e-15 4.183228064077657016e-14 9.806617120460860149e-15 -4.454042793226517527e-14
4.240000000000000000e+02 7.960021972656250000e+01 -3.336681127548217773e+00 -8.309476327672635654e-16 -4.610706957832062802e-14 -1.408140521097197076e-14 -2.229083879488175622e-15
4.250000000000000000e+02 7.960022735595703125e+01 4.208383560180664062e+01 -2.904415328575972455e-14 1.019298781121912023e-13 2.186571846436898003e-14 2.644545959171532012e-14
4.260000000000000000e+02 7.684918212890625000e+01 4.184743118286132812e+01 4.905235136668959980e-15 1.164796205451942845e-13 3.641545412110848423e-14 9.500728112218914667e-15
4.270000000000000000e+02 7.952724456787109375e+01 4.047681045532226562e+01 -1.496930834496423834e-13 4.472247140625612224e-15 -4.356624856336442642e-14 3.094366532755896126e-14
4.280000000000000000e+02 7.772749328613281250e+01 3.918701934814453125e+01 2.833853079498363514e-14 9.220924669433791521e-14 3.616433256917010730e-14 -4.159690373726175616e-14
4.290000000000000000e+02 7.952850341796875000e+01 3.969602966308593750e+01 1.053954693701689149e-13 1.366713816772224810e-13 7.262005802472284999e-14 1.898045192492829082e-15
4.300000000000000000e+02 7.952667236328125000e+01 3.733239364624023438e+01 -1.510981925245246521e-14 -9.797753428887612248e-14 -3.392620724824470246e-14 -8.234808912240335066e-14
4.310000000000000000e+02 7.954242706298828125e+01 3.653193664550781250e+01 -2.363346775495923230e-14 -1.012862940085379124e-14 -1.012862940085379124e-14 -4.467915837649827360e-14
4.320000000000000000e+02 7.956582641601562500e+01 3.572854995727539062e+01 1.388962339918644109e-14 9.745459647603205156e-14 3.340326604726884252e-14 -7.095332757748804009e-14
4.330000000000000000e+02 7.957974243164062500e+01 3.493112945556640625e+01 -1.186050633790805553e-13 -5.079790415889705313e-15 -3.710545393620541532e-14 1.004789233790387946e-15
4.340000000000000000e+02 7.958376312255859375e+01 3.414078521728515625e+01 6.343564589632658124e-14 2.718670659418703089e-14 2.718670659418703089e-14 2.077271561956150342e-14
4.350000000000000000e+02 7.874124145507812500e+01 3.416035461425781250e+01 -3.041579439483008129e-14 2.157194101083323434e-13 5.559108403642432084e-14 9.934389499455329592e-15
4.360000000000000000e+02 7.958795166015625000e+01 3.334812545776367188e+01 -2.485491298182245651e-14 2.181026355612541989e-13 5.797431626560975437e-14 4.124723498410802491e-14
4.370000000000000000e+02 7.961023712158203125e+01 3.095722389221191406e+01 -2.554191091215431836e-14 3.093101133295333982e-13 8.513045682886216659e-14 -1.416306596335086335e-14
4.380000000000000000e+02 7.961937713623046875e+01 3.015990447998046875e+01 4.542631258674413586e-14 2.939741007047802501e-13 1.018201297472813571e-13 -3.976766154876673620e-14
4.390000000000000000e+02 7.962783050537109375e+01 2.936254310607910156e+01 -4.256150824572674241e-14 2.105141012681208124e-13 5.038577858434457879e-14 -2.391659190571077120e-14
4.400000000000000000e+02 7.963461303710937500e+01 2.856560325622558594e+01 5.947423543234409138e-14 2.084927553953203061e-13 8.039009453779388803e-14 1.225987017526401768e-14
4.410000000000000000e+02 7.888566589355468750e+01 2.938010978698730469e+01 1.595649136367123522e-14 2.355932289532791657e-13 7.546491643389829918e-14 4.078987785017217094e-14
4.420000000000000000e+02 7.963936614990234375e+01 2.776942443847656250e+01 -1.539369048626348241e-14 -6.597296104191409730e-15 -6.597296104191409730e-15 -6.056422453392523719e-14
4.430000000000000000e+02 7.964672851562500000e+01 2.537916946411132812e+01 -4.105658142020823798e-14 -6.334662612170194329e-14 -3.132096090732033877e-14 1.713853431189408388e-14
4.440000000000000000e+02 7.964862060546875000e+01 2.458321762084960938e+01 2.744041159661453344e-14 1.176017664055849926e-14 1.176017664055849926e-14 3.946335988026794528e-14
4.450000000000000000e+02 7.964992523193359375e+01 2.378732681274414062e+01 1.158381760467657590e-14 1.422173332875018015e-13 4.614034780875235497e-14 -2.481494827330510411e-14
4.460000000000000000e+02 7.965093994140625000e+01 2.299125289916992188e+01 1.404360297756895859e-14 2.805243830197173827e-13 8.837039173342775555e-14 -8.193996831962549465e-15
4.470000000000000000e+02 7.894786071777343750e+01 2.381295776367187500e+01 9.304398749946166114e-14 8.562694010869759120e-14 5.360127828244777570e-14 1.050557752770020503e-13
4.480000000000000000e+02 7.965174102783203125e+01 2.219507598876953125e+01 -7.228535126154941870e-14 6.052246242149381117e-14 -3.528867371994687425e-15 -4.415152800112641385e-14
4.490000000000000000e+02 7.965277862548828125e+01 1.900703430175781250e+01 2.993617045877680627e-14 1.043316840798440281e-13 4.028035703921260813e-14 2.785517652583065218e-14
4.500000000000000000e+02 7.965324401855468750e+01 1.821192741394042969e+01 -2.875664997467088091e-14 3.342667126166737335e-14 1.401006470802242457e-15 3.673947810475114428e-14
4.510000000000000000e+02 7.965404510498046875e+01 1.741527366638183594e+01 7.310368673255074334e-14 7.708110273110455046e-14 4.505543412859115693e-14 9.832301277003978671e-16
4.520000000000000000e+02 7.965527343750000000e+01 1.661812019348144531e+01 -4.518634137652341454e-14 1.636382137648953461e-13 3.553556307176429507e-14 4.563983265208799989e-14
4.530000000000000000e+02 7.895784759521484375e+01 1.744348144531250000e+01 -7.726454296242551978e-14 2.413923282183066954e-13 4.923833354388527928e-14 1.434108772490824690e-14
4.540000000000000000e+02 7.965614318847656250e+01 1.582177066802978516e+01 9.859058285478089489e-14 4.225310693776324067e-14 4.225310693776324067e-14 -4.267709774984085325e-14
4.550000000000000000e+02 7.824163818359375000e+01 1.190891265869140625e+01 -6.450362569380627131e-15 -2.764441101163125913e-15 -2.764441101163125913e-15 -2.134759518679710255e-13
4.560000000000000000e+02 7.965210723876953125e+01 1.263432788848876953e+01 4.301950912470250965e-14 6.418787891612418028e-14 3.216221708987436478e-14 4.060778609530323047e-14
4.570000000000000000e+02 7.965075683593750000e+01 1.183685493469238281e+01 5.363883911146082040e-14 2.298807269486471266e-14 2.298807269486471266e-14 -4.697841575929291580e-14
4.580000000000000000e+02 7.965037536621093750e+01 1.103899192810058594e+01 -1.940985485402238475e-13 -1.289360464099345571e-13 -9.691038119555295260e-14 3.319265977526353328e-14
4.590000000000000000e+02 7.965118408203125000e+01 1.024154853820800781e+01 1.151889049639046037e-13 -1.793880663588862112e-13 -1.925974706324176666e-14 1.084144303194548020e-13
4.600000000000000000e+02 7.965591430664062500e+01 7.054878711700439453e+00 4.956802587201096510e-14 -7.025845562887850226e-14 -6.207129858796503127e-15 3.976885078302468124e-14
4.610000000000000000e+02 7.965509033203125000e+01 6.259830951690673828e+00 -4.941257499739906689e-14 -1.126787126603211175e-13 -4.862738561968969753e-14 1.672904639793935944e-14
4.620000000000000000e+02 7.965361785888671875e+01 5.463709354400634766e+00 6.538904617423013654e-14 -1.772707143837121135e-14 1.429859377601039316e-14 -8.007576738733139521e-15
4.630000000000000000e+02 7.965093231201171875e+01 4.667178153991699219e+00 8.356801985435688418e-14 -3.281155932350308946e-14 1.522693849806931732e-14 -4.905817641226786763e-14
4.640000000000000000e+02 7.896181488037109375e+01 5.495221138000488281e+00 2.976569660781240578e-14 -2.159980229616068059e-13 -5.586969688969878334e-14 -1.451754840474384078e-14
4.650000000000000000e+02 7.964517211914062500e+01 3.868661165237426758e+00 -1.214087966446009137e-13 -7.490781270009377879e-14 -5.889498686916655457e-14 -1.702781185909489625e-14
4.660000000000000000e+02 7.961190032958984375e+01 1.452607989311218262e+00 3.456332171424686406e-13 2.396304183728548143e-13 1.755790879440916052e-13 -2.026583111394697490e-13
4.670000000000000000e+02 7.432180023193359375e+01 -2.267739772796630859e+00 -2.202169280534228141e-14 -5.518881792537788655e-14 -2.316315271099628204e-14 1.127752811925716858e-13
4.680000000000000000e+02 7.961057281494140625e+01 -1.578104048967361450e-01 -1.567862593226942991e-13 -6.719411404241051877e-14 -6.719411404241051877e-14 -1.243490987262729774e-13
4.690000000000000000e+02 7.961418914794921875e+01 -9.607196450233459473e-01 5.189191836104355138e-14 1.594922382098379332e-13 6.341524934295669769e-14 4.069713451871140308e-14
4.700000000000000000e+02 7.961405944824218750e+01 -1.757279157638549805e+00 2.883553923524635743e-14 1.038599883721770534e-13 3.980865794341384434e-14 -6.426255164668822489e-15
4.710000000000000000e+02 7.960932922363281250e+01 -2.548879384994506836e+00 6.044299717851420173e-14 -1.984680696425888263e-14 1.217885740308977463e-14 -4.971626531986817702e-16
4.720000000000000000e+02 4.170062541961669922e-01 4.206858062744140625e+01 -3.082263744840700419e-15 -9.392153938261871282e-13 -2.826893179177364379e-13 -2.166864608479490001e-14
4.730000000000000000e+02 4.887674748897552490e-01 4.123099517822265625e+01 1.013617765025995321e-13 -8.487027270201452644e-13 -2.242022892210218665e-13 -5.907668560074796904e-14
4.740000000000000000e+02 5.294793605804443359e+00 3.686001586914062500e+01 3.142167990101245312e-14 -1.895533968503115840e-13 -4.743951677885563378e-14 -3.067403441165718336e-14
4.750000000000000000e+02 2.821097564697265625e+01 4.133182907104492188e+01 8.606832558938001809e-14 1.401094985745230531e-14 3.002378077057721306e-14 -1.576335599323599318e-14
4.760000000000000000e+02 4.498884963989257812e+01 3.880875015258789062e+01 6.875759456150681848e-14 9.237509574541030721e-14 4.833980776970149551e-14 -2.337691555715865283e-16
4.770000000000000000e+02 6.614984130859375000e+01 3.727901077270507812e+01 -1.904732475259754421e-14 1.471233548942622871e-14 -1.300497011885455145e-15 -4.012712539092251618e-14
4.780000000000000000e+02 7.861243438720703125e+01 3.892192077636718750e+01 1.502184878224288589e-13 8.725482901310310790e-14 7.124199640591230565e-14 4.635660209644995589e-14
4.790000000000000000e+02 7.861174774169921875e+01 4.203652954101562500e+01 3.337471939582003729e-17 6.864072434357645913e-14 2.060222991013584137e-14 4.735535473818349925e-15
4.800000000000000000e+02 4.026568233966827393e-01 1.895258188247680664e+00 -1.157067419443403092e-14 2.466713628062472408e-13 7.053020412714841592e-14 -7.306886351402322455e-14
4.810000000000000000e+02 3.899809420108795166e-01 2.688929796218872070e+00 -5.490825689632473916e-14 4.509431294087012931e-14 -2.944183398394619768e-15 1.024739951368484198e-14
4.820000000000000000e+02 2.836328506469726562e+00 1.871888160705566406e+00 7.546799963382630483e-14 7.809437775271876880e-14 4.606871253833716429e-14 -7.312152185828812989e-14
4.830000000000000000e+02 3.809549510478973389e-01 3.487047672271728516e+00 1.412462811642423155e-13 1.520360172393292464e-13 8.798468681056603735e-14 9.908680355440267068e-15
4.840000000000000000e+02 3.739925920963287354e-01 4.287098884582519531e+00 -9.969152239830414430e-14 2.590148317452734689e-14 -2.213701295297916538e-14 -3.043351686518548302e-15
4.850000000000000000e+02 1.893835306167602539e+00 4.194088935852050781e+00 2.539357659660701396e-16 1.088296120947600883e-16 1.088296120947600883e-16 -8.876821430963289378e-15
4.860000000000000000e+02 3.643281161785125732e-01 5.889950752258300781e+00 4.165468832492344453e-14 2.694822175738215142e-13 9.334107244724984542e-14 -8.021710330491024776e-15
4.870000000000000000e+02 3.561902344226837158e-01 8.299588203430175781e+00 4.441786904106105605e-14 2.020400312980827340e-13 7.393737044055631591e-14 -1.770033907855586564e-14
4.880000000000000000e+02 3.540385961532592773e-01 9.103274345397949219e+00 -2.913387779179647807e-14 3.326499977709083955e-14 1.239336468533366355e-15 -1.029100667563362468e-15
4.890000000000000000e+02 3.533098101615905762e-01 9.907029151916503906e+00 -8.391554561415406205e-15 -9.509827956577857067e-14 -3.104694913701536163e-14 3.790341657075937953e-14
4.900000000000000000e+02 3.550766706466674805e-01 1.071294975280761719e+01 9.476123499167071751e-15 2.693667093848703398e-14 1.092383833129623172e-14 -2.027275781057644166e-14
4.910000000000000000e+02 3.582121431827545166e-01 1.152043342590332031e+01 1.547519199644829119e-14 -3.911872250282090457e-14 -7.093059406021668192e-15 -1.982502297092139654e-14
4.920000000000000000e+02 1.076304078102111816e+00 1.145511627197265625e+01 -4.738490009441667650e-14 -1.118097110665468297e-13 -4.775838402591540965e-14 -7.735482312207567213e-14
4.930000000000000000e+02 3.599972128868103027e-01 1.313124370574951172e+01 3.632507570563645038e-14 -1.445604297075145372e-13 -3.247060823344249947e-14 1.172539848418377439e-13
4.940000000000000000e+02 3.526383936405181885e-01 1.554360866546630859e+01 -1.134969092179190925e-14 -1.649924771460198336e-13 -5.290264889568421780e-14 3.514585337712795854e-14
4.950000000000000000e+02 3.529875278472900391e-01 1.634800338745117188e+01 1.052834170756425380e-14 -8.698974835819398010e-14 -2.293842301162845460e-14 6.287385298812606105e-14
4.960000000000000000e+02 3.539838790893554688e-01 1.715211677551269531e+01 4.185661081515350268e-14 -2.336916738680111516e-13 -5.755051518891232676e-14 1.493582682662517036e-14
4.970000000000000000e+02 3.548856675624847412e-01 1.795601654052734375e+01 6.430752883148963222e-17 -2.058517066657813976e-13 -6.173621997732775535e-14 6.683419026136437971e-15
4.980000000000000000e+02 3.555188775062561035e-01 1.876098251342773438e+01 -2.616575914813658310e-14 -2.399686352405616674e-13 -7.984032272118080087e-14 -6.326279971783515827e-16
4.990000000000000000e+02 3.548656702041625977e-01 2.198168754577636719e+01 -5.075732450445999411e-14 4.687328202987971204e-14 -1.165212827077379346e-15 -1.231166729877980221e-15
5.000000000000000000e+02 3.545311391353607178e-01 2.278591537475585938e+01 1.067264698384300103e-13 6.861538789405818850e-14 5.260255867499917526e-14 -2.259317407639349629e-14
5.010000000000000000e+02 5.883861541748046875e+00 2.406850433349609375e+01 3.264971165607352677e-14 -3.977658046688814508e-13 -1.095348245157105882e-13 4.135708838110332963e-14
5.020000000000000000e+02 3.565880656242370605e-01 2.440157890319824219e+01 1.634221322719189851e-13 1.844154305175385589e-13 1.043512674815845476e-13 1.034973888140505380e-14
5.030000000000000000e+02 1.062026023864746094e+00 2.438431549072265625e+01 -4.485593415259024608e-14 4.940245125961348349e-14 1.363955661502563258e-15 -9.781472100388668989e-14
5.040000000000000000e+02 3.555470407009124756e-01 2.521339225769042969e+01 -6.981612824755872859e-14 3.870522473489387827e-14 -9.333271392612633999e-15 2.307087143600824140e-15
5.050000000000000000e+02 9.740777015686035156e-01 2.765889167785644531e+01 -9.068898010214463540e-15 8.761522459150086761e-14 2.356389924493534210e-14 -1.165071050702667921e-13
5.060000000000000000e+02 5.194654941558837891e+00 2.888068199157714844e+01 -1.751158117439203382e-14 -7.395201530140116386e-13 -2.271095231364331224e-13 -8.176166788422846443e-15
5.070000000000000000e+02 4.536920070648193359e+00 2.993551635742187500e+01 -1.399342068001546702e-13 -4.717303479263856847e-13 -1.834993609969512440e-13 -1.186793193694345508e-14
5.080000000000000000e+02 3.271141648292541504e-01 2.923091697692871094e+01 -1.065267936795760706e-13 -2.286581297569756366e-13 -1.005554824519763746e-13 1.037936961855931428e-13
5.090000000000000000e+02 3.290569186210632324e-01 3.002859306335449219e+01 1.031679827830610241e-13 -4.590455619790656527e-13 -1.067632852784494712e-13 1.298228848235121261e-14
5.100000000000000000e+02 3.334859013557434082e-01 3.162143135070800781e+01 6.995206687119767675e-14 -4.732809738734744531e-13 -1.209986700678039595e-13 5.385003830652920764e-14
5.110000000000000000e+02 9.937735199928283691e-01 3.079291725158691406e+01 4.044899452274736129e-14 -3.944232635812172649e-13 -1.061922766517828243e-13 7.163800802567621417e-14
5.120000000000000000e+02 1.153973102569580078e+00 3.394700622558593750e+01 3.131750840102733024e-14 -7.643443170057828695e-13 -2.199080490188770609e-13 -4.323153841205920611e-14
5.130000000000000000e+02 4.089791178703308105e-01 3.563767623901367188e+01 -1.570750501238629693e-13 -6.392047264755507108e-13 -2.388839451770985445e-13 4.742607606004860255e-14
5.140000000000000000e+02 4.214986860752105713e-01 3.644378280639648438e+01 1.133939540572462268e-13 -7.749196792063151040e-13 -1.984577188999733788e-13 -2.361737709357671598e-15
5.150000000000000000e+02 4.437222778797149658e-01 3.724665832519531250e+01 -7.880465214844117883e-14 -9.030414762321858912e-13 -2.945538236064082493e-13 -1.035544788346954778e-14
5.160000000000000000e+02 4.555649161338806152e-01 3.804335784912109375e+01 2.827396655561212335e-14 -8.113996670736089989e-13 -2.349377203197944297e-13 -4.974485585821156186e-14
5.170000000000000000e+02 4.401080012321472168e-01 3.883423233032226562e+01 -6.464148200003780320e-14 -8.740960429423627609e-13 -2.816212703576209675e-13 -1.560337857455396798e-14
5.180000000000000000e+02 4.764427840709686279e-01 4.042532348632812500e+01 -1.236415348359817812e-13 -7.392534392795802045e-13 -2.588685017214376050e-13 -2.956525091952588551e-15
5.190000000000000000e+02 1.011189174652099609e+01 1.968660712242126465e+00 -1.415118022762840155e-13 -1.489696834313693208e-14 -4.692263355751853660e-14 7.796016030002864139e-14
5.200000000000000000e+02 9.355116844177246094e+00 1.899611353874206543e+00 -4.902039281358969505e-15 2.077460111490209149e-14 4.761768507711289233e-15 3.454101086641618579e-14
5.210000000000000000e+02 8.546864509582519531e+00 1.879636883735656738e+00 -5.076507993812505448e-14 -2.175646307263443685e-14 -2.175646307263443685e-14 1.152458797880687169e-13
5.220000000000000000e+02 7.605579853057861328e+00 2.599281072616577148e+00 -8.338604329596877029e-14 1.930178700247989210e-13 3.288954734102268740e-14 3.071893393412523932e-14
5.230000000000000000e+02 7.731716632843017578e+00 1.867828249931335449e+00 3.324913993218645003e-14 8.287605492282232311e-14 3.483756048938170535e-14 7.468453481519754522e-14
5.240000000000000000e+02 1.097258448600769043e+00 5.829055309295654297e+00 1.888703054359324590e-14 1.682227626512503016e-13 5.613293778904647480e-14 3.039470666257523823e-14
5.250000000000000000e+02 5.281400203704833984e+00 1.862087130546569824e+00 -5.897678992308058588e-14 -1.396531409394649592e-13 -5.958897790351094792e-14 9.031142533030139807e-14
5.260000000000000000e+02 4.375776767730712891e+00 2.596815586090087891e+00 -5.769697057362438430e-14 2.102367454117400752e-14 -1.100198897914170248e-14 1.305833289807004083e-13
5.270000000000000000e+02 3.650203704833984375e+00 1.867494106292724609e+00 -4.645923538460286495e-14 -1.800394279190611901e-13 -6.794959966872557433e-14 7.501150986162843926e-15
5.280000000000000000e+02 1.210917353630065918e+00 1.884392619132995605e+00 1.332889436436767230e-14 2.115916491497726870e-13 6.747616246131904472e-14 4.646844771493720272e-14
5.290000000000000000e+02 1.153168201446533203e+01 2.210937738418579102e+00 -1.289705104864924401e-13 -5.527307398670716632e-14 -5.527307398670716632e-14 -1.964726124847882005e-14
5.300000000000000000e+02 1.223860168457031250e+01 2.339942455291748047e+00 -6.903610577082761046e-14 2.906697506386418661e-13 6.649008736170705647e-14 -8.401520581666210852e-14
5.310000000000000000e+02 1.449269580841064453e+01 2.857290267944335938e+00 -1.239145776005950994e-13 -1.903590945897398745e-13 -9.428210572285863900e-14 -4.506072639044560180e-14
5.320000000000000000e+02 1.526268196105957031e+01 3.009365558624267578e+00 -1.620367522884441636e-13 -2.369337500718673994e-14 -5.571904022156834446e-14 -4.422495220512620562e-14
5.330000000000000000e+02 1.555046272277832031e+01 6.777601718902587891e+00 9.548775886745325403e-14 -4.827622778261469322e-15 2.719804158908718794e-14 6.515783328468402469e-14
5.340000000000000000e+02 1.719967269897460938e+01 6.399588108062744141e+00 2.618908812956986104e-14 1.122389467066338409e-14 1.122389467066338409e-14 2.478489554433652153e-15
5.350000000000000000e+02 1.860953903198242188e+01 3.303768873214721680e+00 -2.405142599838649975e-14 2.641979517103987263e-13 7.204395364784552114e-14 -1.830748822938960130e-13
5.360000000000000000e+02 2.024395942687988281e+01 3.012843608856201172e+00 -1.071366370728084327e-13 3.429673537357069701e-13 7.074921974225406585e-14 -1.981574626608306744e-13
5.370000000000000000e+02 2.125685310363769531e+01 3.442239284515380859e+00 1.407765793721331773e-14 9.753517980250203667e-14 3.348385276187061665e-14 -1.538183371906781671e-13
5.380000000000000000e+02 2.252827262878417969e+01 2.406622171401977539e+00 -2.066487985504655844e-14 -2.604865921487092839e-13 -8.434544024587403710e-14 6.161267513977303212e-14
5.390000000000000000e+02 2.403559303283691406e+01 2.041884183883666992e+00 5.168602667442265958e-15 -4.781698583096460897e-13 -1.419003667823756643e-13 8.878730135006632218e-14
5.400000000000000000e+02 2.640768051147460938e+01 1.538849115371704102e+00 3.097742806083651768e-14 1.962798413385202778e-13 6.817718048099385975e-14 -1.931788401660951282e-14
5.410000000000000000e+02 2.715681648254394531e+01 1.265614867210388184e+00 8.396981840321643409e-14 5.886254211915492585e-14 4.284970612383233457e-14 -6.216491351632852380e-14
5.420000000000000000e+02 2.998864173889160156e+01 4.972475528717041016e+00 1.881117332215576088e-13 1.263702548636932987e-13 9.434459642557527226e-14 -2.308147705083751777e-13
5.430000000000000000e+02 2.864528465270996094e+01 7.809520363807678223e-01 -5.326286151496537058e-14 -4.570241483436293661e-14 -2.968958222717213435e-14 1.205725786140171563e-13
5.440000000000000000e+02 2.999427604675292969e+01 4.874615371227264404e-01 8.811282595482666791e-14 -2.367430524622543553e-13 -4.458906795222830621e-14 -5.526626722994303076e-14
5.450000000000000000e+02 3.138875198364257812e+01 1.944160819053649902e+00 5.379482531089538333e-14 2.305492561725970557e-14 2.305492561725970557e-14 -2.378026161403701266e-13
5.460000000000000000e+02 3.281659317016601562e+01 2.374701261520385742e+00 -4.508287460795040724e-14 -1.932123149081706182e-14 -1.932123149081706182e-14 -4.955245401830864205e-14
5.470000000000000000e+02 3.410680770874023438e+01 1.641614198684692383e+00 -1.981316586491255194e-13 -1.878532052135284403e-13 -1.157954618693016191e-13 1.086280994625973828e-13
5.480000000000000000e+02 3.171941566467285156e+01 2.468415737152099609e+00 9.156487146191188975e-14 2.108081504498260372e-13 9.071190250776323127e-14 -1.690805698575936766e-13
5.490000000000000000e+02 2.895799064636230469e+01 2.354109287261962891e+00 1.136109232407513103e-13 -1.114379245890743941e-13 6.519006437063470851e-16 -1.908348797724761930e-14
5.500000000000000000e+02 2.495615386962890625e+01 2.622480154037475586e+00 1.084795095548582444e-13 -3.195163860054972549e-13 -6.331105751418084071e-14 1.244775631311853537e-13
5.510000000000000000e+02 2.926543617248535156e+01 6.709547519683837891e+00 -7.758703212236775504e-14 3.327560124145867437e-13 7.655069069953390759e-14 -1.051960913669124087e-13
5.520000000000000000e+02 2.934024429321289062e+01 8.223291397094726562e+00 -2.178133975266893785e-13 -3.221033465991562927e-13 -1.619750205272482702e-13 -1.051938755287223914e-13
5.530000000000000000e+02 2.896268463134765625e+01 1.546180629730224609e+01 4.495406054783740446e-13 -1.275963791005571557e-13 9.658326384758691985e-14 6.551261981090506642e-15
5.540000000000000000e+02 3.406654739379882812e+01 1.209663486480712891e+01 7.577960611446221684e-13 1.875168992521505928e-13 2.835938948952954064e-13 4.657884321301875019e-14
5.550000000000000000e+02 3.547727966308593750e+01 1.254261684417724609e+01 4.818374974187300541e-13 2.980036736040941880e-13 2.339523431753309790e-13 -2.027729960123961922e-15
5.560000000000000000e+02 3.783641052246093750e+01 1.038319778442382812e+01 5.857934173543813405e-14 -5.710330212155279028e-14 4.428108518441986651e-16 -9.970369256769029409e-14
5.570000000000000000e+02 3.888911437988281250e+01 9.016628265380859375e+00 -1.677488714341840437e-13 -1.176433218419772886e-13 -8.561765662759568407e-14 5.202019387760868988e-15
5.580000000000000000e+02 3.939686203002929688e+01 5.848715305328369141e+00 -1.332182384154376176e-13 -3.315992229066533348e-13 -1.394452316203637077e-13 -1.057139402058093758e-13
5.590000000000000000e+02 3.803961944580078125e+01 3.065710783004760742e+00 -2.879411661362019093e-13 -3.979090548809210981e-13 -2.057550635946314710e-13 1.301574713080070472e-14
5.600000000000000000e+02 4.017904663085937500e+01 3.952008008956909180e+00 2.197698810045209394e-14 -2.879624707088912494e-13 -7.979564003914724202e-14 -7.673908437953042005e-14
5.610000000000000000e+02 4.185906219482421875e+01 2.278501272201538086e+00 2.477085919196098107e-13 -2.140958173550353005e-13 1.008383745157003658e-14 1.731179490125495102e-14
5.620000000000000000e+02 4.527507400512695312e+01 1.779788374900817871e+00 6.205269181521269606e-14 -6.490788402634464771e-14 -8.565583621417669803e-16 -1.185696116621061738e-14
5.630000000000000000e+02 4.440847015380859375e+01 1.329959511756896973e+00 1.216926678784119309e-13 -8.509884555927063610e-14 1.097814754277533569e-14 1.419077918731912955e-14
5.640000000000000000e+02 4.522000122070312500e+01 1.102402091026306152e+00 1.851439737198673496e-13 7.934741730851457842e-14 7.934741730851457842e-14 1.886066410201111404e-14
5.650000000000000000e+02 4.686206054687500000e+01 9.166617393493652344e-01 6.749162589480411922e-14 -6.257691711813659352e-14 1.474412463593668260e-15 -7.955428308302481266e-14
5.660000000000000000e+02 4.855863571166992188e+01 1.106082797050476074e+00 9.246583669098376590e-14 3.962821620872615525e-14 3.962821620872615525e-14 1.368598397317229848e-14
5.670000000000000000e+02 5.083281707763671875e+01 5.348991394042968750e+00 2.509445830387729837e-13 6.179672523481602453e-14 9.382239044919762905e-14 -2.682406129628136376e-14
5.680000000000000000e+02 5.286761474609375000e+01 6.556329727172851562e+00 1.412040514896240051e-13 -8.110400609299180802e-15 3.992809636524027872e-14 1.085719039087447435e-13
5.690000000000000000e+02 5.589131164550781250e+01 1.854107141494750977e+00 6.121610786639572477e-14 -1.338928425596852545e-13 -2.180302108561321672e-14 9.984483027955948914e-15
5.700000000000000000e+02 5.350170898437500000e+01 7.068926811218261719e+00 1.191456059247003596e-13 1.311265684792242703e-13 7.508165096592467336e-14 -3.621223736453502151e-14
5.710000000000000000e+02 5.628350448608398438e+01 2.803003787994384766e+00 5.960762618087769860e-14 -1.231444552449514895e-13 -1.906104838040895838e-14 4.178859745762077138e-14
5.720000000000000000e+02 5.663467407226562500e+01 1.880759477615356445e+00 7.929654112157069612e-14 3.398423239326341105e-14 3.398423239326341105e-14 -3.079410641412816396e-14
5.730000000000000000e+02 6.073040390014648438e+01 -1.695757389068603516e+00 1.232816339248252180e-13 -3.866691512875546077e-14 2.538441530000774826e-14 3.804988550799859315e-14
5.740000000000000000e+02 6.020465469360351562e+01 -1.763187766075134277e+00 1.156495960195208506e-13 -4.193778367655477679e-14 2.211354505814253774e-14 -1.094983207838157169e-13
5.750000000000000000e+02 6.203225326538085938e+01 -1.461555719375610352e+00 6.582085001821322279e-14 -3.835496102579799560e-13 -9.531862332854551534e-14 -8.010883216546041408e-14
5.760000000000000000e+02 6.142568206787109375e+01 -9.143428802490234375e-01 1.295388492653093415e-13 -2.647399985865328542e-13 -4.056034547399341161e-14 -1.306633024434483703e-13
5.770000000000000000e+02 6.367282867431640625e+01 -5.739095807075500488e-01 9.131309261240644348e-14 -2.353715096090058800e-13 -4.321752509897983097e-14 -4.444837577968936693e-14
5.780000000000000000e+02 6.531214141845703125e+01 -9.883346557617187500e-01 6.148522039813378304e-14 -1.109020373365326995e-13 -1.482504508151967493e-14 1.306213709244274934e-13
5.790000000000000000e+02 6.616932678222656250e+01 -8.737483620643615723e-01 4.541114730885649486e-14 -1.177909224152340339e-13 -2.171393354835279843e-14 4.737733439613180109e-14
5.800000000000000000e+02 6.707197570800781250e+01 -7.675299644470214844e-01 1.813932034092080592e-13 1.234908984966420764e-13 9.146522650599689386e-14 9.451505333588072766e-14
5.810000000000000000e+02 6.959535217285156250e+01 -3.398565948009490967e-01 3.474996373010845463e-14 1.292702110720217457e-13 4.920605142419952338e-14 -2.494596563552050478e-14
5.820000000000000000e+02 7.115076446533203125e+01 -8.855269551277160645e-01 -7.043754549898237349e-14 -2.131913081401121124e-13 -8.508866083511285039e-14 5.853480813120329196e-14
5.830000000000000000e+02 7.566098022460937500e+01 -3.450189352035522461e+00 -1.688299802423461754e-14 -1.444884115782071876e-13 -4.841142609945774111e-14 2.029039981280185423e-14
5.840000000000000000e+02 5.977095413208007812e+01 8.446750640869140625e-01 1.609792079368746465e-13 4.611561783482431842e-14 6.212845044201512068e-14 -1.576687727860431876e-13
5.850000000000000000e+02 6.279115676879882812e+01 -1.347322940826416016e+00 6.417591881090894956e-14 -3.842545856155843431e-13 -9.602359190988632442e-14 -2.368073998611913700e-13
5.860000000000000000e+02 6.032395553588867188e+01 -7.384383678436279297e-01 2.529102415774892032e-13 -1.661155886239704116e-13 2.603839249792384847e-14 -2.695008963443743660e-14
5.870000000000000000e+02 7.415652465820312500e+01 -3.596526861190795898e+00 4.835278770258522041e-14 1.122245200414762056e-13 4.817319300084478562e-14 4.822605802114882101e-14
5.880000000000000000e+02 7.708763885498046875e+01 -4.174328327178955078e+00 5.581670989665034333e-15 7.101856944321735532e-14 2.298007162164494854e-14 8.122443554336652993e-14
5.890000000000000000e+02 1.296915435791015625e+01 2.497876644134521484e+00 -1.458810557162376620e-13 -1.540223433819584709e-13 -8.997101972945883985e-14 5.624807667163264635e-14
5.900000000000000000e+02 1.295939922332763672e+01 6.974288463592529297e+00 1.632366252802067152e-13 -2.154334450090757136e-14 4.250798253972384866e-14 -8.372433470257498178e-14
5.910000000000000000e+02 1.172996807098388672e+01 8.164945602416992188e+00 1.305543943352222014e-13 5.595188619063676261e-14 5.595188619063676261e-14 -4.421245677508831018e-14
5.920000000000000000e+02 1.217023277282714844e+01 2.979276657104492188e+00 -1.407379800807267989e-13 3.118561859487625765e-14 -3.286570844575516237e-14 1.571729942376198785e-14
5.930000000000000000e+02 7.046985626220703125e+01 -9.911389946937561035e-01 4.436929000747012741e-14 1.901541024521089668e-14 1.901541024521089668e-14 2.344263631414052196e-14
5.940000000000000000e+02 7.026329040527343750e+01 -2.479035705327987671e-01 -3.023395336171352810e-14 -1.044593082280727281e-13 -4.040797779930951905e-14 9.367914023715798177e-14
5.950000000000000000e+02 6.891804504394531250e+01 -4.068315029144287109e-01 2.572736674307657401e-13 1.560110954269486316e-13 1.239854302125670271e-13 7.973943093276744665e-14
5.960000000000000000e+02 6.615956878662109375e+01 -1.902146041393280029e-01 1.695321942725425135e-13 2.690570341393541676e-14 5.893136862831702127e-14 5.155514483747881960e-14
5.970000000000000000e+02 6.786749267578125000e+01 -8.375459313392639160e-01 4.641698538119382045e-14 -7.160890397360855641e-14 -7.557575238911241888e-15 -1.831120568758851097e-14
5.980000000000000000e+02 7.147154235839843750e+01 1.107931435108184814e-01 9.006972278473648896e-14 -1.901534349901465304e-13 -3.002511230637029682e-14 6.482029404333497502e-14
5.990000000000000000e+02 7.224324035644531250e+01 -1.217024207115173340e+00 -4.965052603404058670e-15 -3.358165796222417621e-14 -1.156401312733682310e-14 5.697171385913094022e-14
6.000000000000000000e+02 7.960740661621093750e+01 6.474856734275817871e-01 3.479285273517290777e-13 2.634895882210053220e-13 1.834254319613148887e-13 8.697496932733028707e-14
6.010000000000000000e+02 7.325199127197265625e+01 -1.245794773101806641e+00 -1.669475342203682183e-14 -7.154894081720652999e-15 -7.154894081720652999e-15 2.842523308746458532e-14
6.020000000000000000e+02 7.641302490234375000e+01 -3.454042911529541016e+00 -2.109574010432640340e-14 1.282118129112413962e-13 3.213482404436016071e-14 3.570982485406881679e-14
6.030000000000000000e+02 7.577970886230468750e+01 -2.679061889648437500e+00 3.421337513428643340e-14 1.519157250082919797e-13 5.583872936514716612e-14 3.172751978134345785e-14
6.040000000000000000e+02 7.882201385498046875e+01 1.426951527595520020e+00 2.250427220875511614e-13 -1.323078609562558516e-13 2.782045833938859292e-14 -3.620857479407109392e-14
6.050000000000000000e+02 5.657727050781250000e+01 3.524282073974609375e+01 1.572797669757860194e-15 4.642500508913842416e-14 1.439934156882271415e-14 -3.684372075550383652e-14
6.060000000000000000e+02 5.976929855346679688e+01 3.697528457641601562e+01 8.749766319468554876e-14 1.404386318609035511e-13 6.838088851667672996e-14 -3.582846367679304311e-14
6.070000000000000000e+02 2.729460906982421875e+01 2.853326034545898438e+01 1.136605051613517881e-13 -1.328453969584293768e-15 3.369961577045881007e-14 -1.067138253305933981e-13
6.080000000000000000e+02 2.787576866149902344e+01 2.814461517333984375e+01 1.492957233534264461e-13 1.097348327114798516e-13 7.770916749709824711e-14 -3.491728661850906912e-14
6.090000000000000000e+02 6.026439666748046875e+01 1.916600799560546875e+01 4.636782358893518086e-14 1.342493011289441762e-13 5.418513809299016493e-14 -4.083392102233055279e-15
6.100000000000000000e+02 5.736623382568359375e+01 2.340147781372070312e+01 -2.627299182519308302e-14 1.161562030371418586e-14 -4.397211456443669148e-15 -1.166751157494205771e-13
6.110000000000000000e+02 1.023937320709228516e+01 3.498674011230468750e+01 3.332424668243266774e-13 -1.731011947008528201e-14 9.477970708618443929e-14 4.518486076293161402e-14
6.120000000000000000e+02 6.517700195312500000e+01 3.117403602600097656e+01 9.257803806330885954e-14 8.542725039731649539e-14 5.340158518293489087e-14 3.446273146956273237e-14
6.130000000000000000e+02 6.446347808837890625e+01 3.208530426025390625e+01 -4.471268055241880979e-14 9.521479741800287222e-14 1.515063438204886093e-14 -7.661126371965795712e-14
6.140000000000000000e+02 6.311624526977539062e+01 3.376951980590820312e+01 1.146893994705133757e-13 2.893450724242990768e-13 1.212103469894545982e-13 -2.961547362055096111e-14
6.150000000000000000e+02 5.392506027221679688e+01 2.707823753356933594e+01 1.725984670941302368e-13 9.684624386078685698e-14 8.083341125359605472e-14 -1.234153431577469928e-13
6.160000000000000000e+02 6.442169189453125000e+01 2.773308372497558594e+01 -7.359800838430477499e-14 -7.729294905934463999e-14 -4.526728723309482449e-14 5.873629355243256689e-14
6.170000000000000000e+02 5.966275024414062500e+01 2.377108192443847656e+01 -2.381485579485559390e-13 -1.020636618840123355e-13 -1.020636618840123355e-13 -2.239853945764161414e-14
6.180000000000000000e+02 7.930815696716308594e+00 3.378870391845703125e+01 2.344123972621708907e-13 1.004624511293135403e-13 1.004624511293135403e-13 7.438326891278171371e-14
6.190000000000000000e+02 1.904630470275878906e+01 3.142774772644042969e+01 -6.784513678940659598e-14 -2.692689821115479276e-13 -1.011342295716491368e-13 1.084933195800302785e-13
6.200000000000000000e+02 2.001532745361328125e+01 3.025488281250000000e+01 6.124753617687064833e-14 -3.626341306232905293e-13 -9.041597630104689087e-14 3.009836371564884872e-14
6.210000000000000000e+02 6.389398193359375000e+01 2.575855445861816406e+01 4.945563137617389748e-14 -1.160575812970271459e-13 -1.998058395981643781e-14 7.017821492723568151e-16
6.220000000000000000e+02 5.354555130004882812e+01 2.503600120544433594e+01 9.739888203689345270e-14 2.247461656883220638e-13 9.664351838332280176e-14 -7.754709282483882027e-14
6.230000000000000000e+02 5.502157974243164062e+01 3.338022613525390625e+01 -6.861227081281229268e-14 -7.515621019407378589e-14 -4.313054159156039236e-14 5.906142545517023557e-14
6.240000000000000000e+02 6.343845367431640625e+01 2.480435180664062500e+01 -2.162218039840737085e-15 -2.754323462014762747e-13 -8.327837524397738167e-14 6.343069752984872162e-15
6.250000000000000000e+02 1.606277465820312500e+01 3.123888492584228516e+00 -1.335587185551795342e-13 -4.689979958213963407e-13 -1.807670088919619000e-13 -1.074530208192668590e-13
6.260000000000000000e+02 1.273279476165771484e+01 3.672126293182373047e+00 -1.925920225165009270e-13 -3.341696494171819687e-13 -1.580284975143467219e-13 1.995730749442588964e-14
6.270000000000000000e+02 1.288285923004150391e+01 3.127110004425048828e+00 -3.962942915990662340e-14 2.876690584959623598e-14 -3.258756823686526777e-15 -9.438803227511047278e-14
6.280000000000000000e+02 9.302129745483398438e+00 5.728346347808837891e+00 -1.315398798999029006e-13 -2.851289896462633200e-13 -1.250006500218281413e-13 2.322216549643148914e-14
6.290000000000000000e+02 5.573805236816406250e+01 2.448608207702636719e+01 4.083202282149575590e-14 1.204390726690027225e-13 4.838132932477590131e-14 -3.735703627406709859e-14
6.300000000000000000e+02 5.564066314697265625e+01 2.287454986572265625e+01 -1.472054832088280640e-14 3.944214339900511956e-14 7.416478184623515046e-15 -7.004988223594660335e-14
6.310000000000000000e+02 5.294065856933593750e+01 3.070774269104003906e+01 5.562188554251827621e-14 -4.478847306053912458e-14 3.250023914000334940e-15 -1.649538388910978814e-13
6.320000000000000000e+02 4.522568893432617188e+01 3.293728637695312500e+01 8.721858447329009639e-15 2.782436282246225634e-13 8.608965049086009236e-14 -6.471064054611522232e-14
6.330000000000000000e+02 6.270977783203125000e+01 2.036733055114746094e+01 -1.236368050040043132e-13 1.300165894000879230e-13 1.913934471792135689e-15 1.554704715661658909e-13
6.340000000000000000e+02 5.276176834106445312e+01 3.263074493408203125e+01 1.253777490899457558e-13 1.870524880278300051e-14 4.322489767375273240e-14 -1.032628538612852948e-14
6.350000000000000000e+02 6.181533432006835938e+01 1.893216514587402344e+01 -8.658597791663322218e-14 -3.710827624998566665e-14 -3.710827624998566665e-14 -4.618266896292896884e-14
6.360000000000000000e+02 6.295325851440429688e+01 1.925242996215820312e+01 -1.432494530981265335e-13 -2.707941123669243416e-14 -5.109865845341274304e-14 7.402646475408031224e-14
6.370000000000000000e+02 6.351558685302734375e+01 2.027425575256347656e+01 -8.710126532789769227e-14 5.417278496448740821e-14 -9.878544617242853570e-15 1.712456809384657608e-13
6.380000000000000000e+02 5.501857376098632812e+01 2.413666534423828125e+01 8.262482495066669763e-14 2.397290096197834258e-14 3.197931557150784920e-14 -9.933790985974799703e-14
6.390000000000000000e+02 5.394007110595703125e+01 3.350244903564453125e+01 -4.030492099468298284e-14 -1.727353781115926329e-14 -1.727353781115926329e-14 3.757230800354588451e-14
6.400000000000000000e+02 1.961509895324707031e+01 3.239410018920898438e+01 1.662473090235320333e-14 -3.474449731828005428e-13 -9.924607115947489677e-14 -1.018971487591092961e-13
6.410000000000000000e+02 2.037737274169921875e+01 2.852386093139648438e+01 -1.204361182180826995e-13 -4.633740223122795321e-13 -1.751430489353722475e-13 5.672738551142954277e-14
6.420000000000000000e+02 1.247374534606933594e+01 3.520064926147460938e+01 1.147305313904320445e-13 -5.376940754621417629e-14 1.828833749207853937e-14 1.843563990973785122e-14
6.430000000000000000e+02 6.251226425170898438e+01 3.324353790283203125e+01 2.771947845954872425e-14 -5.276829337662368793e-15 6.732794694214259273e-15 -1.168801248277104299e-13
6.440000000000000000e+02 6.447550201416015625e+01 1.976839828491210938e+01 -5.203088597450188091e-14 5.765230758510684912e-16 -1.543630979603752978e-14 -3.032617830901057632e-14
6.450000000000000000e+02 6.305390930175781250e+01 2.380415344238281250e+01 5.945925988983663535e-14 -6.601935388346816258e-14 -1.968028536902637071e-15 8.283153487111463709e-14
6.460000000000000000e+02 5.553409957885742188e+01 3.395494842529296875e+01 -3.223458758488777220e-14 1.691889765223150710e-13 4.108631566478865293e-14 -8.462750221730971911e-14
6.470000000000000000e+02 2.246478843688964844e+01 2.529675102233886719e+01 4.515224999446232346e-14 -2.551547298099143823e-13 -6.300074529988833327e-14 1.388139278003797106e-14
6.480000000000000000e+02 5.314772033691406250e+01 3.002794075012207031e+01 5.899941586716764275e-14 7.103641134521831990e-14 3.901074951896850440e-14 2.905666904458835409e-14
6.490000000000000000e+02 5.387895584106445312e+01 3.019763374328613281e+01 1.317810606731723011e-13 1.937304483501378627e-13 9.765345270699304914e-14 -2.748587016082777723e-14
6.500000000000000000e+02 6.058983612060546875e+01 2.343791389465332031e+01 -1.623680709198285776e-13 2.191558329397384070e-14 -4.213574544072347383e-14 2.289174302590527010e-14
6.510000000000000000e+02 5.276524353027343750e+01 2.911605644226074219e+01 -3.010361870805361439e-14 4.255055187455400803e-15 -7.754568844421227264e-15 -4.503259134406960296e-14
6.520000000000000000e+02 4.683767318725585938e+01 2.647364997863769531e+01 -2.196845000834377060e-14 1.735887502534241844e-13 4.548608939589776634e-14 4.236205570357087780e-14
6.530000000000000000e+02 5.498641586303710938e+01 3.448219680786132812e+01 -5.811165757580935565e-14 6.659690160448761276e-14 2.545572022757350977e-15 8.469796858225769887e-14
6.540000000000000000e+02 6.257810211181640625e+01 3.488569259643554688e+01 3.003609662963029059e-14 1.043745100656572056e-13 4.032318302502578555e-14 -3.004636605708280173e-14
6.550000000000000000e+02 5.863631248474121094e+00 2.788810920715332031e+01 2.746234127961894728e-14 -9.490003184328688057e-13 -2.764613895884365791e-13 2.440139968340124255e-14
6.560000000000000000e+02 3.466166555881500244e-01 2.602489852905273438e+01 9.981462000246271726e-14 1.571550642441923995e-13 7.709090798450196624e-14 -5.101602191907861350e-14
6.570000000000000000e+02 6.383866500854492188e+01 2.846722412109375000e+01 -1.094585034590311867e-13 9.034206081793769161e-14 -5.734933554657701063e-15 2.565762408307872833e-14
6.580000000000000000e+02 5.980553817749023438e+01 2.320672225952148438e+01 -1.524810957836617020e-13 -1.959809437402249693e-14 -5.162375789433820694e-14 1.041528584840197003e-13
6.590000000000000000e+02 5.902679443359375000e+01 2.300345039367675781e+01 -1.553382260061769715e-13 2.492837445527192747e-14 -3.912295427942538706e-14 -7.276344376203405795e-14
6.600000000000000000e+02 6.405891418457031250e+01 2.989351844787597656e+01 -9.732884257655088911e-14 1.412914381847263368e-13 1.318877732719991869e-14 -1.531203820421406236e-13
6.610000000000000000e+02 5.543788146972656250e+01 3.504664611816406250e+01 -1.467170120136407178e-15 -6.287872321581453646e-16 -6.287872321581453646e-16 -2.500161739422100682e-14
6.620000000000000000e+02 6.326380920410156250e+01 3.004808235168457031e+01 9.930522116424755907e-14 1.798122333538168527e-13 8.373523771067203914e-14 8.061416693959464613e-15
6.630000000000000000e+02 6.417253112792968750e+01 3.062743568420410156e+01 2.095927123806247405e-14 2.377372929594778750e-13 7.760896688756985240e-14 3.811148174392292587e-14
6.640000000000000000e+02 5.536605453491210938e+01 2.353275871276855469e+01 6.083385883795880411e-14 -1.967929603454397769e-14 1.234636917983762683e-14 -8.125676848502912109e-15
6.650000000000000000e+02 6.514912414550781250e+01 2.853822898864746094e+01 -8.545617149026754622e-14 -8.237502477012603741e-14 -5.034935616761264388e-14 1.866761817825510206e-13
6.660000000000000000e+02 6.393632888793945312e+01 2.917238426208496094e+01 -4.957963699965192705e-14 -6.699936422717781004e-14 -3.497369901279620552e-14 -9.944180353292642049e-14
6.670000000000000000e+02 5.331219482421875000e+01 2.938916015625000000e+01 7.172348381444954013e-14 5.361410913753278384e-14 3.760127991847377060e-14 -1.522981366670547732e-13
6.680000000000000000e+02 6.272704696655273438e+01 3.423323440551757812e+01 2.013380883184295173e-14 7.725519849495141034e-14 2.921670067337900356e-14 -1.344183960102704467e-13
6.690000000000000000e+02 2.072826576232910156e+01 3.357279205322265625e+01 3.192461757190595550e-14 -1.235708719593900384e-13 -2.749387462217933037e-14 7.244627905119826322e-15
6.700000000000000000e+02 9.929866790771484375e+00 2.299714660644531250e+01 3.314486814350037225e-13 -1.095807811352968175e-13 6.656037754380200733e-14 3.926797987252247935e-14
6.710000000000000000e+02 8.060264587402343750e+00 3.494888305664062500e+01 2.501372047859773406e-13 -7.580213719085918123e-14 5.230052027853544783e-14 2.426822916343392145e-14
6.720000000000000000e+02 6.377809524536132812e+01 7.835961818695068359e+00 -1.959684720271095970e-13 -1.182996978372000130e-13 -9.428045231454559860e-14 8.174929103880318459e-14
6.730000000000000000e+02 6.431913757324218750e+01 5.262498378753662109e+00 2.677762186791519949e-14 5.722707057580558865e-14 2.520140874955577315e-14 -2.656143703691927344e-14
6.740000000000000000e+02 6.639712524414062500e+01 6.391608715057373047e+00 -5.018812852830047133e-14 6.999269734761157102e-14 5.941370730496624633e-15 5.168604192101571015e-14
6.750000000000000000e+02 6.554228973388671875e+01 7.015582561492919922e+00 -1.527656446438305227e-13 2.090347074037643416e-13 1.688071781154060896e-14 -2.319436672213555026e-15
6.760000000000000000e+02 1.897647666931152344e+01 3.287081146240234375e+01 4.680314431371526696e-14 -3.001981530113134733e-13 -7.601850328690581970e-14 3.789287270463195800e-14
6.770000000000000000e+02 5.908819675445556641e+00 2.867794990539550781e+01 -2.027418760219140692e-14 -8.322059946545834475e-13 -2.557440479007688783e-13 1.705827741074614689e-16
6.780000000000000000e+02 4.476207733154296875e+00 2.904009246826171875e+01 -1.377682283575445976e-13 -7.681832058480109193e-13 -2.717854424589410955e-13 3.071208990791142457e-14
6.790000000000000000e+02 1.760396766662597656e+01 2.451046371459960938e+01 6.451477264739213791e-14 -6.385271136702744266e-14 1.986176058978882846e-16 -7.375811116386299382e-14
6.800000000000000000e+02 1.983466339111328125e+01 2.273943901062011719e+01 -6.969686600858532310e-14 -4.416286130196067639e-13 -1.533976531952266353e-13 -2.198784231945138945e-13
6.810000000000000000e+02 6.926116466522216797e+00 3.248655700683593750e+01 2.126022373828782147e-14 -3.663942318488967731e-14 -4.613760088090440928e-15 5.845921213472674016e-14
6.820000000000000000e+02 3.632224202156066895e-01 3.322135162353515625e+01 1.027212271134930049e-14 -4.073561963007649167e-13 -1.191252229238576321e-13 3.125712511628346568e-14
6.830000000000000000e+02 1.899759292602539062e+01 3.457444763183593750e+01 1.335811208825685159e-13 -1.314736215946368802e-13 6.322498499069617410e-16 -7.473059138467155055e-15
6.840000000000000000e+02 1.667765045166015625e+01 3.432487487792968750e+01 1.546824056645676460e-13 -1.853377613056719775e-13 -9.196603473606099893e-15 1.807632853351257701e-14
6.850000000000000000e+02 1.209949970245361328e+00 3.476142883300781250e+01 -1.046844546676506046e-14 -5.992487864432682887e-13 -1.829151793138888982e-13 1.061292506242435263e-13
6.860000000000000000e+02 1.783910369873046875e+01 2.387862777709960938e+01 -3.620221527070310863e-14 -1.070171308883462180e-13 -4.296580384771479799e-14 -4.044622303094394522e-14
6.870000000000000000e+02 1.553280067443847656e+01 2.169994163513183594e+01 2.352942059941076636e-13 -2.194162684659647922e-13 4.763386764157018574e-15 -1.657911682289084365e-13
6.880000000000000000e+02 1.644930267333984375e+01 2.314442634582519531e+01 5.698666907284766214e-14 -4.420356631727392904e-14 3.834930657265530479e-15 1.087121928936007897e-13
6.890000000000000000e+02 1.179573917388916016e+01 3.593534851074218750e+01 8.911204700578004290e-14 -7.560071445006800311e-15 2.446559292234185695e-14 -1.723583298654518536e-14
6.900000000000000000e+02 1.514268016815185547e+01 3.460548782348632812e+01 2.067731429871225157e-13 8.861706128019536388e-14 8.861706128019536388e-14 -8.017418245140697786e-14
6.910000000000000000e+02 1.570725917816162109e+01 3.367361450195312500e+01 2.039673361849472788e-13 -9.558921986200716314e-14 3.251343760738746591e-14 -7.759170774423659878e-14
6.920000000000000000e+02 1.420969200134277344e+01 3.411811828613281250e+01 2.125910396073155129e-13 -6.901787762180269792e-14 4.307194724040112888e-14 -3.572845534374367513e-15
6.930000000000000000e+02 1.383528900146484375e+01 3.507604980468750000e+01 1.995437642161521086e-13 3.976780723843366394e-14 7.179346906468347944e-14 -2.191135659956704174e-14
6.940000000000000000e+02 9.835659861564636230e-01 2.922530555725097656e+01 -6.340104290636534856e-15 -5.974795311280978183e-13 -1.811458833411369596e-13 -3.795136202370576195e-14
6.950000000000000000e+02 1.443429088592529297e+01 3.476322555541992188e+01 2.970917782618709424e-13 -9.927795347960954864e-15 8.614919351892028065e-14 9.923861049327548089e-14
6.960000000000000000e+02 1.163112926483154297e+01 1.696940040588378906e+01 3.114998900098295276e-14 1.048518910584661512e-13 4.080056401783473119e-14 8.358334098630681996e-14
6.970000000000000000e+02 1.498648548126220703e+01 2.265069580078125000e+01 2.580043112748037215e-13 1.907137371203598830e-14 8.312270414079919734e-14 2.147259353288931416e-14
6.980000000000000000e+02 1.150461292266845703e+01 2.222584533691406250e+01 4.606441096621782805e-13 6.016605806234351372e-14 1.562430469292247492e-13 9.539835962206824616e-14
6.990000000000000000e+02 7.459290981292724609e+00 2.374091529846191406e+01 1.022968212552712378e-14 -3.730611739666267468e-13 -1.088494461123738766e-13 9.752000097208723961e-14
7.000000000000000000e+02 1.542641258239746094e+01 2.060337638854980469e+01 1.774253351660357025e-13 2.132922744674248250e-13 1.172152788242800114e-13 -1.256405596965562421e-13
7.010000000000000000e+02 1.533411693572998047e+01 1.848178672790527344e+01 2.976412790279409082e-13 3.605865335053887177e-14 1.001099837793020808e-13 -7.085484136264488808e-14
7.020000000000000000e+02 1.648481369018554688e+00 2.922176170349121094e+01 -7.841314674395666318e-14 -6.283679631312322211e-13 -2.120343424493256745e-13 2.006650528792001953e-14
7.030000000000000000e+02 6.317866802215576172e+00 2.473056411743164062e+01 -5.436985903812738274e-16 -8.237500850709345013e-13 -2.472881383171199321e-13 6.738560023969745669e-15
7.040000000000000000e+02 6.887805461883544922e+00 2.424635314941406250e+01 -4.883897444991382175e-14 -3.640631090866264241e-13 -1.238706267550279683e-13 1.937770961486090515e-13
7.050000000000000000e+02 2.297748756408691406e+01 2.705236244201660156e+01 1.412091082763191133e-14 -4.514576646547086014e-13 -1.312010260634197123e-13 3.024851216401093501e-14
7.060000000000000000e+02 2.462978172302246094e+01 2.813535499572753906e+01 1.042418850349079162e-13 1.608075109703344108e-14 3.609679016195604939e-14 7.500662417558867645e-14
7.070000000000000000e+02 6.629357910156250000e+01 2.018303680419921875e+01 -1.261645410539913303e-13 -9.982146402867653201e-14 -6.779579881429492749e-14 -1.141755858965771281e-14
7.080000000000000000e+02 6.786191558837890625e+01 2.009429359436035156e+01 -1.410644740124436525e-13 -2.892109566155626199e-13 -1.290826305436545973e-13 1.115702040303812037e-13
7.090000000000000000e+02 2.584225654602050781e+01 1.566796112060546875e+01 6.902917907419814370e-13 -4.729278695546866584e-14 1.928996919879980010e-13 -3.449390838065891085e-13
7.100000000000000000e+02 2.092848014831542969e+01 1.242681312561035156e+01 -2.786298574608786320e-15 -1.841979260092108106e-13 -5.609526515168439254e-14 -7.864128320983834741e-14
7.110000000000000000e+02 6.500254821777343750e+01 2.099527549743652344e+01 -3.051323028881863797e-14 -1.503299438057603687e-13 -5.425295155074734421e-14 5.027049909428916302e-15
7.120000000000000000e+02 7.144463348388671875e+01 1.522244262695312500e+01 9.844656692495692973e-14 -4.931051091538671272e-14 1.474081612524470730e-14 3.953730585656324570e-14
7.130000000000000000e+02 6.980104827880859375e+01 2.009737014770507812e+01 -3.220752996442068083e-14 1.234496174989246908e-13 2.737262693797756080e-14 -2.957922738667205509e-14
7.140000000000000000e+02 6.879027557373046875e+01 2.039913368225097656e+01 -1.455906792693917318e-13 7.485684164545980401e-14 -2.122015060955322052e-14 -2.567457151828739237e-13
7.150000000000000000e+02 7.117197418212890625e+01 9.666793823242187500e+00 2.433512647035535048e-13 2.987349137593270365e-13 1.626258535388641624e-13 6.171353304686849617e-14
7.160000000000000000e+02 7.183655548095703125e+01 1.288071727752685547e+01 -5.904516242258295300e-14 6.619683100284046162e-14 2.145500574077252587e-15 -1.833828702497812546e-14
7.170000000000000000e+02 3.248400115966796875e+01 1.337544059753417969e+01 2.040936592905689961e-13 -1.870369771604998843e-13 5.117006078976743880e-15 -6.674441408631784367e-14
7.180000000000000000e+02 7.222295379638671875e+01 1.462992191314697266e+01 -2.627107753073228830e-14 -1.125903298544728148e-14 -1.125903298544728148e-14 -4.529036379870982065e-14
7.190000000000000000e+02 7.005165100097656250e+01 6.053412437438964844e+00 -2.828430374570041483e-14 -5.787279428468364295e-14 -2.584712907030203843e-14 -9.750590973197671707e-15
7.200000000000000000e+02 7.091912078857421875e+01 8.169338226318359375e+00 -1.342491791561997716e-13 3.396653618092937421e-14 -3.008479085970204581e-14 1.436697982803991636e-13
7.210000000000000000e+02 6.859848785400390625e+01 7.479122638702392578e+00 1.412853243009130552e-14 6.055085327181988081e-15 6.055085327181988081e-15 9.120828753177677439e-15
7.220000000000000000e+02 6.999060821533203125e+01 6.858917713165283203e+00 -4.612174442413180878e-15 1.124007232232958342e-13 3.233656696360540095e-14 1.014838170096399317e-13
7.230000000000000000e+02 7.125288391113281250e+01 8.728808403015136719e+00 1.648546886024240821e-13 2.536557932013988603e-13 1.255531458963995983e-13 8.482593831992887856e-14
7.240000000000000000e+02 1.902831268310546875e+01 1.655833816528320312e+01 4.983705505570701355e-13 2.250251038022482719e-13 2.170186908867846598e-13 -2.546015427564579658e-13
7.250000000000000000e+02 2.263119316101074219e+01 1.958554077148437500e+01 3.872168766725671285e-14 -3.722880565024816457e-13 -1.000699089565015854e-13 5.193798001271524023e-14
7.260000000000000000e+02 6.785503387451171875e+01 7.289476394653320312e+00 -7.416781083605453184e-14 -1.690390449143874818e-13 -7.296205604750624629e-14 4.697281856557745938e-14
7.270000000000000000e+02 6.787980651855468750e+01 6.036112785339355469e+00 -1.140639503422608003e-13 -1.403864546313526862e-13 -7.633512420258947717e-14 1.758688680797426684e-13
7.280000000000000000e+02 7.170182037353515625e+01 9.306441307067871094e+00 3.673385041784958671e-14 1.529959291852664438e-13 5.691893354212163025e-14 4.756857071869929898e-14
7.290000000000000000e+02 5.452573013305664062e+01 1.186138820648193359e+01 9.208869696528468318e-14 2.682213175522751847e-13 1.080930050328943182e-13 3.797222762157018757e-16
7.300000000000000000e+02 6.054474258422851562e+01 1.154298400878906250e+01 1.441834051782962811e-14 9.768118795381794395e-14 3.362985752505473491e-14 -3.090600454865814056e-15
7.310000000000000000e+02 6.061433029174804688e+01 1.651997566223144531e+01 5.921502302169354137e-14 2.537786773532547252e-14 2.537786773532547252e-14 -2.788139558367996179e-14
7.320000000000000000e+02 7.010072326660156250e+01 1.953091812133789062e+01 -2.369651326425631713e-15 4.336184460541209207e-13 1.293746332937592558e-13 8.130274882153787352e-14
7.330000000000000000e+02 6.124909210205078125e+01 1.819868278503417969e+01 7.042536177706906764e-14 -9.849782766485886548e-15 1.817267344906507015e-14 9.472691321664797326e-14
7.340000000000000000e+02 7.239350891113281250e+01 1.382680511474609375e+01 -2.890622582876062330e-14 1.706154071105456249e-13 4.251275641741457390e-14 8.224574721358429708e-14
7.350000000000000000e+02 5.991688919067382812e+01 1.817172813415527344e+01 1.095862699087950254e-13 4.696554424662643945e-14 4.696554424662643945e-14 2.702726619439356492e-14
7.360000000000000000e+02 6.861046600341796875e+01 6.755275249481201172e+00 -2.100781808440140702e-14 -1.005052500100724056e-13 -3.645391958130919652e-14 5.919524988457283698e-14
7.370000000000000000e+02 3.204914093017578125e+01 2.407500648498535156e+01 1.447615898680920665e-13 -7.521216180243761595e-14 2.086482875850951407e-14 -5.272955263071511800e-14
7.380000000000000000e+02 3.050640106201171875e+01 1.061180210113525391e+01 -1.584776418168259982e-13 -2.051718305884700499e-13 -1.090948417215888144e-13 -9.972811422162553008e-14
7.390000000000000000e+02 6.714585113525390625e+01 6.535053730010986328e+00 -1.173594235031119593e-13 -5.029689433499150153e-14 -5.029689433499150153e-14 8.638342184575861782e-14
7.400000000000000000e+02 7.025606536865234375e+01 1.808312225341796875e+01 -1.078046953464396884e-13 -4.620201180731246804e-14 -4.620201180731246804e-14 -3.796851613495355604e-14
7.410000000000000000e+02 2.274790191650390625e+01 1.513546276092529297e+01 2.639192575419613274e-13 -1.156464924908021108e-13 4.448182680484233376e-14 -5.956639939326893729e-14
7.420000000000000000e+02 5.417446517944335938e+01 1.344075965881347656e+01 3.739070752778635154e-14 1.990283887134611240e-13 7.092572785593470597e-14 4.284556921491794457e-14
7.430000000000000000e+02 7.224108886718750000e+01 9.952233314514160156e+00 4.802315297269994787e-14 -7.092054401429750965e-14 -6.869217397182563259e-15 6.587772997468724356e-14
7.440000000000000000e+02 7.827589416503906250e+01 1.351564598083496094e+01 -4.104145002363848715e-14 -6.334014123745776437e-14 -3.131447602307615985e-14 -1.677357390353698130e-13
7.450000000000000000e+02 5.511357879638671875e+01 1.196994781494140625e+01 2.405619987607722499e-14 1.704381265028170889e-13 5.834829825248147306e-14 -9.984959229878895282e-14
7.460000000000000000e+02 6.901936340332031250e+01 1.978296279907226562e+01 1.586423994659458530e-15 2.751855817870185739e-13 8.303160405325610283e-14 1.863294945853716245e-13
7.470000000000000000e+02 6.935800933837890625e+01 1.921556091308593750e+01 -1.723269151075040861e-13 -2.797336472702693921e-13 -1.356181741343429059e-13 4.710659556113501456e-14
7.480000000000000000e+02 7.250824737548828125e+01 1.302268791198730469e+01 -7.362630606100664665e-14 1.285741939348675200e-13 1.648436568453190421e-14 -7.810609391244519029e-14
7.490000000000000000e+02 5.456745147705078125e+01 1.106654834747314453e+01 -9.084641811605079220e-14 2.813224642388839625e-13 5.714281451447630888e-14 1.430926506765681726e-17
7.500000000000000000e+02 6.258528900146484375e+01 7.951820850372314453e+00 -6.055709166947640873e-15 -3.690851538783700148e-14 -1.288926732408374534e-14 4.965181437115336049e-14
7.510000000000000000e+02 6.275720596313476562e+01 8.982658386230468750e+00 -7.016868368899670250e-14 -8.726097508416838511e-14 -4.722889695432316848e-14 3.298824446706970573e-15
7.520000000000000000e+02 2.837277221679687500e+01 1.405400085449218750e+01 3.609619385076118236e-13 3.834527096888140640e-13 2.233243971694331975e-13 -2.576545205489055856e-13
7.530000000000000000e+02 3.174814987182617188e+01 2.491088676452636719e+01 9.696697654895669594e-14 1.330591724042068380e-13 6.900784875170720700e-14 -1.499463124195535291e-14
7.540000000000000000e+02 2.986869239807128906e+01 1.503766727447509766e+01 2.470616484832877102e-13 -3.516259278104477692e-13 -3.136927905476351308e-14 -1.683241152255869622e-14
7.550000000000000000e+02 2.372795677185058594e+01 1.664806365966796875e+01 4.129765648376582110e-13 -1.432666783601418969e-13 8.091296458800217861e-14 -8.092815697094413174e-14
7.560000000000000000e+02 2.907573127746582031e+01 1.488314342498779297e+01 4.495558385188974659e-13 -8.183890712462268957e-14 1.103150773854033595e-13 -2.286259560575071292e-13
7.570000000000000000e+02 2.725838088989257812e+01 3.013970184326171875e+01 4.676011503999474850e-14 -4.858637567251543332e-14 -5.478779568221449521e-16 1.329346890541465570e-14
7.580000000000000000e+02 2.245397377014160156e+01 2.199549102783203125e+01 1.279256326656161638e-14 -4.520269521104264276e-13 -1.317703135191375385e-13 -2.144474181903417188e-15
7.590000000000000000e+02 2.254905128479003906e+01 2.279835128784179688e+01 4.554473795716565410e-14 -7.124960343940500707e-13 -2.000853774114172423e-13 -1.807796500116667232e-14
7.600000000000000000e+02 2.896002769470214844e+01 2.828516387939453125e+01 1.375608611395295888e-13 1.504565515144523635e-13 8.640522108568915449e-14 -8.418983690533163311e-14
7.610000000000000000e+02 3.091894149780273438e+01 2.650731658935546875e+01 1.197022980004925144e-14 -4.062085073148168080e-14 -8.595186364133023532e-15 -1.487935209071311604e-13
7.620000000000000000e+02 3.030728912353515625e+01 2.720630264282226562e+01 1.672823934494721554e-13 7.169245530352572060e-14 7.169245530352572060e-14 -4.702035744270915973e-14
7.630000000000000000e+02 2.309295463562011719e+01 2.514111137390136719e+01 -1.173566316825178091e-13 -1.875485444030600135e-13 -9.147155553617877799e-14 -8.124302749304228820e-16
7.640000000000000000e+02 1.790843582153320312e+01 1.848178482055664062e+01 4.137362381948644918e-13 4.289457515311428937e-13 2.528045860757804908e-13 -9.937128295786981647e-14
7.650000000000000000e+02 2.065701484680175781e+01 1.482856655120849609e+01 1.481180222960912229e-13 -5.147268025083298268e-15 4.289122767890674037e-14 -1.770162114762482974e-13
7.660000000000000000e+02 2.507129096984863281e+01 1.565783786773681641e+01 3.730189171869541243e-13 1.141142979806455959e-13 1.461399631950272004e-13 -1.877268414503252547e-13
7.670000000000000000e+02 3.225027084350585938e+01 2.321689796447753906e+01 -2.759187633417665292e-14 3.392585827067043369e-14 1.900194538596486869e-15 -2.566104948431742472e-14
7.680000000000000000e+02 2.335490417480468750e+01 2.591370964050292969e+01 6.607826671901559368e-14 -2.461864262795487868e-13 -5.403245193391810475e-14 -7.254590706645431403e-15
7.690000000000000000e+02 3.158047103881835938e+01 1.831791877746582031e+01 4.102187339816154577e-14 -2.569248795918771533e-13 -6.477090185811468226e-14 6.955700392833469303e-14
7.700000000000000000e+02 3.811971664428710938e+01 2.203346252441406250e+01 1.345437839915183953e-13 1.034125720169101759e-13 7.138690680252857135e-14 8.651393268227156041e-14
7.710000000000000000e+02 2.739426612854003906e+01 1.469707965850830078e+01 5.308326478034586238e-13 4.105034996822187754e-13 2.824008659297466695e-13 -1.202423983949138520e-13
7.720000000000000000e+02 2.956963348388671875e+01 1.038103580474853516e+01 -9.142751659918513241e-14 -1.421228586206968458e-13 -7.006511527647002469e-14 -1.962837173612869135e-13
7.730000000000000000e+02 2.210337638854980469e+01 1.408749294281005859e+01 2.024766259604154905e-13 1.096511729613454389e-13 9.363834035415463664e-14 -1.931922910492975265e-13
7.740000000000000000e+02 2.165329933166503906e+01 2.806248283386230469e+01 -7.521711525111315910e-14 -4.897453970142962021e-13 -1.694887584230073130e-13 8.057980958918811720e-14
7.750000000000000000e+02 2.833937072753906250e+01 2.876481437683105469e+01 1.090040126845888413e-13 4.671600834036532257e-14 4.671600834036532257e-14 -1.501489362530639138e-13
7.760000000000000000e+02 2.225259399414062500e+01 2.807805824279785156e+01 2.121934592825332894e-14 -3.569135818056595744e-13 -1.007082736431338943e-13 -8.069615803482296790e-14
7.770000000000000000e+02 2.960471916198730469e+01 2.776764678955078125e+01 1.177047554475757485e-13 9.619584453003995894e-14 6.417017931565835442e-14 -1.028237214882425643e-13
7.780000000000000000e+02 2.180523300170898438e+01 2.113411140441894531e+01 -5.266331804237162073e-14 -3.885775707278271707e-13 -1.323722761178286467e-13 7.374982887570474127e-15
7.790000000000000000e+02 2.187921333312988281e+01 2.287407302856445312e+01 -1.246832498358330099e-14 -3.027247235439650686e-13 -9.455791997927537329e-14 -2.713692138567921214e-14
7.800000000000000000e+02 2.204737663269042969e+01 1.942589569091796875e+01 6.723944046948399089e-14 -4.744435096529220353e-13 -1.221612329523058538e-13 -1.713693070911834204e-13
7.810000000000000000e+02 2.142554473876953125e+01 1.442603206634521484e+01 1.592262834169272390e-13 -1.147639654749260663e-13 1.333869453556740456e-14 -2.400744262675419405e-13
7.820000000000000000e+02 3.161953735351562500e+01 2.149624443054199219e+01 -9.647426087167065845e-14 -6.422158405116132340e-14 -4.820875483210231016e-14 -7.486592861491794815e-14
7.830000000000000000e+02 3.233314895629882812e+01 2.236022186279296875e+01 -6.536924593205512002e-14 -5.139916202617604568e-15 -2.115274880980840683e-14 -1.664673444663061774e-13
7.840000000000000000e+02 3.162207984924316406e+01 2.069591903686523438e+01 1.967688029657840842e-13 -3.004788732825607045e-14 5.001627231956615183e-14 -3.661058340710156289e-14
7.850000000000000000e+02 3.234551620483398438e+01 2.151510429382324219e+01 3.730708504710161799e-14 8.461517619386127453e-14 3.657667837228886776e-14 -5.068116607810646546e-14
7.860000000000000000e+02 3.962325668334960938e+01 2.055419349670410156e+01 1.099234635607015953e-13 6.998552806074601063e-14 5.397269884168699738e-14 4.803027143758867301e-14
7.870000000000000000e+02 2.928514099121093750e+01 5.209763526916503906e+00 1.115777798930614462e-13 2.079473745975057852e-13 9.585754634717016942e-14 -1.135649259635836128e-13
7.880000000000000000e+02 2.751685905456542969e+01 1.939406156539916992e+00 1.879860877422936949e-13 -3.381190862234220718e-14 4.625225102548001510e-14 -1.304020097198793637e-14
7.890000000000000000e+02 2.101703643798828125e+01 2.805289506912231445e+00 3.515667845819386850e-14 -1.221856952638225580e-13 -2.610870639694132245e-14 -5.276425387649823218e-14
7.900000000000000000e+02 1.855114364624023438e+01 6.508022308349609375e+00 -5.988779757477510901e-14 -3.459228346477938310e-13 -1.217431916996497554e-13 -6.775480919591139739e-14
7.910000000000000000e+02 2.690136909484863281e+01 2.288161516189575195e+00 -1.739824308385172491e-14 -1.904601828897969917e-13 -6.235752880853415170e-14 -8.113543609753262609e-14
7.920000000000000000e+02 2.574184417724609375e+01 2.588000535964965820e+00 -3.598497503665490371e-14 -3.829760537562079681e-14 -2.228477446249588906e-14 -1.557543563525040642e-13
7.930000000000000000e+02 2.151746749877929688e+01 4.052937030792236328e+00 -2.092418882745309544e-14 -5.471845714163578456e-14 -2.269279362132007455e-14 7.950304097784771651e-14
7.940000000000000000e+02 3.054254913330078125e+01 4.494966030120849609e+00 2.994327062775387072e-13 1.740792433162566266e-13 1.420535781018750221e-13 -2.010241067574095042e-13
7.950000000000000000e+02 2.201418876647949219e+01 3.232876300811767578e+00 -2.882673686885849074e-14 -1.953581068615817262e-13 -6.725545278031888619e-14 1.230459825826354936e-13
7.960000000000000000e+02 2.276075553894042969e+01 6.137405872344970703e+00 -1.630746996857460052e-13 9.023916325550523920e-14 -2.185065991263269308e-14 -7.949355420883846834e-14
7.970000000000000000e+02 2.328004455566406250e+01 2.219449281692504883e+00 -5.224768548671971757e-17 6.860403087630140284e-14 2.056553474879489057e-14 3.982233921957789580e-14
7.980000000000000000e+02 2.421232223510742188e+01 2.731973171234130859e+00 -5.749250529048666875e-15 -2.463964421695898598e-15 -2.463964421695898598e-15 -8.993306587715826916e-14
7.990000000000000000e+02 2.436806106567382812e+01 3.401830673217773438e+00 -4.204249304246140614e-15 -3.906848802803786214e-13 -1.184667462869257171e-13 -3.785502049628505783e-14
8.000000000000000000e+02 2.991366958618164062e+01 1.194924592971801758e+00 1.590031139522482539e-13 -1.148596056590664438e-13 1.324305350439407974e-14 -4.234259766270655201e-14
8.010000000000000000e+02 3.154134178161621094e+01 7.723314762115478516e-01 2.064498610043416504e-13 -4.877433567164295158e-14 4.730265658337007295e-14 -2.519510479154912774e-13
8.020000000000000000e+02 3.063471412658691406e+01 3.550339937210083008e+00 1.708297132224645409e-13 2.319113325856270169e-13 1.208223245844491922e-13 -2.656803000256752201e-13
8.030000000000000000e+02 3.974570465087890625e+01 3.515488433837890625e+01 1.969645285629720299e-13 1.759152719327250480e-13 1.118639415039618390e-13 1.947620802697849762e-14
8.040000000000000000e+02 2.505451583862304688e+01 3.317213058471679688e+00 1.404740615550213040e-15 -2.739036482433260256e-13 -8.174967728582713256e-14 7.929660210794289843e-14
8.050000000000000000e+02 3.146806144714355469e+01 1.190660381317138672e+01 4.197566298995598910e-14 -2.936887657980363775e-13 -7.551392914835822201e-14 -2.393639384195168224e-14
8.060000000000000000e+02 1.381460666656494141e+01 6.648447513580322266e+00 2.371040917856920283e-13 3.298961581341131044e-14 8.102811363498371722e-14 -1.106658913271017786e-13
8.070000000000000000e+02 1.454333972930908203e+01 1.850646400451660156e+01 2.094535618080498041e-14 1.919803698608932296e-13 6.387772255589396764e-14 -1.654016550459158630e-13
8.080000000000000000e+02 1.231514549255371094e+01 2.215427398681640625e+01 4.211483050318987065e-13 -4.826261596315231661e-14 1.118657033324921279e-13 5.438401465274189661e-14
8.090000000000000000e+02 4.776826858520507812e+01 1.983578491210937500e+01 7.666382719623276998e-14 9.980451151127018444e-15 2.599328291128487345e-14 -1.520705185853368085e-14
8.100000000000000000e+02 5.041714859008789062e+01 1.984704208374023438e+01 3.964364237276155056e-14 1.542429785240592710e-13 5.816598288091445745e-14 -1.050212569903355431e-13
8.110000000000000000e+02 3.341316223144531250e+01 1.208326625823974609e+01 6.597892805021432494e-13 -3.348709655924542172e-13 9.747550124917028769e-14 2.464367651730439007e-14
8.120000000000000000e+02 2.972261428833007812e+01 1.334739208221435547e+01 4.679282677479135177e-13 -1.025593591172727082e-13 1.096106644576759492e-13 -2.037990544552503724e-13
8.130000000000000000e+02 2.004796600341796875e+01 1.536984348297119141e+01 2.071931493562162441e-13 4.304611612364166173e-14 7.507177794989147723e-14 -2.449790045301603048e-13
8.140000000000000000e+02 2.034310913085937500e+01 1.412725257873535156e+01 7.989295396039139407e-14 -1.945149092795125934e-13 -3.438658659573635978e-14 -8.087550540294280443e-14
8.150000000000000000e+02 4.676513671875000000e+01 1.979402732849121094e+01 8.671671236984423992e-14 -2.023133180081848614e-13 -3.467898236912854426e-14 -7.328487724436380524e-14
8.160000000000000000e+02 4.793239212036132812e+01 1.878627777099609375e+01 2.345136617450810368e-13 9.335726771720134765e-14 9.836127409530021071e-14 1.313934787252994674e-14
8.170000000000000000e+02 2.929231643676757812e+01 7.486630439758300781e+00 1.623538407663147054e-13 4.670474280216684038e-14 6.271757202122585362e-14 -5.173082285887115050e-14
8.180000000000000000e+02 2.570016670227050781e+01 3.280369281768798828e+00 8.462772583400779425e-14 -3.297385693483423363e-13 -7.353325440955307823e-14 1.099554559951193902e-14
8.190000000000000000e+02 9.423734664916992188e+00 1.621089744567871094e+01 7.853765381093946729e-14 1.709118415370303179e-13 7.483484589388550434e-14 5.328992591169603998e-14
8.200000000000000000e+02 1.012090396881103516e+01 1.481528472900390625e+01 -1.094899690389557895e-14 4.105852281972334483e-14 9.032857605341740315e-15 6.732060655462168697e-14
8.210000000000000000e+02 2.969865417480468750e+01 9.344227790832519531e+00 -1.139713459242033822e-13 -1.860977057134213797e-13 -9.002071684654014416e-14 -2.639579635595190599e-13
8.220000000000000000e+02 2.823466110229492188e+01 1.717484235763549805e+00 -1.935478415992369916e-14 -5.404585538327545680e-14 -2.202019186295974679e-14 -7.323212403240880741e-14
8.230000000000000000e+02 1.227226543426513672e+01 7.525407791137695312e+00 7.487048904030596530e-14 3.208735292986424070e-14 3.208735292986424070e-14 -1.335099023523633743e-13
8.240000000000000000e+02 1.071771717071533203e+01 2.816627264022827148e+00 -1.061872486642079227e-13 2.421270414203815233e-16 -3.178353576421127924e-14 5.341889176011319074e-14
8.250000000000000000e+02 2.939136123657226562e+01 1.210287284851074219e+01 3.001437870486269033e-14 -1.243895394673066868e-13 -2.831254890635955673e-14 -1.047485123813196584e-13
8.260000000000000000e+02 1.040738105773925781e+01 1.794914627075195312e+01 -1.826921953494253618e-15 -7.829665514975372650e-16 -7.829665514975372650e-16 9.399977947714341364e-14
8.270000000000000000e+02 3.199519729614257812e+01 1.653367519378662109e+00 1.378294044651270922e-13 3.278565570072333735e-13 1.397057925074662865e-13 -2.761061507466217035e-13
8.280000000000000000e+02 3.220069122314453125e+01 2.877078771591186523e+00 1.374117562357585198e-13 1.618303879574387039e-13 8.977264461321188271e-14 -2.217144382584551598e-13
8.290000000000000000e+02 2.999367332458496094e+01 1.093058681488037109e+01 -1.247366383224984485e-14 -2.341006078224183717e-13 -7.397228175051034915e-14 -8.407874684023333711e-14
8.300000000000000000e+02 3.109154319763183594e+01 3.971915721893310547e+00 1.318906464077562735e-13 2.395283678433696162e-13 1.114257002095796201e-13 -1.939952105206588229e-13
8.310000000000000000e+02 2.857537841796875000e+01 8.087696075439453125e+00 -2.745541255011040710e-14 -5.751755544286876742e-14 -2.549189022848716291e-14 -1.160601427246596429e-13
8.320000000000000000e+02 3.163121032714843750e+01 3.419389009475708008e+00 2.497365378731353225e-13 2.442827841050987381e-13 1.482058020144810806e-13 -1.423574528657683969e-13
8.330000000000000000e+02 3.015349960327148438e+01 4.016799449920654297e+00 1.202797288309652435e-14 8.521900904129992016e-14 2.917409491613211225e-14 -2.204893711187094762e-13
8.340000000000000000e+02 9.341729164123535156e+00 1.058280467987060547e+01 -1.726914645354751809e-13 -1.311993184449980476e-13 -9.116723353888925296e-14 -5.700917982045389243e-14
8.350000000000000000e+02 4.748603439331054688e+01 2.517990875244140625e+01 4.479847143744851434e-14 1.564521895282972030e-13 6.037520066141596753e-14 1.777463132192000361e-13
8.360000000000000000e+02 1.129128074645996094e+01 1.755238533020019531e+01 -5.105782130095971871e-14 6.961997574576536674e-14 5.568645740518631329e-15 1.299653743999651390e-13
8.370000000000000000e+02 1.012312698364257812e+01 9.069176673889160156e+00 -1.877641481694541231e-14 1.635190192885577209e-13 4.342278151089028204e-14 1.423201292059805834e-13
8.380000000000000000e+02 3.315292739868164062e+01 1.300500774383544922e+01 4.692155951974141814e-13 6.383955863942247788e-14 1.599165542825672914e-13 -1.478581932454550718e-13
8.390000000000000000e+02 4.946472549438476562e+01 6.034864425659179688e+00 -5.544319886009729803e-14 2.198957839818008186e-14 -1.003608596916857540e-14 3.026966088263798038e-14
8.400000000000000000e+02 3.614645004272460938e+01 1.305584239959716797e+01 3.179023071262637723e-13 -4.675994902153708666e-14 8.134270844785754240e-14 6.346719617954590942e-14
8.410000000000000000e+02 8.246404647827148438e+00 1.359256172180175781e+01 -2.099355574363553911e-14 1.282556146790098106e-13 3.217861564773320804e-14 6.808390521284221619e-14
8.420000000000000000e+02 2.063703727722167969e+01 1.014113235473632812e+01 -6.881557227268048083e-14 -1.667452390356413683e-13 -7.066824339249655473e-14 -9.620245138702854248e-14
8.430000000000000000e+02 2.026609802246093750e+01 1.338169002532958984e+01 -4.344746066284148334e-14 -2.931260377654620886e-13 -1.009720464791724615e-13 -3.950155428992553619e-14
8.440000000000000000e+02 2.407747077941894531e+01 1.606788253784179688e+01 2.721808238861922469e-13 1.395244054840094616e-13 1.235115661005550813e-13 -1.753062891249670963e-13
8.450000000000000000e+02 1.609092521667480469e+01 1.840843772888183594e+01 3.861431844848911554e-13 3.027427755101369522e-13 2.066657934195192947e-13 -1.987150678381399693e-13
8.460000000000000000e+02 1.435117721557617188e+01 2.241250610351562500e+01 3.996528314450381592e-13 -2.690730938840341091e-13 3.917391855779578380e-14 -2.647292920900795599e-13
8.470000000000000000e+02 2.055444908142089844e+01 1.716646194458007812e+01 3.313381741285731374e-13 -4.100171401401689342e-14 8.710094006724594662e-14 -2.906538128667063292e-13
8.480000000000000000e+02 1.774661827087402344e+01 3.274091720581054688e+00 -1.629857002399121013e-13 -2.986057581755297008e-13 -1.384774456561488343e-13 -4.931957416792233373e-14
8.490000000000000000e+02 1.634214591979980469e+01 6.952696800231933594e+00 8.861695285997811533e-14 -5.352320217350166331e-14 1.052812486712975670e-14 3.159462370005104714e-14
8.500000000000000000e+02 7.318706512451171875e+01 1.321534347534179688e+01 8.102239446852385618e-14 2.177276777924272433e-13 8.962502371116440325e-14 9.211237323022633539e-14
8.510000000000000000e+02 7.965195465087890625e+01 2.060125923156738281e+01 6.203587990527559271e-14 2.095906049626519718e-13 8.148794410512555375e-14 -7.526411541529040572e-14
8.520000000000000000e+02 7.826297760009765625e+01 1.668068313598632812e+01 -7.588402833619972698e-14 3.334858702120496732e-13 7.728054849699683704e-14 -1.561894704012450202e-14
8.530000000000000000e+02 7.822847747802734375e+01 2.464117622375488281e+01 -2.146945188768794796e-15 -9.201193968663744574e-16 -9.201193968663744574e-16 5.278325451957104064e-14
8.540000000000000000e+02 7.607266235351562500e+01 2.758358955383300781e+00 1.909253056217932731e-13 2.190779702830950026e-13 1.230009881924773452e-13 -1.478242035073476512e-13
8.550000000000000000e+02 7.965424346923828125e+01 8.646781921386718750e+00 -2.450193910610853898e-14 -1.935046225901362882e-13 -6.540196850887344815e-14 5.185982936486976946e-14
8.560000000000000000e+02 7.896777343750000000e+01 8.663262367248535156e+00 -3.055054039607929539e-14 -1.503459357878045299e-13 -5.426894353279150540e-14 -6.915109218748327624e-14
8.570000000000000000e+02 7.885871124267578125e+01 3.017770767211914062e+01 -6.670978060317050984e-14 8.578746301659764817e-14 5.723304215808373147e-15 4.380773765662662744e-14
8.580000000000000000e+02 7.854396820068359375e+01 3.735077667236328125e+01 1.750175898033567295e-14 2.133800270807603705e-13 6.926453361604315018e-14 1.043548402665560662e-14
8.590000000000000000e+02 7.954705047607421875e+01 4.126918411254882812e+01 7.656261014716767010e-14 2.615672977691885226e-13 1.014389716972805000e-13 -2.449591500778766640e-14
8.600000000000000000e+02 7.857342529296875000e+01 4.119692993164062500e+01 -5.566359683297286698e-14 2.964008162173459304e-13 7.222116649293827684e-14 -3.619362974474973904e-14
8.610000000000000000e+02 7.953852081298828125e+01 3.891413879394531250e+01 4.861150883412636292e-14 1.352108800357215701e-13 5.514671699976755881e-14 -7.241280600318866778e-14
8.620000000000000000e+02 7.862133789062500000e+01 3.652563858032226562e+01 -8.575928053637660309e-14 -3.675397930880813790e-14 -3.675397930880813790e-14 -1.952175129448646684e-14
8.630000000000000000e+02 7.810121154785156250e+01 3.019171524047851562e+01 9.229481735080133364e-14 4.055625193316592103e-13 1.493571976166063742e-13 -7.517524980066216805e-15
8.640000000000000000e+02 7.874351501464843750e+01 3.493104171752929688e+01 -5.776266644901342784e-14 1.124974137282908071e-13 1.642042486140957158e-14 -6.118778986090311900e-14
8.650000000000000000e+02 7.959399414062500000e+01 3.255231094360351562e+01 4.054899862063199301e-14 4.748876530728807221e-13 1.546309873765375209e-13 4.346802323466902873e-14
8.660000000000000000e+02 7.882839202880859375e+01 3.097640419006347656e+01 5.986051718464288976e-15 4.371994574096232933e-13 1.329556582017887845e-13 -6.368344030284814328e-14
8.670000000000000000e+02 7.877716827392578125e+01 3.257331848144531250e+01 5.928147783860332476e-14 3.227875052750489582e-13 1.146207017103592629e-13 2.662650949605913780e-14
8.680000000000000000e+02 7.891843414306640625e+01 2.779009056091308594e+01 4.984456010643286555e-15 1.165135696257202369e-13 3.644940658976622561e-14 7.754859715535314391e-14
8.690000000000000000e+02 7.890573883056640625e+01 2.858411979675292969e+01 1.793854846024629801e-14 9.918984850056794533e-14 3.513851807180473630e-14 -3.188409212757752076e-14
8.700000000000000000e+02 7.964234924316406250e+01 2.697391891479492188e+01 -1.699598036093707965e-14 3.846695775496303260e-14 6.441292964097901710e-15 3.900115771787379670e-14
8.710000000000000000e+02 7.892579650878906250e+01 2.699672508239746094e+01 4.287052280554405626e-14 -2.737786837785517041e-14 4.647796413009960478e-15 -2.642630648271200589e-14
8.720000000000000000e+02 7.822039031982421875e+01 2.543553161621093750e+01 -6.840606911213270580e-14 1.079359583482097928e-13 1.185896863429561007e-14 -3.365793158505853144e-14
8.730000000000000000e+02 7.893801116943359375e+01 2.540153312683105469e+01 -3.628998482469759923e-14 3.019809676299035905e-14 -1.827566122050640514e-15 9.508975502619740339e-14
8.740000000000000000e+02 7.895614624023437500e+01 2.222513961791992188e+01 -3.207928917620637976e-14 2.607574258513961629e-13 6.860344134137011385e-14 6.277084192327867657e-15
8.750000000000000000e+02 7.895231628417968750e+01 2.301918411254882812e+01 3.985463489179080776e-14 1.085824545511357431e-13 4.453112751050432305e-14 7.923835334622611470e-14
8.760000000000000000e+02 7.965208435058593750e+01 2.139908409118652344e+01 2.014899443852132682e-14 2.831409694377395869e-13 9.098699170397711589e-14 3.232239102020015298e-14
8.770000000000000000e+02 7.895814514160156250e+01 2.143087768554687500e+01 1.318295922729181835e-13 1.480002914926864532e-13 8.394896106392324420e-14 -6.745827990173661193e-14
8.780000000000000000e+02 7.895680999755859375e+01 2.063218307495117188e+01 3.683988200218688003e-14 2.445432636770383805e-13 8.441494438139393597e-14 9.621979862178831056e-14
8.790000000000000000e+02 7.895275878906250000e+01 1.903456306457519531e+01 -4.747094170119876833e-14 2.541610043087227933e-13 6.200701979869674418e-14 -7.291464930751431761e-14
8.800000000000000000e+02 7.824744415283203125e+01 1.748340606689453125e+01 -3.281131198988249120e-14 7.743990588756147209e-14 1.338857884693005207e-14 -1.289467800114421636e-13
8.810000000000000000e+02 7.896788787841796875e+01 1.584944820404052734e+01 -6.808769992044591546e-14 1.538233516257259126e-13 2.572069585039717804e-14 5.909066503250945401e-14
8.820000000000000000e+02 7.896385192871093750e+01 1.664473152160644531e+01 1.041485284515933363e-14 -8.703838837815711105e-14 -2.298706133752569103e-14 -7.103876948494347587e-14
8.830000000000000000e+02 7.965625762939453125e+01 1.502650070190429688e+01 -8.412528621848727739e-14 1.469501061633626815e-13 1.884744361177036892e-14 -1.049368196639555509e-14
8.840000000000000000e+02 7.896995544433593750e+01 1.505722427368164062e+01 7.908226889096967027e-14 3.389240046925388883e-14 3.389240046925388883e-14 9.412346153403559207e-15
8.850000000000000000e+02 7.896776580810546875e+01 1.426244735717773438e+01 -4.949570619897439294e-14 -2.121244599786499541e-14 -2.121244599786499541e-14 -8.257358962175317951e-14
8.860000000000000000e+02 7.896170806884765625e+01 1.346232700347900391e+01 -1.431881986399964179e-15 -6.136637235827158490e-16 -6.136637235827158490e-16 8.090849903030425394e-14
8.870000000000000000e+02 7.895372772216796875e+01 1.026029777526855469e+01 -1.087102616584810499e-13 -2.753448510861566945e-13 -1.152165385667758279e-13 -9.454917859925970891e-14
8.880000000000000000e+02 7.894855499267578125e+01 1.106101989746093750e+01 7.210280549702074993e-14 -1.978535472393558314e-13 -3.772522116744780885e-14 -1.203054362809144115e-14
8.890000000000000000e+02 7.965283203125000000e+01 9.444469451904296875e+00 -6.115758805413581967e-14 -1.634632370867833417e-13 -6.738624821990210623e-14 7.794164246573576788e-15
8.900000000000000000e+02 7.828099060058593750e+01 6.343769550323486328e+00 9.142748271786724223e-14 2.221870013278601230e-13 9.408434724659728299e-14 -7.611592562836722031e-14
8.910000000000000000e+02 7.896697235107421875e+01 6.289218425750732422e+00 -8.576238237102944834e-15 -4.942647989026119348e-14 -1.740081467587958897e-14 -1.401841560584940471e-14
8.920000000000000000e+02 7.895328521728515625e+01 4.700943946838378906e+00 1.144996522318671509e-14 9.640902578220492125e-14 3.235769874157350123e-14 4.380740223157951474e-14
8.930000000000000000e+02 7.963488769531250000e+01 3.066471099853515625e+00 5.579367060048502636e-14 -4.471485234489556981e-14 3.323645476676836963e-15 -2.896825574555395022e-14
8.940000000000000000e+02 7.890740203857421875e+01 3.090710878372192383e+00 -6.581055687383818853e-14 -2.820452510053032130e-14 -2.820452510053032130e-14 -1.504650353964520626e-14
8.950000000000000000e+02 7.886489868164062500e+01 2.265304803848266602e+00 6.660508733088987832e-14 1.657978902823778466e-13 6.972089463923303310e-14 -1.470752230940675087e-13
8.960000000000000000e+02 7.799157714843750000e+01 5.193129777908325195e-01 1.115857013451841684e-13 4.782244343365035788e-14 4.782244343365035788e-14 -2.583857403753477000e-14
8.970000000000000000e+02 7.664517211914062500e+01 -1.989218592643737793e+00 6.596170820920982392e-14 5.393829998666605299e-15 2.140666218234093393e-14 1.417117156043631865e-13
8.980000000000000000e+02 7.798872375488281250e+01 -3.424985885620117188e+00 5.263051753852214520e-14 2.255593681396630273e-14 2.255593681396630273e-14 -8.765082708033986036e-14
8.990000000000000000e+02 7.718786621093750000e+01 -3.445484161376953125e+00 3.829076812567056010e-14 1.079122278731595164e-13 4.386089744439630733e-14 3.280244863712242220e-14
9.000000000000000000e+02 7.879583740234375000e+01 -3.387499570846557617e+00 2.460837048999693633e-14 1.054644449571297271e-14 1.054644449571297271e-14 8.875029956279846532e-15
9.010000000000000000e+02 7.875354003906250000e+01 -4.143199920654296875e+00 2.271582751765035277e-16 -9.140454506565559578e-14 -2.735321633095828125e-14 8.360553155545898812e-15
9.020000000000000000e+02 3.664061737060546875e+01 1.148792362213134766e+01 2.134120381499030050e-13 3.999248442175876161e-14 7.602135609387217219e-14 -2.210794074935032438e-13
9.030000000000000000e+02 3.724295806884765625e+01 1.296819400787353516e+01 3.178288795341321915e-13 2.162765409471911759e-13 1.602316234338915790e-13 4.112301252019549824e-14
9.040000000000000000e+02 1.226911449432373047e+01 1.918836212158203125e+01 1.562064686584305195e-13 2.041984745355940323e-13 1.081214788924492187e-13 -3.777180459141500635e-14
9.050000000000000000e+02 1.222787570953369141e+01 2.145342254638671875e+01 2.472933153824935504e-13 -5.414546645787256252e-14 5.794435840433126428e-14 -4.952361296997110675e-16
9.060000000000000000e+02 1.723146820068359375e+01 1.798629570007324219e+01 2.631571989399755784e-13 9.562505274380780906e-14 1.076346788932668053e-13 -3.690500325042450624e-13
9.070000000000000000e+02 1.781875228881835938e+01 1.754495429992675781e+01 6.717889590966696911e-13 3.222227443634012589e-13 2.982035191695375786e-13 -1.783647827959672361e-13
9.080000000000000000e+02 1.662132835388183594e+01 1.943349647521972656e+01 4.527390425447877509e-14 1.566559517740886975e-13 6.057895613094388398e-14 -2.840930073653991084e-13
9.090000000000000000e+02 2.046096420288085938e+01 3.677626848220825195e+00 -9.220900952511268400e-14 -1.767709920498863885e-13 -8.069400318300515296e-14 -1.326548192039783691e-13
9.100000000000000000e+02 1.601519775390625000e+01 2.217243766784667969e+01 2.077262380119002105e-13 -1.397292112743919734e-13 2.039910802125247113e-14 -7.524139460351325637e-14
9.110000000000000000e+02 2.117333412170410156e+01 1.546698284149169922e+01 2.740833818584698101e-13 -1.799168588634617039e-13 2.824995486562335845e-14 -2.804899596007409679e-13
9.120000000000000000e+02 2.020157623291015625e+01 1.183292675018310547e+01 -7.700703817019663444e-14 -3.075087114199487326e-13 -1.153547201336591055e-13 -8.828036907179356851e-14
9.130000000000000000e+02 1.685658836364746094e+01 3.937783479690551758e+00 -1.014541505276952971e-13 -2.264841417708163274e-13 -9.838148768955348733e-14 -8.110282871719512454e-14
9.140000000000000000e+02 1.793885612487792969e+01 5.783970355987548828e+00 5.225637292132455369e-14 -1.606082075059772629e-13 -3.250555003658263387e-14 1.613743454186369886e-15
9.150000000000000000e+02 3.560352706909179688e+01 2.365928268432617188e+01 7.470430795231824961e-14 -9.379897845853552019e-14 -5.728399542502581390e-15 -1.269019882666616583e-13
9.160000000000000000e+02 1.067268371582031250e+01 6.903334140777587891e+00 2.574678192407376873e-15 1.103433526157321289e-15 1.103433526157321289e-15 -1.047570301446372476e-13
9.170000000000000000e+02 1.916095542907714844e+01 5.577785015106201172e+00 -2.129825212948775054e-14 -3.293844689188085706e-13 -1.052048124181373390e-13 3.424100196089407966e-14
9.180000000000000000e+02 1.858653068542480469e+01 7.396907329559326172e+00 -4.817416200653644454e-14 2.229404904975185002e-15 -1.378342749045738044e-14 -1.526561944345181110e-13
9.190000000000000000e+02 3.533584976196289062e+01 2.729647636413574219e+01 -3.975300110251565877e-14 7.446489578384271613e-14 1.041356959024424336e-14 -8.767333782794609065e-14
9.200000000000000000e+02 9.471808433532714844e+00 1.554696273803710938e+01 -5.088679518451370842e-14 -6.755957826596464821e-14 -3.553390966345125468e-14 -4.331247071610346000e-14
9.210000000000000000e+02 1.975644111633300781e+01 1.938232421875000000e+01 1.884490962800536296e-13 -2.394927518020034674e-13 -1.531309360726634122e-14 -1.353925110046672042e-13
9.220000000000000000e+02 3.496424102783203125e+01 2.628597068786621094e+01 7.558385341221995901e-14 7.814402743595502687e-14 4.611836560970521137e-14 -8.987565059586158367e-14
9.230000000000000000e+02 5.319733428955078125e+01 2.675821685791015625e+01 3.185425623904343528e-14 -2.151029192005299295e-13 -5.497459990488548498e-14 -8.793955689513632823e-14
9.240000000000000000e+02 1.834063148498535156e+01 1.800106430053710938e+01 2.106386896502665529e-13 -3.268194973004602544e-14 5.338702299250569494e-14 -3.275897619576390030e-13
9.250000000000000000e+02 2.188371467590332031e+01 2.028555679321289062e+01 9.671951417935045758e-14 -2.330544611461871085e-13 -4.090048680055642649e-14 -5.742204400773637252e-14
9.260000000000000000e+02 1.348698043823242188e+01 4.948877334594726562e+00 9.012040923630018630e-14 -5.287886421052531705e-14 1.117246452417199748e-14 -1.157322257775914021e-13
9.270000000000000000e+02 1.523667907714843750e+01 3.695118665695190430e+00 -8.639037429218968112e-14 -2.657791792638058981e-13 -1.056508735206886096e-13 -7.628129695285736089e-15
9.280000000000000000e+02 4.516630172729492188e+01 1.491811752319335938e+01 6.679892912680313044e-14 2.573828465895350304e-13 9.725453407015416385e-14 5.081851077643785575e-14
9.290000000000000000e+02 4.095935440063476562e+01 2.190822029113769531e+01 9.120764039860507211e-14 2.220927841590711327e-13 9.399013007780829265e-14 3.218919339517851974e-14
9.300000000000000000e+02 3.986150741577148438e+01 8.286318778991699219e+00 -1.191562717635721858e-13 -2.819149773380155016e-14 -4.420432864692645791e-14 2.099061315117677767e-14
9.310000000000000000e+02 2.101495361328125000e+01 1.314440631866455078e+01 8.768541312964214796e-14 -1.454243355510781432e-13 -1.732167638761761969e-14 -1.299413593218445850e-13
9.320000000000000000e+02 8.991644859313964844e+00 1.330038166046142578e+01 -4.582293068209827847e-14 -6.538935110609114809e-14 -3.336368250357775456e-14 1.106480087675193458e-13
9.330000000000000000e+02 9.240820884704589844e+00 1.413445377349853516e+01 -4.944324097822146158e-14 -4.406543557236748676e-14 -2.805260296517668450e-14 2.789223082914123880e-14
9.340000000000000000e+02 1.105448532104492188e+01 7.799200057983398438e+00 7.549867577904406657e-14 8.954526031258736030e-14 4.951317879461035465e-14 -1.257079970716848405e-13
9.350000000000000000e+02 7.489904403686523438e+00 5.815472602844238281e+00 -3.259915141241897032e-15 -1.615254289913728436e-13 -4.943560412916901681e-14 2.175285640634502804e-14
9.360000000000000000e+02 5.508740997314453125e+01 7.748292922973632812e+00 6.507176118471583171e-14 -1.551158967981816628e-13 -2.701324102285292822e-14 7.301780436796273532e-14
9.370000000000000000e+02 4.836109924316406250e+01 6.009368896484375000e+00 -8.785332555297405144e-15 4.198580705653230660e-14 9.960141842150702085e-15 5.483714678633684614e-14
9.380000000000000000e+02 3.488652038574218750e+01 3.101552772521972656e+01 9.290417285305607731e-14 1.313179708202494300e-13 6.726664039148622098e-14 1.118775431590288486e-14
9.390000000000000000e+02 5.459141921997070312e+01 1.028849220275878906e+01 1.406682116709273567e-13 6.028637739843509258e-14 6.028637739843509258e-14 3.310627257903896170e-14
9.400000000000000000e+02 4.300787734985351562e+01 3.252634811401367188e+01 9.713691168696664269e-14 7.022445233824392563e-14 5.020840988518952830e-14 -1.065517371058068152e-13
9.410000000000000000e+02 4.170927047729492188e+01 3.488758087158203125e+01 -3.038680215111146110e-14 -7.021159776623639437e-14 -3.017951963639117774e-14 -1.544403439770331010e-13
9.420000000000000000e+02 5.272388839721679688e+01 1.866366744041442871e+00 6.281493337631505192e-14 -2.018340599903648003e-13 -4.170573730658856670e-14 5.882100362342157496e-14
9.430000000000000000e+02 3.995799255371093750e+01 2.129236793518066406e+01 1.524322694164501751e-14 3.725404045581276469e-13 1.163350828430748107e-13 3.095074652299800722e-14
9.440000000000000000e+02 3.724814605712890625e+01 1.095785236358642578e+01 2.616512963325018370e-13 1.864815539400627165e-13 1.344398496607585036e-13 -3.654586331366775631e-14
9.450000000000000000e+02 3.664194869995117188e+01 1.248798656463623047e+01 2.612858930953199099e-13 6.622872009923869152e-14 9.825437853735671800e-14 3.641667046042074141e-14
9.460000000000000000e+02 4.530517959594726562e+01 3.021810150146484375e+01 8.134012669143431129e-14 -5.172025951098594213e-15 2.285042984093588886e-14 5.053276251761572302e-14
9.470000000000000000e+02 4.537042617797851562e+01 2.053356361389160156e+01 -2.292683401272323966e-16 1.133947909257981140e-14 3.333063212500883901e-15 3.360087205759969275e-14
9.480000000000000000e+02 4.493773269653320312e+01 1.099023056030273438e+01 -2.329879826123548020e-14 2.187695418700771888e-13 5.864122257443274422e-14 3.310231862924117863e-14
9.490000000000000000e+02 4.495179748535156250e+01 9.229137420654296875e+00 -1.391382262226972810e-13 3.063769127720911145e-13 5.017161138582901247e-14 7.944072645798411214e-14
9.500000000000000000e+02 4.369244003295898438e+01 2.191514778137207031e+01 2.568360258357101772e-14 -2.330595399557388453e-14 7.132948093332004517e-16 -1.005536664133374614e-13
9.510000000000000000e+02 3.829990005493164062e+01 3.386426162719726562e+01 1.200821397612933383e-13 1.429656767320056088e-13 7.891434630324239974e-14 -2.298879097880398431e-14
9.520000000000000000e+02 4.551066589355468750e+01 1.752128601074218750e+01 1.541099875750767678e-13 2.719264158464185233e-13 1.278109156054377249e-13 1.347784866568071949e-13
9.530000000000000000e+02 4.614961624145507812e+01 1.718232154846191406e+01 7.996646286768591128e-14 1.257732389374141557e-13 6.172190850865094669e-14 1.606863784826134678e-13
9.540000000000000000e+02 4.485912704467773438e+01 1.173919010162353516e+01 -3.053273576352801000e-14 1.927938060933276354e-13 4.867832279300578213e-14 -4.911335213845201275e-14
9.550000000000000000e+02 3.996892929077148438e+01 7.487007141113281250e+00 6.387510183595516283e-15 -1.345153372370178069e-13 -3.843834837013657135e-14 3.205388157592053977e-14
9.560000000000000000e+02 3.545207214355468750e+01 2.984580612182617188e+01 -7.081065843005020927e-15 -4.878569268939973724e-14 -1.676002747501813273e-14 1.453178364045539656e-14
9.570000000000000000e+02 4.563971710205078125e+01 2.367501068115234375e+01 -6.854271500828261129e-15 4.281340229171301526e-14 1.078773961843025250e-14 1.036982728418872624e-13
9.580000000000000000e+02 5.099074554443359375e+01 2.395321130752563477e+00 2.213311863430086901e-13 3.693619032591605178e-13 1.772079255253980468e-13 -2.708029892722115667e-14
9.590000000000000000e+02 3.879587936401367188e+01 3.515285110473632812e+01 4.705819609852890384e-14 1.345451663492883143e-13 5.448101008959788105e-14 -6.344812777383732061e-14
9.600000000000000000e+02 3.727619171142578125e+01 2.376578521728515625e+01 -8.948764851964691180e-14 -1.118722492031085092e-14 -3.020246406486640223e-14 -9.482981077908042566e-14
9.610000000000000000e+02 3.732675933837890625e+01 2.262763786315917969e+01 -6.944313559516940293e-14 6.174055678601769737e-14 -2.310773430987274855e-15 -8.932342577183324805e-14
9.620000000000000000e+02 4.504395294189453125e+01 2.309996414184570312e+01 5.265712453746129729e-14 -1.146855098952195839e-13 -1.860851425207477039e-14 4.898869260553870286e-14
9.630000000000000000e+02 3.982769775390625000e+01 9.915542602539062500e+00 -3.701549564907521961e-14 -3.873925851871455606e-14 -2.272642591152375380e-14 1.230989001189822588e-14
9.640000000000000000e+02 4.360356140136718750e+01 3.200622177124023438e+01 1.232895350481572061e-13 9.287045416549177812e-14 6.484799540884197966e-14 -6.336664998057503495e-14
9.650000000000000000e+02 4.343731689453125000e+01 3.313327407836914062e+01 1.520143196433523802e-13 2.024018431155683029e-13 1.063248474724234893e-13 -1.362722461999490986e-13
9.660000000000000000e+02 5.352729797363281250e+01 1.912228465080261230e+00 2.684194554992969106e-14 2.402584424812670427e-13 8.013011640935902014e-14 4.415500761247373451e-14
9.670000000000000000e+02 5.155810928344726562e+01 3.783884763717651367e+00 2.531178730697837553e-14 1.824139662020760055e-13 6.231772503627677762e-14 5.845848707452389048e-14
9.680000000000000000e+02 5.494657135009765625e+01 2.561202287673950195e+00 9.378415877009035895e-14 -2.571879612490307609e-13 -4.902113735555033158e-14 8.299670629582922565e-14
9.690000000000000000e+02 4.469306182861328125e+01 3.217170715332031250e+01 5.462018099096355161e-14 2.340864827009899590e-14 2.340864827009899590e-14 -6.840690259255280403e-14
9.700000000000000000e+02 4.529061889648437500e+01 3.158989143371582031e+01 -2.985780974676041644e-14 1.244566380292563834e-13 2.837964916237514790e-14 2.054062732146440425e-15
9.710000000000000000e+02 3.465307617187500000e+01 3.008909225463867188e+01 9.348206616351800724e-14 1.315656432540265874e-13 6.751431282526337840e-14 2.630554330135606578e-14
9.720000000000000000e+02 3.776855087280273438e+01 1.140256023406982422e+01 2.257657087537459639e-13 1.253510777165026124e-13 1.053350318753164261e-13 -1.566405018931307791e-13
9.730000000000000000e+02 4.667358016967773438e+01 2.716662979125976562e+01 -8.503330553794388735e-14 -3.644284377849089929e-14 -3.644284377849089929e-14 5.524670754512503446e-15
9.740000000000000000e+02 3.449981307983398438e+01 2.808536529541015625e+01 1.422161948752206917e-13 3.807432071446098520e-14 5.408715332165178746e-14 1.123989258193817606e-14
9.750000000000000000e+02 3.438142013549804688e+01 1.297844791412353516e+01 4.459738513814398564e-13 1.956559710796813845e-14 1.396618416618991554e-13 6.547616859505292486e-14
9.760000000000000000e+02 4.045508193969726562e+01 3.460505676269531250e+01 7.299971174420938347e-14 8.410116441421536942e-15 2.442294820157939195e-14 -1.081767935320367136e-13
9.770000000000000000e+02 4.586268615722656250e+01 2.770318412780761719e+01 9.353362675308327101e-14 4.008584100507334158e-14 4.008584100507334158e-14 8.708915614488374479e-14
9.780000000000000000e+02 3.945692443847656250e+01 5.116706371307373047e+00 1.607975498628747002e-13 -1.140905675055953195e-13 1.401209504599699313e-14 -3.471425620918400234e-14
9.790000000000000000e+02 4.407009887695312500e+01 3.271599960327148438e+01 -3.133317173428795677e-14 2.153262377430076313e-13 5.519792183549497577e-14 -6.893769409488381683e-14
9.800000000000000000e+02 3.672433471679687500e+01 2.333847236633300781e+01 7.425033895017141283e-14 1.690744170102648214e-13 7.299742814338358587e-14 -7.693558924702983970e-14
9.810000000000000000e+02 4.292945098876953125e+01 3.361155319213867188e+01 6.989360804530997395e-14 2.995440199593350783e-14 2.995440199593350783e-14 -3.407293368349988139e-14
9.820000000000000000e+02 4.242432022094726562e+01 3.432608413696289062e+01 1.079716421522117220e-13 6.914903220335555378e-14 5.313620298429654054e-14 -5.876462511045232873e-14
9.830000000000000000e+02 3.619425201416015625e+01 2.401434898376464844e+01 -3.829918424503447882e-14 7.508795966731582339e-14 1.103663347371735062e-14 9.271164565227696386e-14
9.840000000000000000e+02 4.573307800292968750e+01 1.646018791198730469e+01 -2.143172419318429417e-14 2.195697237309529593e-13 5.944139765904493666e-14 1.716004725468844860e-13
9.850000000000000000e+02 4.017951583862304688e+01 5.997795581817626953e+00 -9.217892164427679037e-16 -2.062743286726162473e-13 -6.215883520789902694e-14 -9.060716857790113155e-14
9.860000000000000000e+02 4.152170562744140625e+01 1.038368988037109375e+01 6.256001034050939769e-14 -2.476942533458786899e-13 -5.554027561211621888e-14 2.475449891999135371e-14
9.870000000000000000e+02 4.497055435180664062e+01 1.412913894653320312e+01 -4.759175231639975467e-14 1.626073272342418163e-13 3.450467315297897630e-14 2.604873138207803446e-14
9.880000000000000000e+02 3.885933685302734375e+01 1.133907032012939453e+01 3.608297674865222626e-14 -1.246481487904987917e-13 -2.656954991848807512e-14 -7.128768875121899162e-14
9.890000000000000000e+02 5.457895278930664062e+01 1.533193969726562500e+01 -1.684074802082557304e-14 3.853348711077217437e-14 6.507821472874096222e-15 2.585823367224054231e-14
9.900000000000000000e+02 4.606962203979492188e+01 1.826606941223144531e+01 1.406864940300608935e-13 -1.834022842449323232e-14 3.670388239217572957e-14 1.318283047828383570e-13
9.910000000000000000e+02 5.471295166015625000e+01 1.358824920654296875e+01 2.741924424326264847e-14 9.181526795364741700e-14 3.577035382847960909e-14 -2.450210715744527423e-13
9.920000000000000000e+02 5.437931442260742188e+01 1.436800193786621094e+01 8.413550482396295327e-14 1.318259991591559308e-14 2.919543337013934259e-14 6.914054832135585471e-14
9.930000000000000000e+02 5.778373336791992188e+01 1.153154850006103516e+01 1.137324690805505134e-13 -8.851036223389563418e-14 7.566631715183284868e-15 -3.284152057291336857e-14
9.940000000000000000e+02 4.390899658203125000e+01 1.045327377319335938e+01 1.186670543323583085e-14 1.880895206295488120e-13 5.998686654828597198e-14 3.697677438492443652e-15
9.950000000000000000e+02 5.560982131958007812e+01 9.299333572387695312e+00 -4.660738483520943110e-14 1.112175435568577703e-14 -1.064568880504391732e-14 -4.004211716433607460e-14
9.960000000000000000e+02 4.512878036499023438e+01 1.668558883666992188e+01 -2.933707760771099571e-14 2.504949101877346207e-13 6.634735214569933981e-14 1.860160381847789091e-13
9.970000000000000000e+02 4.423095321655273438e+01 1.343624019622802734e+01 -1.533517236806947182e-14 2.908089621975890049e-13 8.264213152784499750e-14 6.122844066610774738e-14
9.980000000000000000e+02 5.298252105712890625e+01 1.644002151489257812e+01 1.572670894336644642e-13 1.303077383409817491e-13 8.627244697714114841e-14 -7.389762087840756610e-14
9.990000000000000000e+02 4.436244964599609375e+01 1.425197887420654297e+01 6.592983266533875009e-14 1.883839628345415629e-13 7.629414136046952510e-14 1.098292802732304951e-13
1.000000000000000000e+03 5.065269851684570312e+01 1.785637664794921875e+01 2.190701640274531070e-13 1.853891118310663222e-13 1.213377814023031132e-13 2.001189537974464028e-14
1.001000000000000000e+03 5.075786590576171875e+01 1.901836204528808594e+01 1.001292012628093864e-13 -2.838435358336419828e-15 2.918722731494634293e-14 -4.091133983370959584e-15
1.002000000000000000e+03 4.410771179199218750e+01 1.186700248718261719e+01 2.327913523839791887e-14 1.929805734700654196e-13 6.487791261253900155e-14 8.558914888672289334e-14
1.003000000000000000e+03 4.455804061889648438e+01 1.506456851959228516e+01 9.067708606549929051e-14 1.761144534243377913e-13 8.003746455745655575e-14 1.632828529503360659e-13
1.004000000000000000e+03 4.818643951416015625e+01 7.011814117431640625e+00 -4.079475675994835571e-14 -1.748346815087266359e-14 -1.748346815087266359e-14 6.897875825216670531e-14
1.005000000000000000e+03 4.705762481689453125e+01 8.136019706726074219e+00 -1.314954411633581510e-13 -1.021061355041194552e-13 -7.008047028973785064e-14 1.082075713212081458e-13
1.006000000000000000e+03 5.182286071777343750e+01 1.670621871948242188e+01 1.780118478837688922e-13 7.629079388626197611e-14 7.629079388626197611e-14 -3.480900192653207936e-14
1.007000000000000000e+03 5.187856674194335938e+01 1.767676544189453125e+01 1.850018077100001879e-13 2.209780549191665833e-14 6.212988700989366397e-14 -4.450337532302048316e-14
1.008000000000000000e+03 4.110694885253906250e+01 5.510238647460937500e+00 -5.840356545822392165e-14 -7.078104785228009344e-14 -3.875538602603027794e-14 -1.636722780419021250e-14
1.009000000000000000e+03 4.357449340820312500e+01 1.653543353080749512e+00 1.083316108260040656e-13 -4.507406546529896252e-14 1.897726496346424652e-14 9.251661801023755571e-14
1.010000000000000000e+03 5.131448364257812500e+01 1.831461524963378906e+01 2.928191204592221764e-14 4.686260263848072982e-14 2.284335542176042094e-14 -1.423599736358194257e-13
1.011000000000000000e+03 5.243925476074218750e+01 1.706036376953125000e+01 -3.529628642856032228e-14 5.635887535739708687e-14 6.318776848057618828e-15 -1.123440465547291545e-13
1.012000000000000000e+03 6.037997436523437500e+01 1.236616802215576172e+01 4.796209544973006889e-14 2.055518400617944302e-14 2.055518400617944302e-14 -1.181372707992345283e-13
1.013000000000000000e+03 5.525682830810546875e+01 1.043171882629394531e+01 -8.222681433314726895e-14 1.020127856970684532e-13 5.935790900956586930e-15 3.112057705243896806e-15
1.014000000000000000e+03 5.531803894042968750e+01 9.783834457397460938e+00 1.299526214719112782e-13 -1.273098109138420808e-13 7.928402028054438305e-16 -7.430858771188819656e-14
1.015000000000000000e+03 5.349641036987304688e+01 1.579366588592529297e+01 -4.575783450603589098e-14 -3.112727903122752826e-13 -1.071091932053173934e-13 -2.715899879122962712e-13
1.016000000000000000e+03 3.247812092304229736e-01 2.843346405029296875e+01 -4.851818697916262038e-15 -9.358125033350969679e-14 -2.952991990474648776e-14 -2.920920485531227663e-15
1.017000000000000000e+03 3.257754743099212646e-01 2.763523674011230469e+01 -1.193787229443118991e-14 8.638566478900294721e-14 2.233433774837152719e-14 9.977654248335184745e-15
1.018000000000000000e+03 2.067235231399536133e+00 3.550997924804687500e+01 -1.032172326667461781e-14 -5.763104295002097199e-13 -1.759896482017575536e-13 1.410239926138284750e-13
1.019000000000000000e+03 4.008694291114807129e-01 3.483174133300781250e+01 7.432097472170884345e-14 -7.001633431022447063e-13 -1.877527132246661901e-13 7.799664878533046214e-15
1.020000000000000000e+03 3.556532561779022217e-01 2.117821693420410156e+01 1.241655432984711815e-13 -8.403904471192963355e-14 1.203794839011633824e-14 2.374438502533628842e-14
1.021000000000000000e+03 2.420902252197265625e+00 2.355114364624023438e+01 -5.323910393486078196e-15 -2.081609488729582735e-13 -6.404545540824105321e-14 -1.307444414235317542e-13
1.022000000000000000e+03 1.057951569557189941e+00 2.356498146057128906e+01 8.180702480448803771e-14 -1.069079669761699783e-14 2.133486766973165943e-14 -1.219399066313200941e-13
1.023000000000000000e+03 3.694067716598510742e+00 2.835662841796875000e+01 -1.071703151027912637e-13 -6.178169954795809105e-13 -2.174961870760744320e-13 1.369811653429559017e-13
1.024000000000000000e+03 1.062911868095397949e+00 2.521715736389160156e+01 9.734360805488742607e-14 6.459416335147238897e-14 4.858133074428158671e-14 -1.406799346069173562e-13
1.025000000000000000e+03 5.051066875457763672e+00 2.732447242736816406e+01 -1.746585731945970998e-13 -7.153669475366830621e-13 -2.670076616403949110e-13 -7.676643337933136690e-14
1.026000000000000000e+03 1.719817399978637695e+00 2.610843467712402344e+01 9.237743355634472908e-14 1.082167531583563824e-13 6.017825533678397565e-14 -9.490071082489739962e-14
1.027000000000000000e+03 9.744932055473327637e-01 2.844185066223144531e+01 -3.732283922464583754e-16 -9.166185334624071812e-14 -2.761052461154340359e-14 7.593107593422201984e-14
1.028000000000000000e+03 9.910200238227844238e-01 3.001066207885742188e+01 3.530039453835450564e-15 -4.559966228397105414e-13 -1.357399706958944963e-13 1.435862062929005312e-13
1.029000000000000000e+03 1.668804049491882324e+00 3.077269744873046875e+01 -6.163116078681390997e-14 -5.296737983113974924e-13 -1.773914809531998427e-13 7.487942015570181464e-14
1.030000000000000000e+03 2.554926395416259766e+00 3.288429260253906250e+01 7.179899171949957748e-14 -4.724894520774514106e-13 -1.202071347192537609e-13 7.206979831713214435e-14
1.031000000000000000e+03 1.087699174880981445e+00 3.314258956909179688e+01 2.622793983679452129e-14 -3.090161048054096415e-13 -8.483644830473840992e-14 6.952525035720802382e-14
1.032000000000000000e+03 3.442629873752593994e-01 3.241983795166015625e+01 1.584999946986666839e-16 -3.659396733118186473e-13 -1.097343515967658112e-13 2.343994274936825328e-15
1.033000000000000000e+03 1.699379205703735352e+00 3.226986312866210938e+01 2.610683953632557397e-14 -3.548189574185262041e-13 -9.861362892720978990e-14 8.130367039338448620e-14
1.034000000000000000e+03 2.091328382492065430e+00 3.623934936523437500e+01 1.309020979719383027e-13 -2.641557491408347280e-13 -3.997609264016349639e-14 5.563148073174477293e-14
1.035000000000000000e+03 1.229208350181579590e+00 3.557056808471679688e+01 9.235269341802132548e-14 -3.493033499165493216e-13 -7.708519559430568324e-14 2.846448925292155950e-15
1.036000000000000000e+03 1.323429346084594727e+00 3.878962707519531250e+01 6.596049525802935576e-14 -7.266218876589292108e-13 -1.981984183978963143e-13 2.971580975535091651e-14
1.037000000000000000e+03 1.356119990348815918e+00 3.717116165161132812e+01 6.612967145451856266e-14 -5.664210420142090641e-13 -1.500874077797753614e-13 1.188466371756374818e-13
1.038000000000000000e+03 1.281538128852844238e+00 3.950067520141601562e+01 -2.619878496275002827e-14 -6.517413561960005985e-13 -2.033820296421309792e-13 4.856270618383735915e-14
1.039000000000000000e+03 4.411095082759857178e-01 3.962711334228515625e+01 1.323055028165306957e-13 -6.753128329976820776e-13 -1.629022031201035614e-13 -3.271932082367888517e-14
1.040000000000000000e+03 1.448083877563476562e+00 4.025220489501953125e+01 6.590252432311927144e-14 -7.495221891057335384e-13 -2.050858940137734177e-13 3.010928705253664017e-14
1.041000000000000000e+03 1.437531709671020508e+00 4.201840591430664062e+01 -7.442948811258159186e-15 -7.352050283675193310e-13 -2.227943849374136587e-13 5.336688054901998768e-14
1.042000000000000000e+03 3.559822738170623779e-01 1.956715965270996094e+01 -9.859873469986527028e-15 -1.643539769341159640e-13 -5.226415546004392620e-14 -8.261198393118632244e-14
1.043000000000000000e+03 1.069144129753112793e+00 2.114784049987792969e+01 -1.569402126430554517e-14 -6.726009536790278701e-15 -6.726009536790278701e-15 1.039321216979652296e-13
1.044000000000000000e+03 1.057679772377014160e+00 1.549485111236572266e+01 -4.081727428381816403e-14 -8.611954058950280211e-14 -3.808104615606218435e-14 -5.091967361539433135e-15
1.045000000000000000e+03 3.540498316287994385e-01 1.473955059051513672e+01 -4.522350240598535520e-14 -1.938150127314599430e-14 -1.938150127314599430e-14 -3.077561399082370808e-14
1.046000000000000000e+03 1.066950559616088867e+00 8.230380058288574219e+00 1.054951414311382230e-14 9.602311757143586202e-14 3.197179053080444200e-14 4.264264383767833733e-14
1.047000000000000000e+03 3.585390746593475342e-01 7.495506763458251953e+00 2.004115697994048734e-14 3.517211749713006208e-13 1.115286994159657430e-13 -6.948815709038186350e-14
1.048000000000000000e+03 4.465037345886230469e+00 1.864091038703918457e+00 -6.176758730143047660e-14 -4.934729586222007247e-14 -3.333446325502927021e-14 7.885925528035298004e-14
1.049000000000000000e+03 5.995413303375244141e+00 2.588110685348510742e+00 -4.406785808659663406e-14 2.686472395994725371e-14 -5.160940830917877184e-15 1.573556687511565300e-13
1.050000000000000000e+03 3.685362637042999268e-01 5.088181018829345703e+00 -8.582065823780054420e-15 8.782387252333212491e-14 2.377254040050302136e-14 4.845428257845701969e-14
1.051000000000000000e+03 1.085960745811462402e+00 6.627336978912353516e+00 -5.416897331622476386e-14 1.597885235585239094e-13 3.168586608912928038e-14 2.031918876861313339e-14
1.052000000000000000e+03 1.058900594711303711e+00 9.031336784362792969e+00 -3.474879143650945468e-14 5.373408288418188294e-14 5.695587180191844304e-15 -6.102487832009180491e-15
1.053000000000000000e+03 1.757997751235961914e+00 1.054398059844970703e+01 -6.103419907064339123e-14 -4.903298565241652474e-14 -3.302015643335751149e-14 9.704834253386994403e-15
1.054000000000000000e+03 1.087387323379516602e+00 1.307892417907714844e+01 -3.358871205260891002e-14 -1.516480083868509965e-13 -5.557101613183797195e-14 -1.658243312628593369e-13
1.055000000000000000e+03 3.605423569679260254e-01 1.232659816741943359e+01 -1.278278156068013427e-13 -3.521645323446842557e-13 -1.439977016749402483e-13 4.352885375280904356e-15
1.056000000000000000e+03 1.074630618095397949e+00 1.388691043853759766e+01 -1.990514381740218081e-14 -1.915345730326215024e-13 -6.343191217509508428e-14 4.889574259803880496e-14
1.057000000000000000e+03 1.062875866889953613e+00 1.469122409820556641e+01 5.408825107635142904e-14 -1.369476363907717875e-13 -2.485781661076564425e-14 6.803619354098927596e-14
1.058000000000000000e+03 1.060119152069091797e+00 1.629986953735351562e+01 3.897748484106393352e-14 -1.662991576042993636e-13 -3.819650352303652352e-14 5.041928720773795891e-14
1.059000000000000000e+03 1.790620326995849609e+00 2.112852287292480469e+01 1.764947475007324490e-14 -3.126925801621993628e-13 -8.851293043779170922e-14 -6.369839551656486520e-14
1.060000000000000000e+03 1.069453716278076172e+00 1.871866035461425781e+01 1.660267585847259586e-14 -3.817676426723370930e-13 -1.095494883500934546e-13 1.095365473807253034e-14
1.061000000000000000e+03 1.795162916183471680e+00 1.786861610412597656e+01 -1.871390547950393946e-14 -2.138995089991796439e-13 -6.978402908698957963e-14 -8.002961086796961387e-14
1.062000000000000000e+03 5.432719039916992188e+01 1.883444786071777344e+00 6.362108512540307070e-14 -2.014885654155751382e-13 -4.136024611993069366e-14 2.004889716701249713e-13
1.063000000000000000e+03 5.110074996948242188e+01 1.645793676376342773e+00 2.743776250107199562e-15 -1.818278871652118100e-13 -5.372523308394897001e-14 6.515941215409770670e-14
1.064000000000000000e+03 5.191823196411132812e+01 1.754509449005126953e+00 1.428725844229705721e-13 3.814877558815099601e-13 1.573080993808387285e-13 1.535619403175442904e-14
1.065000000000000000e+03 5.511632156372070312e+01 1.859391450881958008e+00 1.224249786832901088e-13 1.668452160284716879e-13 8.678105976878125460e-14 -2.128155880416326279e-14
1.066000000000000000e+03 5.594017410278320312e+01 3.540473699569702148e+00 1.137726387710411013e-13 3.008755896337367286e-15 3.503442111071897180e-14 -2.859531391514145982e-14
1.067000000000000000e+03 5.791328048706054688e+01 1.504460215568542480e+00 1.650868230638168066e-14 1.443279903142608012e-13 4.825100483551135466e-14 -2.022848577011571169e-13
1.068000000000000000e+03 5.344116592407226562e+01 2.474805355072021484e+00 -2.350352104238916107e-15 -3.212639301721637031e-13 -9.708428722401962752e-14 1.432206133203384191e-13
1.069000000000000000e+03 9.868583679199218750e+00 3.483675479888916016e+00 1.239091887769846675e-15 6.915746187524662858e-14 2.111896574774011631e-14 1.257752311589060978e-13
1.070000000000000000e+03 4.297392845153808594e+00 3.341528654098510742e+00 6.883652447966376320e-14 1.896296840256730953e-13 7.753986255160105756e-14 1.274405114857352084e-13
1.071000000000000000e+03 1.929390192031860352e+00 3.412213802337646484e+00 7.200641484168910506e-15 1.860897910375622355e-13 5.798713018003581743e-14 -1.352356625256923364e-14
1.072000000000000000e+03 3.571975708007812500e+00 2.608202695846557617e+00 3.792501252278257518e-14 1.077554725678088465e-13 4.370414552717742651e-14 1.756780383329898526e-14
1.073000000000000000e+03 1.971774220466613770e+00 2.638774394989013672e+00 1.109352444161968571e-14 4.754367557334654784e-15 4.754367557334654784e-15 1.210258157796975653e-13
1.074000000000000000e+03 2.022999286651611328e+00 1.877254605293273926e+00 4.041334121193153328e-14 -2.843094547766086833e-14 3.594718042654841683e-15 -1.679626354450167169e-14
1.075000000000000000e+03 6.803497791290283203e+00 2.588854551315307617e+00 1.155110794511069339e-15 9.199694635643809737e-14 2.794561592767488833e-14 -3.640784098897856258e-14
1.076000000000000000e+03 6.915889739990234375e+00 1.862597227096557617e+00 -1.130744057956968585e-13 2.031697564092854735e-13 2.702860450645022672e-14 -7.905096255323915133e-14
1.077000000000000000e+03 5.183997631072998047e+00 2.590262413024902344e+00 4.906618256768531527e-14 2.102836371557000733e-14 2.102836371557000733e-14 3.550265414769757100e-14
1.078000000000000000e+03 3.110606956481933594e+01 2.982596397399902344e+00 1.199123672536092644e-13 7.140705263414606763e-14 5.739582664395295741e-14 -9.829618130736961223e-14
1.079000000000000000e+03 3.065375518798828125e+01 1.270857572555541992e+00 1.377650977237715457e-13 -7.821065843571783915e-14 1.786633381929518538e-14 -2.783409895797117617e-13
1.080000000000000000e+03 1.960822105407714844e+01 3.894319534301757812e+00 -1.326334875262347168e-13 5.753444866796880719e-14 -2.252971097985341509e-14 -2.147890291190682199e-13
1.081000000000000000e+03 1.567414093017578125e+01 6.046973705291748047e+00 1.641832286444766531e-13 1.737819910794613596e-15 4.977631466187258658e-14 -7.826170974672356628e-16
1.082000000000000000e+03 1.787227058410644531e+01 6.527804851531982422e+00 3.217274062721105221e-14 -7.771357884468754751e-14 -1.366225180405612749e-14 -1.610228335217900320e-13
1.083000000000000000e+03 1.483183956146240234e+01 5.848549842834472656e+00 9.327581702899337412e-14 1.086017736785967192e-13 6.056327585702431238e-14 -5.527891512591143197e-14
1.084000000000000000e+03 7.882736968994140625e+01 -2.618327140808105469e+00 -4.896912190929239225e-15 -2.098676592753034864e-15 -2.098676592753034864e-15 -4.620368554441624254e-14
1.085000000000000000e+03 7.799290466308593750e+01 1.431515812873840332e+00 1.417213921087526196e-13 6.073773753910438611e-14 6.073773753910438611e-14 -6.057564931431780320e-14
1.086000000000000000e+03 6.061778259277343750e+01 3.651042938232421875e+01 4.653277817321527232e-14 1.114445178935358216e-13 4.739318746477261257e-14 9.996218669440157245e-14
1.087000000000000000e+03 6.091405487060546875e+01 3.576895904541015625e+01 -1.058951188591611761e-14 8.696353777067414303e-14 2.291220734191093400e-14 -5.536710480824776071e-14
1.088000000000000000e+03 4.759441375732421875e+01 1.761610269546508789e+00 9.971595082850295833e-14 -3.015540206728400605e-15 2.901012289007083578e-14 3.646971505170959471e-14
1.089000000000000000e+03 4.679829406738281250e+01 1.733125448226928711e+00 3.993214518272815428e-14 -2.863717089526297832e-14 3.388491566261547620e-15 -1.664404664168239040e-14
1.090000000000000000e+03 4.461480712890625000e+01 2.038605451583862305e+00 6.333920611308399562e-14 -2.473603190767531546e-13 -5.520633456672710548e-14 1.184812610435098668e-13
1.091000000000000000e+03 7.488793945312500000e+01 -3.432951927185058594e+00 -1.363668919674093996e-14 1.314085559117605939e-13 3.533155688048399135e-14 8.796646543780470284e-14
1.092000000000000000e+03 6.446894073486328125e+01 -1.107735037803649902e+00 6.593812681195826420e-14 -2.004955446457956647e-13 -4.036722873828300917e-14 -7.746284353977311854e-14
1.093000000000000000e+03 6.447790527343750000e+01 2.685290873050689697e-01 8.373896465563995806e-14 -1.013647174009923990e-13 -5.287726840045268994e-15 7.702025188417380153e-14
1.094000000000000000e+03 6.530716705322265625e+01 -2.970776855945587158e-01 1.177634514426886825e-13 9.622099802044162264e-14 6.419533958232359616e-14 5.269759577168110776e-14
1.095000000000000000e+03 6.448534393310546875e+01 -4.283674061298370361e-01 1.313404544628013482e-13 1.477906610026363809e-13 8.373933735013674995e-14 2.433048608505711252e-14
1.096000000000000000e+03 6.286284255981445312e+01 -6.943398714065551758e-01 1.162076755352806079e-13 4.980329096717674153e-14 4.980329096717674153e-14 -2.499530259419263656e-13
1.097000000000000000e+03 5.846808624267578125e+01 9.651207923889160156e-01 8.441675364376927115e-14 2.191824060573596689e-13 9.107974519983325079e-14 2.976274554502417180e-14
1.098000000000000000e+03 5.687324142456054688e+01 3.064510345458984375e+00 7.796954542508421904e-14 3.341552091994971774e-14 3.341552091994971774e-14 -6.470652735412335543e-14
1.099000000000000000e+03 5.960314178466796875e+01 -4.602789282798767090e-01 1.522932984148600566e-13 1.951760591524260430e-14 5.154326943555831431e-14 -1.072076116575247651e-13
1.100000000000000000e+03 6.005199050903320312e+01 -1.076211929321289062e+00 2.470962616376443099e-13 -1.686072885042494418e-13 2.354669092357892374e-14 -7.844664859108646526e-14
1.101000000000000000e+03 4.116729354858398438e+01 3.224254131317138672e+00 1.739399097845650832e-13 -2.914619229559683999e-13 -3.525660124091556380e-14 7.826146008376236307e-14
1.102000000000000000e+03 4.270799636840820312e+01 1.963259696960449219e+00 1.241495377638998643e-13 7.455994812711769920e-15 3.948165918006042718e-14 -6.949620729151256837e-14
1.103000000000000000e+03 3.971792602539062500e+01 4.495760917663574219e+00 -9.552782013772659342e-14 -3.383216558468238322e-13 -1.301548387296069809e-13 -1.736565399942588406e-13
1.104000000000000000e+03 4.103672790527343750e+01 2.612107276916503906e+00 1.791721746012900351e-13 -1.519666689578716423e-13 8.161652031838696753e-15 -9.131393964535369778e-14
1.105000000000000000e+03 4.202924346923828125e+01 2.959668874740600586e+00 5.618717839085685117e-14 -1.131726277362604671e-13 -1.709563548124744259e-14 -6.021877061671704334e-14
1.106000000000000000e+03 3.905215454101562500e+01 4.030236244201660156e+00 -2.067715979990267239e-13 -1.343673571930006916e-13 -1.023416852023555090e-13 7.541347781707744002e-14
1.107000000000000000e+03 3.939944076538085938e+01 3.262346744537353516e+00 -4.176440280851539955e-14 2.566066662542526577e-13 6.445267496796303064e-14 -3.672587136748645120e-14
1.108000000000000000e+03 5.008338928222656250e+01 2.264688968658447266e+00 3.407448205972746225e-14 6.035429588827773140e-14 2.832863406202791590e-14 9.520246292422495510e-15
1.109000000000000000e+03 4.601417160034179688e+01 1.741703629493713379e+00 6.725697743962394393e-14 -2.456812693823334781e-13 -5.352728826043921806e-14 -9.390479997870189444e-15
1.110000000000000000e+03 4.305745697021484375e+01 3.519371986389160156e+00 -2.301650250870635600e-14 -1.928680061795071121e-13 -6.476535209824427208e-14 -2.452790998330430308e-15
1.111000000000000000e+03 4.291251754760742188e+01 2.723638057708740234e+00 2.864537695045597798e-14 -1.707272019070560365e-13 -4.262454782579319645e-14 1.527386073521541654e-13
1.112000000000000000e+03 2.009790420532226562e+01 8.351991653442382812e+00 -1.479407823459441551e-13 -4.294107929479762387e-13 -1.732054712329234025e-13 -4.266078389527673542e-14
1.113000000000000000e+03 7.884729766845703125e+01 -1.840084791183471680e+00 3.977788354237420110e-14 -2.870328351086207097e-14 3.322378950662454970e-15 -1.896603500064954900e-14
1.114000000000000000e+03 7.885153961181640625e+01 -1.048658013343811035e+00 -1.770650886654366596e-14 6.103791923934773211e-14 1.299942311184121985e-14 -1.053491536086130498e-13
1.115000000000000000e+03 6.914639282226562500e+01 5.134006023406982422e+00 -5.328128617563404612e-14 2.291611216379777632e-14 -9.109552203550880939e-15 5.384262168604304899e-14
1.116000000000000000e+03 6.940535736083984375e+01 3.279123604297637939e-01 -1.083666847662839716e-14 -1.876480877150213389e-13 -5.954542685749492081e-14 -1.179141775675207962e-14
1.117000000000000000e+03 4.006831359863281250e+01 6.717360019683837891e+00 -1.330589013536637166e-13 -1.714026192029330375e-13 -9.133845616697902625e-14 -6.059907485750706813e-14
1.118000000000000000e+03 3.347745895385742188e+01 1.366012954711914062e+01 3.173679851906086036e-13 1.360148566042010398e-13 1.360148566042010398e-13 -6.266875581840969378e-14
1.119000000000000000e+03 6.083130645751953125e+01 -1.058569312095642090e+00 1.383401178984763891e-13 -3.982208714257279292e-13 -7.796422605817546203e-14 -8.262397791771944333e-14
1.120000000000000000e+03 6.037239837646484375e+01 -1.162511229515075684e+00 1.618193833053879760e-13 -6.790167793270171503e-14 2.817531262824541499e-14 2.205062406268869929e-14
1.121000000000000000e+03 6.210164260864257812e+01 -7.960363030433654785e-01 2.042267180021872797e-13 -2.784818545469719409e-13 -2.227654130224857726e-14 -1.520229932607322643e-13
1.122000000000000000e+03 6.032551956176757812e+01 3.453339636325836182e-02 2.453990515568355013e-13 1.366912039422541261e-14 7.772044997595567439e-14 -3.645723995046243338e-14
1.123000000000000000e+03 5.077379989624023438e+01 2.675995254516601562e+01 -7.888568948457089225e-14 5.769374507216123993e-14 -6.357581968470180089e-15 -2.508167386619779976e-14
1.124000000000000000e+03 6.311930465698242188e+01 2.178753089904785156e+01 4.850658178075228921e-14 2.495432788358897813e-13 8.941495954024533677e-14 1.285262993038979729e-13
1.125000000000000000e+03 6.136266708374023438e+01 2.371519088745117188e+01 -1.167947574591543525e-13 1.786998419248467251e-13 1.857152771139996411e-14 7.156231038524599186e-14
1.126000000000000000e+03 1.072231006622314453e+01 2.230508041381835938e+01 2.806129081271008241e-13 1.202626729755393309e-13 1.202626729755393309e-13 1.373140560674904198e-13
1.127000000000000000e+03 1.219427776336669922e+01 1.816375541687011719e+01 5.253889991384827832e-15 -8.925022857266332044e-14 -2.519890153203190042e-14 1.006574177849807461e-13
1.128000000000000000e+03 7.881364440917968750e+01 5.919455885887145996e-01 1.943376693293655255e-13 1.466114759435775683e-14 6.269964202779837459e-14 2.957578165664262460e-15
1.129000000000000000e+03 7.501818084716796875e+01 -2.579728603363037109e+00 6.156400123849201100e-14 7.213552129757550002e-14 4.010985608319389550e-14 2.071908318740725563e-14
1.130000000000000000e+03 2.085927391052246094e+01 3.000909423828125000e+01 -7.402784033558665322e-14 -3.405451105571027925e-13 -1.243718940769494852e-13 -3.295490101510104020e-14
1.131000000000000000e+03 2.056959724426269531e+01 2.924841308593750000e+01 -4.678728362177793018e-15 -3.680127491807738682e-13 -1.118074477945117662e-13 -4.725720140728861818e-14
1.132000000000000000e+03 1.145437049865722656e+01 2.897728681564331055e+00 2.921804237356745437e-14 1.040239129643932836e-13 3.997258592376186359e-14 -4.460786191926198463e-14
1.133000000000000000e+03 1.148078155517578125e+01 7.111209869384765625e+00 1.686801333377133116e-13 7.229149055635111787e-14 7.229149055635111787e-14 -8.587067553333591063e-15
1.134000000000000000e+03 3.404083251953125000e+01 3.134622383117675781e+01 3.363505830735087632e-14 8.304144996423498681e-14 3.500295214266258004e-14 1.182373036962393667e-14
1.135000000000000000e+03 3.001795768737792969e+01 2.954305076599121094e+01 1.201226618174899841e-13 1.429830375192925329e-13 7.893170709052932388e-14 -9.061142407142813715e-14
1.136000000000000000e+03 7.088958740234375000e+01 -1.089521646499633789e-01 1.359490048747497015e-13 -1.247399400569268457e-13 3.362720800599572346e-15 2.838742323076504787e-14
1.137000000000000000e+03 4.724860382080078125e+01 6.025397777557373047e+00 -5.338878143290419487e-14 -5.432567402765500520e-18 -1.601826547651449134e-14 1.144433533399949465e-13
1.138000000000000000e+03 4.496496582031250000e+01 3.082476139068603516e+00 7.686229718016981960e-14 -1.958137563770959155e-13 -3.568543708145147098e-14 6.631694705102469944e-14
1.139000000000000000e+03 1.158406734466552734e+01 5.561850070953369141e+00 1.132396856406286956e-13 -1.344724976986774734e-13 -6.369845311480527850e-15 -5.289189835351766622e-14
1.140000000000000000e+03 7.421724700927734375e+01 -1.171612739562988281e+00 -9.639356700740105664e-16 -9.191501455351608341e-14 -2.786368412475287437e-14 1.002612638636816988e-13
1.141000000000000000e+03 5.219484806060791016e+00 2.556661987304687500e+01 -6.656376567559102453e-14 -7.033538248352178002e-13 -2.309752866400116567e-13 2.206574902180805098e-13
1.142000000000000000e+03 7.019636631011962891e+00 2.318613624572753906e+01 1.576588116785834770e-13 -4.814433357189229490e-13 -9.713535314634369477e-14 1.951252879975676202e-13
1.143000000000000000e+03 6.429972839355468750e+01 3.135275077819824219e+01 1.357953226049316703e-14 4.633292989726645050e-13 1.430726468288484599e-13 3.045787965033088483e-15
1.144000000000000000e+03 7.026091766357421875e+01 2.096577453613281250e+01 -1.886452013480019452e-13 -3.509699312859854148e-14 -6.712265834298014600e-14 -1.784861998867584565e-13
1.145000000000000000e+03 6.325367736816406250e+01 3.631401824951171875e+01 5.493006968878243190e-14 4.641693117108519617e-14 3.040410195202618293e-14 -1.913459963935083830e-14
1.146000000000000000e+03 5.976902770996093750e+01 -8.214192986488342285e-01 1.237978496841998788e-13 5.305622274528500049e-14 5.305622274528500049e-14 -1.316188098180598454e-13
1.147000000000000000e+03 2.425533103942871094e+01 1.541405296325683594e+01 4.947343533109882507e-13 -1.539785822717715247e-13 1.022267326670177334e-13 -1.655128399787042515e-13
1.148000000000000000e+03 3.005956268310546875e+01 2.837382316589355469e+01 1.324544315374487358e-13 1.101523826850265425e-14 4.304090178881836426e-14 -9.383735243917792901e-14
1.149000000000000000e+03 6.377299880981445312e+01 2.776865577697753906e+01 2.776782201798031618e-14 1.190049527156769940e-14 1.190049527156769940e-14 -1.365210519638096823e-14
1.150000000000000000e+03 6.488328552246093750e+01 2.968497467041015625e+01 1.516561500675400048e-14 1.437524009334154029e-13 4.767540190213880036e-14 5.878595678819598103e-14
1.151000000000000000e+03 1.104787635803222656e+01 1.819457817077636719e+01 6.044344441191035200e-14 2.590433259336191035e-14 2.590433259336191035e-14 2.006925441805362809e-13
1.152000000000000000e+03 2.328815650939941406e+01 1.723277664184570312e+01 4.104718680838365108e-13 -3.159061825065007101e-13 2.836970160744259339e-14 -1.627462812951729898e-13
1.153000000000000000e+03 6.190949249267578125e+01 7.526416301727294922e+00 -7.082972852982469258e-14 1.068972520093872114e-13 1.082025721327534509e-14 -1.000555026201346842e-13
1.154000000000000000e+03 7.259661102294921875e+01 1.219843387603759766e+01 1.540278999180924591e-13 2.261402734992853936e-13 1.140504520252133558e-13 9.464673646599267021e-14
1.155000000000000000e+03 7.268531799316406250e+01 1.132177448272705078e+01 1.573734911713997077e-15 -2.738312235382039939e-13 -8.167725258070510086e-14 -1.237743902596927237e-13
1.156000000000000000e+03 4.656250762939453125e+01 7.617479324340820312e+00 3.477762443803399106e-14 -3.368057243692545999e-13 -9.060842896292664594e-14 -1.867238223036363914e-14
1.157000000000000000e+03 4.600620651245117188e+01 8.160170555114746094e+00 -6.821222053995587564e-14 2.738662161633209635e-13 6.169619936463588417e-14 1.726513863245428965e-14
1.158000000000000000e+03 2.492482900619506836e+00 1.123392200469970703e+01 -4.735425783051680493e-14 -1.346720586610505865e-13 -5.460789223696478623e-14 9.126374277883351344e-15
1.159000000000000000e+03 8.924249649047851562e+00 1.236845970153808594e+01 -2.894979042730380647e-14 3.334389581392989410e-14 1.318232187735065685e-15 7.496919887184719244e-14
1.160000000000000000e+03 6.571611785888671875e+01 2.956729125976562500e+01 -1.609886811533567386e-13 -4.611967681670756103e-14 -6.213250942389836329e-14 -1.889670535391678452e-14
1.161000000000000000e+03 4.187361145019531250e+01 3.598274993896484375e+01 6.383788490231870338e-14 5.023456965073253011e-14 3.422173704354172785e-14 -3.217129728306893088e-14
1.162000000000000000e+03 4.856057357788085938e+01 3.091321468353271484e+00 8.764949893267856562e-14 1.390739872439775149e-13 6.801704382011775074e-14 1.958338005647597413e-13
1.163000000000000000e+03 4.772599029541015625e+01 6.535569190979003906e+00 -7.522031364752199134e-14 -8.370709588803246226e-14 -4.767822082778726267e-14 3.050187665919364133e-14
1.164000000000000000e+03 3.303918457031250000e+01 2.152385330200195312e+01 5.165461022240899758e-14 6.788864040157757684e-14 3.586297518719597233e-14 -2.160217805417113945e-13
1.165000000000000000e+03 1.443806552886962891e+01 3.577463865280151367e+00 -8.441699081299450236e-14 -8.192965484645972629e-14 -4.990399302020991079e-14 -9.419823590855330719e-14
1.166000000000000000e+03 5.460682678222656250e+01 2.473767471313476562e+01 1.175838669053436147e-13 8.470629661019510315e-14 6.068704431127711074e-14 -3.968797946535262966e-14
1.167000000000000000e+03 5.461207580566406250e+01 2.325099945068359375e+01 9.902835658697622945e-14 2.483200006297286988e-13 1.042045071650114785e-13 -2.300286155131059385e-13
1.168000000000000000e+03 1.165239620208740234e+01 6.347167968750000000e+00 3.232382419994690725e-14 2.426078001688258823e-13 8.247948764944501576e-14 -1.198550536162662494e-13
1.169000000000000000e+03 6.715168762207031250e+01 2.093990325927734375e+01 -1.301819031263376503e-13 -2.616715167030186917e-13 -1.175560300145650494e-13 1.476941670092851711e-13
1.170000000000000000e+03 6.154324340820312500e+01 9.173060417175292969e+00 -6.406837950792554359e-14 1.498270501805801236e-13 2.572760255704908960e-14 -8.087599329392042291e-14
1.171000000000000000e+03 6.147742462158203125e+01 8.104594230651855469e+00 -5.293111597897554033e-14 2.518209165497387048e-13 5.966694559223981176e-14 -7.836227055701278088e-14
1.172000000000000000e+03 8.044441223144531250e+00 2.321099090576171875e+01 6.140372227608076328e-14 -1.452501720245955030e-13 -2.515393594099395863e-14 1.246138880018482498e-13
1.173000000000000000e+03 8.676391601562500000e+00 2.265255546569824219e+01 1.497714712667130854e-13 -7.306506880641952528e-14 2.301192175452760474e-14 1.629629726518713739e-13
1.174000000000000000e+03 3.198897552490234375e+01 1.670112228393554688e+01 -1.798067310277914888e-14 -7.633242724968541948e-14 -2.829392942811301270e-14 -5.169516954805532249e-14
1.175000000000000000e+03 3.213432312011718750e+01 1.743525886535644531e+01 -2.901902351228058397e-14 -1.268141001280545521e-13 -4.674993709210054083e-14 -5.808909177106155383e-15
1.176000000000000000e+03 6.078314971923828125e+01 1.072510528564453125e+01 -7.403854005577636954e-15 1.455175091752761163e-13 4.143409384040411259e-14 -9.634321471033505113e-14
1.177000000000000000e+03 7.348436355590820312e+00 3.434800720214843750e+01 2.341958007731625990e-13 -2.048749895861706749e-13 8.796243186690987786e-15 5.319320152538317692e-14
1.178000000000000000e+03 6.767271518707275391e+00 3.364990234375000000e+01 1.877125977442842264e-13 3.840965661135598962e-16 5.642900968542974294e-14 4.300084729480860291e-14
1.179000000000000000e+03 1.848542022705078125e+01 2.427919006347656250e+01 3.861166486367195727e-14 -3.494597460799303557e-13 -9.325441758861394148e-14 -1.446848961169158732e-13
1.180000000000000000e+03 3.587300109863281250e+01 2.189552116394042969e+01 -1.825636877458326757e-14 1.980551139757480428e-13 5.393962389916261146e-14 -1.210387584431316110e-13
1.181000000000000000e+03 7.196993255615234375e+01 1.542278289794921875e+01 1.911761324062660056e-14 7.681968803479113928e-14 2.878119021321873250e-14 -1.883023867854573957e-14
1.182000000000000000e+03 7.162866210937500000e+01 1.617621421813964844e+01 -6.061871246935621182e-14 -3.741718577771752097e-14 -2.941076947412211984e-14 1.962386111627797275e-14
1.183000000000000000e+03 6.044651794433593750e+01 1.568890953063964844e+01 1.250952331088503455e-13 3.738688774800741355e-13 1.496892345319300599e-13 1.100064931183232508e-13
1.184000000000000000e+03 2.966317558288574219e+01 4.372255802154541016e+00 3.171762982465131664e-13 -1.320152305547372777e-15 9.475683719660857318e-14 -4.805831500440636839e-14
1.185000000000000000e+03 2.956175422668457031e+01 3.124129295349121094e+00 8.084743811920258594e-14 2.634036380937815336e-13 1.032753255744006671e-13 -8.357089299011397077e-14
1.186000000000000000e+03 3.235357284545898438e+01 2.068302536010742188e+01 -6.685744978609598280e-15 -7.149174237634434159e-14 -2.345324624883782932e-14 -7.652796988775675824e-14
1.187000000000000000e+03 3.305628967285156250e+01 2.068188858032226562e+01 -5.499152023503983688e-14 -4.644326711948122688e-14 -3.043043790042221364e-14 -6.281981906235481472e-14
1.188000000000000000e+03 4.032177352905273438e+01 5.348577499389648438e+00 -3.420073401458161022e-14 -1.519103039974295521e-13 -5.583331174241652761e-14 -1.529864966263658199e-13
1.189000000000000000e+03 2.357708168029785156e+01 1.534505462646484375e+01 2.293045310922114943e-13 6.771472759684732390e-15 7.082280318844794142e-14 -1.063071072143761953e-13
1.190000000000000000e+03 3.663700866699218750e+01 2.219752120971679688e+01 6.883620599527559558e-14 2.696937183126191240e-13 1.015589725489839112e-13 -2.803094094458360303e-14
1.191000000000000000e+03 7.074408721923828125e+01 1.749934959411621094e+01 -4.526505106611407314e-15 2.153770732723700454e-13 6.325517366845279099e-14 6.659145348857087310e-14
1.192000000000000000e+03 7.048178863525390625e+01 1.897192573547363281e+01 -1.603745348327523246e-13 2.276995154655136328e-14 -4.128137718814595125e-14 9.085272681744194223e-14
1.193000000000000000e+03 2.274650955200195312e+01 3.047326803207397461e+00 -1.518358904589473674e-14 1.307455933883400201e-13 3.466860113332699556e-14 -1.147034398886470630e-13
1.194000000000000000e+03 2.917343139648437500e+01 1.111959457397460938e+00 5.755895163706697959e-14 -2.040866255289749964e-13 -4.395829945706697384e-14 -1.671509474885854440e-13
1.195000000000000000e+03 2.072643280029296875e+01 4.349886417388916016e+00 2.061571128652434082e-14 1.232126786666551399e-13 4.314851563070112861e-14 -2.679853680544880268e-13
1.196000000000000000e+03 2.250535583496093750e+01 4.495740890502929688e+00 -4.296063355860475774e-14 -2.014154901891496152e-13 -7.331283610788677518e-14 -2.046482761356403779e-14
1.197000000000000000e+03 2.366732978820800781e+01 3.529251098632812500e+00 3.704925838235277602e-14 1.587825431846514451e-14 1.587825431846514451e-14 1.069487448363166948e-13
1.198000000000000000e+03 2.296778869628906250e+01 3.692065715789794922e+00 1.434731849926824954e-14 -5.199870482114343773e-13 -1.516919185748366594e-13 7.791592485139123281e-14
1.199000000000000000e+03 2.347694587707519531e+01 2.877988815307617188e+00 1.014964953987944341e-13 -4.140110021304266308e-13 -9.375434998661058561e-14 2.736130549560455982e-13
1.200000000000000000e+03 2.979298400878906250e+01 1.843062400817871094e+00 4.091953487747428120e-14 -7.396495660958249396e-14 -9.913626180819284928e-15 -1.874319926695178218e-13
1.201000000000000000e+03 3.041973304748535156e+01 2.641784191131591797e+00 1.932373260970371431e-13 3.573217026084374304e-13 1.651677113221478033e-13 -2.102532015678393318e-13
1.202000000000000000e+03 5.176276016235351562e+01 2.951259994506835938e+01 -5.134805544627051022e-14 -1.363836886307534524e-13 -5.631952220666765208e-14 2.346243486224964397e-14
1.203000000000000000e+03 4.657788085937500000e+01 2.792734146118164062e+01 7.571889756906660662e-14 7.820190350317501871e-14 4.617624167692520321e-14 6.374783513563020421e-15
1.204000000000000000e+03 1.058976459503173828e+01 8.428309440612792969e+00 6.414672666741477736e-14 -3.541610093301533757e-14 8.619186195660526878e-15 4.628149907314870609e-15
1.205000000000000000e+03 6.226987075805664062e+01 6.945157527923583984e+00 -7.054286218751218418e-14 -7.357182490183925005e-15 -2.337001340330883276e-14 -5.178317711830799155e-15
1.206000000000000000e+03 6.328849792480468750e+01 6.665199279785156250e+00 -1.053341238559969695e-13 6.077531276767753413e-16 -3.141791229846306599e-14 6.505662301188250285e-14
1.207000000000000000e+03 2.834887695312500000e+01 8.625225067138671875e+00 -1.905574900347775658e-13 1.699627309552365073e-13 -6.178428570895264788e-15 -1.475258581745339526e-13
1.208000000000000000e+03 2.911017036437988281e+01 8.892457962036132812e+00 -6.802173299451375055e-14 -1.664050163939154170e-13 -7.032802752703418148e-14 -1.193985909491226960e-13
1.209000000000000000e+03 2.045266532897949219e+01 9.414538383483886719e+00 -1.592914846250750860e-13 -2.283961051969402023e-13 -1.163062701703410085e-13 -7.313094764092517575e-14
1.210000000000000000e+03 1.603043365478515625e+01 3.820259571075439453e+00 -1.347913615576054602e-13 -1.201677849566561151e-14 -4.404244371004721603e-14 -3.980890527703444259e-14
1.211000000000000000e+03 6.215524291992187500e+01 -1.053573414683341980e-01 1.552412305693209871e-13 2.078100807211512302e-14 5.280667328649672754e-14 -1.601825226280051417e-13
1.212000000000000000e+03 7.748935699462890625e+01 1.834583473205566406e+01 2.021141399047039072e-14 1.230394096069648002e-13 4.297524657101078893e-14 -5.282502340826604470e-14
1.213000000000000000e+03 7.897020721435546875e+01 7.867709159851074219e+00 5.384203215111176000e-14 -1.141776967026816858e-13 -1.810069767140508323e-14 4.365336759605542571e-14
1.214000000000000000e+03 7.827235412597656250e+01 5.555595874786376953e+00 3.754070689834972108e-14 6.183982227117232333e-14 2.981415705679071881e-14 8.048186547543120795e-14
1.215000000000000000e+03 7.713183593750000000e+01 3.179984664916992188e+01 4.881859483720288329e-14 2.725524612858659657e-13 9.641132293555787491e-14 4.797910556537682975e-15
1.216000000000000000e+03 7.743431854248046875e+01 3.828683471679687500e+01 8.413847198037718508e-16 1.604889181619495453e-13 4.839908991161392948e-14 7.452725096128778870e-14
1.217000000000000000e+03 7.871136474609375000e+01 3.571421051025390625e+01 -3.340279848508195815e-14 1.229373590774796021e-13 2.686036851653247209e-14 4.462527352852574403e-14
1.218000000000000000e+03 7.790928649902343750e+01 3.496551895141601562e+01 7.524544342100113192e-15 2.319795560073306673e-13 7.185122993542264469e-14 4.184408150379771707e-14
1.219000000000000000e+03 7.748564910888671875e+01 2.547543716430664062e+01 4.574117506202929340e-14 -2.614758690328618934e-14 5.878076617029520667e-15 4.411737902082490947e-14
1.220000000000000000e+03 7.894347381591796875e+01 2.460672760009765625e+01 -9.520780431399034072e-14 9.644950040455652074e-14 3.725086789390882371e-16 4.350425252788898967e-14
1.221000000000000000e+03 7.824934387207031250e+01 2.305865669250488281e+01 3.536200602087188893e-14 1.066570402418094698e-13 4.260571658930983885e-14 8.089006081710842233e-14
1.222000000000000000e+03 7.895322418212890625e+01 1.824172782897949219e+01 -1.004724867756726092e-13 -4.305963815761162938e-14 -4.305963815761162938e-14 -1.443906843048847755e-13
1.223000000000000000e+03 7.894893646240234375e+01 1.186324501037597656e+01 3.850315316686510336e-14 1.766296662967029030e-13 6.453984482263086520e-14 -1.834253235410976401e-14
1.224000000000000000e+03 7.895436859130859375e+01 1.266394996643066406e+01 -4.109690357662933169e-14 7.388894048476410403e-14 9.837610903033842252e-15 -7.370501236246551624e-14
1.225000000000000000e+03 7.893725585937500000e+01 3.901859045028686523e+00 -5.974531985678335766e-14 -7.135608157951209285e-14 -3.933041975326227735e-14 2.777582478526597481e-14
1.226000000000000000e+03 7.633794403076171875e+01 -6.491702198982238770e-01 1.279097084462077830e-14 5.481844768699326020e-15 5.481844768699326020e-15 -2.653979873324871508e-14
1.227000000000000000e+03 7.752963256835937500e+01 1.197207069396972656e+01 7.283475038366571397e-14 3.121489205353336627e-14 3.121489205353336627e-14 -6.113088957563836412e-14
1.228000000000000000e+03 7.893154144287109375e+01 2.620063018798828125e+01 -4.895198558573649050e-14 -8.960584688523856589e-14 -4.156734906366615911e-14 4.583516522598841958e-14
1.229000000000000000e+03 7.896193695068359375e+01 9.461713790893554688e+00 6.371876496488043662e-14 -6.419385558060000663e-14 -1.425266473793450881e-16 8.166053553845808999e-14
1.230000000000000000e+03 7.829084014892578125e+01 7.901920795440673828e+00 -2.096103645472455201e-14 -8.983301095729680219e-15 -8.983301095729680219e-15 -2.892475213338296935e-14
1.231000000000000000e+03 7.879986572265625000e+01 3.177699279785156250e+01 5.841998434487349900e-14 3.224183073302633318e-13 1.142514902130464804e-13 -1.736585762614640399e-14
1.232000000000000000e+03 7.798333740234375000e+01 3.179623603820800781e+01 3.139535072888000045e-14 3.794627372738501592e-13 1.232574291113244791e-13 6.755626467307498939e-14
1.233000000000000000e+03 7.853800964355468750e+01 3.816191864013671875e+01 1.290565063534953802e-14 -2.232237561027722306e-13 -6.309543003086420798e-14 3.892742349981530986e-15
1.234000000000000000e+03 7.768931579589843750e+01 3.644174957275390625e+01 3.738394820486726222e-14 2.905273948933945194e-13 9.837339683084131425e-14 8.937178796498967959e-14
1.235000000000000000e+03 7.747074890136718750e+01 3.734154129028320312e+01 -2.386729628224646543e-14 5.839758201748451727e-14 1.035908588997800500e-14 6.256003744556370982e-14
1.236000000000000000e+03 7.791563415527343750e+01 3.565947341918945312e+01 -6.979065627276889727e-14 -7.566123156601753386e-14 -4.363556635163592934e-14 -4.681690012877867679e-14
1.237000000000000000e+03 7.785278320312500000e+01 3.421446990966796875e+01 -7.706748244131270131e-14 2.872277068965978231e-13 6.304807072471732554e-14 1.099674753926409287e-14
1.238000000000000000e+03 7.803998565673828125e+01 3.099216842651367188e+01 4.656496203707914672e-14 1.114583075899171216e-13 4.740698054928570160e-14 5.541925154461252445e-14
1.239000000000000000e+03 7.818406677246093750e+01 2.860816192626953125e+01 1.691268250562938131e-15 2.294795755329592790e-13 6.935124946105125643e-14 -1.719460111673874053e-14
1.240000000000000000e+03 7.815165710449218750e+01 2.939769172668457031e+01 3.426053454065776382e-14 1.468308574769164321e-14 1.468308574769164321e-14 -4.137157264450137817e-14
1.241000000000000000e+03 7.827158355712890625e+01 2.148199462890625000e+01 4.629627640994650462e-14 2.028450514111532210e-13 7.474239732989038099e-14 5.269055184569174100e-14
1.242000000000000000e+03 7.750945281982421875e+01 2.388207626342773438e+01 -3.222213281243134497e-14 1.234433562313785870e-13 2.736636905856324603e-14 1.745793180157884095e-14
1.243000000000000000e+03 7.826750183105468750e+01 2.068604850769042969e+01 2.742525817718815401e-14 1.490065259764430938e-13 5.292953710956185831e-14 -1.120001782831982207e-13
1.244000000000000000e+03 7.826324462890625000e+01 2.227018165588378906e+01 8.948079094090594099e-14 -5.315298778917933176e-14 1.089834179255093002e-14 -1.178979335931748269e-15
1.245000000000000000e+03 7.825228118896484375e+01 1.988301086425781250e+01 1.181168742458646448e-13 2.565007939121094482e-13 1.123853004473922279e-13 1.063729640260252171e-14
1.246000000000000000e+03 7.302429962158203125e+01 1.402171134948730469e+01 5.543944819820685599e-14 1.152616684822055371e-13 5.121033466531053902e-14 -1.381068789061204449e-13
1.247000000000000000e+03 7.828477478027343750e+01 1.509908103942871094e+01 3.098227647742660129e-14 1.962819148751751563e-13 6.817925401764873827e-14 -6.999015624876980812e-14
1.248000000000000000e+03 7.761833190917968750e+01 1.435973453521728516e+01 5.838620467093699751e-14 -2.072829043554390988e-14 1.129737393180474739e-14 -1.297811277932783836e-13
1.249000000000000000e+03 7.829257202148437500e+01 8.691016197204589844e+00 5.861334502607271069e-14 -6.638189076115658116e-14 -2.330564144041634769e-15 7.567985951459355043e-14
1.250000000000000000e+03 7.828151702880859375e+01 9.487423896789550781e+00 -3.119431974082692745e-15 4.441405061653483366e-14 1.238838540215322914e-14 -1.625092475952133464e-13
1.251000000000000000e+03 7.825935363769531250e+01 1.028743457794189453e+01 1.400295132533138295e-14 -2.685044298445654620e-13 -7.635044533453941296e-14 6.823709069783668278e-16
1.252000000000000000e+03 7.828600311279296875e+01 7.124015808105468750e+00 5.170245403140170948e-14 -6.934370070342532610e-14 -5.292374933343326968e-15 7.291914197026655442e-14
1.253000000000000000e+03 7.818944549560546875e+01 3.163698196411132812e+00 4.464861436842028353e-14 1.792634373191590025e-13 6.717361584508696470e-14 -1.466767110330433055e-13
1.254000000000000000e+03 7.825762176513671875e+01 4.768330574035644531e+00 3.583460974785832032e-14 3.823316310899368964e-14 2.222033219586878189e-14 -4.916302553861079394e-14
1.255000000000000000e+03 7.757706451416015625e+01 5.640446662902832031e+00 -2.679426437126285199e-14 1.715205397417179922e-13 4.341788227232336317e-14 -1.206819068505851633e-13
1.256000000000000000e+03 7.811396789550781250e+01 2.326235294342041016e+00 9.357930554586280092e-14 -7.427195523098534258e-14 5.792205687386300580e-15 -9.579693266946465169e-14
1.257000000000000000e+03 7.596041107177734375e+01 -1.938541173934936523e+00 -1.026789771100839604e-14 6.422589375479695328e-14 1.618739932135633552e-14 -4.093481196371095976e-14
1.258000000000000000e+03 7.883705139160156250e+01 -2.356508821249008179e-01 1.266936063031758389e-14 2.799354172945689445e-13 8.778143278454289544e-14 5.222864106263144790e-14
1.259000000000000000e+03 7.615333557128906250e+01 -1.252166390419006348e+00 2.531953935251164689e-14 -1.035261421944780325e-13 -2.346198085258991567e-14 9.133389574159100910e-14
1.260000000000000000e+03 1.908560180664062500e+01 2.465068054199218750e+01 1.595034698667185252e-14 -5.879264631560021659e-13 -1.715928424740956193e-13 -9.791498937605086494e-14
1.261000000000000000e+03 2.177763938903808594e+01 2.200181007385253906e+01 -2.641337737180511624e-14 -4.002030911526288648e-13 -1.279849436066488044e-13 3.580438761230028688e-14
1.262000000000000000e+03 4.567944335937500000e+01 2.941964340209960938e+01 -8.969543586600375873e-15 1.903138359253021827e-14 3.018552255888836897e-15 -4.370380671399852479e-14
1.263000000000000000e+03 4.652354812622070312e+01 2.875805473327636719e+01 -7.739178086363027176e-14 -1.475452789459485992e-13 -6.748111590999458786e-14 2.952644706966274513e-14
1.264000000000000000e+03 4.126194763183593750e+01 4.901721954345703125e+00 -9.956217707912662362e-14 -4.266950494650166570e-14 -4.266950494650166570e-14 -5.575198810915064224e-15
1.265000000000000000e+03 8.275793075561523438e+00 3.352432012557983398e+00 -1.404552489532627860e-14 1.312333352881597803e-13 3.515634303314675579e-14 8.247378203551231080e-14
1.266000000000000000e+03 2.339256286621093750e+01 1.313770675659179688e+01 9.861697640141733889e-14 -1.407393759910238740e-13 -1.263672021569513942e-14 -3.570295033466890089e-14
1.267000000000000000e+03 1.065042972564697266e+00 2.195195007324218750e+01 7.954974298642752961e-14 -1.489110484226285891e-13 -2.080839095323396004e-14 1.021596781507812940e-14
1.268000000000000000e+03 1.759286403656005859e+00 2.274410820007324219e+01 8.685670319910285264e-14 -3.287832788141653584e-13 -7.257797742790325635e-14 -1.023317511999501106e-13
1.269000000000000000e+03 9.993962049484252930e-01 3.156974983215332031e+01 -7.870584744920985920e-14 -4.912405660202623370e-13 -1.709839274289734479e-13 2.515473045789848316e-14
1.270000000000000000e+03 5.892007827758789062e+00 3.199365234375000000e+01 3.250690190116645173e-14 -3.520760614474094385e-13 -9.587074650862018044e-14 -2.395886054384465530e-14
1.271000000000000000e+03 1.972934961318969727e+00 3.915406799316406250e+01 4.017551468913325985e-14 -8.520499301771511380e-13 -2.435623317614821204e-13 6.740858956091888565e-14
1.272000000000000000e+03 2.397439718246459961e+00 3.991259002685546875e+01 9.727745816983865423e-14 -5.988229660400246068e-13 -1.504636394861549875e-13 -6.597594513898727420e-14
1.273000000000000000e+03 1.267540693283081055e+00 3.637044525146484375e+01 -1.161484780966628994e-13 -6.445402479966777509e-13 -2.282066137622440483e-13 1.276266469758943409e-14
1.274000000000000000e+03 4.894291877746582031e+00 2.660534667968750000e+01 -1.022137561222657975e-13 -5.470663527219754574e-13 -1.947840218112506516e-13 9.427856173700732700e-14
1.275000000000000000e+03 9.938563704490661621e-01 2.686531639099121094e+01 1.164420122823361936e-13 2.786584710808698295e-13 1.185301450089618069e-13 7.799543752821588849e-15
1.276000000000000000e+03 1.628399491310119629e+00 2.845302391052246094e+01 5.375964633853001773e-14 -1.142130010359232450e-13 -1.813600539277843149e-14 -1.798194432982638813e-13
1.277000000000000000e+03 5.774148941040039062e+00 3.115921783447265625e+01 2.591602545968228234e-15 -4.563988076355940393e-13 -1.361421554917779941e-13 4.060279876530979715e-14
1.278000000000000000e+03 2.855204343795776367e+00 3.445417785644531250e+01 5.361276066108075500e-14 -5.260345110891240239e-13 -1.417265149640176136e-13 1.863963424255689338e-14
1.279000000000000000e+03 2.065157413482666016e+00 3.468618774414062500e+01 8.579091213475886768e-14 -4.207419460576511394e-13 -1.004853142426258283e-13 2.611831175056318621e-14
1.280000000000000000e+03 5.128361225128173828e+00 2.807304382324218750e+01 -1.685642863355832355e-13 -9.415098908838182012e-13 -3.330222382580405593e-13 2.400758357303661716e-13
1.281000000000000000e+03 1.745012402534484863e+00 2.354876136779785156e+01 8.899994727740861977e-14 -1.906119034313091820e-13 -3.048358752379652648e-14 -4.870279188078606436e-14
1.282000000000000000e+03 1.035070538520812988e+00 2.605029296875000000e+01 -9.453628336967070944e-14 2.811087205568420233e-14 -1.992762407182230994e-14 -9.656208124764198431e-14
1.283000000000000000e+03 3.813087940216064453e+00 2.554009246826171875e+01 9.896297241971177550e-14 6.528817471460751642e-14 4.927534549554850318e-14 -7.888269437606940104e-14
1.284000000000000000e+03 2.325317621231079102e+00 2.628367424011230469e+01 -8.574304460884363266e-14 -3.674702008611349657e-14 -3.674702008611349657e-14 -1.221877959055317486e-13
1.285000000000000000e+03 3.033501148223876953e+00 2.917975234985351562e+01 -1.038416518029348923e-13 -7.307678225564051555e-13 -2.503828307881539317e-13 1.774510714151050772e-13
1.286000000000000000e+03 2.297042369842529297e+00 2.845253372192382812e+01 -1.498130402556325375e-14 -4.639300553964387230e-13 -1.436734032526226779e-13 1.593456134185364248e-13
1.287000000000000000e+03 1.559591531753540039e+00 4.109585571289062500e+01 9.215152648118021816e-15 -6.594394084610821771e-13 -1.950672696288124897e-13 1.513262307345844548e-14
1.288000000000000000e+03 1.069870710372924805e+00 2.034043884277343750e+01 -1.722877042583097901e-14 -1.903875548967676190e-13 -6.228489403924120094e-14 -2.134216909373699150e-14
1.289000000000000000e+03 1.778825998306274414e+00 2.193853569030761719e+01 7.790098319020166695e-14 -1.236481416929703647e-14 1.966085104508456805e-14 -9.804347410975397525e-14
1.290000000000000000e+03 1.065901875495910645e+00 1.710471534729003906e+01 -4.579309479356419299e-14 -1.568784571649370352e-13 -6.080146829805579967e-14 4.869936647954736797e-14
1.291000000000000000e+03 2.521847724914550781e+00 1.948719787597656250e+01 1.373640953858824149e-14 -1.084903380240559434e-13 -2.842617837623372112e-14 1.269956091242557816e-13
1.292000000000000000e+03 1.055755853652954102e+00 9.831474304199218750e+00 -5.022090192709563472e-14 -4.439871932018953082e-14 -2.838588671299872856e-14 -5.042550188847196371e-15
1.293000000000000000e+03 1.832501769065856934e+00 1.302517795562744141e+01 -1.037212850329982672e-13 -1.359538702319987302e-13 -7.190254657949909922e-14 5.392826688140582581e-14
1.294000000000000000e+03 1.798027157783508301e+00 7.362904548645019531e+00 5.204289436059510512e-15 -4.352053927739879535e-14 -1.149487491005013809e-14 3.261351963230324502e-14
1.295000000000000000e+03 1.771111726760864258e+00 1.464853000640869141e+01 -5.248341502063838537e-14 -6.824383858581098417e-14 -3.621817675956116866e-14 2.371762217233484155e-14
1.296000000000000000e+03 1.088841676712036133e+00 1.226850605010986328e+01 -1.002718687161813227e-13 -2.009818262608143585e-14 -3.611101353920634360e-14 -4.644528559899453388e-15
1.297000000000000000e+03 1.128279924392700195e+00 4.237224578857421875e+00 3.023391948039563792e-14 1.273347611163364035e-13 4.727060485664597023e-14 8.568276296805343861e-14
1.298000000000000000e+03 1.770820617675781250e+00 1.625165176391601562e+01 -6.723230506393632067e-14 -5.168931824445568979e-14 -3.567648563726488753e-14 3.606032369951085725e-14
1.299000000000000000e+03 1.076084256172180176e+00 7.427777290344238281e+00 -1.637227612055584813e-14 2.446135199778154412e-13 6.847237485124377243e-14 2.831743120426753052e-14
1.300000000000000000e+03 1.756928682327270508e+00 8.953455924987792969e+00 -4.928626205617271661e-14 2.462826559986204533e-14 -7.397398767486611931e-15 4.205813350583245680e-14
1.301000000000000000e+03 1.776714324951171875e+00 8.160811424255371094e+00 4.202006784518284854e-14 2.010123973739466607e-13 7.290973651642024267e-14 1.189926622676123341e-14
1.302000000000000000e+03 5.835295200347900391e+00 4.075571060180664062e+00 4.371334430498460821e-14 2.017380809930455210e-13 7.363542691178268096e-14 1.105342014207262580e-13
1.303000000000000000e+03 1.746516227722167969e+00 9.741958618164062500e+00 5.459138864702048344e-14 6.914725682229810877e-14 3.712159499604829327e-14 6.975980394469810664e-14
1.304000000000000000e+03 6.341005802154541016e+00 1.187897300720214844e+01 -1.108022094215010966e-13 1.240794034358672082e-13 3.983155917320875886e-15 -1.821437415160782024e-16
1.305000000000000000e+03 1.833775758743286133e+00 1.219426822662353516e+01 1.186121242457288671e-13 -1.779265719947711183e-14 3.024583892802940044e-14 -1.592638442459402837e-14
1.306000000000000000e+03 2.604229688644409180e+00 1.298176479339599609e+01 4.207698845923833753e-15 -8.969860038109470080e-14 -2.564726995233149176e-14 2.084628720729411744e-14
1.307000000000000000e+03 1.761575222015380859e+00 1.544753265380859375e+01 3.074829918997800662e-16 -2.514984477185872036e-13 -7.535728903948837876e-14 5.815281660078233661e-14
1.308000000000000000e+03 1.788028836250305176e+00 1.705783462524414062e+01 4.087540446092233215e-14 -2.823291764492228545e-14 3.792745875393424559e-15 3.848100833749208693e-14
1.309000000000000000e+03 1.791228175163269043e+00 1.868688774108886719e+01 -8.214762691697435892e-15 -1.407734605968213870e-13 -4.469646495367657346e-14 9.395712967418326511e-14
1.310000000000000000e+03 1.069458484649658203e+00 1.953024101257324219e+01 6.051934534024791534e-14 -8.844051250893325555e-14 -8.376350320012191514e-15 1.585690942700751505e-13
1.311000000000000000e+03 1.788751363754272461e+00 1.950433540344238281e+01 -1.865660370062218604e-15 -4.125581170091874306e-13 -1.243271300797529899e-13 -1.028959835630387232e-13
1.312000000000000000e+03 1.149770379066467285e+00 3.445708274841308594e+00 3.740550688744077867e-14 6.178187844131655115e-14 2.975621661506673565e-14 6.415870710142074218e-14
1.313000000000000000e+03 2.770835161209106445e+00 2.622298240661621094e+00 9.745700204960225377e-14 -3.983662866539807584e-15 2.804200150080884968e-14 -9.030084758285608637e-14
1.314000000000000000e+03 5.293057918548583984e+00 2.975176429748535156e+01 -6.099157637273755483e-14 -6.437770780874652043e-13 -2.114305909170499653e-13 1.922632653127490099e-14
1.315000000000000000e+03 5.266084289550781250e+01 2.411451816558837891e+00 -2.381621172519755858e-14 2.185477954207495910e-13 5.841947612510514642e-14 2.881561024406335825e-14
1.316000000000000000e+03 5.141917037963867188e+01 4.783437728881835938e+00 1.303138234256748240e-13 2.846035310633682203e-13 1.244752049914601977e-13 9.046961042726703317e-14
1.317000000000000000e+03 5.244813156127929688e+01 4.814854621887207031e+00 2.490850475639523609e-14 2.222732089530998767e-13 7.415451580691442834e-14 8.388739193305322361e-14
1.318000000000000000e+03 5.027028656005859375e+01 4.672541618347167969e+00 5.644857953464310629e-14 1.614450896103916677e-13 6.536810074351043220e-14 1.965829131151796555e-14
1.319000000000000000e+03 3.226979827880859375e+01 1.823056983947753906e+01 -1.338419528202142161e-13 -2.403646400840619979e-13 -1.122619724502720018e-13 -2.113467685365896798e-13
1.320000000000000000e+03 3.694793319702148438e+01 2.138873863220214844e+01 -3.026601864096478689e-14 1.242816884561986912e-13 2.820470297744924471e-14 -1.362224135575962336e-13
1.321000000000000000e+03 6.340951156616210938e+01 3.432865142822265625e+01 -1.289647133930014317e-14 -5.127800920966436860e-14 -1.925234399528276408e-14 7.951174170028191268e-14
1.322000000000000000e+03 6.027805709838867188e+01 1.402609443664550781e+01 -1.547049604578871335e-14 1.534981045265074173e-13 4.140828305243537955e-14 -1.782683836703061186e-14
1.323000000000000000e+03 1.759676933288574219e+01 1.907040405273437500e+01 1.192846819583759377e-13 3.713786548252551167e-13 1.471989983245838851e-13 -2.414570008778954557e-13
1.324000000000000000e+03 1.067762756347656250e+01 1.727754020690917969e+01 3.920180627055118439e-14 1.680077314791285359e-14 1.680077314791285359e-14 7.349923079012776750e-14
1.325000000000000000e+03 9.408646583557128906e+00 1.487147998809814453e+01 1.183247293548572721e-13 -1.791582426033735964e-14 3.012267017310325812e-14 6.210095236441545707e-14
1.326000000000000000e+03 5.326699447631835938e+01 6.077090740203857422e+00 1.819153551754770781e-13 -1.353817079464579229e-14 5.051315878708446949e-14 -2.022201799593706731e-15
1.327000000000000000e+03 5.393285369873046875e+01 6.597833156585693359e+00 1.497409509755576185e-13 1.842374417902661182e-14 5.044940769934232183e-14 8.075175050121716214e-14
1.328000000000000000e+03 5.201377868652343750e+01 4.330743789672851562e+00 1.252056726526451502e-13 1.909124171684678517e-13 9.483542830158661618e-14 2.130672584709208256e-14
1.329000000000000000e+03 5.420973968505859375e+01 2.511068344116210938e+00 1.790129595122605388e-14 5.342293380133748826e-14 2.139726858695588374e-14 5.923956664837318198e-14
1.330000000000000000e+03 5.855603027343750000e+01 2.178038120269775391e+00 7.829718454534576044e-14 2.102159592232144547e-15 2.411980358008655040e-14 -1.112439743729438935e-13
1.331000000000000000e+03 5.647259521484375000e+01 3.774646759033203125e+00 3.568698545767905184e-14 -3.045652651519764609e-14 1.569137640392774362e-15 3.240721289953819861e-14
1.332000000000000000e+03 3.063902282714843750e+01 1.362571811676025391e+01 4.580705931754580629e-13 -3.069444655043329639e-13 4.533784168946931870e-14 -1.807996162722994016e-13
1.333000000000000000e+03 2.226523399353027344e+01 2.450112533569335938e+01 -1.792069300571817736e-15 -3.896510935089136929e-13 -1.174329459629336325e-13 3.892647312884849053e-14
1.334000000000000000e+03 2.080049705505371094e+01 2.316165733337402344e+01 -2.657537496406634295e-15 -4.586484187232842125e-13 -1.383917936845224794e-13 4.700446032835509103e-14
1.335000000000000000e+03 4.450826644897460938e+01 3.357796478271484375e+01 3.810816815103326705e-14 -2.941887727349323800e-14 2.606786882097182449e-15 -8.639165500600592962e-14
1.336000000000000000e+03 5.993801116943359375e+01 2.262996101379394531e+01 -1.291672660757442470e-13 2.648992407806166627e-13 4.071959105620900909e-14 8.064100602556134589e-14
1.337000000000000000e+03 5.484058761596679688e+01 2.260035514831542969e+01 1.248438608351595813e-13 1.907573627052752685e-13 9.468036706213045495e-14 -6.900222445293743845e-14
1.338000000000000000e+03 6.014232254028320312e+01 1.058616733551025391e+01 1.810013015933042285e-14 5.350814870396305989e-14 2.148248348958145537e-14 1.506627350039235844e-15
1.339000000000000000e+03 2.531208992004394531e+00 7.306562423706054688e+00 -8.764229576449511505e-14 8.189965802166566250e-15 -2.383569856518209101e-14 -1.574234957614408653e-14
1.340000000000000000e+03 3.504590272903442383e+00 3.361209869384765625e+00 -3.307968252075875470e-14 8.698467632490582135e-15 -7.314364127667272869e-15 1.451774999858528731e-14
1.341000000000000000e+03 2.565520524978637695e+00 6.514200687408447266e+00 2.296582240988976308e-15 -1.362686005701441161e-13 -4.019160492699930254e-14 -3.643397703759904127e-14
1.342000000000000000e+03 5.905276298522949219e+00 3.325872659683227539e+00 7.623670575038210551e-14 -1.503309195877156057e-13 -2.222826550645276567e-14 1.134811442407047954e-13
1.343000000000000000e+03 8.409274101257324219e+00 2.629211187362670898e+00 4.120618099122050348e-14 -2.809115651680391124e-14 3.934507427028272400e-15 7.022865362166230696e-14
1.344000000000000000e+03 6.705488681793212891e+00 3.320077657699584961e+00 5.326517560897726933e-14 2.058317302407533522e-13 7.772906938322693415e-14 9.010502034171447017e-14
1.345000000000000000e+03 5.097507953643798828e+00 3.330169916152954102e+00 -7.476845375741381777e-15 1.111730065644911392e-13 3.110885030480070590e-14 7.226374175699906699e-14
1.346000000000000000e+03 9.205374717712402344e+00 2.678291559219360352e+00 -1.234110741116928311e-14 -9.679094277372651822e-14 -3.273961573309509820e-14 5.795856822905440242e-14
1.347000000000000000e+03 9.153833389282226562e+00 5.141176700592041016e+00 3.566820843130431851e-14 1.525392225726340811e-13 5.646223031762105660e-14 -3.549017227018683163e-14
1.348000000000000000e+03 3.513441085815429688e+01 2.439423370361328125e+01 3.548536789931000524e-14 1.238665203392996794e-13 4.780556714920926320e-14 -2.278918766478350844e-14
1.349000000000000000e+03 3.299672317504882812e+01 1.809996032714843750e+01 -1.476304226978066014e-14 -2.350817565784091290e-13 -7.495344405902826246e-14 3.147340312090358971e-14
1.350000000000000000e+03 5.448460388183593750e+01 3.396741104125976562e+01 -8.205834117400428313e-15 8.798511371517145352e-14 2.393378328640824448e-14 -1.687244060558003994e-14
1.351000000000000000e+03 5.546358108520507812e+00 3.049590492248535156e+01 5.912533070290878351e-15 -2.719717626022827295e-13 -7.981776453972952434e-14 5.830399504120828413e-14
1.352000000000000000e+03 3.734159231185913086e+00 3.076967239379882812e+01 7.911947566021076267e-15 -4.541186491516940871e-13 -1.338620105604051980e-13 -3.427319980080158375e-15
1.353000000000000000e+03 7.092437744140625000e+01 1.840766334533691406e+01 2.905885100146048117e-14 2.183330691804888368e-13 7.421757571577161650e-14 4.024717706460276267e-14
1.354000000000000000e+03 2.068380737304687500e+01 2.684652137756347656e+01 -6.531614035439406440e-14 -6.685059407082749594e-13 -2.201466141544053401e-13 -1.314833065693557859e-14
1.355000000000000000e+03 7.567962169647216797e+00 2.268363189697265625e+01 1.372314940720556486e-13 -1.699412501996941383e-13 -9.812924974819062923e-15 6.951367649901674106e-14
1.356000000000000000e+03 4.383534622192382812e+01 2.437481164932250977e+00 1.068043697645230938e-13 -2.285312171164226303e-14 2.518537441586424924e-14 -3.087335142854148728e-14
1.357000000000000000e+03 1.287783241271972656e+01 3.656641006469726562e+01 1.839633724217207278e-13 -1.266045407887720492e-14 5.139087465582010961e-14 -6.638601242347792059e-15
1.358000000000000000e+03 8.151910781860351562e+00 3.622685241699218750e+01 7.064849736043016248e-14 8.174774605070739275e-14 4.571887099046219316e-14 -3.298235165885565756e-14
1.359000000000000000e+03 2.231082344055175781e+01 2.921286964416503906e+01 2.364323404484107438e-14 -3.558747805991469004e-13 -9.966946566035764232e-14 -9.345803245067261372e-15
1.360000000000000000e+03 5.202368545532226562e+01 1.868574142456054688e+01 1.934178322062288236e-13 2.430216672431179115e-13 1.309318457690458737e-13 -2.185208292798408031e-14
1.361000000000000000e+03 5.308527755737304688e+01 1.739033317565917969e+01 1.433260790866669465e-13 3.302122843825555654e-13 1.420615063302613224e-13 -1.207948536119038407e-13
1.362000000000000000e+03 5.254246139526367188e+01 1.802881431579589844e+01 -7.135510579755685590e-15 1.981739798033021333e-14 3.804566220172358321e-15 -9.504349347475016252e-14
1.363000000000000000e+03 6.957382202148437500e+01 2.069021224975585938e+01 -1.468671380156297019e-15 9.087246607324475645e-14 2.682113903261333643e-14 3.978574197524564759e-13
1.364000000000000000e+03 6.147080612182617188e+01 2.146135520935058594e+01 -9.950115682560642383e-14 9.460949412136779313e-14 -1.467499192436415474e-15 1.410224476257326831e-13
1.365000000000000000e+03 1.901428222656250000e+01 1.944732666015625000e+01 1.661398069899983065e-13 2.542065679050214966e-13 1.261039206000222346e-13 -1.775660239504428528e-13
1.366000000000000000e+03 2.186327171325683594e+01 1.352687358856201172e+01 1.208246420665928800e-13 -1.083463288704955563e-13 3.743493027092955130e-15 -2.240706128671735020e-13
1.367000000000000000e+03 1.617603659629821777e+00 2.769258499145507812e+01 -1.954100985909171424e-15 -9.233937128382690984e-14 -2.828804085506370081e-14 4.164513718141020504e-14
1.368000000000000000e+03 3.213338470458984375e+01 3.163359260559082031e+01 9.333060989628536031e-14 1.772516730830578369e-13 8.117468421617660135e-14 4.084728635520527840e-14
1.369000000000000000e+03 3.447118759155273438e+01 2.910017776489257812e+01 -3.369109123087764279e-14 5.418738442436628333e-14 6.148887873343297436e-15 -6.924188056690178117e-14
1.370000000000000000e+03 4.481301879882812500e+01 1.587371921539306641e+01 6.750744847025882955e-14 1.776223482533034748e-13 7.353893969469504910e-14 4.493714089530941036e-14
1.371000000000000000e+03 4.389617538452148438e+01 1.521415138244628906e+01 1.353020072283189768e-13 2.409903602628576946e-13 1.128877129578584326e-13 1.617480428024384298e-13
1.372000000000000000e+03 1.541610908508300781e+01 3.602959442138671875e+01 2.193890956490168742e-13 -8.915737512691940952e-15 6.314201006669961647e-14 -1.109956463356655612e-14
1.373000000000000000e+03 1.630799484252929688e+01 3.666101837158203125e+01 8.439786819717728927e-14 -8.392572525611416423e-14 1.416425964453178147e-16 8.145049169632975761e-14
1.374000000000000000e+03 2.197638511657714844e+01 2.628246307373046875e+01 1.951180882175159587e-14 -3.690831277755601825e-13 -1.048713931450437342e-13 9.483530632884221157e-14
1.375000000000000000e+03 5.157399749755859375e+01 1.937252807617187500e+01 9.999357773542681682e-15 -5.290324859501087384e-14 -1.287116707703386820e-14 -1.436970795175643301e-13
1.376000000000000000e+03 9.692251205444335938e+00 9.783079147338867188e+00 9.656336873772181084e-14 -5.011759440071671123e-14 1.393373263991470878e-14 5.253919044614918654e-14
1.377000000000000000e+03 9.795388221740722656e+00 4.219284057617187500e+00 5.654674048883451265e-14 -6.726758229212356777e-14 -3.216252075118595545e-15 2.342704074351567578e-14
1.378000000000000000e+03 9.931791305541992188e+00 2.229364776611328125e+01 1.733647811896429913e-13 -8.582913026133898171e-14 2.626069629493073959e-14 4.256669208736393872e-14
1.379000000000000000e+03 1.017087841033935547e+01 1.855778503417968750e+01 -3.652147892918219951e-14 -1.565206264023035615e-14 -1.565206264023035615e-14 2.840315877358442782e-16
1.380000000000000000e+03 1.589105796813964844e+01 3.529233932495117188e+01 1.623611320259246704e-13 -1.591713956819451603e-13 9.569214961169161121e-16 1.065675122474164793e-13
1.381000000000000000e+03 1.774118804931640625e+01 4.065197944641113281e+00 -1.219261364166965809e-15 -2.339801461847916542e-14 -7.385182858321310412e-15 -1.376402653961369960e-13
1.382000000000000000e+03 1.675005149841308594e+01 4.682655334472656250e+00 -1.034639818346108284e-14 -2.730964495615152005e-14 -1.129681319599366504e-14 -1.448157864241891857e-13
1.383000000000000000e+03 1.868394279479980469e+01 4.061180591583251953e+00 -1.259151203442110400e-13 -3.284693209700678684e-13 -1.363153296837782413e-13 -1.255073790121935540e-13
1.384000000000000000e+03 1.822321891784667969e+01 5.194434642791748047e+00 -4.297970535244513557e-14 -1.470944134725205021e-13 -5.702223768036876472e-14 -2.108645289627952835e-13
1.385000000000000000e+03 1.519427013397216797e+01 4.393680095672607422e+00 -7.554119683299623245e-14 -3.237479864271267105e-14 -3.237479864271267105e-14 -5.950171995741659892e-14
1.386000000000000000e+03 7.652374267578125000e+01 -2.715270280838012695e+00 1.594752128475981218e-14 -1.604082196389987336e-14 -2.799069674166343631e-17 7.333540106560162974e-14
1.387000000000000000e+03 5.585567474365234375e+01 1.128385734558105469e+01 -2.077898027523939622e-14 8.259662214165491845e-14 1.854529171289170941e-14 -5.894294248650830403e-14
1.388000000000000000e+03 2.106262588500976562e+01 2.190550804138183594e+01 -9.587107176927192609e-14 -2.698423353254125745e-13 -1.097140228060317080e-13 -1.168724269922857828e-13
1.389000000000000000e+03 5.342737197875976562e+01 3.432372283935546875e+01 -9.896374660782556593e-15 8.726059561340801518e-14 2.320926518464480615e-14 -5.004238465126410740e-14
1.390000000000000000e+03 5.773549556732177734e+00 2.517680549621582031e+01 -2.318133681430793736e-14 -5.703839635849694556e-13 -1.780695952019809014e-13 1.425118025975488645e-14
1.391000000000000000e+03 1.751956939697265625e+01 3.404777526855468750e+01 2.044534788865626229e-13 -3.878976794039227724e-15 6.017235321120750768e-14 9.583548283296008941e-14
1.392000000000000000e+03 2.129866790771484375e+01 2.306486129760742188e+01 -4.239885759106318264e-14 -3.841785288331844850e-13 -1.279732206706588049e-13 -4.977644002274878021e-14
1.393000000000000000e+03 2.091519927978515625e+01 2.259102821350097656e+01 1.307624391795950136e-13 -3.546085137768467677e-14 2.859047905107853227e-14 -8.880004072559302686e-14
1.394000000000000000e+03 5.255405426025390625e+01 2.626475715637207031e+01 1.365780183176443230e-13 -1.295242294766397323e-14 3.708767640870844207e-14 -2.840431137366740411e-14
1.395000000000000000e+03 4.668406677246093750e+01 3.078789710998535156e+01 3.341271173518014885e-15 -4.431897625040322197e-14 -1.229331103602161746e-14 -1.802311114750248383e-14
1.396000000000000000e+03 4.576652908325195312e+01 3.233071899414062500e+01 5.105802458886705975e-14 -6.961988765433885229e-14 -5.568558496125064136e-15 -1.430807038062427428e-14
1.397000000000000000e+03 2.013245201110839844e+01 2.364204216003417969e+01 4.579204447270959766e-14 -3.921333743828192553e-13 -1.039024010059119707e-13 -1.788353671964074132e-13
1.398000000000000000e+03 6.922594451904296875e+01 9.634333252906799316e-01 8.486848647893535658e-14 -5.512968824939595835e-14 8.921639638268408917e-15 1.248499459198526562e-14
1.399000000000000000e+03 6.788033294677734375e+01 6.670838832855224609e+00 -3.118630299749763912e-14 7.813633637679395783e-14 1.408501018319548506e-14 4.944212967099466394e-14
1.400000000000000000e+03 7.121244049072265625e+01 1.686908912658691406e+01 -1.354673074020415480e-13 2.907935665267397107e-13 4.659787773740944883e-14 -1.189457874643112811e-13
1.401000000000000000e+03 7.224725341796875000e+01 1.642669677734375000e+01 -1.193112991217104568e-13 8.611943216928555356e-14 -9.957560932760418232e-15 -5.385806479073738939e-14
1.402000000000000000e+03 2.737794685363769531e+01 1.314306354522705078e+01 1.483755745221651545e-13 2.465933273548825966e-13 1.184906664973561785e-13 1.076985790588076697e-14
1.403000000000000000e+03 2.861462211608886719e+01 1.037048435211181641e+01 -1.596516430342476145e-13 -1.141730752909214663e-13 -8.214741685280343986e-14 -2.515659121987701141e-13
1.404000000000000000e+03 1.966652297973632812e+01 2.496982765197753906e+01 -2.287629314494735167e-14 -5.359400531874947138e-13 -1.676448964458426838e-13 -1.683219807025598813e-14
1.405000000000000000e+03 6.243277549743652344e+00 3.286399841308593750e+01 1.969840306495496129e-13 -2.758670028524257134e-13 -2.366488928917057782e-14 9.134427020112897977e-14
1.406000000000000000e+03 5.415477752685546875e+01 2.535782051086425781e+01 2.026233456194070914e-13 -1.133218275077216286e-13 2.679045441706610214e-14 -2.357731523038031352e-13
1.407000000000000000e+03 3.151890754699707031e+01 2.764330291748046875e+01 -3.698611377020086244e-14 1.671526008968984844e-13 3.904994681563564440e-14 -8.000661561751755413e-15
1.408000000000000000e+03 3.136695480346679688e+01 2.571088981628417969e+01 2.871840677591552815e-13 -1.417396304221728992e-14 8.190303090686162912e-14 -8.805814341357606160e-16
1.409000000000000000e+03 1.832703399658203125e+01 3.353371047973632812e+01 7.727172580181823625e-14 -2.871401846762239307e-13 -6.296053495181627713e-14 6.924558040681538795e-14
1.410000000000000000e+03 1.671421813964843750e+01 3.540909194946289062e+01 1.243968578319709639e-13 7.618841131986145432e-14 6.017557871267065206e-14 4.419269041423118383e-14
1.411000000000000000e+03 7.809486389160156250e+01 -1.915076494216918945e+00 7.939267597295227019e-14 1.712782747662761063e-13 7.520128589939487074e-14 -2.683444253208291247e-14
1.412000000000000000e+03 5.494038009643554688e+01 3.554386520385742188e+01 4.634282934072760096e-14 -1.459859793814799467e-13 -2.989294467341252481e-14 1.656590310891367657e-13
1.413000000000000000e+03 6.654328155517578125e+01 5.641987323760986328e+00 -9.263888891023960848e-14 -1.312042786699371688e-13 -6.715294824117395978e-14 1.157561595405490196e-13
1.414000000000000000e+03 3.830160140991210938e+01 1.187390804290771484e+01 1.612150219093902437e-13 -3.456234254415983809e-14 3.799580414838230058e-14 1.339913558795827186e-13
1.415000000000000000e+03 3.049730682373046875e+01 2.895188140869140625e+01 9.916577921233876713e-14 4.249962063046855421e-14 4.249962063046855421e-14 9.182947820188702877e-16
1.416000000000000000e+03 2.853720664978027344e+01 6.695639610290527344e+00 5.850044569859907950e-14 7.082256601922271022e-14 3.879690419297289472e-14 -8.286072701460880929e-14
1.417000000000000000e+03 5.671893310546875000e+01 2.247973442077636719e+01 2.912631209351160266e-14 5.823365742526828703e-14 2.620799051682078801e-14 -1.393626018622931562e-13
1.418000000000000000e+03 5.912766647338867188e+01 1.794068145751953125e+01 6.216312966494160624e-15 2.664133977241613972e-15 2.664133977241613972e-15 -1.018414478724978534e-13
1.419000000000000000e+03 2.281208801269531250e+01 1.786763954162597656e+01 1.592829465329667626e-13 -3.892453579509153050e-13 -6.898872613588999392e-14 -6.797904931023571184e-14
1.420000000000000000e+03 2.006538581848144531e+01 1.654432296752929688e+01 3.011442007219700123e-13 -8.191043228075473720e-15 8.788594987397049807e-14 -2.824222789226532582e-13
1.421000000000000000e+03 5.591230392456054688e+01 1.051368904113769531e+01 1.299624741591537402e-13 9.947251694759386142e-15 4.197291521507509615e-14 -8.197655336668330239e-14
1.422000000000000000e+03 1.659188389778137207e+00 3.152442932128906250e+01 3.719558840618863993e-14 -3.500666282459791168e-13 -9.386131330718985866e-14 8.804905453829378614e-14
1.423000000000000000e+03 3.074898719787597656e+01 2.787510681152343750e+01 1.316504143113877978e-13 1.479235028738201674e-13 8.387217244505695835e-14 -1.114711079518160286e-13
1.424000000000000000e+03 1.888529777526855469e+01 1.754665184020996094e+01 4.249880612358647447e-13 1.821377385935810111e-13 1.821377385935810111e-13 -1.381054423382419016e-13
1.425000000000000000e+03 2.703662872314453125e+01 7.532915115356445312e+00 1.409415254860837963e-13 2.891582643899798244e-13 1.290299383180718018e-13 -1.532538337770464332e-13
1.426000000000000000e+03 5.843603515625000000e+01 2.221019363403320312e+01 -6.185695944176117234e-14 2.708710534517211332e-13 6.270422278197712584e-14 1.807702987679290357e-14
1.427000000000000000e+03 1.315683650970458984e+01 2.210037612915039062e+01 3.824569784136033768e-13 1.639101316697547106e-13 1.639101316697547106e-13 -8.780701995581355335e-14
1.428000000000000000e+03 1.532949924468994141e+01 1.920186805725097656e+01 2.251934261895266465e-13 1.422624225453500424e-13 1.102367573309684379e-13 -2.907643201731369142e-13
1.429000000000000000e+03 5.362028884887695312e+01 1.674643325805664062e+01 -2.234977238273639505e-14 -8.964263522020371466e-14 -3.359772109503590676e-14 -1.736043492121808196e-13
1.430000000000000000e+03 2.119176101684570312e+01 3.088965225219726562e+01 -4.581681256312026065e-15 -2.307183307251325921e-13 -7.058999787696099149e-14 -3.935770437855923287e-14
1.431000000000000000e+03 6.081249713897705078e+00 3.416706085205078125e+01 1.964876015798228126e-13 -3.046740919450396934e-13 -3.245594778719142204e-14 1.047432201194652135e-13
1.432000000000000000e+03 3.358988523483276367e+00 3.138125228881835938e+01 3.961119423461813283e-14 -3.032804042624182017e-13 -7.910076809053770419e-14 8.235395567259603394e-15
1.433000000000000000e+03 6.929395294189453125e+01 5.963384151458740234e+00 -2.689933372617206442e-14 3.422266200352012955e-14 2.196998906720893166e-15 1.304666417218866559e-13
1.434000000000000000e+03 6.562761688232421875e+01 6.293580055236816406e+00 -1.356513913784024306e-13 -3.526083301752004628e-14 -5.127366562471084854e-14 6.799233756311223731e-14
1.435000000000000000e+03 6.369715881347656250e+01 5.994607508182525635e-02 8.121512495721031066e-14 -1.094446697169366295e-14 2.108119824268794157e-14 -9.024680688082126201e-14
1.436000000000000000e+03 6.529428100585937500e+01 4.337312281131744385e-01 1.020730876666493814e-13 4.374560948401141902e-14 4.374560948401141902e-14 4.267678604171626366e-14
1.437000000000000000e+03 6.073403930664062500e+01 2.281691360473632812e+01 -4.158810137087388947e-14 1.651803287249301033e-13 3.707766447927189624e-14 6.304901262535467232e-14
1.438000000000000000e+03 6.707164001464843750e+01 -8.979097753763198853e-02 1.154452882845113243e-14 -1.780561375425149251e-13 -4.995348346125208505e-14 5.501096133524521758e-14
1.439000000000000000e+03 5.917448806762695312e+01 2.242377471923828125e+01 -2.217950520781112461e-14 -1.010073982462590669e-13 -3.695607120562764691e-14 -1.134877172163754888e-13
1.440000000000000000e+03 5.825276947021484375e+01 2.282911300659179688e+01 -5.727172615278483536e-14 2.120592215010524278e-14 -1.081974137021046722e-14 -1.379746468986586816e-13
1.441000000000000000e+03 3.276030731201171875e+01 2.795386695861816406e+01 3.459125347271552187e-14 1.482482315888749430e-14 1.482482315888749430e-14 -4.531751205170226823e-15
1.442000000000000000e+03 1.947759628295898438e+01 1.707237052917480469e+01 2.536435959269583984e-13 1.720249715787304512e-14 8.125382419850446514e-14 -3.551732475834401548e-13
1.443000000000000000e+03 2.236437797546386719e+01 1.859912681579589844e+01 1.620512263874468450e-13 -4.338099161577818608e-13 -8.152760557584778911e-14 -6.286002941042687087e-14
1.444000000000000000e+03 5.299748992919921875e+01 3.537857437133789062e+01 2.091238965849784304e-14 -8.253944402958346416e-14 -1.848811698895204414e-14 7.920821930209459572e-15
1.445000000000000000e+03 2.079014396667480469e+01 1.090843486785888672e+01 -1.364269482974356240e-13 -3.329743978371796365e-13 -1.408204065508900094e-13 -1.328187099148767092e-13
1.446000000000000000e+03 2.656809043884277344e+01 1.398617553710937500e+01 3.053499293692585326e-13 5.883737507622610607e-13 2.681170986184450156e-13 -1.115870023877911510e-13
1.447000000000000000e+03 4.404522705078125000e+01 1.115046691894531250e+01 8.888640420489507532e-14 3.125998537713975400e-13 1.204458760376350690e-13 -4.153304422930235995e-14
1.448000000000000000e+03 3.571192550659179688e+01 2.471097183227539062e+01 1.570582585427166000e-13 -2.419121692786956046e-14 3.986011011276185956e-14 -1.766217109632622906e-13
1.449000000000000000e+03 3.611078262329101562e+01 2.295116615295410156e+01 -3.575201387110565898e-14 5.902299726441920247e-14 6.981295526213831398e-15 -2.456193783789435009e-14
1.450000000000000000e+03 4.370318984985351562e+01 9.718043327331542969e+00 8.053780353126788194e-14 8.026715278769760986e-14 4.824148757331600534e-14 2.807132832254163532e-15
1.451000000000000000e+03 3.325280761718750000e+01 2.851323127746582031e+01 1.125810209623824901e-14 3.341924447678584764e-14 1.340320371779734482e-14 9.533502866266793663e-14
1.452000000000000000e+03 3.035067367553710938e+01 1.152700805664062500e+01 4.476734467070281331e-14 -3.010706376045668708e-13 -7.689098788015921726e-14 1.251281115397309684e-14
1.453000000000000000e+03 4.096207046508789062e+01 6.148783206939697266e+00 -1.028014343573344092e-13 -1.813106007561918198e-13 -8.523361188931058430e-14 -1.158634548980436163e-13
1.454000000000000000e+03 8.123186111450195312e+00 1.208662605285644531e+01 9.501777755447152196e-14 1.550992813998883224e-13 7.503511836393431111e-14 7.092128262702751540e-14
1.455000000000000000e+03 1.646189689636230469e+01 6.224603652954101562e+00 8.197830841895001330e-14 8.088451105723801215e-14 4.885884584285640764e-14 -4.760264177196965596e-14
1.456000000000000000e+03 1.659957695007324219e+01 5.453654766082763672e+00 -4.830748160430248239e-14 -1.579560592566975341e-13 -6.187906361355272056e-14 -1.389893923694693334e-13
1.457000000000000000e+03 2.792200088500976562e+01 8.165905952453613281e+00 -7.366793942443009002e-14 2.886846577759838439e-13 6.450501482783976837e-14 -2.128190744292435266e-13
1.458000000000000000e+03 4.606332015991210938e+01 2.308071899414062500e+01 -3.732360896583665488e-14 -1.074977306063547300e-13 -4.344640356572330997e-14 -9.816264148103728826e-14
1.459000000000000000e+03 1.376749038696289062e+01 1.925380325317382812e+01 1.524069905651723178e-13 1.568191784111563902e-13 9.276785475865675923e-14 -1.397390910666887476e-13
1.460000000000000000e+03 7.282173156738281250e+01 1.483292675018310547e+01 1.805157653672791185e-14 5.348733879851491624e-14 2.146167358413331172e-14 6.665164703793455270e-14
1.461000000000000000e+03 2.580997467041015625e+01 1.480145931243896484e+01 4.435656215159150539e-13 3.502278762140820234e-13 2.381380411874828296e-13 -1.310703797016352090e-13
1.462000000000000000e+03 2.906866455078125000e+01 1.081968593597412109e+01 1.701390357810098064e-14 -3.845927686019733061e-14 -6.433612069332199715e-15 2.937673569030144205e-14
1.463000000000000000e+03 4.313805389404296875e+01 1.063700675964355469e+01 -2.371192164059982010e-14 3.558869575447966282e-14 3.563032657680426443e-15 -1.249474224714226811e-14
1.464000000000000000e+03 7.218652343750000000e+01 8.853968620300292969e+00 1.762273866331293126e-13 2.127788640811714704e-13 1.167018819905538130e-13 5.619140677932954464e-14
1.465000000000000000e+03 3.308737564086914062e+01 2.241220474243164062e+01 -9.910023919101201839e-14 -4.247152962980581259e-14 -4.247152962980581259e-14 -6.956299414533767544e-14
1.466000000000000000e+03 7.293914031982421875e+01 1.049785518646240234e+01 1.839357523713766596e-13 3.762107812776971372e-13 1.680439641604802858e-13 -9.742399317564775368e-15
1.467000000000000000e+03 4.902239608764648438e+01 5.531778812408447266e+00 4.100703338092565042e-15 4.178952580573096209e-14 1.376706789611411089e-14 1.777373914211666066e-15
1.468000000000000000e+03 4.415612411499023438e+01 1.263501358032226562e+01 6.205127472909193961e-15 1.399121839435260584e-13 4.383519507664482284e-14 5.324808587223346656e-14
1.469000000000000000e+03 4.065646362304687500e+01 9.798353195190429688e+00 1.008916935456641295e-13 -2.083909217062696051e-13 -3.224976641530256927e-14 -6.665676311693596867e-14
1.470000000000000000e+03 3.384188461303710938e+01 3.035364532470703125e+01 1.858553763634755024e-14 3.084070339062251753e-14 1.482787247749760978e-14 -4.854879790284344354e-14
1.471000000000000000e+03 3.363128662109375000e+01 2.935364341735839844e+01 1.455267113412150870e-13 1.767459605322291294e-13 9.668180427253869613e-14 -1.544156817657408448e-14
1.472000000000000000e+03 1.808365058898925781e+01 2.321134567260742188e+01 3.727849937919767986e-14 -3.500310935197759044e-13 -9.382577858098664625e-14 -4.174298981560881083e-14
1.473000000000000000e+03 7.141045379638671875e+01 7.469978332519531250e+00 -3.853055637677467449e-14 7.498880260237844597e-14 1.093747471471407870e-14 1.218791913096609059e-13
1.474000000000000000e+03 4.592847442626953125e+01 3.106422233581542969e+01 -1.917809478119234662e-14 -5.397013402592271136e-14 -2.194446881154110685e-14 3.122916625276049574e-14
1.475000000000000000e+03 2.022978782653808594e+01 2.779161453247070312e+01 -5.452869804452829816e-14 -5.266299007121444387e-13 -1.743475698014196329e-13 -9.992860353210883395e-14
1.476000000000000000e+03 3.775882720947265625e+01 1.242305755615234375e+01 1.897203504323471956e-13 -4.307667029611501885e-14 4.399310573493554755e-14 4.217860530785454143e-14
1.477000000000000000e+03 3.718845367431640625e+01 1.195674419403076172e+01 2.326781074670630778e-13 4.360279634097255497e-14 8.288427453054247884e-14 -5.525478485131005146e-14
1.478000000000000000e+03 4.283070373535156250e+01 2.152723312377929688e+01 2.010318723554699316e-13 1.090319918769025453e-13 9.301915926971174309e-14 1.689488392936366878e-13
1.479000000000000000e+03 1.942685127258300781e+01 7.088736534118652344e+00 -9.466018057293149046e-14 -2.693233819555523878e-13 -1.091950694361715213e-13 -1.585172016435945630e-13
1.480000000000000000e+03 6.372283554077148438e+01 3.288827133178710938e+01 2.500689229190003297e-15 -9.043017257324287295e-14 -2.637884553261145293e-14 -2.081244993511720265e-14
1.481000000000000000e+03 2.165711593627929688e+01 1.711886978149414062e+01 3.011200230135235856e-13 -3.742089917015828382e-13 -2.192669806030771162e-14 -2.571340764010582314e-13
1.482000000000000000e+03 5.902329254150390625e+01 7.222275137901306152e-01 2.769100053423567687e-13 -6.432807303329013404e-14 6.377458104797270599e-14 -8.577842348098455028e-14
1.483000000000000000e+03 4.440909576416015625e+01 2.250972175598144531e+01 8.060038910167460768e-14 -1.027098192737593840e-13 -6.632829983361674883e-15 -1.990172349836116794e-14
1.484000000000000000e+03 4.482481765747070312e+01 2.196850204467773438e+01 -1.656409520179105699e-14 -9.860079468399299274e-14 -3.454946764336157272e-14 -1.036182858266121443e-13
1.485000000000000000e+03 6.236669540405273438e+01 2.335319709777832031e+01 -3.952423444412121734e-14 2.118157808438797529e-13 5.168746493636709738e-14 -1.056940789772621569e-13
1.486000000000000000e+03 6.208871841430664062e+01 2.406996154785156250e+01 -1.227251108321060404e-15 -9.202785967088109031e-14 -2.797653432431556481e-14 -1.955165155752454365e-14
1.487000000000000000e+03 5.278532028198242188e+01 3.393967056274414062e+01 -3.640564812655723960e-17 -1.560242133467934202e-17 -1.560242133467934202e-17 1.126834780676823702e-14
1.488000000000000000e+03 4.439742279052734375e+01 8.295577049255371094e+00 -4.507203597435734121e-14 2.094381525846733538e-13 4.930983667716069829e-14 8.885757120337053894e-14
1.489000000000000000e+03 7.069088745117187500e+01 6.883990764617919922e+00 -4.958307595341777951e-14 2.450105988590928902e-14 -7.524605328472315502e-15 7.640971731205647988e-14
1.490000000000000000e+03 4.354641342163085938e+01 1.356652164459228516e+01 2.147892730645570292e-13 2.293053984539494827e-13 1.332284028108046692e-13 5.021580278875316383e-14
1.491000000000000000e+03 4.271942138671875000e+01 1.289946937561035156e+01 1.751480633704199930e-13 7.506345669821765099e-14 7.506345669821765099e-14 1.670840522145430884e-13
1.492000000000000000e+03 4.677262115478515625e+01 5.497348308563232422e+00 4.618699560722354380e-14 -2.595652168137403681e-14 6.069142262458146822e-15 -6.976793546099174792e-14
1.493000000000000000e+03 3.902900314331054688e+01 1.027009677886962891e+01 -1.548590188103337456e-14 -6.636815273378506366e-15 -6.636815273378506366e-15 -6.798828535749257274e-14
1.494000000000000000e+03 4.060894775390625000e+01 9.052311897277832031e+00 -7.144037660435694631e-15 4.268921709725016778e-14 1.066355442396740502e-14 -8.361627362729606716e-14
1.495000000000000000e+03 3.782176208496093750e+01 3.473977661132812500e+01 1.499261191540909866e-13 -4.372373062298384044e-15 4.366612391224107548e-14 -3.418736995225630550e-15
1.496000000000000000e+03 3.633858489990234375e+01 3.486243820190429688e+01 4.094986882138135220e-14 8.331693218373639742e-14 3.728004097916168269e-14 3.919007994642939585e-14
1.497000000000000000e+03 5.975804901123046875e+01 1.572231388092041016e+01 1.895871426429301954e-13 4.930101465960845530e-13 2.047791867717044245e-13 4.883910235188885715e-15
1.498000000000000000e+03 2.143241882324218750e+01 2.387304878234863281e+01 6.251242741766444011e-14 -4.307184491882110056e-13 -1.104618038206585384e-13 3.914848724058742069e-14
1.499000000000000000e+03 6.493369293212890625e+01 2.741781806945800781e+01 4.292958471889020411e-14 1.556512351733735366e-13 5.957424630649230113e-14 8.493310492841549264e-14
1.500000000000000000e+03 4.365559387207031250e+01 3.388425445556640625e+01 8.083148171254220943e-15 1.178415817617434191e-13 3.777741872578940785e-14 -8.726989264703707838e-14
1.501000000000000000e+03 4.474410247802734375e+01 1.770324516296386719e+01 7.887533535382365568e-14 2.168075154086387957e-13 8.870485455111237760e-14 7.667560434233139377e-14
1.502000000000000000e+03 4.369075012207031250e+01 1.438808345794677734e+01 6.664695108727497486e-14 9.718940062464209717e-14 4.915090619120147941e-14 1.803502144718041600e-13
1.503000000000000000e+03 5.495676040649414062e+01 1.278170585632324219e+01 6.439355884450825851e-14 1.648500807431910187e-13 6.877309187630978315e-14 1.399498498046245626e-14
1.504000000000000000e+03 5.498103332519531250e+01 1.455352783203125000e+01 4.259827625190115707e-14 2.126979419415225836e-13 7.658886139226897538e-14 -1.376191776638821529e-13
1.505000000000000000e+03 1.601934242248535156e+01 1.918934059143066406e+01 1.906962137027470860e-13 3.597599987554579715e-14 6.800166170179561265e-14 -1.608785126601050552e-13
1.506000000000000000e+03 1.213286685943603516e+01 3.583438158035278320e+00 -1.955026750568873012e-14 -1.456315265862401231e-13 -4.955454110749067664e-14 -1.671590925574062414e-13
1.507000000000000000e+03 4.884342575073242188e+01 3.028168678283691406e+01 1.157089154308829637e-13 -4.191235913560999171e-14 2.213896790502142831e-14 4.288788698096276941e-14
1.508000000000000000e+03 5.258627319335937500e+01 3.143283462524414062e+01 7.836023090167579253e-14 1.365225884815760016e-13 6.446484513734918043e-14 -4.342989997577900718e-14
1.509000000000000000e+03 4.365585327148437500e+01 2.052636909484863281e+01 1.399432869933492363e-13 5.997569248964579325e-14 5.997569248964579325e-14 1.774803211568396627e-14
1.510000000000000000e+03 5.964432907104492188e+01 1.487619781494140625e+01 4.678706085211280230e-14 1.801799134155609994e-13 6.809009194148896160e-14 1.083418091026890073e-13
1.511000000000000000e+03 5.332692718505859375e+01 2.412475395202636719e+01 2.857525617495047798e-14 6.943522769557383678e-14 2.940314617759683113e-14 -2.717647104805240993e-14
1.512000000000000000e+03 6.646286010742187500e+00 3.499168395996093750e+01 1.456518011668656021e-13 -1.391679198096962278e-13 1.945163517766217674e-15 3.127900567137693877e-14
1.513000000000000000e+03 2.746139526367187500e+01 1.393924236297607422e+01 3.457734857985339527e-13 1.253131577455199319e-13 1.413259971289743122e-13 -7.256627482070399093e-14
1.514000000000000000e+03 2.819039344787597656e+01 1.284741401672363281e+01 1.895580318145989596e-13 -3.313821588554581588e-14 4.692594376227640640e-14 -3.393735758996235807e-13
1.515000000000000000e+03 1.757191276550292969e+01 4.851174354553222656e+00 -6.796372140202219803e-14 -1.435046742895296212e-13 -6.344051802983918797e-14 -8.298006379248157316e-14
1.516000000000000000e+03 1.732661819458007812e+01 5.617181777954101562e+00 1.418059022799660757e-14 -3.967355280019499442e-14 -7.647889279879284408e-15 -8.429995118847469215e-14
1.517000000000000000e+03 3.238337326049804688e+01 2.516189575195312500e+01 1.135401926015237872e-13 -1.800946680197493266e-13 -1.996634194784130401e-14 -2.920388337082115149e-14
1.518000000000000000e+03 7.668763637542724609e+00 1.289556312561035156e+01 -4.374280072275832376e-14 -1.359837264493235498e-13 -5.391795679637184646e-14 2.695583929408339879e-14
1.519000000000000000e+03 1.635092139244079590e+00 2.692378616333007812e+01 -4.954935387772169131e-14 1.160174116065365579e-13 1.994041596339174438e-14 -1.579902116251308275e-13
1.520000000000000000e+03 5.958264160156250000e+01 1.312978839874267578e+01 3.486522119730724178e-14 6.069318360607880991e-14 2.866752177982899441e-14 -4.197688610553182431e-14
1.521000000000000000e+03 2.113223838806152344e+01 2.105508232116699219e+01 9.230578134527059331e-14 -1.891951222424137491e-13 -2.906680294676930454e-14 -1.167025596169116164e-13
1.522000000000000000e+03 4.544109344482421875e+01 2.255328178405761719e+01 9.471362496377144780e-14 -5.159395419305611713e-15 2.686626894804304555e-14 8.443218319593645549e-14
1.523000000000000000e+03 1.829650115966796875e+01 1.935210609436035156e+01 2.220342507942840715e-13 -1.921983487076714403e-14 6.084432816518686726e-14 -1.690977680145547279e-13
1.524000000000000000e+03 1.813641166687011719e+01 2.003184509277343750e+01 1.839966709809431888e-13 3.076104637938364972e-13 1.474821377219284746e-13 -2.821200575670729238e-13
1.525000000000000000e+03 1.001130390167236328e+01 1.705473899841308594e+01 1.185620883154686611e-13 -1.093159986359851232e-13 2.773826437976940375e-15 6.914734491372462322e-14
1.526000000000000000e+03 2.222302246093750000e+01 1.754096031188964844e+01 3.467948584551239222e-13 -3.717906787558539206e-13 -7.498741177427905441e-15 -5.075389910322129772e-14
1.527000000000000000e+03 6.405611419677734375e+01 2.215184593200683594e+01 -1.075694709088553802e-13 -6.897667793924824875e-14 -5.296384533205744649e-14 4.814955739348460162e-14
1.528000000000000000e+03 3.903131866455078125e+01 2.162587738037109375e+01 1.366680342030149320e-13 1.282106761930261810e-14 4.484673198665127536e-14 2.412586664192299668e-14
1.529000000000000000e+03 1.392981719970703125e+01 2.187838554382324219e+01 3.197752663792324812e-13 1.370465427339567777e-13 1.370465427339567777e-13 -8.507071051289463726e-14
1.530000000000000000e+03 1.440155792236328125e+01 4.879333019256591797e+00 8.583027544988366953e-14 -1.462193945566889197e-13 -1.811673369916250165e-14 -2.591129893113330862e-13
1.531000000000000000e+03 4.898992919921875000e+01 2.619017601013183594e+00 -5.139381555421297654e-14 4.660050353954593716e-14 -1.437993964389114396e-15 8.700326700403215874e-14
1.532000000000000000e+03 4.971120452880859375e+01 2.983376502990722656e+00 8.425744368704968235e-14 9.329901895548456392e-14 5.326693743750755827e-14 4.095965035785624486e-14
1.533000000000000000e+03 7.256555938720703125e+01 1.564185237884521484e+01 1.424227137897390253e-15 9.211227836253624290e-14 2.806095301597071739e-14 -2.248488091408703399e-14
1.534000000000000000e+03 4.189670944213867188e+01 2.135968208312988281e+01 5.802894650257586773e-14 4.823790564038865636e-13 1.621223907075433623e-13 -4.438823305230252259e-14
1.535000000000000000e+03 4.284917449951171875e+01 2.076126480102539062e+01 2.120603226438838584e-14 3.064694765325670645e-13 9.830265263908663509e-14 -1.907332358188056770e-14
1.536000000000000000e+03 3.565277862548828125e+01 3.275841903686523438e+01 4.417976130332429419e-14 4.180965808482130230e-14 2.579682547763050005e-14 1.969571830932534406e-14
1.537000000000000000e+03 2.160002708435058594e+01 1.152381038665771484e+01 -4.226657137349279503e-14 -2.926199321913458551e-13 -1.004659544575833841e-13 -9.116419777280629355e-14
1.538000000000000000e+03 6.440924072265625000e+01 4.483779430389404297e+00 -8.282057765290895546e-14 1.025641533237541675e-14 -2.176924818794029326e-14 5.096061918806460422e-14
1.539000000000000000e+03 9.941722869873046875e+00 8.106584548950195312e+00 1.646738267393945548e-14 7.568387106263174680e-14 2.764537662919112904e-14 8.938420885612821665e-14
1.540000000000000000e+03 3.239804077148437500e+01 1.442832374572753906e+01 3.100347669565683972e-13 -2.317058220638323895e-13 2.349868448426033901e-14 -2.709865921338584088e-14
1.541000000000000000e+03 3.058628273010253906e+01 1.518168163299560547e+01 2.515040855698841282e-13 -2.582201217172369612e-13 -2.014814401744228350e-15 -9.503177053876016300e-14
1.542000000000000000e+03 4.584544372558593750e+01 4.532627105712890625e+00 1.167199796965048483e-14 4.789380087725884916e-14 1.786973889174314767e-14 8.816925867790453841e-14
1.543000000000000000e+03 4.739380645751953125e+01 3.324506282806396484e+00 1.280648899643424543e-13 5.488494993774808983e-14 5.488494993774808983e-14 5.939186994855308321e-14
1.544000000000000000e+03 3.378409194946289062e+01 1.986925506591796875e+01 -6.199465311766683140e-14 -2.656913826047570953e-14 -2.656913826047570953e-14 -9.539716699967851210e-14
1.545000000000000000e+03 3.785333251953125000e+01 2.131571578979492188e+01 1.227784421440475393e-13 6.868382646213044146e-15 3.889404531949580690e-14 8.246021595582908592e-14
1.546000000000000000e+03 4.071702957153320312e+01 7.551001548767089844e+00 -1.294794756438386041e-13 3.601069434506533329e-14 -2.804063438963198124e-14 -4.684800995486543274e-14
1.547000000000000000e+03 6.490539550781250000e+01 6.224202156066894531e+00 -8.656742789508835301e-15 8.779186823045306842e-14 2.374053610762396488e-14 -6.405324811135579277e-14
1.548000000000000000e+03 4.037987899780273438e+01 2.004118919372558594e+01 4.365791446891628680e-14 3.389671627152673894e-13 1.147875333196504699e-13 1.517120169726091095e-13
1.549000000000000000e+03 2.437125015258789062e+01 1.470359134674072266e+01 3.504745864184310999e-13 -3.280040220552185581e-14 9.530225187574098422e-14 -1.317644859324604290e-13
1.550000000000000000e+03 2.287880897521972656e+01 2.857600212097167969e+01 8.181013510947035550e-14 -5.644041074889978582e-14 7.610916291731634198e-15 -1.675806913484408078e-14
1.551000000000000000e+03 7.479697227478027344e+00 3.559556198120117188e+01 1.678898448216614714e-13 -1.568019531491410268e-13 3.326365299470470521e-15 -6.877267174796794502e-14
1.552000000000000000e+03 5.259430313110351562e+01 5.658917903900146484e+00 9.110363830520940009e-14 1.305463170290371844e-13 6.649498660027397534e-14 5.711272112792625810e-14
1.553000000000000000e+03 5.197495651245117188e+01 5.267300605773925781e+00 3.044720508701970196e-13 7.901819931883935499e-14 1.150470777672163436e-13 -3.588085097051482708e-14
1.554000000000000000e+03 6.414497375488281250e+01 2.511222267150878906e+01 8.897147680598550823e-15 3.813063231182739835e-15 3.813063231182739835e-15 7.025607631332966493e-15
1.555000000000000000e+03 5.589299392700195312e+01 9.828362464904785156e+00 6.565660694160882493e-14 -1.761240350610371319e-14 1.441326001421199682e-14 1.212157408952627136e-13
1.556000000000000000e+03 4.730338287353515625e+01 1.932864189147949219e+01 7.868963185046762288e-14 -1.950306100428553235e-13 -3.490229413534266800e-14 4.597792775880868519e-16
1.557000000000000000e+03 4.621792602539062500e+01 1.934964752197265625e+01 2.685603746766657141e-13 4.075201208929811469e-14 9.279371975673411654e-14 1.512896897332399043e-14
1.558000000000000000e+03 2.008193206787109375e+01 2.707656669616699219e+01 -1.075907687052811423e-13 -7.781255024000288678e-13 -2.657148860749775077e-13 -1.825513549461206531e-14
1.559000000000000000e+03 2.153759384155273438e+01 2.734639930725097656e+01 -5.223836161273413825e-14 -3.883954518679039181e-13 -1.321901437053782380e-13 -1.200501236099530203e-14
1.560000000000000000e+03 3.300806427001953125e+01 2.335831832885742188e+01 6.779675426745943034e-14 -1.669519557323528858e-14 1.533046794708042143e-14 -1.782478244866103623e-13
1.561000000000000000e+03 3.529368209838867188e+01 2.546886062622070312e+01 8.864793563112278313e-15 2.783048856473679944e-13 8.615090791360552336e-14 -4.876148448776720934e-14
1.562000000000000000e+03 2.030447387695312500e+01 3.110394096374511719e+01 -4.843786030367565332e-14 -2.495138156418524877e-13 -8.938550312247162122e-14 -5.359839159416353305e-14
1.563000000000000000e+03 3.430926513671875000e+01 3.237694549560546875e+01 1.283644143670187310e-13 -3.648857678137905347e-14 2.756275025925236655e-14 5.672611411497571407e-15
1.564000000000000000e+03 2.351178359985351562e+01 2.939047431945800781e+01 6.355885192070240275e-14 -1.100133371445370656e-13 -1.393634658358993555e-14 -3.617361266214022542e-14
1.565000000000000000e+03 2.486572265625000000e+01 3.125270271301269531e+01 4.656502641158313804e-14 -2.919034143157692336e-15 1.309379782875839948e-14 -2.673001522814771880e-14
1.566000000000000000e+03 5.222267532348632812e+01 3.441992998123168945e+00 1.558864663872214229e-13 2.498122964999377471e-13 1.217096220898841730e-13 5.081693190702417373e-14
1.567000000000000000e+03 2.224509048461914062e+01 2.723859405517578125e+01 -1.998530616849738054e-15 -3.897395915112428222e-13 -1.175214304127356058e-13 6.749014189308052969e-14
1.568000000000000000e+03 4.371717071533203125e+01 1.697895050048828125e+01 1.033213092990412085e-13 2.730353107233823851e-13 1.129069846514743625e-13 1.482404964840006167e-13
1.569000000000000000e+03 1.298289394378662109e+01 2.071458053588867188e+01 2.204197755036312739e-14 -3.565610263642216005e-13 -1.003557182016959204e-13 -1.711190698416419770e-14
1.570000000000000000e+03 8.688380241394042969e+00 1.549161052703857422e+01 3.601830408906346592e-14 2.899421154556325320e-13 9.778812416934290486e-14 1.210016787288326068e-13
1.571000000000000000e+03 8.142084121704101562e+00 1.468579292297363281e+01 1.598188710549581365e-14 5.101098037897655590e-13 1.578275135366222215e-13 6.880312427648763163e-14
1.572000000000000000e+03 3.840389251708984375e+01 2.029196929931640625e+01 1.269742367889306611e-13 1.001684832627712518e-13 6.814281804838964729e-14 9.126341582411587328e-14
1.573000000000000000e+03 6.060110473632812500e+01 3.825365066528320312e+01 8.975163141985639803e-14 1.356857470347430650e-13 6.763121692451162792e-14 -1.006678583130886026e-14
1.574000000000000000e+03 1.769766092300415039e+00 2.523431587219238281e+01 -1.488360080797654361e-13 2.771503661877332270e-14 -3.633629042185809732e-14 -5.412246781928871375e-14
1.575000000000000000e+03 4.378128814697265625e+01 4.626872062683105469e+00 1.869545371378095178e-14 -3.773861106427800483e-14 -5.712947543962294816e-15 -3.125159822630263137e-15
1.576000000000000000e+03 5.317431449890136719e+00 2.445802497863769531e+01 6.952549345566388581e-15 -6.661279600833625025e-13 -1.977526215696245870e-13 2.236574742412161115e-14
1.577000000000000000e+03 2.035881996154785156e+01 1.837892532348632812e+01 3.015638953829391511e-13 -3.053923487792570279e-13 -1.148536230653599867e-15 -2.164807233213245086e-13
1.578000000000000000e+03 1.931775665283203125e+01 1.807575607299804688e+01 2.799132453601416159e-13 -5.160323259196034074e-14 6.849300857383888719e-14 -2.440619050175091287e-13
1.579000000000000000e+03 2.901919364929199219e+01 1.710661768913269043e+00 5.836111216690753611e-14 -1.579918921384981800e-13 -2.988923128097176196e-14 1.113388047935866959e-14
1.580000000000000000e+03 4.620215225219726562e+01 2.421775627136230469e+01 -5.435611677559112898e-14 -1.471717543568683978e-14 -2.072198851041633788e-14 -5.885445803670633080e-14
1.581000000000000000e+03 3.341528320312500000e+01 2.657526588439941406e+01 -3.114240975017092128e-14 -5.909769879410345372e-14 -2.707203188565595470e-14 1.658824580518317160e-14
1.582000000000000000e+03 3.472093200683593750e+01 2.519042587280273438e+01 9.485062068452856932e-14 1.092766895309689457e-13 6.123819170939653889e-14 -2.023770962009813212e-13
1.583000000000000000e+03 6.529804229736328125e+01 2.629391479492187500e+01 -4.963458910913799704e-14 -2.042757645979650927e-13 -7.617310374043867460e-14 6.631812612088727743e-14
1.584000000000000000e+03 6.445889282226562500e+01 2.658459281921386719e+01 4.008590876770912192e-14 -1.658241144224248398e-13 -3.772146372929378877e-14 4.658102516989087727e-14
1.585000000000000000e+03 4.965989685058593750e+01 5.109753131866455078e+00 -9.632113764359781505e-14 1.304876532211762460e-14 -2.498171042589463625e-14 -9.813147744484190804e-15
1.586000000000000000e+03 5.564813232421875000e+01 7.188046932220458984e+00 1.099986055475184188e-13 2.712621827735770680e-14 4.113744596161671152e-14 -1.739668793136056602e-14
1.587000000000000000e+03 2.892296028137207031e+01 3.395532369613647461e+00 2.776310539971682534e-13 -6.401906186160460921e-14 6.408359221965823083e-14 -2.263579169210164915e-14
1.588000000000000000e+03 2.851411056518554688e+01 5.953491210937500000e+00 -6.147651289943600883e-14 6.515482462365537741e-14 1.103493453738339531e-15 -1.815224945182769556e-13
1.589000000000000000e+03 6.825243377685546875e+01 -5.158221721649169922e-01 1.639750076172508120e-13 -2.122689637994515377e-14 4.282443066068626625e-14 2.910520742059781452e-14
1.590000000000000000e+03 6.698062896728515625e+01 6.150859594345092773e-01 1.790886368239000270e-13 -1.520024747346179761e-13 8.125852184322993749e-15 5.642689210306160719e-14
1.591000000000000000e+03 8.413621902465820312e+00 1.117022514343261719e+01 -8.579981614510040488e-14 -1.740241929509486751e-13 -7.794720408406743961e-14 -9.041476334986642271e-14
1.592000000000000000e+03 1.421899032592773438e+01 2.097181129455566406e+01 2.455660186913982690e-13 1.509935297454301217e-13 1.189678645310485172e-13 -1.933209858471715559e-13
1.593000000000000000e+03 5.257567977905273438e+01 2.740278244018554688e+01 9.244370541413790554e-14 -6.903977172942332707e-14 7.021178919568247384e-15 -3.771027950625824299e-14
1.594000000000000000e+03 5.198104095458984375e+01 2.577338600158691406e+01 1.420651519600663049e-13 1.981379199166716232e-13 1.020609242735268096e-13 2.857765158412531314e-14
1.595000000000000000e+03 2.084896087646484375e+01 2.578734779357910156e+01 -2.439934816960299263e-14 -2.849625646127867951e-13 -9.280857332649716795e-14 7.564700480063545063e-15
1.596000000000000000e+03 7.330481719970703125e+01 -2.297813594341278076e-01 6.512698773287681209e-14 3.024172709129024916e-13 1.102632728503492865e-13 9.372387712930016490e-14
1.597000000000000000e+03 7.279099273681640625e+01 -7.196100950241088867e-01 -8.698900974546397435e-14 -8.303195641896216062e-14 -5.100629120458055610e-14 9.968175102622461869e-14
1.598000000000000000e+03 9.489403724670410156e+00 8.749928474426269531e+00 1.672595167836327112e-13 -2.600117387022149451e-13 -2.782566589794831236e-14 -2.988687462355426368e-16
1.599000000000000000e+03 5.302933120727539062e+01 2.809616088867187500e+01 1.845501697425241949e-13 1.248438743876867374e-13 9.281821594956871091e-14 -6.675578465660178540e-14
1.600000000000000000e+03 5.117881774902343750e+01 2.928127670288085938e+01 -6.622895726846392273e-14 -7.413479010363877020e-14 -4.210912488925716568e-14 -4.483614746294238562e-14
1.601000000000000000e+03 5.622929763793945312e+01 8.906741142272949219e+00 7.418980658762883151e-14 2.607676309043446827e-14 3.007997293629806335e-14 3.645755589375175923e-15
1.602000000000000000e+03 5.564057922363281250e+01 8.297510147094726562e+00 6.043204673657209813e-14 1.703008800603075801e-13 6.921987803906390346e-14 -2.033422360342689722e-14
1.603000000000000000e+03 1.344877719879150391e+01 5.956959247589111328e+00 1.580484332817932991e-13 6.773504283505427104e-14 6.773504283505427104e-14 -6.365331472904609683e-15
1.604000000000000000e+03 1.446795177459716797e+01 4.268889427185058594e+00 3.272180093614844576e-14 -2.604820656046391569e-13 -6.832808109461310786e-14 -8.826081277510736123e-14
1.605000000000000000e+03 2.164681625366210938e+01 1.224568080902099609e+01 1.200368743205920685e-13 -8.580846943368955482e-14 1.026852028022462796e-14 -1.168515154428839686e-13
1.606000000000000000e+03 2.656507110595703125e+01 1.473824977874755859e+01 5.890923057520758288e-13 6.946433852390507258e-14 1.975669926051679126e-13 -1.176932629045474021e-13
1.607000000000000000e+03 6.588286590576171875e+01 2.126858901977539062e+01 -7.698619438343060062e-14 -1.244959810155904512e-13 -6.044465058682724212e-14 6.058395701346447337e-14
1.608000000000000000e+03 6.441455841064453125e+01 2.132621002197265625e+01 -3.465085071088433444e-14 8.025109473708356284e-15 -7.987722286449498721e-15 2.854660274441075951e-14
1.609000000000000000e+03 2.810778999328613281e+01 2.999567604064941406e+01 1.082253522368369081e-13 6.313449010819389279e-16 3.265700969194706982e-14 -8.793433917218124174e-14
1.610000000000000000e+03 3.409080123901367188e+01 1.364529705047607422e+01 4.115605968003921422e-13 1.535076455056252898e-13 1.695204713365525140e-13 4.597251331245159889e-14
1.611000000000000000e+03 3.506607437133789062e+01 1.329763031005859375e+01 4.020839650814567179e-13 -1.068209512814985440e-14 1.174205589531129856e-13 1.979031494887470433e-13
1.612000000000000000e+03 2.270940971374511719e+01 1.689990997314453125e+01 3.580856043541164047e-13 -1.725102401423442289e-13 5.567260926353165273e-14 -1.636817309295934830e-13
1.613000000000000000e+03 3.084063911437988281e+01 1.251086521148681641e+01 4.022023599586921350e-13 -2.465346991224054429e-13 4.670030096139143883e-14 -1.262012006399484965e-13
1.614000000000000000e+03 4.960530090332031250e+01 2.059668540954589844e+01 1.142549190024169659e-13 2.777211511977017988e-13 1.175928251257937762e-13 -7.316453080321791425e-14
1.615000000000000000e+03 5.474439620971679688e+01 3.229149341583251953e+00 9.558036328551067218e-14 -7.341435808881288660e-14 6.649800288459914790e-15 -2.266493301361898610e-15
1.616000000000000000e+03 3.141161918640136719e+01 1.372578978538513184e+00 1.875308990127028119e-13 1.718722820315266020e-13 1.078209583790269710e-13 -2.588397703638667391e-13
1.617000000000000000e+03 5.502032089233398438e+01 2.186068534851074219e+01 6.651280139722062779e-14 2.115092768897181008e-13 8.340662280845526078e-14 -9.070274099940572876e-14
1.618000000000000000e+03 2.909897994995117188e+01 4.472510814666748047e+00 2.562663080872551458e-13 4.120199326032927822e-14 8.924049108190168500e-14 -3.227836902386545248e-14
1.619000000000000000e+03 4.879407119750976562e+01 2.004928970336914062e+01 7.276507006529278621e-14 2.599397747830162198e-13 9.981144871110819716e-14 1.223559963200657186e-13
1.620000000000000000e+03 4.656245803833007812e+01 2.132662010192871094e+01 1.655918918696056008e-13 2.341529197302078501e-15 5.038002553656682758e-14 -3.833661971317132988e-14
1.621000000000000000e+03 6.217527008056640625e+01 3.640758132934570312e+01 6.647539642226987788e-14 2.848945512552540638e-14 2.848945512552540638e-14 -2.622877501128051403e-14
1.622000000000000000e+03 4.710836791992187500e+01 2.582334709167480469e+01 -5.623747859539660054e-14 -4.697725024195749388e-14 -3.096442102289848064e-14 5.033126015572750300e-14
1.623000000000000000e+03 4.666837692260742188e+01 2.358274650573730469e+01 5.718925224877657865e-14 1.160115704673322923e-13 5.196024681483266128e-14 9.481456418602984826e-14
1.624000000000000000e+03 5.137512588500976562e+01 2.625755691528320312e+01 3.404206780290193468e-14 -1.626954728708648878e-13 -3.859602185920206485e-14 -5.033030809069478917e-15
1.625000000000000000e+03 1.065073776245117188e+01 3.526350021362304688e+00 8.809289696364366873e-14 3.775409821468560245e-14 3.775409821468560245e-14 -7.434204212517295240e-14
1.626000000000000000e+03 3.182748413085937500e+01 1.540944576263427734e+01 1.764708035733794644e-13 -2.446262864583964580e-13 -2.044664520431827698e-14 -5.892442973441311405e-14
1.627000000000000000e+03 3.123866271972656250e+01 1.531472206115722656e+01 3.217342841796422270e-13 -9.086862393179601094e-14 6.925969536384843361e-14 4.713834235599810574e-14
1.628000000000000000e+03 4.788606643676757812e+01 5.510996818542480469e+00 7.345683848518358428e-14 7.151358227385634647e-14 4.349112690533833703e-14 1.529602081118148355e-14
1.629000000000000000e+03 4.851649093627929688e+01 5.023674964904785156e+00 2.072846746542988602e-15 2.376383798400293068e-14 7.751005376812128422e-15 5.399242115683086651e-14
1.630000000000000000e+03 1.890934753417968750e+01 4.829914569854736328e+00 9.275800207141429721e-14 1.687795309600077093e-14 3.289078739725746769e-14 -1.997257204457494884e-13
1.631000000000000000e+03 1.983610343933105469e+01 4.625293731689453125e+00 -6.368267458506382539e-14 -2.729257385413255688e-14 -2.729257385413255688e-14 -1.025149068282008025e-13
1.632000000000000000e+03 2.347844314575195312e+01 1.584801578521728516e+01 5.028246157119664606e-13 -2.420132236974348316e-13 7.824340811759047942e-14 -1.455585055699232244e-13
1.633000000000000000e+03 6.348345947265625000e+01 5.870501995086669922e+00 -8.704194591653557911e-14 -8.305463657315784176e-14 -5.102897474690802626e-14 4.587410163650780526e-14
1.634000000000000000e+03 6.535832214355468750e+01 3.195545578002929688e+01 3.874970074088830707e-14 2.453617550021020000e-13 8.523343570645755540e-14 1.292750577945459348e-14
1.635000000000000000e+03 6.460391998291015625e+01 3.285686874389648438e+01 2.872420861279104121e-14 1.495632231344329321e-13 5.348622749128811860e-14 -2.275392737725520642e-14
1.636000000000000000e+03 6.067046356201171875e+01 1.861882972717285156e+01 -5.230769972979637528e-14 -6.816853396866828785e-14 -3.614286875428668333e-14 1.772781089813416436e-15
1.637000000000000000e+03 2.781826972961425781e+01 7.458496570587158203e+00 -8.333909056563656992e-14 1.003419623866325106e-14 -2.199146728165245895e-14 -7.349392497574616656e-14
1.638000000000000000e+03 2.532608413696289062e+01 4.648188114166259766e+00 6.594451682851235064e-14 7.401288512186993129e-14 4.198721990748832678e-14 7.840105788973344980e-14
1.639000000000000000e+03 1.131744480133056641e+01 1.921399307250976562e+01 -2.961710670007326740e-14 -4.843597650240095975e-14 -2.341592428311591034e-14 7.264344291033064671e-14
1.640000000000000000e+03 1.176467776298522949e+00 2.659883737564086914e+00 3.819578523909725187e-14 1.993734225023274798e-13 7.127076164480106168e-14 -2.757391754162896724e-14
1.641000000000000000e+03 2.410724067687988281e+01 2.877128410339355469e+01 9.168615302743154949e-14 -6.456882181975643481e-15 2.556878218537301378e-14 -3.624748409953616746e-14
1.642000000000000000e+03 6.087932586669921875e+01 7.663627147674560547e+00 -3.450998574362415527e-15 1.929625350564206920e-13 5.685346128343066185e-14 4.889387573742305648e-14
1.643000000000000000e+03 1.295010852813720703e+01 2.002112770080566406e+01 2.458071452545590452e-13 5.959496812051393033e-14 9.162063333489553485e-14 1.152129217360910521e-14
1.644000000000000000e+03 1.235174083709716797e+01 1.864623260498046875e+01 -8.286606671030830040e-14 -1.727668707965715478e-13 -7.668988192969031226e-14 -1.718083276558771133e-13
1.645000000000000000e+03 6.358965682983398438e+01 2.094043540954589844e+01 -2.387558704073419052e-14 1.270204509065328558e-13 3.094345865151983122e-14 1.031103167800119513e-13
1.646000000000000000e+03 6.289059448242187500e+01 2.109902191162109375e+01 -1.701173517375600963e-14 1.070866282476025388e-13 2.702246859978031657e-14 1.964558886662776116e-13
1.647000000000000000e+03 1.103913116455078125e+01 3.704792404174804688e+01 2.395262807541875816e-13 3.402770212411650175e-14 8.206619655755711951e-14 5.492770477279369790e-14
1.648000000000000000e+03 1.336746883392333984e+01 3.996110677719116211e+00 3.538898232617604389e-14 3.728970223695806524e-15 1.173538568025826040e-14 -6.494232777411179658e-14
1.649000000000000000e+03 2.564251708984375000e+01 3.059819984436035156e+01 5.709406607429592939e-14 -2.128206363579982635e-14 1.074360073154883091e-14 1.424204077425401255e-14
1.650000000000000000e+03 2.641301155090332031e+01 3.016823768615722656e+01 -8.463249971169851948e-15 4.212384293374865640e-14 1.009817771936705189e-14 -8.725834589390010776e-14
1.651000000000000000e+03 3.296649169921875000e+01 1.147178888320922852e+00 1.995092459294856013e-13 -9.749983481167900923e-14 3.060282604584740884e-14 1.570025881492912584e-14
1.652000000000000000e+03 6.661399841308593750e+01 4.820558071136474609e+00 -5.246031812623265511e-14 1.147698472717118001e-13 1.869286009889645911e-14 1.253719638549160090e-14
1.653000000000000000e+03 3.290625381469726562e+01 1.401784420013427734e+01 3.731784846416896784e-13 3.983739607724828824e-14 1.239047655709341056e-13 -1.875593322146762443e-13
1.654000000000000000e+03 4.955940246582031250e+01 1.978985214233398438e+01 7.814451532693264535e-14 -1.495132956243899747e-13 -2.141063307279766209e-14 -2.845226360287736456e-14
1.655000000000000000e+03 4.903707885742187500e+01 2.072670745849609375e+01 1.341699239773910812e-13 -2.170042981029449147e-13 -2.485031189885297115e-14 8.247610629391957660e-14
1.656000000000000000e+03 1.450186538696289062e+01 3.538809967041015625e+01 1.913780955540775319e-13 -5.523366323773731823e-14 4.084332901727570631e-14 1.411213641333130403e-14
1.657000000000000000e+03 1.392717075347900391e+01 3.716875076293945312e+01 3.081347636356597530e-14 1.535035119848426888e-14 1.384914792980189435e-14 5.498960932871083118e-14
1.658000000000000000e+03 5.888217926025390625e+01 3.861410903930664062e+01 -1.129540966240006467e-14 1.438496945258688209e-13 3.976628596726039522e-14 -6.505154081419897705e-14
1.659000000000000000e+03 6.124526977539062500e+01 1.925489807128906250e+01 -2.242169225622186318e-14 -5.536024384137500087e-14 -2.333458201512518537e-14 5.231049832665410348e-14
1.660000000000000000e+03 3.013783836364746094e+01 3.209835529327392578e+00 5.757854859133465508e-14 1.161784156291506553e-13 5.212709197665102434e-14 -1.471580290349910891e-13
1.661000000000000000e+03 2.963446044921875000e+01 2.502086877822875977e+00 1.441538945504139413e-13 1.075311850196394858e-13 7.550551980525788132e-14 2.071280159107041774e-14
1.662000000000000000e+03 1.492106342315673828e+01 2.206042480468750000e+01 3.715160503455633423e-13 -1.152845315955178251e-13 7.686945969077180196e-14 -9.627539108818250480e-14
1.663000000000000000e+03 1.165958213806152344e+01 1.831415367126464844e+01 -8.598362229465458806e-14 -8.260107414682568705e-14 -5.057540893244408253e-14 3.243855989485018576e-14
1.664000000000000000e+03 1.141427326202392578e+01 2.157978630065917969e+01 2.783835174099275056e-13 1.421826930280908896e-13 1.261698671971636654e-13 2.479670657175303550e-13
1.665000000000000000e+03 2.064150047302246094e+01 8.826288223266601562e+00 -1.230076289307838189e-13 -1.871109739587720200e-13 -9.303557815636132045e-14 -3.657794214544617117e-14
1.666000000000000000e+03 3.469075012207031250e+01 1.397888374328613281e+01 2.437459413993925406e-13 2.417153933606530636e-13 1.456383977175082500e-13 1.067380436966212931e-13
1.667000000000000000e+03 3.186501693725585938e+01 1.387445068359375000e+01 4.831633140453539532e-13 6.981713791083185572e-14 1.658941267777130912e-13 -2.304162177897695063e-13
1.668000000000000000e+03 6.140792846679687500e+01 -1.589848548173904419e-01 1.970877481398750075e-13 -1.671640392298182065e-13 8.977114367082934809e-15 -1.273034683311330406e-13
1.669000000000000000e+03 2.944788932800292969e+01 2.892479896545410156e+01 9.856033361416854932e-14 4.224014055740667184e-14 4.224014055740667184e-14 -9.749759186843467984e-14
1.670000000000000000e+03 1.142208194732666016e+01 4.858882904052734375e+00 -1.229203413385363160e-15 -9.202869992756476658e-14 -2.797737119286745205e-14 -8.361419564371821555e-18
1.671000000000000000e+03 6.817279815673828125e+01 4.531567573547363281e+00 -8.372850888093905097e-14 1.471201497215898768e-13 1.901749055812935324e-14 -4.965552437546233433e-14
1.672000000000000000e+03 6.420854949951171875e+01 2.082423210144042969e+01 -9.801197126037969332e-14 -1.335070292166062877e-13 -6.945569878784307871e-14 2.942006989588297206e-14
1.673000000000000000e+03 7.474034881591796875e+01 -1.543309450149536133e+00 -3.364555812776504062e-14 7.708237666865722093e-14 1.303104454582811739e-14 -5.847364557614795344e-14
1.674000000000000000e+03 4.662531280517578125e+01 6.550234794616699219e+00 6.121181171528725096e-14 -2.360710681909125759e-15 1.765532944180466662e-14 -7.889728367155290911e-14
1.675000000000000000e+03 4.604900360107421875e+01 7.085645198822021484e+00 -4.876865377463276974e-14 -6.665180289199684749e-14 -3.462613428948345395e-14 9.671222291974049257e-14
1.676000000000000000e+03 4.064942169189453125e+01 8.300337791442871094e+00 -4.438177866124444482e-14 -6.477170823348046835e-14 -3.274604640723065285e-14 3.725676112563934550e-14
1.677000000000000000e+03 4.727499771118164062e+01 2.813224220275878906e+01 -1.412914822304395940e-14 1.311975024063591344e-13 3.512050337508253184e-14 1.331340213176239115e-14
1.678000000000000000e+03 4.760376739501953125e+01 2.680410957336425781e+01 4.584642398792332374e-14 2.026522667123581423e-13 7.454960585483172419e-14 7.916849006873658001e-14
1.679000000000000000e+03 7.047431182861328125e+01 2.038639831542968750e+01 -1.092398825612789573e-14 2.698239852036432573e-13 7.767000069361720826e-14 7.532460712025151883e-14
1.680000000000000000e+03 6.501765441894531250e+01 3.043841552734375000e+01 -9.282234947035131190e-14 2.347246745929010281e-13 4.257070024727034607e-14 8.522825186482035908e-15
1.681000000000000000e+03 6.584913635253906250e+01 3.027120018005371094e+01 8.484910636510217818e-14 1.348842878481828350e-14 2.950125969794319125e-14 4.551666728529364658e-14
1.682000000000000000e+03 2.386670684814453125e+01 4.158080101013183594e+00 -1.524075021730724594e-14 -5.555431331974447495e-13 -1.712351641773926514e-13 -3.802648537579774585e-15
1.683000000000000000e+03 6.451901245117187500e+01 2.836137390136718750e+01 -1.734147662979263621e-14 3.831888623138761385e-14 6.293223134588377468e-15 -1.148382604287956354e-13
1.684000000000000000e+03 2.170964431762695312e+01 1.292045021057128906e+01 2.686459859907106007e-14 -7.998849927684167915e-14 -1.593716884807847012e-14 -1.312799559815766570e-13
1.685000000000000000e+03 5.912099456787109375e+01 2.920560359954833984e+00 3.442347318652339005e-14 -1.339376607669903740e-13 -2.985425898464552641e-14 -1.649122732903102184e-13
1.686000000000000000e+03 6.025708770751953125e+01 4.184681892395019531e+00 1.832458372595744539e-14 -8.364850153687319878e-14 -1.959717619030767327e-14 -1.067919827547024469e-13
1.687000000000000000e+03 2.977715110778808594e+01 3.595567226409912109e+00 3.158298004634491063e-13 -4.764817148695046911e-14 8.045448259431237092e-14 -1.249398669375331727e-13
1.688000000000000000e+03 2.313930130004882812e+01 1.634436988830566406e+01 3.798112269571413124e-13 -2.261068258622642158e-13 4.611132507184763363e-14 -2.019797632098196960e-13
1.689000000000000000e+03 4.513462066650390625e+01 2.408106088638305664e+00 5.343355220636426817e-14 -2.973565404323919026e-13 -7.317689748424782703e-14 6.145197604901994626e-14
1.690000000000000000e+03 4.591827392578125000e+01 2.460897684097290039e+00 1.200951095297816962e-13 1.429712332681395970e-13 7.891990283937638795e-14 -2.902384143568456643e-14
1.691000000000000000e+03 1.257260417938232422e+01 3.761162567138671875e+01 7.455828624847518626e-14 -5.954834742709705364e-14 4.502980884083787258e-15 3.580652213532736772e-14
1.692000000000000000e+03 4.271673965454101562e+01 6.898318290710449219e+00 2.201119976119169513e-14 5.518431848636207171e-14 2.315865496604636170e-14 6.990727576894686934e-14
1.693000000000000000e+03 4.434626770019531250e+01 4.033070087432861328e+00 3.341042178160724685e-14 7.150743620279106927e-14 3.147535807294585264e-14 3.233355830257675367e-14
1.694000000000000000e+03 2.225982284545898438e+01 3.858880996704101562e+00 -6.852142144702158544e-14 8.501104551209004434e-14 4.946887981850190200e-15 -1.576150370158693748e-13
1.695000000000000000e+03 2.077897262573242188e+01 5.457471370697021484e+00 -1.198169693208918016e-14 1.321178274204734548e-13 3.604084194172400835e-14 -1.464086013883147963e-13
1.696000000000000000e+03 3.308636093139648438e+01 1.983607482910156250e+01 1.840903968706227717e-14 7.651600978254152752e-14 2.847751534910090976e-14 -9.788656972660458866e-14
1.697000000000000000e+03 3.311727142333984375e+01 1.895779418945312500e+01 -4.751409972392726944e-14 -2.719933924356238153e-13 -9.585225408531572455e-14 -1.978505792359086524e-13
1.698000000000000000e+03 7.727998352050781250e+01 -2.707746505737304688e+00 9.344995175635580770e-15 7.263142181874321368e-14 2.459292399717080690e-14 -8.728417023439599687e-14
1.699000000000000000e+03 7.809004974365234375e+01 -3.382999300956726074e-01 1.192317051297228647e-13 5.348352799728521914e-15 3.737401759059365280e-14 -5.090640907944032900e-14
1.700000000000000000e+03 7.076327800750732422e+00 2.218202209472656250e+01 2.013000633153613772e-13 -4.627399266717013848e-13 -7.843195765164928668e-14 1.490364228513493816e-13
1.701000000000000000e+03 6.158645629882812500e+01 6.537177085876464844e+00 -2.068219862949929877e-13 1.430164140055461414e-14 -5.775610024960631250e-14 -8.200998067491374610e-14
1.702000000000000000e+03 3.187466621398925781e+01 1.603390312194824219e+01 1.969556245526304927e-13 -9.859424203711303347e-14 2.950841543228159558e-14 4.453053797557303406e-14
1.703000000000000000e+03 5.980477523803710938e+01 1.739414811134338379e+00 8.097134887499052303e-14 -1.254263213472731064e-13 -1.333649055583864887e-14 -5.118415118284501408e-14
1.704000000000000000e+03 6.003585433959960938e+01 -4.736204743385314941e-01 1.916501625367356132e-13 1.350935981597788452e-14 6.154785340238555502e-14 -1.734994390994656910e-13
1.705000000000000000e+03 7.272473144531250000e+01 9.345067977905273438e+00 -1.540215573353834189e-14 8.490097188652845350e-14 2.084964484589703348e-14 -1.596697593749234895e-14
1.706000000000000000e+03 7.761949920654296875e+01 9.512856483459472656e+00 6.166107799051093186e-14 -2.023285646012354388e-13 -4.220024869372278331e-14 7.144665989475967871e-14
1.707000000000000000e+03 3.369451904296875000e+01 2.150632095336914062e+01 -1.927752120260695090e-13 7.751037225250945184e-14 -3.457945260969437495e-14 -8.762462326908360133e-14
1.708000000000000000e+03 2.215456199645996094e+01 6.409161090850830078e+00 -3.922697670161179317e-15 1.813226354003064089e-13 5.321998131904356888e-14 8.924167692802784102e-14
1.709000000000000000e+03 2.452675819396972656e+01 4.042643070220947266e+00 4.103092818036769424e-15 -1.354943717987722174e-13 -3.941738632002277087e-14 -1.044259080248965965e-13
1.710000000000000000e+03 2.115364837646484375e+01 4.917222499847412109e+00 -3.420592463248238457e-14 8.215793530794244376e-15 -7.797039076396557883e-15 -2.022811070392666749e-14
1.711000000000000000e+03 2.697419548034667969e+01 6.740546703338623047e+00 6.554247433416399149e-14 -6.341226778698236255e-14 6.390612653523071972e-16 -1.664399277038694502e-13
1.712000000000000000e+03 2.761091613769531250e+01 4.506242752075195312e+00 2.348485175860531848e-13 -4.483620235067736770e-13 -6.405404771045800083e-14 -1.300984195590562664e-13
1.713000000000000000e+03 1.251717567443847656e+01 4.962710857391357422e+00 9.631032272692727214e-14 -1.074147281537873866e-13 -3.331322771552513128e-15 -4.958072120182441256e-14
1.714000000000000000e+03 5.113995742797851562e+01 3.138363361358642578e+00 6.483029580837615380e-14 -1.796653781695536911e-14 1.405912739742623541e-14 5.591851986877852121e-14
1.715000000000000000e+03 5.191507720947265625e+01 2.946975469589233398e+00 1.767343731215106906e-13 3.502489910513911786e-13 1.580950133176287076e-13 7.752433813174378074e-14
1.716000000000000000e+03 6.351874923706054688e+01 3.497241973876953125e+01 2.992401723004960157e-14 2.873302724221149518e-13 9.517628791208890271e-14 9.241443703767848045e-15
1.717000000000000000e+03 6.580369949340820312e+00 2.264248657226562500e+01 6.637054729592695157e-14 -3.375630666917900369e-13 -8.135775852926435681e-14 8.738713555946422962e-14
1.718000000000000000e+03 6.458119392395019531e+00 2.364645195007324219e+01 -2.594025356658907072e-14 -5.601286578657549420e-13 -1.758206617406485317e-13 6.097424692566967910e-15
1.719000000000000000e+03 2.509009361267089844e+01 1.403516197204589844e+01 3.232087720291682009e-13 4.701614599489541135e-14 1.110674730355268314e-13 -7.503094418557024192e-14
1.720000000000000000e+03 7.332891845703125000e+01 1.240926074981689453e+01 -5.133111817545721323e-14 -1.135009444828798120e-13 -4.944962083038018097e-14 -1.158238544136935833e-13
1.721000000000000000e+03 7.825690460205078125e+01 1.271655178070068359e+01 -4.361218146602813261e-14 9.568643891556122272e-14 1.562227587960721142e-14 -3.677127910972285973e-14
1.722000000000000000e+03 7.088767242431640625e+01 2.120797538757324219e+01 -5.274747923601080801e-14 -2.260606252971891772e-14 -2.260606252971891772e-14 1.920940755637326469e-13
1.723000000000000000e+03 5.727920532226562500e+01 1.452607440948486328e+01 -5.780947687781048949e-14 -1.333775348196300503e-14 -2.134416978555840616e-14 -7.526777459762254430e-14
1.724000000000000000e+03 9.547140121459960938e+00 1.839725685119628906e+01 3.737302147984768175e-14 -5.260941286560835706e-14 -4.570918008651265671e-15 1.453630239182240880e-13
1.725000000000000000e+03 1.715744590759277344e+01 2.349016380310058594e+01 1.194917510207935130e-13 -8.604209467306944692e-14 1.003489842897652487e-14 -5.185505887531083324e-14
1.726000000000000000e+03 1.872394943237304688e+01 2.360474777221679688e+01 -3.409279491204710022e-14 -2.662414288600450929e-13 -9.010026340468269002e-14 -1.213823556641194235e-13
1.727000000000000000e+03 7.753840637207031250e+01 2.309108734130859375e+01 1.118344461226725498e-14 -1.808256947226794670e-14 -2.069737288593618066e-15 -2.193483465879903643e-14
1.728000000000000000e+03 7.724456024169921875e+01 3.098030090332031250e+01 6.125910325879835305e-14 2.550086335671719606e-13 9.488032104779109410e-14 -7.607250333135917586e-14
1.729000000000000000e+03 7.823684692382812500e+01 2.384955024719238281e+01 -3.737002637134619054e-14 7.548617357274259310e-14 1.143484483804527857e-14 -2.511179605186805719e-14
1.730000000000000000e+03 7.749328613281250000e+01 2.467741012573242188e+01 -2.312036230056688929e-14 1.044686459192832595e-13 2.440448457739514271e-14 -3.171135839270984580e-14
1.731000000000000000e+03 7.681063842773437500e+01 3.618154907226562500e+01 -1.346090275513136050e-14 1.772348408443299994e-13 4.913217998680358134e-14 8.154653168002123920e-14
1.732000000000000000e+03 7.823695373535156250e+01 1.908518218994140625e+01 -7.246817485288478689e-14 1.748214745710130469e-13 3.070599127069119361e-14 -6.009975232323244709e-14
1.733000000000000000e+03 7.757381439208984375e+01 2.231113243103027344e+01 1.030022557047330367e-13 2.042721460732144223e-13 9.218231782287880649e-14 1.031975899726993509e-14
1.734000000000000000e+03 7.753067016601562500e+01 1.113484096527099609e+01 1.868972777105751271e-14 -1.063674904991200598e-13 -2.630332746316604853e-14 -1.060993740781279726e-13
1.735000000000000000e+03 7.756640625000000000e+01 1.279155921936035156e+01 4.149166158763130385e-14 1.778214213246989694e-14 1.778214213246989694e-14 -1.080266789649925174e-13
1.736000000000000000e+03 7.757466888427734375e+01 1.030989265441894531e+01 -2.478471597335170362e-14 -3.349749676858498892e-14 -1.748466416139418667e-14 -1.510886549335385687e-13
1.737000000000000000e+03 7.828691864013671875e+01 1.431073951721191406e+01 2.479735031679294877e-14 1.062743524503058715e-14 1.062743524503058715e-14 2.055061849859374234e-14
1.738000000000000000e+03 7.688217163085937500e+01 1.289521598815917969e+01 -1.420465951622578576e-14 -1.433405531856696280e-13 -4.726356431878839248e-14 -2.802616537282698328e-14
1.739000000000000000e+03 7.827514648437500000e+01 1.588666248321533203e+01 6.469928352835843666e-14 -1.802268424289706766e-14 1.400298012445158960e-14 1.978769253487000501e-14
1.740000000000000000e+03 7.760376739501953125e+01 1.358261013031005859e+01 -5.696323251823008291e-15 -2.441281514643138875e-15 -2.441281514643138875e-15 6.679175983993757004e-14
1.741000000000000000e+03 7.754477691650390625e+01 1.671200561523437500e+01 3.700517878777766223e-14 1.988631563023743332e-13 7.076050222111149313e-14 -4.137504547958512080e-14
1.742000000000000000e+03 7.823490905761718750e+01 1.828813934326171875e+01 -1.233798897467067168e-13 2.673795429855574390e-13 4.319990003741336348e-14 -7.333688506732521928e-14
1.743000000000000000e+03 7.686454772949218750e+01 1.591765117645263672e+01 -6.832598045290391719e-14 3.824759790566761852e-13 9.424499890350532261e-14 -9.118218875260597489e-14
1.744000000000000000e+03 7.367297363281250000e+01 1.424188518524169922e+01 -7.777652186299801457e-15 1.796705145773458412e-13 5.156786049608300115e-14 1.806881467364407357e-13
1.745000000000000000e+03 7.511013793945312500e+01 -8.817819952964782715e-01 -1.110973072299950223e-14 4.098963532418904709e-14 8.963970956840389831e-15 8.334353579454376049e-14
1.746000000000000000e+03 7.752817535400390625e+01 4.085534572601318359e+00 9.508427980522635159e-14 8.650135593707072856e-14 5.447569072268912405e-14 -1.573326023499369009e-13
1.747000000000000000e+03 7.748436737060546875e+01 3.281412601470947266e+00 -3.835985213284862083e-14 -1.643993541831662714e-14 -1.643993541831662714e-14 -6.302991033832819334e-14
1.748000000000000000e+03 7.823283386230468750e+01 3.975953340530395508e+00 -7.062111447931132546e-14 -2.590209405468890669e-13 -9.889261447498104429e-14 -9.198303468731239274e-15
1.749000000000000000e+03 7.760079956054687500e+01 2.154061698913574219e+01 1.476306937483497228e-14 -8.517486846035260406e-14 -2.112353972565528953e-14 6.414244406883345961e-14
1.750000000000000000e+03 7.671926116943359375e+01 1.927047538757324219e+01 -1.239125938494326298e-14 -5.106148725955543533e-14 -1.903582373923972532e-14 2.204831208625916868e-15
1.751000000000000000e+03 7.294539642333984375e+01 1.668203353881835938e+01 3.004074853457661121e-14 -1.243782366596585254e-13 -2.830124779277728986e-14 -5.840239316462492170e-14
1.752000000000000000e+03 7.549095153808593750e+01 4.285095214843750000e+00 -5.381752240575000956e-14 -1.374420190288980215e-13 -5.737786276920758821e-14 -3.461604104488397171e-14
1.753000000000000000e+03 7.759561157226562500e+01 2.075985527038574219e+01 1.247535332416643827e-13 9.921675026697274191e-14 6.719108505259113739e-14 6.360761391340993831e-14
1.754000000000000000e+03 7.677996063232421875e+01 1.753609657287597656e+01 -1.632136097009639214e-14 -2.987034244624799106e-14 -1.385751153312308331e-14 -6.159238700662039712e-14
1.755000000000000000e+03 7.761080169677734375e+01 7.953649520874023438e+00 3.920004105388910642e-15 -4.407094806278821775e-14 -1.204528284840661323e-14 -6.749127607019690320e-15
1.756000000000000000e+03 7.720854187011718750e+01 1.601089596748352051e+00 3.995845741420166186e-14 1.086269542740526950e-13 4.457562384528948596e-14 -1.146191567222634711e-13
1.757000000000000000e+03 7.560976409912109375e+01 -1.104952692985534668e+00 7.677489015627675384e-14 6.721673321023399761e-14 4.319748768757958324e-14 -3.861908656635579945e-15
1.758000000000000000e+03 7.759318542480468750e+01 7.187119007110595703e+00 1.077308171327801684e-14 1.418698871488016655e-13 4.579288811752506294e-14 -1.415255716438745814e-13
1.759000000000000000e+03 7.722271728515625000e+01 2.461635023355484009e-01 5.476223180434988680e-14 2.346952791614995149e-14 2.346952791614995149e-14 -4.707527228274555053e-14
1.760000000000000000e+03 7.820637512207031250e+01 2.703013801574707031e+01 -1.624964777265005406e-14 -6.964134215185985646e-15 -6.964134215185985646e-15 5.065306830118014580e-14
1.761000000000000000e+03 7.748220825195312500e+01 2.627697563171386719e+01 -1.146770039903632563e-14 4.083622071678234822e-14 8.810556349433690954e-15 4.139961621131907354e-14
1.762000000000000000e+03 7.748483276367187500e+01 2.707475662231445312e+01 5.786970917893150598e-16 -4.550293518715275987e-14 -1.347727166683704986e-14 -3.519434770742416174e-14
1.763000000000000000e+03 7.819995117187500000e+01 2.782038879394531250e+01 1.718386582116523953e-14 -3.838643541486524979e-14 -6.360770624000118903e-15 -4.783395969360122735e-14
1.764000000000000000e+03 7.747764587402343750e+01 2.863148307800292969e+01 5.228862454782420843e-14 -1.148434374941692537e-13 -1.876644354509033469e-14 5.435537138659754519e-14
1.765000000000000000e+03 7.741248321533203125e+01 -1.237951397895812988e+00 3.257925884365270308e-14 -3.178841128585567499e-14 2.372542461632847453e-16 -5.140486785186698746e-16
1.766000000000000000e+03 7.792033386230468750e+01 3.339560317993164062e+01 1.729651866205121971e-15 3.209979211691443846e-13 9.681827144473673097e-14 -4.086571440400574295e-14
1.767000000000000000e+03 7.660876464843750000e+01 3.493568801879882812e+01 8.293835589015877141e-14 3.100507047285039341e-13 1.178967134422143070e-13 2.500999793820114087e-14
1.768000000000000000e+03 7.735946655273437500e+01 -1.971435546875000000e+00 2.218952221944535397e-14 9.509795599919271952e-15 9.509795599919271952e-15 -7.859147767253979455e-14
1.769000000000000000e+03 7.727757263183593750e+01 3.537189865112304688e+01 -1.134858605201551074e-13 8.861605161692223676e-14 -7.460943179189629543e-15 8.434786614823497342e-14
1.770000000000000000e+03 7.712078857421875000e+01 3.339666366577148438e+01 4.829593400413256452e-15 3.223264754062538096e-13 9.814681890558257793e-14 7.259270902492190314e-14
1.771000000000000000e+03 7.794828796386718750e+01 3.259315109252929688e+01 -3.696420949818486623e-14 2.129129392323264591e-13 5.278461993668201457e-14 5.959077361335912704e-14
1.772000000000000000e+03 7.621685791015625000e+01 3.175082397460937500e+01 -1.480276811500688683e-14 3.139126057618429888e-13 8.973294926117175718e-14 -9.735586631570009031e-14
1.773000000000000000e+03 7.603643035888671875e+01 3.846885299682617188e+01 -6.156137204822373366e-14 7.655619302555927153e-14 4.498445446167714107e-15 6.195468671508358449e-14
1.774000000000000000e+03 7.597225952148437500e+01 1.826739311218261719e+01 -1.020421523293497598e-14 8.712866176154368536e-14 2.307733472091226534e-14 1.278450679738710183e-13
1.775000000000000000e+03 5.428696060180664062e+01 1.705325508117675781e+01 -2.614847120568312283e-14 3.090501487536256864e-13 8.487050580548161083e-14 -5.610962744233803645e-14
1.776000000000000000e+03 5.369861602783203125e+01 5.500643253326416016e+00 1.571528551822659603e-13 9.022669493052165590e-14 7.421386232333085364e-14 2.488437109366206657e-15
1.777000000000000000e+03 1.302437782287597656e+01 2.138889312744140625e+01 3.747427444310974520e-13 -1.139016588295668764e-13 7.825232568045917270e-14 -4.067374709200476460e-15
1.778000000000000000e+03 6.026905059814453125e+01 9.084940910339355469e+00 2.381542059642482306e-14 1.017085043573603964e-13 3.765717731672897639e-14 -7.563486512443540200e-14
1.779000000000000000e+03 6.108460617065429688e+01 9.910189628601074219e+00 8.227284379756696214e-15 1.179033541805207808e-13 3.783919114456676946e-14 5.891328955709082549e-14
1.780000000000000000e+03 3.577527761459350586e+00 3.862883377075195312e+01 -4.759757651494507524e-14 -3.864065642976421966e-13 -1.302012425825893605e-13 1.478264769437780818e-14
1.781000000000000000e+03 2.458231687545776367e+00 1.539817714691162109e+01 -7.004385813762573076e-14 -1.672716462954373928e-13 -7.119465065229257927e-14 9.306052158259206508e-14
1.782000000000000000e+03 2.491662025451660156e+00 8.100059509277343750e+00 -2.029635784255284098e-14 1.285544072452196596e-13 3.247741499020663503e-14 -2.065026684264052725e-14
1.783000000000000000e+03 3.185743808746337891e+00 1.458344268798828125e+01 -7.579387014929397925e-14 -1.011095097621164673e-13 -5.307101194054406057e-14 1.019557363340049816e-13
1.784000000000000000e+03 2.483413457870483398e+00 1.619534873962402344e+01 7.989675544425867137e-14 -1.945132829762538651e-13 -3.438495690434584251e-14 5.017088971375795181e-14
1.785000000000000000e+03 4.407248973846435547e+00 2.824031448364257812e+01 -6.764282466402080085e-14 -4.864992957098746018e-13 -1.662426300135314006e-13 -1.481717580662650358e-13
1.786000000000000000e+03 4.196773529052734375e+00 2.681081390380859375e+01 -1.023220340379792093e-13 -2.268560908786146357e-13 -9.875343679735179570e-14 -6.431067836468531973e-14
1.787000000000000000e+03 2.935751914978027344e+00 2.770433235168457031e+01 -9.938365641516330728e-14 -5.916044021857247426e-13 -2.072964060606183323e-13 1.320582098535139082e-13
1.788000000000000000e+03 1.665027856826782227e+00 2.999869155883789062e+01 5.033854463907388999e-14 -3.901848733434826189e-13 -1.019538999665753343e-13 -2.793615880481879407e-15
1.789000000000000000e+03 3.061481475830078125e+00 2.995781707763671875e+01 -4.918276479441360816e-14 -4.328368718130304327e-13 -1.446058848835959920e-13 -5.224566303673947032e-14
1.790000000000000000e+03 2.473695278167724609e+00 1.461370849609375000e+01 2.177669191348076405e-14 -3.641807992324497256e-14 -4.392416826445736180e-15 6.468293918060821768e-14
1.791000000000000000e+03 1.747336864471435547e+00 2.436856651306152344e+01 -1.127489028925282924e-14 1.804337895186438473e-14 2.030546344673582471e-15 -7.917809881049023280e-14
1.792000000000000000e+03 4.628383636474609375e+00 2.589845466613769531e+01 4.867079775230237493e-14 -2.078958343367312556e-13 -4.776750826482323298e-14 -2.778560801580676198e-14
1.793000000000000000e+03 2.510232686996459961e+00 1.382752895355224609e+01 -6.574205562532783875e-14 6.332673101183683428e-14 -7.245965581901777676e-16 1.811116361050135737e-13
1.794000000000000000e+03 1.793420195579528809e+00 1.136498165130615234e+01 7.243330420051222185e-14 -8.333452336398497473e-14 -3.270366257261594217e-15 5.109991883843825744e-14
1.795000000000000000e+03 1.797457218170166016e+00 1.384570407867431641e+01 4.123602704414995601e-14 1.767258350294023672e-14 1.767258350294023672e-14 -8.705379082526998324e-14
1.796000000000000000e+03 2.450605154037475586e+00 8.880411148071289062e+00 -9.110128185955013863e-15 1.333485053064617509e-13 3.727151305144872639e-14 4.763569299757151876e-15
1.797000000000000000e+03 2.420616626739501953e+00 9.645426750183105469e+00 -8.997166347449875312e-14 -1.300611772144313893e-13 -6.600985356193175835e-14 8.480642945708771752e-14
1.798000000000000000e+03 3.278101921081542969e+00 1.946331024169921875e+01 -5.830205279466023002e-15 -4.142571973387437767e-13 -1.260262239618364921e-13 -5.342928316031010649e-14
1.799000000000000000e+03 6.047903060913085938e+00 2.304958343505859375e+01 1.607747951697796607e-13 -3.886060039298006030e-13 -6.834936533851171392e-14 1.117695210472655076e-13
1.800000000000000000e+03 2.428711652755737305e+00 1.042403888702392578e+01 2.975450560851328197e-14 8.137835159427800336e-14 3.333985716083738560e-14 3.448565895737901177e-14
1.801000000000000000e+03 4.866107940673828125e+00 2.373137474060058594e+01 3.211090722206148829e-14 -4.780608959913112965e-13 -1.337849915485772589e-13 4.312707892087201678e-14
1.802000000000000000e+03 2.530710935592651367e+00 2.112281036376953125e+01 1.015329245917899470e-13 -2.309915767776532514e-13 -3.883759565575899131e-14 4.759845404107843070e-14
1.803000000000000000e+03 5.478515625000000000e+00 2.340779876708984375e+01 9.532106955969718576e-14 -3.709066474094635524e-13 -8.267567403255626779e-14 9.079611791151104283e-14
1.804000000000000000e+03 2.528591394424438477e+00 1.700316238403320312e+01 -3.985942909827226710e-14 -6.283356132489106849e-14 -3.080789611050946397e-14 -3.558256662407333071e-14
1.805000000000000000e+03 2.529921531677246094e+00 2.029975891113281250e+01 8.051983288025893470e-14 -3.543745700530787079e-13 -8.215642250709864758e-14 -3.007816367392272816e-14
1.806000000000000000e+03 1.790931463241577148e+00 2.031690788269042969e+01 1.006566046333513820e-13 2.026307114179164148e-14 3.627590374898244374e-14 5.897956141488400195e-14
1.807000000000000000e+03 2.503212690353393555e+00 2.195312690734863281e+01 1.035039634837871259e-13 -5.046525263646683968e-13 -1.203445708971434547e-13 -7.736882288262789120e-14
1.808000000000000000e+03 1.840838909149169922e+00 5.773515701293945312e+00 -3.065697855623127077e-14 7.836319212885939356e-14 1.431186339416207903e-14 3.611806762959107742e-14
1.809000000000000000e+03 1.864640712738037109e+00 4.981820583343505859e+00 8.311099983953403741e-15 2.323166344627564106e-13 7.218832194337554409e-14 1.079708764344274041e-13
1.810000000000000000e+03 2.595922470092773438e+00 5.724068164825439453e+00 3.969075688638667651e-15 2.990822108202284557e-13 9.091538015048444832e-14 3.548087862468955744e-14
1.811000000000000000e+03 1.819360375404357910e+00 6.567131042480468750e+00 -2.725022390083573637e-14 2.170760722867634551e-13 5.694775299111901057e-14 3.875099161909992262e-14
1.812000000000000000e+03 2.668083429336547852e+00 4.157141208648681641e+00 -2.773290731989449392e-14 2.168692065122532209e-13 5.674089060474056534e-14 8.940812229029510005e-15
1.813000000000000000e+03 5.131957054138183594e+00 3.199318885803222656e+01 1.448370367867699016e-13 -3.039345847482416429e-13 -4.772925964505701779e-14 1.292289978369401404e-13
1.814000000000000000e+03 1.920996189117431641e+00 3.383469772338867188e+01 -3.931579996459266813e-14 -6.116119438161204958e-13 -1.952783231342139492e-13 1.946333041567480104e-13
1.815000000000000000e+03 2.671607017517089844e+00 3.368444442749023438e+01 1.511875206191420906e-13 -4.155903052249776408e-13 -7.932083402649794945e-14 -4.299976986889969544e-14
1.816000000000000000e+03 1.810184597969055176e+00 3.303599166870117188e+01 1.103180115075326484e-13 -6.161095938983507381e-13 -1.517374821711353627e-13 2.431948651520406818e-14
1.817000000000000000e+03 2.308275222778320312e+00 3.152298736572265625e+01 -6.276191589008051075e-14 -4.615319628212266601e-13 -1.572881636133921512e-13 9.179720243494837728e-14
1.818000000000000000e+03 3.190964698791503906e+00 3.937044143676757812e+01 -1.046120519853852016e-13 -7.768489085520358106e-13 -2.644382922269844505e-13 -3.878140349003814102e-14
1.819000000000000000e+03 2.841424703598022461e+00 4.078886032104492188e+01 -6.086427070889702251e-14 -7.123489081592437877e-13 -2.319639434960468760e-13 -2.206311102239712219e-14
1.820000000000000000e+03 2.323631525039672852e+00 3.699854278564453125e+01 -4.068425622978134870e-14 -5.664474965472177104e-13 -1.821395275271656122e-13 -8.399336591915010364e-14
1.821000000000000000e+03 4.213468170166015625e+01 4.303553104400634766e+00 3.288668098152917885e-15 1.409429154671502406e-15 1.409429154671502406e-15 8.881815367813711282e-14
1.822000000000000000e+03 2.484694004058837891e+00 3.786080169677734375e+01 -8.324950158487137708e-14 -5.389387937662637462e-13 -1.866564899605932526e-13 -1.403477096502793800e-14
1.823000000000000000e+03 5.258679962158203125e+01 2.986701488494873047e+00 7.527579091743535900e-14 -1.507427402304070685e-13 -2.264008445507833395e-14 1.272527327516584025e-14
1.824000000000000000e+03 1.622632408142089844e+01 2.065063858032226562e+01 1.943386044537392943e-13 -1.683422417306582042e-13 7.798906784045253615e-15 -1.915733603653421713e-13
1.825000000000000000e+03 4.839998626708984375e+01 1.830398082733154297e+00 -6.897616294321631814e-14 6.194068695453136542e-14 -2.110644321264790874e-15 1.328081796012764437e-13
1.826000000000000000e+03 7.290921783447265625e+01 2.936283648014068604e-01 5.445426756538716828e-14 6.908849306454939443e-14 3.706282785016778991e-14 2.019720416574725258e-14
1.827000000000000000e+03 9.996511459350585938e+00 5.621157169342041016e+00 8.044415556861944649e-14 -1.942786751786551580e-13 -3.415035588301071345e-14 6.987369260665413084e-14
1.828000000000000000e+03 2.913588714599609375e+01 9.887084960937500000e+00 -1.353578385580042967e-14 -1.544916402923188214e-13 -5.040822495744681775e-14 -1.174403134555088504e-14
1.829000000000000000e+03 2.817654609680175781e+01 9.861049652099609375e+00 7.549005637177280681e-14 2.153566767190001618e-13 8.725402263773732181e-14 -1.449645931723628212e-13
1.830000000000000000e+03 4.214189529418945312e+01 3.628576040267944336e+00 4.055448739413020087e-14 -7.412140698307215225e-14 -1.007007570727599596e-14 1.449911832306430282e-13
1.831000000000000000e+03 5.331606292724609375e+01 3.103238821029663086e+00 1.014597409451471755e-13 2.722375005547589266e-13 1.121091677065873260e-13 1.263362092214113594e-14
1.832000000000000000e+03 4.327653884887695312e+01 1.132391262054443359e+01 1.011417037903757088e-13 1.805992963684055486e-13 8.452229394899715698e-14 1.532609488538033693e-13
1.833000000000000000e+03 5.432077407836914062e+01 2.385009002685546875e+01 -7.258929209401267929e-15 -1.174883351414204857e-13 -3.742418226986184149e-14 -3.558668998046056464e-14
1.834000000000000000e+03 5.410319900512695312e+01 2.242587852478027344e+01 2.564312457308762921e-14 3.083710858279437028e-13 1.002042619344632735e-13 -1.943554502449942878e-13
1.835000000000000000e+03 3.278344154357910156e+00 7.266654491424560547e+00 -7.296359595340435461e-15 -1.632553277676820902e-13 -5.116550629361005242e-14 4.028798922958384300e-16
1.836000000000000000e+03 2.628600358963012695e+00 4.937283039093017578e+00 1.230648832758205261e-14 9.677610953275420091e-14 3.272477910399099188e-14 -8.386223166638798188e-14
1.837000000000000000e+03 2.715130329132080078e+00 3.384826660156250000e+00 -3.289425006794584327e-14 -1.742258545550309790e-13 -6.213603308095894118e-14 -3.987585476118542249e-14
1.838000000000000000e+03 7.487368583679199219e+00 3.320349216461181641e+00 -7.231439602131076866e-15 1.341536609448037987e-13 3.807666530165898511e-14 -9.057481191931601727e-14
1.839000000000000000e+03 3.327406167984008789e+00 6.469084262847900391e+00 1.768970373287014064e-14 1.905850965325944779e-13 6.248244245133163788e-14 -2.332812169483647682e-15
1.840000000000000000e+03 7.405435085296630859e+00 4.023963451385498047e+00 -4.550922017162138677e-14 -1.567567961286570055e-13 -6.067980726177577000e-14 -6.482158830967837959e-14
1.841000000000000000e+03 6.642621994018554688e+00 4.060482978820800781e+00 1.094132380183299169e-13 -9.036146126056160410e-14 5.715533112033788568e-15 1.379385294137877582e-13
1.842000000000000000e+03 6.501968383789062500e+01 5.405371665954589844e+00 -7.805162630580494976e-14 1.230025247102436645e-14 -1.972541189632429082e-14 5.256928383269923732e-14
1.843000000000000000e+03 5.725748062133789062e+01 1.060523509979248047e+01 3.915743190851042610e-14 -2.896919086992771897e-14 3.056471803355043787e-15 -7.117892972079153946e-14
1.844000000000000000e+03 6.196372604370117188e+01 2.059044456481933594e+01 -3.308051938931064195e-14 1.688264328683630744e-13 4.072377201083665632e-14 1.539199540392943710e-13
1.845000000000000000e+03 6.235748672485351562e+01 1.963778114318847656e+01 -1.115777731167978681e-13 8.943379755299227241e-14 -6.643191737405436739e-15 2.112052123904445411e-13
1.846000000000000000e+03 7.133259582519531250e+01 2.014837455749511719e+01 2.552463821629390867e-14 1.939429248708907094e-13 6.584027078962786939e-14 1.915318354221359765e-14
1.847000000000000000e+03 2.107226753234863281e+01 9.296719551086425781e+00 -1.083894055780611210e-13 -3.438337667967944489e-13 -1.356669496795775975e-13 5.652522924010604244e-14
1.848000000000000000e+03 3.179192161560058594e+01 2.924012184143066406e+01 1.650925235955518280e-15 9.220943642971810017e-14 2.815810938908668015e-14 -2.446147718925114831e-15
1.849000000000000000e+03 2.714104270935058594e+01 3.279899597167968750e+00 -1.558570269101066524e-14 -7.530601305299339243e-14 -2.726751353735509115e-14 -1.429621259698907187e-13
1.850000000000000000e+03 2.122026062011718750e+01 2.513682174682617188e+01 -9.526194157778115207e-15 -4.615921360417996056e-13 -1.413354974505107164e-13 1.607336903549153040e-13
1.851000000000000000e+03 1.071529293060302734e+01 2.175111007690429688e+01 3.334440200081917327e-13 9.715363550547723159e-14 1.291793007198588361e-13 -3.726739985945685951e-14
1.852000000000000000e+03 7.531996917724609375e+01 -1.798099875450134277e+00 1.670947485466010157e-14 -1.300916432954782320e-13 -3.401465104046520749e-14 1.188514483227778862e-13
1.853000000000000000e+03 2.929180145263671875e+01 3.928846836090087891e+00 5.398077614787201439e-14 1.146365175095503952e-13 5.058518708078718618e-14 -1.127901131629945822e-15
1.854000000000000000e+03 2.747001266479492188e+01 2.836598634719848633e+00 2.147722104328675385e-13 -9.095856527826726157e-14 3.714409557925915650e-14 -7.696221996289151490e-14
1.855000000000000000e+03 2.767954063415527344e+01 5.232053279876708984e+00 1.181210077666472458e-13 1.421251896553676897e-13 7.807385922660448063e-14 -1.526801824075843528e-13
1.856000000000000000e+03 5.412376785278320312e+01 1.606383323669433594e+01 4.355813144663088846e-15 4.307819292254100318e-13 1.305413161465165950e-13 -1.010583760771566197e-13
1.857000000000000000e+03 2.219864463806152344e+01 1.553689956665039062e+01 2.847299761417343422e-13 -1.067276150269746982e-13 5.340070765680153542e-14 -2.330989134352590142e-13
1.858000000000000000e+03 5.231891632080078125e+01 2.854177665710449219e+01 3.727326132745185927e-14 2.741199194716825716e-14 1.940557564357285603e-14 -6.763726812788681264e-14
1.859000000000000000e+03 5.183185195922851562e+01 3.108038330078125000e+01 1.348895902744326469e-13 -1.081660057204204828e-14 3.722189724953035850e-14 -1.082348525583733123e-13
1.860000000000000000e+03 2.128088951110839844e+01 2.896228218078613281e+01 -5.442318484435472448e-14 -4.350827695082798430e-13 -1.468517825788454023e-13 5.004121235766510745e-14
1.861000000000000000e+03 4.972483062744140625e+01 4.078092098236083984e+00 2.292515339347676873e-14 2.412223625871106475e-14 1.411421672624976059e-14 3.894152659838709396e-14
1.862000000000000000e+03 6.527809906005859375e+01 2.158619689941406250e+01 -1.367498914670375876e-13 -5.860709731105376297e-14 -5.860709731105376297e-14 5.070037678535019299e-14
1.863000000000000000e+03 6.650990295410156250e+01 2.105373001098632812e+01 -1.085525780050201894e-13 9.073031361590475075e-14 -5.346679486141221044e-15 5.547926552299138614e-14
1.864000000000000000e+03 5.991121673583984375e+01 1.139945220947265625e+01 7.531944360740505662e-14 2.152835608349931706e-13 8.718089997746675257e-14 -4.518862836548100115e-14
1.865000000000000000e+03 9.389918327331542969e+00 6.300395965576171875e+00 1.592080959254837946e-13 -1.605227046121496248e-13 -3.943806578239703736e-16 5.419349322598188134e-14
1.866000000000000000e+03 4.501013755798339844e+00 3.370656967163085938e+01 1.028712027671338514e-13 -4.019840829563164908e-13 -8.973387083301836986e-14 1.275576459779451111e-13
1.867000000000000000e+03 5.084852600097656250e+01 2.984111595153808594e+01 3.235435889066247753e-15 1.386394661182996368e-13 4.256247047515482329e-14 7.504072911017692360e-14
1.868000000000000000e+03 4.404136276245117188e+01 3.278850317001342773e+00 -1.738388164023102825e-15 -2.981261884495850500e-13 -8.995937133236819871e-14 2.587816605155533051e-14
1.869000000000000000e+03 4.572999572753906250e+01 5.432033061981201172e+00 3.759162035474328256e-14 -2.964025441645583292e-14 2.385409315618113903e-15 3.086956010906957704e-14
1.870000000000000000e+03 1.406836986541748047e+01 5.471879482269287109e+00 -1.647275116875915324e-14 1.759440439478773821e-13 4.784138647848275305e-14 -9.076943976180432139e-14
1.871000000000000000e+03 1.301516342163085938e+01 5.364739894866943359e+00 -5.588135206305300251e-14 2.505565470812404216e-13 5.840255579495079452e-14 -2.527105222199549535e-15
1.872000000000000000e+03 6.779362487792968750e+01 7.380065321922302246e-01 6.308143027031198891e-14 -1.788443660744390429e-13 -3.472888277411718960e-14 3.290452627166193245e-14
1.873000000000000000e+03 5.320390319824218750e+01 1.835588455200195312e+01 3.613825073065825288e-14 2.957123749428719472e-13 9.955519075137767016e-14 -1.275093718762151940e-13
1.874000000000000000e+03 3.029097175598144531e+01 1.208989048004150391e+01 1.258106303598377496e-13 -9.477173820021667083e-14 9.311667817292913069e-15 6.980386998674606436e-14
1.875000000000000000e+03 3.310374259948730469e+00 1.312423992156982422e+01 -5.180509070768640756e-14 2.065525620551303398e-13 4.642423937135410628e-14 1.038493631908866954e-13
1.876000000000000000e+03 5.396221542358398438e+01 2.443585395812988281e+01 1.504201223214568506e-13 2.017186060115222501e-13 1.056416171446410146e-13 -2.106619728919206791e-13
1.877000000000000000e+03 5.366437530517578125e+01 2.358697509765625000e+01 2.810566788525627191e-14 5.779623605877901027e-14 2.577057084439740575e-14 -1.984742936406852509e-13
1.878000000000000000e+03 2.061252212524414062e+01 1.598967266082763672e+01 3.042953259160818824e-13 -9.834246996387116524e-14 6.178585610803685735e-14 -2.693789473168922699e-13
1.879000000000000000e+03 2.178793334960937500e+01 1.501060676574707031e+01 3.154818257761898836e-13 -4.779730349577585025e-14 8.030535058548698979e-14 -2.210223513541761942e-13
1.880000000000000000e+03 3.521378707885742188e+01 2.158286476135253906e+01 -1.457527200603332684e-14 -7.487296915277552589e-14 -2.683447133120311912e-14 -1.918928611930464934e-13
1.881000000000000000e+03 5.749738693237304688e+01 2.268568038940429688e+01 -6.948898379453838370e-14 2.447247049106038297e-13 5.257071362431420258e-14 -1.584430693200508666e-13
1.882000000000000000e+03 5.588573837280273438e+01 2.212768936157226562e+01 -1.107329051857567498e-14 3.612618830386299384e-13 1.050565816523678364e-13 -1.008420032048464032e-13
1.883000000000000000e+03 1.582910251617431641e+01 5.294218063354492188e+00 4.563857565519427451e-14 1.955939005053065893e-14 1.955939005053065893e-14 -9.154289603912832418e-14
1.884000000000000000e+03 5.970372009277343750e+01 1.225064754486083984e+01 2.074199881676227347e-14 5.464037764455788315e-14 2.261471243017627863e-14 -9.480061355338856993e-15
1.885000000000000000e+03 2.846141624450683594e+01 5.224038124084472656e+00 2.564623318400405250e-13 -2.789706399913827184e-13 -6.752495833534447045e-15 -2.037128061724291506e-13
1.886000000000000000e+03 2.776613807678222656e+01 6.713655471801757812e+00 1.093303981960884463e-13 1.383577903938879028e-13 7.430645318886111572e-14 -2.124093815333155666e-13
1.887000000000000000e+03 6.094411849975585938e+01 8.687979698181152344e+00 -2.486049111729659970e-15 -9.256734511938272125e-14 -2.851601807875130123e-14 8.819945709654004873e-15
1.888000000000000000e+03 6.045531463623046875e+01 8.163753509521484375e+00 6.405739518466554983e-14 2.104569638136308263e-13 8.235430973236798624e-14 -4.168967756190862517e-14
1.889000000000000000e+03 4.758240127563476562e+01 2.081098556518554688e+01 9.895611484097080468e-14 4.240976398729202901e-14 4.240976398729202901e-14 -3.932539854195095386e-14
1.890000000000000000e+03 5.957532501220703125e+01 1.401202774047851562e+01 4.016711551042828621e-15 1.847252412883262918e-13 5.662258720706345172e-14 1.412146902234415191e-14
1.891000000000000000e+03 5.574464416503906250e+01 1.209217357635498047e+01 4.078116357521081869e-14 -2.827330756397915951e-14 3.752356803369497756e-15 2.243938338635821650e-14
1.892000000000000000e+03 5.272322845458984375e+01 1.901490783691406250e+01 7.109685561633438677e-14 9.909650546978052144e-14 5.105800764820811466e-14 -1.379405487403340125e-13
1.893000000000000000e+03 6.603820800781250000e+01 3.098084640502929688e+01 -5.910361447220707776e-14 8.904725237344687794e-14 8.983091031558761153e-15 5.057558172716532241e-14
1.894000000000000000e+03 2.889630317687988281e+00 2.701842498779296875e+01 1.218103309191809203e-13 2.352082287618295631e-13 1.071055679043031450e-13 -1.589907133899004510e-13
1.895000000000000000e+03 4.444128799438476562e+01 5.094648838043212891e+00 -5.999811514582550909e-14 6.578841882072875014e-14 1.737090827185264457e-15 1.078120137111039656e-13
1.896000000000000000e+03 4.082207870483398438e+01 6.827749729156494141e+00 -5.347491790737637918e-14 2.283312665188937801e-14 -9.192536868426331997e-15 3.118002478929259025e-14
1.897000000000000000e+03 6.296476364135742188e+01 4.083959579467773438e+00 -5.209910600807374226e-14 -2.232818828917446097e-14 -2.232818828917446097e-14 -4.991320365647835405e-15
1.898000000000000000e+03 6.292264938354492188e+01 -5.347757041454315186e-02 1.286992566554637230e-13 -1.735979253143088430e-13 -1.346959754833492590e-14 -1.659418994359382338e-13
1.899000000000000000e+03 4.341379547119140625e+01 3.744892883300781250e+01 9.322159336784194283e-14 7.426532126894244690e-14 5.024607574628803253e-14 -6.408242585528986165e-15
1.900000000000000000e+03 4.135663986206054688e+01 3.753379440307617188e+01 1.111829676719508497e-13 4.764984183592245459e-14 4.764984183592245459e-14 -2.538709531225286087e-14
1.901000000000000000e+03 4.591758728027343750e+01 3.364327621459960938e+01 1.517532708652721829e-13 1.928616432680073378e-14 5.131182954118233830e-14 -1.257217257816939382e-13
1.902000000000000000e+03 5.231160354614257812e+01 1.966658020019531250e+01 -5.341072975063344830e-14 2.058644324887809463e-13 4.573610980500471268e-14 3.304212169174571001e-14
1.903000000000000000e+03 1.731833076477050781e+01 1.982285118103027344e+01 2.743393890964479498e-13 -1.967882339015940979e-14 7.639817055891950925e-14 -3.136889958400314316e-14
1.904000000000000000e+03 4.610181808471679688e+01 5.996860504150390625e+00 -9.050016459974039029e-14 -1.302876806007907673e-13 -6.623635694829113629e-14 1.006311258822979726e-13
1.905000000000000000e+03 2.809767913818359375e+01 1.089340209960937500e+01 4.523519484878925356e-14 -1.178663286763304008e-13 -2.178934150351505977e-14 -2.788609661653722316e-14
1.906000000000000000e+03 1.297165870666503906e+01 1.928187561035156250e+01 1.962184517786350751e-14 -1.059680094324041977e-13 -2.590384978458197540e-14 4.201072083660989734e-15
1.907000000000000000e+03 1.377695941925048828e+01 2.001090240478515625e+01 1.228949938775897310e-13 -1.303345045821149850e-13 -2.231852830192749930e-15 -2.833262595890173596e-13
1.908000000000000000e+03 4.499023437500000000e+01 7.128184318542480469e+00 -7.972791128468478816e-14 5.862974866612923747e-15 -2.215948134893803295e-14 2.291457903416324604e-15
1.909000000000000000e+03 4.500454330444335938e+01 8.117599487304687500e+00 -2.641728049962606406e-14 3.661236353154351253e-13 1.019119074611822551e-13 -9.618505671842372817e-14
1.910000000000000000e+03 1.507230377197265625e+01 5.111755847930908203e+00 4.876535373427026698e-14 2.089943852473432478e-14 2.089943852473432478e-14 -1.810727403520756562e-14
1.911000000000000000e+03 1.595582962036132812e+01 4.541630268096923828e+00 -5.061192621686610993e-14 1.184648315689484487e-15 -1.482818418562219936e-14 -1.059970186167817630e-13
1.912000000000000000e+03 1.257908153533935547e+01 6.265086174011230469e+00 2.465406080242454889e-13 2.429131115005978003e-13 1.468361158574529868e-13 -2.413003404402348784e-14
1.913000000000000000e+03 1.078813171386718750e+01 6.260825634002685547e+00 1.221506213235426519e-13 -8.490258463726002569e-14 1.117441100588478786e-14 1.696253780611358536e-14
1.914000000000000000e+03 1.014218902587890625e+01 2.169876480102539062e+01 1.867516558062831677e-13 2.172892670914555735e-13 1.212122850008379160e-13 1.282167189260718931e-13
1.915000000000000000e+03 1.123568153381347656e+01 2.011776733398437500e+01 5.054376039340287285e-14 1.022387486764074829e-14 1.823029032420320217e-14 9.229058218606506214e-14
1.916000000000000000e+03 6.001536560058593750e+01 1.739864349365234375e+01 3.062987011378734414e-14 -7.837481342089572256e-14 -1.432348299213251352e-14 4.738949101299079480e-14
1.917000000000000000e+03 6.227048110961914062e+01 5.871766805648803711e-01 9.062494271726631578e-14 -2.127909529353946838e-13 -3.664980442069122601e-14 -1.142319339163602732e-13
1.918000000000000000e+03 2.183042335510253906e+01 2.541009902954101562e+01 6.111060144248572912e-14 -2.025644869939682846e-13 -4.243616769832384006e-14 1.129466003824174461e-14
1.919000000000000000e+03 2.026266288757324219e+01 2.530417633056640625e+01 -1.774968128883227039e-15 -5.955230340977391013e-13 -1.791893998633053986e-13 -3.018492370659466018e-14
1.920000000000000000e+03 4.316937255859375000e+01 1.537443637847900391e+01 7.803859555094438960e-14 3.079507948557796970e-13 1.157968171220172260e-13 1.495220776619871073e-13
1.921000000000000000e+03 6.724607849121093750e+01 2.173696899414062500e+01 3.208770233095498310e-15 -6.725123794437334879e-14 -1.921274012280094201e-14 3.100227831344306434e-15
1.922000000000000000e+03 8.614017486572265625e+00 1.429095840454101562e+01 -6.029537119426903874e-15 4.316686236433865675e-14 1.114119714995705224e-14 3.194651676172426819e-15
1.923000000000000000e+03 7.620882034301757812e+00 1.414432144165039062e+01 5.378513864211058315e-14 -6.845112448866305654e-14 -4.399796177482215645e-15 3.116840349725626125e-14
1.924000000000000000e+03 6.613583374023437500e+01 5.134068131446838379e-01 -1.580479453908156806e-14 -1.440263246122938656e-13 -4.794933574541263011e-14 6.076060404054846320e-15
1.925000000000000000e+03 6.472197723388671875e+01 1.332882642745971680e+00 1.452760031413549702e-13 1.537630428798814064e-13 8.971171245111819736e-14 3.456900361125704590e-14
1.926000000000000000e+03 5.795512008666992188e+01 2.796465158462524414e+00 -1.450301840156664052e-14 -1.434684212793871372e-13 -4.739143241250590166e-14 -1.255507742041472863e-13
1.927000000000000000e+03 6.579878997802734375e+01 2.888045692443847656e+01 -5.885286561476549272e-14 1.349056635716397445e-13 2.281583870943591774e-14 5.860631973480818352e-15
1.928000000000000000e+03 6.435557556152343750e+01 2.715736579895019531e+01 4.632106737024674348e-14 6.560283729011712195e-14 3.357717207573551743e-14 2.668686059355100670e-14
1.929000000000000000e+03 7.139353942871093750e+01 1.781268310546875000e+01 -8.576752047288749292e-14 1.004953363364577412e-13 4.418346622543558450e-15 -3.104663065262719401e-14
1.930000000000000000e+03 7.114535522460937500e+01 1.929910850524902344e+01 1.392311287963521327e-13 2.426742888670535558e-13 1.145716280095271378e-13 -2.382690128099190785e-14
1.931000000000000000e+03 4.200506210327148438e+01 4.971615314483642578e+00 -2.128945653936346188e-14 -1.006259488169243543e-13 -3.657462177629293432e-14 -4.748063091108241027e-15
1.932000000000000000e+03 1.671101951599121094e+01 2.245174980163574219e+01 1.120661926429754318e-13 2.277419179348531830e-15 3.430308269966424184e-14 -3.519592996496963277e-14
1.933000000000000000e+03 6.366345214843750000e+01 1.134684085845947266e+00 1.270375677483309707e-13 8.693720859854169036e-15 4.071938438016987905e-14 8.475604116112145370e-14
1.934000000000000000e+03 3.134149169921875000e+01 1.320211315155029297e+01 2.450624880974416886e-13 -2.152298521698736700e-13 8.949790778270405589e-15 -5.382976372590372871e-14
1.935000000000000000e+03 5.181208610534667969e+00 3.108866119384765625e+01 -3.570117834174324489e-14 -4.270590500156379310e-13 -1.388280630862034903e-13 7.309198412535147793e-14
1.936000000000000000e+03 2.378346920013427734e+00 3.078923225402832031e+01 5.176626610551605945e-15 -3.180380763433132696e-13 -9.385844017143277207e-14 4.509003034228881157e-14
1.937000000000000000e+03 1.239300346374511719e+01 4.090786457061767578e+00 -4.279772540592523267e-14 -1.870485103611096989e-13 -6.895386903604458495e-14 -3.061502670841965978e-14
1.938000000000000000e+03 6.461059570312500000e+01 2.600556373596191406e+01 4.489231929987250180e-14 -1.180132787282836548e-13 -2.193628816733652481e-14 -1.839094875737481982e-14
1.939000000000000000e+03 7.694783020019531250e+01 1.365822696685791016e+01 1.391595579004409333e-13 1.968926595114633971e-13 1.008156638683185835e-13 -2.246251822783998375e-13
1.940000000000000000e+03 7.629960632324218750e+01 1.377142810821533203e+01 -1.089988423954788010e-13 -2.754685314489829784e-13 -1.153402189296021119e-13 -7.712234307124046784e-14
1.941000000000000000e+03 5.125205612182617188e+01 2.011484336853027344e+01 9.677646867472383674e-14 1.329775319806186795e-13 6.892619477559189245e-14 -1.074971419184563882e-15
1.942000000000000000e+03 4.889649200439453125e+01 2.171951484680175781e+01 1.301974885325671294e-13 -1.272048736960726401e-13 8.977830321681601507e-16 9.006575189427976080e-14
1.943000000000000000e+03 2.030798530578613281e+01 2.247468948364257812e+01 7.144691569870974951e-15 -4.086965412365001216e-13 -1.204655543070656809e-13 -5.708152321041298771e-14
1.944000000000000000e+03 1.779214286804199219e+01 3.891175079345703125e+01 8.316750201931358277e-14 -3.870207716046188129e-14 1.333962711884233154e-14 5.447285146824992763e-14
1.945000000000000000e+03 3.115946960449218750e+01 3.135673332214355469e+01 6.348696931666661381e-14 1.187105969080448631e-13 5.465926986741344307e-14 -2.550276443746401361e-14
1.946000000000000000e+03 6.967233276367187500e+01 1.685582041740417480e+00 9.991734815830571881e-14 1.994624693820064298e-14 3.595907954539144524e-14 8.895905930297876019e-14
1.947000000000000000e+03 5.428780746459960938e+01 3.622949981689453125e+01 1.518323498612278444e-15 5.783939408150751138e-14 1.780731595166229475e-14 -2.666452602879780531e-14
1.948000000000000000e+03 5.390291595458984375e+01 3.535173797607421875e+01 -5.903081029632467613e-14 8.907845029096014833e-14 9.014291490170873306e-15 9.836010180170121076e-14
1.949000000000000000e+03 2.016311264038085938e+01 6.856274127960205078e+00 1.256605903316929118e-13 -1.749002012012626506e-13 -1.477188529374999504e-14 -1.488100278852072522e-13
1.950000000000000000e+03 6.005226135253906250e+01 2.206280517578125000e+01 -9.200262486531649020e-14 6.321252301845969521e-15 -2.570441248901916137e-14 -7.480980082370108919e-14
1.951000000000000000e+03 3.884886932373046875e+01 1.236858844757080078e+01 2.075337379161754092e-13 -2.770645583620445773e-13 -2.085924342325531922e-14 6.516093681340276444e-14
1.952000000000000000e+03 3.941436004638671875e+01 1.086485671997070312e+01 1.616684894680323059e-13 -6.796635059229047537e-14 2.811064166272254916e-14 2.298919416648687736e-14
1.953000000000000000e+03 3.379022598266601562e+01 2.224510383605957031e+01 6.774206304412111468e-14 1.662851578437471445e-13 7.020816897686590896e-14 -2.069979929651688533e-13
1.954000000000000000e+03 3.101604461669921875e+01 2.859261703491210938e+01 -3.228379003472788000e-14 1.234169423559514089e-13 2.733994501874070088e-14 -1.819895518735247658e-14
1.955000000000000000e+03 5.698505401611328125e+01 2.183004188537597656e+01 -5.567979210292436920e-14 3.421448237575508422e-13 8.593950881876158410e-14 -1.769013809136549265e-13
1.956000000000000000e+03 1.784517860412597656e+01 3.524905395507812500e+01 7.146070031289336599e-14 -2.438796777373686275e-13 -5.172569322734257846e-14 9.001401512186146814e-14
1.957000000000000000e+03 2.949583435058593750e+01 1.127560138702392578e+01 -1.330047979711907954e-14 -2.401738205017045491e-13 -7.604228797206472046e-14 -1.771270847009120963e-13
1.958000000000000000e+03 7.065102386474609375e+01 5.875371694564819336e-01 6.380623975140928272e-14 4.470057560456959858e-15 2.048288974413128849e-14 -9.351079413295708409e-15
1.959000000000000000e+03 6.855216979980468750e+01 6.007024288177490234e+00 -6.070132867489960726e-15 1.117758839587652819e-13 3.171172769907484867e-14 -1.730581484864733566e-14
1.960000000000000000e+03 3.165356826782226562e+01 2.681517410278320312e+01 1.606038029346515406e-13 3.451698901203205383e-14 5.853623792281825722e-14 3.288332249589331555e-15
1.961000000000000000e+03 3.254522705078125000e+01 2.894798660278320312e+01 1.201137442546212908e-13 5.147731945028509448e-14 5.147731945028509448e-14 -2.259547800601002798e-14
1.962000000000000000e+03 1.879527091979980469e+01 1.841520309448242188e+01 3.364097195257542694e-13 9.270578418428196410e-14 1.287346558563953747e-13 -1.067389042820957035e-13
1.963000000000000000e+03 1.962982749938964844e+01 1.868555259704589844e+01 2.448095437306008204e-13 -3.233446632189621028e-14 6.374252932124860327e-14 -1.426069277856573114e-13
1.964000000000000000e+03 5.973083496093750000e+01 2.052564430236816406e+01 -4.629324403199533422e-14 -1.570928039344374194e-13 -6.101581506755618389e-14 -8.533486959595715238e-14
1.965000000000000000e+03 9.273097038269042969e+00 1.690238189697265625e+01 -7.954193673078563398e-14 -7.984034982623511301e-14 -4.781468461185350849e-14 8.681582877720014912e-14
1.966000000000000000e+03 7.921178340911865234e+00 1.534374332427978516e+01 5.228747935927952062e-14 -2.063458182533645102e-13 -4.621750234585185468e-14 -2.679472854531794734e-14
1.967000000000000000e+03 1.966725158691406250e+01 3.351395416259765625e+01 1.306100816693064881e-13 -1.499035270913218199e-13 -5.788031932538705016e-15 -6.613225321094179376e-14
1.968000000000000000e+03 1.810914611816406250e+01 3.678804016113281250e+01 1.756942031097552537e-13 5.242203901328033877e-14 6.843486823233935201e-14 3.727975298795961623e-14
1.969000000000000000e+03 2.162898826599121094e+01 2.967462348937988281e+01 3.337980662276168742e-14 -2.602000646195756772e-13 -6.804607333328605012e-14 -2.323041559733774603e-14
1.970000000000000000e+03 5.619001388549804688e+00 3.339702987670898438e+01 1.830313109190892518e-13 -2.932844668079165329e-13 -3.307594879952725775e-14 7.494000672835302024e-14
1.971000000000000000e+03 4.445108032226562500e+01 1.685429954528808594e+01 1.347781207385739810e-13 2.865167955320990778e-13 1.263884694601910552e-13 6.630418057044368263e-14
1.972000000000000000e+03 4.344099044799804688e+01 1.619021606445312500e+01 9.995591865059189063e-14 1.800911037051072805e-13 8.401410806196246694e-14 7.902875673749393259e-14
1.973000000000000000e+03 6.256224822998046875e+01 6.310626983642578125e+00 -4.396665120192690124e-14 2.690809712904435741e-14 -5.117566391271352599e-15 -5.597947574779472968e-14
1.974000000000000000e+03 3.784528970718383789e+00 3.199286651611328125e+01 5.232702902165271841e-14 -5.723364490672899763e-13 -1.560028283853834297e-13 3.572742281058097213e-14
1.975000000000000000e+03 4.469080924987792969e+00 3.091122627258300781e+01 5.985393658567567110e-14 -4.318578101462217100e-13 -1.116011580024056649e-13 1.032369448174946802e-13
1.976000000000000000e+03 3.832520675659179688e+01 1.290293693542480469e+01 2.957625735034580261e-13 1.910926657796435668e-13 1.460565744954359091e-13 1.146504901650483021e-13
1.977000000000000000e+03 4.632393646240234375e+01 3.198385620117187500e+01 1.410734728904752822e-13 1.470910829389718982e-14 4.673477181421289983e-14 2.430316927250816134e-14
1.978000000000000000e+03 5.211668777465820312e+01 3.348434448242187500e+01 1.160329512729868853e-14 1.050530444427801025e-13 3.499690093928739532e-14 -3.886544948719650172e-14
1.979000000000000000e+03 2.691932678222656250e+01 5.234268665313720703e+00 1.441927089881889223e-13 -4.643390164559002553e-13 -9.604390037182969353e-14 -1.882986090185126415e-13
1.980000000000000000e+03 3.201890182495117188e+01 2.599212455749511719e+01 2.875995001503338366e-14 5.807664462190165189e-14 2.605097771345415286e-14 -1.134572985691736924e-13
1.981000000000000000e+03 3.227548217773437500e+01 2.829211997985839844e+01 -1.003621285470407409e-13 9.424050624075308580e-14 -1.836486226018175551e-15 9.805396545983866702e-15
1.982000000000000000e+03 2.711391067504882812e+01 3.109547233581542969e+01 -1.165042658158275957e-14 -8.505719864332003666e-14 -2.901228790628401777e-14 -4.268137357215859296e-14
1.983000000000000000e+03 4.508997344970703125e+01 5.471006870269775391e+00 -4.709631258115534735e-14 7.131776180897830830e-14 7.266435615379835539e-15 2.257235061841819657e-14
1.984000000000000000e+03 5.218565750122070312e+01 3.492564773559570312e+01 1.679112036044594358e-14 -1.567927950289153133e-14 3.335523896152216847e-16 -1.120345474920660112e-13
1.985000000000000000e+03 4.513955307006835938e+01 3.447987747192382812e+01 -6.934499920493346695e-15 1.442889319309970109e-13 4.120633006901922024e-14 -3.806212005188873426e-14
1.986000000000000000e+03 4.334657287597656250e+01 3.481848526000976562e+01 5.485534105404386851e-14 1.207169502976789682e-14 2.007811133336329795e-14 -3.669946765645464015e-14
1.987000000000000000e+03 4.281085586547851562e+01 1.369455146789550781e+01 3.558414210535522371e-14 2.440050928236708883e-13 8.387677352802644370e-14 2.090652954575555889e-13
1.988000000000000000e+03 6.063744354248046875e+01 8.554520606994628906e-01 1.063163974717416804e-13 -2.289415130998090353e-13 -3.678753536604656427e-14 -5.984742459637718004e-14
1.989000000000000000e+03 2.785103034973144531e+01 2.497627973556518555e+00 -8.241451683425882191e-14 -1.153846712186740175e-13 -5.933975370537442062e-14 -5.595724282699519880e-14
1.990000000000000000e+03 2.820491790771484375e+01 3.670390129089355469e+00 1.415006892040160391e-13 6.064315445208218192e-14 6.064315445208218192e-14 -2.419403382063894936e-13
1.991000000000000000e+03 3.374785995483398438e+01 2.070782089233398438e+01 -2.243565982952208659e-14 1.326019152201587600e-14 -2.752640661658452628e-15 -1.152267436197243478e-13
1.992000000000000000e+03 5.651125717163085938e+01 1.136892318725585938e+01 7.109558845504529434e-14 -1.528141118690724137e-14 1.674425402747436314e-14 -4.573335525386024170e-14
1.993000000000000000e+03 2.122068977355957031e+01 2.018829536437988281e+01 2.632224340294413156e-14 -3.547266376035390634e-13 -9.852131588848622723e-14 -1.714187467102487594e-13
1.994000000000000000e+03 2.041740989685058594e+01 2.096990585327148438e+01 1.253690246505890366e-14 -1.318798857011943548e-13 -3.580289683431311931e-14 -1.654686045300668429e-13
1.995000000000000000e+03 2.650419425964355469e+01 1.324513339996337891e+01 1.948264276687219909e-13 -5.375580419708127222e-14 4.232118805793175231e-14 -1.840358377844242277e-13
1.996000000000000000e+03 2.107059288024902344e+01 1.782386398315429688e+01 3.808705466897682745e-13 -2.942792494062262953e-13 2.597738918506259376e-14 -1.623785199182659067e-13
1.997000000000000000e+03 2.169647407531738281e+01 1.831717681884765625e+01 1.040770049895271832e-13 -3.843107201830647801e-13 -8.407011388043492128e-14 -1.054507365759113635e-13
1.998000000000000000e+03 4.337339782714843750e+01 1.202802848815917969e+01 -2.061206904485114733e-14 8.266815237998464960e-14 1.861682533935322958e-14 6.162455392982532643e-14
1.999000000000000000e+03 9.073991775512695312e+00 9.488517761230468750e+00 -2.375868632961773003e-14 -1.018229402026003469e-14 -1.018229402026003469e-14 3.118355861074853519e-14
2.000000000000000000e+03 8.056033134460449219e+00 4.635526180267333984e+00 1.000897566325216481e-13 1.801484580000317637e-13 8.407146235688695013e-14 5.395676445788324949e-14
2.001000000000000000e+03 2.267478942871093750e+00 2.771704673767089844e+01 -5.592035962433995755e-14 -2.069696681834126695e-13 -7.886700732588625140e-14 -1.433234498963986692e-13
2.002000000000000000e+03 4.320216655731201172e+00 2.750427627563476562e+01 -1.652843714759072435e-13 -7.571003828206468445e-13 -2.767154181574499328e-13 1.577648466510525593e-13
2.003000000000000000e+03 1.932423591613769531e+01 2.396403503417968750e+01 -2.607186258131812852e-15 -3.671249502318341129e-13 -1.109196420693084328e-13 -1.477709962857329251e-13
2.004000000000000000e+03 6.985115051269531250e+01 4.856016635894775391e+00 4.653319491342532144e-14 -1.630609980807912196e-13 -3.495834061139659055e-14 2.985175176712165368e-14
2.005000000000000000e+03 2.104787635803222656e+01 2.827932167053222656e+01 -1.320341913872615652e-14 -4.174171587805614037e-13 -1.291861718511269630e-13 3.704989450409616400e-15
2.006000000000000000e+03 1.849503517150878906e+01 5.772869586944580078e+00 -3.519813860337959836e-15 8.999340850432066552e-14 2.594207807555745648e-14 -3.280045777088319570e-13
2.007000000000000000e+03 4.646880340576171875e+01 2.247814559936523438e+01 1.648750173931581853e-13 -1.580940239831463145e-13 2.034297641838734953e-15 8.013486657012722225e-14
2.008000000000000000e+03 6.415674591064453125e+01 3.416309738159179688e+01 6.557204594841853362e-14 2.339815624238794634e-13 8.986608928795297713e-14 6.455807974791935577e-14
2.009000000000000000e+03 3.408073043823242188e+01 2.689537048339843750e+01 1.329445044719393398e-13 1.122526771107088331e-14 4.325093207841954057e-14 -2.662130701969710189e-14
2.010000000000000000e+03 3.376895904541015625e+01 2.778786468505859375e+01 -4.983482346270417737e-16 4.553737215865633070e-14 1.351170694427472618e-14 -5.902784229287749707e-14
2.011000000000000000e+03 4.437568283081054688e+01 8.961761474609375000e+00 1.342731535767388573e-14 -2.687511400489145386e-13 -7.659714198636133342e-14 -2.078564981266607659e-14
2.012000000000000000e+03 4.345074462890625000e+01 1.277458190917968750e+01 5.884530330461240633e-14 3.454760620375668667e-13 1.212964055368956351e-13 1.112872340396260651e-13
2.013000000000000000e+03 3.988471603393554688e+01 1.129523658752441406e+01 -5.688879102766063872e-15 -2.025984902846028612e-13 -6.248621005388102501e-14 -2.174235489186496922e-14
2.014000000000000000e+03 5.333375930786132812e+01 2.285523414611816406e+01 5.228792998080745991e-14 2.969148093622669959e-13 1.047608180759773688e-13 -1.968476515687780926e-13
2.015000000000000000e+03 5.307610702514648438e+01 2.565550422668457031e+01 -2.529040480725788798e-14 1.035386240719887718e-13 2.347446611823244406e-14 4.181201622454645828e-14
2.016000000000000000e+03 6.240985107421875000e+01 2.207430267333984375e+01 -4.626777883346908093e-14 -6.557999450559556798e-14 -3.355433267934575248e-14 1.794653022111486473e-13
2.017000000000000000e+03 6.157434082031250000e+01 2.300374031066894531e+01 -8.188198383218825427e-14 1.479115224398142026e-13 1.980885988822188998e-14 1.883752485595802106e-13
2.018000000000000000e+03 7.173647308349609375e+01 8.420870780944824219e+00 -4.462903096667976410e-14 1.638770635034939027e-13 3.577440942223106268e-14 -1.850863720913222682e-14
2.019000000000000000e+03 7.314502716064453125e+01 8.745642662048339844e+00 9.766378650894955160e-14 -3.895039079818011021e-15 2.813062486401417261e-14 -7.656067891204793030e-14
2.020000000000000000e+03 9.075625419616699219e+00 3.421093463897705078e+00 9.099764399032178597e-14 3.899898931352882570e-14 3.899898931352882570e-14 5.740307131675082344e-15
2.021000000000000000e+03 7.373912811279296875e+01 -7.213642001152038574e-01 2.120437377387766192e-14 9.087588639228576931e-15 9.087588639228576931e-15 3.278438989468696052e-14
2.022000000000000000e+03 2.112781715393066406e+01 1.658604431152343750e+01 3.932575294053608506e-13 -1.974686419155963213e-13 5.873666624692935878e-14 -2.582028557976401295e-13
2.023000000000000000e+03 2.985407066345214844e+01 1.174253273010253906e+01 2.720250206458742909e-14 -5.696821053086109643e-14 -8.929711862255742399e-15 -5.677185474116039354e-14
2.024000000000000000e+03 5.657686614990234375e+01 1.053582763671875000e+01 5.980203040666792758e-14 4.850491820804388177e-14 3.249208560085307951e-14 -8.629521522276334400e-14
2.025000000000000000e+03 2.153857231140136719e+01 1.073631381988525391e+01 -4.489397609631733121e-14 -1.564931181603085308e-13 -6.041612929342729532e-14 -1.758336213447415225e-14
2.026000000000000000e+03 2.489416122436523438e+01 1.259343719482421875e+01 1.474381733238341874e-13 4.063199158643032716e-13 1.661274199801776597e-13 -2.217154267459046056e-15
2.027000000000000000e+03 4.555701446533203125e+01 1.885589408874511719e+01 1.562608685024349797e-13 2.121799236960361656e-14 5.324365758398522108e-14 1.769237425834624400e-13
2.028000000000000000e+03 4.295492935180664062e+01 1.453356933593750000e+01 1.530324396934248932e-13 2.028381802798850941e-13 1.067611846367402806e-13 1.079013587463803492e-13
2.029000000000000000e+03 4.215730667114257812e+01 1.467718601226806641e+01 4.442559059340822625e-14 4.079226106207256564e-13 1.357044630747455960e-13 1.481984972023439595e-13
2.030000000000000000e+03 7.259145355224609375e+01 8.313991546630859375e+00 1.732922175711176099e-14 2.819324905912329315e-13 8.977851963373403854e-14 -1.986311234849352791e-14
2.031000000000000000e+03 3.476585388183593750e+01 3.347476577758789062e+01 9.164995422739768971e-14 2.451578165734574766e-13 1.010423298850038343e-13 4.687882501348654418e-14
2.032000000000000000e+03 3.106279373168945312e+01 2.929184532165527344e+01 1.465853127899027775e-13 3.994680224084744269e-14 5.595963484803824495e-14 -5.795003691320965711e-14
2.033000000000000000e+03 4.495549011230468750e+01 3.635925292968750000e+01 4.163243507533317955e-14 2.928021120376413100e-14 2.127379320610283536e-14 -5.500406309892277856e-14
2.034000000000000000e+03 6.575067901611328125e+01 5.521560668945312500e+00 -1.598123827825821686e-14 3.890184818700591352e-14 6.876182549107835371e-15 -2.326173548759542103e-15
2.035000000000000000e+03 6.741325378417968750e+01 4.732592105865478516e+00 3.358979625478139552e-14 -1.686081694185145863e-13 -4.050551194911995723e-14 1.659268832358493095e-13
2.036000000000000000e+03 1.974188232421875000e+01 2.013172531127929688e+01 1.338585275609260883e-13 8.024341553638375535e-14 6.423058292919295309e-14 -1.996514390444070752e-13
2.037000000000000000e+03 5.531731796264648438e+01 1.374412822723388672e+01 2.390227704890217353e-14 4.455704333055851563e-14 2.053779611383820675e-14 1.044358589679609400e-14
2.038000000000000000e+03 5.989387512207031250e+01 1.655534934997558594e+01 1.495256961867377776e-13 -2.741945430743356754e-14 3.663187442726374698e-14 7.227326240732620533e-14
2.039000000000000000e+03 4.110684585571289062e+01 2.050748825073242188e+01 1.245037601661780347e-13 2.821134981439293865e-13 1.219851720720213639e-13 -9.747158456882218380e-14
2.040000000000000000e+03 4.582892608642578125e+01 2.203744506835937500e+01 1.533136139743318527e-13 -7.154700958208679018e-14 2.452998267292623435e-14 -1.646593695810508184e-13
2.041000000000000000e+03 4.420058822631835938e+01 2.128076362609863281e+01 1.737263084040582828e-13 1.297629318315054667e-14 5.601077869739345960e-14 -1.067409151383124852e-14
2.042000000000000000e+03 4.365316772460937500e+01 8.978293418884277344e+00 -1.327467459956779838e-13 -2.170197886414843014e-13 -1.049299603911486856e-13 7.068068461242582590e-14
2.043000000000000000e+03 5.625085449218750000e+01 1.305983448028564453e+01 2.766890042820227547e-14 -1.253947439589994661e-13 -2.931775509211823061e-14 7.011536804716472782e-14
2.044000000000000000e+03 1.928626632690429688e+01 6.342016220092773438e+00 -1.518406613720227772e-15 -4.640169474242998582e-14 -1.437602952804838130e-14 -1.904130336478210284e-13
2.045000000000000000e+03 7.203387451171875000e+01 8.007017135620117188e+00 1.641926069932686527e-13 2.461731007572225821e-14 5.664297359603796822e-14 3.881067271353051337e-15
2.046000000000000000e+03 7.148902893066406250e+01 7.988741397857666016e+00 1.447405834510001599e-14 4.637126728608553794e-13 1.434560207170393342e-13 6.039578017390245801e-14
2.047000000000000000e+03 6.612744903564453125e+01 1.238978385925292969e+00 1.940272486948557695e-13 1.289054854611976220e-13 9.687982024681601745e-14 2.692819891494859647e-14
2.048000000000000000e+03 5.299649429321289062e+01 5.134394645690917969e+00 1.822481510323215037e-13 3.235540158822054757e-14 6.438107019073394111e-14 -5.052120221195159633e-14
2.049000000000000000e+03 3.746929645538330078e+00 2.433492088317871094e+01 6.500052232571995603e-14 -3.839011628124083808e-13 -9.567019621176467425e-14 4.360180023022658391e-15
2.050000000000000000e+03 5.640793609619140625e+01 1.220771217346191406e+01 -3.102348293624462849e-14 2.154589711939741692e-13 5.533064512206614660e-14 -3.916123678050949242e-14
2.051000000000000000e+03 5.598191833496093750e+01 1.391014862060546875e+01 5.427026151605743309e-14 2.291379434284090966e-13 8.502246351621903231e-14 -1.028560239367190543e-13
2.052000000000000000e+03 1.611652755737304688e+01 1.986001586914062500e+01 2.557991253711311419e-13 2.468810475064059373e-13 1.508040518632611238e-13 -6.599174060938767239e-14
2.053000000000000000e+03 3.408534622192382812e+01 2.487842559814453125e+01 -5.581731976037236642e-14 1.590820845279866669e-13 3.097943044672382684e-14 -6.876239215612006683e-14
2.054000000000000000e+03 1.537662696838378906e+01 1.991082954406738281e+01 1.942984889733573306e-13 -3.284877524070001220e-13 -4.025677903009283742e-14 -2.901394673560792059e-13
2.055000000000000000e+03 1.081904411315917969e+01 1.967763519287109375e+01 -4.103656772573051337e-14 -3.474370585069413986e-14 -2.273408308936693267e-14 3.433462281848820297e-14
2.056000000000000000e+03 4.479640960693359375e+01 1.852543258666992188e+01 5.095365996536996289e-14 -9.254009098727186688e-14 -1.247592879835080285e-14 7.991061967953932976e-14
2.057000000000000000e+03 4.484324645996093750e+01 2.089688301086425781e+01 6.691312272062016620e-14 -3.373305324308462083e-13 -8.112522426832052824e-14 -7.666728309065756752e-14
2.058000000000000000e+03 6.392296218872070312e+01 2.351003456115722656e+01 -2.041820183794947757e-14 -1.002525563649839246e-13 -3.620122593622071561e-14 -3.318314590119997298e-14
2.059000000000000000e+03 2.088306236267089844e+01 2.756476020812988281e+01 -1.114309179325347066e-13 -4.595146420489915062e-13 -1.712836686720842216e-13 1.093019175602699677e-13
2.060000000000000000e+03 2.040242385864257812e+01 2.623366355895996094e+01 -2.070565771519327497e-14 -3.748814409940126602e-13 -1.186761328314869801e-13 -2.607951255938125573e-14
2.061000000000000000e+03 4.197576522827148438e+01 2.070922088623046875e+01 1.480595837989942543e-13 2.007069505169031820e-13 1.046299616500219465e-13 2.172680438339291698e-13
2.062000000000000000e+03 4.404479217529296875e+01 1.843374252319335938e+01 2.339359649462628699e-14 4.217843793414416398e-13 1.335533924120071991e-13 6.288315679801870228e-14
2.063000000000000000e+03 5.138342666625976562e+01 3.299914550781250000e+01 7.088017103589958068e-14 -4.968694590967367986e-14 6.357966521428233542e-15 -6.442958823795266743e-14
2.064000000000000000e+03 4.748590850830078125e+01 3.069181823730468750e+01 5.477329744277281698e-14 6.922521773476339457e-14 3.719955590851357907e-14 1.269696119890386526e-14
2.065000000000000000e+03 5.085072708129882812e+01 2.170950508117675781e+01 2.337327956235344534e-14 7.864353970560983287e-14 3.060504527216921511e-14 9.054418320794330177e-14
2.066000000000000000e+03 2.919982337951660156e+01 1.428377914428710938e+01 4.286037941659409656e-13 6.835407653576434234e-16 1.287861961171699043e-13 -9.212154151484741593e-14
2.067000000000000000e+03 3.271784973144531250e+01 2.428768920898437500e+01 7.940567962275851821e-14 7.978195198671961252e-14 4.775629016046979702e-14 -1.107084462623718346e-13
2.068000000000000000e+03 3.378230667114257812e+01 2.364549636840820312e+01 -4.119617244991574667e-14 -1.765550223652590650e-14 -1.765550223652590650e-14 -9.342671086634904420e-14
2.069000000000000000e+03 2.153441619873046875e+01 3.194981765747070312e+01 -4.879654487551995934e-14 -7.810149282947570493e-14 -3.806941131149869928e-14 -3.462132314234304953e-14
2.070000000000000000e+03 6.167002105712890625e+01 1.991399383544921875e+01 -6.769551688960359637e-14 3.369952158039507539e-13 8.078991441768865189e-14 7.369328265021193869e-14
2.071000000000000000e+03 6.127975845336914062e+01 2.077739524841308594e+01 -1.147391779027576164e-13 3.168336632549534349e-13 6.062834831616417675e-14 5.686259568673385223e-14
2.072000000000000000e+03 4.722650527954101562e+01 2.889588165283203125e+01 9.044168544506195340e-14 1.302626219780791961e-13 6.621129154931598704e-14 -4.082947494639041497e-14
2.073000000000000000e+03 5.150573730468750000e+01 3.012804412841796875e+01 2.660898607844634084e-14 1.029057481588546707e-13 3.885442111822325073e-14 -1.289159480121621071e-13
2.074000000000000000e+03 8.715548515319824219e+00 1.030406379699707031e+01 7.292427837805870450e-14 3.125326264604398607e-14 3.125326264604398607e-14 1.290093384767945772e-13
2.075000000000000000e+03 5.994155883789062500e+01 7.759585380554199219e+00 1.134091667689789140e-13 3.231096217404944015e-13 1.309556304542047744e-13 -7.610381644535327283e-14
2.076000000000000000e+03 3.874883651733398438e+01 2.096197891235351562e+01 1.084345829273358763e-13 3.896040662396821341e-13 1.494115974606108344e-13 3.508723869717796096e-16
2.077000000000000000e+03 4.096054077148437500e+01 1.949754333496093750e+01 1.075475835774983291e-13 3.777862083494815115e-13 1.456001389333466678e-13 -9.147970060499957534e-14
2.078000000000000000e+03 5.201195907592773438e+01 2.035060310363769531e+01 1.199904014344244877e-15 2.063935095964267163e-13 6.227802290797307405e-14 -1.061833590889141310e-13
2.079000000000000000e+03 3.569479370117187500e+01 1.369691085815429688e+01 2.862583759442871578e-13 8.304790435529306458e-15 8.836894838928563423e-14 -2.510293100504209368e-14
2.080000000000000000e+03 2.996480941772460938e+01 1.439141654968261719e+01 4.531533839575302425e-13 -8.029709709644894389e-14 1.118568874135771052e-13 -2.404322400895164691e-13
2.081000000000000000e+03 7.086616039276123047e+00 1.351977443695068359e+01 -1.557112017179073521e-14 8.196912658180177669e-14 1.991940107597036519e-14 9.670520271067364892e-14
2.082000000000000000e+03 3.701513290405273438e+01 2.060264587402343750e+01 7.531638751253136310e-14 7.802940016126899692e-14 4.600373833501918142e-14 5.422240415453756512e-14
2.083000000000000000e+03 5.501751708984375000e+01 2.105849647521972656e+01 -7.655781085848852724e-15 4.246989993841529532e-14 1.044423557106663805e-14 -3.358720433396279736e-14
2.084000000000000000e+03 3.553511810302734375e+01 3.425043869018554688e+01 9.935174698997434328e-14 8.266107287861149816e-15 3.228535535161440595e-14 -8.544726070366243098e-15
2.085000000000000000e+03 3.719852828979492188e+01 3.571426773071289062e+01 6.530796140425537688e-14 -6.052165816371039321e-16 1.941082385971404367e-14 1.894034618542522058e-14
2.086000000000000000e+03 3.373028945922851562e+01 2.573893928527832031e+01 1.593902554429885154e-13 6.831011044360416062e-14 6.831011044360416062e-14 -2.009271248730806758e-13
2.087000000000000000e+03 4.790483093261718750e+01 2.619975662231445312e+01 1.270984185952617196e-13 -5.990662203499488858e-14 2.015753591876143919e-14 9.334913620090770636e-14
2.088000000000000000e+03 5.561872100830078125e+01 4.195599079132080078e+00 7.717671581019061589e-14 -1.384903205569470996e-13 -1.839408277927966073e-14 3.634473703440811720e-14
2.089000000000000000e+03 6.606835174560546875e+01 2.193313598632812500e+01 -1.067247961013262358e-13 1.830155493300067437e-13 2.288722325809872116e-14 8.017855483548070455e-15
2.090000000000000000e+03 3.339858245849609375e+01 1.716373825073242188e+01 -5.896510086840847653e-14 -2.527075533694748272e-14 -2.527075533694748272e-14 3.875643634688487327e-14
2.091000000000000000e+03 5.331601715087890625e+01 3.745909690856933594e+00 6.626113774419600810e-14 2.839762997777946218e-14 2.839762997777946218e-14 1.164492679665623739e-14
2.092000000000000000e+03 4.268801116943359375e+01 1.637287330627441406e+01 8.490259818978718176e-14 2.880170602882758946e-13 1.118758948329134917e-13 1.443849244808434462e-13
2.093000000000000000e+03 4.373892593383789062e+01 8.293706893920898438e+00 5.906843888797350117e-14 7.106599651200001810e-14 3.904033129761841359e-14 -1.043560582999342179e-13
2.094000000000000000e+03 4.259091186523437500e+01 9.353840827941894531e+00 -9.177984842392503118e-14 1.629707518024589574e-13 2.135727338525243019e-14 -3.842047597494950562e-14
2.095000000000000000e+03 2.981395339965820312e+01 1.253936958312988281e+01 3.015136155071901358e-13 -1.947046175546432445e-14 8.461294680314410122e-14 -5.720767013318167615e-14
2.096000000000000000e+03 2.134798240661621094e+01 1.924516105651855469e+01 2.303562343045767458e-13 -1.986570765744391509e-13 9.509746472008331203e-15 -1.477610216257460585e-13
2.097000000000000000e+03 2.468264341354370117e+00 2.515214538574218750e+01 -6.890474112510383553e-14 -1.210324971755855072e-13 -5.698117352308587624e-14 -1.044094010468205047e-13
2.098000000000000000e+03 3.325269317626953125e+01 3.270978927612304688e+01 1.232251740966930353e-13 2.358145959318463936e-13 1.077119282980563975e-13 -4.724079946129798591e-14
2.099000000000000000e+03 3.437365722656250000e+01 2.603302383422851562e+01 1.817600737074546308e-14 1.907935072952005040e-13 6.269085321393766397e-14 -1.165529193883178827e-14
2.100000000000000000e+03 1.459759998321533203e+01 1.996961593627929688e+01 2.120596585700532111e-13 -6.191895547723660909e-16 6.343213579179315942e-14 -2.365416890137694850e-13
2.101000000000000000e+03 6.551232910156250000e+01 2.788831138610839844e+01 2.632748653688763568e-14 5.703415712800252724e-14 2.500849360768681723e-14 4.812411591188087145e-14
2.102000000000000000e+03 2.240225410461425781e+01 1.213576698303222656e+01 4.493778464034932363e-14 -7.224284376012440889e-14 -8.191518413558883382e-15 1.195084629808428403e-14
2.103000000000000000e+03 5.999830722808837891e+00 3.794326400756835938e+01 1.508536371719933905e-14 -2.337273170144316126e-13 -6.559259157958713393e-14 1.789687782737317545e-14
2.104000000000000000e+03 3.540503692626953125e+01 3.532258605957031250e+01 8.861166737438724850e-14 -4.208773222514131107e-14 1.395718190002649683e-14 2.136297052885566261e-14
2.105000000000000000e+03 1.992751693725585938e+01 2.429676818847656250e+01 5.726603409137928646e-15 -5.008061565274501969e-13 -1.485238662743068594e-13 -4.019536575328511163e-14
2.106000000000000000e+03 2.077304077148437500e+01 2.387544631958007812e+01 6.315027710826481844e-14 -3.846941211763099666e-13 -9.646315457566626006e-14 5.989691164928756528e-14
2.107000000000000000e+03 5.440575790405273438e+01 6.052376270294189453e+00 1.529241685539750595e-13 6.553893034831267950e-14 6.553893034831267950e-14 1.023408584981989888e-13
2.108000000000000000e+03 5.089392852783203125e+01 4.200368881225585938e+00 1.513395528687788705e-13 9.345414795757650550e-14 7.343810889265389719e-14 -8.534346528630588902e-15
2.109000000000000000e+03 4.137045288085937500e+01 9.025362968444824219e+00 -7.976644111938949178e-14 -7.993656599277962349e-14 -4.791090077839801897e-14 -1.352618951360688021e-14
2.110000000000000000e+03 7.005417633056640625e+01 4.423432052135467529e-01 1.599986961496602245e-14 -1.075202820115424285e-13 -2.745612405778610071e-14 -4.636235683829360160e-15
2.111000000000000000e+03 5.011345672607421875e+01 2.824581718444824219e+01 9.302856472355805484e-14 -1.431344056950986654e-13 -1.503175330790171987e-14 6.077246991334831188e-17
2.112000000000000000e+03 4.969349288940429688e+01 2.674876594543457031e+01 2.625451295441578320e-14 2.543038479449477585e-13 8.416750911684200975e-14 2.572732134211060118e-14
2.113000000000000000e+03 9.297164916992187500e+00 7.707355976104736328e+00 5.809153884924617151e-14 -1.752640323452944737e-13 -3.515174533830905945e-14 7.242860824985264401e-14
2.114000000000000000e+03 8.878402709960937500e+00 3.721196365356445312e+01 8.715559740926637211e-14 -2.841458927144938779e-14 1.762230362719122145e-14 -1.139156992477005637e-14
2.115000000000000000e+03 6.378583526611328125e+01 2.155678367614746094e+01 -3.006269007604228660e-14 -1.272613877343134470e-13 -4.719722131022764666e-14 3.292823980605326384e-14
2.116000000000000000e+03 6.482920837402343750e+01 2.543356895446777344e+01 7.914360762887803769e-14 3.391868898380487329e-14 3.391868898380487329e-14 6.142034529767062892e-15
2.117000000000000000e+03 2.837985420227050781e+01 4.453538417816162109e+00 1.574432180765847344e-13 1.361020942215046547e-13 8.806359639993224797e-14 -1.430879476320076615e-13
2.118000000000000000e+03 3.128401517868041992e+00 2.501676559448242188e+01 1.893111183223425420e-14 1.453661816570514520e-13 4.928918601390663845e-14 -1.130234211885357276e-13
2.119000000000000000e+03 4.756389617919921875e+00 2.484320449829101562e+01 -1.118543327622081862e-13 -3.681942175193936295e-13 -1.440145610187223979e-13 -5.075878140112927150e-14
2.120000000000000000e+03 5.655925750732421875e+01 9.681258201599121094e+00 -5.853718914081802380e-15 -1.397615882617678218e-13 -4.368458923049121922e-14 -1.685578082276026346e-13
2.121000000000000000e+03 4.739537048339843750e+01 4.987673282623291016e+00 1.135302907863703845e-14 9.636748051020799233e-14 3.231615346957657231e-14 9.457180454334676578e-14
2.122000000000000000e+03 6.795288085937500000e+01 6.444552540779113770e-02 1.393694323359798148e-13 -2.147759373778354575e-13 -2.262195286780940839e-14 8.050342585207061891e-15
2.123000000000000000e+03 1.992879486083984375e+01 2.644094276428222656e+01 -1.008990322391191408e-13 -5.007519464188259217e-13 -1.804952942750098766e-13 -5.882265703173461535e-14
2.124000000000000000e+03 2.058568000793457031e+01 2.463975143432617188e+01 2.444829650955892414e-14 -6.300354660725149269e-13 -1.816761395186453076e-13 -1.023469571354192198e-13
2.125000000000000000e+03 5.771104431152343750e+01 2.202960968017578125e+01 1.043468019238866229e-14 2.103512812068678017e-13 6.623578774215058140e-14 -2.180940297065100952e-13
2.126000000000000000e+03 2.272373771667480469e+01 1.378689002990722656e+01 2.068478851743882352e-13 -1.858566062553149156e-13 6.297384607458237846e-15 -1.014695868561260594e-13
2.127000000000000000e+03 5.676300811767578125e+01 6.099066257476806641e+00 6.835790343062003727e-14 -4.933819872836656129e-14 5.705912088302400598e-15 -5.623261323814757184e-14
2.128000000000000000e+03 3.338074493408203125e+01 1.642294120788574219e+01 3.104291048392285313e-14 3.617957916222068471e-14 2.016674655502988245e-14 -1.354770516690667614e-13
2.129000000000000000e+03 3.428883361816406250e+01 1.462051200866699219e+01 1.839267941509264981e-13 -4.097824696621321303e-15 5.394869053983002150e-14 9.004222470713682536e-14
2.130000000000000000e+03 7.804971313476562500e+01 -2.673496484756469727e+00 1.796965998039894846e-14 -1.066760883187273246e-13 -2.661192867090510228e-14 2.534957852895307340e-14
2.131000000000000000e+03 4.721171188354492188e+01 2.025883293151855469e+01 1.689012699233188863e-13 -6.486658947610010606e-14 3.121040277891291848e-14 7.404330376907172773e-14
2.132000000000000000e+03 4.578755187988281250e+01 1.995163917541503906e+01 1.269884127323359091e-13 -2.543953003981969108e-13 -3.822206697738465830e-14 7.904907028163498522e-15
2.133000000000000000e+03 3.675522232055664062e+01 1.352622699737548828e+01 2.198470355416204391e-13 4.846920729898764046e-14 8.049486912523745596e-14 1.153083975958396623e-13
2.134000000000000000e+03 3.781671142578125000e+01 1.992685127258300781e+01 1.676165039014507196e-14 1.673118837485637611e-13 5.522206227449172333e-14 1.254254675380622741e-13
2.135000000000000000e+03 4.912355804443359375e+01 4.557903766632080078e+00 1.275986830301736874e-13 -1.140214767221536807e-13 4.073161638296117840e-15 3.312213581207514024e-14
2.136000000000000000e+03 6.552655792236328125e+01 3.282764434814453125e+01 2.998494600401149790e-14 3.102318478064719498e-13 1.020650442417822545e-13 1.391816840950891102e-14
2.137000000000000000e+03 8.519312858581542969e+00 1.678619956970214844e+01 1.109346582693973571e-13 1.161698504319880199e-13 6.813135261041561308e-14 3.755680052434755278e-14
2.138000000000000000e+03 2.204657745361328125e+01 3.051127243041992188e+01 -6.156047080516785508e-14 -2.208245928779148382e-13 -8.471551910492480797e-14 -7.832312069419068712e-15
2.139000000000000000e+03 2.417426490783691406e+01 3.028058242797851562e+01 5.133316121892599060e-16 2.060992706793413065e-13 6.198377721462408618e-14 -8.466001472995712818e-14
2.140000000000000000e+03 3.199100303649902344e+01 1.487780284881591797e+01 3.388151304656306095e-13 5.370458242069491017e-14 1.177559162375899082e-13 -1.595686609104710052e-13
2.141000000000000000e+03 3.072145843505859375e+01 1.439531135559082031e+01 3.140920683264436519e-13 -7.126837640002159358e-14 7.284711028843204872e-14 -3.805512694787620276e-14
2.142000000000000000e+03 4.004135894775390625e+01 3.635624694824218750e+01 5.747036554331133584e-14 4.750562939445472643e-14 3.149279678726392417e-14 -5.577085830914957354e-14
2.143000000000000000e+03 4.711143112182617188e+01 2.295045852661132812e+01 4.796377596309742142e-14 -2.539498017255226170e-13 -6.179580366296941185e-14 5.179961209858356674e-14
2.144000000000000000e+03 5.093353271484375000e+01 2.566316795349121094e+01 1.077445695597117892e-13 9.192719149916581123e-14 5.990152628478420671e-14 1.612774448494710966e-13
2.145000000000000000e+03 6.433752441406250000e+01 8.413642644882202148e-01 2.263866143972694672e-14 9.702283837182811704e-15 9.702283837182811704e-15 8.221101208648329273e-14
2.146000000000000000e+03 5.689755249023437500e+01 3.736608505249023438e+01 3.431618799342416037e-14 -8.168536715633979706e-15 7.844295044523875299e-15 -2.829279609802958645e-14
2.147000000000000000e+03 5.531359863281250000e+01 3.705181884765625000e+01 6.669020397769356845e-14 5.706041684343330506e-15 2.171887344450118551e-14 3.813368755966814461e-14
2.148000000000000000e+03 6.461076354980468750e+01 3.366195678710937500e+01 6.736692909244113014e-14 3.033772235164211573e-13 1.112232457826586862e-13 -2.938200084710157478e-14
2.149000000000000000e+03 5.894730758666992188e+01 3.995711135864257812e+01 4.444519432393947977e-14 9.911210442853715663e-14 4.306719030336934873e-14 -2.080341886983357730e-14
2.150000000000000000e+03 2.945406723022460938e+01 3.019299125671386719e+01 1.049091775907548540e-13 4.496107465826702787e-14 4.496107465826702787e-14 -3.690512386791619526e-14
2.151000000000000000e+03 2.817345237731933594e+01 3.178070449829101562e+01 6.366188500840641584e-14 2.728366476159333615e-14 2.728366476159333615e-14 -3.073864947300553041e-14
2.152000000000000000e+03 5.812434768676757812e+01 4.156657409667968750e+01 3.584571265573092969e-14 7.255113664787066208e-14 3.251905512989365643e-14 1.019388736020910430e-14
2.153000000000000000e+03 7.385684204101562500e+01 3.715013122558593750e+01 -3.631097430113056079e-14 1.445664741346261439e-13 3.247664927242231714e-14 -8.864875725308161980e-15
2.154000000000000000e+03 2.166167640686035156e+01 8.933849334716796875e+00 3.014593859168080738e-15 -3.418401358420281033e-13 -1.016476670629568035e-13 -3.202893814968979513e-14
2.155000000000000000e+03 6.522282409667968750e+01 3.112742185592651367e+00 1.069652721431835207e-13 4.584225997395462160e-14 4.584225997395462160e-14 3.137931470112258203e-14
2.156000000000000000e+03 1.456362533569335938e+01 2.151643562316894531e+01 2.827808516861485266e-13 -2.219403317810925147e-13 1.825215393863773017e-14 -3.539288816450242292e-13
2.157000000000000000e+03 1.238329696655273438e+01 5.540730953216552734e+00 -6.495230243409866322e-14 -1.422140671284571889e-13 -6.214991086876675563e-14 3.161395976817096831e-14
2.158000000000000000e+03 2.216942596435546875e+01 1.650787544250488281e+01 3.808806568750267019e-13 -1.841866909641984296e-13 5.900819112850119730e-14 -2.173745260397944024e-13
2.159000000000000000e+03 4.859047317504882812e+01 4.049259185791015625e+00 1.240902996677006875e-13 4.817754675019367272e-14 5.168035324774195027e-14 9.518729934040320861e-14
2.160000000000000000e+03 1.369936561584472656e+01 2.068334197998046875e+01 4.226662693885413491e-13 -2.306158465147783998e-13 5.761512008586530675e-14 -2.126040093758038707e-13
2.161000000000000000e+03 7.119912719726562500e+01 7.713870406150817871e-01 7.468226476689890370e-14 -5.949521474438168589e-14 4.556114837348575891e-15 -1.748348000933392515e-14
2.162000000000000000e+03 4.171897506713867188e+01 1.103586387634277344e+01 2.041848644101975502e-14 1.002526783377283293e-13 3.620134790896512023e-14 -2.797819450889218323e-14
2.163000000000000000e+03 6.076813125610351562e+01 2.153208923339843750e+01 -8.871703149676210542e-14 1.449822114576657106e-13 1.687955229420518705e-14 2.497219570479812870e-15
2.164000000000000000e+03 2.684191703796386719e+01 4.495670318603515625e+00 4.966149511070752989e-15 1.851321423636601016e-13 5.702948828239726153e-14 -1.574788747755323515e-13
2.165000000000000000e+03 2.772994995117187500e+01 5.966639041900634766e+00 7.368980642699640704e-14 -3.344262529663549754e-13 -7.822093125130213931e-14 -1.878946894991531669e-13
2.166000000000000000e+03 1.136908912658691406e+01 4.241059780120849609e+00 1.058677071789221324e-13 -1.376319170394088576e-13 -9.529264652211912046e-15 -1.114706268371019882e-13
2.167000000000000000e+03 6.235547637939453125e+01 2.498520135879516602e+00 1.725512162082006029e-14 -3.835589818305083776e-14 -6.330232121636285986e-15 -8.125660924283503728e-14
2.168000000000000000e+03 6.190391921997070312e+01 5.969988822937011719e+00 -1.235483612117838081e-13 -5.294929669415540663e-14 -5.294929669415540663e-14 -1.981925298248470024e-14
2.169000000000000000e+03 5.373981857299804688e+01 1.771048545837402344e+01 -8.349251194930684683e-15 -1.007990145887073530e-13 -3.274448109034412691e-14 -1.934954068716701614e-13
2.170000000000000000e+03 7.739688110351562500e+01 -4.980944097042083740e-01 3.214908807919192313e-14 -3.197276970089146797e-14 5.289612891251228703e-17 -3.870197212837642176e-14
2.171000000000000000e+03 6.075983047485351562e+01 -4.041624665260314941e-01 1.723579639472186398e-13 -6.338514240387949084e-14 3.269184646300174468e-14 -9.344720906367259827e-14
2.172000000000000000e+03 6.150255203247070312e+01 7.278532385826110840e-01 1.550354354444560823e-13 -2.505813820872539177e-14 3.899318883190602825e-14 -6.225671155902015586e-14
2.173000000000000000e+03 2.518977165222167969e+01 3.980262279510498047e+00 4.527807165657926625e-14 -3.923536571592139977e-13 -1.041226702297795570e-13 -4.661709776201559616e-15
2.174000000000000000e+03 1.196733093261718750e+01 4.543252944946289062e+00 -1.839465706761789915e-14 3.786752270258653130e-14 5.841860029303768548e-15 -5.427278567424025091e-14
2.175000000000000000e+03 1.005004501342773438e+01 6.229792118072509766e+00 -1.349596737804884677e-14 -5.153493463135733199e-14 -1.950927111104162198e-14 2.529794678862024027e-14
2.176000000000000000e+03 7.757292175292968750e+01 1.591713619232177734e+01 -7.117541961625811764e-14 1.067490957825170672e-13 1.067210437453698993e-14 -1.392901636046439684e-13
2.177000000000000000e+03 7.345281219482421875e+01 1.504905319213867188e+01 4.996782881124678388e-14 2.044185811291357457e-13 7.631592027160932767e-14 -1.120806913059335837e-15
2.178000000000000000e+03 5.269354629516601562e+01 2.376527595520019531e+01 3.293152290575682151e-14 2.428682526357112126e-13 8.273993334006676803e-14 -9.975208186590103776e-14
2.179000000000000000e+03 3.379581069946289062e+01 1.418955421447753906e+01 2.876656161540647183e-13 2.605381188569566575e-13 1.644611232138118440e-13 1.830746010789575245e-14
2.180000000000000000e+03 2.182518959045410156e+01 5.930843830108642578e+00 -7.796594722912428277e-14 9.834965619139567072e-15 -2.043929465240200416e-14 -1.603654004294491342e-13
2.181000000000000000e+03 4.941954421997070312e+01 2.125641822814941406e+01 -5.302465552140672722e-14 -6.847580364061425784e-14 -3.645013503810086430e-14 5.286146276565692470e-14
2.182000000000000000e+03 5.028353500366210938e+01 2.071707344055175781e+01 6.918212069840709577e-14 -1.610146952292328126e-14 1.592419399739242875e-14 -7.021060165549042331e-14
2.183000000000000000e+03 1.370090675354003906e+01 2.126777267456054688e+01 1.890586753990064484e-13 -2.163560265189615195e-13 -8.189203472514037380e-15 -7.604007213387470321e-14
2.184000000000000000e+03 1.220130729675292969e+01 2.018711662292480469e+01 1.013807161593001382e-13 -4.805301935442013450e-14 1.599830768621128552e-14 -2.279645859560273935e-14
2.185000000000000000e+03 3.312140274047851562e+01 3.158979415893554688e+01 -2.081684264798166345e-15 -1.381450021650104665e-13 -4.206800313373386391e-14 -1.538557252249699719e-14
2.186000000000000000e+03 6.646981811523437500e+01 2.953300094604492188e+01 -6.629457182869002985e-14 1.733898804699360308e-14 -1.468667547332210693e-14 6.888424970404385950e-14
2.187000000000000000e+03 4.668375778198242188e+01 2.187010765075683594e+01 8.471663041215160561e-14 8.205807859379063429e-14 5.003241337940902977e-14 -3.317581059587675074e-14
2.188000000000000000e+03 4.529298400878906250e+01 2.149971389770507812e+01 1.601460121198466924e-13 1.143849555004794460e-13 8.235929028609784153e-14 3.435100443568810114e-14
2.189000000000000000e+03 6.466049194335937500e+01 2.899434852600097656e+01 -4.320192275209140675e-14 2.723583958732546384e-14 -4.789825203539667051e-15 4.421507325986237871e-15
2.190000000000000000e+03 3.464063262939453125e+01 2.122339057922363281e+01 1.081108808162131729e-13 1.378351371841141093e-13 7.378380675535090027e-14 -1.208007896187981989e-13
2.191000000000000000e+03 7.419261932373046875e+01 -1.898880600929260254e-01 9.752372114079158050e-14 2.247996710655342234e-13 9.669701698427138337e-14 1.392289874970614738e-13
2.192000000000000000e+03 7.378517150878906250e+01 2.612514793872833252e-01 -8.415373297298786581e-14 -3.606588701190842350e-14 -3.606588701190842350e-14 -3.780966357602548455e-14
2.193000000000000000e+03 2.238602828979492188e+01 1.140544319152832031e+01 4.076753905025423327e-15 -1.355056610538932227e-13 -3.942867218701198717e-14 -2.977688421897974058e-14
2.194000000000000000e+03 5.935404968261718750e+01 2.185272789001464844e+01 -1.063087877277435478e-13 9.169193995652719087e-14 -4.385055263101149056e-15 3.153298680654524622e-14
2.195000000000000000e+03 6.123122024536132812e+01 7.095302104949951172e+00 -1.049946262744738679e-13 9.225514910381552025e-14 -3.821843998230451539e-15 -1.075751765227880852e-13
2.196000000000000000e+03 7.076544189453125000e+01 1.983464241027832031e+01 -8.349007249441875445e-14 -3.578146012448400748e-14 -3.578146012448400748e-14 4.381892865592575126e-14
2.197000000000000000e+03 6.939936065673828125e+01 2.132880210876464844e+01 -2.644763206181843795e-13 -1.133469945506504484e-13 -1.133469945506504484e-13 -6.951133868808231919e-14
2.198000000000000000e+03 2.784067153930664062e+00 3.583948898315429688e+01 1.258868091149820123e-13 -5.408108314473858425e-13 -1.244772107654792959e-13 -7.000194017113200995e-14
2.199000000000000000e+03 2.162042236328125000e+01 5.302183151245117188e+00 -5.873703216516257264e-14 -9.379943924445882653e-14 -4.576094142288641975e-14 -2.015451472164517255e-13
2.200000000000000000e+03 3.544772338867187500e+01 2.258600425720214844e+01 2.851034295800469742e-14 1.037206141829040418e-13 3.966928714227262176e-14 -1.221901811503112167e-13
2.201000000000000000e+03 2.803740310668945312e+01 3.018042564392089844e+00 2.390923830447588827e-13 -1.720375279951405489e-13 2.011645312675371111e-14 -5.491057776660021594e-14
2.202000000000000000e+03 3.389255905151367188e+01 1.901706123352050781e+01 -5.127854453448703331e-14 1.610272787506972225e-13 3.292462128130259347e-14 1.141139862725210063e-13
2.203000000000000000e+03 3.616065597534179688e+01 2.120037269592285156e+01 -1.827482054030625525e-14 1.065453064316712606e-13 2.648114508978314380e-14 -1.087213798129467099e-14
2.204000000000000000e+03 1.294358444213867188e+01 4.496303558349609375e+00 -6.386309260282899136e-14 1.327584282740865151e-13 2.066859832968500482e-14 4.335088874245912605e-14
2.205000000000000000e+03 7.610160827636718750e+01 3.570392227172851562e+01 -9.267673434232293062e-14 5.178329485588765990e-14 -1.226803218474376012e-14 -2.808152236406184082e-15
2.206000000000000000e+03 7.624239349365234375e+01 3.719311141967773438e+01 -2.844350528220275509e-14 1.708137212404203797e-13 4.271106377102575069e-14 5.467839925949423419e-14
2.207000000000000000e+03 5.859203815460205078e+00 1.912750434875488281e+01 4.909583888523458284e-14 -7.109740855944235438e-13 -1.985634828218993397e-13 2.660896134508428101e-13
2.208000000000000000e+03 2.257814598083496094e+01 5.578743934631347656e+00 -7.961666536552419737e-14 5.738047163068513146e-14 -6.670859645111024833e-15 7.687103178392190594e-14
2.209000000000000000e+03 2.084830665588378906e+01 6.733860492706298828e+00 8.103640100533965329e-14 -1.102106331408092207e-14 2.100460105326773519e-14 1.917559264586615742e-14
2.210000000000000000e+03 2.320695686340332031e+01 4.356455802917480469e+00 1.455783667984704433e-15 1.836277034291192156e-13 5.552504595972458656e-14 1.045573319629266792e-14
2.211000000000000000e+03 2.465537452697753906e+01 4.646078109741210938e+00 2.096577306296559806e-13 -2.304033157839169288e-13 -6.223677494454063139e-15 -1.318859165757788054e-13
2.212000000000000000e+03 2.561079216003417969e+01 5.972240447998046875e+00 1.459564213197525606e-13 1.083036993963261418e-13 7.627803418194453733e-14 1.147930220931486778e-14
2.213000000000000000e+03 2.201986885070800781e+01 5.098569869995117188e+00 -1.370513809861514942e-13 -1.959891531835497580e-13 -9.991216431666852249e-14 -5.003864754190082142e-14
2.214000000000000000e+03 5.923017501831054688e+01 1.936952018737792969e+01 -1.014028000023009524e-13 2.310473589794276306e-13 3.889336430500621444e-14 -1.327635375768243531e-13
2.215000000000000000e+03 3.279728317260742188e+01 1.730949020385742188e+01 -3.509981883051058182e-14 -1.504277828874318185e-14 -1.504277828874318185e-14 -1.273772347364435231e-13
2.216000000000000000e+03 3.836185836791992188e+01 1.490159130096435547e+01 2.169487869517136569e-13 -4.427479840000622668e-14 5.180219385500679785e-14 1.473142490155190942e-13
2.217000000000000000e+03 4.175196838378906250e+01 6.290858745574951172e+00 1.788957936798315877e-16 7.666963058953132361e-17 7.666963058953132361e-17 -1.691240531409739234e-14
2.218000000000000000e+03 4.298356246948242188e+01 4.337556838989257812e+00 2.592610981043581841e-14 3.398666507188792540e-14 1.797383246469712315e-14 7.190115744546560217e-14
2.219000000000000000e+03 3.549302673339843750e+01 2.097391510009765625e+01 4.874818945862710584e-14 1.581449272751445090e-13 6.206793163199969543e-14 -2.074973222757070523e-13
2.220000000000000000e+03 7.175305938720703125e+01 1.967383956909179688e+01 -9.077851995499888749e-14 6.975342748067117626e-14 -6.307528250518081719e-15 1.092058911291056422e-13
2.221000000000000000e+03 7.646456909179687500e+01 3.088977432250976562e+01 -1.209033737790401672e-14 2.921995870090732250e-13 8.403277666811995172e-14 6.803625452736147827e-14
2.222000000000000000e+03 7.708937072753906250e+01 3.262051773071289062e+01 -5.148731105093090621e-14 2.981906442687393133e-13 7.401100132059523773e-14 -7.476865535125526430e-14
2.223000000000000000e+03 7.678981781005859375e+01 2.790968704223632812e+01 9.636516302806430456e-14 -5.020254164093095051e-14 1.384878539970046951e-14 -6.806829608969021395e-15
2.224000000000000000e+03 7.735779571533203125e+01 3.018072319030761719e+01 5.724489892527939716e-14 4.740900326396374487e-14 3.139617065677294261e-14 9.329910027064750033e-14
2.225000000000000000e+03 7.575868225097656250e+01 7.912317514419555664e-01 2.249486235033747866e-14 1.240180240403773726e-13 4.395386778068693934e-14 -8.403379310765665688e-14
2.226000000000000000e+03 7.680805206298828125e+01 -6.649318337440490723e-01 1.149339141654631691e-13 4.925739178519850103e-14 4.925739178519850103e-14 -8.210100622355748223e-14
2.227000000000000000e+03 6.787496185302734375e+01 2.094379234313964844e+01 -8.962092407169969244e-14 -8.415991292537103319e-14 -5.213425109912121769e-14 -5.812926230858508903e-14
2.228000000000000000e+03 7.673251342773437500e+01 2.551598739624023438e+01 -2.803811023144916342e-14 3.373461517183935776e-14 1.708951439765410939e-15 -1.195807572428909948e-14
2.229000000000000000e+03 7.673615264892578125e+01 2.470224380493164062e+01 2.684157624356468819e-14 3.437900734492432830e-14 1.836617473773352605e-14 4.248754194064070788e-14
2.230000000000000000e+03 7.748880767822265625e+01 2.785921478271484375e+01 -2.232202697151613319e-14 3.618436659243856601e-14 4.158701378056961495e-15 8.051748659899504029e-15
2.231000000000000000e+03 7.674643707275390625e+01 2.632833099365234375e+01 -2.458245297587684924e-14 -1.020372344560580014e-13 -3.798590741542658134e-14 -3.502932197237650092e-14
2.232000000000000000e+03 7.759055328369140625e+01 6.414168834686279297e+00 1.996173239454234610e-14 8.555028532103697153e-15 8.555028532103697153e-15 1.886542950937236673e-14
2.233000000000000000e+03 7.739537048339843750e+01 2.462094545364379883e+00 1.163330228589470883e-13 -4.164488645965781777e-14 2.240644227503949676e-14 -1.122298055270670725e-13
2.234000000000000000e+03 7.678703308105468750e+01 3.411637306213378906e+00 1.630363053763128622e-13 1.613746029166529539e-13 9.732327248788974483e-14 -2.344645744917217556e-13
2.235000000000000000e+03 7.755494689941406250e+01 4.868985176086425781e+00 -6.087197532058524763e-14 -3.005936699638361853e-13 -1.084396990063372923e-13 -1.177324161555012849e-13
2.236000000000000000e+03 7.749874114990234375e+01 1.916097450256347656e+01 -1.529852633463946177e-14 2.679491828069813231e-13 7.579519829695527400e-14 -1.021453040016663885e-14
2.237000000000000000e+03 7.755163574218750000e+01 1.996323966979980469e+01 1.297412477880557566e-14 1.885641301305543416e-13 6.046147604929150154e-14 -7.149921151287323001e-15
2.238000000000000000e+03 7.526753234863281250e+01 1.654006576538085938e+01 3.237379236757133294e-14 5.962543420156077301e-14 2.759976729311327398e-14 -5.736044777181203980e-14
2.239000000000000000e+03 7.751705932617187500e+01 1.752267456054687500e+01 -1.386855718156845829e-13 3.065709307508573955e-13 5.036560564767277037e-14 -1.334759939294188902e-13
2.240000000000000000e+03 7.681128692626953125e+01 1.672000885009765625e+01 -1.309620543520767511e-13 3.537530443814378145e-14 -2.867602260248763857e-14 -1.405221967433478714e-13
2.241000000000000000e+03 7.474608612060546875e+01 1.288739967346191406e+01 8.055869475187896200e-14 1.260270506659930123e-13 6.197572701349338131e-14 -9.159185454347962274e-14
2.242000000000000000e+03 7.760204315185546875e+01 1.513519191741943359e+01 2.233408533255324541e-14 1.468245962093703283e-13 5.074760395435730376e-14 8.027898753203664695e-15
2.243000000000000000e+03 7.387006378173828125e+01 1.344072246551513672e+01 -1.079697820678595516e-14 1.326255728503755726e-13 3.654857720723075909e-14 -7.084558498659729309e-14
2.244000000000000000e+03 7.680142974853515625e+01 1.205285453796386719e+01 9.238244121512889651e-14 3.959247480648381279e-14 3.959247480648381279e-14 -7.929583639015858054e-14
2.245000000000000000e+03 7.690660095214843750e+01 1.030024528503417969e+01 8.949336768610677284e-14 -9.889854370561182439e-14 -2.821552932906457554e-15 -1.993207607699307854e-14
2.246000000000000000e+03 7.763301849365234375e+01 8.728665351867675781e+00 2.033150801579799993e-14 2.374682481903755971e-13 7.733992889473115251e-14 -2.344807019990374775e-13
2.247000000000000000e+03 7.682186126708984375e+01 2.309011077880859375e+01 7.738974120829328340e-15 2.619217810576144473e-14 1.017934549857064247e-14 -6.159723203507869171e-14
2.248000000000000000e+03 7.688989257812500000e+01 2.231788635253906250e+01 1.319081698253690704e-14 1.200305859479916526e-13 3.996641952390585228e-14 -8.727678410709593937e-14
2.249000000000000000e+03 7.577514648437500000e+01 1.170226764678955078e+01 1.331092201929283056e-14 2.858015541351739686e-14 1.256732280632659460e-14 -7.349387076563754229e-14
2.250000000000000000e+03 7.371639251708984375e+01 1.086000156402587891e+01 -3.345988172946331995e-14 -1.744682686082715817e-13 -6.237844713419954390e-14 8.647982097141973523e-14
2.251000000000000000e+03 7.695787048339843750e+01 2.158110618591308594e+01 8.389332793994758175e-15 3.595428279781114414e-15 3.595428279781114414e-15 -9.129085291534333457e-14
2.252000000000000000e+03 7.697219085693359375e+01 1.439254474639892578e+01 1.417533777669068365e-14 1.890789364271047712e-13 6.097628234584193119e-14 3.091957189889078632e-15
2.253000000000000000e+03 7.698439788818359375e+01 9.522679328918457031e+00 -3.155409486759082338e-14 -1.352318424071002195e-14 -1.352318424071002195e-14 -2.307269230273495397e-13
2.254000000000000000e+03 7.584383392333984375e+01 1.419834995269775391e+01 -1.136475760504448984e-13 2.715505500582721110e-13 4.737088678133730135e-14 3.178623271711533693e-15
2.255000000000000000e+03 7.502061462402343750e+01 -2.447090670466423035e-02 1.323296957715701730e-14 -8.583062781558972731e-14 -2.177929738682651828e-14 8.344227950740287780e-14
2.256000000000000000e+03 7.682144927978515625e+01 4.995185852050781250e+00 -2.299059854711342499e-14 -1.013550137915486538e-13 -3.730368336278544472e-14 -1.653244598512348951e-13
2.257000000000000000e+03 7.610240936279296875e+01 2.798866271972656250e+01 4.834240307865188269e-14 2.494729141148954721e-13 8.934459481925102753e-14 -1.319512954490873391e-16
2.258000000000000000e+03 7.743708038330078125e+01 2.940099334716796875e+01 -4.341220715157675936e-14 2.330249979521498149e-13 5.688383249678741205e-14 6.385315182416001489e-14
2.259000000000000000e+03 7.675379180908203125e+01 2.937818717956542969e+01 7.222274536235195885e-14 -1.520511960697440434e-13 -2.394853521221762538e-14 1.165378676128451738e-14
2.260000000000000000e+03 7.603953552246093750e+01 1.670347976684570312e+01 -1.585004642725568180e-14 -6.792876858745374932e-15 -6.792876858745374932e-15 4.550037375952026286e-14
2.261000000000000000e+03 7.695610046386718750e+01 3.413435745239257812e+01 -2.383816004292681201e-14 8.128554388831324418e-14 1.723421515361592965e-14 8.083340447733247669e-14
2.262000000000000000e+03 7.534445190429687500e+01 3.140930747985839844e+01 3.370553473081510472e-16 1.373972956892829944e-13 4.132030682240175889e-14 6.455015215480776596e-16
2.263000000000000000e+03 7.676620483398437500e+01 8.119579553604125977e-01 2.628866193471728757e-14 3.847587531783172587e-14 1.942936032873175678e-14 -2.666127850447803233e-14
2.264000000000000000e+03 7.696080780029296875e+01 2.084681320190429688e+01 5.627298113434781729e-15 4.816264913471736409e-14 1.613698392033575957e-14 2.615658069912013550e-14
2.265000000000000000e+03 7.692211914062500000e+01 8.032982826232910156e+00 -4.503069399026775332e-14 2.094558792901934918e-13 4.932755321828546924e-14 -1.190187000604109313e-13
2.266000000000000000e+03 7.616409301757812500e+01 3.269807434082031250e+01 3.658811331707680081e-14 1.071825191534953037e-13 4.313118872473209464e-14 -2.565754615604758093e-14
2.267000000000000000e+03 7.671676635742187500e+01 2.633915185928344727e+00 4.261753100485814183e-14 1.097665524012886307e-13 4.571522536065721065e-14 -3.880912264323703800e-15
2.268000000000000000e+03 7.688081359863281250e+01 7.260913372039794922e+00 -3.810198481051831065e-14 -6.208037285192896659e-14 -3.005470763754736208e-14 2.689688241282271047e-14
2.269000000000000000e+03 2.584661483764648438e+01 3.877172946929931641e+00 1.291147500330144804e-13 9.583944864121913404e-15 4.160960923147057067e-14 9.179370588294211153e-14
2.270000000000000000e+03 2.627217864990234375e+01 3.491813659667968750e+00 -5.803658335162831250e-14 -7.062377077463391495e-14 -3.859810556025231043e-14 -3.129273912477054109e-13
2.271000000000000000e+03 7.602553558349609375e+01 2.996947669982910156e+01 3.269205652717266375e-14 -7.749101924373058559e-14 -1.343968881496737655e-14 -5.576220840869221262e-14
2.272000000000000000e+03 7.665493774414062500e+01 3.011540031433105469e+01 5.427586887416825656e-14 2.520158289952972863e-13 9.188750969965284177e-14 -2.691814124573289890e-14
2.273000000000000000e+03 4.739721679687500000e+01 2.743785858154296875e+01 8.432583143314510005e-15 4.936491414752296192e-14 1.733924893314135740e-14 7.920277118617785606e-14
2.274000000000000000e+03 7.524658203125000000e+01 3.650517272949218750e+01 -1.785487219296941382e-15 1.136121632969860906e-13 3.354800364916386834e-14 -6.265031337004912590e-15
2.275000000000000000e+03 4.234759330749511719e+00 3.251905441284179688e+01 1.144594537422563563e-13 -3.169535489101760195e-13 -6.074822719512318336e-14 1.388397995747206459e-13
2.276000000000000000e+03 2.322889328002929688e+00 3.216561889648437500e+01 1.185462454112232167e-13 -3.609529938396888182e-13 -7.272202723904511168e-14 1.021610638966830020e-13
2.277000000000000000e+03 5.866868972778320312e+01 2.155333137512207031e+01 -3.979165968622834504e-14 -1.543064179036768291e-13 -5.822942226053201553e-14 -1.436734981203127703e-13
2.278000000000000000e+03 2.354977607727050781e+00 2.998637962341308594e+01 -6.456332457592875440e-14 -4.623040231882535878e-13 -1.580601968753647668e-13 1.118436262657548919e-13
2.279000000000000000e+03 3.304858207702636719e+00 2.113659095764160156e+01 1.642439439661358414e-13 -3.871192374906712308e-13 -6.686258534685518562e-14 -3.608746941140446307e-14
2.280000000000000000e+03 2.456170320510864258e+00 2.276450729370117188e+01 9.935732385489906560e-14 -3.691768299483172422e-13 -8.094584979514637957e-14 -1.554420654692467707e-13
2.281000000000000000e+03 2.416867256164550781e+00 2.433942222595214844e+01 1.785667594963059185e-14 -1.753509311494191869e-13 -4.724827706815634687e-14 -8.511883553682583758e-14
2.282000000000000000e+03 4.383768558502197266e+00 1.197584629058837891e+01 1.201813544244711290e-15 1.720811264750016223e-13 5.198488192107060535e-14 -1.636729556682599285e-14
2.283000000000000000e+03 3.418472051620483398e+00 2.629364967346191406e+01 3.692404658395785633e-15 9.308435370159601208e-14 2.903303004909638108e-14 -5.943017616655971169e-14
2.284000000000000000e+03 2.676958799362182617e+00 2.582595252990722656e+01 1.034456672882252959e-13 3.645904921283776856e-13 1.404108491802336101e-13 -4.467376447069015821e-14
2.285000000000000000e+03 3.127211809158325195e+00 1.534641075134277344e+01 -5.222402981526659549e-14 -2.968874332574117370e-13 -1.047334351948585318e-13 -6.022283552783091673e-15
2.286000000000000000e+03 3.202230691909790039e+00 1.384182453155517578e+01 2.112946556815428062e-14 9.055485243494691694e-15 9.055485243494691694e-15 2.145792631037465870e-14
2.287000000000000000e+03 2.259660005569458008e+00 2.699617958068847656e+01 5.119558951576473615e-14 6.769191869364366010e-14 3.566625347926205558e-14 9.272306365640595183e-14
2.288000000000000000e+03 2.987180709838867188e+00 2.842448616027832031e+01 -4.645699244135853556e-14 -3.172913049919595663e-13 -1.091244878747427149e-13 -9.700388685666624933e-14
2.289000000000000000e+03 2.329624652862548828e+00 2.921020317077636719e+01 -5.753148744078520616e-14 -4.592903748296128796e-13 -1.550465620692512148e-13 -5.464715729626770657e-14
2.290000000000000000e+03 3.214064598083496094e+00 8.064858436584472656e+00 -1.313687453632396418e-14 1.544982268205166709e-13 4.240840873457642213e-14 -2.711503744245395003e-14
2.291000000000000000e+03 2.522878170013427734e+00 1.866602706909179688e+01 -7.654716365434154068e-15 -3.464127042943770940e-13 -1.062202287390422162e-13 -5.659185346360527669e-14
2.292000000000000000e+03 2.856014728546142578e+00 2.638442802429199219e+01 -2.202902167321510452e-13 -2.316629418679105878e-13 -1.355859462247657743e-13 -8.497801122714712663e-14
2.293000000000000000e+03 3.256755828857421875e+00 2.566117286682128906e+01 -1.636532977276200507e-13 -7.013712662951379628e-14 -7.013712662951379628e-14 -7.894176306567912693e-14
2.294000000000000000e+03 3.363644838333129883e+00 1.180884552001953125e+01 -1.230910853930108906e-13 1.760014253478561774e-13 1.587310266407994386e-14 -4.645741934596395173e-14
2.295000000000000000e+03 2.609039783477783203e+00 1.209022617340087891e+01 4.471519793433804957e-14 8.779007929686846734e-14 3.975158147529606056e-14 6.820972009869558095e-14
2.296000000000000000e+03 6.972398281097412109e+00 1.234961414337158203e+01 1.531828456398029448e-13 1.571516896649305384e-13 9.310035923616732934e-14 5.411710440666669952e-14
2.297000000000000000e+03 4.733910560607910156e+00 1.463206291198730469e+01 -5.520565016410572401e-14 -1.265991977049407691e-13 -5.454145436071394792e-14 9.026326134285462405e-15
2.298000000000000000e+03 2.539451599121093750e+00 1.783035850524902344e+01 1.050050481678568848e-13 1.136285821836356680e-13 6.559009113832683924e-14 1.387842477659079199e-13
2.299000000000000000e+03 4.998711585998535156e+00 2.020874214172363281e+01 1.594777776633624078e-13 -4.349128208177427402e-13 -8.263051701207224653e-14 -5.875306480478820204e-14
2.300000000000000000e+03 9.076407432556152344e+00 1.758570289611816406e+01 9.789757437865531653e-14 1.908063008808358330e-14 3.509346269527438555e-14 1.484047531131321707e-13
2.301000000000000000e+03 3.360679388046264648e+00 5.679077148437500000e+00 -3.298939558484502432e-14 -1.513911608921891805e-13 -5.531416524904436693e-14 -8.421563414077321008e-14
2.302000000000000000e+03 4.173183917999267578e+00 4.861659526824951172e+00 3.562920425814915248e-14 -1.219831934030565779e-13 -2.590619437177997531e-14 8.279479396999453455e-15
2.303000000000000000e+03 3.447968721389770508e+00 4.125506401062011719e+00 9.513341449243067904e-14 2.237752626428612945e-13 9.567260178533487647e-14 1.284087124960942364e-14
2.304000000000000000e+03 4.230253219604492188e+00 4.098802089691162109e+00 -1.956377768119743621e-14 1.974947982930075341e-13 5.337930482829031376e-14 1.488734808173519664e-13
2.305000000000000000e+03 3.648160696029663086e+00 1.015310955047607422e+01 7.596820816456375386e-15 2.320105370844094406e-13 7.188220423623783994e-14 4.307786630663654193e-14
2.306000000000000000e+03 4.314827442169189453e+00 2.412425613403320312e+01 1.575855196117234569e-13 -4.814747233718164043e-13 -9.716676790429146227e-14 -8.315448651104607319e-15
2.307000000000000000e+03 3.239714622497558594e+00 2.201567459106445312e+01 1.571782255131021211e-13 -4.358983334874777515e-13 -8.361603645807083596e-14 6.163788961654689813e-14
2.308000000000000000e+03 3.147529840469360352e+00 8.835868835449218750e+00 -1.366009017597473452e-14 -1.431071651155149671e-13 -4.703017963676552060e-14 -5.950183515389742550e-14
2.309000000000000000e+03 3.077789068222045898e+00 9.564623832702636719e+00 1.497417709034505606e-14 1.436703539340125624e-13 4.759335829086774883e-14 -6.540787063444991611e-14
2.310000000000000000e+03 3.359102010726928711e+00 3.388330078125000000e+01 6.656985753654767746e-14 -3.832286050997613103e-13 -9.499762494659044765e-14 8.601427811108161570e-14
2.311000000000000000e+03 3.185559511184692383e+00 1.610869789123535156e+01 -8.989134442230831135e-14 -2.672796066503085877e-13 -1.071512873546641431e-13 7.234486718455529486e-14
2.312000000000000000e+03 9.199615478515625000e+00 2.201143455505371094e+01 1.661891110837920849e-13 2.547295395991834577e-14 5.749861578616816127e-14 2.369755867231981838e-13
2.313000000000000000e+03 4.941161155700683594e+00 3.513499069213867188e+01 1.654027392480883485e-13 -2.150565424526018621e-13 -1.489614163898041188e-14 8.133630487877629989e-14
2.314000000000000000e+03 3.347493171691894531e+00 3.665753936767578125e+01 8.614571051944117097e-14 -3.290879938347424094e-13 -7.288268567221672933e-14 -2.777358353608753994e-14
2.315000000000000000e+03 3.443969249725341797e+00 3.519706726074218750e+01 1.100443927605151972e-13 -3.188456985415977218e-13 -6.264039715533561981e-14 3.947680398720676553e-14
2.316000000000000000e+03 4.630109405517578125e+01 3.967300176620483398e+00 -2.492476270678483513e-14 -1.708103602136856747e-13 -5.872053873961363690e-14 1.316779970922821869e-14
2.317000000000000000e+03 2.307236289978027344e+01 1.556485271453857422e+01 2.700270562705497923e-13 -6.727791609408007023e-14 6.082473798718276981e-14 -1.389420127345317169e-13
2.318000000000000000e+03 2.166440010070800781e+01 1.602874183654785156e+01 3.532827513603314928e-13 -9.307473818357878126e-14 7.806240056489402446e-14 -2.691939553212119307e-13
2.319000000000000000e+03 6.556563568115234375e+01 2.221360969543457031e+01 -3.657500802331688228e-14 -1.567500368057379162e-14 -1.567500368057379162e-14 7.841742256627440288e-14
2.320000000000000000e+03 7.185126495361328125e+01 1.715654182434082031e+01 -1.359239276173132907e-14 1.543030162193606558e-13 4.221318458089325099e-14 4.276711024707967324e-14
2.321000000000000000e+03 5.511425781250000000e+01 3.969364166259765625e+00 1.504312896038334513e-13 6.447055075128188539e-14 6.447055075128188539e-14 5.977337358799642009e-14
2.322000000000000000e+03 3.929032802581787109e+00 8.073274612426757812e+00 1.540184538066646791e-13 -1.169958905146775696e-13 1.110676864878295395e-14 5.838432933999177649e-15
2.323000000000000000e+03 8.158739089965820312e+00 4.028998374938964844e+00 4.285243018179070440e-14 1.556181670071127288e-13 5.954117814023149324e-14 2.928769558688607000e-14
2.324000000000000000e+03 9.483148574829101562e+00 6.838098049163818359e+00 2.785025526440710469e-14 -7.956607378165059252e-14 -1.551474504695327800e-14 -9.806180390273255831e-14
2.325000000000000000e+03 5.023488521575927734e+00 4.082056999206542969e+00 8.993161575675256980e-14 -1.215861992250738544e-13 -9.496376056935922072e-15 -1.455443668959676556e-14
2.326000000000000000e+03 7.419095993041992188e+00 4.711586952209472656e+00 6.261958724988747615e-14 7.258791143030865478e-14 4.056224960405883928e-14 -6.465925613940298744e-14
2.327000000000000000e+03 4.033968448638916016e+00 7.259247303009033203e+00 -5.460911535254062144e-14 -6.915485301376908533e-14 -3.712919118751926983e-14 5.291062879308030056e-15
2.328000000000000000e+03 6.653571605682373047e+00 4.829260826110839844e+00 -1.562328384881444404e-14 -1.439485331064180307e-13 -4.787154762766858418e-14 1.972415015604606081e-13
2.329000000000000000e+03 6.467993927001953125e+01 2.189774322509765625e+01 -3.479593051409005100e-14 -1.521653896635610792e-13 -5.608839402041626565e-14 -7.077257074654397240e-14
2.330000000000000000e+03 4.253507232666015625e+01 6.293181419372558594e+00 -4.973119491083824451e-14 2.303168506606612098e-13 5.417569536969417399e-14 -4.380801887156511587e-14
2.331000000000000000e+03 2.501839637756347656e+01 1.331268882751464844e+01 2.903770973672337163e-13 -1.043074250562346650e-13 5.582089762754156859e-14 -9.994645221037337657e-14
2.332000000000000000e+03 1.002872276306152344e+01 6.773145675659179688e+00 8.279639316819895067e-14 -1.932705704461509799e-13 -3.314225453863832438e-14 2.375521925435802872e-13
2.333000000000000000e+03 5.619358444213867188e+01 6.634673595428466797e+00 1.121765034377622539e-13 1.052643283411432151e-13 6.523225021129799850e-14 8.857187715465703048e-14
2.334000000000000000e+03 5.624592208862304688e+01 5.537217140197753906e+00 1.480138440198425220e-13 -9.669381858786255113e-14 1.539600796840717017e-14 7.215512502810675355e-14
2.335000000000000000e+03 6.072422409057617188e+01 1.822247028350830078e+00 1.162449449849597971e-13 4.981926262043016862e-14 4.981926262043016862e-14 -3.889043695914050358e-14
2.336000000000000000e+03 6.251870727539062500e+01 1.209134340286254883e+00 6.246659954708619344e-14 -1.104814482087712602e-13 -1.440445256562644660e-14 -8.799781243311668999e-14
2.337000000000000000e+03 4.792956542968750000e+01 2.898807334899902344e+01 9.856358622068600583e-14 4.224153646770374693e-14 4.224153646770374693e-14 2.519735823800200308e-14
2.338000000000000000e+03 4.727485656738281250e+01 2.975151824951171875e+01 9.138714362078720344e-14 -1.209624035051343194e-13 -8.872577795897545333e-15 6.941363174355064114e-14
2.339000000000000000e+03 1.066618824005126953e+01 4.901220798492431641e+00 8.958759163115934121e-14 -1.446091103850591364e-13 -1.650645460973040185e-14 1.580837410031666473e-14
2.340000000000000000e+03 2.071895408630371094e+01 7.881928920745849609e+00 -1.033514026855912593e-13 -2.944939485414327374e-13 -1.193536101114917036e-13 -7.772255739392844309e-14
2.341000000000000000e+03 2.003679275512695312e+01 6.173188686370849609e+00 -4.046247251100407172e-14 -3.833486533853097677e-13 -1.271433316702569316e-13 -9.526045588199166803e-14
2.342000000000000000e+03 4.338330459594726562e+01 6.911366462707519531e+00 -3.403451565714421534e-14 -1.060881187043248575e-13 -4.203679166369343745e-14 -6.107657782306041838e-14
2.343000000000000000e+03 7.171397686004638672e+00 3.644274520874023438e+01 9.956839091282768117e-14 -1.174561478894248223e-13 -5.366329379968099930e-15 -1.243143923982921797e-14
2.344000000000000000e+03 1.740812110900878906e+01 2.280436134338378906e+01 8.480655142983212214e-14 -9.405284439722300105e-15 2.262038077465930441e-14 -5.800640187365174727e-14
2.345000000000000000e+03 4.124274444580078125e+01 1.386662769317626953e+01 1.818444483533965261e-13 1.923106991577952507e-13 1.122465428981048174e-13 6.277932411121248113e-14
2.346000000000000000e+03 2.716537475585937500e+01 8.343439102172851562e+00 -2.121133807876998678e-13 -9.090573075114932733e-14 -9.090573075114932733e-14 -8.529001073107056463e-14
2.347000000000000000e+03 6.080188369750976562e+01 2.217611122131347656e+01 -2.425397529299752608e-14 2.183601877873281305e-13 5.823186171542010792e-14 1.662950647410982308e-13
2.348000000000000000e+03 2.866591072082519531e+01 9.465611457824707031e+00 -2.418417842289105613e-13 -1.951483815038415615e-13 -1.310970510750783524e-13 -2.677297673923245691e-13
2.349000000000000000e+03 4.548623657226562500e+01 6.542799472808837891e+00 1.475430597196267929e-14 -3.942767607626601611e-14 -7.402010861884411597e-15 -3.660545716370477987e-14
2.350000000000000000e+03 4.455042648315429688e+01 7.676578998565673828e+00 -5.680381160019440379e-14 -2.434449092780701512e-14 -2.434449092780701512e-14 2.974116653365992125e-14
2.351000000000000000e+03 7.519211578369140625e+01 9.113075256347656250e+00 -8.018988983038086160e-14 -1.716199475284077569e-13 -7.554295188526294336e-14 2.546920668615969274e-14
2.352000000000000000e+03 1.067457962036132812e+01 2.051456832885742188e+01 5.983600659224819207e-14 -6.585789585119433687e-14 -1.806565422431127832e-15 9.082144080850215739e-14
2.353000000000000000e+03 1.181397819519042969e+01 1.882743644714355469e+01 1.131803255716851142e-13 -1.802488957787853896e-13 -2.012056970687736701e-14 2.647665073296501248e-13
2.354000000000000000e+03 4.503610610961914062e+01 3.714118003845214844e+00 5.153324056546282339e-14 2.208567428604608224e-14 2.208567428604608224e-14 4.504205100802453898e-14
2.355000000000000000e+03 4.579130935668945312e+01 3.126912832260131836e+00 1.122562058499670945e-13 2.358852926897560265e-15 3.438451644721327027e-14 6.889284200626080712e-14
2.356000000000000000e+03 4.791794776916503906e+00 3.782055664062500000e+01 8.837230263975676126e-14 -3.281337332926292927e-13 -7.192843190636719064e-14 2.128791663346535357e-14
2.357000000000000000e+03 3.622793674468994141e+00 3.766080474853515625e+01 -4.837867302945331183e-14 -5.926205706718867816e-13 -1.922997758209074592e-13 -1.636684765580348477e-13
2.358000000000000000e+03 1.182006740570068359e+01 1.968333625793457031e+01 1.637038079963307191e-13 4.728330018645941768e-14 6.329613618178200896e-14 2.543664877254631085e-13
2.359000000000000000e+03 3.481621932983398438e+01 2.219826126098632812e+01 1.032568534798869453e-13 9.572275291207590908e-14 5.969388123996249851e-14 -7.529504905852413277e-14
2.360000000000000000e+03 5.716038894653320312e+01 1.144908428192138672e+01 2.813736894034021135e-14 5.780982246725296925e-14 2.578415725287136473e-14 -7.463258120234475546e-14
2.361000000000000000e+03 5.897569656372070312e+01 1.210238838195800781e+01 7.678165286732763217e-14 1.129705866614177934e-13 5.692566914811819645e-14 -1.383439176882777719e-14
2.362000000000000000e+03 6.586090087890625000e+01 3.982959508895874023e+00 1.190121541897945501e-13 2.340089927388433466e-13 1.059063454338440846e-13 1.735761768963551416e-14
2.363000000000000000e+03 3.282072830200195312e+01 2.971794891357421875e+01 -1.227066137501203746e-15 2.739798134459431322e-13 8.182582215965350514e-14 6.062481788284002082e-14
2.364000000000000000e+03 3.221929168701171875e+01 2.768284797668457031e+01 1.307705029332528746e-13 5.604450077308954781e-14 5.604450077308954781e-14 -4.557999146843037808e-14
2.365000000000000000e+03 5.187052154541015625e+01 2.789925193786621094e+01 9.433832160550201240e-14 2.520288394213671124e-13 1.039101530514452421e-13 -6.448745075264550319e-14
2.366000000000000000e+03 5.120341491699218750e+01 3.071749496459960938e+01 3.244497362832679532e-14 1.054068873742979029e-13 4.135555694553469386e-14 -2.388374905021393296e-14
2.367000000000000000e+03 2.227859115600585938e+01 1.067737197875976562e+01 4.576711184614893051e-16 -4.555480409671082420e-14 -1.352913972936216694e-14 -1.023786293913829526e-13
2.368000000000000000e+03 1.619968223571777344e+01 2.148857307434082031e+01 2.060848507904472493e-13 1.798239833948611643e-13 1.157726529660979553e-13 -4.568109332101465136e-14
2.369000000000000000e+03 4.752272415161132812e+01 2.556299924850463867e+00 -4.575376197162549230e-14 7.189314112565278747e-14 7.841814085021367453e-15 1.178685140213343169e-14
2.370000000000000000e+03 3.355493164062500000e+01 3.403242874145507812e+01 9.593687606487821817e-14 -4.635145128909770249e-15 2.739051966195536064e-14 -1.965723590846568669e-14
2.371000000000000000e+03 2.880117034912109375e+01 3.087152290344238281e+01 1.047022033960273713e-13 -1.324125542285364832e-13 -8.313106605005449179e-15 -4.380825604079034707e-14
2.372000000000000000e+03 7.016661834716796875e+01 2.843505382537841797e+00 7.239628547258541991e-14 2.140307787772133263e-13 8.592811791968690827e-14 -6.438637600511554204e-14
2.373000000000000000e+03 4.917350769042968750e+00 3.288589096069335938e+01 8.892572686243840896e-14 -4.537116667611973408e-13 -1.094357826472540374e-13 9.797688376757263118e-14
2.374000000000000000e+03 6.691408538818359375e+01 1.347416639328002930e+00 1.125508716716579205e-13 -8.901675918734572313e-14 7.060233914700248664e-15 1.424915585101094867e-14
2.375000000000000000e+03 6.853990936279296875e+01 8.570533394813537598e-01 1.680790923108688162e-13 1.177848508830681151e-13 8.575918566868651061e-14 5.760992269170095437e-14
2.376000000000000000e+03 6.376263427734375000e+01 2.413304519653320312e+01 2.952882553817863520e-14 8.128163398422871833e-14 3.324313616265631155e-14 -3.553952718595744520e-14
2.377000000000000000e+03 6.281621551513671875e+01 2.277184677124023438e+01 -1.038670509328912597e-14 1.985374585816278986e-14 2.840112271813746529e-15 1.235082592839290005e-13
2.378000000000000000e+03 1.714829444885253906e+01 2.074069786071777344e+01 9.832707429302187108e-14 1.565175398142437668e-13 7.645338355455333357e-14 -1.707210897173086495e-13
2.379000000000000000e+03 5.342670822143554688e+01 2.232261085510253906e+01 4.104936131136584232e-14 6.334352936924678157e-14 3.131786754299696607e-14 -3.702608017278410935e-14
2.380000000000000000e+03 5.392992019653320312e+01 2.303261566162109375e+01 9.556503537729715836e-14 1.095828682244788521e-13 6.154437040290644534e-14 -9.839506054550029024e-14
2.381000000000000000e+03 2.626500320434570312e+01 5.956433773040771484e+00 1.891834806215866860e-13 -1.934270614772221064e-13 -1.273071779119255408e-15 -1.929329363371118378e-13
2.382000000000000000e+03 7.675551605224609375e+01 -1.294679641723632812e+00 -3.438830946075107503e-15 -1.387266359729674714e-13 -4.264963694169086883e-14 7.052284484020487454e-17
2.383000000000000000e+03 2.055052757263183594e+01 1.923617744445800781e+01 2.636424065172171538e-13 -1.386406045305807466e-13 3.750054059599092215e-14 -2.351012180074052438e-13
2.384000000000000000e+03 2.579053306579589844e+01 1.402285957336425781e+01 4.086213789208925640e-13 -2.366350930309291112e-13 5.159588373410996243e-14 -1.084510221427761878e-13
2.385000000000000000e+03 2.443953704833984375e+01 1.402206325531005859e+01 3.966047325623667241e-13 -5.878128794259071532e-14 1.013470313530537292e-13 9.450621878224086531e-17
2.386000000000000000e+03 3.026795768737792969e+01 1.300589752197265625e+01 1.210382976572083047e-13 -2.226321340823012029e-13 -3.047815296040694288e-14 -1.678893569306838529e-13
2.387000000000000000e+03 2.927130889892578125e+01 1.293613529205322266e+01 2.145387546000770973e-13 -3.958879868349272912e-14 5.248498711378848935e-14 -1.531261554187091090e-13
2.388000000000000000e+03 8.725405693054199219e+00 1.894742965698242188e+01 1.162648536473520622e-13 2.695232241328639894e-14 4.296515332641130669e-14 1.306961808743289932e-13
2.389000000000000000e+03 1.077895927429199219e+01 1.880559158325195312e+01 1.967864636027343364e-15 9.234526663313979977e-14 2.829393959250837975e-14 1.041155958106040891e-13
2.390000000000000000e+03 1.166251277923583984e+01 2.057973098754882812e+01 2.048293040171275670e-13 -3.717907549888191734e-15 6.033341822019380740e-14 3.665355508258166806e-13
2.391000000000000000e+03 1.052258396148681641e+01 2.130784988403320312e+01 2.637104944136492435e-13 -1.042982228902956943e-13 4.782368348988513818e-14 7.640498070381543383e-14
2.392000000000000000e+03 4.796565246582031250e+01 2.454465675354003906e+01 -3.993647521515451826e-14 7.438626402128320492e-14 1.033493698065178490e-14 2.534245667593255924e-14
2.393000000000000000e+03 1.076077938079833984e+01 5.589283466339111328e+00 -1.177981509944059021e-14 8.645340709599255713e-14 2.240207666722934809e-14 2.941580423796059940e-14
2.394000000000000000e+03 6.535385131835937500e+01 1.191993832588195801e+00 1.086027833418698463e-13 -2.208237424568357948e-14 2.595612188182293278e-14 2.364779955242677506e-14
2.395000000000000000e+03 6.551852416992187500e+01 2.576059913635253906e+01 2.824740021425443948e-14 -7.939586759309752440e-14 -1.534454055246610438e-14 8.943758548433239364e-14
2.396000000000000000e+03 2.852823257446289062e+01 1.187886047363281250e+01 5.901666823423731834e-14 -1.805864079150801271e-13 -3.647092461475827385e-14 -2.497889861532293088e-13
2.397000000000000000e+03 2.787219810485839844e+01 1.210030460357666016e+01 8.989553892946311464e-14 2.215304491497843697e-13 9.342779506852152971e-14 8.525747450150063245e-15
2.398000000000000000e+03 4.728245544433593750e+01 2.407881355285644531e+01 -1.588843396042524669e-14 2.750388316348408718e-14 3.484634464456120607e-15 2.064426239548403097e-13
2.399000000000000000e+03 6.865526580810546875e+01 2.109489440917968750e+01 -5.130704211096445699e-14 -2.964944370749400537e-13 -1.043404390123868486e-13 4.496168452198905097e-14
2.400000000000000000e+03 6.664411163330078125e+01 2.182079124450683594e+01 -1.045118784809111190e-13 -1.362926969634276064e-13 -7.224137331092797543e-14 1.428492063136263535e-13
2.401000000000000000e+03 5.743314743041992188e+01 3.468764781951904297e+00 3.798050334522309890e-14 1.627735930255242575e-14 1.627735930255242575e-14 -6.146663310713923467e-14
2.402000000000000000e+03 5.948722076416015625e+01 3.689936161041259766e+00 8.121055775555871548e-14 -1.094642531186771489e-14 2.107923820844799512e-14 -8.724609440935102156e-14
2.403000000000000000e+03 6.448519134521484375e+01 2.446767234802246094e+01 -3.822539412280147320e-14 -1.536351612336367412e-13 -5.755816559049192760e-14 -3.098342505410307812e-14
2.404000000000000000e+03 6.511975097656250000e+01 2.487011337280273438e+01 4.627514463197840433e-14 -1.631715867023847411e-13 -3.506893262112190102e-14 5.232422703666320118e-14
2.405000000000000000e+03 5.264974975585937500e+01 3.966526269912719727e+00 1.364930033147943034e-13 1.499988962249190760e-13 8.594757257241944504e-14 2.052469929040776075e-14
2.406000000000000000e+03 5.340191268920898438e+01 1.935464286804199219e+01 -3.696330656106309315e-15 1.814196579422167055e-13 5.331699708469028742e-14 -2.054314021410902358e-13
2.407000000000000000e+03 3.533750534057617188e+00 2.695099830627441406e+01 -1.653412920899627325e-13 -4.826190987648748543e-13 -1.943881118354404136e-13 2.530247333269036725e-14
2.408000000000000000e+03 6.871369934082031250e+01 2.235199213027954102e-01 2.668117192027724682e-14 -2.173199500129369133e-13 -5.719163749355604676e-14 7.553348544504442930e-14
2.409000000000000000e+03 7.043495941162109375e+01 1.248703002929687500e+00 1.083492020062526429e-14 -4.110741017330707403e-14 -9.081747500024311276e-15 3.655744055999082809e-14
2.410000000000000000e+03 7.404695892333984375e+01 1.265412807464599609e+01 3.828488294075303722e-14 1.536606535372173066e-13 5.758365789407249302e-14 1.252300400964717619e-13
2.411000000000000000e+03 5.380918121337890625e+01 1.867059516906738281e+01 7.842507296785400372e-14 2.452088824957815438e-13 9.709018934959609548e-14 -1.736050674961200913e-13
2.412000000000000000e+03 3.305475997924804688e+01 2.543855094909667969e+01 -3.970901637563063746e-14 1.202347005594892049e-13 2.415770322227849681e-14 -1.210479368921480586e-14
2.413000000000000000e+03 5.478768157958984375e+01 1.633493614196777344e+01 6.211953965541000544e-14 -3.056602415835510400e-14 9.466055665556007137e-15 -1.223006342466331775e-13
2.414000000000000000e+03 5.551388931274414062e+01 1.952705955505371094e+01 -8.142760825422673543e-14 -2.179013398754051090e-13 -8.979868579414226892e-14 -1.151316861942516812e-13
2.415000000000000000e+03 5.421173477172851562e+01 4.903007030487060547e+00 2.205611859601094848e-13 3.161866927135770222e-14 7.565395385893472491e-14 6.182198036917135875e-14
2.416000000000000000e+03 4.146059036254882812e+01 8.305934906005859375e+00 -8.851454996478685944e-14 5.356709203269659214e-14 -1.048423754903366964e-14 -1.504004033944447705e-13
2.417000000000000000e+03 4.147833633422851562e+01 7.596008300781250000e+00 3.746823137125085412e-14 6.180875987893061363e-14 2.978309805268079813e-14 -6.322779756359753200e-14
2.418000000000000000e+03 6.545996856689453125e+01 1.883217811584472656e+00 1.987570942248509387e-13 8.518161761887632633e-14 8.518161761887632633e-14 1.289617148963681514e-13
2.419000000000000000e+03 8.787725448608398438e+00 8.355564117431640625e+00 -1.626188570467198419e-14 -1.099090165667532260e-13 -3.785126983439461579e-14 1.909642555848398149e-15
2.420000000000000000e+03 2.240468406677246094e+01 1.463348293304443359e+01 2.112835866549880870e-13 3.336142261967448008e-14 7.339350074951969671e-14 -1.546096285937395565e-13
2.421000000000000000e+03 2.332976722717285156e+01 1.483446121215820312e+01 3.196206320443817361e-13 1.141047976591091917e-13 1.301176234900364159e-13 -1.828733968726667380e-13
2.422000000000000000e+03 3.426544570922851562e+01 2.174205589294433594e+01 2.328061585198971939e-15 -2.277569951213143096e-13 -6.762868260193344305e-14 -1.723318617799160513e-13
2.423000000000000000e+03 5.623673248291015625e+01 7.755391120910644531e+00 8.848689772719079555e-15 -6.054497316910004145e-14 -1.550888527302417275e-14 4.669188823015930911e-14
2.424000000000000000e+03 4.915161895751953125e+01 3.558822631835937500e+00 4.238807316757874089e-14 -3.044406496647764082e-14 3.583201782703972216e-15 7.897389610756616607e-15
2.425000000000000000e+03 5.879752349853515625e+01 1.307177257537841797e+01 1.820677838365331730e-14 1.679312206870689494e-13 5.584140260112870069e-14 3.937982210287793716e-14
2.426000000000000000e+03 5.882387924194335938e+01 1.403516292572021484e+01 6.666215702274408406e-14 5.694021016272371102e-15 2.170685404697964699e-14 5.741170342951629202e-14
2.427000000000000000e+03 3.786336421966552734e+00 2.994433975219726562e+01 5.270250432761044643e-15 -6.611300591187474485e-13 -1.967579473915320731e-13 7.977531124841313881e-14
2.428000000000000000e+03 5.298399353027343750e+01 1.995892143249511719e+01 1.200965054400787713e-13 4.003219671445783223e-14 4.803861301805323336e-14 -1.042987717676455151e-13
2.429000000000000000e+03 3.732452011108398438e+01 1.398181152343750000e+01 1.998394939112246860e-13 9.994267105529683337e-14 8.993465152283552921e-14 1.265914592119346538e-13
2.430000000000000000e+03 3.253537368774414062e+01 1.590170574188232422e+01 5.625253206493520397e-14 1.232753222588187526e-15 1.724558572389987138e-14 -1.489826328710669445e-13
2.431000000000000000e+03 7.158831024169921875e+01 1.875295829772949219e+01 -1.777689594920778271e-13 -3.043574710293560359e-14 -6.246140892918541909e-14 4.159639212936161456e-14
2.432000000000000000e+03 5.505467987060546875e+01 6.620373725891113281e+00 1.139181929126972803e-13 4.882208122481378199e-14 4.882208122481378199e-14 1.220703361526701003e-13
2.433000000000000000e+03 4.676045608520507812e+01 2.061568069458007812e+01 1.728943729720558431e-13 -2.118458403491119135e-13 -1.168544122955635783e-14 -3.509327634802598961e-14
2.434000000000000000e+03 4.814932632446289062e+01 2.042875862121582031e+01 1.287151537698177917e-13 9.412688354714249944e-15 4.143835272206290721e-14 5.877871296243106225e-14
2.435000000000000000e+03 3.781475067138671875e+01 1.343909358978271484e+01 1.612321929612969829e-13 1.491636675288177116e-13 9.311876356804527077e-14 2.294983762762565355e-14
2.436000000000000000e+03 6.134480667114257812e+01 5.659883499145507812e+00 -8.300767029029848532e-14 5.592718332176303819e-14 -8.124145412934276334e-15 1.743913952861105704e-14
2.437000000000000000e+03 7.380994319915771484e+00 1.161643028259277344e+01 -1.032473125007690729e-13 -1.815016913890923900e-13 -8.542470252221115445e-14 -5.795590515746823490e-14
2.438000000000000000e+03 7.708334445953369141e+00 1.079763412475585938e+01 5.349151636501077445e-14 1.601777792435005177e-13 6.410079037661928214e-14 3.473392092608745818e-14
2.439000000000000000e+03 9.761761665344238281e+00 1.774883270263671875e+01 -4.056314068271935080e-14 -4.025967927090423615e-14 -2.424684496964753938e-14 1.706378365429889188e-14
2.440000000000000000e+03 4.602692794799804688e+01 3.530818939208984375e+01 5.894072664831828678e-14 4.813578463776224670e-14 3.212295541870323345e-14 -5.323293075874119262e-14
2.441000000000000000e+03 4.634917449951171875e+01 3.281964874267578125e+01 -3.616288583689619696e-14 7.600351419187120761e-14 1.195218884530568210e-14 3.089545221220124649e-14
2.442000000000000000e+03 6.276445388793945312e+01 5.595398426055908203e+00 -7.178924067621078597e-14 -3.076681840069941942e-14 -3.076681840069941942e-14 1.849224203940517258e-14
2.443000000000000000e+03 6.285151672363281250e+01 1.679678440093994141e+00 1.748382254945779479e-13 -1.523943596098628617e-13 6.733160188930999504e-15 -1.000483672145870140e-13
2.444000000000000000e+03 8.954895973205566406e+00 4.140986919403076172e+00 4.923141159064031713e-14 3.184803495145244190e-13 1.103135256210439896e-13 4.263429548095019894e-14
2.445000000000000000e+03 7.348906707763671875e+01 1.161150932312011719e+01 1.828856364987545627e-15 1.837875961445065154e-13 5.568493528698009731e-14 1.089576020553428837e-13
2.446000000000000000e+03 7.333868408203125000e+01 9.795390129089355469e+00 -2.587579097117122945e-14 -1.940934256849588535e-13 -6.599076482743243544e-14 -3.254866613118024589e-15
2.447000000000000000e+03 3.164922332763671875e+01 2.844011116027832031e+01 1.689099570932259264e-13 3.763556272998094115e-15 5.180205155347165913e-14 -3.431340972535716627e-14
2.448000000000000000e+03 3.491886901855468750e+01 2.073957252502441406e+01 -6.346177940384821817e-15 -2.719790606381562725e-15 -2.719790606381562725e-15 -2.152691002885176452e-13
2.449000000000000000e+03 4.185440063476562500e+01 5.621222972869873047e+00 -6.088864492898721226e-14 6.540676610348669651e-14 1.355434827690540217e-15 -4.564031037867025131e-14
2.450000000000000000e+03 7.463644409179687500e+01 -5.768898725509643555e-01 1.206908921760896369e-13 2.804794157346135464e-13 1.203510896627055238e-13 4.354393093927017011e-15
2.451000000000000000e+03 6.072150039672851562e+01 2.715185403823852539e+00 8.863150827414373323e-14 -3.064149140582367314e-14 1.739700472168283912e-14 -1.204869808524994257e-14
2.452000000000000000e+03 6.440914154052734375e+01 3.721001815795898438e+01 -6.753196499188415802e-14 6.255962409348544973e-14 -1.491702311871259852e-15 8.629298074984848715e-15
2.453000000000000000e+03 4.830031967163085938e+01 2.525065422058105469e+00 4.136599239144486684e-14 6.347923082366049852e-14 3.145356560927889400e-14 7.153284719120869828e-14
2.454000000000000000e+03 6.040076065063476562e+01 2.033372879028320312e+01 -1.521207747441633007e-13 1.406846508863676681e-13 -3.430837707910105484e-15 -1.091063393468148443e-14
2.455000000000000000e+03 1.998192024230957031e+01 5.406223773956298828e+00 5.072435459402106772e-14 -1.612647867891073283e-13 -3.316212931971269928e-14 -2.215199865988198846e-13
2.456000000000000000e+03 9.858321189880371094e+00 4.945010662078857422e+00 3.794072667802003695e-14 2.450150542523954478e-13 8.488673495675100322e-14 8.970575611543310512e-14
2.457000000000000000e+03 8.186408042907714844e+00 6.221708774566650391e+00 5.031397390733993724e-14 -6.993876506579399521e-14 -5.887438025162575195e-15 1.679478902954709141e-13
2.458000000000000000e+03 5.131476211547851562e+01 3.173855590820312500e+01 1.353894616860570888e-13 1.552448219890173453e-13 8.719028510252233022e-14 -6.985478683127141486e-14
2.459000000000000000e+03 4.237473678588867188e+01 1.556343078613281250e+01 1.097805589381044278e-13 4.704881097347332619e-14 4.704881097347332619e-14 7.207078087535095934e-14
2.460000000000000000e+03 5.906179428100585938e+01 9.591005325317382812e+00 5.490480100189994161e-14 6.928157591894190670e-14 3.725591409269209120e-14 -1.099815632446196623e-13
2.461000000000000000e+03 5.151729202270507812e+01 3.435663604736328125e+01 9.468317243525176119e-14 9.204831721062317618e-14 5.601944892664155462e-14 -4.068680410488668964e-14
2.462000000000000000e+03 5.612541580200195312e+01 4.372782707214355469e+00 1.137675701258847316e-13 4.875753053796942627e-14 4.875753053796942627e-14 -6.665898573138956396e-14
2.463000000000000000e+03 5.396388244628906250e+01 3.800132036209106445e+00 2.215452349569116408e-13 9.494796171082703351e-14 9.494796171082703351e-14 9.901231717108702202e-14
2.464000000000000000e+03 4.400606632232666016e+00 3.180694007873535156e+01 4.234608743844923973e-14 -3.478592739379615661e-13 -9.165395222290873001e-14 1.651005721026166384e-13
2.465000000000000000e+03 5.522415161132812500e+01 1.556005096435546875e+01 -4.537346111896725653e-14 2.893731261555121392e-13 7.319990289909525383e-14 -1.006325556739129379e-13
2.466000000000000000e+03 5.909009170532226562e+01 2.092737197875976562e+01 -9.801176797247235228e-14 1.981874408508998986e-13 3.005270186352826389e-14 -3.834876616563495655e-14
2.467000000000000000e+03 2.193814849853515625e+01 3.318689727783203125e+01 7.025071713587238698e-14 -1.071453987816148312e-13 -1.106840313847001767e-14 -8.189540761033634042e-14
2.468000000000000000e+03 4.241683197021484375e+01 1.083220005035400391e+01 1.228742856160952579e-13 6.909461626572509577e-15 3.893512641743764047e-14 -1.016231369888043190e-13
2.469000000000000000e+03 3.755213975906372070e+00 2.912805747985839844e+01 -1.119561732275224653e-13 -5.054907230642169402e-13 -1.852340573678737390e-13 -1.091631058008739330e-13
2.470000000000000000e+03 7.475469589233398438e+00 3.773871994018554688e+01 1.016964803011576480e-15 -1.253792669729872356e-13 -3.730869102156961215e-14 -3.538173850041112511e-14
2.471000000000000000e+03 5.294277572631835938e+01 2.468407821655273438e+01 -6.463041805568076753e-15 -2.564534888160711901e-14 -9.632517121449264003e-15 -6.175151400422337900e-14
2.472000000000000000e+03 2.031342124938964844e+01 2.177976226806640625e+01 9.628441707126844662e-14 -1.417390374991098212e-13 -1.363638680597877018e-14 -1.765344733459586757e-13
2.473000000000000000e+03 1.837054252624511719e+01 2.257665061950683594e+01 2.223655457087459625e-14 5.528090057113979605e-14 2.325523705082408604e-14 -9.611396693722656925e-14
2.474000000000000000e+03 3.310711288452148438e+01 2.734083557128906250e+01 1.744933949936189332e-13 -1.671901413971207950e-14 4.733231290091934051e-14 7.057619547508548266e-15
2.475000000000000000e+03 6.839176177978515625e+01 2.178700685501098633e+00 5.714764599040744741e-14 7.024279568374966476e-14 3.821713046936806024e-14 1.410087595733050536e-13
2.476000000000000000e+03 6.334682464599609375e+01 2.327619171142578125e+01 -8.225382451976931408e-14 5.625025862850477343e-14 -7.801069259159593844e-15 -7.257721171011893846e-14
2.477000000000000000e+03 3.937623977661132812e+01 1.183601093292236328e+01 3.575810437680959630e-13 -2.975477665905640334e-14 9.834787742220643669e-14 -2.735640964516942997e-14
2.478000000000000000e+03 3.887910079956054688e+01 1.340507602691650391e+01 1.996986831540731311e-13 -5.166769518737818201e-14 4.440929706763484253e-14 5.837883887242767411e-14
2.479000000000000000e+03 4.611035156250000000e+01 3.726044082641601562e+01 9.649210277367162303e-14 9.854244427832253850e-14 5.851036614847732187e-14 -6.625639435969138402e-14
2.480000000000000000e+03 2.714347076416015625e+01 1.238524818420410156e+01 5.940513787263887457e-14 -6.604255580995935238e-14 -1.991224957679669713e-15 -1.548473128150026912e-13
2.481000000000000000e+03 5.960702133178710938e+01 1.883877754211425781e+01 -6.570387138006561489e-14 1.090940421224866064e-13 1.301705156153947635e-14 -5.679318641890404584e-14
2.482000000000000000e+03 5.791305160522460938e+01 2.073762702941894531e+01 -1.406694042933170907e-13 -1.289133052693666737e-13 -8.087481422405784492e-14 -1.017145894420534713e-13
2.483000000000000000e+03 3.495938491821289062e+01 2.328433609008789062e+01 6.912802748032954164e-15 8.874566121037930078e-14 2.869753723934789780e-14 -7.323217824251743169e-14
2.484000000000000000e+03 2.286056137084960938e+01 1.288417148590087891e+01 -2.331586597512265435e-14 -2.844982008223112535e-13 -9.234422308854878247e-14 -1.126013683878414329e-13
2.485000000000000000e+03 1.901484489440917969e+01 1.887355804443359375e+01 2.509896316390397564e-13 -3.041915677681750196e-13 -1.596057745060878996e-14 -1.775888430180418837e-14
2.486000000000000000e+03 3.779906988143920898e+00 3.317094421386718750e+01 7.012484973397629245e-15 -5.002551107732844393e-13 -1.479727798625596336e-13 -9.021482799893062315e-15
2.487000000000000000e+03 3.159779310226440430e+00 1.103228664398193359e+01 2.464294298677206785e-14 1.056126164305929219e-14 1.056126164305929219e-14 -9.967647401096322440e-15
2.488000000000000000e+03 4.210777282714843750e+01 7.328315734863281250e+00 -5.359993658225932489e-14 2.515342806003878495e-13 5.938030964288895652e-14 9.708074323816831552e-14
2.489000000000000000e+03 3.303915023803710938e+00 2.027865219116210938e+01 3.884008932075570797e-14 -3.036108961896460956e-13 -7.943123968897486398e-14 7.432756802617027092e-14
2.490000000000000000e+03 7.163153171539306641e+00 1.528145217895507812e+01 7.934776967422063620e-14 3.085118694800409456e-13 1.163578917462784745e-13 1.701385343375050319e-13
2.491000000000000000e+03 6.890548706054687500e+01 4.357713222503662109e+00 6.427418818531760447e-14 -1.097067654277396331e-13 -1.362977401975955585e-14 1.441025440250195966e-13
2.492000000000000000e+03 4.862996292114257812e+01 2.663715171813964844e+01 -1.262639827219989852e-14 5.177737240152045783e-14 1.174529173057639944e-14 -2.203097120424650501e-14
2.493000000000000000e+03 5.747696304321289062e+01 1.596661853790283203e+01 -6.877485709297186112e-15 8.855440117088927976e-14 2.450307582432375425e-14 -8.722324484856588955e-14
2.494000000000000000e+03 5.919163894653320312e+01 1.728349304199218750e+01 6.787121862791845039e-14 1.205895599305437105e-13 5.653823288991229046e-14 6.196222192018235875e-14
2.495000000000000000e+03 5.648079681396484375e+01 2.054179573059082031e+01 5.585789941480942544e-14 3.899467012312418657e-13 1.337413795161890295e-13 -7.040728948210644988e-14
2.496000000000000000e+03 4.817287826538085938e+01 2.558131027221679688e+01 -1.991983136870757037e-14 1.744667236201757898e-13 4.636406953891294980e-14 -3.968127435254216462e-14
2.497000000000000000e+03 2.187444496154785156e+01 2.862236022949218750e+01 7.331711362427040940e-15 -4.260878623671068843e-14 -1.058312271639497842e-14 1.434961395855530869e-14
2.498000000000000000e+03 5.270119094848632812e+01 2.051372528076171875e+01 7.234270555647390188e-14 -6.049787813723270236e-14 3.553448056365770408e-15 -1.941294652427986295e-14
2.499000000000000000e+03 7.562606048583984375e+01 1.493385982513427734e+01 6.272613721838848910e-14 1.641354695387786666e-13 6.805848067189743111e-14 -9.626787621187446464e-14
2.500000000000000000e+03 6.583140563964843750e+01 4.742073059082031250e+00 -1.951241868547361896e-14 -9.986436455338906781e-14 -3.581303412462585878e-14 1.510930052947556668e-13
2.501000000000000000e+03 6.776690673828125000e+01 3.004889726638793945e+00 7.474432178874654276e-15 1.404561688310435041e-13 4.437918335229405764e-14 6.979771036315363109e-14
2.502000000000000000e+03 4.257207489013671875e+01 1.148810577392578125e+01 1.016539689880843755e-13 2.265697801899155261e-13 9.846712610865268611e-14 -9.041634221928010473e-14
2.503000000000000000e+03 4.266330337524414062e+01 1.216883659362792969e+01 9.730803944736632349e-14 8.745439675173979910e-14 5.542873153735819458e-14 5.077231698762639522e-14
2.504000000000000000e+03 4.394405364990234375e+01 1.773738670349121094e+01 4.958280490287465814e-14 2.957554719792282460e-13 1.036014806929386189e-13 7.014468893966688268e-14
2.505000000000000000e+03 4.049172592163085938e+01 1.410329627990722656e+01 1.781896705925836710e-13 -1.513489481582298152e-14 4.891643391887433301e-14 5.063624961497946442e-14
2.506000000000000000e+03 6.483251571655273438e+00 1.298825359344482422e+01 -6.982583863326605189e-14 -1.843348065334871055e-13 -7.624819829341045185e-14 1.222936428366865405e-14
2.507000000000000000e+03 1.967328643798828125e+01 2.088858985900878906e+01 9.160045362196014840e-14 -9.799550493988506972e-14 -1.918515649487360572e-15 -1.137155419741325835e-13
2.508000000000000000e+03 3.241972732543945312e+01 2.702051162719726562e+01 -8.558567943977093972e-14 -1.281814688029389582e-13 -6.413014515043932717e-14 1.092691899012539561e-14
2.509000000000000000e+03 2.884008407592773438e+01 1.245568847656250000e+01 2.686419066800366240e-13 2.363034728558154746e-14 8.768167263214707297e-14 3.443871300331038943e-14
2.510000000000000000e+03 5.562076568603515625e+01 1.474527263641357422e+01 1.427663127047927322e-15 1.204959255204224311e-14 4.043176671963315608e-15 -2.335726894558444455e-14
2.511000000000000000e+03 4.689321517944335938e+01 3.425619506835937500e+01 2.633811171817799363e-14 1.142273938197629901e-13 4.216965386366795798e-14 4.506587973889669696e-14
2.512000000000000000e+03 3.527101898193359375e+01 1.436419296264648438e+01 4.176289034648478227e-13 -9.738850249515779850e-15 1.223670145246436025e-13 1.853988018879829114e-13
2.513000000000000000e+03 4.115955352783203125e+01 1.304465007781982422e+01 2.458976490309072727e-13 3.675828562431197877e-14 8.479678005775259653e-14 -1.188610418179384884e-14
2.514000000000000000e+03 7.141047668457031250e+01 6.338911533355712891e+00 -8.701548460726335477e-14 -1.287942463183006092e-13 -6.474291588953740018e-14 1.571398312036689782e-13
2.515000000000000000e+03 7.095874786376953125e+01 5.657977104187011719e+00 -5.876935494242979674e-14 -2.311392823829954563e-15 -1.832422458398780957e-14 9.896722791323878110e-14
2.516000000000000000e+03 6.002851867675781250e+01 2.105051612854003906e+01 -2.563586211259787084e-14 4.465227016262063309e-13 1.262660494823902857e-13 -4.513220580679849769e-14
2.517000000000000000e+03 3.835613632202148438e+01 1.392175960540771484e+01 2.356711830894808735e-13 3.737952330475080576e-14 8.191521462877493498e-14 1.983599103114880302e-13
2.518000000000000000e+03 6.994948577880859375e+01 2.223869895935058594e+01 -1.129682962843284177e-13 4.308691261851321785e-14 -2.096441442211820216e-14 -3.090844230948033844e-14
2.519000000000000000e+03 3.361225891113281250e+01 1.778502273559570312e+01 -5.432662308836773424e-14 3.427247634996133385e-13 8.651944178456050238e-14 -1.411604936673444000e-13
2.520000000000000000e+03 4.273362350463867188e+01 1.860609245300292969e+01 -1.002320344507378475e-14 2.702100424922110333e-13 7.805605120592140622e-14 1.195590935282320189e-13
2.521000000000000000e+03 2.904364967346191406e+01 1.164828395843505859e+01 3.440737617239376933e-14 -1.225068223947856083e-13 -2.642983522197026730e-14 1.337978800019026804e-13
2.522000000000000000e+03 5.903350830078125000e+01 1.576118850708007812e+01 1.177527584987625442e-13 2.334692497923257504e-13 1.053666024873264884e-13 1.226170722032002280e-13
2.523000000000000000e+03 7.202287292480468750e+01 4.305781722068786621e-01 6.054978431624044588e-14 7.170085787036248326e-14 3.967519265598087874e-14 -1.130859389963066730e-13
2.524000000000000000e+03 6.985811614990234375e+01 1.090115189552307129e+00 4.959057388906687458e-14 -1.622370590633273341e-15 1.439046127540370007e-14 -1.858844295935663249e-14
2.525000000000000000e+03 3.629154968261718750e+01 1.412392234802246094e+01 2.957358208148519463e-13 3.524202549795921180e-14 9.929334915045884280e-14 1.794616972389251330e-13
2.526000000000000000e+03 4.518455886840820312e+01 1.955768203735351562e+01 1.012727973855563623e-13 2.721573780142122478e-13 1.120290519423042253e-13 8.077352941235696471e-14
2.527000000000000000e+03 4.296911621093750000e+01 1.921423912048339844e+01 1.159633675163699446e-14 2.108491332919459893e-13 6.673363982722876897e-14 6.456364983658050005e-14
2.528000000000000000e+03 7.151051330566406250e+01 5.864436149597167969e+00 -4.156032546646752646e-14 5.081485498223750619e-14 2.776359278247467546e-15 3.106691200951625098e-14
2.529000000000000000e+03 7.075406646728515625e+01 6.237751483917236328e+00 1.392646340316137238e-14 -3.978246429655295235e-14 -7.756800776237242345e-15 1.392070595081229545e-13
2.530000000000000000e+03 5.790556716918945312e+01 1.315915966033935547e+01 1.644681840804601558e-14 1.443014815711435306e-13 4.822448931613050604e-14 2.158195056857752786e-14
2.531000000000000000e+03 5.818613433837890625e+01 1.502779960632324219e+01 5.542884334570723215e-14 -6.774667767961775611e-14 -3.695351062502809716e-15 -4.846816036626483415e-14
2.532000000000000000e+03 2.872442626953125000e+01 1.341257572174072266e+01 3.330716778771058983e-13 1.084317911067417262e-13 1.324510434056597186e-13 -8.780571891320657074e-14
2.533000000000000000e+03 3.332685470581054688e+01 1.462283897399902344e+01 1.833263765403311818e-13 1.243193915867468746e-13 9.229373314862884814e-14 -2.487319449392304607e-15
2.534000000000000000e+03 1.390566539764404297e+01 4.467968463897705078e+00 -8.441288439726621351e-14 5.532494628439701967e-14 -8.726380756234400349e-15 -2.124641879531347088e-14
2.535000000000000000e+03 2.050248718261718750e+01 2.013802719116210938e+01 1.252850091466167770e-13 -1.979366377833496893e-13 -2.179549096271212599e-14 -1.654419331566236995e-13
2.536000000000000000e+03 6.560551452636718750e+01 3.384890747070312500e+01 7.053229799259402855e-15 2.089020823730150522e-13 6.478659568456140994e-14 6.896850576537313926e-15
2.537000000000000000e+03 6.648210906982421875e+01 3.266972732543945312e+01 -2.116958613073392781e-14 1.739311141944407946e-13 4.582846011317795454e-14 6.849540737114551137e-14
2.538000000000000000e+03 6.033995056152343750e+01 9.792090415954589844e+00 -6.549383431420086055e-14 1.091840580078572154e-13 1.310706744691008535e-14 -2.183112225067132539e-14
2.539000000000000000e+03 3.620592355728149414e+00 2.763372230529785156e+01 -1.011251764835088829e-13 -2.263431548308117436e-13 -9.824050074954890355e-14 -1.987675432232882677e-13
2.540000000000000000e+03 4.326142120361328125e+01 1.983563995361328125e+01 4.637492172503317189e-14 1.800032833291359546e-13 6.791346185506391686e-14 6.325896159979291222e-14
2.541000000000000000e+03 2.572308540344238281e+01 1.328146266937255859e+01 2.374271298229840843e-13 4.220111131207626709e-13 1.978314701726185953e-13 -8.542288648357224123e-14
2.542000000000000000e+03 2.627642059326171875e+01 1.191850376129150391e+01 -8.375084344569225236e-14 -1.273951105197623779e-13 -6.334378686726274688e-14 -1.903444172028298520e-13
2.543000000000000000e+03 2.114257240295410156e+01 3.663142776489257812e+01 9.871701438061986078e-14 -9.494555613725683130e-14 1.131439294129745442e-15 8.593311880220749766e-15
2.544000000000000000e+03 3.301097869873046875e+01 3.060166168212890625e+01 3.981214094289295402e-14 1.314397131716923961e-13 5.137555691200196284e-14 3.398109498322678113e-14
2.545000000000000000e+03 4.936833190917968750e+01 3.092068672180175781e+01 6.332136421108303104e-14 -6.436417018937032331e-14 -3.128418252499232024e-16 -4.499622313744629232e-14
2.546000000000000000e+03 2.228217315673828125e+01 8.532412528991699219e+00 -3.554190226634154626e-14 -6.098319413469152628e-14 -2.895752892030992176e-14 -2.446443587533590758e-14
2.547000000000000000e+03 8.373133659362792969e+00 9.143753051757812500e+00 1.311167293445089643e-13 -3.530901225155987089e-14 2.874231478907154913e-14 4.212954515954957235e-14
2.548000000000000000e+03 3.449148941040039062e+01 2.404326248168945312e+01 4.519698688660450658e-14 -2.638081234311497741e-14 5.644852024233679849e-15 -1.769743748249175130e-13
2.549000000000000000e+03 4.257881927490234375e+01 7.847049713134765625e+00 -4.261869991032535276e-14 -3.613972727849190658e-13 -1.212047904533206100e-13 -3.788176302049577060e-14
2.550000000000000000e+03 5.249748611450195312e+01 2.524505615234375000e+01 1.261304157906123491e-13 1.455577872859839528e-13 8.150646363348432177e-14 4.946009693387182216e-14
2.551000000000000000e+03 4.770403671264648438e+01 2.347270774841308594e+01 1.064659563851724777e-13 1.371301618265097222e-13 7.307883817401009119e-14 1.119758447206894991e-13
2.552000000000000000e+03 4.265631103515625000e+01 2.003381538391113281e+01 1.821291462913640635e-13 7.805534647450929064e-14 7.805534647450929064e-14 1.579555442606656035e-13
2.553000000000000000e+03 4.144243621826171875e+01 1.993589973449707031e+01 1.468600089628291361e-13 2.459438089384008430e-13 1.178411480808744249e-13 1.424819599327512010e-13
2.554000000000000000e+03 4.927705383300781250e+01 3.634754562377929688e+01 2.761406351519703206e-14 5.758554847161076462e-14 2.555988325722916010e-14 -7.311171660489071411e-15
2.555000000000000000e+03 5.069170379638671875e+01 3.388779449462890625e+01 1.196154449361469529e-13 -2.308153261619885765e-14 2.896017166310535518e-14 -4.402723438644631782e-14
2.556000000000000000e+03 5.735346603393554688e+01 9.721776008605957031e+00 7.030749968355747351e-15 2.588865231944233875e-14 9.875820559284483741e-15 3.785394307037615036e-14
2.557000000000000000e+03 5.390452861785888672e+00 2.124820899963378906e+01 7.060617281812175960e-14 -2.914265779651453725e-13 -6.624612154410708387e-14 -4.024478419652676928e-15
2.558000000000000000e+03 3.987543869018554688e+01 1.940238952636718750e+01 2.000467798140767584e-13 8.573433033388228042e-14 8.573433033388228042e-14 1.554318671925618289e-14
2.559000000000000000e+03 3.911192703247070312e+01 1.983162117004394531e+01 3.865931893728448421e-14 2.796362317050715696e-13 9.548866688677271064e-14 6.902137417380896367e-14
2.560000000000000000e+03 4.730582427978515625e+01 2.176589202880859375e+01 1.515335572950179954e-13 -1.180608345460743003e-13 1.004181699408969800e-14 4.173983885304502484e-14
2.561000000000000000e+03 4.249755477905273438e+01 1.798264503479003906e+01 8.697989567095151808e-14 1.059035197319320443e-13 5.786502868662321553e-14 1.172749506013481824e-13
2.562000000000000000e+03 7.658208465576171875e+01 3.979527664184570312e+01 4.132787252068663431e-14 1.149327079905462790e-13 4.687817449218305288e-14 4.549267592409561578e-14
2.563000000000000000e+03 3.079437637329101562e+01 3.231182098388671875e+01 3.335278288361248622e-14 -8.581425466871930169e-15 7.431407140318872090e-15 -8.129337047274587391e-14
2.564000000000000000e+03 3.464173126220703125e+01 1.922780609130859375e+01 -4.607853134426173614e-14 3.127532150157285619e-15 -1.288529982175880620e-14 -2.548430487903791120e-13
2.565000000000000000e+03 4.828672409057617188e+01 2.714544105529785156e+01 1.400102229249730601e-13 2.430081689260704669e-13 1.149055216210712049e-13 9.134988094737159225e-14
2.566000000000000000e+03 5.167575454711914062e+01 2.890780639648437500e+01 5.979164239460280084e-14 -3.156369344494910911e-14 8.468385531929054771e-15 3.108232292695859572e-15
2.567000000000000000e+03 4.296959686279296875e+01 1.712105941772460938e+01 3.084051704337412159e-14 1.504702124618256809e-13 5.439321681868086733e-14 8.511292663498579159e-14
2.568000000000000000e+03 4.201511764526367188e+01 2.010929489135742188e+01 2.612214542168245918e-14 2.399499598581406046e-13 7.982162700996900395e-14 9.854638806372495452e-15
2.569000000000000000e+03 4.056537151336669922e+00 3.448740386962890625e+01 7.382251277290863278e-14 -4.258712794306257488e-13 -1.056146272868097036e-13 -7.149607240877070558e-14
2.570000000000000000e+03 4.806066131591796875e+01 3.548900604248046875e+00 9.085783612017978017e-15 1.011146732749629296e-13 3.306013638846791447e-14 2.395162518840920907e-14
2.571000000000000000e+03 3.616719436645507812e+01 3.663080978393554688e+01 9.313497239052392906e-14 1.085414107226435887e-13 6.050291290107118192e-14 2.336152274504555565e-14
2.572000000000000000e+03 3.395830917358398438e+01 3.559579467773437500e+01 2.877806974384104766e-14 6.952214682848928407e-14 2.949006531051227842e-14 -1.351870428345199396e-14
2.573000000000000000e+03 1.263623714447021484e+01 3.921070098876953125e+01 7.076092234945333126e-14 -1.542483927586581205e-14 1.660082424444989796e-14 -6.689665047089491182e-17
2.574000000000000000e+03 5.722453308105468750e+01 3.904014968872070312e+01 8.312627523170482147e-14 -1.012540135829180510e-14 2.190026385608979942e-14 -5.499250956952222991e-14
2.575000000000000000e+03 5.300937652587890625e+01 3.677535629272460938e+01 6.353152324969219000e-14 5.010326937951274651e-14 3.409044016045373326e-14 6.800974578424420769e-14
2.576000000000000000e+03 6.564974975585937500e+01 3.508695983886718750e+01 -2.780225221322030899e-14 2.168394993727271181e-13 5.671117330081909547e-14 -3.590265698670894179e-14
2.577000000000000000e+03 7.849515533447265625e+01 4.041558837890625000e+01 4.708357659376043169e-14 1.574315222456490471e-13 6.135452660250423351e-14 -6.740554701857234821e-14
2.578000000000000000e+03 3.669504928588867188e+01 4.129821014404296875e+01 7.321960149731659984e-14 3.709869800141811502e-14 3.309549154368630897e-14 9.386436262579997414e-15
2.579000000000000000e+03 2.339230537414550781e+01 3.092885017395019531e+01 1.955605104665258248e-14 -1.517471586755247959e-13 -3.965733042518918006e-14 -4.475570050877690845e-15
2.580000000000000000e+03 2.926499557495117188e+01 3.232482910156250000e+01 6.746334177062940363e-14 7.466380622491233798e-14 4.263814439866252248e-14 -4.724193109731551765e-14
2.581000000000000000e+03 3.996318101882934570e+00 4.004181289672851562e+01 -1.286699374570274626e-15 -3.894344970199054012e-13 -1.172163630264524969e-13 -1.149626726280883471e-13
2.582000000000000000e+03 6.710326385498046875e+01 3.151389503479003906e+01 2.065275373137366588e-14 2.376059147612269440e-13 7.747760224184607747e-14 1.340160350315339199e-13
2.583000000000000000e+03 6.371401214599609375e+01 3.860858154296875000e+01 -8.445012504782519608e-15 7.072599748697214195e-14 1.868429659579971813e-14 -2.935124677485266564e-14
2.584000000000000000e+03 2.454580497741699219e+01 3.524137115478515625e+01 7.260575333230961936e-14 -3.750967161116232351e-14 1.052882536337713601e-14 -9.001171796850851448e-14
2.585000000000000000e+03 2.782844161987304688e+01 3.309466934204101562e+01 -7.732203786481924718e-16 -2.320685452887692041e-14 -7.194022768719065403e-15 -7.515511921563772235e-14
2.586000000000000000e+03 2.635856628417968750e+01 3.168142318725585938e+01 2.555886512362656043e-14 2.811040449349731796e-14 1.610078173217011077e-14 -6.943142621170655948e-14
2.587000000000000000e+03 5.197846984863281250e+01 4.132543563842773438e+01 8.318104777020607354e-14 6.424336296230112597e-14 4.422732389737851766e-14 -3.523439584868681869e-15
2.588000000000000000e+03 8.019263267517089844e+00 4.143412017822265625e+01 -3.984337612985590360e-14 -1.200153664599953873e-13 -4.795762311576856618e-14 -1.513111027261464930e-14
2.589000000000000000e+03 3.759976196289062500e+01 3.800958251953125000e+01 3.985134162769188304e-14 7.071126334885465339e-15 1.407674060053144133e-14 5.532189018952332615e-15
2.590000000000000000e+03 1.976824951171875000e+01 3.591473770141601562e+01 1.090132622843728583e-13 -2.277857264788851754e-13 -3.563173858072733735e-14 3.186216922083668496e-15
2.591000000000000000e+03 2.861403465270996094e+01 1.130430603027343750e+01 -8.901280184941615103e-14 -7.246155444336904727e-14 -4.844230553258284389e-14 -2.127045284697204330e-13
2.592000000000000000e+03 6.499658203125000000e+01 2.254134559631347656e+01 -3.932833944034382079e-14 2.889594623691274511e-14 -3.129717918677675341e-15 -3.294650183639606655e-14
2.593000000000000000e+03 6.053861618041992188e+01 6.767261505126953125e+00 -6.485016381318695067e-15 1.344735547957956467e-13 3.839656254078262221e-14 7.467735197580482875e-14
2.594000000000000000e+03 5.793241882324218750e+01 2.136864089965820312e+01 -2.543029399256283019e-14 1.034786744681139015e-13 2.341451312622578468e-14 -1.721847897552183926e-14
2.595000000000000000e+03 5.724166870117187500e+01 2.129080963134765625e+01 2.122220042928557593e-14 3.522273347555254785e-13 1.120348659764541788e-13 -2.218610630497566683e-13
2.596000000000000000e+03 6.404741668701171875e+01 1.794982075691223145e+00 -2.251376643165430014e-14 -9.648757284146970703e-15 -9.648757284146970703e-15 7.495666956049140683e-14
2.597000000000000000e+03 6.360663604736328125e+01 5.068556785583496094e+00 -1.542587401131417790e-13 -2.035993782963964327e-14 -5.238560304402124779e-14 3.878025491336166419e-14
2.598000000000000000e+03 4.276659965515136719e+00 2.525994491577148438e+01 1.068137752183694056e-13 -4.117321446891336612e-13 -9.147551287410835008e-14 4.880142717342793313e-14
2.599000000000000000e+03 3.080949306488037109e+00 2.431420898437500000e+01 -1.345260030758896330e-13 -4.694125405220461733e-13 -1.811815671451388887e-13 -1.533123400367791822e-13
2.600000000000000000e+03 4.796151733398437500e+01 2.831364822387695312e+01 7.391853920407295830e-14 1.689322238953433475e-13 7.285522825219853393e-14 7.023964387415293151e-15
2.601000000000000000e+03 1.042871475219726562e+01 1.929470062255859375e+01 -1.333572195814231032e-13 9.153748858079305273e-14 -1.254592082484832019e-14 1.230567432891974122e-13
2.602000000000000000e+03 8.095457077026367188e+00 2.213428878784179688e+01 1.395384594546703050e-13 -1.232015926994414756e-13 4.901060111271943534e-15 1.681388182980456114e-13
2.603000000000000000e+03 3.340782546997070312e+01 2.456002044677734375e+01 8.743401375089707162e-14 6.034719436404795134e-14 4.433436175685714908e-14 -7.716631424559833308e-14
2.604000000000000000e+03 6.218230056762695312e+01 2.130395317077636719e+01 -5.415670489101673257e-14 2.970466212413869211e-13 7.286697829324284559e-14 1.279685857063714294e-13
2.605000000000000000e+03 2.761617660522460938e+01 1.028392696380615234e+01 -1.849399675285870459e-13 -1.707618828240484166e-13 -1.067105523952852075e-13 -1.633649406073203747e-13
2.606000000000000000e+03 6.013153457641601562e+01 2.153485679626464844e+01 7.788842338565978018e-15 1.863418680426651153e-13 5.823921396140227524e-14 7.118170798885853356e-14
2.607000000000000000e+03 5.960256576538085938e+01 2.134971046447753906e+01 -4.094072340664984752e-15 -4.750555146742357904e-14 -1.547988625304197452e-14 -1.688868364818976731e-13
2.608000000000000000e+03 4.634376144409179688e+01 2.028067207336425781e+01 1.073857664032548676e-13 -2.056077476244450031e-13 -2.946659233347796725e-14 2.019312485507327587e-14
2.609000000000000000e+03 4.629536437988281250e+01 2.081108665466308594e+01 1.828700087408777208e-13 -1.312903439936417838e-14 5.092229264126724164e-14 -3.038872660996762287e-14
2.610000000000000000e+03 6.706678867340087891e+00 1.119697666168212891e+01 2.637017530336335791e-14 5.705245303966322012e-14 2.502678782528161561e-14 3.399795771514071974e-14
2.611000000000000000e+03 5.069467926025390625e+01 2.250022888183593750e+01 1.064649534981629286e-13 3.201335409871303161e-13 1.279795497008406890e-13 -3.110580776245416845e-14
2.612000000000000000e+03 8.015752792358398438e+00 9.959541320800781250e+00 -8.740634626670795715e-14 -1.747127019880584387e-13 -7.863571312117720313e-14 -3.220506340447827631e-14
2.613000000000000000e+03 3.786096954345703125e+01 1.443633365631103516e+01 1.958073460317510950e-13 -1.330333006298659027e-14 5.475120682350842483e-14 -5.357778836475451945e-14
2.614000000000000000e+03 7.535858154296875000e+00 2.166516304016113281e+01 1.120719727958074952e-13 -3.179767376054049022e-13 -6.177142944287922210e-14 3.332698903630269827e-14
2.615000000000000000e+03 4.021325588226318359e+00 2.614454460144042969e+01 -5.704723531670813363e-14 -1.617016660545103623e-13 -6.562467041136554879e-14 -1.445147475266032183e-14
2.616000000000000000e+03 6.566485595703125000e+01 2.521730232238769531e+01 3.592442488642043005e-15 4.729056772914685958e-14 1.526490251476525506e-14 3.483907837242318506e-14
2.617000000000000000e+03 5.147708892822265625e+01 2.443008613586425781e+01 2.882573736998073066e-14 5.920160601980903325e-15 1.042376956099507965e-14 -4.476485439383788567e-14
2.618000000000000000e+03 2.377718925476074219e+01 1.448038864135742188e+01 3.605670720763926029e-13 6.302684746719092179e-14 1.270781711196905528e-13 3.455173769166021425e-14
2.619000000000000000e+03 2.996604347229003906e+01 1.380738830566406250e+01 2.102049952287451950e-13 -4.131725885904435902e-13 -6.089027800850951855e-14 -1.820236263149269118e-13
2.620000000000000000e+03 5.963175201416015625e+01 9.794080734252929688e+00 6.954191996560998845e-14 2.980368095329907763e-14 2.980368095329907763e-14 -2.274360543375996552e-14
2.621000000000000000e+03 2.606922531127929688e+01 4.534759044647216797e+00 1.230321725574634595e-13 -4.505323523106008476e-13 -9.825005528119393206e-14 -1.916043549949481006e-13
2.622000000000000000e+03 7.371266937255859375e+01 9.142205238342285156e+00 1.598787156267475473e-13 2.057723024091739905e-13 1.096953067660291770e-13 5.541278360102729061e-14
2.623000000000000000e+03 7.680462646484375000e+01 1.115643405914306641e+01 -5.762723604514283227e-14 -1.848257061721342298e-13 -7.273588469806219203e-14 -3.321719662567959586e-14
2.624000000000000000e+03 2.282770919799804688e+01 2.999846267700195312e+01 4.685126594951467827e-14 1.115810121707881686e-13 4.752968174202495955e-14 -1.114599271169122718e-13
2.625000000000000000e+03 3.437492370605468750e+01 2.067740631103515625e+01 -1.008266888491600455e-13 -1.804642860928767911e-13 -8.438729044973197757e-14 -1.095994226363999902e-14
2.626000000000000000e+03 7.171247863769531250e+01 1.016224980354309082e+00 3.490039000527724034e-14 -2.595483777987489526e-13 -6.739440006498648161e-14 1.236206368391071231e-13
2.627000000000000000e+03 7.253647613525390625e+01 8.368788361549377441e-01 -5.918199551301420169e-14 6.613818244157257387e-14 2.086856883248811544e-15 1.214006244707258042e-13
2.628000000000000000e+03 1.224588394165039062e+01 2.078538513183593750e+01 1.275400276926422216e-13 -8.259283421031479722e-14 1.348415550359938556e-14 -9.171949732643316228e-15
2.629000000000000000e+03 2.310108947753906250e+01 6.721171379089355469e+00 9.151877931705409974e-14 -1.437814575516380144e-13 -1.567880516444106892e-14 1.129306676926795927e-14
2.630000000000000000e+03 5.300134658813476562e+01 4.566081523895263672e+00 6.411376014510763999e-14 2.747732529245587585e-14 2.747732529245587585e-14 2.909680146562926284e-14
2.631000000000000000e+03 5.363045120239257812e+01 4.325256347656250000e+00 1.899302790779947014e-13 4.708547733569407034e-14 7.110472285834848472e-14 -5.719021447820465953e-14
2.632000000000000000e+03 4.480725097656250000e+01 6.081393718719482422e+00 2.922644832853600605e-14 -4.466306475050044189e-14 -4.630984503072857125e-15 1.057565273283314275e-14
2.633000000000000000e+03 2.205661010742187500e+01 5.543447971343994141e+00 3.348716974289206449e-14 -7.715025450091839154e-14 -1.309892576622107702e-14 -8.845730409007962480e-14
2.634000000000000000e+03 3.444332122802734375e+01 1.996611213684082031e+01 2.798683678605301886e-16 1.602482659372392315e-13 4.815844107503540472e-14 -2.545355859949211680e-14
2.635000000000000000e+03 5.855796051025390625e+01 2.041493797302246094e+01 -2.744409110773740612e-14 -5.465326609788330459e-14 -2.462920750049939211e-14 -1.241375166723124313e-13
2.636000000000000000e+03 6.689952087402343750e+01 2.580768394470214844e+01 6.189383586815283556e-14 1.637787805765580917e-13 6.770178493341327819e-14 4.752712709065604058e-14
2.637000000000000000e+03 5.104153060913085938e+01 2.090694618225097656e+01 -1.727013612684309002e-14 2.213532634097459262e-13 6.122493733783790359e-14 -1.296971766638101153e-15
2.638000000000000000e+03 5.988838958740234375e+01 2.676269054412841797e+00 1.035990276855233705e-13 6.727505651085013971e-14 5.126222390365933745e-14 -3.483402327979397139e-14
2.639000000000000000e+03 4.437945556640625000e+01 6.699155807495117188e+00 -9.074809453153351302e-14 -1.075184659729035153e-13 -5.947996815133110848e-14 -5.201751301833063001e-15
2.640000000000000000e+03 2.307302665710449219e+01 5.354808330535888672e+00 -1.051235734881661790e-14 3.243296473401380275e-13 9.414518454100087586e-14 1.262073162178276725e-15
2.641000000000000000e+03 4.369328689575195312e+01 6.318125724792480469e+00 -8.474539565104036165e-14 1.123711312802505580e-13 8.287720180543290543e-15 2.435304426650838905e-14
2.642000000000000000e+03 4.343233489990234375e+01 5.323791503906250000e+00 -2.143956941234176350e-14 -1.464412358737066100e-13 -5.036424023056179644e-14 -6.315312313896759289e-14
2.643000000000000000e+03 3.578409576416015625e+01 1.974552917480468750e+01 1.198145857701782280e-13 1.886019552338469296e-13 9.252496636696569410e-14 -1.667966844287258055e-13
2.644000000000000000e+03 2.409556198120117188e+01 4.717684745788574219e+00 7.088994918424268432e-14 -1.536954157693726231e-14 1.665612194337844770e-14 -3.243787210409701527e-14
2.645000000000000000e+03 2.407769012451171875e+01 5.500904560089111328e+00 -5.549327883607076128e-14 -2.525375741857516232e-13 -9.240925489010717864e-14 -5.651166993668639560e-14
2.646000000000000000e+03 5.925462722778320312e+01 1.122831630706787109e+01 2.553066909087835928e-14 -5.768470553654814204e-14 -9.646211950140471530e-15 -1.505384392716611203e-14
2.647000000000000000e+03 5.954679489135742188e+01 9.238670349121093750e+00 -2.862666853374997225e-15 4.452409036077853433e-14 1.249842768749577157e-14 -1.888558211725344105e-14
2.648000000000000000e+03 7.555083465576171875e+01 2.839006233215332031e+01 9.828371298238602893e-14 -3.629358725582227177e-15 2.839630521824995646e-14 -1.264994240000177905e-13
2.649000000000000000e+03 3.789639282226562500e+01 1.919138717651367188e+01 3.277757974979103595e-14 1.284248992957162661e-13 4.836074642415762181e-14 5.532368928750329429e-14
2.650000000000000000e+03 3.267833328247070312e+01 1.657296180725097656e+01 3.973577245236850630e-14 -2.872133208890216560e-14 3.304332066688254847e-15 4.162888770135007854e-14
2.651000000000000000e+03 3.484814453125000000e+01 1.504302597045898438e+01 1.490508562927705949e-13 1.725374400643464590e-13 9.647649026238783176e-14 7.363577927748873875e-14
2.652000000000000000e+03 7.665150451660156250e+01 -1.774522066116333008e-01 -9.589757373612561864e-14 -1.326008530408429031e-13 -6.854952938834327214e-14 -3.497155093724196862e-14
2.653000000000000000e+03 7.602343750000000000e+01 2.638735580444335938e+01 2.483477562053443277e-14 1.021453700702362744e-13 3.809404302960485433e-14 -1.982059129454136204e-14
2.654000000000000000e+03 7.679205322265625000e+01 2.865043449401855469e+01 2.453526646445120668e-14 1.477679605196499657e-13 5.169096826463694117e-14 -3.976249125965669595e-14
2.655000000000000000e+03 7.638398742675781250e+01 3.359884262084960938e+01 6.850426394764200233e-14 3.496156001422251469e-13 1.254359571940810714e-13 -7.292110708670418440e-14
2.656000000000000000e+03 7.573535156250000000e+01 3.063327217102050781e+01 5.147052285791632598e-14 1.593116372329561603e-13 6.323464836607492479e-14 -1.745503427127287344e-13
2.657000000000000000e+03 7.596613311767578125e+01 2.555892181396484375e+01 -2.898276033774273286e-14 -1.954249750305697697e-13 -6.732232094930692967e-14 2.537045450297110288e-14
2.658000000000000000e+03 7.596336364746093750e+01 2.470487022399902344e+01 -8.498373039360698766e-15 -1.637704864299385776e-13 -5.168065479147117280e-14 -1.899534267943772670e-13
2.659000000000000000e+03 2.315777778625488281e+01 1.114963722229003906e+01 1.197311648833349410e-14 1.423841784493201645e-13 4.630718958243892902e-14 1.277165764639043299e-14
2.660000000000000000e+03 7.654697418212890625e+01 1.893513321876525879e+00 -1.484000558919231719e-15 -9.213789941512479098e-14 -2.808656898636158195e-14 -1.604920487957225972e-13
2.661000000000000000e+03 7.621063995361328125e+01 1.220213770866394043e+00 1.342999062653449371e-13 2.519986443908633911e-13 1.158895570653462048e-13 -6.142689709751764093e-14
2.662000000000000000e+03 7.602288818359375000e+01 2.385544586181640625e+01 -1.361471800912211066e-14 -2.871035454190574987e-14 -1.269752108768200036e-14 6.301984843394775951e-15
2.663000000000000000e+03 7.676786041259765625e+01 2.388920402526855469e+01 1.594626089973429778e-14 -1.532942067554443621e-13 -4.120438528137232437e-14 -6.716681925271819620e-14
2.664000000000000000e+03 2.828711032867431641e+00 3.184494018554687500e+01 2.672016762310294030e-14 -6.290617983115143197e-13 -1.807024853101718564e-13 3.446743080835409923e-15
2.665000000000000000e+03 7.676302337646484375e+01 2.713486289978027344e+01 2.684849480867786131e-14 5.725744856542591688e-14 2.523178165697841785e-14 1.153856605531564106e-13
2.666000000000000000e+03 7.516942596435546875e+01 2.467749977111816406e+01 -5.644335164729265275e-14 -6.994095379892970032e-14 -3.791529197267988482e-14 1.131110247240725564e-13
2.667000000000000000e+03 7.685406494140625000e+01 5.750681400299072266e+00 2.433007781517653595e-14 -1.725766204203546539e-13 -4.447396295096002483e-14 -8.916461725861843379e-14
2.668000000000000000e+03 7.689944458007812500e+01 6.490479469299316406e+00 2.287673021394813488e-14 1.928081040094772880e-13 6.470544992821444796e-14 -1.551640218221128631e-13
2.669000000000000000e+03 7.611565399169921875e+01 4.295085430145263672e+00 2.575128178660605720e-15 -2.047756495621166906e-13 -6.066015609739947023e-14 -1.349648474577302970e-13
2.670000000000000000e+03 7.681571197509765625e+01 4.207682609558105469e+00 -6.614288516849572974e-14 -7.409790012471995091e-14 -4.207223491033834639e-14 -1.486208210535813756e-13
2.671000000000000000e+03 7.670303344726562500e+01 1.839699363708496094e+01 -9.093903608663536642e-14 3.270337288734798120e-13 7.082840715842697588e-14 -2.667660980082333516e-14
2.672000000000000000e+03 7.626721191406250000e+01 1.508814716339111328e+01 -9.765535683705847680e-14 2.784043340916392273e-13 5.422469791975872977e-14 -1.192131703547710461e-14
2.673000000000000000e+03 7.686756134033203125e+01 2.008277893066406250e+01 5.725186492423761653e-14 1.160384180236284646e-13 5.198708420673346653e-14 4.561989010837784464e-14
2.674000000000000000e+03 7.320529937744140625e+01 1.585468482971191406e+01 -4.666576234593419747e-14 1.172532394528441602e-13 2.117624211563345210e-14 6.140856730453905787e-14
2.675000000000000000e+03 7.612945556640625000e+01 1.224234962463378906e+01 -1.726428312917756280e-14 -5.314992830617384922e-14 -2.112426309179224471e-14 -3.279921847697806793e-15
2.676000000000000000e+03 7.609153747558593750e+01 3.502809762954711914e+00 2.590775968866650125e-14 5.685427443506002598e-14 2.482861091474431597e-14 -2.544252684238707679e-14
2.677000000000000000e+03 7.503179931640625000e+01 7.766531705856323242e-01 -9.530062557248225596e-14 1.421606701714622778e-13 1.405801354910059600e-14 -1.364821816218601824e-14
2.678000000000000000e+03 7.444276428222656250e+01 1.116231441497802734e+01 -2.009372892684477274e-14 1.515167250562901580e-13 3.942689680595454216e-14 3.976627410879913366e-15
2.679000000000000000e+03 7.692858886718750000e+01 1.514151668548583984e+01 3.405413294020262494e-14 1.289720012644796077e-13 4.890784161665738539e-14 -1.571106797177562742e-13
2.680000000000000000e+03 7.455596923828125000e+01 1.367543125152587891e+01 1.013209766195961870e-13 2.721780320655980967e-13 1.120496992174264961e-13 1.421794404215734331e-13
2.681000000000000000e+03 5.842201232910156250e+01 9.238306999206542969e+00 -5.688463209588962011e-15 2.043756162299192186e-14 4.424729439317593230e-15 -3.317872100108351652e-14
2.682000000000000000e+03 7.700627136230468750e+01 8.778656959533691406e+00 -4.313174776647728248e-15 -1.391013497963056178e-13 -4.302435754129259327e-14 6.868763641632719130e-14
2.683000000000000000e+03 7.610462951660156250e+01 2.303919792175292969e+01 7.251169201758292382e-14 7.682738587021578636e-14 4.480172404396597086e-14 -3.981042654820771132e-14
2.684000000000000000e+03 7.620042419433593750e+01 2.225134849548339844e+01 -8.127953334251952766e-14 -1.195861020207881695e-14 -2.797144196223667195e-14 -6.707885657521173162e-14
2.685000000000000000e+03 7.615605926513671875e+01 1.586266613006591797e+01 -3.587942456703165084e-14 7.498578547102032615e-15 -8.514253213055822389e-15 -1.541604571862059680e-13
2.686000000000000000e+03 7.455233764648437500e+01 1.625709915161132812e+01 6.303825445989159545e-15 -4.304930774378691594e-14 -1.102364507050415318e-14 6.615156556213919181e-14
2.687000000000000000e+03 7.635574340820312500e+01 2.155835342407226562e+01 9.429391844434104747e-15 2.099204328160492183e-13 6.580494612759557604e-14 9.234333539802005997e-14
2.688000000000000000e+03 7.639091491699218750e+01 2.095026016235351562e+01 -4.959349954086669093e-15 8.937646358685852332e-14 2.532513315809531429e-14 -1.179513030215989522e-14
2.689000000000000000e+03 7.607799530029296875e+01 1.101354694366455078e+01 8.440466478954605778e-14 -1.010794231518299946e-13 -5.002427085168707419e-15 -5.737642620132904492e-14
2.690000000000000000e+03 7.624700164794921875e+01 1.021189117431640625e+01 6.875489760860276078e-14 2.946638226930704818e-14 2.946638226930704818e-14 -1.172178809094939766e-13
2.691000000000000000e+03 7.595607757568359375e+01 1.956921005249023438e+01 6.914090661629254328e-15 1.859669780364739400e-13 5.786431717894752191e-14 1.808012425755581298e-13
2.692000000000000000e+03 7.543966674804687500e+01 1.781098365783691406e+01 1.611406998504663624e-14 -8.459587061892745452e-14 -2.054453849609835098e-14 4.222045889984427092e-14
2.693000000000000000e+03 7.413484191894531250e+01 3.647249698638916016e+00 -7.685269690874563936e-15 -1.405465370821201709e-13 -4.446954143897535738e-14 -1.196953099786776664e-13
2.694000000000000000e+03 7.495853424072265625e+01 8.155599594116210938e+00 -6.485369424651110659e-14 -7.354539069762133785e-14 -4.151972548323973333e-14 -3.814500391984346206e-14
2.695000000000000000e+03 7.622490692138671875e+01 7.213583469390869141e+00 1.651540232697201738e-13 2.537840814234582076e-13 1.256814341184589456e-13 -2.331688986854929535e-13
2.696000000000000000e+03 7.563288116455078125e+01 2.062482261657714844e+01 -5.644471367627183767e-14 1.588132023892102618e-13 3.071054830794742174e-14 2.020391910413990577e-13
2.697000000000000000e+03 7.299388122558593750e+01 7.766064643859863281e+00 8.174463574572507496e-14 -4.503074481224458858e-14 1.101416592479143031e-14 -1.506787926310211578e-14
2.698000000000000000e+03 3.225832700729370117e+00 3.252172851562500000e+01 6.160697630210390519e-14 -1.566008065410906536e-13 -2.849814907169602451e-14 4.243820057739725038e-14
2.699000000000000000e+03 7.575485229492187500e+01 3.495232391357421875e+01 5.851678327008572045e-14 2.767088316292520833e-13 1.005676865026804145e-13 -9.201972137832387100e-14
2.700000000000000000e+03 7.472406768798828125e+01 3.210700988769531250e+01 1.868533844632484092e-14 9.093159574922668464e-14 3.288508178332476273e-14 -7.053653993359387808e-14
2.701000000000000000e+03 7.553986358642578125e+01 3.399625778198242188e+01 4.995292103137510820e-14 1.586612379022092623e-13 6.258424903532802674e-14 -4.827745598038821195e-14
2.702000000000000000e+03 2.631192779541015625e+01 7.684236526489257812e+00 -8.264880614746936138e-14 -1.269228185009005361e-13 -6.287148807213732704e-14 -1.672963389999157502e-13
2.703000000000000000e+03 3.380187988281250000e+01 1.523222923278808594e+01 1.391052529241265656e-13 1.511184298357004518e-13 8.706710618320082085e-14 -1.037501925734221619e-13
2.704000000000000000e+03 7.096803283691406250e+01 1.408581137657165527e+00 1.699595325588276751e-14 -2.672217102542978617e-13 -7.506772574427181266e-14 -3.808998743585340074e-14
2.705000000000000000e+03 7.079134368896484375e+01 4.854362964630126953e+00 2.859550365052164478e-14 -1.135598911997451332e-13 -2.548931694239340434e-14 -2.498293862366815499e-14
2.706000000000000000e+03 3.720024824142456055e+00 9.557508468627929688e+00 5.055131169212764494e-15 7.079290631354165364e-14 2.275441188010103588e-14 7.856307157562067434e-14
2.707000000000000000e+03 7.823912620544433594e+00 5.193172454833984375e+00 1.240903809828636239e-13 -2.213240983713060661e-13 -2.917011724941180606e-14 4.526883560932240536e-14
2.708000000000000000e+03 3.095879554748535156e+00 2.358812332153320312e+01 1.007866614602045963e-13 -1.855604564319005001e-13 -2.543213883032195005e-14 -4.591637196870758386e-14
2.709000000000000000e+03 3.150494813919067383e+00 2.283847236633300781e+01 8.828949669883318085e-14 -4.425466069990502405e-13 -1.062771358005705491e-13 -5.081244242064548913e-16
2.710000000000000000e+03 3.762156963348388672e+00 2.497031402587890625e+01 -4.931642998162212577e-14 -2.498903590563567034e-13 -8.976203298444868084e-14 9.981254138361015521e-15
2.711000000000000000e+03 5.147116184234619141e+00 2.276777839660644531e+01 3.124549704798355865e-14 -4.441185646238826612e-13 -1.238619260325937721e-13 3.420607032214931231e-14
2.712000000000000000e+03 3.248391866683959961e+00 1.865339088439941406e+01 8.239609217359014637e-14 8.106356026976041518e-14 4.903789505537881066e-14 1.373995183037365897e-13
2.713000000000000000e+03 6.158894538879394531e+00 2.212911224365234375e+01 1.980576754033805398e-13 -1.438728828998328546e-13 1.625543470174569544e-14 1.495543733342000192e-13
2.714000000000000000e+03 3.065223693847656250e+00 1.028810787200927734e+01 -6.505253014868137007e-14 -7.363060221211512046e-14 -4.160494038586530496e-14 -1.393522680603366537e-14
2.715000000000000000e+03 5.097755908966064453e+00 1.521340560913085938e+01 -3.665564894802728069e-14 7.579233193746176545e-14 1.174100574386329268e-14 6.429154219634095058e-14
2.716000000000000000e+03 3.399836063385009766e+00 4.897859096527099609e+00 -6.059173616405205687e-14 2.256623300765994711e-13 4.952117817376422426e-14 5.914755176524705282e-14
2.717000000000000000e+03 4.959749221801757812e+00 4.832206726074218750e+00 7.981004891661298492e-16 9.184393832484608056e-14 2.779261297828055505e-14 1.617859221158396421e-13
2.718000000000000000e+03 3.308301448822021484e+00 1.692147636413574219e+01 1.755008763098739322e-13 2.946371580958909164e-14 6.148938102397069616e-14 8.157037057528876423e-14
2.719000000000000000e+03 5.290407657623291016e+00 3.420012283325195312e+01 1.568270659819612223e-13 -4.360488478540730517e-13 -8.376653049587540201e-14 1.085616632804124390e-14
2.720000000000000000e+03 4.861878395080566406e+00 1.252101039886474609e+01 -5.397723385608659691e-15 6.631311168583953197e-14 1.827461725239891421e-14 -5.100799374080453724e-15
2.721000000000000000e+03 3.785721778869628906e+00 1.248662948608398438e+01 -1.071853584079345001e-13 7.415965899097015646e-14 -9.907710502715660894e-15 -5.075896605431177294e-15
2.722000000000000000e+03 5.896433353424072266e+00 1.248894023895263672e+01 -7.003777982919623391e-14 2.273328958890194484e-13 4.718853414032060656e-14 3.012348671286441126e-14
2.723000000000000000e+03 5.349034786224365234e+00 1.416609764099121094e+01 -1.625157646667095210e-16 -1.150738643371403136e-14 -3.500970765393340671e-15 6.094025972866110030e-14
2.724000000000000000e+03 3.310411453247070312e+00 1.779711341857910156e+01 -8.365327202643213500e-14 -2.646061538283395187e-13 -1.044778277564314961e-13 -5.675916618761052412e-14
2.725000000000000000e+03 8.352033615112304688e+00 1.743852615356445312e+01 -7.855454025977592902e-14 -1.251681321524228396e-13 -6.111680172365963060e-14 3.449243183282525715e-14
2.726000000000000000e+03 5.333067417144775391e+00 1.866002082824707031e+01 2.600548526792301890e-14 -5.378661925570238367e-13 -1.535582099844445825e-13 6.262752225453735444e-14
2.727000000000000000e+03 3.789298295974731445e+00 1.076003646850585938e+01 -2.435849407649102322e-14 -1.019412554587387221e-13 -3.788992502997551304e-14 2.608103891275220798e-14
2.728000000000000000e+03 3.871987581253051758e+00 8.860648155212402344e+00 -7.679091601963880520e-14 1.043424515626695248e-13 8.265460154689447531e-15 2.906775501180201837e-14
2.729000000000000000e+03 3.869385242462158203e+00 1.592868709564208984e+01 2.345758136346187683e-14 -8.144864855263653225e-14 -1.739731981793921772e-14 1.089965926759708936e-13
2.730000000000000000e+03 3.886079549789428711e+00 2.221183967590332031e+01 9.176437143791280060e-14 -3.724309543488152352e-13 -8.419997419564437258e-14 2.287336241094985179e-14
2.731000000000000000e+03 3.778618097305297852e+00 2.368837165832519531e+01 1.114627799238786243e-13 -5.012416263300289998e-13 -1.169336573099769017e-13 1.130647902776796276e-13
2.732000000000000000e+03 4.362597465515136719e+00 1.045447063446044922e+01 -6.864300794440225673e-14 2.908382085511918014e-13 6.665855882678414779e-14 7.152495962040386623e-14
2.733000000000000000e+03 4.098477840423583984e+00 1.665648269653320312e+01 1.725334454569672077e-14 -1.298585533809210046e-13 -3.378156451403976912e-14 -1.122429277614859361e-14
2.734000000000000000e+03 4.490206718444824219e+00 1.730343055725097656e+01 2.966989760499441804e-15 -2.160454432541258907e-13 -6.392353687394505823e-14 7.929025952523385823e-14
2.735000000000000000e+03 1.698913764953613281e+01 2.166522407531738281e+01 1.471818001676228338e-13 -7.417493268907504600e-14 2.190206295406976755e-14 -1.092349274185375196e-13
2.736000000000000000e+03 3.074361228942871094e+01 3.005282592773437500e+01 2.616118644077083076e-15 1.121193689478875832e-15 1.121193689478875832e-15 -1.138351040627693170e-14
2.737000000000000000e+03 2.028832817077636719e+01 2.304096031188964844e+01 -1.315068456149599829e-14 -2.801417138629386239e-13 -8.798771580038541873e-14 -2.037200567744576474e-13
2.738000000000000000e+03 6.713403320312500000e+01 2.639813613891601562e+01 -1.646760662945070952e-13 -2.482450958121371065e-14 -5.685017479559531517e-14 -2.639363133973872400e-14
2.739000000000000000e+03 1.010429096221923828e+01 2.089246559143066406e+01 8.147330737579699944e-14 -1.480866617482520797e-13 -1.998400766698923969e-14 9.734099241714630479e-14
2.740000000000000000e+03 1.027133941650390625e+01 2.005183792114257812e+01 1.124417806043151447e-13 2.426308665700455114e-13 1.065217927970554812e-13 8.042677445254178825e-14
2.741000000000000000e+03 4.578248596191406250e+01 2.106489372253417969e+01 1.135228047091825510e-13 -1.515077668358399965e-13 -1.139549084028289652e-14 -2.739523424733977808e-14
2.742000000000000000e+03 2.402177619934082031e+01 3.196640777587890625e+01 -4.721619146011435397e-14 -4.311098529487418507e-14 -2.709815268768338281e-14 -5.761348023007942243e-14
2.743000000000000000e+03 2.250955009460449219e+01 3.150644111633300781e+01 3.513667492811151094e-14 -7.644332080313995248e-14 -1.239199460954147972e-14 -9.212243598163971647e-14
2.744000000000000000e+03 7.422732543945312500e+01 1.188976764678955078e+01 7.523573642342559764e-14 -1.050089580719414106e-13 -8.931967510994280601e-15 -7.000071366742438572e-14
2.745000000000000000e+03 7.457566833496093750e+01 3.435641098022460938e+01 1.205492547147815618e-14 3.254230381260353466e-13 1.012433884016276930e-13 -4.884297583355665107e-14
2.746000000000000000e+03 4.265485286712646484e+00 3.602302169799804688e+01 7.620074411957347693e-14 -4.048359954558766738e-13 -9.859057607851731686e-14 -7.327309332200160341e-14
2.747000000000000000e+03 5.892237472534179688e+01 1.492389774322509766e+01 6.973133686140678411e-14 1.900131798866083743e-13 7.792335841253633655e-14 5.801366602820740015e-14
2.748000000000000000e+03 7.206433868408203125e+01 1.815598297119140625e+01 -3.963167549128274181e-14 2.632395440949758525e-13 6.708236667974515344e-14 -3.097083475637509020e-14
2.749000000000000000e+03 7.461766052246093750e+01 3.181124627590179443e-01 2.706983468219077704e-14 -3.414959016522639557e-14 -2.123927068427159184e-15 -1.064655565856213737e-13
2.750000000000000000e+03 5.627839279174804688e+01 2.146745491027832031e+01 9.056061564712003520e-14 1.074381130393951833e-13 5.939961521782277654e-14 -8.173637548042345102e-14
2.751000000000000000e+03 5.411844253540039062e+01 1.958666610717773438e+01 8.344415653241399333e-14 5.863725846023959409e-14 4.262442246491700282e-14 -1.604325260964531430e-13
2.752000000000000000e+03 2.750848579406738281e+01 3.814104080200195312e+00 2.478702735685817116e-13 2.892339145965650005e-13 1.611312537390385824e-13 -1.027302361559200017e-13
2.753000000000000000e+03 7.400575256347656250e+01 1.016014194488525391e+01 2.304360857945803032e-13 1.902602153516091965e-13 1.262088849228459875e-13 -6.007615059719015327e-14
2.754000000000000000e+03 4.408924102783203125e+01 5.695868015289306641e+00 2.767474495553833014e-14 1.033625022053320797e-13 3.931117516470065965e-14 2.065440343391756204e-16
2.755000000000000000e+03 5.781274795532226562e+00 4.820655345916748047e+00 1.285979515149721086e-13 -3.638849136833148534e-14 2.766283736636582918e-14 2.174660699726018581e-14
2.756000000000000000e+03 4.129512786865234375e+00 5.632188320159912109e+00 -8.658175122222642323e-15 6.491577837341305779e-14 1.687728055184065101e-14 8.020099612638525999e-14
2.757000000000000000e+03 4.622663974761962891e+00 8.099884033203125000e+00 2.763975656558609675e-15 3.214411972273650830e-13 9.726155427922100749e-14 1.200126288495098614e-13
2.758000000000000000e+03 6.593945503234863281e+00 5.591003894805908203e+00 1.396005029239907880e-13 -1.231750026411612686e-13 4.927647204936835140e-15 1.022039983027134280e-13
2.759000000000000000e+03 7.433381652832031250e+01 1.447573280334472656e+01 2.742096880234325823e-14 1.032537431749046275e-13 3.920241274614141846e-14 -2.744530744704966330e-14
2.760000000000000000e+03 5.498071670532226562e+01 1.739202499389648438e+01 1.108287249408819453e-13 1.218433177702787917e-13 6.980161349097457890e-14 -7.593942429095015823e-14
2.761000000000000000e+03 5.282071304321289062e+01 2.230007171630859375e+01 1.248307013312910385e-13 1.450007784198695249e-13 8.094944121484273780e-14 -1.943532953931764728e-13
2.762000000000000000e+03 5.701844024658203125e+01 1.320180511474609375e+01 4.087250760824272244e-14 2.233960629330344894e-13 7.928056946831726903e-14 -1.028853651580119433e-13
2.763000000000000000e+03 2.697507667541503906e+01 5.970850467681884766e+00 8.610120402026064101e-14 -5.460138363579808418e-14 9.449945098899230345e-15 -1.102208060065057449e-13
2.764000000000000000e+03 2.589034843444824219e+01 7.146021366119384766e+00 1.969663310490837871e-13 2.045103859480909558e-13 1.204430164544051385e-13 -3.437400307427194990e-14
2.765000000000000000e+03 3.203697967529296875e+01 2.999213218688964844e+01 1.172356482725955829e-13 5.024384974370264823e-14 5.024384974370264823e-14 1.870467282037886758e-14
2.766000000000000000e+03 2.206729507446289062e+01 9.569514274597167969e+00 -1.213854998504196314e-13 -2.807771105461237537e-13 -1.206487844742157312e-13 -3.152566166561739103e-14
2.767000000000000000e+03 2.689285087585449219e+01 1.171557521820068359e+01 7.656446006712447350e-14 7.856429130306472053e-14 4.653862608868311601e-14 -1.099318051411661556e-13
2.768000000000000000e+03 5.435061645507812500e+01 1.804887199401855469e+01 3.195179377698566248e-14 3.368097088122384841e-13 1.106284456945695605e-13 -1.005355195794754852e-13
2.769000000000000000e+03 4.800749969482421875e+01 4.512291431427001953e+00 6.153928142895934150e-14 -7.084679116151418321e-14 -2.792252369195036797e-15 7.647708692454929791e-14
2.770000000000000000e+03 6.208459472656250000e+01 5.318566799163818359e+00 -1.478892759664875156e-14 -6.338112069144592742e-15 -6.338112069144592742e-15 -1.068381426621960173e-13
2.771000000000000000e+03 6.056948471069335938e+01 6.216473102569580078e+00 -1.737142432667575925e-14 2.670607875468467007e-13 7.490680981308422970e-14 6.213441355396379095e-14
2.772000000000000000e+03 6.685115051269531250e+01 2.111504793167114258e+00 1.405403977873184718e-13 1.517334977281514785e-13 8.768216729938826948e-14 9.554555361951030945e-15
2.773000000000000000e+03 6.841851043701171875e+01 1.507810831069946289e+00 -9.661237467591815564e-15 -2.786462195963207433e-13 -8.649223508629469426e-14 4.077633548741146918e-14
2.774000000000000000e+03 5.696824645996093750e+01 4.104954242706298828e+00 4.950858787603623634e-14 -7.028393437993191162e-14 -6.232603527652228956e-15 -1.242925440304507023e-13
2.775000000000000000e+03 5.849269104003906250e+01 3.414700269699096680e+00 -5.150388917977456738e-15 -2.207309627029582950e-15 -2.207309627029582950e-15 -1.233944858184538029e-13
2.776000000000000000e+03 4.486547470092773438e+01 4.573873996734619141e+00 1.008701382512224021e-13 -9.688221904412264163e-14 1.196374745690391428e-15 4.866323544214928853e-14
2.777000000000000000e+03 6.510641479492187500e+01 4.627251148223876953e+00 -3.189232528782483256e-14 -1.737964562846180949e-13 -6.170663481054605715e-14 -3.228646708235767722e-15
2.778000000000000000e+03 6.652746582031250000e+01 3.348564624786376953e+00 3.457494978254677109e-14 1.481783513707264632e-14 1.481783513707264632e-14 9.330960347919345366e-14
2.779000000000000000e+03 5.985283374786376953e+00 3.938752365112304688e+01 2.193960006616028913e-14 -2.879784897959897227e-13 -7.981166590250929338e-14 8.668230927965855925e-14
2.780000000000000000e+03 7.800559997558593750e+00 1.668363761901855469e+01 -4.562711360535202931e-14 -6.530542708167719201e-14 -3.327976186729558750e-14 -6.884790860247486100e-14
2.781000000000000000e+03 7.845992565155029297e+00 1.605187797546386719e+01 9.189522786386822295e-14 4.053912695985151249e-13 1.491859478834622887e-13 6.954933319796435809e-14
2.782000000000000000e+03 4.565629196166992188e+01 3.712361097335815430e+00 1.372233625557620074e-13 -1.241937867650644289e-13 3.908874515978462763e-15 4.138050375989722751e-14
2.783000000000000000e+03 4.658683776855468750e+01 3.263866662979125977e+00 6.586715900350550990e-14 2.112325749427726440e-13 8.312992086150980398e-14 -1.237519201696679616e-13
2.784000000000000000e+03 4.617053604125976562e+01 2.158918190002441406e+01 2.080737925708175950e-13 -4.807836258020198317e-14 4.799862967481104137e-14 3.184871325543660314e-14
2.785000000000000000e+03 2.562030792236328125e+01 1.253993415832519531e+01 2.778323971168623896e-14 -3.384384515258548332e-14 -1.818181844028010120e-15 -7.413559647900455629e-14
2.786000000000000000e+03 4.854792022705078125e+01 2.504010581970214844e+01 -9.833493475877239098e-15 -9.571625447530457409e-14 -3.166492404654136505e-14 6.856699181958386680e-14
2.787000000000000000e+03 7.223443603515625000e+01 1.915476608276367188e+01 -6.371599516714291506e-15 4.090278463153573796e-13 1.207968729384500950e-13 -5.443083863406611433e-14
2.788000000000000000e+03 7.214364624023437500e+01 2.008841514587402344e+01 1.539176636622049954e-13 3.404704090274185413e-13 1.483164177411289142e-13 4.300494015800973568e-14
2.789000000000000000e+03 6.103526687622070312e+01 2.015029335021972656e+01 4.350693254013410227e-14 8.727225078676223435e-14 3.923375635332161659e-14 8.832339834551408697e-14
2.790000000000000000e+03 8.865776062011718750e+00 7.090857028961181641e+00 1.208624536173583119e-13 -8.545465360722606651e-14 1.062233864778695802e-14 3.323888405726109496e-14
2.791000000000000000e+03 4.914968872070312500e+01 2.622946739196777344e+01 7.562276271768503255e-14 2.268512932840013874e-13 9.074221951101135719e-14 9.144445725813021841e-14
2.792000000000000000e+03 7.207512664794921875e+01 6.998876571655273438e+00 -7.871935931878445980e-14 -3.373686827947905420e-14 -3.373686827947905420e-14 3.651085967712247235e-15
2.793000000000000000e+03 1.898715400695800781e+01 2.297205924987792969e+01 4.891361499322587070e-14 -3.450446037830262602e-13 -8.883930239676415819e-14 -1.427048312418327525e-13
2.794000000000000000e+03 6.161580657958984375e+01 2.222420883178710938e+01 -1.722216865104007899e-14 4.043776218824041147e-13 1.161466349529696740e-13 5.068525301207696745e-15
2.795000000000000000e+03 8.721628189086914062e+00 4.764486312866210938e+00 2.318599888364962502e-14 -1.501914640832796577e-13 -3.810163922107583090e-14 6.561178195804012736e-14
2.796000000000000000e+03 4.254111480712890625e+01 5.700662612915039062e+00 2.774954315285768679e-16 -2.275654809719401123e-14 -6.743715913519682595e-15 9.565211714053847847e-14
2.797000000000000000e+03 4.309729003906250000e+01 5.936498641967773438e+00 2.688763789523637704e-14 5.727421981778155202e-14 2.524855799153173652e-14 1.188456851106047679e-14
2.798000000000000000e+03 7.175489807128906250e+01 3.392185211181640625e+00 2.677867557690158384e-14 -3.427437505901589909e-14 -2.248709632876057761e-15 6.305423712457333685e-14
2.799000000000000000e+03 7.141268920898437500e+01 6.893775463104248047e+00 3.961719461601648229e-14 6.272974896687558144e-14 3.070408036436218790e-14 8.531683118231242480e-14
2.800000000000000000e+03 5.800930404663085938e+01 1.415361022949218750e+01 6.423616657038125344e-14 2.562845226837529022e-13 9.615621016437203572e-14 -1.622880567994991474e-14
2.801000000000000000e+03 6.622829437255859375e+01 2.589947891235351562e+01 3.907597783217066356e-14 -1.205059950480993902e-13 -2.442900618121815470e-14 1.306284588961301174e-13
2.802000000000000000e+03 4.374790954589843750e+01 1.951433944702148438e+01 2.152350969978830686e-13 9.224361590320570570e-14 9.224361590320570570e-14 8.040340989572472563e-14
2.803000000000000000e+03 5.134534454345703125e+01 2.732128906250000000e+01 8.879812304300044312e-14 -1.134936803283241591e-13 -7.408666846783935889e-15 3.794397250827391543e-14
2.804000000000000000e+03 3.282650375366210938e+01 1.500844764709472656e+01 2.632674894059716664e-13 6.707797566094658714e-14 9.910364087532819166e-14 -1.451097542907314741e-13
2.805000000000000000e+03 6.960696411132812500e+01 4.177275180816650391e+00 3.829400040339728251e-14 2.222909898687286390e-13 7.817549640401141864e-14 -4.094727690056275404e-14
2.806000000000000000e+03 4.482118606567382812e+01 2.024085235595703125e+01 6.953051551400815655e-14 -6.170310437722190122e-14 2.348224357475413304e-15 -1.013986122714097271e-13
2.807000000000000000e+03 2.423908615112304688e+01 1.274431228637695312e+01 1.624581410153078109e-13 -2.048807765152663163e-13 -1.272678946414142545e-14 8.984960263866761943e-14
2.808000000000000000e+03 9.606888771057128906e+00 2.137277412414550781e+01 9.733832934556013727e-14 -4.034521689308271167e-15 2.799114225452391247e-14 4.725350495550680041e-14
2.809000000000000000e+03 6.420463562011718750e+01 1.341559648513793945e+00 -3.081593530021185454e-15 2.731850119383483211e-13 8.103102742832227201e-14 -4.423046469554693660e-14
2.810000000000000000e+03 5.196673202514648438e+01 2.483285903930664062e+01 5.630712842058342715e-14 -2.046231158689751362e-13 -4.449479657333069160e-14 -6.662926503933630507e-14
2.811000000000000000e+03 4.913162231445312500e+01 2.401206970214843750e+01 6.927414913406038099e-14 2.968892154147327600e-14 2.968892154147327600e-14 1.178547548181391180e-13
2.812000000000000000e+03 5.630840301513671875e+01 1.996937370300292969e+01 -8.911252134423050530e-14 -2.669458350115089251e-13 -1.068175021633373245e-13 -1.991916966656917531e-13
2.813000000000000000e+03 8.197351455688476562e+00 7.257905483245849609e+00 4.929370916984497641e-14 -1.390024434531206277e-13 -2.691262197904858988e-14 5.638568225611179097e-14
2.814000000000000000e+03 6.195546722412109375e+01 1.513526797294616699e+00 2.317341197405342612e-14 -1.101647798592425564e-13 -2.609741036555673910e-14 -1.438308565131218852e-13
2.815000000000000000e+03 6.254306793212890625e+01 2.004492044448852539e+00 6.832509276237519469e-14 2.122859722210324041e-13 8.418331813976956401e-14 -1.274591292699158579e-14
2.816000000000000000e+03 4.139223098754882812e+01 9.710214614868164062e+00 4.610977161342236924e-15 1.976132948141966217e-15 1.976132948141966217e-15 5.970980037717319583e-15
2.817000000000000000e+03 9.976599693298339844e+00 1.909877586364746094e+01 1.282034645545132578e-13 5.494434388800956137e-14 5.494434388800956137e-14 1.126944606968764695e-13
2.818000000000000000e+03 5.687055587768554688e+01 8.370732307434082031e+00 -2.224576859527482853e-14 -3.812824283188319396e-14 -1.811220376696058565e-14 -6.482629103660153547e-14
2.819000000000000000e+03 5.678199005126953125e+01 7.188704967498779297e+00 -1.697815370552916564e-14 -4.416917254445066818e-15 -6.418521330343917100e-15 -1.078550633136152181e-13
2.820000000000000000e+03 3.706712722778320312e+01 1.986303710937500000e+01 4.972474390791195575e-14 2.131060356392461275e-14 2.131060356392461275e-14 -6.494223968268528213e-14
2.821000000000000000e+03 4.763994598388671875e+01 2.242066764831542969e+01 2.559443711927945203e-14 2.111294402111149604e-13 7.101716675665670220e-14 8.890672621936560049e-14
2.822000000000000000e+03 7.353802490234375000e+01 8.158316612243652344e+00 7.701386864388329312e-14 7.875689304274319236e-14 4.673122782836158784e-14 -4.908852390870209470e-14
2.823000000000000000e+03 4.293410110473632812e+01 8.800551414489746094e+00 -2.860476680283281781e-14 -2.867648880942180734e-13 -9.461089680792844625e-14 -2.611753925651529029e-14
2.824000000000000000e+03 4.223268890380859375e+01 8.462665557861328125e+00 -2.925881515151648737e-14 2.162152564193914328e-13 5.608693034748341022e-14 2.426992492339432456e-14
2.825000000000000000e+03 5.598482131958007812e+01 4.944585323333740234e+00 7.304789097824920807e-14 -1.974485028602424030e-13 -3.732018695272974751e-14 -2.097322017663785787e-14
2.826000000000000000e+03 3.874163436889648438e+01 1.908657455444335938e+01 5.696260656088206198e-14 7.016349307109592814e-14 3.813783124484611264e-14 1.938561480395104009e-13
2.827000000000000000e+03 4.053976821899414062e+01 1.895589447021484375e+01 6.300804333576187632e-14 3.015091431732286331e-13 1.093551586632025840e-13 8.903041335845546245e-14
2.828000000000000000e+03 3.774565124511718750e+01 2.059199523925781250e+01 4.159739162823937464e-14 1.550802943093426700e-13 5.900330544246143449e-14 2.517664150617805741e-14
2.829000000000000000e+03 3.631457519531250000e+01 2.050302696228027344e+01 1.917725113637688134e-14 1.912226209625431106e-13 6.311996010501669252e-14 -2.057872779516814465e-13
2.830000000000000000e+03 6.222781372070312500e+01 3.864684343338012695e+00 -4.160113212573444963e-14 2.792189222888818989e-14 -4.103772138460467372e-15 1.733315876625059898e-14
2.831000000000000000e+03 7.545935821533203125e+01 -2.755732834339141846e-01 4.403708368555699082e-14 2.590655283612325332e-13 9.093078259759732052e-14 -1.192510716910288870e-13
2.832000000000000000e+03 7.590647888183593750e+01 -4.704880118370056152e-01 -3.788489704240061151e-14 -2.793043303150194445e-13 -9.515677227298416363e-14 1.326974012443027373e-13
2.833000000000000000e+03 6.160219192504882812e+01 2.105932712554931641e+00 2.114000096395222961e-14 -8.244189971537765893e-14 -1.839056928661444990e-14 3.034859418892671412e-14
2.834000000000000000e+03 7.479294586181640625e+01 3.539961242675781250e+01 -7.798694686995261138e-14 3.520344484127767293e-14 -1.283505043919589209e-14 -5.037215490642094062e-14
2.835000000000000000e+03 4.192988204956054688e+01 1.663291168212890625e+01 1.504319536776640986e-13 1.102217885647245599e-13 7.819612335034295536e-14 9.595856688459150630e-14
2.836000000000000000e+03 5.409164047241210938e+01 2.032868957519531250e+01 4.216883054764322680e-14 2.010761484616888084e-13 7.297349438042596836e-14 -9.349639796098555000e-14
2.837000000000000000e+03 5.070698928833007812e+01 3.118064498901367188e+01 -5.009472451114084512e-14 4.715725490764439976e-14 -8.812411139829941058e-16 1.890246517795811376e-14
2.838000000000000000e+03 4.204140853881835938e+01 9.075943946838378906e+00 -1.042881601388823132e-13 -4.469492674184435965e-14 -4.469492674184435965e-14 -3.619269462037597029e-14
2.839000000000000000e+03 5.794387817382812500e+01 1.076821613311767578e+01 8.744385966187595560e-14 3.747593937107086826e-14 3.747593937107086826e-14 -4.252253795388946656e-14
2.840000000000000000e+03 2.297517585754394531e+01 1.433363819122314453e+01 2.806264335492025808e-13 1.660194198912709473e-13 1.339937546768893428e-13 -3.794733014687683148e-14
2.841000000000000000e+03 2.708007431030273438e+01 9.806108474731445312e+00 -1.142086100171246787e-13 1.340572482666155252e-13 5.954588679638527990e-15 -1.650105291121917173e-13
2.842000000000000000e+03 2.804414176940917969e+01 9.228775978088378906e+00 -1.337423824031985786e-13 -8.019363710413951463e-14 -6.418080449694871237e-14 -1.461095513240889820e-13
2.843000000000000000e+03 8.526925086975097656e+00 5.318037033081054688e+00 -1.380483370710039112e-14 -9.741825537446305305e-14 -3.336692494569984402e-14 1.397667924321957522e-13
2.844000000000000000e+03 4.207497596740722656e+00 2.175772857666015625e+01 3.260450042548088123e-14 -3.291587651315514007e-13 -8.896627602368936683e-14 -7.933452038485968444e-15
2.845000000000000000e+03 2.135952758789062500e+01 9.955751419067382812e+00 -4.250570910329341812e-14 -2.012205235334824094e-13 -7.311786945221956935e-14 -2.665750920786275069e-14
2.846000000000000000e+03 2.122583389282226562e+01 8.341229438781738281e+00 -7.225563056949615981e-14 -2.825969167875863608e-13 -1.064557648847511140e-13 9.257738076574179020e-14
2.847000000000000000e+03 7.431253814697265625e+01 9.485420227050781250e+00 3.259441056901318801e-14 -2.490989185754965973e-13 -6.495135375719773840e-14 -4.941278844970177497e-14
2.848000000000000000e+03 7.407289123535156250e+01 8.505407333374023438e+00 6.245021454175450626e-14 2.676437766075193125e-14 2.676437766075193125e-14 -1.411514973304116120e-15
2.849000000000000000e+03 5.860590744018554688e+01 1.100118732452392578e+01 8.021387102718352535e-14 -5.712452537907919403e-14 6.926804202651067749e-15 -1.525031830147943052e-14
2.850000000000000000e+03 6.670349884033203125e+01 2.252859687805175781e+01 2.293322222933231319e-14 9.828523933575698118e-15 9.828523933575698118e-15 -2.807571680024135985e-14
2.851000000000000000e+03 6.379075241088867188e+01 3.570323705673217773e+00 -7.839262144157879697e-14 -1.250987296608566113e-13 -6.104740600835698028e-14 8.748226752383625460e-14
2.852000000000000000e+03 6.303303527832031250e+01 2.728556632995605469e+00 4.158197393453345186e-15 4.753303260436429756e-14 1.550736908404858755e-14 9.277157492736110012e-14
2.853000000000000000e+03 3.585583496093750000e+01 1.476342391967773438e+01 1.104022878976526623e-13 1.388171668543700110e-13 7.476583642560680198e-14 -4.010406915409825412e-14
2.854000000000000000e+03 2.309517860412597656e+01 1.228740596771240234e+01 1.147191743726752589e-13 3.414412680271660533e-15 3.544007535355442329e-14 4.345784189864303204e-14
2.855000000000000000e+03 2.291364097595214844e+01 1.053746700286865234e+01 -3.085661829266847858e-15 -9.282432136305251991e-14 -2.877299432242109989e-14 1.088186954282567565e-13
2.856000000000000000e+03 4.689618301391601562e+01 4.423807621002197266e+00 1.246712727899588341e-14 -4.040789309601479362e-14 -8.382230422732030867e-15 -1.216476463831994703e-13
2.857000000000000000e+03 5.061582565307617188e+01 2.883426475524902344e+01 -4.847793597350909603e-15 8.942427012640155604e-14 2.537294308577013602e-14 -4.723019714989720383e-15
2.858000000000000000e+03 5.122668457031250000e+01 2.834902000427246094e+01 6.727481934162490851e-14 1.432094324854346623e-13 6.314527622574422905e-14 4.241080075561946827e-14
2.859000000000000000e+03 4.702238845825195312e+01 3.617107391357421875e+01 -1.945911151397111682e-14 8.816986176536298347e-15 -3.192637431823856092e-15 -2.524881125438296556e-15
2.860000000000000000e+03 2.263826751708984375e+01 1.598583507537841797e+01 3.691716799879979360e-13 -7.053831531465132310e-14 8.959001075725669949e-14 -1.192164449841451312e-13
2.861000000000000000e+03 4.305297851562500000e+01 7.381050109863281250e+00 -2.772423709064639891e-14 3.081961227023588545e-13 8.414156280360171603e-14 3.372774404057123088e-14
2.862000000000000000e+03 5.550920486450195312e+01 1.661444091796875000e+01 -1.886208542329660676e-14 4.494257342581992054e-13 1.291690956669103163e-13 -6.216861335624213059e-14
2.863000000000000000e+03 5.532606887817382812e+01 1.833326339721679688e+01 -3.744168197055211533e-14 1.212064167565793382e-13 2.512941941936863016e-14 -1.859611775548511425e-13
2.864000000000000000e+03 3.076020479202270508e+00 3.073423385620117188e+01 -3.984195989076809441e-14 -5.660865114338886617e-13 -1.817785424138365635e-13 2.702525533817678322e-14
2.865000000000000000e+03 6.950785827636718750e+01 3.498083591461181641e+00 2.915160110918482705e-14 -3.325740358561986298e-14 -1.231740700578863416e-15 1.638925269369789772e-13
2.866000000000000000e+03 4.723046112060546875e+01 3.305821228027343750e+01 7.012248990018524197e-14 3.005249518748913384e-14 3.005249518748913384e-14 1.964449653293898201e-14
2.867000000000000000e+03 4.803472900390625000e+01 3.512372589111328125e+01 1.129525821290909560e-13 -4.309364822450978405e-14 2.095768220425342498e-14 1.359341237764158643e-15
2.868000000000000000e+03 4.632313537597656250e+01 4.979179382324218750e+00 3.366560570356065540e-14 -3.132283115606787627e-14 7.028318348522417068e-16 6.397738784059969763e-14
2.869000000000000000e+03 4.095513820648193359e+00 2.108786964416503906e+01 1.343945164574214535e-13 -3.312854005878274055e-13 -5.906726659437450122e-14 2.258174760193503577e-14
2.870000000000000000e+03 5.677904129028320312e+00 2.248200035095214844e+01 1.369014493782239050e-13 -1.700826979256220284e-13 -9.954376088878742063e-15 1.046537531114444253e-13
2.871000000000000000e+03 7.545000457763671875e+01 1.307308101654052734e+01 1.127166732888852663e-14 9.633260985783542729e-14 3.228128281720400727e-14 1.207506723733750564e-13
2.872000000000000000e+03 7.617458343505859375e+01 1.305299282073974609e+01 6.544093880071072400e-14 2.339253736462904021e-13 8.980990051036391586e-14 -2.822221894117210583e-13
2.873000000000000000e+03 3.233684158325195312e+01 1.531084156036376953e+01 1.778189005546479406e-13 3.045714993144682525e-14 6.248281514582842977e-14 -2.894670722737580082e-14
2.874000000000000000e+03 4.825600051879882812e+01 3.289498138427734375e+01 5.536870061832038781e-14 1.381068111434846646e-13 5.804265488379423132e-14 -3.027938482087245975e-14
2.875000000000000000e+03 4.784450912475585938e+01 3.171155929565429688e+01 1.607249760799539517e-14 6.888212958057688198e-15 6.888212958057688198e-15 -1.464930268562335269e-14
2.876000000000000000e+03 5.341676712036132812e+01 2.111067390441894531e+01 8.542758243423181908e-14 -5.489007618114487286e-14 9.161250859486547160e-15 -9.631576406658043377e-14
2.877000000000000000e+03 2.074670600891113281e+01 6.109695434570312500e+00 -8.909634640306973719e-14 -3.126898425517138369e-13 -1.205358512654242098e-13 -1.463994534324844499e-13
2.878000000000000000e+03 6.369974517822265625e+01 4.298209190368652344e+00 -1.506594125171879794e-14 8.504506235525177704e-14 2.099373700868625153e-14 4.334420057030760609e-15
2.879000000000000000e+03 6.694328308105468750e+01 2.774924850463867188e+01 7.250003006796512661e-14 -6.043045431463126005e-14 3.620872726000159969e-15 1.667662996628418992e-13
2.880000000000000000e+03 6.609195709228515625e+01 2.832038307189941406e+01 -9.771987364258494235e-14 -2.706346973781192933e-13 -1.105063713062112707e-13 9.416931481560225636e-14
2.881000000000000000e+03 7.024386405944824219e+00 1.457281684875488281e+01 -6.849612565508478301e-14 1.078973675271328869e-13 1.182037188398807337e-14 3.335027905422040251e-14
2.882000000000000000e+03 6.556308269500732422e+00 1.407392120361328125e+01 8.382426934375793864e-15 -1.622547175826952182e-13 -4.616168965089137433e-14 -8.530651770914665644e-14
2.883000000000000000e+03 6.773725891113281250e+01 3.057820892333984375e+01 -5.258052904210698542e-14 -6.828545839670727147e-14 -3.625979657045745597e-14 1.272428749822182570e-13
2.884000000000000000e+03 6.624622344970703125e+01 3.176863861083984375e+01 2.062329561953405582e-14 2.833442573450806190e-13 9.119026605879099190e-14 1.317151225463603428e-14
2.885000000000000000e+03 5.913870620727539062e+01 1.654927825927734375e+01 3.837338433121395553e-14 1.765740602777815527e-13 6.448423202744593685e-14 2.109798643570252180e-14
2.886000000000000000e+03 5.670311737060546875e+01 1.411287307739257812e+01 4.342895468700987138e-14 1.787407298992765847e-13 6.665090842520454695e-14 7.400745500540332079e-16
2.887000000000000000e+03 4.752244949340820312e+01 3.973377466201782227e+00 -2.397659233156247682e-14 3.547526787844694496e-14 3.449602452307103627e-15 5.629226468642500869e-14
2.888000000000000000e+03 5.709638595581054688e+01 1.229142570495605469e+01 1.304183134100481145e-13 -3.560833336632880652e-14 2.844299367430261349e-14 -1.236072062846954589e-13
2.889000000000000000e+03 4.182482528686523438e+01 1.822539710998535156e+01 9.192473171548698474e-14 3.596529541197157620e-13 1.354733111715716865e-13 1.967859062550550431e-13
2.890000000000000000e+03 4.140305328369140625e+01 1.469133090972900391e+01 1.352909754712139367e-13 -7.927100138414508446e-14 1.680599425899972910e-14 6.191839304735963223e-14
2.891000000000000000e+03 3.200257492065429688e+01 3.276490783691406250e+01 4.318073337588289318e-14 1.850602834765468357e-14 1.850602834765468357e-14 8.705892045679855529e-14
2.892000000000000000e+03 5.589778900146484375e+01 1.578620719909667969e+01 -3.195322018046883872e-14 7.780766048820497716e-14 1.375633175350766263e-14 1.108279084011207921e-14
2.893000000000000000e+03 5.634943771362304688e+01 1.681081771850585938e+01 8.708189876659166995e-14 1.288227066253283537e-13 6.477138297282872270e-14 -6.695697192223362681e-14
2.894000000000000000e+03 6.656599426269531250e+01 4.030235767364501953e+00 6.597545724800965572e-14 -1.089776530192702875e-13 -1.290065737612547392e-14 1.157088476682471834e-13
2.895000000000000000e+03 6.709927368164062500e+01 3.220210313796997070e+00 9.138265773429854466e-14 -2.582171672663169382e-13 -5.005035353723187586e-14 -1.564918611634148055e-14
2.896000000000000000e+03 5.845575714111328125e+01 1.779135704040527344e+01 -7.425584805246035480e-14 1.969308098754077307e-13 3.680249057976328619e-14 -2.952570506880095036e-15
2.897000000000000000e+03 1.772323226928710938e+01 2.207986259460449219e+01 1.352551561419404469e-13 1.221554494113420014e-14 4.424120846144991015e-14 -1.077071374797067271e-13
2.898000000000000000e+03 6.788738250732421875e+01 2.172125053405761719e+01 -1.360623243305651708e-14 -2.345859780299858199e-13 -7.445766551060495342e-14 6.294172404412365363e-14
2.899000000000000000e+03 3.885834503173828125e+01 1.442206382751464844e+01 9.023870924584551090e-14 -7.077216501776223759e-15 2.494844744205595988e-14 6.088527712598892916e-14
2.900000000000000000e+03 5.953800582885742188e+01 1.989347648620605469e+01 -1.106470262093005308e-13 3.185874415841116747e-13 6.238212664532241658e-14 -1.260590888401899590e-13
2.901000000000000000e+03 6.062474822998046875e+01 2.091704750061035156e+01 3.720827357160672033e-14 1.760747174147161975e-13 6.398489594064415975e-14 7.603699571021027559e-14
2.902000000000000000e+03 6.768920898437500000e+01 1.447708964347839355e+00 1.065480304896296304e-13 -1.144648747531187838e-13 -2.375055396629114149e-15 8.146372573909765880e-14
2.903000000000000000e+03 7.079988098144531250e+01 2.055274963378906250e+00 1.932678057306111419e-13 2.658328472713439306e-13 1.377301999663446685e-13 -5.710378323626683073e-14
2.904000000000000000e+03 7.034328460693359375e+01 5.369051933288574219e+00 1.748769823341125157e-14 7.494727935323814566e-15 7.494727935323814566e-15 1.227881050959098164e-13
2.905000000000000000e+03 1.931757736206054688e+01 2.235058212280273438e+01 1.754512198503740961e-13 -1.421236311147447418e-13 9.998278653567879704e-15 -1.066896950559920176e-13
2.906000000000000000e+03 8.040367126464843750e+00 8.007080078125000000e+00 1.122995332792850465e-13 -2.149395841432449883e-13 -3.079201593681434035e-14 2.130048321427081837e-14
2.907000000000000000e+03 7.896924495697021484e+00 6.699751853942871094e+00 9.112473620185961021e-15 -6.472107599202539530e-14 -1.668258155858477754e-14 1.460583295477026200e-14
2.908000000000000000e+03 4.204094696044921875e+01 1.379307937622070312e+01 1.349781018292889323e-13 1.493496624115075999e-13 8.529833198274439088e-14 -1.193359054288281942e-14
2.909000000000000000e+03 4.115606307983398438e+01 1.531781768798828125e+01 1.851822053989746197e-13 7.364493400958266323e-14 7.764814046731446928e-14 4.669945054031239551e-14
2.910000000000000000e+03 4.197634124755859375e+01 1.223535728454589844e+01 2.140116155038146450e-13 -4.553358083918442045e-14 5.054341141582860408e-14 1.435586506170604543e-14
2.911000000000000000e+03 4.194455718994140625e+01 1.295975589752197266e+01 1.574064229653560076e-13 1.818372655140038097e-13 1.017731092543133764e-13 -5.788409709233180434e-14
2.912000000000000000e+03 4.143456649780273438e+01 1.194548702239990234e+01 1.491921278358454561e-13 1.554413878428889673e-13 9.139005063786218019e-14 -8.420019103607886968e-14
2.913000000000000000e+03 6.494933128356933594e+00 1.530453681945800781e+01 -4.693352301308843788e-14 1.171384766528865695e-13 2.106148778600533400e-14 -1.496385345278392065e-13
2.914000000000000000e+03 4.336587524414062500e+01 1.846472930908203125e+01 1.433309342795206082e-14 5.189370390649636344e-14 1.986803869211475893e-14 9.911429993793643978e-14
2.915000000000000000e+03 4.153308868408203125e+01 1.909697723388671875e+01 1.011545109285381938e-13 1.691670485333765517e-13 8.109646580569535024e-14 1.696717310921413979e-13
2.916000000000000000e+03 3.220317840576171875e+01 3.073038673400878906e+01 -2.709665343936674270e-14 -1.161285135300961155e-14 -1.161285135300961155e-14 1.023334384895810412e-13
2.917000000000000000e+03 6.379981994628906250e+00 1.467221546173095703e+01 5.219022303627578185e-14 1.138691327643923112e-13 4.981780911189268024e-14 5.657048451641194520e-14
2.918000000000000000e+03 5.236038970947265625e+01 2.432428741455078125e+01 9.502077943923659120e-14 8.647414246254134240e-14 5.444847724815973788e-14 -6.215697597057980375e-15
2.919000000000000000e+03 5.278112792968750000e+01 2.284099960327148438e+01 1.073870945509161623e-13 -9.122980555676882264e-14 4.847186274727728270e-15 5.207619884904819696e-14
2.920000000000000000e+03 1.887419891357421875e+01 2.148528289794921875e+01 1.590333089827519752e-13 -1.148466629956323981e-13 1.325599362672928369e-14 -1.090252359421152450e-13
2.921000000000000000e+03 1.894960784912109375e+01 2.011400604248046875e+01 1.481719071440637525e-13 1.092531962251439004e-13 7.722753101076229587e-14 -5.512955272412439767e-14
2.922000000000000000e+03 5.626243209838867188e+01 1.495463466644287109e+01 -4.328561977167549868e-14 3.474566012511004498e-13 9.125129986483834776e-14 -5.408770558713339727e-14
2.923000000000000000e+03 5.828220748901367188e+01 1.583335304260253906e+01 1.027661029190385378e-13 2.727973554515761290e-13 1.126690361559316844e-13 -1.364360149381030340e-13
2.924000000000000000e+03 4.922307968139648438e+01 2.712266349792480469e+01 1.716638441638662638e-13 1.536343751870616892e-13 9.758946445002567027e-14 6.757868055299112720e-14
2.925000000000000000e+03 4.352880859375000000e+01 7.765084266662597656e+00 -1.040824666579710789e-13 2.687908625060089762e-14 -2.316101479983741218e-14 9.984279740048607882e-15
2.926000000000000000e+03 2.371605491638183594e+01 3.389129257202148438e+01 -1.139977343886421426e-14 -2.776109149418143351e-14 -1.174825973402357851e-14 -6.396000672452203939e-14
2.927000000000000000e+03 2.558656692504882812e+01 3.222795867919921875e+01 7.411101219474344748e-15 -1.169200505727122086e-13 -3.285268446715818025e-14 1.717215304957060706e-14
2.928000000000000000e+03 3.202928543090820312e+01 3.417642593383789062e+01 6.433323654613659626e-14 1.648242360739043955e-13 6.874724043075958191e-14 2.624574955154349021e-14
2.929000000000000000e+03 2.976466369628906250e+01 3.158188056945800781e+01 8.161664567926316116e-14 3.497856098191344520e-14 3.497856098191344520e-14 2.294831296832059581e-14
2.930000000000000000e+03 4.987293243408203125e+01 3.319746017456054688e+01 1.404742207972153878e-13 1.774400396580000372e-13 9.537427678131191189e-14 2.241317279883837943e-14
2.931000000000000000e+03 5.065074157714843750e+01 3.241992187500000000e+01 2.572457526129560273e-14 -8.276363162786504885e-15 5.234463714256024081e-15 -4.293802180231956738e-16
2.932000000000000000e+03 6.015408039093017578e+00 3.591445541381835938e+01 1.095760377507921934e-13 -3.190464385738334130e-13 -6.284111685878057685e-14 -3.878525579588225358e-14
2.933000000000000000e+03 4.703973007202148438e+01 3.187426185607910156e+01 1.941585354135483971e-14 1.226984551287724212e-13 4.263429209281840992e-14 8.651276885900203301e-15
2.934000000000000000e+03 4.999058532714843750e+01 3.168308067321777344e+01 8.524780816150656637e-14 1.280366736028035191e-13 6.398534317404031002e-14 -4.010064714099134675e-14
2.935000000000000000e+03 2.478778266906738281e+01 3.306044387817382812e+01 8.995649142034753409e-14 -1.001297840214770973e-13 -3.051988246206989962e-15 -7.385816269559267178e-14
2.936000000000000000e+03 2.243417930603027344e+01 3.457813262939453125e+01 5.262088169171418028e-14 -1.032633044828132340e-13 -1.519272683732971613e-14 -3.686779004373301472e-14
2.937000000000000000e+03 6.779562377929687500e+01 3.331504058837890625e+01 9.640906135758870593e-15 1.185091928019785246e-13 3.844502976602451327e-14 1.594954569350374995e-14
2.938000000000000000e+03 6.675233459472656250e+01 3.371971511840820312e+01 -1.640147165218180936e-14 2.217255377781959802e-13 6.159721848255153565e-14 -2.109794408405515909e-14
2.939000000000000000e+03 4.335464477539062500e+01 4.110482788085937500e+01 9.140381322918916807e-14 4.489192966471676483e-14 4.088872320698495877e-14 -7.398510074713409573e-15
2.940000000000000000e+03 5.381087493896484375e+01 3.837450027465820312e+01 5.792004517061327684e-14 1.338513904613125235e-14 2.139155450269370623e-14 -7.269828829366536266e-15
2.941000000000000000e+03 5.002600860595703125e+01 3.495775985717773438e+01 9.425821261748248969e-14 -6.254325941694449664e-14 9.514487315414113522e-15 -5.160385262007773088e-14
2.942000000000000000e+03 1.743082427978515625e+01 4.132529067993164062e+01 9.687166162546806403e-14 3.007868883435002583e-14 3.808510513794542696e-14 2.782111733102155676e-14
2.943000000000000000e+03 6.664910888671875000e+01 3.913293075561523438e+01 2.348249133189120492e-15 1.382592364164089704e-13 4.218224754952773492e-14 -6.475830732522195807e-15
2.944000000000000000e+03 6.173453140258789062e+01 3.978464126586914062e+01 -1.794810129782543201e-14 7.237211454040257119e-14 1.632720549743244681e-14 -3.908004359031748420e-14
2.945000000000000000e+03 3.051831817626953125e+01 3.424731826782226562e+01 4.326511818622015559e-14 1.854219326637065318e-14 1.854219326637065318e-14 1.610955868756955983e-14
2.946000000000000000e+03 6.243487167358398438e+01 4.156955718994140625e+01 -1.086893196158931346e-14 1.440324639070955648e-13 3.994906212475071716e-14 -2.115167985422897190e-14
2.947000000000000000e+03 3.244797897338867188e+01 4.151284408569335938e+01 4.872338155766792189e-14 6.663239567310935696e-14 3.460673384685954146e-14 -7.013874954464073552e-15
2.948000000000000000e+03 3.447744369506835938e+01 3.730282211303710938e+01 4.993312078920009167e-14 3.283764793827852191e-14 2.483122994061722627e-14 2.150951400499423460e-14
2.949000000000000000e+03 5.162731170654296875e+00 4.095171737670898438e+01 -9.134385007278714164e-14 -5.216322165879638817e-13 -1.838928179653462336e-13 -2.823392053193183454e-14
2.950000000000000000e+03 4.608800888061523438e+00 3.896910095214843750e+01 -5.014203638344268132e-14 -6.848782066644354405e-13 -2.205060678321657530e-13 -1.263276050607331502e-13
2.951000000000000000e+03 2.907621002197265625e+01 3.321238708496093750e+01 -5.934113775721023415e-15 -7.116961235837174216e-14 -2.313111792493112440e-14 -3.535517215905344124e-14
2.952000000000000000e+03 3.252348661422729492e+00 4.188376617431640625e+01 2.186843616958024546e-15 -5.938251192855181770e-13 -1.774914850510844744e-13 -3.531738432521053239e-14
2.953000000000000000e+03 5.118318557739257812e+01 3.905999755859375000e+01 7.657812101449779085e-14 1.014456192118505518e-13 5.340712139027814498e-14 2.300658205882811363e-14
2.954000000000000000e+03 7.416490936279296875e+01 3.884259033203125000e+01 1.114521208612703762e-14 1.534671098969014880e-13 4.938369456202948427e-14 -4.961317611623140833e-14
2.955000000000000000e+03 5.676421737670898438e+01 2.102552223205566406e+01 -1.499098290164493918e-13 2.159774908829653617e-13 1.982029991520750656e-14 -2.815617476583515133e-13
2.956000000000000000e+03 6.907924652099609375e+01 1.565600275993347168e+00 -6.113894401193380526e-15 -1.856240313367896189e-13 -5.752137725552677883e-14 5.068189452644110415e-14
2.957000000000000000e+03 7.022791290283203125e+01 1.898498773574829102e+00 4.758850309801408718e-14 -2.535587706594885637e-14 6.669787301399800888e-15 -4.440006102037798164e-15
2.958000000000000000e+03 4.400435638427734375e+01 1.904191207885742188e+01 5.022622129400439173e-14 2.152552292769734088e-14 2.152552292769734088e-14 1.370513267760428699e-13
2.959000000000000000e+03 4.457069778442382812e+01 1.925556755065917969e+01 1.644677910571726298e-13 2.077390451500626956e-13 1.116620495069178820e-13 -9.307523285081997777e-15
2.960000000000000000e+03 7.602610778808593750e+01 5.122738361358642578e+00 -8.563577635640334806e-14 -1.282029495584813272e-13 -6.415161912971811820e-14 -1.589768186614336914e-14
2.961000000000000000e+03 7.204711151123046875e+01 7.494900226593017578e+00 1.486265537725683927e-13 2.467008802103931586e-13 1.185982329053938966e-13 4.688158295276280418e-14
2.962000000000000000e+03 2.638381385803222656e+01 1.253421497344970703e+01 4.859077346757757765e-14 -2.492633141180315010e-14 7.099332955545507168e-15 -1.078910046156331126e-13
2.963000000000000000e+03 2.752633285522460938e+01 1.138276672363281250e+01 -7.521362547537047138e-14 -1.237363076583841703e-13 -5.968497722962096130e-14 -1.471490301569594594e-13
2.964000000000000000e+03 8.883513450622558594e+00 1.825480842590332031e+01 -8.832834501792605209e-14 -1.064814265949211303e-13 -5.844293554961230153e-14 3.702159089816366155e-14
2.965000000000000000e+03 4.077497959136962891e+00 1.938099670410156250e+01 1.603228556585744452e-14 -1.532573438815798550e-13 -4.116751563124423918e-14 -6.383909446536738252e-15
2.966000000000000000e+03 7.127143096923828125e+01 3.238512754440307617e+00 9.584410224023134917e-14 -2.334296493079757173e-13 -4.127566479794966825e-14 -6.798638800369072310e-15
2.967000000000000000e+03 7.196246337890625000e+01 2.786968708038330078e+00 5.607453994953097431e-14 -1.132209018379903842e-13 -1.714390788891146516e-14 6.051368716016025662e-14
2.968000000000000000e+03 1.804915237426757812e+01 2.082961654663085938e+01 1.322682740244329747e-13 -1.949438196589478589e-13 -1.880266097984903406e-14 -5.257366807523422558e-14
2.969000000000000000e+03 6.691969299316406250e+01 2.388790321350097656e+01 1.636595047850575302e-14 9.851587454883306560e-14 3.446454750820164559e-14 2.902973339686566734e-14
2.970000000000000000e+03 6.496253204345703125e+01 2.388991546630859375e+01 1.155762904001336744e-14 8.501742875238055275e-14 2.897251801534453386e-14 6.466465682147468086e-14
2.971000000000000000e+03 2.490554809570312500e+01 5.502194404602050781e+00 1.760857356192940815e-13 -2.219158559170486544e-13 -1.374903287060117232e-14 1.166734216835260685e-13
2.972000000000000000e+03 2.270309257507324219e+01 9.091898918151855469e+00 -5.074638422691325756e-14 -2.848164141599357491e-13 -1.006688357891097341e-13 -3.890476875660804634e-14
2.973000000000000000e+03 3.394184875488281250e+01 1.722358703613281250e+01 1.472990803494996642e-14 -2.681928843503017523e-13 -7.603889306401212522e-14 -2.531238294054688476e-13
2.974000000000000000e+03 2.603779029846191406e+01 8.954978942871093750e+00 -1.063402228144820494e-13 2.746822680334964906e-13 5.050261153282525894e-14 -9.257696741366353010e-14
2.975000000000000000e+03 7.354484558105468750e+01 1.805321574211120605e+00 8.547822399304931193e-16 9.186823122977333389e-14 2.781690418914191387e-14 1.719426738575752234e-14
2.976000000000000000e+03 7.340444946289062500e+01 7.733795046806335449e-01 -6.971929544102861698e-14 -7.563065028848986460e-14 -4.360498168597647106e-14 -5.205099623073559251e-15
2.977000000000000000e+03 4.791646957397460938e+01 2.142616081237792969e+01 3.687812384568951718e-14 6.155585616967121365e-14 2.953019434342139815e-14 4.321854153851653613e-14
2.978000000000000000e+03 4.241262817382812500e+01 1.940184402465820312e+01 3.863801097646335503e-14 1.538119946079691269e-13 5.773499896482431337e-14 1.155947760471745522e-13
2.979000000000000000e+03 5.183577728271484375e+01 2.110662841796875000e+01 1.261491589356691922e-13 9.981487072421510454e-14 6.778920550983350002e-14 -5.690094171528900166e-15
2.980000000000000000e+03 4.990665817260742188e+01 2.322951698303222656e+01 7.178211882319027182e-14 7.888289935804263658e-15 2.390112169596211866e-14 -4.280099834123342328e-14
2.981000000000000000e+03 4.315885925292968750e+01 8.197458267211914062e+00 -6.028273176863011007e-14 6.566643930006055285e-14 1.615111624154422394e-15 1.075758202678279984e-13
2.982000000000000000e+03 2.548176956176757812e+01 5.323415279388427734e+00 2.310840050128576406e-14 -3.561039809384103361e-13 -9.989867955214823403e-14 -1.377293326046066801e-13
2.983000000000000000e+03 3.950426864624023438e+01 1.877258300781250000e+01 1.785153107150896923e-13 2.595103494075490236e-13 1.314077021025497616e-13 5.197069581326999033e-14
2.984000000000000000e+03 3.643835449218750000e+01 1.515237140655517578e+01 7.868389913148060577e-14 -9.209344034978930726e-14 -4.022861010239894841e-15 1.646410872219172816e-13
2.985000000000000000e+03 3.731023025512695312e+01 1.633506011962890625e+01 1.169083411892493651e-13 1.416054773439867631e-13 7.755414691522355408e-14 8.146240436769994209e-14
2.986000000000000000e+03 5.903952789306640625e+01 7.922206878662109375e+00 4.763897270914328741e-14 -7.108519366671658957e-14 -7.033866626085169549e-15 -2.682817448827323065e-14
2.987000000000000000e+03 5.997916030883789062e+01 8.545797348022460938e+00 1.282286671728258623e-14 9.699740874868564844e-14 3.294608509618601744e-14 -6.803269698898301021e-14
2.988000000000000000e+03 4.507188796997070312e+00 1.561227226257324219e+01 2.597606103740129901e-14 -1.718711978293541165e-13 -4.376854035995948744e-14 5.937674278714806866e-15
2.989000000000000000e+03 4.226974010467529297e+00 1.505757713317871094e+01 -8.595327818635215000e-14 2.035156745005487627e-14 -1.968051237385623486e-14 1.222723484283925674e-14
2.990000000000000000e+03 5.016984558105468750e+01 2.947216224670410156e+01 -1.402543327381740659e-14 -2.347656574350209802e-13 -7.463732458684937954e-14 -2.253956197302998260e-14
2.991000000000000000e+03 5.214323043823242188e+01 2.281032562255859375e+01 1.455524306496255166e-14 2.807436629091025759e-13 8.858967162281294883e-14 -1.407624017346620349e-13
2.992000000000000000e+03 2.687131690979003906e+01 3.805298089981079102e+00 2.628380098203958459e-13 -3.906155726565024855e-13 -3.833326546270020285e-14 -3.286345533811546593e-14
2.993000000000000000e+03 3.506019210815429688e+01 2.014314842224121094e+01 4.495049013455813813e-14 2.480192429470812199e-13 8.789091687517319729e-14 -2.734351915896493512e-13
2.994000000000000000e+03 9.393509864807128906e+00 1.904510307312011719e+01 3.339000828757841821e-14 2.201892775098926447e-13 7.607378404517542436e-14 3.418738816346467146e-14
2.995000000000000000e+03 6.217920303344726562e+01 4.604002952575683594e+00 1.238236723306298734e-14 -4.044422064505663605e-14 -8.418555430675031537e-15 -2.641697895589684153e-14
2.996000000000000000e+03 6.764606475830078125e+01 2.211929321289062500e+00 1.426232721334075304e-14 -1.768913655960865916e-13 -4.878871151482375157e-14 8.230699108380257201e-14
2.997000000000000000e+03 4.836929321289062500e+01 2.387560272216796875e+01 2.520126814208652893e-14 1.080054336846094851e-14 1.080054336846094851e-14 -6.876630206020459268e-14
2.998000000000000000e+03 4.808103561401367188e+01 2.295086860656738281e+01 2.610384951002176629e-14 -1.375032222415348282e-13 -3.341981029479461351e-14 -6.460359591037301286e-14
2.999000000000000000e+03 4.145111083984375000e+00 2.023588752746582031e+01 1.335962217859521656e-14 -4.975349017326269330e-13 -1.452525843744292833e-13 -8.201018396282108713e-14
3.000000000000000000e+03 6.593327522277832031e+00 2.171775817871093750e+01 5.788466629847235922e-14 -3.411998873541211008e-13 -8.499456563906826467e-14 2.099385660973840384e-13
3.001000000000000000e+03 6.730867767333984375e+01 2.246185874938964844e+01 -3.878008889490400235e-14 -2.453747925332261381e-13 -8.524645968505453753e-14 3.523331461112964857e-14
3.002000000000000000e+03 2.244467353820800781e+01 7.035264015197753906e+00 -2.299981595964544628e-14 5.876936171869337477e-14 1.073086305008802074e-14 -1.293901373848257985e-13
3.003000000000000000e+03 3.566830825805664062e+01 2.034763908386230469e+01 9.262808076983264360e-14 1.083241704885953838e-13 6.028567266702297700e-14 6.114487578366342713e-14
3.004000000000000000e+03 3.525852203369140625e+01 1.952732276916503906e+01 1.102935746070043618e-14 2.334816096970920851e-13 7.335329040144764057e-14 8.124876910587525147e-14
3.005000000000000000e+03 7.509411621093750000e+01 3.018316650390625000e+01 -6.740802035477833076e-14 6.261274322367366141e-14 -1.438583605199521796e-15 8.921772283627948941e-14
3.006000000000000000e+03 3.319763946533203125e+01 1.566889095306396484e+01 1.480934380118301141e-13 2.915540598118389337e-14 5.317465489197009676e-14 4.880490000851167576e-14
3.007000000000000000e+03 2.331209564208984375e+01 5.904938697814941406e+00 3.780306688343226806e-14 -3.040553377652022160e-13 -7.987568126453098438e-14 -2.564296024869586188e-14
3.008000000000000000e+03 2.496777153015136719e+01 6.559880733489990234e+00 1.237529637142589789e-13 1.902898276234452069e-13 9.421283875656397133e-14 -3.374882499656249590e-14
3.009000000000000000e+03 7.522173309326171875e+01 3.299428939819335938e+01 -4.319455356545029434e-14 2.331182664440378804e-13 5.697711454120263364e-14 -9.097196872762461362e-14
3.010000000000000000e+03 2.435806465148925781e+01 6.285728931427001953e+00 1.088092154355110863e-13 9.238347120719275773e-14 6.035780599281115322e-14 -2.684995848161071674e-14
3.011000000000000000e+03 4.020362377166748047e+00 1.138792705535888672e+01 9.262770299313816819e-15 2.327245113200454574e-13 7.259617847187385675e-14 -2.244090804566327424e-14
3.012000000000000000e+03 6.521096038818359375e+01 2.325909805297851562e+01 -9.158056528835861743e-14 -8.499976303323261706e-14 -5.297409781885101254e-14 5.186199438108295146e-14
3.013000000000000000e+03 7.506070709228515625e+01 2.904302024841308594e+01 -6.325937452835469869e-16 8.485905561410062720e-15 2.355993555425866560e-15 3.776976493607801799e-14
3.014000000000000000e+03 7.609120178222656250e+01 2.933901977539062500e+01 9.128352946848137389e-15 4.966310023814257679e-14 1.763743671782686678e-14 -5.051314862268910244e-14
3.015000000000000000e+03 7.502265930175781250e+01 2.790069961547851562e+01 1.958850087886189473e-14 -7.166909074670865798e-14 -1.562417662154085007e-14 3.483537853250957828e-14
3.016000000000000000e+03 7.611659240722656250e+01 2.866735839843750000e+01 3.226657239600904184e-15 -9.011904720732100138e-14 -2.606771677855779235e-14 1.620214785903392740e-14
3.017000000000000000e+03 3.686101913452148438e+01 1.454680919647216797e+01 1.490982494802353675e-13 1.814829922897488040e-14 5.017396274929059041e-14 5.065294294030395217e-14
3.018000000000000000e+03 3.415765762329101562e+01 1.821733283996582031e+01 -3.415734898702324496e-14 -4.895207706529479397e-14 -2.493282815450859058e-14 -1.377909423930581689e-13
3.019000000000000000e+03 3.509962081909179688e+01 1.613128471374511719e+01 1.626455453608219304e-13 1.612071343385854116e-13 9.715580390982220260e-14 7.935940451878412127e-14
3.020000000000000000e+03 7.302067565917968750e+01 1.335451960563659668e+00 5.759495392545707637e-14 1.390609226077990646e-13 5.899675957184505326e-14 -8.417757186825539084e-14
3.021000000000000000e+03 7.153678894042968750e+01 2.087962532043457031e+01 -1.638023077637010272e-13 -7.020098613747319249e-14 -7.020098613747319249e-14 -8.506315667307102341e-16
3.022000000000000000e+03 6.690664672851562500e+01 2.821835899353027344e+01 -1.657725470565959980e-13 -7.104537634193205942e-14 -7.104537634193205942e-14 8.092868551950321843e-14
3.023000000000000000e+03 7.516875457763671875e+01 2.563913345336914062e+01 -3.443032060086899382e-14 -3.763132587117877514e-14 -2.161849326398797289e-14 -1.263382573470778203e-13
3.024000000000000000e+03 5.149892807006835938e+01 2.528310012817382812e+01 2.505853970234239031e-14 -3.501157493806562881e-14 -2.985910570716971552e-15 -1.457940637384887508e-15
3.025000000000000000e+03 4.882534027099609375e+01 2.562772369384765625e+01 5.511561394994438090e-14 1.608738234857090554e-13 6.479683461882781992e-14 -1.109669912110599482e-14
3.026000000000000000e+03 6.376579284667968750e+01 2.295726585388183594e+01 2.465887737057581575e-14 5.631904109195361163e-14 2.429337587757200712e-14 2.583681220900448106e-14
3.027000000000000000e+03 5.973330307006835938e+01 6.993108749389648438e+00 -6.981048361999822593e-14 3.870764724912302557e-14 -9.330850572449381208e-15 -1.111976518351244503e-13
3.028000000000000000e+03 6.028480148315429688e+01 7.290066719055175781e+00 -7.232594955071131732e-15 2.942814720206798906e-13 8.611466845599019537e-14 -6.960580657862369680e-14
3.029000000000000000e+03 7.528634643554687500e+01 2.377511596679687500e+01 1.232333733756224570e-13 2.358180924838526593e-13 1.077154384025898193e-13 9.867096966960711701e-15
3.030000000000000000e+03 7.438946533203125000e+01 2.446928787231445312e+01 3.072022820046864389e-14 1.046677122144151761e-13 4.061638178565196711e-14 -6.159507040699729874e-14
3.031000000000000000e+03 7.603117370605468750e+01 2.722405052185058594e+01 2.129914659628005108e-14 -1.738755894906823807e-13 -4.577293202128775162e-14 -9.249849150516631369e-14
3.032000000000000000e+03 7.595349884033203125e+01 2.128863334655761719e+00 -7.484050407397316307e-14 -3.207450174598849846e-14 -3.207450174598849846e-14 -4.886426685371883516e-14
3.033000000000000000e+03 7.536824798583984375e+01 2.719207572937011719e+01 5.106956456574045233e-14 2.506417111618891580e-13 9.051337831371755738e-14 -8.152326876715784709e-14
3.034000000000000000e+03 7.607093811035156250e+01 5.920631408691406250e+00 -9.368259782564867383e-15 1.332378760272867613e-13 3.716088377227373674e-14 -1.288468843337747805e-13
3.035000000000000000e+03 7.604830169677734375e+01 1.751621627807617188e+01 -9.161389772889896865e-15 8.757559022583294439e-14 2.352425979706973536e-14 4.425095950473870166e-14
3.036000000000000000e+03 7.428652191162109375e+01 1.692937278747558594e+01 -5.837751072476637937e-14 1.122339119427953613e-13 1.615692138184823129e-14 -7.241529289192180641e-14
3.037000000000000000e+03 7.498960876464843750e+01 1.471012401580810547e+01 -1.818715093619954065e-14 1.523338340235838584e-13 4.024400238511645356e-14 2.236152344022024341e-13
3.038000000000000000e+03 7.625455474853515625e+01 6.583588123321533203e+00 2.987378478814563254e-14 -1.007242452963873214e-14 5.940408077552070121e-15 -1.421849427475987970e-13
3.039000000000000000e+03 7.479754638671875000e+01 5.812432289123535156e+00 3.863732318571018454e-14 2.585201475634180124e-14 1.934680172142877463e-14 -1.232165445250264085e-14
3.040000000000000000e+03 7.553553771972656250e+01 1.231269931793212891e+01 3.943684097275530764e-14 1.541543449964585810e-13 5.807735612957734550e-14 -1.062606152699673012e-13
3.041000000000000000e+03 7.442018890380859375e+01 1.670216321945190430e+00 2.056114711812811330e-14 -1.284409319353418955e-13 -3.236393290406529288e-14 -4.677006259492730300e-14
3.042000000000000000e+03 7.637239837646484375e+01 1.439388370513916016e+01 6.808655473190122764e-14 1.206818526404765390e-13 5.663052221171333001e-14 -2.927052589023204643e-13
3.043000000000000000e+03 7.537621307373046875e+01 2.293642616271972656e+01 -5.377044770267340457e-14 2.057102724923806636e-13 4.558194642047264100e-14 9.709310314293465027e-14
3.044000000000000000e+03 7.596636199951171875e+01 8.737174987792968750e+00 -1.121121424862980831e-13 -1.853009119843346264e-13 -8.922391634118981285e-14 7.876809420643768322e-14
3.045000000000000000e+03 7.637076568603515625e+01 9.485671997070312500e+00 -3.043313824145806035e-14 -3.591824916920199895e-14 -1.990541656201119669e-14 1.066750989842449315e-13
3.046000000000000000e+03 7.621519470214843750e+01 2.029614830017089844e+01 1.547350843376232854e-13 2.950697954202941009e-13 1.349414557958589223e-13 1.872922661145387524e-14
3.047000000000000000e+03 7.492549133300781250e+01 1.840372848510742188e+01 -1.858177918175399346e-13 -5.461614911413462115e-14 -7.213018160187600891e-14 6.287814913923453486e-14
3.048000000000000000e+03 7.468820953369140625e+01 1.046573066711425781e+01 -4.231691562374580162e-14 -2.011396149463606786e-13 -7.303696086509783858e-14 -2.449789367675245244e-14
3.049000000000000000e+03 7.493969726562500000e+01 9.781959533691406250e+00 1.546449871370897400e-13 1.120273714289368727e-13 8.000170621455526820e-14 -2.385797203768397169e-16
3.050000000000000000e+03 7.552294158935546875e+01 2.218029975891113281e+01 3.550799723152885112e-14 1.067196122596890395e-13 4.266828183092583049e-14 1.060903616475691869e-13
3.051000000000000000e+03 7.592245483398437500e+01 2.122765541076660156e+01 -1.155351140109852747e-15 2.740105505775330963e-13 8.185655929124346919e-14 -5.789391420419048168e-15
3.052000000000000000e+03 7.577277374267578125e+01 9.349795341491699219e+00 1.852234999492191614e-13 2.166343412166385485e-13 1.205573455734937349e-13 -1.359630317403562327e-13
3.053000000000000000e+03 7.572132873535156250e+01 1.570754051208496094e+00 6.510964812141356930e-15 1.400432639861795558e-13 4.396626834303474229e-14 -3.393268535622530335e-14
3.054000000000000000e+03 7.552331542968750000e+01 2.542168378829956055e+00 2.682146937546276561e-14 1.029968143650798751e-13 3.894548393631666605e-14 -1.629961255214269072e-14
3.055000000000000000e+03 5.726786804199218750e+01 2.082297325134277344e+01 -3.401150685416499952e-14 -6.032731280670999841e-14 -2.830164589826249938e-14 -1.276685734127175342e-13
3.056000000000000000e+03 7.512609863281250000e+01 2.099385070800781250e+01 -2.181630425629205866e-14 4.024086836321161265e-13 1.141777102552088419e-13 -3.415089459596516719e-14
3.057000000000000000e+03 7.461979675292968750e+01 3.080865669250488281e+01 9.572138918903082966e-15 2.125895149480104551e-14 9.249327039407943818e-15 -9.908602259002530221e-14
3.058000000000000000e+03 7.436656188964843750e+01 1.790210914611816406e+01 1.083044718903740378e-13 -7.644647578911023793e-16 3.226200095919271038e-14 1.538231483378185716e-14
3.059000000000000000e+03 7.550218963623046875e+01 1.893000411987304688e+01 8.689695420475637699e-14 1.722551104304994446e-14 3.123673872730894918e-14 4.342679898815910919e-15
3.060000000000000000e+03 7.242956542968750000e+01 2.042234039306640625e+01 -4.938172266932827625e-14 3.562817358845893345e-13 9.207000125407288627e-14 2.390843667249460680e-14
3.061000000000000000e+03 7.341310119628906250e+01 7.244460105895996094e+00 8.714166964651466965e-16 -1.254416492554866203e-13 -3.737106991593720784e-14 -4.469298195419746378e-14
3.062000000000000000e+03 7.480803680419921875e+01 7.121120452880859375e+00 -3.761261237227508589e-15 1.470786112258565259e-13 4.299520605537988927e-14 -5.460268298433917228e-15
3.063000000000000000e+03 7.533244323730468750e+01 7.491985797882080078e+00 1.169872304498248416e-13 4.386436350321647193e-15 3.641209987063735720e-14 -1.839812617575667386e-13
3.064000000000000000e+03 5.881538391113281250e+01 1.025091075897216797e+01 4.828418819825298913e-14 -7.080867467888773970e-14 -6.757346367706898796e-15 -4.296883283753417937e-14
3.065000000000000000e+03 4.110530376434326172e+00 6.431345462799072266e+00 2.907094324381548356e-14 -3.329197269426320549e-14 -1.266308644551903447e-15 -2.873231980029394839e-14
3.066000000000000000e+03 5.953218936920166016e+00 7.919849872589111328e+00 5.031896801359694860e-14 -2.418567563832862283e-14 7.839987881987087182e-15 5.858885560950169435e-14
3.067000000000000000e+03 4.900718688964843750e+00 1.153206920623779297e+01 3.315516501482037443e-15 2.759266339719124161e-13 8.377264268562278904e-14 -1.310368507494510948e-13
3.068000000000000000e+03 7.342206573486328125e+01 3.076433563232421875e+01 6.453053423647464593e-14 4.981655889126253289e-14 3.430412963238704815e-14 -5.207219746540536764e-14
3.069000000000000000e+03 5.713155269622802734e+00 5.530042648315429688e+00 1.151760419215675998e-14 5.068706481555114440e-14 1.866140129523543439e-14 7.211403376576955293e-14
3.070000000000000000e+03 4.706052780151367188e+00 2.116113471984863281e+01 1.737099233987265956e-13 -4.288133162357737893e-13 -7.653101920636687372e-14 -1.015657081549804774e-13
3.071000000000000000e+03 3.726277828216552734e+00 1.528763008117675781e+01 -8.821156289142220719e-14 -2.665596964077782127e-13 -1.064313771121337682e-13 7.350331687706532224e-14
3.072000000000000000e+03 3.817934989929199219e+00 1.468780326843261719e+01 1.160732886760010296e-13 -8.750714996369479692e-14 8.569842291318227612e-15 9.568250190642238473e-15
3.073000000000000000e+03 3.802803039550781250e+00 1.358182716369628906e+01 6.938258205680314025e-15 -1.342793064240677126e-13 -3.820231416905468802e-14 -6.042905840433418496e-14
3.074000000000000000e+03 4.256700038909912109e+00 1.411790847778320312e+01 -9.100843857820159477e-14 9.824922857703741186e-14 2.172238227848518645e-15 -6.434244802943798677e-15
3.075000000000000000e+03 3.860649824142456055e+00 2.298261451721191406e+01 7.367514936887711863e-14 -4.716853535362275363e-13 -1.194030632830841987e-13 1.140270671396055591e-14
3.076000000000000000e+03 4.546887874603271484e+00 2.298265838623046875e+01 1.183967881417460899e-13 -4.296434898392459401e-13 -9.337400508823909262e-14 -1.481132717118065472e-15
3.077000000000000000e+03 3.926887035369873047e+00 1.862205886840820312e+01 -9.232505303888652315e-14 -6.244335696301353544e-14 -4.643052096769094417e-14 -1.664363769417545602e-13
3.078000000000000000e+03 5.392562866210937500e+00 1.305594635009765625e+01 -1.254890288904242368e-13 2.985744044039541356e-14 -2.868947687382182588e-14 8.640605456610925272e-14
3.079000000000000000e+03 4.896367073059082031e+00 2.217374801635742188e+01 1.109743332926467485e-13 -2.726961993888832314e-13 -4.851656321700273389e-14 6.364537125406674600e-14
3.080000000000000000e+03 4.330610752105712891e+00 1.304158782958984375e+01 -1.120951747222986850e-13 3.345308852522634047e-14 -2.359262552030852444e-14 1.914961753350565704e-14
3.081000000000000000e+03 3.989746332168579102e+00 1.791998100280761719e+01 9.170381874657948518e-14 3.930163418558278721e-14 3.930163418558278721e-14 5.177453314708126142e-15
3.082000000000000000e+03 5.305372238159179688e+00 1.912500190734863281e+01 -1.966723089724328744e-14 -5.574402159487512609e-13 -1.731322333761720067e-13 -6.177121260244472500e-14
3.083000000000000000e+03 5.205730438232421875e+00 1.683909034729003906e+01 9.682653171003835491e-14 4.149708598662552039e-14 4.149708598662552039e-14 -2.307682988927570178e-14
3.084000000000000000e+03 4.575592994689941406e+00 1.101816558837890625e+01 -1.149353744502642355e-14 8.657609812433644803e-14 2.252476769557323899e-14 5.330974648266179061e-14
3.085000000000000000e+03 6.090049743652343750e+00 1.087525463104248047e+01 -6.235882985114113430e-14 2.020295280895367807e-13 4.190120879389233610e-14 6.278925811361787956e-14
3.086000000000000000e+03 4.841539859771728516e+00 1.863426971435546875e+01 1.297403075814843043e-13 -2.189026954493855648e-13 -2.674871602155719924e-14 -4.148172758522590542e-14
3.087000000000000000e+03 4.643444538116455078e+00 8.850501060485839844e+00 8.707770425943686665e-14 -2.371866808861811116e-13 -4.503268959989148446e-14 1.031662683883757814e-13
3.088000000000000000e+03 5.717898368835449219e+00 1.482161903381347656e+01 9.117132301395859673e-15 -8.759455698758786268e-14 -2.354322655882465365e-14 -3.377692954975239359e-14
3.089000000000000000e+03 6.389491558074951172e+00 1.589765071868896484e+01 -8.450927653490551607e-16 2.741435008689341313e-13 8.198952313517166024e-14 9.191929037583382311e-14
3.090000000000000000e+03 7.114117145538330078e+00 1.677563476562500000e+01 6.048298390988818274e-14 2.592127833450467989e-14 2.592127833450467989e-14 1.874654945166476239e-13
3.091000000000000000e+03 7.271240234375000000e+01 1.855868339538574219e+01 -1.272326919521263658e-14 -8.551698845588040498e-14 -2.947207771884438610e-14 -4.908265905257530592e-14
3.092000000000000000e+03 7.405192565917968750e+01 3.140019416809082031e+01 7.087254773937429198e-14 -3.467817938189454718e-14 1.085831101546369179e-14 -9.257303548672237564e-15
3.093000000000000000e+03 6.991773605346679688e+00 1.043431568145751953e+01 -1.386892852081253458e-13 3.206362923107754226e-14 -3.198769780955387776e-14 -9.005789820479281893e-16
3.094000000000000000e+03 7.594687461853027344e+00 8.764476776123046875e+00 -1.295944959418121600e-13 -1.356046622647683053e-13 -7.955974475146870839e-14 2.227548081699861487e-14
3.095000000000000000e+03 5.688894653320312500e+01 5.078064441680908203e+00 1.080766335800897870e-13 -4.518333949175834530e-14 1.886798754887307472e-14 -9.641744867783241801e-14
3.096000000000000000e+03 7.231745147705078125e+01 5.710449218750000000e+00 -1.808313291858446026e-13 2.541952379923190231e-13 2.200917535244775736e-14 9.383857894288555324e-14
3.097000000000000000e+03 7.536087036132812500e+01 4.557974636554718018e-01 2.345489457495318619e-14 -1.729517001619260141e-13 -4.484904269253138509e-14 -4.841673191383934205e-14
3.098000000000000000e+03 6.222266197204589844e+00 7.175600051879882812e+00 -3.931361461958875203e-14 -3.828562900737297880e-13 -1.266509683586769519e-13 6.368619146586082524e-14
3.099000000000000000e+03 6.590077972412109375e+01 3.264709472656250000e+00 2.593540345593309260e-14 -8.038672673479560493e-14 -1.633539630603239590e-14 9.026281241539257927e-14
3.100000000000000000e+03 4.680736064910888672e+00 7.378914356231689453e+00 3.895781334789689965e-14 -2.578094801444080764e-13 -6.565550241064560533e-14 7.173217776062015827e-14
3.101000000000000000e+03 6.599710083007812500e+01 2.326140785217285156e+01 3.034281403609465078e-14 1.300406315832627890e-14 1.300406315832627890e-14 5.959453443964493613e-14
3.102000000000000000e+03 7.067481231689453125e+01 2.249049949645996094e+01 -1.382738680635398412e-14 -1.889298179708065462e-13 -6.082716388954370612e-14 5.364174612853579716e-14
3.103000000000000000e+03 7.434766387939453125e+01 3.341735076904296875e+01 8.589925103684448171e-14 1.740668156488545115e-13 7.798982000570969797e-14 -3.756018950316951724e-15
3.104000000000000000e+03 4.894984722137451172e+00 6.310303211212158203e+00 5.885533217470789724e-14 -2.052723361298594562e-14 1.149842990732976439e-14 1.418962061565387511e-13
3.105000000000000000e+03 4.906027793884277344e+00 5.571343898773193359e+00 9.049548220160796852e-14 -5.271811768592718495e-14 1.133321020173718233e-14 1.296987961908052656e-13
3.106000000000000000e+03 7.443762969970703125e+01 7.849154949188232422e+00 -1.091683167475654415e-14 -4.678642388333646707e-15 -4.678642388333646707e-15 -1.232519229736508525e-15
3.107000000000000000e+03 2.458881950378417969e+01 1.192909526824951172e+01 -4.728702713142733660e-14 5.979828990917285259e-14 3.753380019169780951e-15 8.859045597532210631e-15
3.108000000000000000e+03 2.510491752624511719e+01 1.152427291870117188e+01 -3.340468228635665171e-14 -6.006723981058503803e-14 -2.804157798433522253e-14 -1.001177188841764071e-14
3.109000000000000000e+03 4.078138732910156250e+01 1.056698799133300781e+01 1.005388890765396628e-14 -8.719309047564363646e-14 -2.314176004688042743e-14 -9.328231546576470912e-14
3.110000000000000000e+03 2.138246536254882812e+01 5.667504310607910156e+00 -4.531989814351468360e-14 -1.109247107144648026e-13 -4.687338367383338256e-14 -5.821563934041429356e-14
3.111000000000000000e+03 2.389267539978027344e+01 1.400401115417480469e+01 1.467849279623845149e-13 2.001606752522963606e-13 1.040836796091515470e-13 -6.350006105789937627e-14
3.112000000000000000e+03 7.148349761962890625e+01 2.135619735717773438e+01 -1.143382805969539451e-13 2.255035757734932811e-13 3.334958448720365398e-14 -1.731421809311045612e-13
3.113000000000000000e+03 7.178372955322265625e+01 2.046422386169433594e+01 1.283253559837549407e-13 -3.650531415241679845e-14 2.754601288821462157e-14 1.146121365131966274e-13
3.114000000000000000e+03 2.253498458862304688e+01 1.007537364959716797e+01 -2.695529888706305055e-14 -2.517447513471215981e-13 -8.361001235974996337e-14 -7.541242071995926666e-14
3.115000000000000000e+03 2.605038261413574219e+01 1.143459320068359375e+01 1.807990978881356819e-14 -3.689204567921058886e-15 4.317211735674342243e-15 -6.599853720175644090e-14
3.116000000000000000e+03 5.652559280395507812e+01 4.640788078308105469e+00 1.072174575685036491e-13 6.882581120694689081e-14 5.281297859975608855e-14 1.240946364763906296e-13
3.117000000000000000e+03 5.794398498535156250e+01 3.969900608062744141e+00 2.999447004247042525e-14 -3.289617791493379406e-14 -8.705121182170383071e-16 -1.400606112209393239e-13
3.118000000000000000e+03 7.960624217987060547e+00 2.108815574645996094e+01 1.451204065770761442e-13 -1.779980243060697020e-13 -9.863282777599225587e-15 1.188452683703947188e-13
3.119000000000000000e+03 8.572885513305664062e+00 2.153108215332031250e+01 1.141773172319213159e-13 -3.170744645574624654e-13 -6.086913606614605121e-14 1.454010387568968610e-13
3.120000000000000000e+03 6.986761093139648438e+00 2.124826622009277344e+01 1.390576022386458277e-13 -1.234076859799038139e-13 4.694974030589656872e-15 1.110712880719212647e-13
3.121000000000000000e+03 6.107258605957031250e+01 6.073412418365478516e+00 -5.572463741528380088e-14 4.336274991422611746e-13 1.133708605509722855e-13 -9.612787183008869585e-14
3.122000000000000000e+03 5.933645629882812500e+01 6.611042499542236328e+00 4.218911868079586180e-14 2.925867556048677987e-13 1.004327575423145935e-13 -1.872582628239041758e-13
3.123000000000000000e+03 7.009635925292968750e+01 2.158558654785156250e+01 1.489191833270540194e-14 -1.766215483329364178e-13 -4.851888747540999969e-14 2.519384982753447577e-13
3.124000000000000000e+03 7.410554504394531250e+01 1.526984691619873047e+01 2.777364960465742577e-14 1.949067941547574789e-13 6.680413329723106086e-14 8.460069531859501502e-14
3.125000000000000000e+03 7.477529907226562500e+01 1.549851417541503906e+01 5.905769173393873861e-14 1.625632815209845927e-13 6.648629265410335720e-14 -7.547349857171987975e-15
3.126000000000000000e+03 8.641050338745117188e+00 5.866115093231201172e+00 8.245026162463295338e-14 -1.019170167639200930e-13 -5.840026202972962988e-15 -2.695194633065781803e-14
3.127000000000000000e+03 8.764176368713378906e+00 6.418268680572509766e+00 -5.463411637701177936e-14 -2.521693791279755459e-13 -9.204104627980394526e-14 2.968077647265247865e-14
3.128000000000000000e+03 7.491303253173828125e+01 1.213072490692138672e+01 3.078302722317807771e-14 1.504455739674559478e-13 5.436858171244292326e-14 6.684172123129841769e-14
3.129000000000000000e+03 7.187379837036132812e+00 6.871820449829101562e+00 -2.661989925093876524e-14 8.009336873197533957e-14 1.604204169134391955e-14 2.490748154059495290e-14
3.130000000000000000e+03 4.821290016174316406e+00 1.623361206054687500e+01 5.386523068947116077e-14 -2.266585119733380976e-14 9.359814017047794754e-15 1.638613967821014872e-13
3.131000000000000000e+03 7.072371006011962891e+00 1.603966522216796875e+01 2.750188924792625056e-14 -2.398437080452370251e-13 -6.370254258987462226e-14 3.501130727565429646e-14
3.132000000000000000e+03 5.344865798950195312e+01 2.173655700683593750e+01 4.391897341139185118e-14 3.390790523794678935e-13 1.148994094313238179e-13 -1.406924842470638759e-13
3.133000000000000000e+03 5.829527664184570312e+01 1.825235939025878906e+01 -8.167938032746860366e-14 1.074550062644952231e-14 -2.128016289386618770e-14 -4.450240631732882424e-14
3.134000000000000000e+03 5.835233688354492188e+01 1.952678298950195312e+01 -5.813651291061358584e-14 1.123371957522517617e-13 1.626020688537052616e-14 -1.650157874927282720e-13
3.135000000000000000e+03 4.705711364746093750e+01 2.112887191772460938e+01 1.382938902283470384e-13 5.926881300197597846e-14 5.926881300197597846e-14 1.224696071552150434e-13
3.136000000000000000e+03 4.849526977539062500e+01 2.106934738159179688e+01 1.206003392718304687e-15 4.626780593852339307e-14 1.424214241820768306e-14 1.210073386029861600e-14
3.137000000000000000e+03 6.854125213623046875e+01 2.868832588195800781e+00 6.895254766464686824e-14 -6.195080391605337078e-14 2.100523759852759680e-15 1.053897773087633660e-13
3.138000000000000000e+03 6.899990844726562500e+01 2.121240615844726562e+00 1.909757887854496294e-13 3.609581776813260146e-14 6.812147959438241696e-14 -4.568598239518620319e-14
3.139000000000000000e+03 6.726705932617187500e+01 3.947965621948242188e+00 1.534671403900875891e-14 3.268338019928734850e-13 1.026541590447294094e-13 3.726094208026699273e-14
3.140000000000000000e+03 6.606361389160156250e+01 2.742514038085937500e+01 2.120888507135473833e-14 1.806555800136847023e-13 6.055933884788547439e-14 1.099264044590944622e-13
3.141000000000000000e+03 6.617515563964843750e+01 2.533003234863281250e+01 6.445066919394393246e-14 1.191236101731260599e-13 5.507228313249463991e-14 7.434580295145876150e-14
3.142000000000000000e+03 6.647523498535156250e+01 2.902151679992675781e+01 6.464576459861912094e-14 1.649581756997878235e-13 6.888118005664300991e-14 4.237762755727320085e-14
3.143000000000000000e+03 4.825548934936523438e+01 2.204711723327636719e+01 6.938021798784735350e-14 4.117211671421372454e-14 3.316570041061832341e-14 -6.142310238991394167e-14
3.144000000000000000e+03 5.844791412353515625e+01 1.722306823730468750e+01 -2.813660322255589347e-14 2.166961949505788465e-13 5.656787904306619097e-14 -9.928830083409320717e-14
3.145000000000000000e+03 6.078820419311523438e+01 3.528832435607910156e+00 1.360937323122493603e-14 -6.279383209153305279e-14 -1.475533935215832954e-14 6.737017153456321961e-15
3.146000000000000000e+03 5.023151779174804688e+01 2.724586105346679688e+01 6.604365356465899395e-14 5.618390884368044957e-14 3.666826973894136976e-14 -3.763518834141825475e-14
3.147000000000000000e+03 6.874009704589843750e+01 3.599312305450439453e+00 7.129194424474599723e-14 1.678065374372331164e-13 7.172954857035188092e-14 4.778939559618028410e-14
3.148000000000000000e+03 2.625574111938476562e+01 6.645069122314453125e+00 5.135077611609709103e-14 2.200747451028967072e-14 2.200747451028967072e-14 -3.148710946924287990e-13
3.149000000000000000e+03 6.454827880859375000e+01 2.339028358459472656e+01 -1.846563334640012599e-14 -9.941574202320530018e-14 -3.536441159444209115e-14 -8.528007672866516620e-14
3.150000000000000000e+03 6.151367950439453125e+01 2.894351959228515625e+00 3.174458580116473749e-14 5.935577279247289395e-14 2.733010588402539492e-14 -1.203615268026815913e-14
3.151000000000000000e+03 6.288639831542968750e+01 4.838415145874023438e+00 -1.787836507527798546e-14 -5.341310483101754936e-14 -2.138744131070183935e-14 -2.081876710683782522e-14
3.152000000000000000e+03 3.940859603881835938e+01 1.288246917724609375e+01 2.751399368755569341e-13 2.523105151457788464e-13 1.582351464484224590e-13 4.812801565157003025e-14
3.153000000000000000e+03 3.991760253906250000e+01 1.233570098876953125e+01 9.213726244634845575e-14 -1.198241775712729357e-14 2.404645391498611701e-14 1.054631981246313688e-13
3.154000000000000000e+03 2.385233497619628906e+01 1.074299049377441406e+01 9.114965591116783172e-14 -6.686809699024296935e-15 2.533885509184083396e-14 -4.665359895281162572e-14
3.155000000000000000e+03 4.821945571899414062e+01 3.053010368347167969e+01 1.136531461391060427e-13 -1.991793232083982623e-14 2.812056380666668604e-14 1.866880605726033149e-14
3.156000000000000000e+03 4.864805603027343750e+01 2.906921958923339844e+01 1.030353441997845787e-13 3.186636881018917178e-13 1.265097103681292467e-13 7.697312974725215029e-14
3.157000000000000000e+03 4.043602371215820312e+01 1.176107788085937500e+01 1.417131250671874176e-13 1.522360931977342902e-13 8.818476276897108113e-14 -8.531031241675035570e-14
3.158000000000000000e+03 4.104108810424804688e+01 1.130737972259521484e+01 1.073635876925639610e-13 -1.369908282948181788e-13 -8.888173366522391511e-15 -1.612448849029786413e-14
3.159000000000000000e+03 5.762040710449218750e+01 8.886335372924804688e+00 1.218198803686282652e-14 -1.091565192726760836e-13 -2.909235962485386129e-14 -2.438931591137571270e-14
3.160000000000000000e+03 4.193769073486328125e+01 1.163832950592041016e+01 1.353705694632015288e-13 -2.164897357518832943e-13 -2.433574785372545624e-14 3.777321405423923750e-15
3.161000000000000000e+03 4.093678665161132812e+01 1.235886669158935547e+01 1.293723429166698802e-13 1.469471923700241267e-13 8.289585516499733964e-14 5.306570612616245963e-14
3.162000000000000000e+03 7.376874923706054688e+00 1.789690017700195312e+01 -7.536813106121323380e-14 -3.068063110425039985e-13 -1.146523333087415275e-13 9.588114807321246325e-14
3.163000000000000000e+03 5.017454910278320312e+01 2.633400154113769531e+01 6.098557260320741635e-14 3.261200725497592247e-15 1.927403312093015769e-14 -8.783840083244343067e-15
3.164000000000000000e+03 3.740328979492187500e+01 1.495848083496093750e+01 1.259993764055403198e-13 -2.662569058460573235e-13 -4.207725950978145890e-14 9.676891991709790641e-14
3.165000000000000000e+03 1.957005691528320312e+01 2.164995765686035156e+01 -6.726643858588653765e-16 -2.882847519222449337e-16 -2.882847519222449337e-16 -1.570158255801909486e-13
3.166000000000000000e+03 1.870195770263671875e+01 2.203579139709472656e+01 2.774028497686507888e-14 -1.253641559052082188e-13 -2.928716026206340528e-14 -1.132316489920251468e-13
3.167000000000000000e+03 5.664814376831054688e+01 1.597414207458496094e+01 5.230403038306886965e-14 4.341745604534430480e-13 1.459435735240086074e-13 -3.177400494948877385e-14
3.168000000000000000e+03 5.781522750854492188e+01 1.225814914703369141e+01 1.312712552591424608e-13 1.477610080732189024e-13 8.370968442071927140e-14 5.165688704697121714e-14
3.169000000000000000e+03 2.562161254882812500e+01 6.604984283447265625e+00 5.764356684036589518e-14 -2.498013189529413314e-13 -5.764732089038812624e-14 1.527898494573312616e-13
3.170000000000000000e+03 4.865798950195312500e+01 2.845303916931152344e+01 -2.224083208725823047e-14 -5.528273355043765436e-14 -2.325707003012194435e-14 5.284339724695788498e-14
3.171000000000000000e+03 4.884859848022460938e+01 2.748281097412109375e+01 -5.029957773536840315e-14 2.071977843205036196e-13 4.706946163672738603e-14 3.100410282241145010e-14
3.172000000000000000e+03 2.363200187683105469e+01 7.231972694396972656e+00 -7.400590387631866135e-15 -3.171681413192311075e-15 -3.171681413192311075e-15 -5.648709920495244285e-14
3.173000000000000000e+03 5.433566284179687500e+01 1.894326400756835938e+01 -5.304994877224468788e-15 4.552358923853860873e-13 1.349792808991515103e-13 -1.586104294779011603e-13
3.174000000000000000e+03 5.543109130859375000e+01 1.892198753356933594e+01 1.748252963836710583e-13 4.409327178551969428e-13 1.847274096926712628e-13 2.117116669421350433e-14
3.175000000000000000e+03 6.442849731445312500e+01 2.313841104507446289e+00 8.972178875505873452e-14 -1.873649246007542263e-14 2.129558905790158302e-14 3.222534476136733328e-14
3.176000000000000000e+03 6.537473297119140625e+01 2.461665868759155273e+00 1.125860337033643410e-13 2.537568239032155643e-14 4.138851669157825319e-14 1.163597213374445438e-13
3.177000000000000000e+03 9.993673324584960938e+00 1.958604621887207031e+01 8.720988205679000571e-14 3.737566422264311516e-14 3.737566422264311516e-14 1.000549469665212854e-13
3.178000000000000000e+03 5.073635101318359375e+01 2.779501342773437500e+01 3.521375365576223139e-15 1.787940861986900276e-13 5.469463857515899363e-14 -6.457955372719814680e-14
3.179000000000000000e+03 7.364511871337890625e+01 3.573888015747070312e+01 -2.803267058586189631e-14 1.709897956732320257e-13 4.288713820383739661e-14 -5.645441135648495215e-15
3.180000000000000000e+03 3.440806961059570312e+01 1.574264526367187500e+01 5.689111698013379903e-14 -1.471841447548208337e-13 -2.708791036528518381e-14 -6.388308723906540275e-16
3.181000000000000000e+03 6.303230667114257812e+01 3.364209890365600586e+00 7.266402242281713719e-14 1.683945680380077858e-13 7.231757917112655032e-14 6.530722279152537113e-15
3.182000000000000000e+03 2.725783538818359375e+01 9.149808883666992188e+00 -6.660367109180206913e-14 2.688367378104322691e-13 6.066992069321541781e-14 -9.089930685327735072e-14
3.183000000000000000e+03 7.217929077148437500e+01 1.351194858551025391e+00 7.740126763263951992e-14 1.246738714870410103e-13 6.062254105827780126e-14 -5.104227316417991878e-14
3.184000000000000000e+03 7.116918182373046875e+01 4.389380931854248047e+00 -9.965886080785801848e-14 2.203570171385033083e-13 3.620944554394087134e-14 -4.891744442918040739e-15
3.185000000000000000e+03 6.227030563354492188e+01 3.144362211227416992e+00 -3.978904404848722376e-14 7.444945267914837572e-14 1.039812140335221943e-14 4.496984208454582032e-16
3.186000000000000000e+03 5.322909355163574219e+00 1.113456344604492188e+01 -2.002995615505917537e-13 2.029601936818711816e-13 7.981906452354532288e-16 -9.503479275231596635e-14
3.187000000000000000e+03 5.586814880371093750e+01 1.824611091613769531e+01 -1.465526071537433944e-14 2.224739218802812557e-13 6.234559580837323312e-14 -5.113114047287405095e-14
3.188000000000000000e+03 5.605345535278320312e+01 1.879240989685058594e+01 -2.564075796303300070e-14 3.550186945637523461e-13 9.881337962496308802e-14 -2.331574332475189193e-13
3.189000000000000000e+03 5.813033294677734375e+01 9.982280731201171875e+00 9.977599191193613215e-15 -1.329767323815164715e-13 -3.689974012650344692e-14 -1.324846943305882374e-14
3.190000000000000000e+03 5.947230529785156250e+01 1.045559120178222656e+01 6.879277692200397309e-14 2.948261819684001861e-14 2.948261819684001861e-14 -1.020320777194751172e-13
3.191000000000000000e+03 6.144436264038085938e+01 5.076832294464111328e+00 -1.418744001403446364e-13 -6.080331144174902502e-14 -6.080331144174902502e-14 1.025870266014618226e-13
3.192000000000000000e+03 4.896709060668945312e+01 3.406573867797851562e+01 5.132605291843263251e-14 9.026587528652985082e-14 4.247757744504920829e-14 -2.285859185041563130e-14
3.193000000000000000e+03 7.512962341308593750e+01 1.142742824554443359e+01 1.043156226410981921e-14 2.734614360584870785e-14 1.133331184569085284e-14 1.369174278077409102e-13
3.194000000000000000e+03 5.418563461303710938e+01 2.107394027709960938e+01 -7.567770974497341901e-15 8.825856983186303184e-14 2.420723940309982281e-14 -1.585882304384195196e-13
3.195000000000000000e+03 5.029574584960937500e+01 2.581491851806640625e+01 -8.441831049032632456e-15 -3.617927592442556767e-15 -3.617927592442556767e-15 -3.539429237572238110e-15
3.196000000000000000e+03 5.008829116821289062e+01 2.522830009460449219e+01 5.146832734851704283e-14 1.364352288915279821e-13 5.637106585557397076e-14 1.350217138616771617e-13
3.197000000000000000e+03 5.335171127319335938e+01 2.045035171508789062e+01 9.496948990021444881e-14 3.152068992103018719e-13 1.230529214765394008e-13 -1.654641728536868084e-13
3.198000000000000000e+03 6.610536956787109375e+01 1.951579451560974121e+00 2.095346330254974077e-13 -1.701338307635489287e-15 6.234998682717179941e-14 8.379728795625610016e-14
3.199000000000000000e+03 4.409663200378417969e+00 2.230828475952148438e+01 5.548441887144248130e-14 -2.964776048362122163e-13 -7.229795511180456269e-14 -5.771742811336647017e-14
3.200000000000000000e+03 7.462322235107421875e+01 8.822854042053222656e+00 2.109121660957488653e-13 -4.686192162399113736e-14 4.921507063102188717e-14 -3.485928857854467267e-14
3.201000000000000000e+03 5.834208297729492188e+01 1.179466438293457031e+01 4.625645230889839643e-14 -2.592675524954162619e-14 6.098909541323504699e-15 1.463368848027366692e-14
3.202000000000000000e+03 2.434168624877929688e+01 1.336223506927490234e+01 2.156566076974911206e-13 2.754280636028949569e-13 1.473254027453685389e-13 8.521969683205309065e-15
3.203000000000000000e+03 5.838153076171875000e+01 1.656521034240722656e+01 3.169072128198294203e-14 2.652119517922157943e-13 8.907079988938054749e-14 -3.943793872745494922e-14
3.204000000000000000e+03 5.767821502685546875e+01 2.022534942626953125e+01 -5.070436631053176074e-15 1.350797999930680726e-13 3.900281112618683710e-14 -1.117138133843904868e-13
3.205000000000000000e+03 5.953919887542724609e+00 1.361048030853271484e+01 5.255207551134281896e-15 9.375412636991251047e-14 2.970280271741287947e-14 -2.131600255193041166e-14
3.206000000000000000e+03 2.579888725280761719e+01 3.413614273071289062e+01 3.757622807202577742e-14 2.182296701745516099e-14 1.781975886565746042e-14 -1.505305788059106004e-14
3.207000000000000000e+03 4.159039306640625000e+01 1.590340137481689453e+01 1.516397515096811616e-14 1.437516962020032874e-13 4.767470055885847380e-14 2.404972651148112872e-13
3.208000000000000000e+03 4.150272369384765625e+01 1.760954666137695312e+01 8.373359785488615481e-14 3.588582813611289335e-14 3.588582813611289335e-14 1.228157251462538846e-13
3.209000000000000000e+03 2.654759788513183594e+01 3.287490081787109375e+01 8.608544920744171103e-14 3.689376346202762058e-14 3.689376346202762058e-14 -9.608524913218285946e-14
3.210000000000000000e+03 3.148255157470703125e+01 3.050983619689941406e+01 1.152433319129633760e-13 -8.786284281516940076e-14 8.214146898744782016e-15 -5.071121880707504803e-14
3.211000000000000000e+03 4.223401260375976562e+01 1.019924736022949219e+01 -1.268009406241860093e-13 -7.721873542063800722e-14 -6.120590281344720496e-14 -9.983027994759155477e-14
3.212000000000000000e+03 5.774968719482421875e+01 1.726844978332519531e+01 -2.824087806056058136e-14 3.539043515708717447e-13 9.769904340834606460e-14 -1.260286363116702724e-13
3.213000000000000000e+03 5.180788421630859375e+01 2.401944923400878906e+01 9.167876690013149199e-14 2.909211229123326303e-13 1.147799710094973835e-13 -1.280535058415313565e-13
3.214000000000000000e+03 5.201220703125000000e+01 2.346244812011718750e+01 9.805506152047241408e-14 1.564009745281744190e-13 7.633681149222040774e-14 -4.189417842043012541e-14
3.215000000000000000e+03 6.516771697998046875e+01 3.871961832046508789e+00 5.534277802200261720e-14 2.067221312749070727e-13 7.861947041738065467e-14 1.250127524285785108e-13
3.216000000000000000e+03 6.449198150634765625e+01 3.746159076690673828e+00 3.468492176415469141e-14 1.486496743838966461e-14 1.486496743838966461e-14 3.254695724220916034e-15
3.217000000000000000e+03 7.577264404296875000e+01 3.029669523239135742e-01 -1.116663321054991997e-13 1.351467901348005207e-13 7.044137747603575195e-15 -1.022461873197502702e-13
3.218000000000000000e+03 5.762025070190429688e+01 1.666980361938476562e+01 -7.646716647467105554e-14 3.332359616112917644e-13 7.703063311997535023e-14 -1.400647311891947688e-13
3.219000000000000000e+03 6.798060607910156250e+01 3.778337478637695312e+00 1.489217413665547274e-13 1.807265410458738786e-14 5.009831931896899238e-14 1.518865328647978075e-13
3.220000000000000000e+03 7.490065002441406250e+01 1.729744338989257812e+01 2.376351357038413228e-15 4.105051666430589719e-14 1.302806044875494049e-14 4.993310046040935757e-14
3.221000000000000000e+03 4.078416442871093750e+01 1.479001426696777344e+01 1.258902785619339659e-13 -3.754891972980629877e-14 2.650240900489101575e-14 1.047077124983163132e-13
3.222000000000000000e+03 3.940527343750000000e+01 1.393848419189453125e+01 1.340739991901804262e-13 1.203678405862704248e-13 7.633254922242982410e-14 1.652413015446052569e-13
3.223000000000000000e+03 4.784848785400390625e+01 3.739811706542968750e+01 8.193815905725015947e-14 1.224087969658657626e-14 2.825371230377737852e-14 5.471287350044748421e-14
3.224000000000000000e+03 4.767710494995117188e+01 4.143084716796875000e+01 6.779351521346912990e-14 8.624305154573963517e-14 4.621097002776262952e-14 5.143490681655017716e-15
3.225000000000000000e+03 4.223046875000000000e+01 1.732520103454589844e+01 1.346559989163706450e-13 2.864644556722223401e-13 1.263361431528414736e-13 1.508680740015463928e-13
3.226000000000000000e+03 4.117573928833007812e+01 1.855113601684570312e+01 1.763525171163612959e-13 7.557965212880157768e-14 7.557965212880157768e-14 6.652474117364512440e-14
3.227000000000000000e+03 4.920162582397460938e+01 2.789549064636230469e+01 6.791354740539158955e-15 4.866152782372762386e-14 1.663586599747780836e-14 4.594102740373626204e-14
3.228000000000000000e+03 4.970611190795898438e+01 2.763150978088378906e+01 4.310392442822587322e-14 2.186335151550117262e-13 7.852122814802631190e-14 -2.738408814078685874e-16
3.229000000000000000e+03 2.559553146362304688e+01 3.668743133544921875e+01 4.661075263820771419e-14 -2.577491104121913679e-14 6.250752479096573222e-15 -2.696430792949004729e-14
3.230000000000000000e+03 7.329853057861328125e+01 3.307188796997070312e+01 4.222048939303037207e-14 1.324718736398985963e-13 5.240770721581279601e-14 -1.239544762405425660e-13
3.231000000000000000e+03 3.219417572021484375e+01 3.580578994750976562e+01 4.462347104241398688e-14 -2.662660436374923029e-14 5.399059580082953350e-15 -5.445292332409987571e-15
3.232000000000000000e+03 2.921703147888183594e+01 3.426509094238281250e+01 3.798595823740341659e-14 1.627969541942095311e-14 1.627969541942095311e-14 4.209663115328516475e-15
3.233000000000000000e+03 2.304800987243652344e+01 3.264159011840820312e+01 3.400728524195588409e-14 -1.112405591361005641e-13 -2.316998318468294071e-14 -4.308127137908450421e-14
3.234000000000000000e+03 3.235472106933593750e+01 3.951595687866210938e+01 9.097043051579239981e-14 1.190514836236014617e-13 6.300657288656544286e-14 2.556257851606732329e-14
3.235000000000000000e+03 6.833396148681640625e+01 3.438716888427734375e+01 -4.428959775966065382e-14 1.525847997214599405e-13 3.248856194379250162e-14 3.384286937063024636e-14
3.236000000000000000e+03 6.709611511230468750e+01 3.500098419189453125e+01 3.784477563278801707e-15 9.312381866067448444e-14 2.907248823191127540e-14 -7.194032933114432454e-15
3.237000000000000000e+03 6.824346160888671875e+01 3.193447685241699219e+01 1.209674264105115374e-14 9.668621562012799653e-14 3.263488857949657651e-14 9.352287959904850845e-14
3.238000000000000000e+03 7.219495391845703125e+01 3.326897430419921875e+01 1.150288631707185871e-13 1.407999828924658137e-13 7.674865923996618267e-14 -4.043796954190589932e-14
3.239000000000000000e+03 3.010687828063964844e+01 3.305392456054687500e+01 1.482287159497702039e-14 6.337909734149317371e-16 4.636998860514836285e-15 -2.169237317171338747e-14
3.240000000000000000e+03 3.987137985229492188e+01 3.976345443725585938e+01 5.236965171955855480e-14 7.391395167363062901e-14 3.788508000151721844e-14 1.414969808937729598e-14
3.241000000000000000e+03 6.519586181640625000e+01 3.621505737304687500e+01 -1.079732379622843491e-14 1.440631603811040606e-13 3.997975182249563497e-14 6.881058097222010725e-17
3.242000000000000000e+03 2.195545959472656250e+01 4.121504592895507812e+01 1.050556804093119578e-13 -4.647803612790012140e-14 1.757329260679719313e-14 -2.453778384637044646e-14
3.243000000000000000e+03 1.260660171508789062e+01 4.134763336181640625e+01 4.732621426369910955e-14 2.028266301386163345e-14 2.028266301386163345e-14 -5.640497216093608678e-16
3.244000000000000000e+03 2.525609016418457031e+01 1.028031921386718750e+01 -1.048830754234522655e-13 2.295557949456850100e-13 3.740182060005432796e-14 2.055731852920652386e-14
3.245000000000000000e+03 8.166325569152832031e+00 1.809577178955078125e+01 1.619020808260943078e-13 -2.211528994601388159e-14 4.193603878868343293e-14 7.123620947681666427e-14
3.246000000000000000e+03 6.204814910888671875e+00 2.018756675720214844e+01 1.900461260801247776e-13 -1.473064021022957304e-13 1.282191634631576690e-14 1.643760404483260440e-13
3.247000000000000000e+03 7.537528991699218750e+01 1.073711013793945312e+01 4.446701050452896153e-14 6.480823907042965182e-14 3.278257385604804730e-14 2.166464978334975422e-14
3.248000000000000000e+03 6.947318267822265625e+01 2.196895122528076172e+00 1.582539573561150825e-13 6.782312748530514024e-14 6.782312748530514024e-14 1.731528874275578556e-13
3.249000000000000000e+03 6.991929626464843750e+01 2.430147171020507812e+00 8.809772166331122922e-14 2.207599608759075460e-13 9.265730679464470598e-14 -1.466194549939407038e-14
3.250000000000000000e+03 7.074810028076171875e+01 2.697695970535278320e+00 3.087442207818681672e-14 -1.240209513862430835e-13 -2.794395913123005892e-14 -3.686228432957586176e-14
3.251000000000000000e+03 7.073497772216796875e+01 4.097554683685302734e+00 9.288349169661591631e-14 -5.943739034617147657e-15 2.608192490921503598e-14 1.019219244728164844e-14
3.252000000000000000e+03 7.039389801025390625e+01 4.493418216705322266e+00 2.903361619589588105e-14 6.963166480043747608e-14 2.959958328246047043e-14 8.557162546911009637e-14
3.253000000000000000e+03 4.320161056518554688e+01 1.782144165039062500e+01 1.334388735575384177e-13 4.689466046384205278e-13 1.807156448140403993e-13 1.013092198022882973e-13
3.254000000000000000e+03 6.914445495605468750e+01 2.609323263168334961e+00 6.544986991610657334e-14 6.236315988356749829e-14 3.834390758464950588e-14 4.364143713699334889e-15
3.255000000000000000e+03 3.782252883911132812e+01 1.842714118957519531e+01 3.140581327984448556e-14 1.507124774372675668e-13 5.463548857038633133e-14 7.252126010175510840e-14
3.256000000000000000e+03 6.814762878417968750e+01 2.356588745117187500e+01 6.430148975127350508e-14 -2.011969692412851618e-13 -4.106864316937713921e-14 1.151359010301972186e-13
3.257000000000000000e+03 5.264191818237304688e+01 2.117329406738281250e+01 7.745408860723029809e-14 3.534512634829900524e-13 1.292716069823188207e-13 -5.214285695386532138e-14
3.258000000000000000e+03 6.789699554443359375e+01 2.242716598510742188e+01 -1.587401068339940047e-14 -6.803147556747306951e-15 -6.803147556747306951e-15 -3.997809502605080556e-14
3.259000000000000000e+03 7.078504943847656250e+01 2.182320594787597656e+01 -1.284772391555930038e-13 -9.310725916655566287e-15 -4.133639028400422355e-14 -2.587989501520726598e-13
3.260000000000000000e+03 3.751179504394531250e+01 1.582887268066406250e+01 1.617620290104634928e-13 1.608284767298448492e-13 9.677715307734521821e-14 -6.415658782498671192e-15
3.261000000000000000e+03 2.482856559753417969e+01 8.127363204956054688e+00 3.991822334920708260e-14 1.429229185088282117e-13 5.485234255741058829e-14 -1.246876001970501080e-13
3.262000000000000000e+03 2.504270744323730469e+01 5.997671604156494141e+00 1.180918969383160100e-13 -3.153967701157583958e-13 -5.919146195323271575e-14 5.158233120695389362e-14
3.263000000000000000e+03 4.863536071777343750e+01 2.968737030029296875e+01 -4.101175982477132942e-14 -2.920821679137930449e-13 -9.992817662750341778e-14 1.153828416275079483e-13
3.264000000000000000e+03 5.979122161865234375e+01 4.310077667236328125e+00 -1.481468168634957777e-16 -2.288182393127974334e-13 -6.868991324088941086e-14 -1.656076890340718935e-15
3.265000000000000000e+03 6.010351181030273438e+01 3.514534473419189453e+00 4.256552995816030582e-14 -1.190104736764271975e-13 -2.293348311548006752e-14 -8.060920502058963044e-14
3.266000000000000000e+03 7.532647705078125000e+01 6.379651069641113281e+00 4.374706638068069642e-14 -2.700220587761609919e-14 5.023458913249031696e-15 -1.020346865809526604e-13
3.267000000000000000e+03 7.392304992675781250e+01 7.561750411987304688e+00 6.727835316308085345e-15 -8.861853850565537538e-14 -2.456721146502395536e-14 -3.137026161298232807e-14
3.268000000000000000e+03 6.605793762207031250e+01 2.254437637329101562e+01 -1.545121046083244853e-13 -6.621947727571825260e-14 -6.621947727571825260e-14 8.113115349895130834e-14
3.269000000000000000e+03 6.740040588378906250e+01 2.314023780822753906e+01 1.101435057797393174e-14 5.047138312212588740e-14 1.844572129587607190e-14 1.536885039805230280e-14
3.270000000000000000e+03 7.399668121337890625e+01 3.020728874206542969e+01 8.632566775128303060e-14 -8.754232893606016253e-15 2.327143062670969376e-14 8.914895561942370178e-15
3.271000000000000000e+03 2.531100463867187500e+01 7.580970764160156250e+00 5.296443147885694647e-14 -1.288509771969759132e-13 -2.276596371543569003e-14 -1.105234254675712888e-14
3.272000000000000000e+03 5.228324890136718750e+01 2.214916419982910156e+01 6.752363018768317571e-14 2.893869768382656416e-14 2.893869768382656416e-14 8.013754997050412388e-14
3.273000000000000000e+03 5.274332809448242188e+01 2.178488159179687500e+01 7.826488887313284848e-14 -5.795980150902560468e-14 6.091525108089341708e-15 -6.447614116873376378e-14
3.274000000000000000e+03 7.452481842041015625e+01 2.963683700561523438e+01 -8.180522231837628055e-14 -8.081033129984926955e-14 -4.878466608546766503e-14 -1.327804240256608148e-13
3.275000000000000000e+03 7.553726196289062500e+01 2.959358596801757812e+01 -1.548965593105560562e-14 -6.638424212461815910e-15 -6.638424212461815910e-15 -1.399410237213141728e-13
3.276000000000000000e+03 2.191007614135742188e+01 7.929726123809814453e+00 7.568841115922902985e-14 -2.878187597109282958e-13 -6.363910321025706418e-14 -5.603808703961293824e-14
3.277000000000000000e+03 7.356605529785156250e+01 3.370614242553710938e+01 -1.058173866455916490e-13 2.977818187345493417e-13 5.758932962668730782e-14 -4.957124459721053145e-14
3.278000000000000000e+03 7.424944305419921875e+01 7.412599921226501465e-01 -2.479880890752812067e-14 -1.478809072809686431e-13 -5.180391502595561859e-14 9.698443898019729059e-14
3.279000000000000000e+03 9.632249832153320312e+00 2.038325500488281250e+01 4.547038540505567161e-14 -1.482590397292819079e-14 9.193344090825065346e-15 1.360656514759819857e-13
3.280000000000000000e+03 7.521663665771484375e+01 1.552788257598876953e+00 -1.414124486997028751e-13 -1.521072357695343880e-13 -8.805590534077117892e-14 -1.383063043432219974e-13
3.281000000000000000e+03 7.451143646240234375e+01 2.852031517028808594e+01 -9.735533268494332010e-15 -4.172371219276225021e-15 -4.172371219276225021e-15 -1.629522119453094553e-13
3.282000000000000000e+03 5.007530975341796875e+01 2.154961013793945312e+01 1.369531522693243075e-13 1.501961126000941893e-13 8.614477539506740222e-14 -8.427499420971679145e-14
3.283000000000000000e+03 4.857941055297851562e+01 2.322323226928710938e+01 5.823635437817234473e-14 -8.941893720696564296e-14 -9.354775018044578921e-15 -1.062388024775096085e-13
3.284000000000000000e+03 6.020664978027343750e+01 4.728975772857666016e+00 1.000331545028543268e-13 1.343732525423135815e-13 7.032192211355037248e-14 -7.886369373299659258e-14
3.285000000000000000e+03 2.382488250732421875e+01 5.955469131469726562e+00 -7.063392839373738852e-14 1.527321156916464084e-13 2.462945314005409586e-14 -2.198111077921297007e-13
3.286000000000000000e+03 2.376024246215820312e+01 9.166635513305664062e+00 -1.164844723499161572e-13 -4.170968532715571900e-15 -3.619663162951480828e-14 -1.838178894308321182e-14
3.287000000000000000e+03 7.487028503417968750e+01 2.686141014099121094e+01 7.890321290218368921e-14 -1.193528630284322253e-14 2.009037806450543473e-14 -6.661942590462099911e-14
3.288000000000000000e+03 6.895547485351562500e+01 2.332426834106445312e+01 8.048371539538801134e-15 -4.230164531377270110e-14 -1.027598264048993834e-14 1.711908812949101966e-14
3.289000000000000000e+03 7.441494750976562500e+01 2.581116676330566406e+01 -1.991861714697768133e-15 -2.296084058561048691e-13 -6.948007978419684649e-14 -5.187279235709454928e-14
3.290000000000000000e+03 3.638562393188476562e+01 1.980467605590820312e+01 7.208425208734409173e-14 -1.485769820163632821e-14 1.716796531867938180e-14 1.658230437727795104e-13
3.291000000000000000e+03 3.514614868164062500e+01 1.787708854675292969e+01 -2.845376793339168819e-15 -9.272134248545713109e-14 -2.867001544482571107e-14 9.491862218360003906e-15
3.292000000000000000e+03 6.959311676025390625e+01 2.358235359191894531e+01 -5.394501441683893783e-14 -9.174571638428247189e-14 -4.370721856271006511e-14 -5.165619840918509939e-16
3.293000000000000000e+03 4.945953750610351562e+01 2.538555335998535156e+01 -7.358783721267414535e-14 -3.153764209962335585e-14 -3.153764209962335585e-14 1.132964639531490458e-13
3.294000000000000000e+03 4.993661499023437500e+01 2.462485694885253906e+01 -1.914914658318698365e-14 -1.454596263317925464e-13 -4.938263068864773286e-14 1.065937702687813626e-13
3.295000000000000000e+03 7.548407745361328125e+01 8.462832450866699219e+00 2.334561309460386758e-13 1.000526227081140196e-13 1.000526227081140196e-13 -1.246750370043764322e-13
3.296000000000000000e+03 7.455264282226562500e+01 2.364078140258789062e+01 -2.367608875879917418e-14 1.271059538003604938e-13 3.102895815721568029e-14 3.838017075918735699e-14
3.297000000000000000e+03 7.534924316406250000e+01 2.647110748291015625e+01 -3.132312592353352076e-14 -1.506770375787544469e-13 -5.460005210000500042e-14 -9.851918814172272443e-14
3.298000000000000000e+03 7.447799682617187500e+01 2.747652435302734375e+01 -1.952031472660792355e-14 -9.986774590891450698e-14 -3.581641886828308696e-14 -1.362664592708534572e-13
3.299000000000000000e+03 7.472103118896484375e+01 1.186969280242919922e+00 4.999208105859256901e-14 4.430065323368821695e-14 2.828781893243152018e-14 -2.619704007487868441e-14
3.300000000000000000e+03 5.580935287475585938e+01 2.086291313171386719e+01 -4.393205837636103561e-14 7.267387511005959921e-14 8.622543834263442925e-15 -1.510254594994098198e-13
3.301000000000000000e+03 5.488653945922851562e+01 2.029421043395996094e+01 1.017712525580929950e-13 2.037445732960829758e-13 9.165474504574736003e-14 -7.563453308752007831e-14
3.302000000000000000e+03 7.498918151855468750e+01 4.026187419891357422e+00 2.597798210812567177e-14 5.688436782161007677e-14 2.485870599536026126e-14 -1.274004095578804008e-13
3.303000000000000000e+03 7.380883789062500000e+01 2.784203290939331055e+00 -3.441780484204036428e-14 -1.475048754743645690e-14 -1.475048754743645690e-14 -1.014005905168580395e-15
3.304000000000000000e+03 7.419593048095703125e+01 5.336959362030029297e+00 9.671876201409329576e-14 7.137685760364234633e-15 3.115693467115043802e-14 -2.648168414155077643e-13
3.305000000000000000e+03 7.462473297119140625e+01 2.286318397521972656e+01 1.073455526670510224e-14 7.322694696703518913e-14 2.518845083952867686e-14 -6.648615035256821848e-14
3.306000000000000000e+03 7.465628051757812500e+01 3.523705005645751953e+00 -6.310587225303795900e-14 3.389622295953825803e-13 8.275690110406616617e-14 -9.590238488326602306e-14
3.307000000000000000e+03 7.547142791748046875e+01 3.650708675384521484e+00 2.592044417645822385e-13 2.025895185116255437e-13 1.385381880828623347e-13 -4.884603531656213360e-14
3.308000000000000000e+03 7.323741912841796875e+01 1.792223167419433594e+01 -7.498868740589761939e-14 1.508657836244570172e-13 2.276312954319417714e-14 -1.006047501233534210e-15
3.309000000000000000e+03 7.513484954833984375e+01 3.079799890518188477e+00 5.593623979803508117e-14 1.154745651313002219e-13 5.142324147880059093e-14 -2.146398429001342145e-14
3.310000000000000000e+03 7.558735656738281250e+01 1.002998352050781250e+01 1.748838538888971162e-15 -9.075239745890556486e-14 -2.670106703014235583e-14 -1.107899952064016896e-14
3.311000000000000000e+03 7.467045593261718750e+01 2.136408615112304688e+01 -4.968069141839115410e-14 2.445922492864439912e-14 -7.566440285737205396e-15 1.388840214708308984e-13
3.312000000000000000e+03 7.546237945556640625e+01 2.155322074890136719e+01 -7.333283963796913274e-14 1.432258683127431848e-14 -1.770307668904139153e-14 1.638008711958224839e-13
3.313000000000000000e+03 7.498773956298828125e+01 2.084599733352661133e+00 1.087050981456345877e-13 1.952784857645398220e-13 9.119507042966781829e-14 -6.420958328836462448e-14
3.314000000000000000e+03 7.530745697021484375e+01 2.002435111999511719e+01 4.160060696530715196e-14 4.753383017058743221e-13 1.550816766671125890e-13 2.533256841330631254e-14
3.315000000000000000e+03 7.438599395751953125e+01 1.894861602783203125e+01 3.024276589249676184e-14 1.014249312791468127e-13 3.950031084555896688e-14 -7.963502226355709257e-14
3.316000000000000000e+03 7.476821899414062500e+01 2.045714950561523438e+01 2.987547207777656311e-14 1.500566164380767731e-13 5.397962757119553756e-14 1.144012049805395725e-13
3.317000000000000000e+03 7.420463562011718750e+01 6.326201438903808594e+00 4.086458954425178924e-14 -5.362078545122304224e-15 1.065075321503555078e-14 -1.760964014581659076e-13
3.318000000000000000e+03 7.387858581542968750e+01 1.946384048461914062e+01 -7.986371438305217563e-14 -1.857773239714519131e-13 -7.969231557210937344e-14 1.265422906434124362e-13
3.319000000000000000e+03 7.489280700683593750e+01 1.946726608276367188e+01 -1.981215078062856239e-13 4.662476256315530032e-14 -4.544901984599412914e-14 6.944678122497438544e-14
3.320000000000000000e+03 7.588365173339843750e+01 7.841728210449218750e+00 -1.103181741378585212e-13 -9.303016392176247096e-14 -6.100449870738086644e-14 3.376067668156047807e-14
3.321000000000000000e+03 7.426052093505859375e+01 6.913855552673339844e+00 1.504987473077527838e-14 1.665782719010786006e-13 5.448844365074298479e-14 -6.096624669948286224e-14
3.322000000000000000e+03 5.436125278472900391e+00 8.748248100280761719e+00 -9.237292056480175817e-14 5.191350076053959095e-14 -1.213782628009182907e-14 7.874952724423386896e-14
3.323000000000000000e+03 5.221729278564453125e+00 7.435988903045654297e+00 -3.895694937429070026e-14 -6.244678575238402085e-14 -3.042112053800241633e-14 1.604312115013190043e-13
3.324000000000000000e+03 7.287438201904296875e+01 1.955258750915527344e+01 -9.744611259403235248e-14 -5.320035725972158125e-14 -4.519394095612618012e-14 -3.432008434498153016e-14
3.325000000000000000e+03 7.255774688720703125e+01 2.101910591125488281e+01 5.856457625710159709e-14 -2.951575344811024904e-13 -7.097789153295841480e-14 -6.380302102620971638e-14
3.326000000000000000e+03 5.646232128143310547e+00 6.180033206939697266e+00 1.012321533566153120e-13 -9.386763556110816475e-14 2.209354576322491645e-15 9.153072586974217439e-14
3.327000000000000000e+03 6.362932682037353516e+00 6.233750820159912109e+00 -1.026319125714027225e-13 -8.973605278989049694e-14 -5.771039435177247046e-14 3.227163680600067530e-14
3.328000000000000000e+03 7.396161651611328125e+01 3.262259674072265625e+01 1.136340650279032451e-15 1.377398493656797895e-13 4.166285711066676500e-14 -5.256464971544480905e-15
3.329000000000000000e+03 6.375909805297851562e+00 9.407255172729492188e+00 -7.411301796876254566e-14 -3.176272247063134657e-14 -3.176272247063134657e-14 1.610518058602343917e-15
3.330000000000000000e+03 4.155235290527343750e+00 9.872137069702148438e+00 -2.596737556156015342e-14 -5.687982772501279372e-14 -2.485416081656529469e-14 -4.595394973837957364e-14
3.331000000000000000e+03 2.167306327819824219e+01 7.274248600006103516e+00 -6.305242108593442363e-14 1.559813340773139045e-13 2.787867152572159196e-14 -5.990189050895152606e-15
3.332000000000000000e+03 5.680065155029296875e+00 2.015287399291992188e+01 1.042871979094542323e-13 -2.755621252015227896e-13 -5.138247886524692498e-14 1.767553524335482851e-13
3.333000000000000000e+03 5.357375144958496094e+00 1.201085758209228516e+01 -9.494044683451899336e-14 2.338169263239875395e-13 4.166294520209327945e-14 -8.317483965397740996e-16
3.334000000000000000e+03 4.841925144195556641e+00 1.359106636047363281e+01 4.092022944449102972e-15 -2.684061909633429083e-14 -6.824578760862261631e-15 1.325818659502972507e-14
3.335000000000000000e+03 5.780618667602539062e+00 1.147593784332275391e+01 1.945749198697596660e-14 2.942823664874721912e-13 9.412195550945537392e-14 -1.263112471604557752e-14
3.336000000000000000e+03 4.441993236541748047e+00 1.830861282348632812e+01 1.172953607072452220e-13 -4.072400511430374070e-13 -8.698340577548493990e-14 1.725973828919577513e-13
3.337000000000000000e+03 5.749737739562988281e+00 1.965039634704589844e+01 2.636581003436638815e-13 -2.987622085490193591e-13 -1.053123263101323273e-14 2.689351291575853287e-14
3.338000000000000000e+03 5.939993667602539062e+01 7.418065071105957031e+00 7.170014636268678965e-14 1.222305270236548336e-13 5.817920337115520257e-14 -1.909157510901482446e-13
3.339000000000000000e+03 5.838136672973632812e+01 6.575079441070556641e+00 5.177111452210614306e-14 6.525785093509581247e-14 3.510868895953422886e-14 -6.022161664741981779e-14
3.340000000000000000e+03 5.229002475738525391e+00 1.823752784729003906e+01 1.860868636916965246e-13 -1.175038409265529230e-14 5.230094379500907498e-14 1.440316643079933567e-13
3.341000000000000000e+03 5.580674171447753906e+00 1.010981750488281250e+01 -5.658552782155518157e-14 -2.072547320396134207e-13 -7.915207795835058069e-14 -4.464883798511835866e-14
3.342000000000000000e+03 5.543946266174316406e+00 1.068542194366455078e+01 1.094395976836484707e-13 2.299064801383754464e-13 1.018038260571126064e-13 1.189675562110557167e-14
3.343000000000000000e+03 6.557280540466308594e+00 1.784119796752929688e+01 9.286924121431130996e-14 -5.949845718650377535e-15 2.607581780166533247e-14 -1.232544852483162968e-15
3.344000000000000000e+03 4.927811145782470703e+00 1.780536460876464844e+01 8.648193516565608197e-14 2.562594843898320651e-14 3.363236474257860764e-14 -9.575341550476651475e-14
3.345000000000000000e+03 7.229330062866210938e+00 9.588869094848632812e+00 5.829244828807131351e-14 1.164843774822260647e-13 5.243304705346285566e-14 1.562150067505388429e-13
3.346000000000000000e+03 7.259593963623046875e+01 1.773486137390136719e+00 4.225907682597548898e-14 1.267695394187653979e-13 5.070858284054319265e-14 9.626119481598652272e-14
3.347000000000000000e+03 7.360533905029296875e+01 4.972583770751953125e+00 8.387908423390655344e-14 3.594817653729438789e-14 3.594817653729438789e-14 7.034333510645696119e-14
3.348000000000000000e+03 5.904021739959716797e+00 1.641045379638671875e+01 4.187653599468823921e-16 7.452476407255465007e-14 2.248305809918454273e-14 1.268427772755167937e-13
3.349000000000000000e+03 6.925944519042968750e+01 2.199961471557617188e+01 -4.868124505667380947e-15 -2.086339134359802353e-15 -2.086339134359802353e-15 8.116253437558118566e-14
3.350000000000000000e+03 2.286576652526855469e+01 8.173826217651367188e+00 -4.376778480657053660e-14 -1.102595188003270554e-13 -4.620819175969563541e-14 -8.667396092293042087e-14
3.351000000000000000e+03 2.417450332641601562e+01 1.133750343322753906e+01 3.919522313048512396e-14 1.769262769060406248e-13 6.483644865570500904e-14 -5.721246772779492451e-14
3.352000000000000000e+03 2.353575134277343750e+01 1.015768909454345703e+01 -5.217145956242820459e-14 -6.811014290541636540e-14 -3.608448107916654990e-14 -4.506801087379198878e-14
3.353000000000000000e+03 3.545425796508789062e+01 1.543728542327880859e+01 1.762695892026933109e-13 -1.595779071221232331e-14 4.809353802248499121e-14 1.373472055489141641e-13
3.354000000000000000e+03 3.699998855590820312e+01 1.551175403594970703e+01 2.945839373217490342e-13 2.406276404260526691e-13 1.605634706138350798e-13 8.786017296731965520e-14
3.355000000000000000e+03 7.386935424804687500e+01 1.604035568237304688e+01 5.932977904538755398e-14 1.626798874646354087e-13 6.660289859775417320e-14 -2.073898337947004816e-14
3.356000000000000000e+03 6.492871856689453125e+01 2.031863451004028320e+00 1.153280623127431181e-13 -4.207558577267768440e-14 2.197574296201963012e-14 1.210433120922560501e-13
3.357000000000000000e+03 6.600624084472656250e+01 2.607935667037963867e+00 9.248097486381709476e-14 -7.474266838043350236e-14 5.321491267388719915e-15 5.779881103893866334e-14
3.358000000000000000e+03 6.707125091552734375e+01 2.895880508422851562e+01 1.270344608314804419e-14 5.444334338146642957e-15 5.444334338146642957e-15 4.973543007557451601e-14
3.359000000000000000e+03 6.663565063476562500e+01 2.860441970825195312e+01 -1.040909844212886681e-13 -3.648670721025787378e-13 -1.406874156019075062e-13 1.671928925601334770e-13
3.360000000000000000e+03 7.256317901611328125e+01 1.747418594360351562e+01 -3.355274703366849243e-14 1.571863028192871381e-13 3.709006842975148821e-14 -3.077870735514708078e-14
3.361000000000000000e+03 7.365927124023437500e+01 1.678899955749511719e+01 -9.204258449163615907e-14 -1.766996650994639984e-13 -8.062267623258276283e-14 1.779520947915377849e-13
3.362000000000000000e+03 5.759694671630859375e+01 1.977419281005859375e+01 4.382555245357327989e-14 1.878237962295997709e-14 1.878237962295997709e-14 -2.151333852815767722e-13
3.363000000000000000e+03 7.360195159912109375e+01 3.459764862060546875e+01 1.657218436643733556e-14 2.129816369924805719e-13 6.886614352776335157e-14 2.508661376234618684e-14
3.364000000000000000e+03 7.110167694091796875e+01 3.526943969726562500e+01 1.092156489486580118e-14 1.419335162637994086e-13 4.585652400878638402e-14 -4.582017528392086023e-15
3.365000000000000000e+03 6.495210647583007812e+00 7.663274288177490234e+00 -5.549817129837410212e-14 4.484149393490545477e-14 -3.197003039634004756e-15 1.970954188702453425e-14
3.366000000000000000e+03 6.640957641601562500e+01 2.654564285278320312e+01 6.815698721553131723e-14 -8.516723161130015929e-14 -5.103074081060305148e-15 1.364347681056046757e-13
3.367000000000000000e+03 5.742936706542968750e+01 4.539881229400634766e+00 8.966449544650645365e-14 -7.323307948557331026e-15 2.470235557175837898e-14 4.146782946862735686e-14
3.368000000000000000e+03 5.893748092651367188e+01 4.050036430358886719e+00 3.757445269096833240e-14 -7.539856326094218630e-14 -1.134723198514603001e-14 -2.154906705549922141e-13
3.369000000000000000e+03 8.611386299133300781e+00 1.969771957397460938e+01 5.025112406265366816e-14 2.153619723689863957e-14 2.153619723689863957e-14 1.398709842609716092e-13
3.370000000000000000e+03 7.206094360351562500e+01 2.389856529235839844e+01 1.643157689719312170e-14 -1.759616893382345837e-13 -4.785903525697174365e-14 -3.902936391501736491e-14
3.371000000000000000e+03 6.645665740966796875e+01 2.792093276977539062e+01 5.664409845579192193e-14 7.574586032184360551e-14 3.971698864973019494e-14 1.243302471609988857e-13
3.372000000000000000e+03 7.193341827392578125e+01 6.156773090362548828e+00 -1.149582680567626247e-13 8.798501884748136104e-14 -8.091973407531663498e-15 4.439669321737969854e-14
3.373000000000000000e+03 7.128884124755859375e+01 5.146611690521240234e+00 -7.242966873510260639e-15 2.256506206931366276e-13 6.552229462122860504e-14 7.374386068155838747e-14
3.374000000000000000e+03 5.619604873657226562e+01 1.750113868713378906e+01 -1.166203770922372152e-13 4.152173464539062053e-14 -2.252959239524079949e-14 -3.042007699341139904e-14
3.375000000000000000e+03 2.658613014221191406e+01 9.382764816284179688e+00 -1.432873730691092140e-13 -8.428434545345447892e-14 -6.827151962252725470e-14 -2.223744598834828667e-13
3.376000000000000000e+03 4.534725189208984375e+01 4.161707878112792969e+00 -8.606341279828594315e-14 -2.470527309204190169e-13 -9.993484447086420364e-14 7.341521867428729697e-14
3.377000000000000000e+03 1.822123527526855469e+01 2.156876564025878906e+01 1.025774110834445918e-13 1.125881750026549999e-13 6.454967718108259311e-14 -6.166651255390051545e-14
3.378000000000000000e+03 1.889150810241699219e+01 2.082081413269042969e+01 1.526877684346599623e-14 9.804565606662610233e-14 3.399432902599468231e-14 -2.383406243634117461e-13
3.379000000000000000e+03 6.927551269531250000e+00 8.249880790710449219e+00 5.752185837024081927e-14 -2.498534690774378841e-13 -5.769948456741183507e-14 7.508851532092922221e-14
3.380000000000000000e+03 5.761560440063476562e+00 2.165882873535156250e+01 1.394313809376102054e-13 -2.147493879771367187e-13 -2.259540177304477510e-14 1.306231056479034702e-13
3.381000000000000000e+03 5.804224014282226562e+01 8.179628372192382812e+00 7.937240139232679126e-14 3.085224404512226792e-13 1.163684491649330521e-13 -4.675810587784386130e-14
3.382000000000000000e+03 5.873521804809570312e+01 8.539914131164550781e+00 4.766075162028308998e-14 2.491807758395192529e-13 8.905246332013838639e-14 -6.983070399051508059e-14
3.383000000000000000e+03 4.000490951538085938e+01 1.343895530700683594e+01 1.758428201225487042e-13 -4.613592799083358204e-15 5.136877048402856138e-14 1.655240208136080082e-13
3.384000000000000000e+03 3.930404281616210938e+01 1.493702983856201172e+01 1.077432143069961823e-13 9.192660874049810027e-14 5.990095030238007379e-14 1.263376203783014851e-13
3.385000000000000000e+03 5.130811691284179688e+01 2.331738090515136719e+01 6.156053856780363542e-14 2.093868833744419455e-13 8.128422929317910550e-14 -6.970301885591417834e-14
3.386000000000000000e+03 5.936474227905273438e+01 4.649249553680419922e+00 5.191480519127836257e-14 2.510039431077165650e-13 9.087562381207212048e-14 -1.264701369888335258e-13
3.387000000000000000e+03 5.056942749023437500e+01 3.050868988037109375e+01 5.369501094839093658e-14 1.145140433216410014e-13 5.046271628100958140e-14 4.468096679184066153e-15
3.388000000000000000e+03 4.863840103149414062e+01 3.139471626281738281e+01 1.175742852686442741e-13 9.613992680299401905e-14 6.411426158861241453e-14 -4.294050805577799557e-14
3.389000000000000000e+03 5.065861129760742188e+01 2.509936714172363281e+01 -3.831054210982421174e-15 -1.388947279672841928e-13 -4.281773571227116826e-14 -1.471422606696450031e-14
3.390000000000000000e+03 5.862588500976562500e+01 1.903350830078125000e+01 -5.726561396303744833e-14 2.270878119879291002e-13 5.094666008509385335e-14 -2.462265697120180098e-15
3.391000000000000000e+03 5.060869693756103516e+00 2.150382614135742188e+01 8.566243417731933540e-14 -1.462913178183061769e-13 -1.818866543110923134e-14 -2.410173806138751068e-14
3.392000000000000000e+03 5.108711242675781250e+00 2.082418441772460938e+01 5.425942288246436707e-14 -1.368742765612759871e-13 -2.478445847533573831e-14 -5.629320997519414449e-14
3.393000000000000000e+03 5.734403228759765625e+01 5.570291996002197266e+00 1.476980565845789628e-13 4.900199441094238439e-14 5.901001394340368855e-14 -9.001862128702863702e-15
3.394000000000000000e+03 5.739020156860351562e+01 7.719719886779785156e+00 9.620909890159859423e-14 2.242362654066021310e-13 9.613361132533929099e-14 -4.495128973366034619e-14
3.395000000000000000e+03 6.666417694091796875e+01 2.769364833831787109e+00 7.715655642604596354e-14 -1.268385336404510497e-14 1.934181100330355230e-14 7.807123003633620328e-14
3.396000000000000000e+03 9.039498329162597656e+00 2.088513374328613281e+01 1.532621414761931034e-13 1.993282824225024036e-14 5.195849176256595037e-14 1.357805876197812345e-13
3.397000000000000000e+03 3.708150482177734375e+01 1.913127326965332031e+01 1.116846415696870487e-13 9.361579572523051618e-14 6.159013051084891166e-14 8.992420930066177820e-14
3.398000000000000000e+03 4.022250366210937500e+01 1.511754703521728516e+01 2.552545306198916730e-13 8.651932658807967580e-14 1.025321591952704781e-13 8.569744713122703916e-14
3.399000000000000000e+03 3.924788284301757812e+01 1.818778800964355469e+01 1.268358248290857304e-13 1.916110634958903547e-13 9.553406785274554114e-14 1.339037116864644217e-13
3.400000000000000000e+03 6.080413436889648438e+01 4.922824859619140625e+00 7.756858035664476736e-14 1.704965243423325894e-13 7.441952869918777580e-14 5.243873911486840456e-14
3.401000000000000000e+03 6.150312805175781250e+01 3.664140701293945312e+00 2.630444215852463519e-14 -3.447761553251188493e-14 -2.451952435712648551e-15 1.452628300849592713e-14
3.402000000000000000e+03 2.377575683593750000e+01 1.349741649627685547e+01 2.899607366279449705e-13 -1.298395629022435632e-14 8.309303765885456272e-14 4.596316545684570043e-14
3.403000000000000000e+03 2.366327857971191406e+01 1.263766288757324219e+01 3.056314763446622840e-14 -3.529091081866386759e-13 -9.670378647158583973e-14 -1.689377126688415554e-13
3.404000000000000000e+03 2.581103324890136719e+01 8.045463562011718750e+00 -1.353992601631909265e-13 3.079793364779703779e-13 5.177402153918111982e-14 7.437165439700896274e-14
3.405000000000000000e+03 2.658457374572753906e+01 1.115802860260009766e+01 -2.376816733880293686e-13 -9.042583576455293093e-14 -9.843224868001654304e-14 -1.560504384132826994e-13
3.406000000000000000e+03 5.484020614624023438e+01 1.961370658874511719e+01 1.867025956579781987e-14 2.825072261628674974e-13 9.035324842910502641e-14 -2.567551850112242268e-14
3.407000000000000000e+03 7.148603916168212891e+00 1.927903556823730469e+01 1.073714295235896413e-14 -1.784021606658636738e-13 -5.029950658460083379e-14 1.252480378525350213e-13
3.408000000000000000e+03 6.355012512207031250e+01 2.666616916656494141e+00 -2.399327888062338654e-14 4.472266469917468568e-13 1.269700084004579677e-13 4.263299782647500535e-14
3.409000000000000000e+03 7.023361206054687500e+01 4.013820171356201172e+00 1.971862343547181595e-13 2.217612351347250654e-13 1.256842394915802519e-13 1.526675514522748967e-13
3.410000000000000000e+03 4.048301696777343750e+01 1.285986328125000000e+01 1.135682937665818959e-13 2.659891350145077160e-13 1.138672218580633055e-13 -1.765080289773453964e-14
3.411000000000000000e+03 2.151408767700195312e+01 6.633758068084716797e+00 1.219763019429977169e-14 5.097850513577882603e-14 1.895283992139722151e-14 -1.179987639716995051e-13
3.412000000000000000e+03 2.096211624145507812e+01 7.347039699554443359e+00 6.768127995982614609e-14 -1.997484751388445279e-13 -3.962015923133187234e-14 -4.835504758648849488e-14
3.413000000000000000e+03 2.664813995361328125e+01 1.029802989959716797e+01 -1.191781590949292369e-13 1.776783879530938193e-13 1.755006865744937472e-14 -2.305410365648769000e-13
3.414000000000000000e+03 2.710234260559082031e+01 1.078203105926513672e+01 2.943535714651501767e-14 1.498680059176457635e-13 5.379100688636916094e-14 -1.329307351043487739e-13
3.415000000000000000e+03 4.986677932739257812e+01 3.024172401428222656e+01 6.731931228827828240e-14 1.661039741081976606e-13 7.002698524131642510e-14 -5.223828368570299086e-14
3.416000000000000000e+03 4.922810363769531250e+01 2.983823394775390625e+01 2.701507739028257554e-14 -2.629278088653319578e-13 -7.077381757904233073e-14 -1.122823961086961975e-13
3.417000000000000000e+03 8.365036964416503906e+00 2.043644905090332031e+01 1.090793037492043815e-13 -2.163196786411289430e-13 -3.217211382283008403e-14 1.122427278617103841e-13
3.418000000000000000e+03 5.710132598876953125e+01 2.034246063232421875e+01 -4.201978324211257110e-14 -2.010122754012022561e-13 -7.290961454367583805e-14 -2.228403822145813562e-13
3.419000000000000000e+03 5.683236694335937500e+01 1.768200874328613281e+01 2.445137801542103528e-14 1.047916212761372187e-14 1.047916212761372187e-14 -4.928850161128525698e-14
3.420000000000000000e+03 5.734313201904296875e+01 1.820878791809082031e+01 -1.020232719649554615e-14 2.243823209917630845e-13 6.425399491985506195e-14 -1.015526977289106514e-13
3.421000000000000000e+03 7.376805114746093750e+01 6.725189685821533203e+00 8.520998305821397834e-14 -2.437059885493364497e-13 -4.754880435784217263e-14 5.685978353734896795e-14
3.422000000000000000e+03 7.281407165527343750e+01 6.041215419769287109e+00 1.091275168645620963e-13 1.017986748262438793e-15 3.304364973918255677e-14 1.743750678790192965e-13
3.423000000000000000e+03 4.940318679809570312e+01 2.848767662048339844e+01 3.140300790672317932e-14 8.208485838745102625e-14 3.404636056587861948e-14 -1.007498511023828189e-14
3.424000000000000000e+03 4.016505813598632812e+01 1.838121604919433594e+01 1.926657618167570973e-13 2.884503074764011021e-13 1.443348207879474598e-13 -3.279728724185832812e-15
3.425000000000000000e+03 5.533271026611328125e+01 4.840847969055175781e+00 1.169146024567954689e-13 5.010625771175065968e-14 5.010625771175065968e-14 1.176315040382971966e-13
3.426000000000000000e+03 2.567279624938964844e+01 1.185630798339843750e+01 -1.155061018619923940e-13 -3.751663506902170112e-15 -3.577732660370140649e-14 5.246908322317084261e-14
3.427000000000000000e+03 4.992893600463867188e+01 2.240248680114746094e+01 6.882572989178395440e-14 7.524768975237725033e-14 4.322202453799564581e-14 2.723849418858215882e-14
3.428000000000000000e+03 4.116493225097656250e+01 1.696994590759277344e+01 1.692408420437413463e-13 3.241620025792174564e-13 1.480208506763822096e-13 2.217758989691079319e-13
3.429000000000000000e+03 2.693120765686035156e+01 3.535232162475585938e+01 7.304257838760402910e-14 -1.059488868165869846e-13 -9.871892020475118296e-15 -8.116492639662423181e-14
3.430000000000000000e+03 7.233773040771484375e+01 3.571179962158203125e+01 5.143733610704290249e-14 3.766144297465134905e-13 1.284155344994514225e-13 5.286981451051685210e-15
3.431000000000000000e+03 4.918413543701171875e+01 3.232290267944335938e+01 5.887604721246594841e-14 -6.055044161380751522e-14 -5.023184898090594930e-16 2.781462651754674706e-15
3.432000000000000000e+03 2.807126808166503906e+01 3.445356369018554688e+01 1.542741086789367611e-14 -1.626372715429931504e-14 -2.508951559134436167e-16 -1.011943350295863020e-13
3.433000000000000000e+03 6.719461822509765625e+01 4.136046600341796875e+01 9.266438799008375193e-15 1.183487037753963578e-13 3.828454412757413550e-14 -6.691694538031112485e-15
3.434000000000000000e+03 2.901914405822753906e+01 3.532450485229492188e+01 1.945128662360438160e-14 -1.060411049876204548e-13 -2.597694533979823250e-14 -5.376369854414968230e-14
3.435000000000000000e+03 7.020722961425781250e+01 3.432746410369873047e+00 1.480490263803396767e-14 -2.224097913217787381e-13 -6.228146524987071553e-14 7.504190140377592355e-15
3.436000000000000000e+03 6.959887695312500000e+01 2.897364616394042969e+00 1.569700993535663724e-13 -1.353521592020929566e-15 4.668497305317792501e-14 1.449746491475126242e-13
3.437000000000000000e+03 5.163341522216796875e+01 2.188806152343750000e+01 8.307552101750534379e-14 2.643585491571981416e-13 1.042302163090265410e-13 -1.093246519245742732e-13
3.438000000000000000e+03 4.989020538330078125e+01 2.396618080139160156e+01 2.189650811200167385e-14 -1.278686222660682659e-13 -3.179163678731881937e-14 5.179010500078358448e-14
3.439000000000000000e+03 5.108186721801757812e+01 2.480605888366699219e+01 6.583486502535849244e-15 2.821494275874860194e-15 2.821494275874860194e-15 9.663155150184399300e-14
3.440000000000000000e+03 4.084063720703125000e+01 1.632658004760742188e+01 1.768812283057738521e-13 7.580623683032389204e-14 7.580623683032389204e-14 1.060296531021735766e-14
3.441000000000000000e+03 3.985703659057617188e+01 1.451304721832275391e+01 1.063293062538578360e-13 2.269422849513272333e-14 3.870706110232352559e-14 1.056341361496508646e-13
3.442000000000000000e+03 5.711029052734375000e+01 1.709506988525390625e+01 -2.832097010792115899e-14 2.623681437038949404e-13 7.021415241760531334e-14 -1.453486446869114990e-13
3.443000000000000000e+03 5.786661529541015625e+01 1.784502601623535156e+01 -7.353566675938685848e-14 1.423566261616118767e-14 -1.779000090415452234e-14 -1.901387169456550397e-13
3.444000000000000000e+03 2.469486427307128906e+01 7.141794204711914062e+00 -2.434022696395053698e-14 2.068854798847191701e-13 5.476357689267012663e-14 -8.019246481054051467e-14
3.445000000000000000e+03 6.753572082519531250e+01 2.850657653808593750e+01 4.834887441036890554e-14 -1.165319061949623980e-13 -2.045490716368579542e-14 1.180461165015828096e-13
3.446000000000000000e+03 5.793902969360351562e+01 1.870629692077636719e+01 1.555922003650817009e-13 2.496861766822233708e-13 1.215835022721697967e-13 -1.687426646980114131e-13
3.447000000000000000e+03 5.809442901611328125e+01 1.997333526611328125e+01 -5.667942311782421527e-14 3.289750606259508880e-14 -7.134575455381916842e-15 -1.148129612487270440e-14
3.448000000000000000e+03 6.619300079345703125e+01 2.401066780090332031e+01 -1.041031545906748179e-13 -2.962458566218434397e-13 -1.201047047190081929e-13 7.612089262956991953e-14
3.449000000000000000e+03 6.676409149169921875e+01 2.321641731262207031e+01 -9.603927218380589603e-14 -1.097861086979748380e-13 -6.174761087640243118e-14 -1.515309755385947643e-14
3.450000000000000000e+03 6.555501556396484375e+01 2.434312057495117188e+01 -3.372847248890586958e-14 -1.517079105568808206e-13 -5.563091491373600705e-14 2.302411945248454030e-15
3.451000000000000000e+03 3.410461044311523438e+01 1.649884796142578125e+01 5.816989278499898330e-14 2.079337543077139361e-13 7.983109345018751801e-14 1.680038012462532759e-14
3.452000000000000000e+03 6.455577087402343750e+01 3.022926807403564453e+00 1.132561401026620576e-14 5.060478403505486167e-14 1.857911882067325715e-14 8.250666046639293372e-14
3.453000000000000000e+03 4.854511260986328125e+01 2.263768005371093750e+01 1.778197543638587730e-13 5.333299245486623763e-14 6.934582845018882891e-14 2.371633129412322599e-14
3.454000000000000000e+03 7.395787048339843750e+01 4.318204879760742188e+00 1.301765363255838470e-13 3.302956324245653885e-13 1.381416546908029175e-13 -1.676255705421181297e-13
3.455000000000000000e+03 7.181439208984375000e+01 5.414070129394531250e+00 -1.140109193034991031e-13 1.341419651138681113e-13 6.039314420737060263e-15 -1.214562846997557788e-13
3.456000000000000000e+03 2.406303787231445312e+01 6.759082317352294922e+00 -5.678521414480448837e-14 -2.433652034777335216e-14 -2.433652034777335216e-14 -2.704054089474293432e-14
3.457000000000000000e+03 4.921472930908203125e+01 2.474110031127929688e+01 1.490159585353437177e-13 2.468677931348473020e-13 1.187651187247937279e-13 8.451721005724773667e-15
3.458000000000000000e+03 4.920829772949218750e+01 2.324699211120605469e+01 1.135036888696289159e-13 9.439538452109264011e-14 6.236971930671103559e-14 1.752838190349423342e-13
3.459000000000000000e+03 7.343003082275390625e+01 2.961333084106445312e+01 2.393763051005467352e-14 -8.124291441414382975e-14 -1.719158567944651522e-14 -4.657640375813065781e-14
3.460000000000000000e+03 3.791068649291992188e+01 1.537291336059570312e+01 1.459824421718922127e-13 1.540658063365479835e-13 9.001447590778477448e-14 9.077969902486146547e-14
3.461000000000000000e+03 3.578089523315429688e+01 1.649373435974121094e+01 3.654636136904074184e-14 -1.215901159054219582e-13 -2.551312703854072272e-14 1.246827077347467672e-13
3.462000000000000000e+03 5.142685317993164062e+01 2.263413810729980469e+01 8.539096350585612116e-14 3.659612624875782649e-14 3.659612624875782649e-14 3.589247565068294510e-14
3.463000000000000000e+03 5.124995422363281250e+01 2.393535804748535156e+01 1.073023505986092641e-13 1.374886261697877421e-13 7.343729574102453306e-14 -1.591752445996574838e-14
3.464000000000000000e+03 2.618676757812500000e+01 5.255293846130371094e+00 7.105039077697980487e-14 -3.817625604746535672e-14 9.862240927074102798e-15 -9.374330467697838953e-14
3.465000000000000000e+03 7.398474121093750000e+01 2.907749748229980469e+01 1.139483100161698542e-14 -8.661839556159053877e-14 -2.256707021502501326e-14 2.405474975567152562e-14
3.466000000000000000e+03 2.425625801086425781e+01 7.672902107238769531e+00 -5.293664541005521640e-14 -5.128147865661632221e-14 -3.126543620356192488e-14 -6.470093693667147705e-14
3.467000000000000000e+03 4.038951873779296875e+01 1.735516166687011719e+01 1.489772389652588291e-13 1.782247580853907332e-13 9.816060182570029991e-14 2.964925668261925162e-14
3.468000000000000000e+03 3.857003402709960938e+01 1.836096954345703125e+01 1.640187822799649142e-13 2.304220724815009280e-13 1.183322645599560463e-13 1.816217261221136914e-13
3.469000000000000000e+03 3.978218841552734375e+01 1.782287788391113281e+01 1.657672209134236629e-13 6.818365858897446063e-14 7.018526520597215268e-14 1.804051936863445421e-14
3.470000000000000000e+03 7.345232391357421875e+01 2.850440025329589844e+01 2.390479443082141331e-14 1.024491177791875610e-14 1.024491177791875610e-14 -4.895818671394333924e-15
3.471000000000000000e+03 7.337546539306640625e+01 2.473041534423828125e+01 -6.147012288288192239e-14 -9.497076383776711928e-14 -4.693226601619471250e-14 2.187690776960220934e-14
3.472000000000000000e+03 7.367264556884765625e+01 2.413963508605957031e+01 9.035765977669432680e-14 1.759775593475343403e-13 7.990056370438952671e-14 3.052013868953644404e-14
3.473000000000000000e+03 3.451173019409179688e+01 1.751897811889648438e+01 7.559920164922420693e-14 2.611544064768517304e-13 1.010260804049437078e-13 9.555968890533408922e-14
3.474000000000000000e+03 7.331005096435546875e+01 2.608424377441406250e+01 1.046996894022399205e-13 -1.838834531690813900e-13 -2.375512709717336746e-14 -1.750131682913720621e-14
3.475000000000000000e+03 6.912692260742187500e+01 2.266897583007812500e+01 -7.717651252228327485e-14 1.267530087237667830e-14 -1.935036264793903171e-14 -5.945657648945973373e-14
3.476000000000000000e+03 7.401161956787109375e+01 2.514763450622558594e+01 2.067783336050232901e-13 3.574061077475654269e-13 1.692553296952711839e-13 5.313722958822861275e-14
3.477000000000000000e+03 7.348936462402343750e+01 2.741787910461425781e+01 -2.806352291393268694e-14 -1.149668603589795723e-13 -4.290911362662096218e-14 2.866763697630982100e-14
3.478000000000000000e+03 4.934967041015625000e+00 1.020317268371582031e+01 4.380723960125364191e-14 -2.697641711250399477e-14 5.049246407811715243e-15 1.013626235355467864e-13
3.479000000000000000e+03 6.277872562408447266e+00 1.019025707244873047e+01 -5.029373320803234848e-14 -1.130563538295249748e-13 -4.900502678889355479e-14 1.861049021053412522e-13
3.480000000000000000e+03 3.552223205566406250e+01 1.846680641174316406e+01 1.146602886421821399e-13 2.778948674907882888e-13 1.177665414188802662e-13 -1.747101947705345659e-13
3.481000000000000000e+03 2.263203048706054688e+01 7.650889873504638672e+00 -1.749591275893372377e-13 -2.579862864136861500e-13 -1.298836255561597319e-13 3.457801604181583166e-14
3.482000000000000000e+03 2.326189994812011719e+01 7.739832401275634766e+00 6.736768803396187000e-14 -1.687908303795240816e-14 1.514658217642919635e-14 -5.131963918495602295e-14
3.483000000000000000e+03 7.018608093261718750e+01 2.995357131958007812e+01 1.147108937785829008e-13 4.916181258743032578e-14 4.916181258743032578e-14 7.120085770973005879e-14
3.484000000000000000e+03 7.398226928710937500e+01 2.800051879882812500e+01 -8.332063202365000421e-15 8.793101202676442685e-14 2.387968498613300683e-14 2.669615254498238638e-14
3.485000000000000000e+03 7.382918548583984375e+01 2.346992492675781250e+01 9.335085737185652710e-15 1.870045459630154117e-13 5.890189188175257162e-14 -1.603122067603615641e-13
3.486000000000000000e+03 7.151643371582031250e+01 2.197719383239746094e+01 -9.352687759455954875e-14 -1.773357936191155559e-13 -8.125880475223432042e-14 1.688496483473814203e-13
3.487000000000000000e+03 7.028440093994140625e+01 2.386855316162109375e+01 -3.283761448047710536e-15 9.009457134327714112e-14 2.604324260857982659e-14 -1.750884186984061341e-14
3.488000000000000000e+03 7.439830780029296875e+01 2.655459022521972656e+01 1.399583624857444683e-14 5.998215535103334356e-15 5.998215535103334356e-15 -1.490693554923386288e-13
3.489000000000000000e+03 5.697841262817382812e+01 1.981015777587890625e+01 -1.337580855470077261e-15 1.366795945086790587e-13 4.060260564179782317e-14 -1.390826066512487746e-13
3.490000000000000000e+03 7.460150909423828125e+01 4.653600692749023438e+00 -1.918892494445594010e-14 3.752712387800755112e-14 5.501459510658893853e-15 5.485317264969889750e-14
3.491000000000000000e+03 7.248096466064453125e+01 4.401119232177734375e+00 -7.287582809347575852e-14 6.026939608190853837e-14 -3.781928841140513517e-15 1.817556013734931281e-14
3.492000000000000000e+03 7.455119323730468750e+01 2.219709014892578125e+01 -4.889342172776332818e-14 1.849249513284981217e-13 4.080945786378090134e-14 1.226782483107827226e-13
3.493000000000000000e+03 7.502526855468750000e+01 2.189098167419433594e+01 -7.105441587754515731e-14 1.153792637603387461e-13 1.329745334839853993e-14 -5.014336791923576508e-14
3.494000000000000000e+03 4.002629470825195312e+01 1.666930389404296875e+01 1.691818207879766667e-13 2.555102939123810035e-13 1.274076330548545855e-13 1.157224815105661886e-13
3.495000000000000000e+03 7.430834197998046875e+01 3.092116117477416992e+00 1.157620548898619095e-13 3.241180110760688571e-13 1.319640197897792300e-13 -1.289984964550697222e-13
3.496000000000000000e+03 7.464338684082031250e+01 2.608361005783081055e+00 -4.961516494959156143e-14 -5.557685388291044859e-14 -3.155760497212424520e-14 -4.451163220019031808e-14
3.497000000000000000e+03 7.374229431152343750e+01 5.889977455139160156e+00 4.959948467567198982e-14 -2.303732833837390803e-13 -5.423214503343098958e-14 -2.065382438101899532e-14
3.498000000000000000e+03 7.346701812744140625e+01 2.179688835144042969e+01 -2.362833778461748135e-13 4.477470911395942110e-13 6.343910856701495682e-14 4.113122873978386496e-14
3.499000000000000000e+03 7.382561492919921875e+01 1.844689559936523438e+01 3.209979076166172285e-14 -3.199389470259599022e-14 3.176811296183789334e-17 1.257843926672636004e-13
3.500000000000000000e+03 7.425553894042968750e+01 2.171734046936035156e+01 -4.334067013698345017e-14 1.413020701422802727e-14 -8.763138598013447966e-15 -2.572377905032518369e-14
3.501000000000000000e+03 7.309349060058593750e+01 2.037254905700683594e+01 6.895304910815164279e-14 5.785626968832224826e-13 1.942547278631703844e-13 -3.347329534321603906e-14
3.502000000000000000e+03 7.346212005615234375e+01 2.082620239257812500e+01 -8.049797943021977376e-15 4.083086136991848081e-13 1.200776538748046796e-13 -5.425038334685126917e-14
3.503000000000000000e+03 7.436153411865234375e+01 1.995012283325195312e+01 8.346431591655864568e-14 4.475289496624901275e-13 1.592979898381099990e-13 5.771883249399301780e-15
3.504000000000000000e+03 6.241067409515380859e+00 8.612041473388671875e+00 5.289814945666840296e-14 -2.518350653880896406e-13 -5.968107410180001349e-14 -4.633100814891571995e-15
3.505000000000000000e+03 5.755656242370605469e+00 7.315160274505615234e+00 5.895390648097756370e-14 -3.407416222008657902e-13 -8.453632081460368819e-14 5.648454455358352388e-14
3.506000000000000000e+03 5.988129425048828125e+01 6.544595241546630859e+00 3.801886716147014067e-14 3.365504489677428879e-13 1.123707924670716563e-13 -1.751333724309828144e-13
3.507000000000000000e+03 6.354866027832031250e+00 1.708266639709472656e+01 -3.203480639394837293e-14 -4.804241450192051066e-14 -2.402316728520020178e-14 -5.945210415549823102e-14
3.508000000000000000e+03 5.966895103454589844e+00 1.545353794097900391e+01 7.600696331003242712e-14 -5.892748582928680756e-14 5.123844599476401473e-15 1.625978133601782560e-13
3.509000000000000000e+03 8.010841369628906250e+00 1.878208541870117188e+01 -1.570725700113934087e-14 -1.897354750526533684e-13 -6.163282097139052840e-14 6.125794451772650917e-14
3.510000000000000000e+03 5.143058776855468750e+00 1.959503173828125000e+01 1.142801267029272538e-13 -3.170303917391509296e-13 -6.082507680036167153e-14 3.310458528940803113e-14
3.511000000000000000e+03 7.275482177734375000e+00 1.861693572998046875e+01 1.605647174463334381e-13 -1.141903412105182980e-13 1.391231202371159478e-14 7.403515870025093037e-14
3.512000000000000000e+03 5.578834533691406250e+00 1.741933631896972656e+01 1.009418446724051621e-13 -1.854939541811456705e-13 -2.536563319143533141e-14 1.739013392922789114e-13
3.513000000000000000e+03 7.216695404052734375e+01 2.077021980285644531e+01 -1.579528913534748030e-14 -6.769409387425220914e-15 -6.769409387425220914e-15 7.881893651206367535e-14
3.514000000000000000e+03 7.298650360107421875e+01 2.209112930297851562e+01 -7.283742023151545952e-14 -3.121603724207805408e-14 -3.121603724207805408e-14 1.289477015832887763e-13
3.515000000000000000e+03 5.888361358642578125e+01 7.033736705780029297e+00 2.171583937248412061e-14 -2.786585761129552891e-14 -1.845005259885185676e-15 -3.060592279830257056e-14
3.516000000000000000e+03 5.889863586425781250e+01 5.076533794403076172e+00 4.571318570532022230e-14 2.025951563629224683e-13 7.449250228165962828e-14 -8.000267522024692712e-14
3.517000000000000000e+03 7.262219238281250000e+01 2.004659843444824219e+01 4.237720742893136272e-14 5.671730446410450099e-13 1.828650756209929118e-13 -1.489079855514913175e-13
3.518000000000000000e+03 7.389983367919921875e+01 1.236714720726013184e+00 7.432331253264326532e-14 2.606075891111586662e-13 1.004792698155142217e-13 -7.941211707315765089e-14
3.519000000000000000e+03 7.137800598144531250e+01 2.088087797164916992e+00 5.809994141608293416e-14 2.489997682868227979e-14 2.489997682868227979e-14 3.621183587091802297e-15
3.520000000000000000e+03 4.941708755493164062e+01 2.918363571166992188e+01 8.564554095221929564e-14 5.958070408568216791e-14 4.356787486662315467e-14 -4.784929437807831920e-14
3.521000000000000000e+03 7.182924652099609375e+01 2.629753112792968750e+01 -5.940279328544087467e-14 1.117945051310777205e-13 1.571751457013059045e-14 5.333580460425112191e-14
3.522000000000000000e+03 2.584541511535644531e+01 1.042252159118652344e+01 -9.733404674697881953e-14 4.036356786188497608e-15 -2.798930758116015965e-14 -9.818689034025128437e-15
3.523000000000000000e+03 2.614004898071289062e+01 9.911910057067871094e+00 -3.033874488981604112e-14 4.445071697875557781e-13 1.242505311962668890e-13 -2.148786113235698347e-13
3.524000000000000000e+03 5.839473724365234375e+01 5.558481216430664062e+00 6.056325552823357827e-14 -4.338560015263760727e-14 5.153296782085380751e-15 -8.463395322023600786e-14
3.525000000000000000e+03 5.731571197509765625e+01 6.623288154602050781e+00 1.048933075814550975e-13 -9.229857140082356470e-14 3.778420430672986205e-15 -5.233652595505733363e-14
3.526000000000000000e+03 2.313946151733398438e+01 9.616348266601562500e+00 -6.454986691646277808e-14 -1.306038610593418525e-13 -5.854611771511503138e-14 4.687094083081350115e-14
3.527000000000000000e+03 7.218397521972656250e+01 3.071912002563476562e+01 -8.582669080645088933e-14 -8.253381295455011757e-14 -5.050815112830030207e-14 -8.006540309218879159e-14
3.528000000000000000e+03 7.855740547180175781e+00 1.947341918945312500e+01 1.481305041736019623e-13 -7.376835009812940380e-14 2.230864554501540975e-14 3.387023531109013830e-14
3.529000000000000000e+03 6.149426269531250000e+01 4.399033069610595703e+00 -1.884093331653777237e-14 8.342720909720532929e-14 1.937588375063980378e-14 1.730544215415054377e-14
3.530000000000000000e+03 7.137152862548828125e+01 2.673969984054565430e+00 1.611352381820224666e-13 4.808165042329004546e-13 1.925855173034660139e-13 6.799325235869527195e-14
3.531000000000000000e+03 5.845468521118164062e+01 7.562533378601074219e+00 5.789968249856128346e-15 1.282965297584939823e-13 4.022594703081278089e-14 -8.167074059140660980e-14
3.532000000000000000e+03 5.561765670776367188e+01 2.016669845581054688e+01 -2.697938681001706834e-14 2.171921496818551844e-13 5.706383038621073989e-14 -7.919744504300552101e-14
3.533000000000000000e+03 5.619239044189453125e+01 1.937698173522949219e+01 -2.895738831284067755e-15 1.360118208381180804e-13 3.993482180684147786e-14 -1.282618217364472901e-13
3.534000000000000000e+03 2.580617904663085938e+01 1.094694709777832031e+01 -2.054589544287985237e-13 3.448058734760732665e-15 -6.060326936466187142e-14 2.634681244061218980e-14
3.535000000000000000e+03 7.302884674072265625e+01 4.669863224029541016e+00 1.713855802881660700e-14 2.932885325660633535e-13 9.312812836431011432e-14 1.261390216453564528e-13
3.536000000000000000e+03 5.640545272827148438e+01 1.802953720092773438e+01 1.104925849979617597e-14 4.622448799597445035e-13 1.419882413684556144e-13 -1.818050918145353023e-13
3.537000000000000000e+03 6.792843627929687500e+01 2.304534721374511719e+01 -1.655488964772029725e-14 -1.443478041089629738e-13 -4.827080507768637119e-14 3.267321512629393909e-14
3.538000000000000000e+03 6.849950408935546875e+01 2.249267578125000000e+01 -4.315951350648827844e-14 -2.015007355849612880e-13 -7.339807472743486993e-14 3.028509043480516472e-14
3.539000000000000000e+03 5.841699600219726562e+01 4.516717433929443359e+00 -1.832186644426265359e-14 3.789872062009980169e-14 5.873055829234670802e-15 -5.270441946910418840e-14
3.540000000000000000e+03 2.473450088500976562e+01 1.102838230133056641e+01 -7.364172206064667492e-14 1.419021082821152191e-14 -1.783545269210418810e-14 8.208811777023206080e-14
3.541000000000000000e+03 5.748375701904296875e+01 1.519175529479980469e+01 6.942999049086096344e-15 1.859793650462945869e-13 5.787671096503174684e-14 -1.321833674418002036e-13
3.542000000000000000e+03 6.872120666503906250e+01 3.274412155151367188e+01 8.946405187580230151e-15 1.410870254176313510e-13 4.501002638635474840e-14 6.071722748331957048e-15
3.543000000000000000e+03 6.895978546142578125e+01 3.138019371032714844e+01 6.167288224166386779e-14 -1.931971360777558211e-14 1.270594991254012790e-14 2.874611966107061545e-14
3.544000000000000000e+03 2.329470252990722656e+01 8.651704788208007812e+00 -1.182191958258929643e-13 8.044470423421103047e-16 -3.522442415331526744e-14 -1.565325695668598471e-14
3.545000000000000000e+03 2.539353179931640625e+01 8.575284004211425781e+00 6.825195654957746938e-14 -5.653219185093247279e-14 3.515928731967141174e-15 -5.420355936552705145e-14
3.546000000000000000e+03 3.569979858398437500e+01 1.915931320190429688e+01 -5.129648045714514312e-15 -4.794936962673052028e-14 -1.592370441234891576e-14 -3.210395816376221401e-14
3.547000000000000000e+03 4.080714416503906250e+01 1.796905326843261719e+01 1.414258114914787590e-13 3.808677006590655001e-13 1.566880577109214245e-13 1.360854652706841583e-13
3.548000000000000000e+03 7.379273414611816406e+00 7.684437274932861328e+00 -3.445996336589110531e-14 -2.435233004832726422e-13 -8.339498118762819767e-14 9.913736633915606888e-14
3.549000000000000000e+03 5.060436630249023438e+01 2.396308708190917969e+01 3.739945907219738297e-14 6.177928990862974201e-14 2.975362469424813749e-14 5.336301807878050807e-14
3.550000000000000000e+03 2.625378990173339844e+01 1.070473766326904297e+01 -1.137234024398831034e-13 8.279537672866224551e-14 -9.278408221586025711e-15 -2.005233679840470740e-13
3.551000000000000000e+03 5.052186489105224609e+00 6.913904666900634766e+00 6.722041949762044832e-14 -1.694219885098411510e-14 1.508346636339748942e-14 5.947439128640638617e-14
3.552000000000000000e+03 6.172665119171142578e+00 6.733008384704589844e+00 2.402045034231858889e-13 -1.715609127201159212e-13 2.059307856617370591e-14 -9.221827267742385703e-14
3.553000000000000000e+03 6.453210830688476562e+00 2.088588523864746094e+01 1.049937656889994575e-13 -2.409460977091659739e-13 -4.078570028367631273e-14 2.207223390605222990e-13
3.554000000000000000e+03 6.122565269470214844e+00 2.129633712768554688e+01 8.916402094742356677e-14 -3.277944322227499541e-13 -7.158912406022427399e-14 8.453466740629064780e-14
3.555000000000000000e+03 6.549724102020263672e+00 6.921121120452880859e+00 3.132214675344649479e-14 -1.009535947134494738e-13 -2.088943337156135699e-14 6.400852477174076571e-14
3.556000000000000000e+03 6.897536277770996094e+00 7.288774967193603516e+00 6.286396641956570885e-14 -2.933149328889633756e-13 -6.913529671708287805e-14 9.599346464201838347e-14
3.557000000000000000e+03 5.788001251220703125e+01 7.120603561401367188e+00 3.563549940701314644e-14 -2.190028926707821705e-14 4.120563296090362995e-15 -1.267265779076806598e-13
3.558000000000000000e+03 6.739650726318359375e+01 2.704468154907226562e+01 1.952901883717390874e-14 2.142488524916816295e-13 7.013335902696440916e-14 -2.186990788932609980e-14
3.559000000000000000e+03 6.840881347656250000e+01 2.309862136840820312e+01 -5.535977627918811650e-14 2.202532996481779137e-14 -1.000033355549791864e-14 7.692203671987377089e-14
3.560000000000000000e+03 5.692571640014648438e+01 1.921298789978027344e+01 1.426281510431837152e-14 1.433654762831096385e-13 4.728848741622840302e-14 -1.091292786930923853e-13
3.561000000000000000e+03 5.674098587036132812e+01 1.858524322509765625e+01 -4.703335516328477697e-15 1.352371312808228754e-13 3.916013902580985084e-14 -1.592786334411993437e-14
3.562000000000000000e+03 7.033440399169921875e+01 3.657672500610351562e+01 2.034967179031892115e-14 2.146005541239087711e-13 7.048506743545512876e-14 -1.228244953253897556e-14
3.563000000000000000e+03 7.151399993896484375e+01 3.272266387939453125e+01 9.510900639102259913e-14 -5.074089545341504970e-14 1.331043243424931757e-14 -5.042969216046203074e-14
3.564000000000000000e+03 7.357075500488281250e+01 3.423472881317138672e+00 -6.590520772349617307e-14 3.377625056814187454e-13 8.155719074262948731e-14 -5.789819172057411589e-14
3.565000000000000000e+03 7.225440979003906250e+01 3.595389127731323242e+00 4.519497433632183037e-14 2.252485443174703783e-13 8.113305762901673601e-14 8.116670855394525486e-14
3.566000000000000000e+03 7.545770263671875000e+01 1.571678924560546875e+01 -1.925123268805596644e-14 -5.400147763310290949e-14 -2.197581241872130497e-14 1.617639263642653424e-13
3.567000000000000000e+03 5.819301605224609375e+00 1.799981117248535156e+01 9.262065398495111790e-14 -3.263130325843743851e-13 -7.010771086932154894e-14 9.061456825772834511e-14
3.568000000000000000e+03 6.556927204132080078e+00 1.853937721252441406e+01 3.750197716386946545e-15 -4.101513237115411714e-13 -1.219203367821067308e-13 2.745714896765227842e-14
3.569000000000000000e+03 6.976573467254638672e+00 1.987762260437011719e+01 8.156587113627294938e-14 -1.709224667183206758e-13 -2.680697833580113904e-14 8.033661118343835700e-15
3.570000000000000000e+03 6.348380088806152344e+00 1.971161270141601562e+01 4.431422270150323084e-14 -3.927667381869309748e-13 -1.045357512574965342e-13 2.359481967445509198e-13
3.571000000000000000e+03 3.705075073242187500e+01 1.838700866699218750e+01 6.182111978369694838e-14 7.224571689588149548e-14 4.022005168149989096e-14 -4.506637779426968249e-14
3.572000000000000000e+03 2.708550071716308594e+01 3.812656021118164062e+01 1.024438441520579557e-13 6.677997591757536822e-14 5.076714669851635497e-14 -5.243372806795244812e-14
3.573000000000000000e+03 7.085368347167968750e+01 3.357854080200195312e+01 2.163143931555380761e-14 1.007725126218536604e-13 3.672118558122224041e-14 3.314887833628585301e-14
3.574000000000000000e+03 6.782850646972656250e+01 3.650090408325195312e+01 -3.839399433688654717e-14 1.808463995960421511e-13 4.273572259418621788e-14 8.261765396973524272e-15
3.575000000000000000e+03 6.917173767089843750e+01 3.812494277954101562e+01 -1.740098577653493434e-14 1.040603760387066867e-13 2.599781623161857846e-14 -4.900083905800232953e-14
3.576000000000000000e+03 4.799923324584960938e+01 3.926437759399414062e+01 8.147730537130803974e-14 5.779431837618642653e-14 4.178148915712741329e-14 -1.935550922012654884e-14
3.577000000000000000e+03 2.936609458923339844e+01 3.917237091064453125e+01 8.297203392014160239e-14 1.270613388809627153e-13 6.301000845219950630e-14 -3.361127701032376458e-14
3.578000000000000000e+03 2.826609802246093750e+01 3.655131149291992188e+01 5.568049005807290674e-14 1.153649658441890935e-13 5.131363541542588447e-14 -7.716021560837810211e-14
3.579000000000000000e+03 3.046934890747070312e+01 3.571300888061523438e+01 2.744567844748056068e-14 8.038885448155910773e-14 3.235036004811848998e-14 1.760004868353506197e-14
3.580000000000000000e+03 7.154306030273437500e+01 3.904619216918945312e+01 2.032281068149559278e-15 2.296257259858103250e-13 6.949739991390230243e-14 5.358767069815013537e-15
3.581000000000000000e+03 2.552104377746582031e+01 9.592947006225585938e+00 1.425547768141278114e-15 2.751166536339028079e-13 8.296265557134960278e-14 2.008397788355598124e-14
3.582000000000000000e+03 7.103130340576171875e+01 3.673340082168579102e+00 1.756043125852608383e-14 1.504976156717352520e-13 5.041741357085863240e-14 -3.983213430857994453e-14
3.583000000000000000e+03 5.061525726318359375e+01 2.325438308715820312e+01 2.238762289701740071e-14 -1.276581515193345173e-13 -3.158115926432149279e-14 2.483400820868422038e-14
3.584000000000000000e+03 7.215695953369140625e+01 3.197716140747070312e+01 -2.526398415556713184e-14 -1.938312113895432343e-13 -6.572855730828039422e-14 -3.698063854922981064e-14
3.585000000000000000e+03 6.835214233398437500e+01 2.764105033874511719e+01 6.308482009616690062e-15 4.845458412218624222e-14 1.642892060187053221e-14 1.917985084989859423e-13
3.586000000000000000e+03 6.840861511230468750e+01 3.082386970520019531e+01 7.395935941586703755e-14 -1.405408077512649428e-14 1.797158274518921572e-14 8.206760602038135066e-14
3.587000000000000000e+03 3.626189804077148438e+01 1.833016777038574219e+01 8.913935534799952154e-14 1.068290014826292489e-13 5.879051043732042015e-14 1.657788489817235700e-13
3.588000000000000000e+03 3.607815170288085938e+01 1.580301475524902344e+01 1.314010207066618197e-13 1.478166276446674088e-13 8.376529043964062171e-14 -2.759761032371309090e-15
3.589000000000000000e+03 2.457073402404785156e+01 5.840573310852050781e+00 -2.661298576802327565e-14 -1.029074625535399135e-13 -3.885613551290849343e-14 -1.964262899469687573e-13
3.590000000000000000e+03 7.331883239746093750e+01 1.900158119201660156e+01 -3.766278128670801084e-14 2.583645103415577182e-13 6.621051227900451308e-14 -9.275732444505649377e-15
3.591000000000000000e+03 7.389747619628906250e+01 2.040495681762695312e+01 -2.969752739621737969e-14 1.588385456149921104e-13 3.874230444919288252e-14 1.655114576209343324e-13
3.592000000000000000e+03 7.381964111328125000e+01 2.603235816955566406e+01 -6.153969478103760160e-14 1.108786931085063709e-13 1.480169746536155739e-14 4.592062407410280045e-14
3.593000000000000000e+03 2.380508804321289062e+01 8.179958343505859375e+00 -8.084888146334470727e-14 1.941052299361117894e-13 3.397690386420376685e-14 -1.160921249946820707e-14
3.594000000000000000e+03 6.784320068359375000e+01 2.617710304260253906e+01 6.970007118125773338e-14 7.562241035197897476e-14 4.359674174946558123e-14 7.490994044685728159e-14
3.595000000000000000e+03 6.478713035583496094e+00 1.916115379333496094e+01 1.767044355890229346e-13 -1.530242675195497837e-13 7.104049658512292739e-15 4.840047057531795399e-15
3.596000000000000000e+03 7.315277099609375000e+01 2.333812332153320312e+01 7.156500056188647152e-14 -6.083118221384548052e-14 3.220145038544176309e-15 6.578828329545718945e-14
3.597000000000000000e+03 7.215383911132812500e+01 4.930117607116699219e+00 -8.253451090969865511e-14 -6.968514307259532359e-14 -4.566589754994090922e-14 9.764970543323439611e-14
3.598000000000000000e+03 7.148775482177734375e+01 3.915252923965454102e+00 3.205066962698455146e-14 2.196152737747245065e-13 7.549978031000728618e-14 -3.014746452153528600e-14
3.599000000000000000e+03 6.835090637207031250e+01 2.895439529418945312e+01 3.198101980179772486e-14 -4.348253460312138940e-14 -3.450454779210278267e-15 6.609831768294299748e-14
3.600000000000000000e+03 7.302957916259765625e+01 2.528088760375976562e+01 1.257513787111114167e-13 3.512746192015081537e-13 1.431078020842913023e-13 6.667763400875631463e-14
3.601000000000000000e+03 7.386910247802734375e+01 2.658638191223144531e+01 1.104113206570021821e-13 4.731913984452364164e-14 4.731913984452364164e-14 7.247865095637642807e-14
3.602000000000000000e+03 7.405413055419921875e+01 2.706098365783691406e+01 8.158953384868744552e-14 3.496694307800890522e-14 3.496694307800890522e-14 1.719732369238945267e-15
3.603000000000000000e+03 7.274662780761718750e+01 2.589888381958007812e+01 -9.956015097631679134e-14 -8.841958740700428532e-14 -5.639392219262268080e-14 2.465127779097305016e-14
3.604000000000000000e+03 7.396238708496093750e+01 2.215264511108398438e+01 7.599127625984927747e-14 5.544316497877940786e-14 3.943033237158860560e-14 -1.497456537024807743e-13
3.605000000000000000e+03 7.078387451171875000e+01 3.279295921325683594e+00 -2.533327145065253361e-14 4.009014257719267782e-13 1.126704456187559156e-13 7.469809411861719206e-14
3.606000000000000000e+03 7.221175384521484375e+01 2.193391323089599609e+00 -3.343073024355061595e-14 -8.295388031001604823e-14 -3.491538248844364145e-14 -2.318988676487752226e-14
3.607000000000000000e+03 3.850321960449218750e+01 1.770897674560546875e+01 9.673131843050339351e-14 2.244600718400574513e-13 9.635741775879461124e-14 1.942082020374436002e-13
3.608000000000000000e+03 3.882267379760742188e+01 1.538166618347167969e+01 1.073153745772062462e-13 1.374941962584488864e-13 7.344287260594925537e-14 1.377116601091951664e-13
3.609000000000000000e+03 7.321665954589843750e+01 5.533726692199707031e+00 1.449501732834687640e-13 2.565630271168101162e-13 1.204539533438200860e-13 2.251993621964210046e-14
3.610000000000000000e+03 7.410504150390625000e+01 2.197682380676269531e+00 -3.162731239555148510e-14 2.152001856879290353e-13 5.507185961602101276e-14 -1.195175550324986680e-13
3.611000000000000000e+03 7.277427673339843750e+01 3.818499326705932617e+00 9.082495430116736823e-15 1.411453419419839150e-13 4.506835307510267952e-14 -2.479240533844687816e-14
3.612000000000000000e+03 7.383897399902343750e+01 2.130346679687500000e+01 -1.202310007195755981e-13 1.915243408746186704e-13 2.138800204651292169e-14 5.352608547365411695e-14
3.613000000000000000e+03 7.148073577880859375e+01 2.272113227844238281e+01 -9.739518219697984591e-14 4.976110533827168836e-14 -1.429022339642562617e-14 -9.625692576993236105e-14
3.614000000000000000e+03 7.237857818603515625e+01 2.147146415710449219e+01 -3.559984609619731843e-14 9.912029693120300022e-14 1.905613558931488344e-14 1.303382721846643721e-13
3.615000000000000000e+03 7.227482604980468750e+01 2.206655311584472656e+01 -4.967968514324981599e-14 1.159615480895992423e-13 1.988455922271800680e-14 -1.197799319582401600e-13
3.616000000000000000e+03 7.344603729248046875e+01 1.995029449462890625e+01 -4.067556905987430860e-14 2.113223604351815998e-13 5.119403775140536628e-14 2.152792003093807055e-14
3.617000000000000000e+03 7.429249572753906250e+01 2.087649917602539062e+01 2.224883824267567811e-14 4.212937507533376369e-13 1.330627773764303523e-13 8.501473179947649506e-15
3.618000000000000000e+03 7.326129150390625000e+01 2.673526000976562500e+01 1.879943886651767870e-14 5.380784928949236545e-14 2.178218746324254995e-14 3.180704008146463882e-15
3.619000000000000000e+03 5.060901641845703125e+00 1.073854541778564453e+01 5.712253993385082995e-14 2.989867739239954192e-13 1.068327961902329482e-13 -9.105991785260392213e-14
3.620000000000000000e+03 5.445707798004150391e+00 1.582217979431152344e+01 7.120325650703668297e-14 3.051568329623388642e-14 3.051568329623388642e-14 -5.364804127739979112e-14
3.621000000000000000e+03 7.340872955322265625e+01 3.195746803283691406e+01 5.693045996646786677e-14 -1.786210610844884972e-13 -3.650718101303254692e-14 -2.033408638408944202e-14
3.622000000000000000e+03 6.951953887939453125e+01 3.208134841918945312e+01 3.651732507960886442e-14 6.140122861108404662e-14 2.937556678483423112e-14 3.675263760861968709e-14
3.623000000000000000e+03 6.083990478515625000e+01 4.255798339843750000e+00 1.702229915691592845e-15 -9.077237388393361028e-14 -2.672104176110450674e-14 -2.342126567288129596e-15
3.624000000000000000e+03 3.636041641235351562e+01 1.909928703308105469e+01 1.134799245132607493e-13 2.316380594280520455e-13 1.035353917942620494e-13 1.741371329360037745e-14
3.625000000000000000e+03 5.789577484130859375e+01 5.034979343414306641e+00 5.222707913387671097e-14 -2.336791614973143111e-14 8.657749064650173410e-15 -8.804391813050163607e-14
3.626000000000000000e+03 5.768494796752929688e+01 1.924991989135742188e+01 1.792365592696767290e-14 -3.806938081831259812e-14 -6.043718145029835370e-15 -5.366237646299912289e-14
3.627000000000000000e+03 3.968421173095703125e+01 1.544185447692871094e+01 2.146121550871543660e-13 4.622569146038590926e-14 7.825135667476751378e-14 1.830799102814709145e-13
3.628000000000000000e+03 7.286950683593750000e+01 3.366081237792968750e+01 6.354094903232923586e-14 1.187337310719002725e-13 5.468240403126885252e-14 -2.878272503691915729e-14
3.629000000000000000e+03 7.085435485839843750e+01 3.207518386840820312e+01 4.572454526417584972e-15 1.959623428967032649e-15 1.959623428967032649e-15 8.129092424159420349e-14
3.630000000000000000e+03 6.648892211914062500e+01 2.464112091064453125e+01 4.010307304335228307e-14 1.773153564081642042e-13 6.522552815782858837e-14 1.187450609846027461e-13
3.631000000000000000e+03 6.760778808593750000e+01 2.380029869079589844e+01 -4.212228778125749751e-14 -4.092788323420241958e-14 -2.491505062701161732e-14 -5.113165546890598157e-14
3.632000000000000000e+03 2.454914855957031250e+01 1.038137817382812500e+01 -1.389136472951940648e-13 7.771842387314584211e-14 -1.835856668780128792e-14 -8.714323750450003736e-14
3.633000000000000000e+03 2.423281860351562500e+01 9.729887008666992188e+00 -3.270107573399502754e-14 -5.976569608136250711e-14 -2.774003086698090259e-14 -1.247224437443683609e-13
3.634000000000000000e+03 2.433036994934082031e+01 8.666913032531738281e+00 3.325682760321573006e-14 -1.687508639769408347e-13 -4.064821328380978371e-14 -1.457861744736180243e-13
3.635000000000000000e+03 7.341643810272216797e+00 2.071703720092773438e+01 1.049807552629296314e-13 -3.210158376100447075e-13 -6.481052267125544941e-14 3.022035678884420207e-14
3.636000000000000000e+03 3.480248260498046875e+01 1.683180046081542969e+01 6.129335727118531696e-14 -1.948236765057093089e-14 1.254329586974477911e-14 7.515586121649951712e-15
3.637000000000000000e+03 7.303067779541015625e+01 3.182545185089111328e+00 3.877862861010293594e-14 -5.200700980978467669e-14 -3.968514529311111677e-15 9.051983609290742416e-14
3.638000000000000000e+03 2.526844024658203125e+01 1.095041275024414062e+01 -8.106434631633546717e-14 1.940128830160703366e-13 3.388456033229410302e-14 1.037050707048054517e-15
3.639000000000000000e+03 6.710643768310546875e+01 2.452363777160644531e+01 -4.934119383686805249e-14 -2.041500242510110863e-13 -7.604736339348466823e-14 -5.468676794501310667e-14
3.640000000000000000e+03 5.057647705078125000e+01 2.457832908630371094e+01 -1.108096700877005125e-13 -9.324080407508567037e-14 -6.121514563696764388e-14 -6.751081627325711265e-14
3.641000000000000000e+03 3.720281219482421875e+01 1.696032142639160156e+01 1.244770210300991109e-13 -1.067810255364967653e-13 5.308801019772955987e-15 1.104044766307883674e-13
3.642000000000000000e+03 6.795099639892578125e+01 2.979268836975097656e+01 2.993589602010189588e-14 -7.867223040559923053e-14 -1.462089997683602149e-14 1.331950500414735838e-13
3.643000000000000000e+03 7.164165496826171875e+01 4.660655021667480469e+00 -5.049389386973211769e-14 1.270503477814391435e-13 2.296693414063303434e-14 -9.574998671539602935e-14
3.644000000000000000e+03 6.957331848144531250e+01 3.071014022827148438e+01 4.700454503164981646e-14 -7.135709124278521998e-14 -7.305764202153799958e-15 -2.112779352511640063e-14
3.645000000000000000e+03 7.641027450561523438e+00 2.012456893920898438e+01 6.259760505084033255e-14 -6.467435365465484809e-14 -6.230246552597375458e-16 8.418838000866235571e-14
3.646000000000000000e+03 7.268252563476562500e+01 5.216981887817382812e+00 7.203063151365110550e-14 -6.063162802773594540e-14 3.419702401027263639e-15 2.833964379627632729e-14
3.647000000000000000e+03 7.325639343261718750e+01 2.480297565460205078e+00 -5.493652069170872065e-14 9.083315019196500084e-14 1.076898885007688406e-14 -7.018759624064299651e-14
3.648000000000000000e+03 6.751061248779296875e+01 2.560981559753417969e+01 -1.719868008859953834e-13 -5.083315089389819907e-14 -6.684598350108900133e-14 3.483926810780337002e-14
3.649000000000000000e+03 6.724674224853515625e+01 2.511004829406738281e+01 -1.781327398141328150e-14 8.386763912472325333e-14 1.981630869596004429e-14 3.509135739488398499e-16
3.650000000000000000e+03 7.289844512939453125e+01 2.789113616943359375e+01 1.650343409024049302e-14 5.282384772653525573e-14 2.079818420621954572e-14 -3.556090290941435472e-14
3.651000000000000000e+03 7.524963378906250000e+01 1.390199184417724609e+01 3.661260527474665891e-15 1.159464776794016938e-13 3.588232480784304956e-14 -4.426360740070710287e-14
3.652000000000000000e+03 4.918002319335937500e+01 2.245549011230468750e+01 1.356524891331020721e-13 1.267632103885835138e-13 7.872471256701110698e-14 4.608206855384947009e-14
3.653000000000000000e+03 7.261000061035156250e+01 3.454644012451171875e+01 -2.668981843260281872e-14 8.006340409443327144e-14 1.601207535973595691e-14 -6.191829140340596171e-14
3.654000000000000000e+03 6.932372283935546875e+01 3.363309478759765625e+01 2.483882613208820284e-14 1.478980512278210702e-13 5.182106574907162366e-14 -2.079943273278379856e-14
3.655000000000000000e+03 6.913800048828125000e+01 3.553310012817382812e+01 1.196132409564181973e-14 1.652545965737453604e-13 5.316477848780511162e-14 -5.521737648822751254e-14
3.656000000000000000e+03 7.282708740234375000e+01 3.014896774291992188e+01 5.264940976137770512e-14 2.399374983094205993e-14 2.299294821650910842e-14 -7.864788159649745841e-15
3.657000000000000000e+03 7.280010986328125000e+01 3.134045028686523438e+01 3.037430672107356566e-14 1.873642808557143130e-14 1.473321993377373074e-14 -5.945617668990862970e-14
3.658000000000000000e+03 3.928819274902343750e+01 1.586001014709472656e+01 1.755594774372967737e-13 2.948882525427749812e-14 6.151448708052731362e-14 8.585298270913366281e-14
3.659000000000000000e+03 3.846476745605468750e+01 1.713705635070800781e+01 1.153670664858982842e-13 -4.205886873043067353e-14 2.199246000426664099e-14 2.278278206282319251e-13
3.660000000000000000e+03 3.836567306518554688e+01 1.582238292694091797e+01 1.567465910757084857e-13 1.014903222226748447e-13 7.747107670002043034e-14 1.439661242866666080e-13
3.661000000000000000e+03 7.240118408203125000e+01 2.493798637390136719e+01 -3.911818040173466182e-14 -1.540177761803068757e-13 -5.794078731342564015e-14 5.623336540340473366e-14
3.662000000000000000e+03 2.488054275512695312e+01 9.184103965759277344e+00 -5.956070055559981036e-14 1.117268305867238909e-13 1.564983833171086636e-14 -8.839180472633434427e-14
3.663000000000000000e+03 7.386813354492187500e+01 2.277320289611816406e+01 -7.096232814958556429e-15 8.846065156428717380e-14 2.440932621772164829e-14 8.743826924442407722e-14
3.664000000000000000e+03 7.272354888916015625e+01 2.436053276062011719e+01 -6.682198875175918151e-14 -5.762520147200352744e-15 -2.177535190735820775e-14 3.884746528366039842e-14
3.665000000000000000e+03 3.629066085815429688e+01 1.752303695678710938e+01 1.115411474121585922e-13 -1.809513910239202161e-13 -2.082307342234166608e-14 1.083382447880469612e-13
3.666000000000000000e+03 3.669604492187500000e+01 1.611561584472656250e+01 1.435967637115551088e-13 1.579052372798622761e-14 4.781618894236783213e-14 1.719831823612447130e-13
3.667000000000000000e+03 5.785710144042968750e+01 6.076437950134277344e+00 3.233507279748644436e-14 -7.587869372269791940e-15 7.424160773455111551e-15 -1.114544451196776420e-13
3.668000000000000000e+03 3.918292999267578125e+01 1.693820762634277344e+01 1.500479834782783572e-13 3.388119591742760894e-13 1.466579814405136184e-13 9.154951644864406379e-14
3.669000000000000000e+03 7.355060577392578125e+01 2.559873199462890625e+01 -2.520596917494379030e-14 -1.823686194462117993e-13 -6.227237828041257139e-14 -5.267886956728320969e-14
3.670000000000000000e+03 3.551168441772460938e+01 1.723071098327636719e+01 1.043051346791452894e-13 1.362041040934083846e-13 7.215276688838159758e-14 4.353147616681374288e-14
3.671000000000000000e+03 6.777439117431640625e+01 2.447994804382324219e+01 5.806507076371036913e-14 1.621378812460827490e-13 6.606088560293793543e-14 9.134804457994194493e-14
3.672000000000000000e+03 7.231314086914062500e+01 2.277587509155273438e+01 8.235148233639005139e-15 9.503124876646465435e-14 3.097991833770144532e-14 9.811280883868442326e-14
3.673000000000000000e+03 7.303169250488281250e+01 2.386104202270507812e+01 -7.184656786608095702e-14 6.071051051204784388e-14 -3.340817375616523394e-15 -6.527357186659685229e-14
3.674000000000000000e+03 7.043436431884765625e+01 2.558867645263671875e+01 9.260415547720449864e-15 3.968749580953974745e-15 3.968749580953974745e-15 -7.250312343228849932e-15
3.675000000000000000e+03 3.921425628662109375e+01 1.760400962829589844e+01 1.590042930221108319e-13 2.053975479282543759e-13 1.093205522851095624e-13 1.667002717505375320e-13
3.676000000000000000e+03 3.780284881591796875e+01 1.773813247680664062e+01 1.836948155435960683e-13 2.159791985013870264e-13 1.199022028582422128e-13 5.783787619846603167e-14
3.677000000000000000e+03 7.310495758056640625e+01 2.270855522155761719e+01 -1.075912023861501365e-13 2.283951836250935896e-13 3.624119233880396251e-14 -1.497043591522362327e-13
3.678000000000000000e+03 7.240323638916015625e+01 2.846182441711425781e+01 4.228004936174950545e-14 -1.191328258915921867e-13 -2.305583363657916218e-14 -3.798373138778508504e-15
3.679000000000000000e+03 6.979122924804687500e+01 2.290628814697265625e+01 3.196405881406190475e-14 -3.205206553728162655e-14 -2.640228993551868407e-17 1.170624876331224917e-13
3.680000000000000000e+03 7.196746826171875000e+01 4.153647899627685547e+00 7.622422387287136614e-14 -8.170984640851544634e-14 -1.645687501847052907e-15 1.037854155915007848e-13
3.681000000000000000e+03 7.333215332031250000e+01 4.065504074096679688e+00 2.663501031871778196e-14 1.944187947569217534e-13 6.631614067565891335e-14 1.047694374832486286e-13
3.682000000000000000e+03 7.250050354003906250e+01 2.983729362487792969e+00 -3.409286267468288056e-14 -1.461122686057837738e-14 -1.461122686057837738e-14 3.221334061043884534e-14
3.683000000000000000e+03 7.300270843505859375e+01 2.107138442993164062e+01 -2.324411550822663708e-14 2.645439206236388507e-13 7.238994288987637971e-14 1.001009899834681346e-14
3.684000000000000000e+03 6.880595397949218750e+01 2.830918312072753906e+01 -1.285412612938782728e-13 -2.895627260104255418e-13 -1.254312002570492912e-13 5.764856772288648457e-14
3.685000000000000000e+03 6.809194183349609375e+01 2.688329505920410156e+01 -1.202025946226564779e-13 8.573744741512817624e-14 -1.033954653395074280e-14 1.198654755096492663e-13
3.686000000000000000e+03 6.941212463378906250e+01 2.663171386718750000e+01 -1.014957313750760107e-14 -9.585171198422948180e-14 -3.180038494359806178e-14 -6.195797997918250921e-14
3.687000000000000000e+03 7.021855926513671875e+01 3.137409400939941406e+01 1.401448029077646124e-14 5.175715541913539219e-14 1.973149020475378768e-14 -3.399825925886994227e-14
3.688000000000000000e+03 5.942600631713867188e+01 5.625559806823730469e+00 7.932431702597705914e-14 2.627508941758366356e-13 1.026225613276650350e-13 -1.597825604465752392e-13
3.689000000000000000e+03 5.892601394653320312e+01 6.095272064208984375e+00 3.685697004486478828e-15 1.130975196307615338e-13 3.503496659993700357e-14 -6.409276728054288941e-14
3.690000000000000000e+03 6.868141937255859375e+01 2.394410133361816406e+01 -2.151626655164974589e-14 1.509070646221744028e-13 3.881723975997057596e-14 1.489807761748465631e-13
3.691000000000000000e+03 7.167649078369140625e+01 3.417537307739257812e+01 2.497059227142897631e-14 6.789036834878997562e-14 2.785828852487886448e-14 -3.170296937840023921e-14
3.692000000000000000e+03 7.014062500000000000e+01 3.284694671630859375e+01 -5.385189839088137809e-15 4.344300865767071473e-14 1.141734598438795198e-14 -2.602089957349715266e-14
3.693000000000000000e+03 6.780171966552734375e+01 2.515588760375976562e+01 -6.254382184682147350e-14 -2.098082856538327490e-13 -8.170563157256990894e-14 6.904779482549971981e-14
3.694000000000000000e+03 6.934217071533203125e+01 2.424868965148925781e+01 7.365919804441442564e-14 1.230701196335004521e-13 5.901879598100082114e-14 -1.062619501938921740e-13
3.695000000000000000e+03 6.883129119873046875e+01 3.017107582092285156e+01 6.266490690069737024e-14 -1.218341969195027574e-13 -1.775078497276254275e-14 6.302280203783483525e-14
3.696000000000000000e+03 7.088181304931640625e+01 3.067366981506347656e+01 2.134846424260098546e-14 -1.281035011142100943e-13 -3.202651224732885882e-14 6.311104931841157728e-14
3.697000000000000000e+03 7.200733184814453125e+01 3.718645095825195312e+01 -4.463683044605808170e-14 1.066850397629139080e-13 1.861446211743039009e-14 2.902902188918997373e-14
3.698000000000000000e+03 7.179041290283203125e+01 2.884083938598632812e+01 7.436633333603431123e-15 6.037581730140156866e-14 2.034373408935866850e-14 8.200861186967098315e-14
3.699000000000000000e+03 7.009985351562500000e+01 3.452227020263671875e+01 1.279932513057954746e-14 5.123637245810913621e-14 1.921070893779342620e-14 -7.208490091458168852e-15
3.700000000000000000e+03 3.707489013671875000e+01 1.765665626525878906e+01 -1.231812656027732669e-14 1.777246020706960139e-13 4.962194121316959583e-14 8.538814458020765885e-14
3.701000000000000000e+03 3.647656250000000000e+01 1.677988052368164062e+01 5.914889346543550364e-14 1.626023670093026952e-13 6.652537814242145964e-14 9.859636300761295824e-14
3.702000000000000000e+03 7.130902099609375000e+01 2.347358131408691406e+01 -2.575962209652119667e-14 1.948394380947918170e-13 5.072394124194280762e-14 7.948961719969963036e-14
3.703000000000000000e+03 7.254566955566406250e+01 2.663430404663085938e+01 7.148083936824728424e-14 1.678874866819363154e-13 7.181049781505507990e-14 -3.151081148398612863e-14
3.704000000000000000e+03 7.114069366455078125e+01 2.593562698364257812e+01 7.444674217371716196e-14 3.190574567784112969e-14 3.190574567784112969e-14 -5.387600833669202449e-14
3.705000000000000000e+03 7.000999450683593750e+01 2.456891822814941406e+01 -2.411037440931771553e-14 1.040443569516082134e-13 2.398019391565420211e-14 6.263051736303884565e-14
3.706000000000000000e+03 7.084680938720703125e+01 2.660619544982910156e+01 -2.377469525232083630e-14 -1.931929551231281739e-13 -6.509029426560175580e-14 -8.869513230694379274e-15
3.707000000000000000e+03 3.821449661254882812e+01 1.667431449890136719e+01 2.152645330868660500e-13 3.506754009895661495e-14 7.509962161693362059e-14 1.995955484224154475e-13
3.708000000000000000e+03 7.223064422607421875e+01 2.738961410522460938e+01 3.363905969099370563e-14 6.016769114186582001e-14 2.814202423341832099e-14 1.430111115792963294e-14
3.709000000000000000e+03 3.882838439941406250e+01 1.632104492187500000e+01 1.533064040298848241e-13 1.286102978672112873e-13 8.457500650337068659e-14 1.880293745140301787e-13
3.710000000000000000e+03 3.786560058593750000e+01 1.712386703491210938e+01 -7.496009834986189224e-14 -7.787670383780156969e-14 -4.585104201155175419e-14 3.976480196553680568e-14
3.711000000000000000e+03 6.901339721679687500e+01 2.737634277343750000e+01 -1.012208505489671506e-13 -4.338036548902357570e-14 -4.338036548902357570e-14 -9.991638592887763792e-14
3.712000000000000000e+03 6.877590179443359375e+01 2.671039962768554688e+01 1.706891879154162107e-15 1.151088908435751734e-13 3.504473797201652918e-14 1.234827127702398109e-13
3.713000000000000000e+03 6.903257751464843750e+01 2.488601303100585938e+01 -7.589695067084303859e-14 1.322368270792332115e-14 -1.880198165942533611e-14 8.576083230073597297e-14
3.714000000000000000e+03 3.987565994262695312e+01 1.599248886108398438e+01 1.685141419851057809e-13 -6.503249951354470038e-14 3.104449274146832416e-14 1.235496893594451029e-13
3.715000000000000000e+03 7.152526855468750000e+01 3.135723876953125000e+01 4.512642226583464533e-14 -2.641105311339785044e-14 5.614610406917859564e-15 -2.811782958431294915e-14
3.716000000000000000e+03 7.157012939453125000e+01 3.004383659362792969e+01 -3.143354175040580234e-14 1.924077488047598594e-13 4.829226211630621712e-14 3.600935264487688248e-14
3.717000000000000000e+03 7.179322814941406250e+01 2.811441993713378906e+01 6.744524914687605177e-14 -2.828357868549756515e-14 1.174850198544649324e-14 1.001507497809875358e-13
3.718000000000000000e+03 6.931242370605468750e+01 2.939934730529785156e+01 6.605090077855570174e-15 2.570622683359218008e-14 9.693395073434325077e-15 8.463418874833490376e-17
3.719000000000000000e+03 6.847667694091796875e+01 2.522849655151367188e+01 1.248640405480949678e-13 9.926410957311962435e-14 6.723844435873801983e-14 9.159853593936756466e-14
3.720000000000000000e+03 6.967741394042968750e+01 2.527409362792968750e+01 1.208363107924742552e-13 2.462285204288955365e-13 1.101194466559055063e-13 -3.655638685100444374e-14
3.721000000000000000e+03 6.844853973388671875e+01 2.456062889099121094e+01 2.970440869188087363e-14 3.560593456902218235e-14 1.959310365589727460e-14 -8.127301457695745857e-15
3.722000000000000000e+03 7.253670501708984375e+01 2.343651771545410156e+01 -9.570556830764201384e-14 3.707418757843000678e-13 8.251088885486562718e-14 -3.481368432466450114e-14
3.723000000000000000e+03 7.172312164306640625e+01 2.455698966979980469e+01 -8.398347935058975144e-14 9.758030463573406227e-15 -2.226763390377525104e-14 4.006056215379548424e-14
3.724000000000000000e+03 7.042040252685546875e+01 2.840998840332031250e+01 2.197618003102041334e-14 8.948252566438191780e-14 3.343761153921410989e-14 7.480724617233217022e-14
3.725000000000000000e+03 7.051207733154296875e+01 2.317588615417480469e+01 -7.138938691499813194e-14 -3.059545008294271839e-14 -3.059545008294271839e-14 -1.332506560603949342e-13
3.726000000000000000e+03 7.095597076416015625e+01 2.925384330749511719e+01 -8.064917481130466637e-15 -3.456393115445241353e-15 -3.456393115445241353e-15 5.406123750159759489e-14
3.727000000000000000e+03 7.150879669189453125e+01 2.700746536254882812e+01 5.558304738782077203e-14 6.957225729764884847e-14 3.754659208326724396e-14 1.087892254579558848e-13
3.728000000000000000e+03 7.101000213623046875e+01 2.418962669372558594e+01 -6.755597329374113391e-14 6.254933772537399350e-14 -1.501990903444202618e-15 -4.985563760331705729e-14
3.729000000000000000e+03 7.210443878173828125e+01 2.559464073181152344e+01 3.837263216595679372e-14 2.909511011024018545e-13 9.879712336863938349e-14 3.736949782278710386e-14
3.730000000000000000e+03 6.958254241943359375e+01 2.715857696533203125e+01 6.846948138669595174e-14 -9.647104892273467014e-14 -8.400469583185257716e-15 2.080107936483326092e-14
3.731000000000000000e+03 6.945187377929687500e+01 2.598728370666503906e+01 1.594297271783305658e-14 -3.891824674486475677e-14 -6.892581953999625879e-15 -3.642798004433248082e-14
3.732000000000000000e+03 6.862892150878906250e+01 2.596641159057617188e+01 -1.847825684781964628e-13 -3.344157904153904903e-14 -6.546724425592065355e-14 4.744571706002953526e-14
3.733000000000000000e+03 7.071721649169921875e+01 2.489651298522949219e+01 -5.360941657500499502e-14 1.142773755399145719e-13 1.820039006116512537e-14 2.255796799897381855e-14
3.734000000000000000e+03 6.955813598632812500e+01 2.862867927551269531e+01 -1.180968571632551312e-14 -5.061293757420513156e-15 -5.061293757420513156e-15 -6.236780840038202989e-14
3.735000000000000000e+03 7.108516693115234375e+01 2.775281524658203125e+01 -3.674093500142042168e-14 -1.574611548462757915e-14 -1.574611548462757915e-14 1.116994951394501001e-13
3.736000000000000000e+03 6.995493316650390625e+01 2.680170631408691406e+01 -4.235722083950795025e-15 -1.390681596573004053e-13 -4.299116401415559174e-14 -1.925769893757530576e-14
3.737000000000000000e+03 7.018602752685546875e+01 2.624134063720703125e+01 2.033827411498066728e-14 -1.285364365942107123e-13 -3.245945111546126582e-14 -2.995880995539101921e-14
3.738000000000000000e+03 7.142273712158203125e+01 2.524377250671386719e+01 -1.944341599345849464e-14 -8.332892447620362381e-15 -8.332892447620362381e-15 -1.918310243997651404e-14
3.739000000000000000e+03 7.047971343994140625e+01 2.722484779357910156e+01 -2.448194235228975946e-14 -5.624321131438361765e-14 -2.421754610000201313e-14 4.817427042675369309e-14
3.740000000000000000e+03 3.787401580810546875e+01 1.622492980957031250e+01 9.342448825189544892e-14 -5.711883670580543415e-15 2.631377984973516659e-14 6.040690002243401246e-14
3.741000000000000000e+03 6.997259521484375000e+01 2.770017433166503906e+01 2.528959504376031286e-14 5.119529390126614440e-15 9.122737118407841378e-15 -5.458639030559873581e-15
3.742000000000000000e+03 2.379471778869628906e+01 3.796157836914062500e+01 1.231994920577322850e-13 -1.073285340810747890e-13 4.761288663546669672e-15 -4.965264785157345873e-14
3.743000000000000000e+03 8.168376922607421875e+00 3.944108200073242188e+01 -2.261803618746130451e-14 -5.544439148248703209e-14 -2.341872796217132208e-14 -2.517698031935695913e-14
3.744000000000000000e+03 2.522780799865722656e+01 4.003632354736328125e+01 1.036716556785527432e-13 -1.320238173512400682e-15 3.070542545268242773e-14 -6.005447052420738343e-17
3.745000000000000000e+03 3.851653289794921875e+01 3.494664192199707031e+00 2.227752758741236017e-13 -8.752867815308221222e-14 4.057397931631241683e-14 -7.581037712737007106e-14
3.746000000000000000e+03 3.354211807250976562e+01 1.404542088508605957e+00 -3.795363884826798151e-14 -1.763941640323118953e-13 -6.430434255823985756e-14 -1.074682945173717485e-13
3.747000000000000000e+03 3.253843307495117188e+01 1.363802194595336914e+00 1.979244438970410164e-14 -4.870621050576118272e-14 -8.674128987784177069e-15 -3.270827077066218447e-13
3.748000000000000000e+03 3.241074371337890625e+01 2.058999061584472656e+00 1.910782831601991888e-14 3.170079758592347918e-13 1.008347390502907504e-13 -3.397304139396428724e-13
3.749000000000000000e+03 3.074284744262695312e+01 5.427045226097106934e-01 1.082580815899188142e-13 -1.366074815116816166e-13 -8.504818113056356738e-15 -2.243792581206258130e-13
3.750000000000000000e+03 5.890356445312500000e+01 -8.200424909591674805e-02 2.329005857528571033e-13 2.370673915421533939e-13 1.409903958990085804e-13 -1.160312893943443724e-13
3.751000000000000000e+03 5.964177703857421875e+01 9.063863009214401245e-02 2.774878308901829183e-13 7.317241159775916826e-14 1.051980700358771947e-13 -1.726447083167867436e-13
3.752000000000000000e+03 7.179371643066406250e+01 -6.115782260894775391e-01 -5.427750195369056285e-14 2.248916351266835173e-14 -9.536500854680305533e-15 -1.110252298083813649e-13
3.753000000000000000e+03 7.237956237792968750e+01 -1.650749146938323975e-01 -3.970150488745438633e-14 2.460530152022244454e-13 6.190545716018916456e-14 1.266534213660922004e-13
3.754000000000000000e+03 5.327906417846679688e+01 2.878746223449707031e+01 -7.959023116130628517e-14 1.717691744049232305e-13 2.765368263427190471e-14 -7.505329907911417742e-14
3.755000000000000000e+03 5.454327392578125000e+01 7.176681041717529297e+00 7.184042179501567982e-14 1.222906460341191548e-13 5.823932238161952379e-14 3.506108570789853718e-14
3.756000000000000000e+03 5.526206588745117188e+01 4.030878829956054688e+01 1.046731942116498060e-13 6.773541552955106293e-14 5.172258292236026067e-14 1.825460398143766323e-15
3.757000000000000000e+03 1.012156677246093750e+01 3.853168869018554688e+01 -1.539169148850796226e-14 -1.667247611671085483e-13 -5.463493630490472153e-14 6.632900202393002265e-14
3.758000000000000000e+03 7.851094818115234375e+01 3.964740371704101562e+01 -7.322165301111484975e-15 -2.601354563344909082e-14 -1.000071302625828856e-14 -5.041008504179898819e-14
3.759000000000000000e+03 5.449174880981445312e+01 3.500084304809570312e+01 -8.518325069839863262e-14 9.243842501074472223e-15 -2.278182186627418504e-14 2.407073326738621427e-14
3.760000000000000000e+03 5.403594970703125000e+01 3.460401535034179688e+01 -6.855533664622964762e-14 -7.513180886892928401e-14 -4.310614365454767949e-14 2.525191563013465257e-14
3.761000000000000000e+03 8.743220329284667969e+00 1.488097286224365234e+01 -2.543249458415979686e-14 -2.396543792408667439e-13 -7.952606672148587741e-14 5.645913017703410586e-14
3.762000000000000000e+03 6.468560791015625000e+01 2.054668235778808594e+01 -5.303990550258909364e-14 -2.273138783052876949e-14 -2.273138783052876949e-14 -5.293667929137310657e-14
3.763000000000000000e+03 4.035427856445312500e+01 3.416651487350463867e+00 -1.292439293337343392e-14 -2.342937584394466644e-13 -7.416544592006579784e-14 -1.560173702470218915e-13
3.764000000000000000e+03 6.374029159545898438e+01 2.707096672058105469e+01 -3.012994449205427805e-14 -1.291283432177520174e-14 -1.291283432177520174e-14 -2.628639432163836940e-16
3.765000000000000000e+03 6.725743103027343750e+01 5.874436855316162109e+00 -3.979490551648222352e-14 7.444693868536092496e-14 1.039560995066361043e-14 -1.304822915026201263e-14
3.766000000000000000e+03 4.673360824584960938e+01 1.884059143066406250e+01 1.378308545855327916e-13 -8.962021934028757686e-14 1.446319260645263782e-14 9.854408413410842282e-14
3.767000000000000000e+03 5.406824874877929688e+01 3.148736238479614258e+00 7.090459946609839470e-14 -2.212425392628808440e-13 -4.510138058378201920e-14 1.686091316479426672e-13
3.768000000000000000e+03 4.443698120117187500e+01 9.580700874328613281e+00 3.482762987510809594e-14 -3.082482321692739391e-14 1.200842315091565828e-15 1.493664268875996570e-13
3.769000000000000000e+03 2.050383186340332031e+01 3.219482421875000000e+01 1.129112960491758869e-14 -2.239156939292524795e-13 -6.378736785734445691e-14 -4.717347050638663608e-14
3.770000000000000000e+03 6.380754470825195312e+01 3.354160690307617188e+01 -5.081523021783313984e-15 6.644863018113664199e-14 1.841013066549834071e-14 2.133920956061928498e-14
3.771000000000000000e+03 4.052093124389648438e+01 4.761930465698242188e+00 9.572891253566834235e-14 1.554040506305739977e-13 7.533988759461998641e-14 -8.821238959557872739e-14
3.772000000000000000e+03 7.073644256591796875e+01 7.553934097290039062e+00 -5.997608551293331924e-14 2.030507110107465651e-13 4.292238493883854256e-14 6.080230855473947593e-14
3.773000000000000000e+03 1.337190818786621094e+01 3.572509384155273438e+01 1.133403876936618648e-13 4.857445283674988179e-14 4.857445283674988179e-14 -4.253365102615744298e-14
3.774000000000000000e+03 6.768511199951171875e+01 5.432903766632080078e+00 -7.422766557223930972e-14 1.393909181737198674e-14 -1.808657254997667052e-14 9.368915555472631662e-14
3.775000000000000000e+03 8.621538162231445312e+00 1.613146972656250000e+01 -6.537081802520522400e-15 -1.858054048077192877e-13 -5.770274395019286962e-14 2.313837191509141022e-14
3.776000000000000000e+03 1.955451011657714844e+01 2.332982063293457031e+01 9.242707476925151461e-15 -3.162954924015859426e-13 -9.211582912465113293e-14 -6.219634860306702540e-14
3.777000000000000000e+03 5.243806457519531250e+01 2.973051261901855469e+01 -4.959205111452688608e-14 7.024816248450346801e-14 6.196833749806153480e-15 -1.307958461590347232e-13
3.778000000000000000e+03 6.403251647949218750e+01 3.562276840209960938e+01 -1.941734093121021826e-14 1.918386781894765303e-13 5.172640134688648306e-14 2.248312586182032308e-14
3.779000000000000000e+03 6.440866851806640625e+01 3.489035415649414062e+01 -2.181931461138660044e-14 1.352433959365007682e-14 -2.488492166507778186e-15 2.669077557983321608e-14
3.780000000000000000e+03 6.073747253417968750e+01 1.957605171203613281e+01 -4.471405274579336175e-14 1.409651610934439803e-13 2.887532945497657544e-14 3.283402729594548340e-15
3.781000000000000000e+03 2.233482551574707031e+01 1.277659702301025391e+01 2.282906665356659870e-13 5.208790145624746237e-14 8.411357005876085591e-14 -8.035621999616729405e-14
3.782000000000000000e+03 1.443161964416503906e+01 3.618262481689453125e+01 1.951603212802660581e-13 1.065156128446723138e-13 9.050278023748151157e-14 1.949713482297336237e-14
3.783000000000000000e+03 2.165701866149902344e+01 2.466022109985351562e+01 3.382287685197620311e-15 -5.933127795489101519e-13 -1.769791453144764493e-13 4.645182554038028433e-14
3.784000000000000000e+03 4.079573440551757812e+01 4.188415527343750000e+00 3.154484865593859544e-14 2.495695842910997109e-14 1.695054212551456996e-14 -1.289799972555016883e-13
3.785000000000000000e+03 4.139891433715820312e+01 4.322817802429199219e+00 1.348633796869128099e-13 1.950514402770942013e-13 9.897444463394938774e-14 -2.538727149510588976e-14
3.786000000000000000e+03 4.806958007812500000e+01 2.769825363159179688e+01 4.627033687296978892e-14 2.028339383388852446e-13 7.473128425762240457e-14 6.801034209543907472e-14
3.787000000000000000e+03 2.354889678955078125e+01 1.173741245269775391e+01 1.372591225927291894e-14 -1.656835205057077820e-13 -4.558728272804034309e-14 -6.806672060840832095e-15
3.788000000000000000e+03 4.422053527832031250e+01 3.537668991088867188e+01 8.205525289187859395e-14 1.095118326533903175e-13 5.747012837408610464e-14 -6.708070649516853501e-14
3.789000000000000000e+03 5.457350158691406250e+01 3.880815982818603516e+00 5.862844931758814937e-14 -2.036282655080295934e-13 -4.349994282425335979e-14 1.011709975778235515e-13
3.790000000000000000e+03 7.183197784423828125e+01 1.843117237091064453e+00 1.104047815626493789e-13 9.306728429364294342e-14 6.104161907926133890e-14 2.244551116151183301e-13
3.791000000000000000e+03 2.694671630859375000e+00 3.870062255859375000e+01 -1.774703325208091664e-15 -6.870248185457394907e-13 -2.066398538825425790e-13 -1.309168160164297934e-13
3.792000000000000000e+03 2.328577613830566406e+01 1.362491989135742188e+01 9.402319824406910054e-14 8.604660766461241783e-14 5.402094245023081331e-14 -1.990321563160105112e-13
3.793000000000000000e+03 2.344985771179199219e+01 1.410012531280517578e+01 3.668422174103042055e-13 6.571619740351405947e-14 1.297675210560136905e-13 -1.467559797643791519e-13
3.794000000000000000e+03 2.129348945617675781e+01 2.651679611206054688e+01 -4.220696058279682639e-14 -4.298472385325102785e-13 -1.416162651556029939e-13 1.342703075460360829e-13
3.795000000000000000e+03 4.799007415771484375e+01 2.972884178161621094e+01 -1.173651392814400313e-15 -5.029934691889027636e-16 -5.029934691889027636e-16 -4.667357876597146016e-14
3.796000000000000000e+03 2.103737068176269531e+01 3.502809143066406250e+01 1.187503058126121447e-13 -2.007372268625698397e-13 -2.459608004193227643e-14 -3.331596066732944728e-14
3.797000000000000000e+03 2.936832427978515625e+01 1.374341011047363281e+01 2.402387913168907430e-13 -1.029197818007247800e-13 4.119570488772886230e-14 -1.792151496649019293e-13
3.798000000000000000e+03 6.018312072753906250e+01 1.974061965942382812e+01 9.501938352893951611e-14 1.322244858091917163e-13 6.817316215669208535e-14 2.248903984585805260e-14
3.799000000000000000e+03 4.133632659912109375e+01 3.793853044509887695e+00 -1.788737208482590879e-13 -2.825394269673903169e-13 -1.384239402789366746e-13 -1.992926731573998328e-14
3.800000000000000000e+03 4.867103576660156250e+01 2.790596389770507812e+01 7.652352465884956767e-14 1.242976939907700085e-13 6.024636356200679943e-14 -4.110140640377693555e-14
3.801000000000000000e+03 6.342921447753906250e+01 2.241178703308105469e+01 -9.365759171897983237e-14 -1.659540831578515396e-13 -7.788350043017033819e-14 -6.505835095909490162e-14
3.802000000000000000e+03 6.597496795654296875e+01 2.484759521484375000e+01 2.633682253403227258e-14 1.128720953643769578e-14 1.128720953643769578e-14 1.038102099399328127e-13
3.803000000000000000e+03 6.512411499023437500e+01 2.682909011840820312e+01 -4.731466412243034991e-14 -2.032815105482144169e-13 -7.517884969068799883e-14 2.769387265355322675e-14
3.804000000000000000e+03 1.475839328765869141e+01 2.063754463195800781e+01 2.052562763851795147e-13 -1.407877720654981957e-13 1.934055400640982691e-14 -3.031392140345062769e-13
3.805000000000000000e+03 5.306393051147460938e+01 2.329133415222167969e+01 -1.893286010823738708e-14 2.092029213708254676e-13 5.708102176690821317e-14 1.750519793410152541e-14
3.806000000000000000e+03 3.025890731811523438e+01 3.082962036132812500e+01 5.289173233506000438e-14 -1.164532659620734142e-14 1.237392231457886196e-14 -8.248375669549917744e-14
3.807000000000000000e+03 4.294408798217773438e+01 9.935949325561523438e+00 7.035533586925366012e-14 -1.559866229510365604e-14 1.642700291927794848e-14 1.061831151434253218e-13
3.808000000000000000e+03 1.112322425842285156e+01 2.099919319152832031e+01 8.082731939263940180e-14 1.718931258182926358e-13 7.581613017514782227e-14 7.714641913573322407e-14
3.809000000000000000e+03 5.892248916625976562e+01 1.851743507385253906e+01 1.940859955119455388e-14 1.226953380475265254e-13 4.263118178783609213e-14 -7.780858883631516787e-14
3.810000000000000000e+03 4.397576904296875000e+01 7.299298286437988281e+00 -1.276001195980522307e-13 1.740689840531994825e-13 1.394065882832440720e-14 2.419795676903086293e-15
3.811000000000000000e+03 2.034416389465332031e+01 7.439723491668701172e+00 -4.474852021048303374e-14 -2.479326694036082523e-13 -8.780436366049096386e-14 -5.746580511792331869e-14
3.812000000000000000e+03 7.606924057006835938e+00 1.725193023681640625e+01 1.503552328214335931e-13 -7.281488915511849513e-14 2.326209971176274038e-14 5.391696746188945344e-14
3.813000000000000000e+03 6.839209747314453125e+01 5.268649101257324219e+00 -7.481843378349950502e-14 5.943685078618407558e-14 -4.614474983897923557e-15 9.354499054710363470e-14
3.814000000000000000e+03 2.638169097900390625e+01 8.322002410888671875e+00 -1.264868201497626465e-14 4.033008464948001359e-14 8.304421129164303583e-15 -2.848337613946955171e-13
3.815000000000000000e+03 2.862244224548339844e+01 2.813888072967529297e+00 2.275205882257356343e-14 -8.175101220975200533e-14 -1.769968686318647982e-14 -3.946238071018091931e-14
3.816000000000000000e+03 2.838337135314941406e+01 2.315268754959106445e+00 1.350502825889221548e-13 -1.708760493128111402e-13 -1.074773340529848464e-14 -7.681227480243676964e-14
3.817000000000000000e+03 5.475287628173828125e+01 4.438936233520507812e+00 1.574527455031754508e-13 -1.183834795600788303e-13 1.172078113818170175e-14 7.745989586511667357e-14
3.818000000000000000e+03 4.972131729125976562e+01 2.593615722656250000e+01 1.012441066855669647e-13 1.348922330172280803e-13 7.084090258846487131e-14 1.603756596925062783e-13
3.819000000000000000e+03 6.434270477294921875e+01 2.275623321533203125e+01 -6.918795506134778339e-14 -7.540292717468644046e-14 -4.337726534843662496e-14 -6.117393917814961668e-14
3.820000000000000000e+03 4.670885086059570312e+01 2.506288051605224609e+00 1.215324363498457294e-13 -8.516751621437043673e-14 1.090947858174142956e-14 -4.380132392315001788e-14
3.821000000000000000e+03 4.004446792602539062e+01 1.065847587585449219e+01 2.462328030274768542e-13 -3.172450773218302156e-14 6.435248791096179199e-14 -5.297653219154142140e-15
3.822000000000000000e+03 9.795533180236816406e+00 7.238690376281738281e+00 1.359407513857116556e-13 1.097301367608202738e-13 7.370126508870686322e-14 -2.563898935823913372e-14
3.823000000000000000e+03 4.204939270019531250e+01 9.619844436645507812e+00 -7.115892619070918190e-14 1.525426716907953006e-14 -1.677139804530207445e-14 -4.609561430474196086e-14
3.824000000000000000e+03 6.299444580078125000e+01 5.472741723060607910e-01 1.279547079185636149e-13 -3.666416671134486993e-14 2.738716371741833910e-14 -1.487130324483512678e-13
3.825000000000000000e+03 6.309663391113281250e+01 1.081605672836303711e+00 3.447661942176591388e-14 -7.672620270246857666e-14 -1.267487566183715664e-14 -2.083521479260760922e-13
3.826000000000000000e+03 6.671167755126953125e+01 2.718393135070800781e+01 -1.409011461549387629e-15 -2.293586056755642089e-13 -6.923028637991976431e-14 1.356209524024099000e-13
3.827000000000000000e+03 6.670716857910156250e+01 2.523055839538574219e+01 -6.764708693381138449e-14 -2.119954060388062889e-13 -8.389274518127987079e-14 -2.847373080589257754e-14
3.828000000000000000e+03 5.892819595336914062e+01 1.986270141601562500e+01 -4.679371175481464307e-14 1.171983923754435497e-13 2.112140520262820870e-14 5.259127958427353700e-14
3.829000000000000000e+03 5.986845397949218750e+01 5.177041053771972656e+00 1.427077721402256194e-14 3.378104274174426047e-13 1.056243580013077610e-13 1.443231147926164054e-14
3.830000000000000000e+03 7.105386352539062500e+01 2.065587997436523438e+01 -4.773553785326206667e-14 2.529286120280492545e-14 -6.732802741027258189e-15 -2.886381997128928401e-14
3.831000000000000000e+03 7.145272064208984375e+01 1.559367895126342773e+00 1.291656634894080419e-14 2.841114523548585180e-14 1.239831347532799680e-14 6.344673863980382356e-14
3.832000000000000000e+03 5.999065780639648438e+01 6.052014827728271484e+00 6.259554421967966284e-15 2.682666211094590809e-15 2.682666211094590809e-15 -1.384164863890008368e-13
3.833000000000000000e+03 4.348977279663085938e+01 1.904003906250000000e+01 2.526490403334785001e-14 2.853334972810483983e-13 9.317952632354950526e-14 1.364021065151585499e-13
3.834000000000000000e+03 5.958720397949218750e+01 8.198241233825683594e+00 -4.248685076175574837e-15 1.583074491808000861e-13 4.621763109485983734e-14 -4.570728357974375433e-14
3.835000000000000000e+03 5.940906906127929688e+01 8.698277473449707031e+00 6.333252471719605370e-14 2.101462992336322610e-13 8.204364515236942101e-14 -7.184001521920099775e-14
3.836000000000000000e+03 7.270444488525390625e+01 2.334960460662841797e+00 5.417351680095383593e-14 -6.828467912639579751e-14 -4.233347850599641221e-15 8.412412070115185547e-14
3.837000000000000000e+03 2.401496124267578125e+01 1.222374629974365234e+01 1.324848027508054860e-13 1.711565730724146084e-13 9.109241003646059709e-14 4.214972148435316979e-14
3.838000000000000000e+03 6.368589782714843750e+01 6.301878690719604492e-01 3.914441470617702201e-14 -2.897477112298423030e-14 3.050893244364426965e-15 -7.351169911511135080e-14
3.839000000000000000e+03 6.361531066894531250e+01 1.532317399978637695e+00 3.608916008916718265e-14 1.546678434741384500e-14 1.546678434741384500e-14 1.119671711033096151e-13
3.840000000000000000e+03 4.186426162719726562e+01 1.959603309631347656e+01 1.251996824356421678e-13 1.680343825237809452e-13 8.797021948782693390e-14 1.399684082964989043e-14
3.841000000000000000e+03 9.366579055786132812e+00 1.973671531677246094e+01 1.108301953900783787e-13 -4.400324302524828701e-14 2.004808570944902751e-14 -1.447256248491516489e-14
3.842000000000000000e+03 1.061807537078857422e+01 4.216982841491699219e+00 -3.723503981273995622e-14 2.979307610079945379e-14 -2.232589113582150731e-15 7.191609910665516803e-14
3.843000000000000000e+03 4.157501983642578125e+01 6.947813510894775391e+00 2.313863957750274258e-14 5.566751012518918185e-14 2.364184491080757733e-14 -1.055869462500934330e-13
3.844000000000000000e+03 6.032830047607421875e+01 5.680201530456542969e+00 1.770874164539262829e-13 2.703361352048710975e-13 1.342270614318810673e-13 -3.955613370491481429e-14
3.845000000000000000e+03 6.082463073730468750e+01 5.532825469970703125e+00 -2.836532278591846756e-13 1.071890718003752629e-13 -5.293924749526918161e-14 6.974076942030740800e-14
3.846000000000000000e+03 4.537946701049804688e+01 4.976923465728759766e+00 -4.636620745007181965e-14 2.873915027398060706e-14 -5.288116898717479600e-15 9.129657208180319561e-14
3.847000000000000000e+03 7.238916015625000000e+01 6.524216651916503906e+00 -8.515901200358000356e-14 2.608844401359028398e-13 5.271762979494956647e-14 1.042816617021109782e-13
3.848000000000000000e+03 7.191230010986328125e+01 2.117978668212890625e+01 -1.517135280793870111e-14 -3.267586396772659274e-13 -1.025790035053854299e-13 5.801796895557945200e-14
3.849000000000000000e+03 6.690770721435546875e+01 3.072089385986328125e+01 1.563170505037604630e-15 4.642087834461940121e-14 1.439521482430369120e-14 8.161098749917550244e-14
3.850000000000000000e+03 7.254283142089843750e+01 7.329378604888916016e+00 1.876201356277619470e-14 7.094841478639396515e-14 2.691313019881694246e-14 -3.142060035752117751e-15
3.851000000000000000e+03 7.292168426513671875e+01 6.878290653228759766e+00 -2.360459917805091123e-14 -2.274332523526101379e-13 -7.531135952495646158e-14 1.388058098366132254e-13
3.852000000000000000e+03 7.625569152832031250e+01 1.534806787967681885e-01 1.013170243638642984e-14 1.006102685430047827e-14 6.057818702502777708e-15 -2.499989622327218608e-14
3.853000000000000000e+03 5.351485729217529297e+00 2.196030807495117188e+01 1.603366419668239562e-13 -2.401032118352214306e-13 -2.392996825001381112e-14 9.748237238043841457e-14
3.854000000000000000e+03 6.747125625610351562e+00 2.041448974609375000e+01 7.725313851082368788e-14 -1.041443610494928451e-13 -8.067366253380978819e-15 1.169822702248857205e-13
3.855000000000000000e+03 2.135805702209472656e+01 6.101204872131347656e+00 -3.982211899101160968e-14 2.868432691350251973e-14 -3.341337030329663907e-15 -4.620486122614703151e-14
3.856000000000000000e+03 5.899206638336181641e+00 1.857292175292968750e+01 1.257663678061460288e-13 -3.760202869559914340e-14 2.644930003909817112e-14 3.592735985558266620e-14
3.857000000000000000e+03 5.485797119140625000e+01 1.901341819763183594e+01 7.878494677395625478e-14 3.376497960893252992e-14 3.376497960893252992e-14 -1.696063265960862099e-13
3.858000000000000000e+03 6.322344207763671875e+01 1.498808026313781738e+00 7.001280929791117713e-14 -6.149640800930111784e-14 2.554919454846775809e-15 -2.448123626562492827e-13
3.859000000000000000e+03 6.339883041381835938e+01 2.261003971099853516e+00 -1.468469036690692175e-13 -6.293438535066864237e-14 -6.293438535066864237e-14 9.870133410670028917e-14
3.860000000000000000e+03 7.276671600341796875e+01 3.254737091064453125e+01 1.381951617620809716e-14 1.503240755615017910e-13 4.924308031652169237e-14 -3.845603441807524114e-14
3.861000000000000000e+03 6.786671447753906250e+01 3.124177742004394531e+01 2.993218601579292204e-14 1.043299764614223635e-13 4.027864942079094346e-14 6.623287394881202661e-14
3.862000000000000000e+03 2.179894065856933594e+01 4.616407871246337891e+00 2.013102336399590596e-15 -2.201271595016728033e-14 -5.999884190009425328e-15 -1.163595180495372028e-13
3.863000000000000000e+03 5.475429153442382812e+01 1.848125457763671875e+01 1.589057661496862117e-13 2.053553182536360655e-13 1.092783293867548300e-13 3.029510575237349956e-14
3.864000000000000000e+03 6.302560806274414062e+01 2.263628959655761719e+00 1.629123404104163009e-13 6.981957736571994810e-14 6.981957736571994810e-14 -5.268890182551048962e-14
3.865000000000000000e+03 6.762107849121093750e+01 2.776894950866699219e+01 -7.017870578282861538e-14 -7.582754140301323220e-14 -4.380187280049983867e-14 1.232677832420717157e-13
3.866000000000000000e+03 7.544005584716796875e+01 1.144745707511901855e+00 8.764947860388783152e-15 -1.792473911270062170e-13 -5.114473365761158796e-14 1.939834706440098783e-14
3.867000000000000000e+03 7.331418609619140625e+01 6.384802341461181641e+00 -8.163719639262944500e-15 1.737861834690337948e-13 4.968674262176633882e-14 1.364078057763441505e-15
3.868000000000000000e+03 2.356680107116699219e+01 5.006647586822509766e+00 2.306377880562440752e-14 -1.159306347751562494e-13 -2.786005712967273146e-14 -5.359137138509668941e-14
3.869000000000000000e+03 7.382598114013671875e+01 1.741289520263671875e+01 6.515486528123684562e-14 1.194254114003645562e-13 5.537408097160134712e-14 9.119809941948719967e-14
3.870000000000000000e+03 6.317968368530273438e+01 1.983353376388549805e+00 2.649648892221606600e-13 4.223752966305005518e-13 2.062020530452929323e-13 -1.483508547126324850e-13
3.871000000000000000e+03 6.344054031372070312e+01 1.785254955291748047e+00 -1.907136015950883223e-13 2.042090319542486099e-13 4.048629023044791539e-15 4.331741738851542511e-14
3.872000000000000000e+03 5.934231758117675781e+00 2.056022262573242188e+01 8.942844430476562523e-14 -7.605089382680882415e-14 4.013264126947503618e-15 6.370563934232978398e-14
3.873000000000000000e+03 3.484428405761718750e+01 1.849672126770019531e+01 5.037448594109178446e-14 1.130909602076179965e-13 4.903963316698657648e-14 7.458384631469153203e-14
3.874000000000000000e+03 4.212736892700195312e+01 1.881592178344726562e+01 8.139317128272316459e-14 1.492601615221689215e-13 6.919599848621491023e-14 7.483610627891101874e-14
3.875000000000000000e+03 5.686403274536132812e+01 1.517575359344482422e+01 8.137261887529098625e-14 1.263758791624630673e-13 6.232454873369985826e-14 -7.881957348084001058e-14
3.876000000000000000e+03 6.714711761474609375e+01 2.957109069824218750e+01 6.796075678670680797e-16 -1.827125283753242013e-13 -5.460987768219315031e-14 8.564426023840304714e-14
3.877000000000000000e+03 7.632286071777343750e+01 8.267041206359863281e+00 2.049567248774489259e-13 -9.516520194487523843e-14 3.293745552451939063e-14 -6.960129358708072589e-14
3.878000000000000000e+03 2.448585700988769531e+01 5.116672992706298828e+00 -8.170042740214197852e-14 -9.220315483338126228e-14 -5.217107670353604565e-14 -1.348286716648661177e-13
3.879000000000000000e+03 4.767302036285400391e+00 9.569414138793945312e+00 -4.657430650455325616e-14 1.401679065784339207e-13 2.807808002216419935e-14 9.475515668324122065e-14
3.880000000000000000e+03 5.543284893035888672e+00 9.447098731994628906e+00 -3.850400019981235766e-16 -3.661726141485771580e-13 -1.099672924335243218e-13 8.407235004741567264e-14
3.881000000000000000e+03 5.555147552490234375e+01 1.778140068054199219e+01 -3.153994941737167657e-14 3.353338657099969033e-13 9.113817692066664145e-14 -1.779810294370159918e-13
3.882000000000000000e+03 2.257829666137695312e+01 5.066555500030517578e+00 1.632561815768929225e-14 6.996693738161967324e-15 6.996693738161967324e-15 -1.028342924594242980e-13
3.883000000000000000e+03 7.640603542327880859e+00 7.142258644104003906e+00 9.535262661918009197e-14 4.086541286027652042e-14 4.086541286027652042e-14 8.812384415940455185e-14
3.884000000000000000e+03 7.277924346923828125e+01 2.069210815429687500e+01 -1.033506640728612536e-13 4.434932035870566003e-14 -1.770040345305985696e-14 -6.455341767857766810e-14
3.885000000000000000e+03 7.326326847076416016e+00 6.414505481719970703e+00 2.070054468551046911e-13 -2.315400204466050438e-13 -7.360371569230337446e-15 4.187935534385317515e-14
3.886000000000000000e+03 6.372640991210937500e+01 2.075918674468994141e+00 8.170040029708766638e-14 2.180182575271805145e-13 8.991559666965409647e-14 1.692222073189017517e-13
3.887000000000000000e+03 6.845556735992431641e+00 6.528795242309570312e+00 1.628660314251240138e-13 -6.745311638889014971e-14 2.862387247799108581e-14 1.722125859884154897e-13
3.888000000000000000e+03 5.306864261627197266e+00 8.061111450195312500e+00 1.369966829865496005e-13 -1.242909312797191301e-13 3.811724919126078040e-15 7.311663617224836709e-14
3.889000000000000000e+03 6.394887542724609375e+01 2.484557390213012695e+00 -4.235944006582975652e-14 -1.554068966612767722e-13 -5.932990101813195860e-14 6.091727464260440761e-14
3.890000000000000000e+03 6.393697357177734375e+01 2.968626499176025391e+00 1.387750591524961052e-13 8.235050147223713091e-14 6.633766886504632865e-14 2.862165663980106856e-14
3.891000000000000000e+03 7.297604370117187500e+01 2.155919075012207031e+01 4.322681874447710515e-14 -1.644780096626483057e-13 -3.637535896951725467e-14 -6.560688949573678652e-14
3.892000000000000000e+03 2.356887626647949219e+01 6.367469787597656250e+00 -9.026364589581267750e-14 -2.438724745691851770e-14 -3.439526698937982185e-14 1.612625370695994209e-14
3.893000000000000000e+03 7.644728088378906250e+01 8.835191726684570312e+00 -3.340609174918088287e-14 1.229359496146553710e-13 2.685895735964234643e-14 -1.667221455293674270e-13
3.894000000000000000e+03 4.768320560455322266e+00 1.921782112121582031e+01 5.727082490972895679e-14 -3.414629419062203963e-13 -8.525764051995829429e-14 -5.065544338156424686e-14
3.895000000000000000e+03 4.053857040405273438e+01 1.571593093872070312e+01 1.197050949032843481e-13 2.343059828189414384e-13 1.062033219614150203e-13 5.595849643575713517e-14
3.896000000000000000e+03 6.935797119140625000e+01 2.797625732421875000e+01 5.966093504644609524e-14 7.131992343705970128e-14 3.929425483454630774e-14 7.138430471731460614e-14
3.897000000000000000e+03 5.648401260375976562e+00 2.091774749755859375e+01 1.757380455351051363e-13 -1.991893927360752214e-13 -7.035401449785594341e-15 1.888641153191539246e-13
3.898000000000000000e+03 7.525956726074218750e+01 5.024463176727294922e+00 -5.873972742400073582e-15 4.323353063355114823e-14 1.120786796026838547e-14 -1.454683677118082108e-13
3.899000000000000000e+03 7.574061584472656250e+01 6.901522159576416016e+00 1.381307237306186007e-15 1.378448407935578546e-13 4.176784176228125200e-14 3.324731711728395878e-14
3.900000000000000000e+03 4.693736553192138672e+00 2.165255737304687500e+01 2.187486303206753746e-14 -8.212695931306135400e-14 -1.807562888429814496e-14 -1.670416904027850064e-14
3.901000000000000000e+03 5.652187824249267578e+00 6.757487297058105469e+00 -9.456584820766167354e-14 -8.627916903061055853e-14 -5.425350720436074303e-14 1.846389659004507577e-13
3.902000000000000000e+03 7.226634216308593750e+01 2.951945114135742188e+01 1.501254260065799234e-14 -1.079434257906727868e-13 -2.787926444878466997e-14 -1.083377077691584020e-14
3.903000000000000000e+03 7.289511871337890625e+01 2.902267074584960938e+01 -3.089182352305520907e-14 -1.323935281744752571e-14 -1.323935281744752571e-14 -1.098030154756020338e-14
3.904000000000000000e+03 7.461515808105468750e+01 -5.104743480682373047e+00 -6.075982138210520023e-14 -3.991961112798786404e-13 -1.379867764104633632e-13 2.956739603046480702e-14
3.905000000000000000e+03 7.562330627441406250e+01 -4.931936264038085938e+00 -4.732823697837715282e-14 -6.603447850377433537e-14 -3.400881667752451987e-14 -2.328397349059263544e-14
3.906000000000000000e+03 7.625282287597656250e+01 -5.678431510925292969e+00 1.039767247589017465e-14 -1.841932944330552241e-14 -2.406497047872956964e-15 -3.915703210895932207e-14
3.907000000000000000e+03 7.505413055419921875e+01 -4.991712570190429688e+00 -8.764225510691364684e-14 1.225673479810646116e-13 1.047752904809141558e-14 7.232920723942645735e-14
3.908000000000000000e+03 7.501391601562500000e+01 -5.806704521179199219e+00 2.535630397055427254e-14 1.086698717394241759e-14 1.086698717394241759e-14 -2.819734226113760484e-14
3.909000000000000000e+03 7.628383636474609375e+01 -4.931002616882324219e+00 -5.259754423995142980e-14 1.147110428563816176e-13 1.863404890730269853e-14 5.461732479586541011e-14
3.910000000000000000e+03 7.552075958251953125e+01 -5.485259056091308594e+00 -5.529953190784760164e-14 -2.369979890505871656e-14 -2.369979890505871656e-14 8.290585015377494038e-14
3.911000000000000000e+03 6.456793975830078125e+01 -2.549663305282592773e+00 3.060214299847874297e-13 -7.472723205200273999e-14 6.938825463645090230e-14 1.113324435761528161e-14
3.912000000000000000e+03 6.364788055419921875e+01 -1.922465801239013672e+00 1.421439192478973768e-13 -1.678359193161074736e-13 -7.707600020463029056e-15 2.374030275004699632e-15
3.913000000000000000e+03 6.769713592529296875e+01 -1.984575986862182617e+00 8.235748779998608438e-14 8.104701263410285517e-14 4.902135080785303967e-14 1.321083135464098945e-13
3.914000000000000000e+03 6.770880126953125000e+01 -1.393610239028930664e+00 1.113199972740258614e-13 1.392104747449662838e-13 7.515913753993949675e-14 6.272971508555769127e-14
3.915000000000000000e+03 6.290596771240234375e+01 -2.771442890167236328e+00 2.180735924955587435e-13 9.346011106952517578e-14 9.346011106952517578e-14 -1.403695817350433805e-13
3.916000000000000000e+03 6.618161010742187500e+01 -1.577479481697082520e+00 1.267479773480600924e-13 5.432056172059718246e-14 5.432056172059718246e-14 5.531209171238948841e-14
3.917000000000000000e+03 6.534030914306640625e+01 -1.694605827331542969e+00 1.039527486442967663e-13 -9.270167099229009722e-14 3.375322956788821827e-15 9.619373711206719024e-14
3.918000000000000000e+03 6.699713134765625000e+01 -1.458653569221496582e+00 1.644496306707834976e-13 -2.102348480579382256e-14 4.302784392890349197e-14 3.947774927597590133e-14
3.919000000000000000e+03 6.822712707519531250e+01 -1.574178695678710938e+00 1.181677368802813710e-13 4.492444556549596291e-14 4.892765202322776896e-14 6.677372142629284246e-14
3.920000000000000000e+03 6.280186843872070312e+01 -2.037958621978759766e+00 7.607640645918012368e-14 -1.046486709137608995e-13 -8.571678658747874935e-15 -1.399676408846486919e-13
3.921000000000000000e+03 6.449397277832031250e+01 -1.808873653411865234e+00 1.355563746105112322e-13 1.234464123262522806e-14 4.437030644700683257e-14 1.946793590321561213e-14
3.922000000000000000e+03 6.702591705322265625e+01 -2.210401535034179688e+00 3.458615094624126196e-14 1.482263611981768370e-14 1.482263611981768370e-14 -4.286862545174220662e-15
3.923000000000000000e+03 6.539921569824218750e+01 -2.439048290252685547e+00 2.361388808016368079e-13 1.927042645464074888e-13 1.286529476701714358e-13 9.079268234587697939e-14
3.924000000000000000e+03 6.622545623779296875e+01 -2.325574636459350586e+00 1.049429233833734654e-13 -1.837792071301969088e-13 -2.365088444642067522e-14 6.465913416665858282e-14
3.925000000000000000e+03 6.373691558837890625e+01 -2.659602880477905273e+00 2.429866746180009418e-13 1.263525061353165321e-14 7.668658188932780950e-14 7.705116519861679447e-14
3.926000000000000000e+03 6.033430862426757812e+01 -2.415550947189331055e+00 1.095768373498944015e-13 -3.793458653618539053e-15 3.173501432886076390e-14 -4.515765406466580589e-14
3.927000000000000000e+03 6.083669281005859375e+01 -3.080430507659912109e+00 -7.754516836598265850e-14 4.683051703043873693e-14 -9.214394553630229218e-15 4.577991157277312706e-14
3.928000000000000000e+03 6.207282257080078125e+01 -2.882600069046020508e+00 -4.404110878612234325e-14 -1.332521332858549457e-13 -5.318797363803272338e-14 -6.258555685419858738e-14
3.929000000000000000e+03 6.203623962402343750e+01 -2.138121604919433594e+00 1.350007887597481915e-13 -1.251463125837015689e-13 2.956341074044797554e-15 -1.902405912922872089e-13
3.930000000000000000e+03 6.138166046142578125e+01 -2.175011396408081055e+00 2.171010631468392460e-13 -1.357114290737038154e-13 2.441689022194062919e-14 -5.472518597136877272e-14
3.931000000000000000e+03 6.082170486450195312e+01 -2.265612602233886719e+00 -4.545111709957153079e-14 -3.091678727807668781e-14 -2.291037097448128668e-14 -3.393426083750719635e-14
3.932000000000000000e+03 6.132034683227539062e+01 -2.726895093917846680e+00 -1.369449394378677298e-13 -5.869068929855239536e-14 -5.869068929855239536e-14 2.086997533069703120e-14
3.933000000000000000e+03 5.436752319335937500e+01 1.211553573608398438e+00 3.907465984890473587e-14 3.370029136393754010e-13 1.128232774674949035e-13 1.676118147270547198e-13
3.934000000000000000e+03 5.676253509521484375e+01 1.141292095184326172e+00 -2.115957420129738198e-14 -1.920721882323755958e-13 -6.396952737484917773e-14 -8.350939839814330856e-14
3.935000000000000000e+03 5.804644393920898438e+01 5.211447477340698242e-01 2.108289569671423919e-15 8.382714417358091974e-14 2.578063190174489233e-14 -2.944291132515181042e-13
3.936000000000000000e+03 5.761878204345703125e+01 3.807170093059539795e-01 5.221088725205699776e-14 -4.625032995475564235e-14 1.788167443300290801e-15 -6.613263945796574172e-14
3.937000000000000000e+03 5.827437591552734375e+01 -1.142329126596450806e-01 3.314186490348258740e-13 -2.239710288976307084e-13 3.223429281742212771e-14 -3.226803589953530782e-13
3.938000000000000000e+03 5.359053039550781250e+01 5.318914055824279785e-01 6.756510769704432429e-14 7.470742503356414543e-14 4.268175981918254092e-14 4.120426669675970877e-14
3.939000000000000000e+03 5.585708236694335938e+01 2.361906617879867554e-01 -1.665307025307607991e-13 -2.543741042457248192e-13 -1.262714433881984011e-13 -5.173515289129751449e-14
3.940000000000000000e+03 5.518864822387695312e+01 1.134868502616882324e+00 -6.421870075100886976e-15 -2.772579258195073670e-13 -8.510394130948131797e-14 3.304454081784306829e-14
3.941000000000000000e+03 5.716899871826171875e+01 3.485960662364959717e-01 8.074315819900021451e-14 -2.399014689159761904e-13 -4.774749457034550837e-14 -1.635981660471491628e-13
3.942000000000000000e+03 5.357163238525390625e+01 1.277818441390991211e+00 5.284523700251932132e-14 -6.885393947705931161e-14 -4.802610318845523460e-15 8.998511689879999317e-16
3.943000000000000000e+03 5.619508361816406250e+01 6.495326757431030273e-01 -6.639721866937009498e-14 1.545478426224350388e-13 2.644518684710630424e-14 2.000624397592055959e-14
3.944000000000000000e+03 5.600151824951171875e+01 1.130702972412109375e+00 1.458690685059681191e-14 -1.310013160232478824e-13 -3.492432376823485785e-14 4.178717444226938416e-14
3.945000000000000000e+03 5.718099975585937500e+01 5.920210108160972595e-02 9.400056552371846563e-14 -1.427178416679025785e-13 -1.461518081037616046e-14 2.401135625778368782e-14
3.946000000000000000e+03 5.776745986938476562e+01 3.935844823718070984e-02 2.705694826174442902e-13 4.819659211660609621e-13 2.257606265560624381e-13 -1.167709592214682957e-13
3.947000000000000000e+03 5.434143829345703125e+01 4.678209424018859863e-01 -3.596599133424104033e-14 -1.526668467208627811e-13 -5.658985107771796752e-14 1.644713181023649967e-14
3.948000000000000000e+03 5.511758422851562500e+01 3.933301866054534912e-01 -6.686701024697164208e-14 1.543465062790044806e-13 2.624384711554395705e-14 8.525593290153662962e-14
3.949000000000000000e+03 5.671972274780273438e+01 7.524058818817138672e-01 2.365454566163188721e-13 9.874730427881367456e-15 7.392606085664457649e-14 -1.308803326133256562e-13
3.950000000000000000e+03 5.748215103149414062e+01 9.700721502304077148e-01 1.553532964163745200e-13 1.580818809188144769e-13 9.403055726631484590e-14 -7.395295584678579504e-14
3.951000000000000000e+03 5.725094223022460938e+01 6.461482644081115723e-01 -4.453020593865771037e-14 7.241752228263897972e-14 8.366194394974612453e-15 -1.172828669712732211e-14
3.952000000000000000e+03 5.652948760986328125e+01 6.956791877746582031e-02 1.360357410485485419e-13 5.158105388126943414e-13 1.955538731163511401e-13 -5.944120622959885719e-15
3.953000000000000000e+03 5.664768981933593750e+01 4.178313910961151123e-01 3.186031760681398706e-14 1.966582143441905628e-13 6.855556026292772276e-14 7.970414015205304348e-14
3.954000000000000000e+03 5.045067596435546875e+01 7.608052492141723633e-01 -1.529355797818404694e-13 -6.554381603435244230e-14 -6.554381603435244230e-14 7.843381434786966810e-14
3.955000000000000000e+03 5.059151077270507812e+01 3.430651128292083740e-02 9.091528528279435584e-14 8.471464496692324153e-14 5.268897636440984800e-14 -9.692079631267239148e-14
3.956000000000000000e+03 5.284211730957031250e+01 4.887914061546325684e-01 1.050856924806990722e-13 -7.142234221411871819e-16 3.131144025699320044e-14 3.211687711027373660e-14
3.957000000000000000e+03 5.209175872802734375e+01 3.407791554927825928e-01 1.217404947467456977e-13 9.792544515075177203e-14 6.589978671263374554e-14 4.959282022044299298e-14
3.958000000000000000e+03 5.200776672363281250e+01 1.078764796257019043e+00 1.096393145000838787e-13 -9.026456746765929018e-14 5.812423940320787102e-15 6.787189625427625383e-14
3.959000000000000000e+03 5.278653335571289062e+01 1.232732176780700684e+00 5.384359746799828594e-14 1.145777266467473687e-13 5.052639621798415970e-14 4.073068379968625141e-14
3.960000000000000000e+03 5.122899246215820312e+01 9.213988184928894043e-01 3.022274813226089041e-13 4.269072346064356482e-13 2.187404174892187969e-13 5.552882711480112976e-14
3.961000000000000000e+03 5.134140396118164062e+01 1.891566067934036255e-01 9.472895287198496161e-14 -1.424056727573896897e-13 -1.430301698206095512e-14 -2.280712274040867099e-14
3.962000000000000000e+03 4.822485733032226562e+01 -5.801191926002502441e-01 8.535546266097079893e-14 8.233185997113395826e-14 5.030619814488414276e-14 -4.579442971748906577e-14
3.963000000000000000e+03 4.765818786621093750e+01 -6.387049555778503418e-01 1.082780783437375938e-13 4.640488975070702904e-14 4.640488975070702904e-14 5.941034204306680500e-14
3.964000000000000000e+03 4.770442199707031250e+01 1.305098831653594971e-01 1.028494983948934072e-13 2.120288130182459985e-14 3.721571390901540211e-14 1.045322089657111167e-14
3.965000000000000000e+03 4.872921752929687500e+01 -4.645013809204101562e-01 5.993342215744601464e-14 -2.945708997906248960e-13 -7.039124328995366442e-14 4.030297620703608696e-14
3.966000000000000000e+03 4.926444625854492188e+01 -2.671499550342559814e-01 1.298536880236719759e-13 1.014025289517578310e-13 6.937686373737622647e-14 -5.702750537826773922e-15
3.967000000000000000e+03 4.988841629028320312e+01 -1.116906702518463135e-01 -2.767809073567998462e-14 -2.177413116347462485e-13 -7.362581817002902818e-14 2.858022656428496622e-14
3.968000000000000000e+03 4.965673065185546875e+01 5.945770144462585449e-01 9.383638343348627009e-14 -2.841083183329536771e-14 1.962766429421114456e-14 -4.854076125423989474e-14
3.969000000000000000e+03 4.835419845581054688e+01 4.095978103578090668e-03 1.227222669189856341e-13 6.844307852269708795e-15 3.886997264313483968e-14 2.372641098619555217e-14
3.970000000000000000e+03 4.887946701049804688e+01 4.043990671634674072e-01 -1.740383688943539231e-14 3.978949975221284657e-15 -4.027466328374116472e-15 1.162920400168271362e-13
3.971000000000000000e+03 4.604219436645507812e+01 2.554396986961364746e-01 1.378829369473935640e-13 1.048436307931645273e-13 7.281797235504650079e-14 -5.572234026193084722e-14
3.972000000000000000e+03 4.480234527587890625e+01 -4.746525585651397705e-01 1.173551137994763294e-13 1.417969474476477032e-13 7.774561701888449416e-14 4.305364116434506894e-14
3.973000000000000000e+03 4.496949386596679688e+01 -5.796610936522483826e-02 -1.530977493217899887e-13 -6.561332016987234117e-14 -6.561332016987234117e-14 5.446334775858173438e-14
3.974000000000000000e+03 4.690711975097656250e+01 1.273740828037261963e-01 7.941554586252813630e-14 3.403523394108348699e-14 3.403523394108348699e-14 -6.230214640631087653e-14
3.975000000000000000e+03 4.696422958374023438e+01 -6.282959580421447754e-01 1.013423828362391976e-13 -2.519397349434477490e-14 2.284452263316173737e-14 -1.596207161672774655e-14
3.976000000000000000e+03 4.515171432495117188e+01 4.377203583717346191e-01 2.781419198964480560e-14 -1.253324836492444860e-13 -2.925548461796788347e-14 -1.573823638415221965e-14
3.977000000000000000e+03 4.543532943725585938e+01 -4.982649981975555420e-01 2.758606907629027744e-14 -1.025547715868303789e-13 -2.249061024494226207e-14 -6.363507810969171175e-14
3.978000000000000000e+03 4.615271377563476562e+01 -5.078593492507934570e-01 1.148485196918527795e-13 -6.515657967592208832e-14 1.490758166596602846e-14 -3.730284310610176846e-14
3.979000000000000000e+03 4.215386199951171875e+01 5.665354728698730469e-01 2.199945276946599360e-13 4.853241967377533439e-14 8.055808488815693891e-14 -6.500645155635073613e-14
3.980000000000000000e+03 4.248154067993164062e+01 1.234971404075622559e+00 1.893796670046979380e-13 3.541176751245718457e-14 6.743742933870700007e-14 -7.024200963717461277e-14
3.981000000000000000e+03 4.342110824584960938e+01 -6.086104363203048706e-02 1.089778359783868944e-13 9.538386138262656792e-16 3.297950224002109409e-14 8.204836312588562747e-15
3.982000000000000000e+03 4.411052322387695312e+01 -2.798376083374023438e-01 -4.267144973414856157e-14 -6.403871302598090898e-14 -3.201304781159930446e-14 2.651367284902360344e-14
3.983000000000000000e+03 4.420140457153320312e+01 2.044474780559539795e-01 2.339848150303969199e-13 1.002792074096363339e-13 1.002792074096363339e-13 -1.242690083729782943e-15
3.984000000000000000e+03 4.428497695922851562e+01 7.040962576866149902e-01 1.829443036947472900e-13 3.265375369729782429e-14 6.467941552354763979e-14 -1.079454976332617708e-15
3.985000000000000000e+03 4.340343475341796875e+01 9.601488709449768066e-01 1.184650657735583645e-13 5.019791684103894203e-15 3.704545689848549872e-14 9.105348040220478945e-14
3.986000000000000000e+03 4.283208847045898438e+01 2.259752005338668823e-01 1.902183922528055682e-13 1.272731106703034465e-13 9.524745223218542001e-14 -2.000822738826985026e-13
3.987000000000000000e+03 4.341694641113281250e+01 3.954064249992370605e-01 1.943583775908599987e-13 8.329644753893999942e-14 8.329644753893999942e-14 5.323888031816270683e-14
3.988000000000000000e+03 4.008607864379882812e+01 2.347794055938720703e+00 3.647613894958157132e-13 6.482441401159041994e-14 1.288757512166172070e-13 6.387105471253318179e-14
3.989000000000000000e+03 3.924859237670898438e+01 1.918622970581054688e+00 5.527599320105658354e-13 2.368971175909645455e-13 2.368971175909645455e-13 -2.873025303990264789e-14
3.990000000000000000e+03 4.066986846923828125e+01 1.245835542678833008e+00 2.671189278883462359e-13 2.297764741334990674e-14 8.702897614804722126e-14 -1.319531100054185946e-13
3.991000000000000000e+03 4.163364028930664062e+01 1.592744350433349609e+00 2.106326181181006341e-13 9.027112011453924945e-14 9.027112011453924945e-14 -1.208948306047341603e-13
3.992000000000000000e+03 4.137876510620117188e+01 8.941976428031921387e-01 2.285699299102439408e-13 6.456641624618623260e-15 7.050797120634888504e-14 -5.416948153599311644e-14
3.993000000000000000e+03 3.931212234497070312e+01 2.709177732467651367e+00 3.102295980869640424e-13 3.159593355180068119e-13 1.878566882130075499e-13 1.091078250426043283e-13
3.994000000000000000e+03 4.086096572875976562e+01 1.975051641464233398e+00 2.245363183578374944e-13 1.191053278139925231e-13 1.030924884305381428e-13 -1.365043467800239330e-13
3.995000000000000000e+03 3.995876693725585938e+01 1.587908506393432617e+00 2.646135264031124201e-13 -6.959799354671822313e-14 5.850466053454461690e-14 -8.421784997896322733e-14
3.996000000000000000e+03 3.318261718750000000e+01 7.811875939369201660e-01 2.828472861742675759e-13 1.212202674393328405e-13 1.212202674393328405e-13 -8.049672582145783739e-14
3.997000000000000000e+03 3.406509399414062500e+01 5.168127417564392090e-01 4.142001140943624149e-13 -5.124040433493806668e-14 1.088879149607063779e-13 2.250986533671242573e-13
3.998000000000000000e+03 3.456334686279296875e+01 1.281935572624206543e+00 5.394949894807488100e-13 -4.093011465779866631e-13 3.905815964709222210e-14 5.639805571340528179e-13
3.999000000000000000e+03 3.788114929199218750e+01 2.492715597152709961e+00 4.754298625793407229e-13 -3.452557250510635001e-13 3.905223380459323101e-14 7.027784929523883672e-14
4.000000000000000000e+03 3.661830520629882812e+01 1.925509929656982422e+00 9.204674782797850341e-13 3.944860659920584878e-13 3.944860659920584878e-13 3.117613318111972509e-13
4.001000000000000000e+03 3.353151702880859375e+01 -1.363087892532348633e-01 7.783917824535913077e-13 1.048417266630990996e-13 2.649700391824799661e-13 2.723270285491519171e-13
4.002000000000000000e+03 3.472558593750000000e+01 3.938025832176208496e-01 3.446651872327649579e-13 -1.267920366138444721e-13 6.536194111991799893e-14 4.820577530900704843e-13
4.003000000000000000e+03 3.577708053588867188e+01 7.632904648780822754e-01 4.307431961027979872e-13 4.591099093780026674e-13 2.669559451967673525e-13 2.699141095092311149e-13
4.004000000000000000e+03 3.592239379882812500e+01 1.621054768562316895e+00 6.654665967581463448e-13 -1.723095272151628499e-13 1.479471113761260392e-13 4.093075975809129519e-13
4.005000000000000000e+03 3.786200332641601562e+01 1.691667318344116211e+00 5.171114729994596981e-13 -7.135539378875892236e-15 1.529927849989662358e-13 7.390973006142151358e-14
4.006000000000000000e+03 3.854475402832031250e+01 1.946171998977661133e+00 6.867737715327004722e-13 -3.049544132637687678e-15 2.051172681141397169e-13 2.508059948960750241e-13
4.007000000000000000e+03 3.857223129272460938e+01 2.750447750091552734e+00 1.197534638727043577e-13 2.800776646195990427e-13 1.199493385476910201e-13 9.434128283268561344e-14
4.008000000000000000e+03 3.724591064453125000e+01 2.222234725952148438e+00 6.435715133555619527e-13 2.300653970718075092e-13 2.620910758387162698e-13 4.977969533977166794e-13
4.009000000000000000e+03 3.519757843017578125e+01 1.456056714057922363e+00 8.527605162809981376e-13 5.484726171497977809e-13 4.203699291872170507e-13 -1.506260936291747843e-13
4.010000000000000000e+03 3.390794372558593750e+01 1.009933352470397949e+00 3.309061466678919761e-13 7.319049066898536404e-14 1.212289817142941928e-13 1.287502683676791659e-13
4.011000000000000000e+03 3.335908126831054688e+01 3.143023252487182617e-01 5.296727141092250069e-13 8.974974084231812643e-14 1.858267364854629400e-13 1.654741881712551432e-14
4.012000000000000000e+03 3.509892272949218750e+01 8.875037431716918945e-01 2.945886807062536583e-13 1.033768204502724664e-13 1.193896598337268466e-13 1.776865330219146166e-13
4.013000000000000000e+03 3.727110671997070312e+01 1.605347871780395508e+00 3.868980602474841879e-13 -2.001941364418446945e-13 5.601117510881277461e-14 7.603792405832046630e-14
4.014000000000000000e+03 3.696109390258789062e+01 1.159478187561035156e+00 4.980554814057458479e-13 9.907497050412952810e-14 1.791391335400835394e-13 9.091999478598108975e-14
4.015000000000000000e+03 3.673530960083007812e+01 1.520705103874206543e+00 3.714955318194490541e-13 -2.379142076489731972e-14 1.043112333163655203e-13 1.936487401639139239e-13
4.016000000000000000e+03 3.419689559936523438e+01 1.028028503060340881e-01 9.325432136567113339e-13 7.940472416959401536e-14 3.035843874465288250e-13 2.714737885444601373e-13
4.017000000000000000e+03 3.636455917358398438e+01 9.085562825202941895e-01 2.731065970162233070e-13 -6.595811001324988765e-14 6.214454406801295239e-14 8.038495813000173795e-14
4.018000000000000000e+03 3.614214706420898438e+01 1.236272931098937988e+00 6.392220195002018546e-13 1.595749221780171090e-13 2.396390648851803862e-13 2.861758410539066988e-13
4.019000000000000000e+03 3.083432960510253906e+01 -2.170480340719223022e-01 2.393420477000279822e-13 -1.261795843591345667e-13 3.394873493650987784e-14 -8.039659297456522302e-14
4.020000000000000000e+03 3.085270309448242188e+01 -9.999262094497680664e-01 8.517717577810092477e-15 4.940140093875888816e-14 1.737573572437728364e-14 -1.195107245588120093e-13
4.021000000000000000e+03 3.216926574707031250e+01 -6.736713051795959473e-01 3.545635735967972435e-13 -3.104798251721101188e-14 9.705467495218361718e-14 8.532154746176273674e-14
4.022000000000000000e+03 3.193232536315917969e+01 -3.087860345840454102e-01 4.403182191688864711e-13 -6.292241169292625558e-14 1.132187402099089912e-13 -1.148758822441808825e-13
4.023000000000000000e+03 3.283817291259765625e+01 -3.977768719196319580e-01 5.915203765173571160e-13 1.620068418610107197e-13 2.260581722897739287e-13 1.315884521572302512e-13
4.024000000000000000e+03 3.245020675659179688e+01 5.051715970039367676e-01 3.640902683510471860e-13 6.453679550402074971e-14 1.285881259327839587e-13 -1.152937066564024837e-13
4.025000000000000000e+03 3.264751434326171875e+01 4.808262735605239868e-02 3.775367605346469091e-13 -2.120232226007941201e-14 1.069003352093152170e-13 -3.831721588241562837e-14
4.026000000000000000e+03 3.166022682189941406e+01 1.470156908035278320e-01 1.633079115730476372e-13 -6.726374015067482226e-14 2.881324871620641326e-14 -2.874102323323357577e-13
4.027000000000000000e+03 3.155240631103515625e+01 -8.315400481224060059e-01 1.912209811067572263e-13 -5.530099896891224609e-14 4.077599328610077845e-14 -2.335578155572906600e-15
4.028000000000000000e+03 1.934750747680664062e+01 2.503316402435302734e+00 -7.559237795180112629e-14 1.963580123151564827e-13 3.622968963138024912e-14 -1.783467579348496646e-13
4.029000000000000000e+03 2.005070304870605469e+01 1.556338667869567871e+00 7.924514316233130518e-14 1.712150522270930453e-13 7.513805658394823173e-14 -2.324015986436295950e-14
4.030000000000000000e+03 1.928076362609863281e+01 1.756027221679687500e+00 -7.861268737753904223e-14 -7.944210203949045312e-14 -4.741643343697705959e-14 -7.512050606128112262e-14
4.031000000000000000e+03 2.158648109436035156e+01 1.168682336807250977e+00 5.968938857721026170e-14 -6.592073214335344988e-14 -1.869402985139661730e-15 -3.004927646228956750e-14
4.032000000000000000e+03 2.367008972167968750e+01 1.447997570037841797e+00 -1.065152994424818297e-14 -2.744041498474632246e-14 -1.142758407162141471e-14 1.476870519325282349e-13
4.033000000000000000e+03 2.398398971557617188e+01 4.397454857826232910e-01 -1.876572627759059975e-13 -1.719264379300422529e-13 -1.078751142775426219e-13 -6.539721157184166800e-14
4.034000000000000000e+03 2.469887161254882812e+01 3.147436380386352539e-01 -1.566167578655533466e-13 -1.128724121546992309e-13 -8.084674694031762643e-14 1.316085641075298573e-13
4.035000000000000000e+03 2.544874572753906250e+01 1.382237821817398071e-01 -1.319152849021260065e-13 -1.022860724071705807e-13 -7.026040719278897617e-14 -4.717877970890002604e-14
4.036000000000000000e+03 2.621586036682128906e+01 -5.536601319909095764e-02 3.204435489048365225e-16 -9.136456511054519281e-14 -2.731323637584787828e-14 -3.401107994955958336e-14
4.037000000000000000e+03 2.698533821105957031e+01 -2.535507977008819580e-01 2.461702208452019175e-14 2.393048866705660416e-13 7.917657415118517505e-14 1.882966153147130417e-16
4.038000000000000000e+03 2.775543594360351562e+01 -4.530771672725677490e-01 3.855893875677127158e-15 1.389053667011017068e-13 4.282838122235226030e-14 -9.089885792581530594e-15
4.039000000000000000e+03 2.852570533752441406e+01 -6.533444523811340332e-01 1.896851341905321509e-14 8.129363135889362824e-15 8.129363135889362824e-15 4.284001606691574537e-14
4.040000000000000000e+03 2.929591369628906250e+01 -8.534791469573974609e-01 -5.329865712731633731e-14 6.865961656643201905e-14 4.608286984701757266e-15 8.444587124836408498e-14
4.041000000000000000e+03 2.926732444763183594e+01 -8.137164264917373657e-02 -1.719751660414318983e-14 -5.312131214508380994e-14 -2.109564862476809993e-14 1.044422930302282837e-13
4.042000000000000000e+03 3.006589889526367188e+01 -1.052599668502807617e+00 -9.710128209307333780e-14 4.136114821001951949e-15 -2.788954912283023169e-14 1.600749460555720566e-14
4.043000000000000000e+03 3.002997589111328125e+01 -2.785830497741699219e-01 1.730265507694089822e-13 -4.022313488142789661e-14 3.984102476639432566e-14 -5.285503209152137005e-14
4.044000000000000000e+03 2.011011505126953125e+01 2.305536985397338867e+00 -7.775750258520036651e-14 -3.332464444910469836e-14 -3.332464444910469836e-14 -1.197689815162980564e-13
4.045000000000000000e+03 2.087202262878417969e+01 2.111250400543212891e+00 -1.867150301016438918e-14 3.774887710359872695e-14 5.723211889217122428e-15 -7.258636644221286294e-14
4.046000000000000000e+03 2.163122558593750000e+01 1.921698689460754395e+00 6.631799737187929478e-14 2.842199742160607390e-14 2.842199742160607390e-14 -1.617558151767624353e-14
4.047000000000000000e+03 2.237293434143066406e+01 1.747608900070190430e+00 7.628352973170632323e-14 3.269294421770138626e-14 3.269294421770138626e-14 1.344760213557380513e-13
4.048000000000000000e+03 2.307785034179687500e+01 1.625204563140869141e+00 4.697200202581630624e-14 -3.458767289504088849e-13 -8.967142078788320481e-14 3.847844013359601190e-14
4.049000000000000000e+03 2.305267715454101562e+01 1.058224320411682129e+00 6.775033008568631665e-14 -6.246604389347279462e-14 1.585287382323361666e-15 1.920085625055096418e-14
4.050000000000000000e+03 2.399843406677246094e+01 1.009448885917663574e+00 -5.830031553008541145e-14 -2.079896449297055638e-13 -7.988698407217914577e-14 -1.404203257848474912e-14
4.051000000000000000e+03 2.545682334899902344e+01 9.007857441902160645e-01 9.241679178927184740e-15 -8.754118035938368569e-14 -2.348984993062047666e-14 -1.515060050073097075e-13
4.052000000000000000e+03 2.621660423278808594e+01 7.091050744056701660e-01 -1.184803259191360980e-13 -1.422791870214420995e-13 -7.822784981641531243e-14 -3.061905180898501222e-14
4.053000000000000000e+03 2.774151420593261719e+01 3.152121007442474365e-01 6.053016025691845825e-14 7.169244852726214257e-14 3.966677992474874903e-14 1.113653613940654864e-15
4.054000000000000000e+03 2.850444984436035156e+01 1.168539151549339294e-01 3.652194987950087290e-14 1.565226423407180267e-14 1.565226423407180267e-14 -4.399662769793023093e-15
4.055000000000000000e+03 2.081994628906250000e+01 1.360142946243286133e+00 1.555830388567241984e-13 -7.057439891820435629e-14 2.550259503087456275e-14 -3.616674830713567657e-14
4.056000000000000000e+03 2.697874832153320312e+01 5.128293633460998535e-01 -8.269029720935766603e-14 1.031225089722547297e-14 -2.171341347012318429e-14 1.549966955455804596e-14
4.057000000000000000e+03 2.471428298950195312e+01 1.075396537780761719e+00 -5.787263843062134816e-14 -9.342898091464768573e-14 -4.539048648120706797e-14 8.754406704766792835e-14
4.058000000000000000e+03 2.338191413879394531e+01 6.188696026802062988e-01 -1.168803823257263952e-13 -1.902038774962214185e-13 -9.212528201234249092e-14 1.350750159509819803e-13
4.059000000000000000e+03 2.233552169799804688e+01 9.926834106445312500e-01 3.732707841278860850e-14 -1.670064775491017506e-13 -3.890382007970712153e-14 5.683047619737396916e-14
4.060000000000000000e+03 1.611225318908691406e+01 2.416136503219604492e+00 -2.132711731826428259e-13 -9.140192942791447450e-14 -9.140192942791447450e-14 -1.831485402789892469e-13
4.061000000000000000e+03 1.692862129211425781e+01 2.473628282546997070e+00 -2.071037839921491264e-13 -1.345097129382480383e-13 -1.024840545001300118e-13 -9.898376199636918504e-15
4.062000000000000000e+03 1.619552993774414062e+01 1.680045008659362793e+00 -2.987605822457606308e-13 -2.195421443381903592e-13 -1.554908274619543063e-13 -4.197845142241835026e-14
4.063000000000000000e+03 1.774459457397460938e+01 2.528052330017089844e+00 -1.831343643355839990e-13 1.960195379494336643e-13 3.865551321825247064e-15 -6.375983589842690313e-14
4.064000000000000000e+03 1.851055526733398438e+01 1.834378838539123535e+00 -1.688353233261774555e-13 1.563967461397017256e-13 -3.731573155942718989e-15 -4.267885957837114219e-14
4.065000000000000000e+03 1.855901145935058594e+01 2.579250097274780273e+00 -1.108396821590876269e-13 -3.220084246989551868e-13 -1.298544334126655597e-13 -4.749628153884882797e-14
4.066000000000000000e+03 1.696798706054687500e+01 1.734610080718994141e+00 -2.459893996397538585e-13 2.148326140464021372e-13 -9.347036525038463634e-15 1.992525237956999790e-14
4.067000000000000000e+03 1.774004745483398438e+01 1.786107659339904785e+00 -1.895728989368891670e-13 -1.269964764859937700e-13 -9.497081127161216552e-14 -7.739128280825728623e-15
4.068000000000000000e+03 1.307423973083496094e+01 1.803115367889404297e+00 -8.059122081705352714e-14 1.942156559273794381e-13 3.408732985547141547e-14 -6.935474601305752218e-14
4.069000000000000000e+03 1.322374725341796875e+01 1.078295350074768066e+00 -1.347570872164277622e-13 -1.950058902333226540e-13 -9.892889459017784048e-14 -4.334729393463097880e-14
4.070000000000000000e+03 1.396254444122314453e+01 1.243136167526245117e+00 -9.615346577762293179e-14 1.875461185006990772e-13 2.741779581692284362e-14 -7.859472350279367303e-14
4.071000000000000000e+03 1.470126342773437500e+01 1.407449364662170410e+00 -2.617660049223508034e-13 -4.324420595919198362e-13 -2.082624166437757607e-13 2.760772940281746440e-14
4.072000000000000000e+03 1.544029712677001953e+01 1.569983482360839844e+00 -3.654023698201891435e-13 -1.566010233815251507e-13 -1.566010233815251507e-13 -1.467514938778904932e-13
4.073000000000000000e+03 1.532874107360839844e+01 2.303210496902465820e+00 -1.506882590712396719e-13 -6.364675496708938063e-13 -2.361467412673873278e-13 -4.254367650812114487e-14
4.074000000000000000e+03 1.382568740844726562e+01 1.970758438110351562e+00 -2.470013668424975162e-13 8.519644577765096011e-15 -7.154451591709007352e-14 2.093512444631862209e-15
4.075000000000000000e+03 1.457705688476562500e+01 2.137874126434326172e+00 -1.468663786505924884e-13 -2.230710597793048033e-13 -1.109812315289691875e-13 3.717943379381860591e-14
4.076000000000000000e+03 1.104393005371093750e+01 6.161050796508789062e-01 -1.086770511906851033e-13 1.593033972964452705e-13 1.518790213766215563e-14 -9.378329140835237054e-14
4.077000000000000000e+03 1.093760776519775391e+01 1.349887132644653320e+00 -1.470633510802787924e-13 -1.727620088274543081e-14 -4.930186440306114082e-14 3.427816553145486209e-15
4.078000000000000000e+03 1.032133674621582031e+01 4.645727574825286865e-01 -1.432268474828302107e-13 3.011896355692607330e-14 -3.393236348370534672e-14 3.089382252081072922e-14
4.079000000000000000e+03 1.176770782470703125e+01 7.675349712371826172e-01 -1.615128251411176996e-13 -2.750990624536542306e-13 -1.309835622126734322e-13 -3.679713394340485000e-14
4.080000000000000000e+03 1.234649181365966797e+01 1.644436478614807129e+00 -6.741934349121722625e-14 -1.661468543041194623e-13 -7.006985866097464877e-14 1.103669784822134195e-14
4.081000000000000000e+03 1.249242305755615234e+01 9.189449548721313477e-01 -1.067336933354041950e-13 1.601362543002943228e-13 1.602076761184068054e-14 -2.233281139500057494e-14
4.082000000000000000e+03 1.023481845855712891e+01 1.202500104904174805e+00 -1.183898085902607145e-13 -4.987538787054818581e-15 -3.701320188385405496e-14 5.981666035973290385e-14
4.083000000000000000e+03 1.164158153533935547e+01 1.497171759605407715e+00 -1.013364265005541054e-13 2.310757921814010629e-13 3.892181105950680287e-14 -6.275384197202728276e-15
4.084000000000000000e+03 7.887229919433593750e+00 3.867234289646148682e-01 -1.082237462623689139e-13 4.512029313542831321e-14 -1.893103559926900131e-14 7.888556073556290960e-14
4.085000000000000000e+03 8.716233253479003906e+00 3.873925805091857910e-01 -1.868622579804038453e-13 -3.433287793061685911e-14 -6.635853975686667461e-14 -1.643270006288118090e-14
4.086000000000000000e+03 7.056899547576904297e+00 3.878324329853057861e-01 -6.369323877998198102e-14 -2.729710209226857837e-14 -2.729710209226857837e-14 -5.991015331535199176e-16
4.087000000000000000e+03 6.178035259246826172e+00 1.128378868103027344e+00 -1.486139499223132487e-13 -6.369168701562261115e-14 -6.369168701562261115e-14 -4.718863239614248806e-14
4.088000000000000000e+03 4.565147399902343750e+00 3.867084681987762451e-01 -5.785783229470334299e-14 -7.054716511488423603e-14 -3.852149990050263151e-14 3.984860571127225165e-15
4.089000000000000000e+03 3.734298944473266602e+00 3.859201967716217041e-01 -3.097539518176310736e-14 -1.327516960562217380e-14 -1.327516960562217380e-14 1.517998915586890596e-14
4.090000000000000000e+03 2.903336763381958008e+00 3.870553672313690186e-01 3.705195533525683371e-14 1.988832004900381589e-13 7.078054640877531889e-14 -3.167723651746265356e-14
4.091000000000000000e+03 2.880990266799926758e+00 1.127055406570434570e+00 2.446003808027376325e-14 -8.101902666552557308e-14 -1.696769623676236405e-14 6.292624705811142305e-14
4.092000000000000000e+03 2.073071718215942383e+00 3.892002105712890625e-01 -3.909875624218822621e-14 -1.540094549286330494e-13 -5.793246606175181390e-14 1.674368482133380825e-14
4.093000000000000000e+03 2.057110071182250977e+00 1.129200220108032227e+00 -5.302893134372446693e-14 1.602771057150273459e-13 3.217445502189629492e-14 -8.786262597473490366e-14
4.094000000000000000e+03 1.234333992004394531e+00 1.129331231117248535e+00 -3.151074372135034829e-15 -1.843542544099560643e-13 -5.625160032869322424e-14 5.794745515678642600e-14
4.095000000000000000e+03 4.116423428058624268e-01 1.129539847373962402e+00 7.373566140262896584e-14 3.160099677594618850e-14 3.160099677594618850e-14 -8.154651304529639960e-15
4.096000000000000000e+03 4.148346781730651855e-01 3.895398080348968506e-01 -3.486463505050774181e-14 3.080896337202300439e-14 -1.216701630600363314e-15 3.383003173928166019e-14
4.097000000000000000e+03 4.530031204223632812e+00 1.126708507537841797e+00 -4.626303883709624587e-14 2.592393124169548035e-14 -6.101732278620229655e-15 6.612155349075207744e-14
4.098000000000000000e+03 5.353859424591064453e+00 1.127378344535827637e+00 -9.082001779315077017e-14 1.440809277442056668e-13 1.597827366294282680e-14 1.400151018347492449e-13
4.099000000000000000e+03 6.225920200347900391e+00 3.883788883686065674e-01 -1.855804870670371698e-13 1.196740325110426384e-14 -5.208392378952715618e-14 -4.249667973207568727e-14
4.100000000000000000e+03 7.002630233764648438e+00 1.127832412719726562e+00 -1.111059283313321766e-13 8.963602158695155309e-14 -6.440971515094418703e-15 6.327954788854298074e-14
4.101000000000000000e+03 7.826575756072998047e+00 1.126723408699035645e+00 -9.651223505276196324e-14 -1.848691081403515402e-14 -3.449974342122595627e-14 3.224117411308562164e-14
4.102000000000000000e+03 9.544963836669921875e+00 3.890661597251892090e-01 -1.392668126003540618e-13 3.181611942762625767e-14 -3.223520761300516235e-14 1.351714489579609879e-14
4.103000000000000000e+03 9.471539497375488281e+00 1.129066109657287598e+00 -9.352398413001172806e-14 2.854471555500427693e-14 -1.949378057250223534e-14 -1.002997377942118837e-14
4.104000000000000000e+03 3.705567836761474609e+00 1.125920176506042480e+00 6.100112248699267000e-17 -9.147575681959715932e-14 -2.742442639083395028e-14 -9.066719272067536028e-14
4.105000000000000000e+03 1.243910908699035645e+00 3.893312513828277588e-01 -8.016277799980514596e-14 -8.010642659189021186e-14 -4.808076137750860735e-14 -4.666828989224880431e-14
4.106000000000000000e+03 5.395359992980957031e+00 3.873783648014068604e-01 -1.844185747038387668e-13 5.821631019050851896e-14 -3.786068206450450557e-14 8.886576370603638253e-14
4.107000000000000000e+03 8.649193763732910156e+00 1.127392530441284180e+00 -5.540159937799174483e-14 2.200740505358799587e-14 -1.001825846672771414e-14 1.204672348204330334e-13
4.108000000000000000e+03 7.881481170654296875e+01 -7.914894580841064453e+00 4.803849782157240678e-14 1.120898214740720378e-13 4.803849782157240678e-14 4.003208151797700565e-15
4.109000000000000000e+03 7.809585571289062500e+01 -1.235788726806640625e+01 1.401122870069854143e-13 -1.000802021008766196e-13 1.200962445539310169e-14 -2.401924891078620339e-14
4.110000000000000000e+03 7.420466613769531250e+01 -1.051586437225341797e+01 6.905533680686207210e-14 1.000802037949425141e-15 2.101684237342145434e-14 4.003208151797700565e-14
4.111000000000000000e+03 7.347399139404296875e+01 -1.095640659332275391e+01 2.862293735361731706e-13 1.341074739322559162e-13 1.261010474642651480e-13 1.120898214740720378e-13
4.112000000000000000e+03 7.273690032958984375e+01 -1.129537582397460938e+01 2.762213472274482884e-13 1.641315257533762506e-13 1.321058605389946461e-13 1.200962343895356499e-13
4.113000000000000000e+03 6.963862609863281250e+01 -1.627171707153320312e+01 1.381106736137241442e-13 -7.806255641895631925e-14 1.801443583605670529e-14 1.000802021008766196e-13
4.114000000000000000e+03 6.789168548583984375e+01 -1.490800476074218750e+01 2.161732300326804634e-13 -1.361090737729900302e-13 2.401924891078620339e-14 -6.805453688649501509e-14
4.115000000000000000e+03 6.857600402832031250e+01 -1.155749320983886719e+01 -8.306656957331876034e-14 -1.271018609371593611e-13 -6.305052373213257400e-14 -3.002405859738391247e-14
4.116000000000000000e+03 6.791217041015625000e+01 -1.107087039947509766e+01 -1.013312036954013354e-14 4.140818140848170903e-14 9.382518735198946275e-15 1.501203056924137712e-15
4.117000000000000000e+03 6.625115966796875000e+01 -9.261006355285644531e+00 -1.170938346284344789e-13 8.706977603105056640e-14 -9.007217918028352643e-15 -1.040834085586084257e-13
4.118000000000000000e+03 6.583262634277343750e+01 -8.560793876647949219e+00 9.807859548387892756e-14 4.203368474684290867e-14 4.203368474684290867e-14 1.601283260719080226e-14
4.119000000000000000e+03 6.605941009521484375e+01 -1.143982791900634766e+01 -1.120898214740720378e-13 1.120898214740720378e-13 0.000000000000000000e+00 -3.402726844324750755e-14
4.120000000000000000e+03 5.906218338012695312e+01 -9.661490440368652344e+00 -1.271018609371593611e-13 -2.431948956452267829e-13 -1.110890215537049808e-13 8.206576287668812530e-14
4.121000000000000000e+03 5.797139358520507812e+01 -1.054133033752441406e+01 -1.130906281707026728e-13 -2.772221471478153454e-13 -1.170938346284344789e-13 -3.402726844324750755e-14
4.122000000000000000e+03 5.575463104248046875e+01 -1.058940696716308594e+01 2.056648173162992088e-13 1.596279261117244941e-13 1.095878216731543953e-13 -1.641315257533762506e-13
4.123000000000000000e+03 5.562771224975585938e+01 -9.478695869445800781e+00 3.407965370409021810e-13 2.375575593443340905e-13 1.735062289155708815e-13 -2.404739547681028489e-13
4.124000000000000000e+03 5.389245223999023438e+01 -7.774667739868164062e+00 1.361090737729900302e-13 4.243400607024244708e-13 1.681347389873716347e-13 -2.481988952470620680e-13
4.125000000000000000e+03 5.294331359863281250e+01 -6.422706127166748047e+00 1.541235129971785245e-13 7.065662074520751013e-13 2.582069215557869502e-13 -2.001604042017532392e-13
4.126000000000000000e+03 5.085330200195312500e+01 -1.533396434783935547e+01 -6.605293026949732305e-14 6.004812227696550847e-15 -1.801443583605670529e-14 -1.140914348673333079e-13
4.127000000000000000e+03 4.723703384399414062e+01 -1.217775249481201172e+01 1.989093907487672619e-14 1.915284879479284275e-13 6.342582709040200939e-14 4.566159123443706835e-14
4.128000000000000000e+03 4.670403671264648438e+01 -1.170330047607421875e+01 -8.106496295632106830e-14 1.311050606186275891e-13 1.501202929869195624e-14 1.408628801709971290e-13
4.129000000000000000e+03 4.429607391357421875e+01 -1.384611701965332031e+01 -2.847281601030954290e-13 2.897321868099850262e-13 1.501203056924137712e-15 1.481186999224490264e-13
4.130000000000000000e+03 3.941284179687500000e+01 -1.877246284484863281e+01 -6.805453688649501509e-14 4.283432603838926989e-13 1.080866150163402317e-13 -7.205774334422682115e-14
4.131000000000000000e+03 4.036033630371093750e+01 -1.278433990478515625e+01 -9.957980214069309111e-14 9.457578898633065001e-14 -1.501203056924137712e-15 2.001604075898850282e-14
4.132000000000000000e+03 3.808047103881835938e+01 -1.038464450836181641e+01 1.143416280711614941e-13 3.235092586612725585e-13 1.313552673749829314e-13 -1.271018609371593611e-13
4.133000000000000000e+03 3.713428497314453125e+01 -1.048593330383300781e+01 -2.902325867701685547e-14 3.993200084831394214e-13 1.110890215537049808e-13 -4.003208151797700565e-15
4.134000000000000000e+03 3.654460906982421875e+01 -1.011517047882080078e+01 -7.806255641895631925e-14 5.804651735403371093e-14 -6.004812227696550847e-15 -3.202566521438160452e-14
4.135000000000000000e+03 2.945052528381347656e+01 -9.158452987670898438e+00 1.200962343895356499e-13 -2.001604042017532392e-13 -2.401924891078620339e-14 -3.402726844324750755e-14
4.136000000000000000e+03 2.909240150451660156e+01 -9.929986953735351562e+00 -2.902325867701685547e-14 -1.210970478624298630e-13 -4.503609128420765773e-14 1.326062689695076471e-14
4.137000000000000000e+03 2.738814163208007812e+01 -1.175823116302490234e+01 -2.121700303512122354e-13 -2.281828697346666157e-13 -1.321058605389946461e-13 -1.781427517435693608e-13
4.138000000000000000e+03 2.671731948852539062e+01 -1.223745346069335938e+01 -2.742197473867141744e-13 -1.060850151756061177e-13 -1.140914348673333079e-13 -1.941555911270237411e-13
4.139000000000000000e+03 2.457577323913574219e+01 -1.334926414489746094e+01 -3.793039558656896570e-13 -3.102486190588275849e-14 -1.230986477031639770e-13 -8.106496295632106830e-14
4.140000000000000000e+03 2.338420104980468750e+01 -1.417511653900146484e+01 -3.499054073829305223e-13 -1.042085119367860968e-13 -1.362341771511677013e-13 -7.305854326459387815e-14
4.141000000000000000e+03 2.260302734375000000e+01 -1.375183200836181641e+01 -3.883111822540474822e-13 1.080866150163402317e-13 -8.406736949368581735e-14 1.200962445539310169e-14
4.142000000000000000e+03 2.134938240051269531e+01 -1.494160175323486328e+01 -2.722181475459800604e-13 -5.284234421559785844e-13 -2.401924687790712998e-13 9.607699564314481355e-14
4.143000000000000000e+03 2.048723793029785156e+01 -2.624143600463867188e+01 8.306656957331876034e-14 1.271018609371593611e-13 6.305052373213257400e-14 -1.040834085586084257e-13
4.144000000000000000e+03 2.136196136474609375e+01 -2.584906387329101562e+01 2.562053217150528361e-13 2.241796429481440756e-13 1.441154866884536423e-13 1.481186999224490264e-13
4.145000000000000000e+03 2.192796897888183594e+01 -2.792983245849609375e+01 9.305112968127290940e-14 5.699098555274687006e-14 4.501263524783229164e-14 8.006416303595401129e-14
4.146000000000000000e+03 2.205027580261230469e+01 -2.699702262878417969e+01 -1.801443583605670529e-14 -4.203368474684290867e-14 -1.801443583605670529e-14 6.605293026949732305e-14
4.147000000000000000e+03 2.988406753540039062e+01 -2.447325897216796875e+01 5.504411081666896188e-14 2.351884691772360148e-13 8.706977603105056640e-14 -1.446158866486371708e-13
4.148000000000000000e+03 2.917906379699707031e+01 -2.297539710998535156e+01 -8.006416303595401129e-15 5.684555473908781131e-13 1.681347389873716347e-13 -2.702165477052459464e-13
4.149000000000000000e+03 2.905806732177734375e+01 -2.213961982727050781e+01 2.321860694161348437e-13 3.282630515067525012e-13 1.681347389873716347e-13 -3.202566521438160452e-14
4.150000000000000000e+03 2.940660285949707031e+01 -1.967763710021972656e+01 -2.141716301919463494e-13 -4.603689120457471473e-14 -7.806255641895631925e-14 1.361090737729900302e-13
4.151000000000000000e+03 3.049873733520507812e+01 -1.750065994262695312e+01 1.921539912862896271e-13 1.281026608575264181e-13 9.607699564314481355e-14 8.006416303595401129e-14
4.152000000000000000e+03 3.099885177612304688e+01 -1.685863685607910156e+01 -6.104892389139845998e-14 1.110890215537049808e-13 1.501202929869195624e-14 5.604491073703601889e-14
4.153000000000000000e+03 3.101661491394042969e+01 -1.591149139404296875e+01 -2.747201608994248589e-13 1.596279261117244941e-13 -3.452766840343103605e-14 4.253408470702643718e-14
4.154000000000000000e+03 7.585030364990234375e+01 -7.978224754333496094e+00 7.606094980195862720e-14 1.240994476235310340e-13 6.004811719476782494e-14 5.604491073703601889e-14
4.155000000000000000e+03 7.474448394775390625e+01 -9.865888595581054688e+00 -7.005613842129502361e-15 -3.002406113848275424e-15 -3.002406113848275424e-15 -2.401924891078620339e-14
4.156000000000000000e+03 7.520082855224609375e+01 -8.490348815917968750e+00 2.281828697346666157e-13 3.722983564231202580e-13 1.801443651368306309e-13 -8.006416303595401129e-15
4.157000000000000000e+03 6.131661987304687500e+01 -8.596142768859863281e+00 -1.084619183746096671e-13 -4.582422223793625182e-13 -1.700112354499280776e-13 -1.175942362826839019e-14
4.158000000000000000e+03 6.556703948974609375e+01 -7.790793895721435547e+00 -1.961571909677578551e-13 2.361892690976030718e-13 1.200962445539310169e-14 -3.202566521438160452e-14
4.159000000000000000e+03 6.317958831787109375e+01 -5.023913860321044922e+00 -2.001604075898850282e-14 -2.602085213965210642e-13 -8.406736949368581735e-14 8.807057595141762341e-14
4.160000000000000000e+03 6.138122177124023438e+01 -7.496056079864501953e+00 -2.101684169579509653e-13 -5.704571472316122271e-13 -2.341876692568689577e-13 -1.341074739322559162e-13
4.161000000000000000e+03 6.399365615844726562e+01 -6.487641334533691406e+00 -1.661331391466375207e-13 6.605293026949732305e-14 -3.002405859738391247e-14 2.401924891078620339e-14
4.162000000000000000e+03 6.080547714233398438e+01 -5.421695232391357422e+00 2.481988952470620680e-13 1.521218996039172544e-13 1.200962343895356499e-13 -4.003208151797700565e-14
4.163000000000000000e+03 4.804874038696289062e+01 -8.610217094421386719e+00 1.781427517435693608e-13 1.220978477827969200e-13 9.007218256841531545e-14 -1.601283260719080226e-14
4.164000000000000000e+03 5.336711883544921875e+01 -7.142927169799804688e+00 2.652125209983563492e-13 5.254210694999317255e-13 2.371900690179701288e-13 -3.362694779747432694e-13
4.165000000000000000e+03 4.741047668457031250e+01 -9.348982810974121094e+00 4.403528797570881170e-14 -4.003208151797700565e-15 1.200962445539310169e-14 4.803849782157240678e-14
4.166000000000000000e+03 4.960517883300781250e+01 -3.258499860763549805e+00 1.220978477827969200e-13 -2.221780431074099615e-13 -3.002405859738391247e-14 -1.160930347080674219e-13
4.167000000000000000e+03 4.626249313354492188e+01 -6.239892005920410156e+00 1.792999342747902958e-13 2.582382007884631570e-13 1.312614432294814670e-13 -2.840401254044361279e-13
4.168000000000000000e+03 4.685843658447265625e+01 -6.900501728057861328e+00 2.702165477052459464e-13 3.903127820947815962e-13 1.981587908084919691e-13 -1.481186999224490264e-13
4.169000000000000000e+03 5.280180740356445312e+01 -3.978049755096435547e+00 3.002405995263662808e-13 1.020818087178743117e-12 3.963175816169839383e-13 3.362694779747432694e-13
4.170000000000000000e+03 5.194663619995117188e+01 -1.915124654769897461e+00 1.401122768425900472e-14 -3.142518255165593910e-13 -9.007218256841531545e-14 -3.202566521438160452e-13
4.171000000000000000e+03 5.352893066406250000e+01 -1.730406761169433594e+00 4.403528797570881170e-14 1.277023408893795953e-12 3.963175816169839383e-13 8.006416168070129569e-13
4.172000000000000000e+03 5.258967590332031250e+01 -2.464631795883178711e+00 1.441154866884536423e-13 6.565261030135050024e-13 2.401924687790712998e-13 3.522823038056704936e-13
4.173000000000000000e+03 4.395419311523437500e+01 -3.683734178543090820e+00 1.481186999224490264e-13 4.523625126828106913e-13 1.801443651368306309e-13 -1.561251128379126385e-13
4.174000000000000000e+03 4.439809036254882812e+01 -2.488570213317871094e+00 6.204972381176551699e-14 4.383512866926175811e-13 1.501202997631831404e-13 -2.161732300326804634e-13
4.175000000000000000e+03 4.255000305175781250e+01 -3.061280012130737305e+00 2.622101212372551782e-13 7.806255641895631925e-14 1.020818019416107336e-13 -1.801443583605670529e-14
4.176000000000000000e+03 4.206938552856445312e+01 -1.848049163818359375e+00 8.807057595141762341e-14 -8.006416303595401129e-15 2.401924891078620339e-14 0.000000000000000000e+00
4.177000000000000000e+03 4.004038619995117188e+01 -9.134566783905029297e-01 3.773023560249555430e-13 -6.705373696612795809e-14 9.307458910578006450e-14 1.481186999224490264e-13
4.178000000000000000e+03 4.094043350219726562e+01 -2.380835294723510742e+00 -1.801443583605670529e-14 1.180946345488015359e-13 3.002405859738391247e-14 -2.101684237342145434e-14
4.179000000000000000e+03 3.957287979125976562e+01 -6.443828344345092773e-01 2.682149478645118323e-13 -3.883111822540474822e-13 -3.602887167211341057e-14 -4.803849782157240678e-14
4.180000000000000000e+03 3.780049896240234375e+01 -7.352311015129089355e-01 2.081668171172168513e-13 -4.803849782157240678e-14 4.803849782157240678e-14 6.405133042876320904e-14
4.181000000000000000e+03 3.500366592407226562e+01 -1.831130504608154297e+00 1.601283260719080226e-13 1.601283260719080226e-13 9.607699564314481355e-14 7.205774334422682115e-14
4.182000000000000000e+03 2.944963645935058594e+01 -4.982961177825927734e+00 -3.883111822540474822e-13 -2.121700303512122354e-13 -1.801443651368306309e-13 8.006416303595401129e-14
4.183000000000000000e+03 2.958514976501464844e+01 -5.797240257263183594e+00 2.902325732176413986e-13 -1.501202997631831404e-13 4.203368474684290867e-14 1.601283260719080226e-14
4.184000000000000000e+03 2.961280250549316406e+01 -7.470902919769287109e+00 1.901523778930283570e-13 -1.701363388281057487e-13 6.004812227696550847e-15 -1.200962445539310169e-14
4.185000000000000000e+03 3.008514022827148438e+01 -4.811279773712158203e+00 2.041636038832214672e-13 -4.003208151797700565e-15 6.004811719476782494e-14 -3.202566521438160452e-14
4.186000000000000000e+03 2.623923492431640625e+01 -1.506693267822265625e+01 -8.957178260823178695e-14 4.503608959014176322e-15 -2.552045048540268340e-14 -1.085870149765237602e-13
4.187000000000000000e+03 2.108695602416992188e+01 -1.318967437744140625e+01 -2.692157477848788893e-13 -1.611291259922750796e-13 -1.291034607778934751e-13 1.641315257533762506e-13
4.188000000000000000e+03 1.441626930236816406e+01 -1.441404724121093750e+01 1.120898214740720378e-13 3.682951296365977178e-13 1.441154866884536423e-13 -1.140914348673333079e-13
4.189000000000000000e+03 1.521039295196533203e+01 -1.566713237762451172e+01 -1.986592043212026537e-13 -1.766415518630187753e-13 -1.125902282105191443e-13 -6.004812227696550847e-15
4.190000000000000000e+03 1.573821926116943359e+01 -1.815544319152832031e+01 8.006416303595401129e-15 2.321860694161348437e-13 7.205774334422682115e-14 -2.401924891078620339e-14
4.191000000000000000e+03 1.569149589538574219e+01 -1.738247871398925781e+01 -7.606094980195862720e-14 3.562855034871387216e-13 8.406736949368581735e-14 -1.601283260719080226e-14
4.192000000000000000e+03 1.514524459838867188e+01 -2.050426292419433594e+01 9.607699564314481355e-14 2.241796429481440756e-13 9.607699564314481355e-14 1.596279261117244941e-13
4.193000000000000000e+03 1.484255695343017578e+01 -2.201263618469238281e+01 8.807057595141762341e-14 3.122502256758252770e-13 1.200962343895356499e-13 1.921539912862896271e-13
4.194000000000000000e+03 1.524547195434570312e+01 -2.297476005554199219e+01 4.503609128420765773e-14 6.505213034913026604e-14 3.302646513474866152e-14 2.642117210779892922e-13
4.195000000000000000e+03 1.963107490539550781e+01 -2.645669364929199219e+01 5.404330750817011586e-14 -1.140914348673333079e-13 -1.801443583605670529e-14 -4.003208151797700565e-14
4.196000000000000000e+03 1.498630237579345703e+01 -1.393155860900878906e+01 -1.421138868477195283e-13 -1.981587908084919691e-13 -1.020818019416107336e-13 2.081668171172168513e-13
4.197000000000000000e+03 1.326757621765136719e+01 -1.087933063507080078e+01 -7.205774334422682115e-14 1.521218996039172544e-13 2.401924891078620339e-14 -1.601283260719080226e-13
4.198000000000000000e+03 1.239123630523681641e+01 -1.315444850921630859e+01 -3.162534253572935050e-13 -4.403528797570881170e-14 -1.080866150163402317e-13 2.401924891078620339e-14
4.199000000000000000e+03 1.314208126068115234e+01 -1.342918395996093750e+01 -1.651323256737433076e-13 -2.502005052521915490e-14 -5.704571743366665393e-14 7.606094980195862720e-14
4.200000000000000000e+03 1.725462341308593750e+01 -8.743257522583007812e+00 1.200962343895356499e-13 2.802245740139708285e-13 1.200962343895356499e-13 -1.200962445539310169e-14
4.201000000000000000e+03 1.721645355224609375e+01 -6.228002071380615234e+00 7.205774334422682115e-14 8.006416303595401129e-15 2.401924891078620339e-14 9.207378240914942946e-14
4.202000000000000000e+03 1.520692062377929688e+01 -1.497685551643371582e+00 3.322662782932750414e-13 2.802245536851800944e-14 1.080866150163402317e-13 0.000000000000000000e+00
4.203000000000000000e+03 1.748488807678222656e+01 -4.615870475769042969e+00 1.481186999224490264e-13 1.321058605389946461e-13 8.406736949368581735e-14 2.401924891078620339e-14
4.204000000000000000e+03 1.213336181640625000e+01 -1.423205018043518066e+00 1.681347389873716347e-13 -2.481988952470620680e-13 -2.401924891078620339e-14 2.081668171172168513e-13
4.205000000000000000e+03 9.036057472229003906e+00 -2.456762552261352539e+00 1.020818019416107336e-13 -2.001604075898850282e-15 3.002405859738391247e-14 5.604491073703601889e-14
4.206000000000000000e+03 1.163765239715576172e+01 -1.296940517425537109e+01 -4.003208084035064784e-13 -8.006416303595401129e-14 -1.441154866884536423e-13 1.441154866884536423e-13
4.207000000000000000e+03 7.459918498992919922e+00 -1.340066909790039062e+01 2.049142105997603380e-13 8.782037597132585915e-14 8.782037597132585915e-14 9.007218256841531545e-14
4.208000000000000000e+03 1.643940925598144531e+01 -5.383025407791137695e-01 3.843079825725792542e-13 -6.405133042876320904e-14 9.607699564314481355e-14 1.521218996039172544e-13
4.209000000000000000e+03 1.658249855041503906e+01 -1.736616611480712891e+00 3.482791041242022656e-13 1.200962445539310169e-14 1.080866150163402317e-13 2.401924687790712998e-13
4.210000000000000000e+03 1.965371513366699219e+01 -5.664454102516174316e-01 5.644523477094098851e-13 -6.044843987342007896e-13 -1.200962445539310169e-14 -9.087282250470896106e-13
4.211000000000000000e+03 9.787452697753906250e+00 -1.802919507026672363e+00 2.221780431074099615e-13 2.782229470681824024e-13 1.501202997631831404e-13 -2.401924891078620339e-14
4.212000000000000000e+03 4.353463172912597656e+00 -1.869874954223632812e+00 -5.604491073703601889e-14 -2.401924891078620339e-14 -2.401924891078620339e-14 1.841475648182988589e-13
4.213000000000000000e+03 1.053640842437744141e+00 -1.060179424285888672e+01 -1.140914348673333079e-13 1.341074739322559162e-13 6.004812227696550847e-15 4.003208151797700565e-15
4.214000000000000000e+03 4.902449607849121094e+00 -1.568367004394531250e+01 1.421138868477195283e-13 1.180946345488015359e-13 7.806255641895631925e-14 1.711371387484728057e-13
4.215000000000000000e+03 5.587406635284423828e+00 -1.704329109191894531e+01 5.404330750817011586e-14 4.463576860555540371e-13 1.501202997631831404e-13 8.907137587178468041e-14
4.216000000000000000e+03 5.974753379821777344e+00 -1.634501457214355469e+01 1.571259127582796955e-13 1.531227130768114675e-13 9.307458910578006450e-14 1.301042606982605321e-13
4.217000000000000000e+03 7.403841972351074219e+00 -1.444182682037353516e+01 1.215974478226133915e-13 2.837273601827283720e-13 1.215974478226133915e-13 2.747201608994248589e-13
4.218000000000000000e+03 8.559068679809570312e+00 -1.340087127685546875e+01 2.184250366297699197e-13 1.894017847290166423e-13 1.223480409866251062e-13 2.146720301521298779e-13
4.219000000000000000e+03 3.470069468021392822e-01 -9.094570159912109375e+00 1.661331391466375207e-13 -3.863095824133133682e-13 -6.605293026949732305e-14 7.205774334422682115e-14
4.220000000000000000e+03 3.556392669677734375e+00 -1.950748682022094727e+00 5.604491073703601889e-14 2.401924891078620339e-14 2.401924891078620339e-14 -8.406736949368581735e-14
4.221000000000000000e+03 1.072553634643554688e+00 -1.783234214782714844e+01 6.805453688649501509e-14 5.204170427930421283e-14 3.602887167211341057e-14 3.202566521438160452e-14
4.222000000000000000e+03 5.032848834991455078e+00 -1.941716003417968750e+01 -4.003208151797700565e-14 -2.001604042017532392e-13 -7.205774334422682115e-14 2.001604075898850282e-14
4.223000000000000000e+03 3.343140780925750732e-01 -2.439014053344726562e+01 5.604491073703601889e-14 3.442758773376797254e-13 1.200962343895356499e-13 2.802245536851800944e-14
4.224000000000000000e+03 3.689391911029815674e-01 -2.680279731750488281e+01 1.000802037949425141e-14 3.702967294773318319e-13 1.140914348673333079e-13 2.401924891078620339e-14
4.225000000000000000e+03 7.684989929199218750e+00 -2.272392463684082031e+01 1.981587908084919691e-13 -9.807859548387892756e-14 3.002405859738391247e-14 -2.281828697346666157e-13
4.226000000000000000e+03 5.866448402404785156e+00 -2.240028381347656250e+01 2.602085213965210642e-13 2.001604075898850282e-14 8.406736949368581735e-14 -1.240994476235310340e-13
4.227000000000000000e+03 3.741956949234008789e-01 -3.003859901428222656e+01 7.005614350349270714e-14 1.901523778930283570e-13 7.806255641895631925e-14 2.401924891078620339e-14
4.228000000000000000e+03 1.298687744140625000e+01 -3.445617675781250000e+01 -2.802245536851800944e-14 1.481186999224490264e-13 3.602887167211341057e-14 -3.602887167211341057e-14
4.229000000000000000e+03 1.388668155670166016e+01 -3.761890411376953125e+01 -1.100882216333379238e-13 1.000802037949425141e-14 -3.002405859738391247e-14 -3.803047490097931360e-14
4.230000000000000000e+03 1.233633899688720703e+01 -3.626980209350585938e+01 0.000000000000000000e+00 0.000000000000000000e+00 0.000000000000000000e+00 -1.140914348673333079e-13
4.231000000000000000e+03 1.313607406616210938e+01 -3.280749511718750000e+01 2.602085213965210642e-14 -1.261010474642651480e-13 -3.002405859738391247e-14 -1.040834085586084257e-13
4.232000000000000000e+03 1.357169532775878906e+01 -3.120930099487304688e+01 6.004812227696550847e-15 9.407538902614712151e-14 3.002405859738391247e-14 3.202566521438160452e-14
4.233000000000000000e+03 1.591566753387451172e+01 -2.787692642211914062e+01 4.058252215180524480e-13 2.196760433064923190e-13 1.876503780921107145e-13 1.521218996039172544e-13
4.234000000000000000e+03 1.532832622528076172e+01 -2.641615104675292969e+01 1.100882199392720293e-14 2.391916688587042428e-13 7.506014988159157020e-14 1.110890215537049808e-13
4.235000000000000000e+03 1.149218940734863281e+01 -2.252479743957519531e+01 2.001604075898850282e-15 1.381106736137241442e-13 4.203368474684290867e-14 2.401924891078620339e-14
4.236000000000000000e+03 1.074206352233886719e+01 -2.267319679260253906e+01 -1.581267126786467525e-13 -2.201764398785440585e-14 -5.404330750817011586e-14 -4.003208151797700565e-14
4.237000000000000000e+03 9.979768753051757812e+00 -2.279095649719238281e+01 -1.100882216333379238e-13 9.007218256841531545e-14 -6.004812227696550847e-15 -7.205774334422682115e-14
4.238000000000000000e+03 9.610529899597167969e+00 -4.067017745971679688e+01 -8.131516293641283255e-15 1.795188617984694313e-13 5.141620432907480220e-14 4.253408470702643718e-14
4.239000000000000000e+03 1.180743122100830078e+01 -3.259755706787109375e+01 -4.003208151797700565e-14 -4.003208151797700565e-14 -2.401924891078620339e-14 -3.202566521438160452e-14
4.240000000000000000e+03 1.283969163894653320e+00 -3.496232986450195312e+01 3.202566521438160452e-14 2.882309733769072846e-13 9.607699564314481355e-14 -7.205774334422682115e-14
4.241000000000000000e+03 3.704707920551300049e-01 -3.647866058349609375e+01 2.001604075898850282e-15 2.982389996856321668e-13 9.007218256841531545e-14 -8.006416303595401129e-15
4.242000000000000000e+03 1.348831272125244141e+01 -3.686277770996093750e+01 6.204972381176551699e-14 -4.203368474684290867e-14 6.004812227696550847e-15 4.003208151797700565e-14
4.243000000000000000e+03 1.762549757957458496e+00 -4.080711364746093750e+01 -2.702165375408505793e-14 2.171740299530475204e-13 5.704571743366665393e-14 -2.802245536851800944e-14
4.244000000000000000e+03 2.050191307067871094e+01 -3.987686538696289062e+01 -8.406736949368581735e-14 -3.602887167211341057e-14 -3.602887167211341057e-14 -1.601283260719080226e-14
4.245000000000000000e+03 2.263266181945800781e+01 -3.899052047729492188e+01 1.020818019416107336e-13 -2.001604075898850282e-15 3.002405859738391247e-14 9.607699564314481355e-14
4.246000000000000000e+03 2.587502098083496094e+01 -3.816254425048828125e+01 -6.905533680686207210e-14 1.991596042813861822e-13 3.903127820947815962e-14 2.001604075898850282e-15
4.247000000000000000e+03 2.571124076843261719e+01 -3.691609954833984375e+01 9.407538902614712151e-14 2.461972954063279539e-13 1.020818019416107336e-13 5.204170427930421283e-14
4.248000000000000000e+03 2.858976745605468750e+01 -3.653887939453125000e+01 -7.962630798859574033e-14 2.770970539340330413e-14 -1.557498094796432031e-14 1.738893419176140015e-14
4.249000000000000000e+03 3.873943710327148438e+01 -3.530802917480468750e+01 -7.355895000104098469e-14 -3.152526186606628700e-14 -3.152526186606628700e-14 1.641315257533762506e-13
4.250000000000000000e+03 3.955517196655273438e+01 -3.475065231323242188e+01 -4.803849782157240678e-14 -1.120898214740720378e-13 -4.803849782157240678e-14 5.004010105043830980e-14
4.251000000000000000e+03 3.920644378662109375e+01 -3.410540390014648438e+01 1.820208582112552848e-14 -1.752028968952934473e-13 -4.710024281403060731e-14 1.583769194350020948e-13
4.252000000000000000e+03 3.936010742187500000e+01 -3.208988189697265625e+01 1.271018609371593611e-13 2.832269737750719996e-13 1.230986477031639770e-13 8.006416303595401129e-14
4.253000000000000000e+03 3.915064239501953125e+01 -3.281660079956054688e+01 -3.803047490097931360e-14 2.582069215557869502e-13 6.605293026949732305e-14 1.160930347080674219e-13
4.254000000000000000e+03 3.201973724365234375e+01 -2.683060073852539062e+01 -7.305854326459387815e-14 4.303448466720996568e-14 -9.007217918028352643e-15 -4.853889778175593528e-14
4.255000000000000000e+03 3.093049621582031250e+01 -2.568736648559570312e+01 6.104892389139845998e-14 8.907137587178468041e-14 4.503609128420765773e-14 -1.176411534376323176e-13
4.256000000000000000e+03 3.998328018188476562e+01 -3.727703857421875000e+01 -2.792237469885494594e-13 1.090874217129708668e-13 -5.104090097080536681e-14 2.001604075898850282e-15
4.257000000000000000e+03 4.154968643188476562e+01 -3.720707321166992188e+01 -1.491194998428160834e-13 -2.011612041221202962e-13 -1.050842084789754827e-13 2.201764398785440585e-14
4.258000000000000000e+03 4.051221847534179688e+01 -3.595273208618164062e+01 -2.021620040424873532e-13 -9.807859548387892756e-14 -9.007218256841531545e-14 2.602085213965210642e-14
4.259000000000000000e+03 4.000306320190429688e+01 -3.536907196044921875e+01 1.020818019416107336e-13 7.806255641895631925e-14 5.404330750817011586e-14 1.321058605389946461e-13
4.260000000000000000e+03 4.594777679443359375e+01 -3.775201797485351562e+01 -2.116696303910287069e-13 -1.351082687704252897e-14 -6.755413692631148659e-14 -8.206576287668812530e-14
4.261000000000000000e+03 4.774451065063476562e+01 -3.616946792602539062e+01 -1.100882199392720293e-14 4.103288143834406265e-14 9.007217918028352643e-15 -1.921539912862896271e-13
4.262000000000000000e+03 5.622245407104492188e+01 -3.641693496704101562e+01 9.807859548387892756e-14 2.021620040424873532e-13 9.007218256841531545e-14 -1.120898214740720378e-13
4.263000000000000000e+03 5.718851852416992188e+01 -3.608890914916992188e+01 1.386110735739076727e-13 1.966575909279413836e-13 1.005806020610601481e-13 -1.301042606982605321e-13
4.264000000000000000e+03 5.691736602783203125e+01 -3.921045684814453125e+01 2.401924891078620339e-14 2.161732300326804634e-13 7.205774334422682115e-14 -6.605293026949732305e-14
4.265000000000000000e+03 5.902158737182617188e+01 -3.798258972167968750e+01 5.854691731421723944e-14 1.165934346682509504e-13 5.254210423948774134e-14 -3.202566521438160452e-14
4.266000000000000000e+03 5.993317413330078125e+01 -3.850777053833007812e+01 -5.004010189747125706e-15 -2.502005052521915490e-14 -9.007217918028352643e-15 -6.805453688649501509e-14
4.267000000000000000e+03 5.900540161132812500e+01 -3.972003173828125000e+01 2.101684237342145434e-14 2.091676170375839083e-13 6.905533680686207210e-14 -6.805453688649501509e-14
4.268000000000000000e+03 6.420301818847656250e+01 -3.683059692382812500e+01 1.471179000020819694e-13 6.305052373213257400e-14 6.305052373213257400e-14 -3.202566521438160452e-14
4.269000000000000000e+03 6.100826263427734375e+01 -3.859844207763671875e+01 4.203368474684290867e-14 1.801443583605670529e-14 1.801443583605670529e-14 8.006416303595401129e-15
4.270000000000000000e+03 7.894403076171875000e+01 -3.766916656494140625e+01 5.204170427930421283e-14 3.883111822540474822e-13 1.321058605389946461e-13 4.403528797570881170e-14
4.271000000000000000e+03 7.868843841552734375e+01 -3.924429702758789062e+01 1.281026608575264181e-13 4.323464600653609269e-13 1.681347389873716347e-13 -4.503609128420765773e-14
4.272000000000000000e+03 6.532096862792968750e+01 -3.633854675292968750e+01 1.220978477827969200e-13 9.807859548387892756e-14 6.605293026949732305e-14 -1.601283260719080226e-14
4.273000000000000000e+03 6.467853546142578125e+01 -3.622764968872070312e+01 -6.004812227696550847e-15 1.461170865291877563e-13 4.203368474684290867e-14 9.307458910578006450e-14
4.274000000000000000e+03 7.955456542968750000e+01 -3.660186386108398438e+01 -3.402726844324750755e-14 2.141716301919463494e-13 5.404330750817011586e-14 2.802245536851800944e-14
4.275000000000000000e+03 7.885871124267578125e+01 -3.080345535278320312e+01 6.004811719476782494e-14 3.002405995263662808e-13 1.080866150163402317e-13 -1.200962445539310169e-14
4.276000000000000000e+03 6.962582397460937500e+01 -2.617928886413574219e+01 2.842277736954390566e-13 7.606094980195862720e-14 1.080866150163402317e-13 4.003208151797700565e-14
4.277000000000000000e+03 6.799193572998046875e+01 -2.582744598388671875e+01 -2.201764398785440585e-14 8.206576287668812530e-14 1.801443583605670529e-14 4.203368474684290867e-14
4.278000000000000000e+03 6.734690856933593750e+01 -2.527607345581054688e+01 5.904731727440076794e-14 7.105694342385976414e-14 3.903127820947815962e-14 9.007217918028352643e-15
4.279000000000000000e+03 6.519326782226562500e+01 -2.695611763000488281e+01 8.406736949368581735e-14 3.562855034871387216e-13 1.321058605389946461e-13 -9.607699564314481355e-14
4.280000000000000000e+03 6.624417114257812500e+01 -2.412157249450683594e+01 8.807057595141762341e-14 -8.006416303595401129e-15 2.401924891078620339e-14 -1.140914348673333079e-13
4.281000000000000000e+03 6.633576202392578125e+01 -2.514612960815429688e+01 1.301042606982605321e-13 1.000802037949425141e-14 4.203368474684290867e-14 -1.321058605389946461e-13
4.282000000000000000e+03 6.510898590087890625e+01 -2.870169639587402344e+01 1.539984096190008533e-13 1.575012093402855529e-13 9.344988568778592186e-14 -9.457578898633065001e-14
4.283000000000000000e+03 6.624447631835937500e+01 -2.974782180786132812e+01 2.236792429879605471e-13 1.416134868875359998e-13 1.095878216731543953e-13 -1.421138868477195283e-13
4.284000000000000000e+03 6.795848846435546875e+01 -3.252818298339843750e+01 -8.606896933441993136e-14 1.461170865291877563e-13 1.801443583605670529e-14 3.602887167211341057e-14
4.285000000000000000e+03 6.679264831542968750e+01 -3.288148880004882812e+01 -5.104090097080536681e-14 1.611291259922750796e-13 3.302646513474866152e-14 -4.003208151797700565e-14
4.286000000000000000e+03 6.563219451904296875e+01 -3.408507156372070312e+01 5.504411081666896188e-14 1.150922347877003649e-13 5.104090097080536681e-14 -6.805453688649501509e-14
4.287000000000000000e+03 6.516947937011718750e+01 -3.567352676391601562e+01 1.180946345488015359e-13 6.204972381176551699e-14 5.404330750817011586e-14 -1.501203056924137712e-15
4.288000000000000000e+03 7.962996673583984375e+01 -3.011611557006835938e+01 -3.402726844324750755e-14 2.141716301919463494e-13 5.404330750817011586e-14 -1.601283260719080226e-14
4.289000000000000000e+03 7.966233825683593750e+01 -1.978398704528808594e+01 -6.805453688649501509e-14 1.080866150163402317e-13 1.200962445539310169e-14 8.006416303595401129e-14
4.290000000000000000e+03 7.352465057373046875e+01 -2.349459457397460938e+01 2.802245740139708285e-13 1.200962343895356499e-13 1.200962343895356499e-13 1.441154866884536423e-13
4.291000000000000000e+03 7.965528106689453125e+01 -2.295429229736328125e+01 -3.803047490097931360e-14 2.582069215557869502e-13 6.605293026949732305e-14 2.401924891078620339e-14
4.292000000000000000e+03 7.964785766601562500e+01 -2.534405326843261719e+01 5.604491073703601889e-14 2.401924891078620339e-14 2.401924891078620339e-14 4.003208151797700565e-14
4.293000000000000000e+03 7.257739257812500000e+01 -2.517187690734863281e+01 2.652125209983563492e-13 2.051644173561156803e-13 1.411130869273524713e-13 1.441154866884536423e-13
4.294000000000000000e+03 7.330767059326171875e+01 -2.493105888366699219e+01 2.301844695754007297e-13 1.901523778930283570e-13 1.261010474642651480e-13 1.321058605389946461e-13
4.295000000000000000e+03 7.042521667480468750e+01 -2.606354141235351562e+01 3.282630515067525012e-13 -8.807057595141762341e-14 7.205774334422682115e-14 1.040834085586084257e-13
4.296000000000000000e+03 7.964349365234375000e+01 -1.740015220642089844e+01 0.000000000000000000e+00 0.000000000000000000e+00 0.000000000000000000e+00 3.602887167211341057e-14
4.297000000000000000e+03 7.282423400878906250e+01 -1.890352058410644531e+01 -7.656135653840573374e-14 1.416134868875359998e-13 1.951563910473907981e-14 -1.256006475040816195e-13
4.298000000000000000e+03 7.421154022216796875e+01 -2.184960365295410156e+01 -1.761411519028352468e-13 1.601283260719080226e-14 -4.803849782157240678e-14 9.207378240914942946e-14
4.299000000000000000e+03 7.827737426757812500e+01 -1.806877517700195312e+01 4.803849782157240678e-14 -4.803849782157240678e-14 0.000000000000000000e+00 -4.003208151797700565e-15
4.300000000000000000e+03 7.892109680175781250e+01 -1.171816635131835938e+01 1.160930347080674219e-13 4.003208151797700565e-15 3.602887167211341057e-14 -6.004811719476782494e-14
4.301000000000000000e+03 4.584029388427734375e+01 -2.843302917480468750e+01 -2.742197473867141744e-13 -2.602085213965210642e-14 -9.007218256841531545e-14 1.401122870069854143e-13
4.302000000000000000e+03 4.717465209960937500e+01 -2.923874092102050781e+01 -1.676343424153198952e-14 8.431756947377758160e-14 2.026624073908026707e-14 -1.306046606584440606e-13
4.303000000000000000e+03 5.109789276123046875e+01 -2.510219001770019531e+01 -3.122502256758252770e-13 7.205774334422682115e-14 -7.205774334422682115e-14 8.006416303595401129e-15
4.304000000000000000e+03 5.261578750610351562e+01 -2.490481376647949219e+01 -4.223384337566360447e-13 2.001604075898850282e-15 -1.261010474642651480e-13 -8.006416303595401129e-14
4.305000000000000000e+03 4.777881622314453125e+01 -2.972039031982421875e+01 4.744427032775562492e-14 6.608420950217352985e-14 3.405854428779192533e-14 -7.268324668258802079e-14
4.306000000000000000e+03 4.834976577758789062e+01 -3.022785377502441406e+01 9.119808586696004360e-14 2.678396241774516628e-13 1.077113184343343744e-13 -2.101684169579509653e-13
4.307000000000000000e+03 4.991509628295898438e+01 -2.475128746032714844e+01 -5.104090097080536681e-14 2.011612041221202962e-13 4.503609128420765773e-14 -2.752205540833448094e-14
4.308000000000000000e+03 4.817941665649414062e+01 -2.320773696899414062e+01 2.822261738547049426e-13 3.382710778154773834e-13 1.861491782115601290e-13 -2.522020949285302960e-13
4.309000000000000000e+03 4.436774826049804688e+01 -2.783952140808105469e+01 -5.964779993712643336e-13 -1.641315257533762506e-13 -2.281828697346666157e-13 1.080866150163402317e-13
4.310000000000000000e+03 4.646884918212890625e+01 -2.152789115905761719e+01 9.407538902614712151e-14 4.863897912904535659e-13 1.741395520621011328e-13 -1.601283260719080226e-14
4.311000000000000000e+03 4.678591537475585938e+01 -2.083506393432617188e+01 2.291836696550336727e-13 6.014820260781539307e-13 2.491996951674291250e-13 5.204170427930421283e-14
4.312000000000000000e+03 4.689928436279296875e+01 -2.008570861816406250e+01 -1.200962343895356499e-13 3.602887302736612618e-13 7.205774334422682115e-14 9.607699564314481355e-14
4.313000000000000000e+03 4.763055419921875000e+01 -1.773523139953613281e+01 -6.204972381176551699e-14 2.021620040424873532e-13 4.203368474684290867e-14 1.200962445539310169e-14
4.314000000000000000e+03 4.400650024414062500e+01 -1.471791076660156250e+01 -4.223384337566360447e-13 2.001604075898850282e-15 -1.261010474642651480e-13 1.120898214740720378e-13
4.315000000000000000e+03 4.726077651977539062e+01 -1.852081298828125000e+01 -1.801443583605670529e-14 3.582871304329271478e-13 1.020818019416107336e-13 8.006416303595401129e-14
4.316000000000000000e+03 4.979323577880859375e+01 -1.671669197082519531e+01 -1.321058605389946461e-13 1.200962445539310169e-14 -3.602887167211341057e-14 -2.201764398785440585e-14
4.317000000000000000e+03 5.046665191650390625e+01 -1.642625808715820312e+01 -9.207378240914942946e-14 5.204170427930421283e-14 -1.200962445539310169e-14 -6.805453688649501509e-14
4.318000000000000000e+03 4.887745666503906250e+01 -3.074267578125000000e+01 1.466175000418984409e-13 4.288436467915490713e-13 1.726383521815505473e-13 -1.401122870069854143e-13
4.319000000000000000e+03 4.959794998168945312e+01 -3.107558250427246094e+01 2.602085213965210642e-14 3.542839036464046076e-13 1.140914348673333079e-13 -3.803047490097931360e-14
4.320000000000000000e+03 4.932872772216796875e+01 -3.333762741088867188e+01 1.621299259126421366e-13 2.982389996856321668e-13 1.381106736137241442e-13 1.200962445539310169e-14
4.321000000000000000e+03 4.892456817626953125e+01 -3.517056274414062500e+01 -5.004010189747125706e-16 4.553649124439118623e-14 1.351082687704252897e-14 -4.603689120457471473e-14
4.322000000000000000e+03 4.835535049438476562e+01 -3.574425888061523438e+01 -1.621299259126421366e-13 2.201764398785440585e-14 -4.203368474684290867e-14 -4.403528797570881170e-14
4.323000000000000000e+03 4.312739944458007812e+01 -3.815935516357421875e+01 -3.963175816169839383e-13 -2.041636038832214672e-13 -1.801443651368306309e-13 3.202566521438160452e-14
4.324000000000000000e+03 4.274139022827148438e+01 -3.966599655151367188e+01 -1.331066604593617031e-13 1.030826086382413687e-13 -9.007217918028352643e-15 -8.006416303595401129e-14
4.325000000000000000e+03 4.222618865966796875e+01 -3.781116867065429688e+01 -2.091676170375839083e-13 -2.101684237342145434e-14 -6.905533680686207210e-14 5.604491073703601889e-14
4.326000000000000000e+03 4.102335739135742188e+01 -3.655787658691406250e+01 -4.603689120457471473e-14 -5.404330750817011586e-14 -3.002405859738391247e-14 1.341074739322559162e-13
4.327000000000000000e+03 3.994433212280273438e+01 -3.066396141052246094e+01 5.004010105043830980e-14 2.502004950877961820e-13 9.007218256841531545e-14 -2.401924891078620339e-14
4.328000000000000000e+03 3.591000747680664062e+01 -2.813173866271972656e+01 -2.882309733769072846e-13 -1.921539912862896271e-13 -1.441154866884536423e-13 -8.807057595141762341e-14
4.329000000000000000e+03 3.794423294067382812e+01 -3.136234283447265625e+01 1.271018609371593611e-13 2.832269737750719996e-13 1.230986477031639770e-13 1.321058605389946461e-13
4.330000000000000000e+03 3.459536743164062500e+01 -2.923432350158691406e+01 -4.003208151797700565e-14 -2.001604042017532392e-13 -7.205774334422682115e-14 -5.604491073703601889e-14
4.331000000000000000e+03 3.355347442626953125e+01 -2.870847511291503906e+01 -2.156728300724969349e-13 -6.955573676704560060e-14 -8.556856937423640286e-14 6.004811719476782494e-14
4.332000000000000000e+03 3.311030197143554688e+01 -2.798050880432128906e+01 -2.411932958044926689e-13 5.104090097080536681e-14 -5.704571743366665393e-14 1.901523745048965680e-14
4.333000000000000000e+03 3.255635070800781250e+01 -2.742424964904785156e+01 -1.220978477827969200e-13 -1.801443583605670529e-14 -4.203368474684290867e-14 4.803849782157240678e-14
4.334000000000000000e+03 3.668770599365234375e+01 -2.784123039245605469e+01 -2.602085213965210642e-13 -2.001604075898850282e-14 -8.406736949368581735e-14 -9.607699564314481355e-14
4.335000000000000000e+03 4.032403945922851562e+01 -2.998427772521972656e+01 8.406736949368581735e-14 3.602887167211341057e-14 3.602887167211341057e-14 1.361090737729900302e-13
4.336000000000000000e+03 4.194618225097656250e+01 -2.814071273803710938e+01 -2.306848559830571022e-13 1.756407519426517183e-13 -1.651323256737433076e-14 -9.807859548387892756e-14
4.337000000000000000e+03 4.197198486328125000e+01 -2.319311904907226562e+01 1.321058605389946461e-13 1.481186999224490264e-13 8.406736949368581735e-14 1.961571909677578551e-13
4.338000000000000000e+03 3.948359680175781250e+01 -2.480790710449218750e+01 6.004811719476782494e-14 6.204972516701823260e-13 2.041636038832214672e-13 1.761411519028352468e-13
4.339000000000000000e+03 3.962856292724609375e+01 -2.398064231872558594e+01 -8.006416303595401129e-15 5.684555473908781131e-13 1.681347389873716347e-13 1.080866150163402317e-13
4.340000000000000000e+03 3.971764373779296875e+01 -1.958669853210449219e+01 3.402726844324750755e-14 5.064057896977947060e-13 1.621299259126421366e-13 -1.661331391466375207e-13
4.341000000000000000e+03 3.904477691650390625e+01 -1.640220260620117188e+01 -1.721379386688398627e-13 2.922341730583755126e-13 3.602887167211341057e-14 0.000000000000000000e+00
4.342000000000000000e+03 2.249953269958496094e+01 -2.847010231018066406e+01 -1.571259127582796955e-13 7.005613842129502361e-15 -4.503609128420765773e-14 -1.651323256737433076e-14
4.343000000000000000e+03 2.540634727478027344e+01 -3.265334320068359375e+01 -1.921539912862896271e-13 1.921539912862896271e-13 0.000000000000000000e+00 -5.204170427930421283e-14
4.344000000000000000e+03 2.466958618164062500e+01 -3.440125274658203125e+01 7.606094980195862720e-14 2.842277736954390566e-13 1.080866150163402317e-13 -7.205774334422682115e-14
4.345000000000000000e+03 2.461876678466796875e+01 -3.690692138671875000e+01 -8.807057595141762341e-14 3.282630515067525012e-13 7.205774334422682115e-14 1.160930347080674219e-13
4.346000000000000000e+03 1.729564857482910156e+01 -4.056864166259765625e+01 0.000000000000000000e+00 0.000000000000000000e+00 0.000000000000000000e+00 2.001604075898850282e-14
4.347000000000000000e+03 1.446190834045410156e+01 -3.823568725585937500e+01 1.701363422162375377e-14 1.301042606982605321e-14 9.007217918028352643e-15 6.805453688649501509e-14
4.348000000000000000e+03 2.800987243652343750e+01 -1.120995235443115234e+01 -3.102486258350911630e-13 -1.901523778930283570e-13 -1.501202997631831404e-13 -8.006416303595401129e-15
4.349000000000000000e+03 3.389720535278320312e+01 -1.509168148040771484e+01 -8.947169719518421882e-13 7.405934996122451319e-14 -2.461972954063279539e-13 -4.003208151797700565e-15
4.350000000000000000e+03 3.476386260986328125e+01 -1.515813255310058594e+01 -6.335076777400083792e-13 -3.172542252776605620e-13 -2.852285736158061136e-13 3.202566521438160452e-14
4.351000000000000000e+03 3.555138778686523438e+01 -1.548311233520507812e+01 -5.159134295988632157e-13 1.906527778532118855e-13 -9.757819552369539906e-14 3.923143819355157103e-13
4.352000000000000000e+03 3.861395263671875000e+01 -1.097418975830078125e+01 6.330072371222433825e-14 1.643817325097315929e-13 6.830473686658677934e-14 -8.506816941405287436e-14
4.353000000000000000e+03 3.625610351562500000e+01 -1.590742397308349609e+01 -4.782582749968122826e-13 -1.134659247527085302e-13 -1.775172619577353172e-13 -1.030826086382413687e-13
4.354000000000000000e+03 3.842783737182617188e+01 -1.836160469055175781e+01 7.606094980195862720e-14 4.443560862148199231e-13 1.561251128379126385e-13 -1.321058605389946461e-13
4.355000000000000000e+03 3.956834411621093750e+01 -2.147051239013671875e+01 1.401122870069854143e-13 1.020818087178743117e-12 3.482791041242022656e-13 -3.202566521438160452e-14
4.356000000000000000e+03 4.377396011352539062e+01 -2.692884063720703125e+01 -3.973184086424053074e-13 -3.302646513474866152e-14 -1.291034607778934751e-13 1.601283260719080226e-14
4.357000000000000000e+03 4.269818496704101562e+01 -2.771367073059082031e+01 -5.594483210025202879e-13 -1.100882199392720293e-14 -1.711371387484728057e-13 -8.006416303595401129e-15
4.358000000000000000e+03 3.978264236450195312e+01 -2.595975685119628906e+01 -1.841475648182988589e-13 4.243400607024244708e-13 7.205774334422682115e-14 -8.406736949368581735e-14
4.359000000000000000e+03 3.865701675415039062e+01 -2.627777862548828125e+01 -6.179952383167375274e-14 -2.509511153568622088e-13 -9.382518904605535726e-14 6.517723372730793718e-14
4.360000000000000000e+03 1.369677162170410156e+01 -2.229559516906738281e+01 3.002406113848275424e-15 4.703769451307356075e-14 1.501202929869195624e-14 7.606094980195862720e-14
4.361000000000000000e+03 6.530120849609375000e+01 -2.282013130187988281e+01 2.061652172764827373e-13 4.543641125235448053e-13 1.981587908084919691e-13 -1.521218996039172544e-13
4.362000000000000000e+03 6.375692367553710938e+01 -2.157560729980468750e+01 4.003208151797700565e-15 5.964779993712643336e-13 1.801443651368306309e-13 -2.041636038832214672e-13
4.363000000000000000e+03 5.897632980346679688e+01 -2.679257583618164062e+01 -3.102486190588275849e-14 2.612093213168881212e-13 6.905533680686207210e-14 2.802245536851800944e-14
4.364000000000000000e+03 5.559983444213867188e+01 -2.415464401245117188e+01 -8.006416303595401129e-14 2.401924687790712998e-13 4.803849782157240678e-14 1.200962445539310169e-14
4.365000000000000000e+03 5.830150222778320312e+01 -2.836911010742187500e+01 -1.501202997631831404e-13 2.101684169579509653e-13 1.801443583605670529e-14 1.160930347080674219e-13
4.366000000000000000e+03 5.699222183227539062e+01 -3.045386505126953125e+01 -4.203368474684290867e-14 -1.801443583605670529e-14 -1.801443583605670529e-14 -7.205774334422682115e-14
4.367000000000000000e+03 5.782791900634765625e+01 -2.904275321960449219e+01 7.806255641895631925e-14 -5.804651735403371093e-14 6.004812227696550847e-15 0.000000000000000000e+00
4.368000000000000000e+03 5.648599243164062500e+01 -3.482505416870117188e+01 1.108388215736132165e-13 3.220080452281948169e-13 1.298540539419051898e-13 -1.661331391466375207e-13
4.369000000000000000e+03 5.615938186645507812e+01 -3.552880859375000000e+01 1.301042606982605321e-13 1.000802037949425141e-14 4.203368474684290867e-14 -4.803849782157240678e-14
4.370000000000000000e+03 5.582844543457031250e+01 -3.436550140380859375e+01 -2.001604075898850282e-15 1.020818019416107336e-13 3.002405859738391247e-14 -3.002406113848275424e-15
4.371000000000000000e+03 5.297075271606445312e+01 -3.410278701782226562e+01 -4.003208151797700565e-14 1.200962343895356499e-13 2.401924891078620339e-14 -2.802245536851800944e-14
4.372000000000000000e+03 5.024813461303710938e+01 -3.204331588745117188e+01 -1.040834085586084257e-13 1.841475648182988589e-13 2.401924891078620339e-14 -8.006416303595401129e-14
4.373000000000000000e+03 5.773899078369140625e+01 -2.796440505981445312e+01 -1.446158866486371708e-13 2.497001086801398095e-13 3.152526186606628700e-14 -1.351082687704252897e-14
4.374000000000000000e+03 5.405569458007812500e+01 -2.430617904663085938e+01 -1.140914348673333079e-13 -2.602085213965210642e-14 -4.203368474684290867e-14 2.802245536851800944e-14
4.375000000000000000e+03 6.054775238037109375e+01 -2.630700874328613281e+01 -7.005613842129502361e-15 3.172542252776605620e-13 9.307458910578006450e-14 3.602887167211341057e-14
4.376000000000000000e+03 3.698422241210937500e+01 -9.337574005126953125e+00 3.322662782932750414e-13 3.482791041242022656e-13 2.041636038832214672e-13 -4.403528797570881170e-14
4.377000000000000000e+03 3.773213958740234375e+01 -6.204858303070068359e+00 -6.204972381176551699e-14 2.021620040424873532e-13 4.203368474684290867e-14 7.205774334422682115e-14
4.378000000000000000e+03 3.524435043334960938e+01 -2.491279840469360352e+00 1.681347389873716347e-13 7.205774334422682115e-14 7.205774334422682115e-14 -4.003208151797700565e-15
4.379000000000000000e+03 6.797003936767578125e+01 -1.362438488006591797e+01 1.401122768425900472e-14 8.606896933441993136e-14 3.002405859738391247e-14 4.103288143834406265e-14
4.380000000000000000e+03 7.044669342041015625e+01 -1.608598327636718750e+01 2.552045217946857791e-13 1.551243129175455815e-13 1.230986477031639770e-13 -1.761411519028352468e-13
4.381000000000000000e+03 7.078861236572265625e+01 -1.667323112487792969e+01 1.621299259126421366e-13 -2.201764398785440585e-14 4.203368474684290867e-14 -8.006416303595401129e-14
4.382000000000000000e+03 6.506304168701171875e+01 -2.204614830017089844e+01 7.205774334422682115e-14 1.681347389873716347e-13 7.205774334422682115e-14 -1.441154866884536423e-13
4.383000000000000000e+03 6.496051788330078125e+01 -1.900659561157226562e+01 1.731387521417340758e-13 2.572061216354198931e-13 1.291034607778934751e-13 8.807057595141762341e-14
4.384000000000000000e+03 6.408805847167968750e+01 -1.760232353210449219e+01 2.361892690976030718e-13 2.842277736954390566e-13 1.561251128379126385e-13 2.301844560228735737e-14
4.385000000000000000e+03 6.749146270751953125e+01 -1.639729309082031250e+01 2.962373998448980528e-13 1.040834085586084257e-13 1.200962343895356499e-13 4.003208151797700565e-14
4.386000000000000000e+03 6.772408294677734375e+01 -1.554770946502685547e+01 3.763015561045884860e-13 2.401924891078620339e-14 1.200962343895356499e-13 1.801443651368306309e-13
4.387000000000000000e+03 6.819161987304687500e+01 -1.639137840270996094e+01 2.381908689383371858e-13 -2.181748434259417335e-13 6.004812227696550847e-15 4.403528797570881170e-14
4.388000000000000000e+03 6.995373535156250000e+01 -1.246015453338623047e+01 1.095878216731543953e-13 -4.453568793589234021e-14 1.951563910473907981e-14 8.706977603105056640e-14
4.389000000000000000e+03 7.053341674804687500e+01 -1.412485122680664062e+01 2.050080347452618024e-13 1.580954469984977018e-13 1.089310458783805668e-13 7.881315466516571749e-15
4.390000000000000000e+03 4.878337860107421875e+01 -8.831163406372070312e+00 -1.601283260719080226e-14 1.761411519028352468e-13 4.803849782157240678e-14 6.805453688649501509e-14
4.391000000000000000e+03 5.241661071777343750e+01 -1.631977844238281250e+01 1.200962445539310169e-14 2.802245536851800944e-14 1.200962445539310169e-14 -5.129110433902892008e-14
4.392000000000000000e+03 5.300853729248046875e+01 -1.668629837036132812e+01 1.140914348673333079e-13 -5.404330750817011586e-14 1.801443583605670529e-14 -1.361090737729900302e-13
4.393000000000000000e+03 5.632036972045898438e+01 -9.968051910400390625e+00 2.221780431074099615e-13 3.803047490097931360e-14 7.806255641895631925e-14 -2.341876692568689577e-13
4.394000000000000000e+03 5.430756378173828125e+01 -1.705668258666992188e+01 2.742197473867141744e-13 3.462775042834681516e-13 1.861491782115601290e-13 -1.881507780522942430e-13
4.395000000000000000e+03 5.545022201538085938e+01 -1.845155143737792969e+01 -1.200962445539310169e-14 2.922341730583755126e-13 8.406736949368581735e-14 -3.722983564231202580e-13
4.396000000000000000e+03 6.466104125976562500e+01 -1.829116058349609375e+01 -2.662133209187234062e-13 -1.140914348673333079e-13 -1.140914348673333079e-13 -1.000802037949425141e-15
4.397000000000000000e+03 5.476905822753906250e+01 -1.853635597229003906e+01 2.041636038832214672e-13 4.763817378766743715e-13 2.041636038832214672e-13 -2.762213472274482884e-13
4.398000000000000000e+03 5.518516540527343750e+01 -2.091334915161132812e+01 -4.003208151797700565e-15 5.244202424745103563e-13 1.561251128379126385e-13 -6.805453688649501509e-14
4.399000000000000000e+03 5.509564208984375000e+01 -2.253906250000000000e+01 9.207378240914942946e-14 5.884716000083278775e-13 2.041636038832214672e-13 9.607699564314481355e-14
4.400000000000000000e+03 5.480252075195312500e+01 -2.413410186767578125e+01 -5.604491073703601889e-14 1.361090737729900302e-13 2.401924891078620339e-14 1.601283260719080226e-14
4.401000000000000000e+03 6.632785034179687500e+01 -1.672084999084472656e+01 2.500754052621456669e-13 -3.627907334627106933e-15 7.393424658304684205e-14 1.459919967035372412e-13
4.402000000000000000e+03 6.571562194824218750e+01 -9.572808265686035156e+00 -6.905533680686207210e-14 -1.000802037949425141e-15 -2.101684237342145434e-14 1.761411519028352468e-13
4.403000000000000000e+03 3.034919548034667969e+01 -2.952318191528320312e+01 -1.000802021008766196e-13 1.401122870069854143e-13 1.200962445539310169e-14 -9.207378240914942946e-14
4.404000000000000000e+03 2.456682014465332031e+01 -3.194143867492675781e+01 -1.961571909677578551e-13 3.963175816169839383e-13 6.004811719476782494e-14 -6.405133042876320904e-14
4.405000000000000000e+03 6.787223815917968750e+01 -3.580710220336914062e+01 -4.403528797570881170e-14 4.003208151797700565e-15 -1.200962445539310169e-14 7.606094980195862720e-14
4.406000000000000000e+03 6.586724853515625000e+01 -3.170171165466308594e+01 6.505213034913026604e-14 1.651323256737433076e-13 6.905533680686207210e-14 -7.205774334422682115e-14
4.407000000000000000e+03 6.578548431396484375e+01 -3.247586441040039062e+01 -2.502005052521915490e-14 3.502807175174635357e-14 3.002406113848275424e-15 -2.401924891078620339e-14
4.408000000000000000e+03 4.703826141357421875e+01 -1.930690956115722656e+01 1.040834085586084257e-13 4.563657394693332314e-13 1.681347389873716347e-13 1.160930347080674219e-13
4.409000000000000000e+03 6.291894149780273438e+01 -2.574413681030273438e+01 1.301042606982605321e-13 4.903929909719217939e-13 1.861491782115601290e-13 -4.003208151797700565e-14
4.410000000000000000e+03 4.463316345214843750e+01 -2.723029708862304688e+01 -4.013216083238735354e-13 1.100882199392720293e-14 -1.170938346284344789e-13 4.003208151797700565e-15
4.411000000000000000e+03 4.511583328247070312e+01 -2.812488365173339844e+01 -3.722983564231202580e-13 9.207378240914942946e-14 -8.406736949368581735e-14 9.207378240914942946e-14
4.412000000000000000e+03 3.186877632141113281e+01 -2.789569091796875000e+01 -1.200962343895356499e-13 4.003208151797700565e-14 -2.401924891078620339e-14 -8.206576287668812530e-14
4.413000000000000000e+03 7.726667785644531250e+01 -8.805858612060546875e+00 1.000802021008766196e-13 2.001604075898850282e-14 3.602887167211341057e-14 6.405133042876320904e-14
4.414000000000000000e+03 7.807809448242187500e+01 -8.783062934875488281e+00 1.200962343895356499e-13 -4.003208151797700565e-14 2.401924891078620339e-14 -1.200962445539310169e-14
4.415000000000000000e+03 7.568777465820312500e+01 -9.343861579895019531e+00 -2.802245536851800944e-14 1.481186999224490264e-13 3.602887167211341057e-14 -2.802245536851800944e-14
4.416000000000000000e+03 7.582444763183593750e+01 -8.646311759948730469e+00 2.321860694161348437e-13 3.282630515067525012e-13 1.681347389873716347e-13 -4.803849782157240678e-14
4.417000000000000000e+03 7.524894714355468750e+01 -7.985220909118652344e+00 7.205774334422682115e-14 1.681347389873716347e-13 7.205774334422682115e-14 2.401924891078620339e-14
4.418000000000000000e+03 7.899368286132812500e+01 -1.020759773254394531e+01 2.802245536851800944e-14 1.200962445539310169e-14 1.200962445539310169e-14 -8.006416303595401129e-15
4.419000000000000000e+03 7.125783538818359375e+01 -1.179757404327392578e+01 2.742197473867141744e-13 1.060850151756061177e-13 1.140914348673333079e-13 1.040834085586084257e-13
4.420000000000000000e+03 7.055235290527343750e+01 -1.201423740386962891e+01 2.952365999245309958e-13 -5.004010189747125706e-15 8.706977603105056640e-14 -5.004010105043830980e-14
4.421000000000000000e+03 6.675872039794921875e+01 -9.899310111999511719e+00 1.501202929869195624e-14 2.351884691772360148e-13 7.506014988159157020e-14 1.200962445539310169e-14
4.422000000000000000e+03 6.497781372070312500e+01 -7.988619327545166016e+00 -2.602085213965210642e-14 1.261010474642651480e-13 3.002405859738391247e-14 1.601283260719080226e-14
4.423000000000000000e+03 6.545148468017578125e+01 -6.990754127502441406e+00 2.061652172764827373e-13 1.341074739322559162e-13 1.020818019416107336e-13 -2.401924891078620339e-14
4.424000000000000000e+03 6.486595153808593750e+01 -4.771421909332275391e+00 1.541235129971785245e-13 -9.407538902614712151e-14 1.801443583605670529e-14 8.406736949368581735e-14
4.425000000000000000e+03 6.566630554199218750e+01 -4.653612136840820312e+00 7.606094980195862720e-14 1.240994476235310340e-13 6.004811719476782494e-14 8.406736949368581735e-14
4.426000000000000000e+03 6.543982696533203125e+01 -6.190248966217041016e+00 -1.200962343895356499e-13 4.003208151797700565e-14 -2.401924891078620339e-14 4.003208151797700565e-15
4.427000000000000000e+03 6.142564773559570312e+01 -5.284289836883544922e+00 4.003208151797700565e-15 -4.403528797570881170e-14 -1.200962445539310169e-14 -9.607699564314481355e-14
4.428000000000000000e+03 6.105196762084960938e+01 -6.864367008209228516e+00 -5.204170427930421283e-14 -3.883111822540474822e-13 -1.321058605389946461e-13 -5.204170427930421283e-14
4.429000000000000000e+03 6.327158737182617188e+01 -7.449627399444580078e+00 -2.522020949285302960e-13 5.204170427930421283e-14 -6.004811719476782494e-14 -4.403528797570881170e-14
4.430000000000000000e+03 5.842695999145507812e+01 -1.000462341308593750e+01 1.100882216333379238e-13 -1.000802037949425141e-14 3.002405859738391247e-14 -9.057258252859884395e-14
4.431000000000000000e+03 4.736273574829101562e+01 -1.017013740539550781e+01 4.403528797570881170e-14 3.162534253572935050e-13 1.080866150163402317e-13 1.200962445539310169e-14
4.432000000000000000e+03 5.272993087768554688e+01 -5.614771366119384766e+00 1.661331391466375207e-13 8.947169719518421882e-13 3.182550251980276190e-13 -4.003208151797700565e-14
4.433000000000000000e+03 5.297798538208007812e+01 -3.203047990798950195e+00 -1.080866150163402317e-13 1.188952799061060439e-12 3.242598518252842732e-13 3.843079825725792542e-13
4.434000000000000000e+03 5.278161621093750000e+01 -1.768610119819641113e+00 9.827875275744690775e-13 5.584474939770989188e-13 4.623705389915355735e-13 7.886319635524996485e-13
4.435000000000000000e+03 5.322686386108398438e+01 -2.453732728958129883e+00 7.766223645080949645e-13 1.545238329653253473e-12 6.965582082484045312e-13 6.585277028542391164e-13
4.436000000000000000e+03 5.110432052612304688e+01 -2.117528915405273438e+00 1.200962445539310169e-14 5.084074437486374443e-13 1.561251128379126385e-13 4.803849782157240678e-14
4.437000000000000000e+03 4.875039672851562500e+01 -3.387168407440185547e+00 1.060850151756061177e-13 -4.603689120457471473e-14 1.801443583605670529e-14 -1.200962343895356499e-13
4.438000000000000000e+03 4.612902450561523438e+01 -2.780267000198364258e+00 4.803849782157240678e-14 4.323464600653609269e-13 1.441154866884536423e-13 -2.161732300326804634e-13
4.439000000000000000e+03 5.190714645385742188e+01 -2.513400793075561523e+00 5.544442942956306908e-13 4.663737386730038015e-13 3.062454261536229350e-13 2.722181475459800604e-13
4.440000000000000000e+03 4.432905578613281250e+01 -4.640336513519287109e+00 1.841475648182988589e-13 5.604491073703601889e-14 7.205774334422682115e-14 -1.921539912862896271e-13
4.441000000000000000e+03 4.359553909301757812e+01 -2.265523672103881836e+00 1.431146867680865853e-13 -2.131708302715792924e-13 -2.101684237342145434e-14 -1.441154866884536423e-13
4.442000000000000000e+03 4.284886550903320312e+01 -3.901721954345703125e+00 1.240994476235310340e-13 7.606094980195862720e-14 6.004811719476782494e-14 -2.001604075898850282e-15
4.443000000000000000e+03 4.057007598876953125e+01 -1.265192389488220215e+00 1.441154866884536423e-13 1.601283260719080226e-14 4.803849782157240678e-14 5.604491073703601889e-14
4.444000000000000000e+03 3.891719055175781250e+01 -2.853118658065795898e+00 1.070858150959731747e-13 -1.701363422162375377e-14 2.702165375408505793e-14 -6.655333022968085155e-14
4.445000000000000000e+03 3.905683135986328125e+01 -4.990663230419158936e-01 2.321860694161348437e-13 -3.122502256758252770e-13 -2.401924891078620339e-14 1.200962445539310169e-14
4.446000000000000000e+03 3.846664047241210938e+01 -5.193797349929809570e-01 2.121700303512122354e-13 -4.123304345529654746e-13 -6.004811719476782494e-14 -1.361090737729900302e-13
4.447000000000000000e+03 3.351715087890625000e+01 -2.409425020217895508e+00 2.211772431870429045e-13 4.903929774193946378e-14 8.106496295632106830e-14 1.281026608575264181e-13
4.448000000000000000e+03 3.572057723999023438e+01 -1.550466775894165039e+00 2.161732300326804634e-13 1.841475648182988589e-13 1.200962343895356499e-13 1.200962343895356499e-13
4.449000000000000000e+03 3.642359161376953125e+01 -1.269808888435363770e+00 1.361090737729900302e-13 1.040834085586084257e-13 7.205774334422682115e-14 1.040834085586084257e-13
4.450000000000000000e+03 3.711474990844726562e+01 -9.942010045051574707e-01 2.722181475459800604e-13 2.081668171172168513e-13 1.441154866884536423e-13 5.604491073703601889e-14
4.451000000000000000e+03 3.192338371276855469e+01 -3.047512054443359375e+00 4.873905641057663107e-13 1.631307258330091936e-13 1.951563910473907981e-13 -2.562053217150528361e-13
4.452000000000000000e+03 3.042547035217285156e+01 -3.750669479370117188e+00 3.933151818558827673e-13 3.973184086424053074e-13 2.371900690179701288e-13 -1.561251128379126385e-13
4.453000000000000000e+03 2.862605094909667969e+01 -2.873860359191894531e+00 1.222980050563649002e-12 -1.621299259126421366e-13 3.182550251980276190e-13 -8.006416303595401129e-14
4.454000000000000000e+03 2.894259834289550781e+01 -3.495717287063598633e+00 -1.104885388909793154e-12 -3.362694779747432694e-13 -4.323464600653609269e-13 3.362694779747432694e-13
4.455000000000000000e+03 2.958968925476074219e+01 -8.317989349365234375e+00 -9.607699564314481355e-14 -6.405133042876320904e-14 -4.803849782157240678e-14 3.202566521438160452e-14
4.456000000000000000e+03 2.715020179748535156e+01 -1.268801689147949219e+01 -3.396471743178502978e-13 -2.370649791923196137e-13 -1.730136487635564047e-13 -1.746399520222846613e-13
4.457000000000000000e+03 2.601345825195312500e+01 -1.265473842620849609e+01 -5.224186426337762423e-13 -2.582069215557869502e-13 -2.341876692568689577e-13 -1.481186999224490264e-13
4.458000000000000000e+03 2.037188148498535156e+01 -1.272963237762451172e+01 -2.256808563812218171e-13 -2.797241605012601440e-13 -1.516214996437337259e-13 1.441154866884536423e-13
4.459000000000000000e+03 1.916674804687500000e+01 -1.147031307220458984e+01 -3.995701881344404516e-13 -3.084972056456580791e-13 -2.124202235550404216e-13 2.602085213965210642e-14
4.460000000000000000e+03 1.860676574707031250e+01 -1.085883712768554688e+01 2.201764398785440585e-14 -8.206576287668812530e-14 -1.801443583605670529e-14 3.002405995263662808e-13
4.461000000000000000e+03 1.383769893646240234e+01 -1.385274696350097656e+01 -2.201764398785440585e-14 8.206576287668812530e-14 1.801443583605670529e-14 -1.165934346682509504e-13
4.462000000000000000e+03 1.715756988525390625e+01 -7.053049087524414062e+00 1.000802021008766196e-13 1.801443651368306309e-13 8.406736949368581735e-14 -4.003208151797700565e-15
4.463000000000000000e+03 1.732313728332519531e+01 -5.415956497192382812e+00 -1.721379386688398627e-13 2.922341730583755126e-13 3.602887167211341057e-14 1.200962445539310169e-14
4.464000000000000000e+03 1.771348571777343750e+01 -3.826605796813964844e+00 -8.406736949368581735e-14 2.842277736954390566e-13 6.004811719476782494e-14 2.161732300326804634e-13
4.465000000000000000e+03 1.725134277343750000e+01 -2.939168453216552734e+00 2.161732300326804634e-13 3.442758773376797254e-13 1.681347389873716347e-13 5.604491073703601889e-14
4.466000000000000000e+03 1.712892341613769531e+01 -4.956824779510498047e-01 4.443560862148199231e-13 -8.406736949368581735e-14 1.080866150163402317e-13 4.803849782157240678e-14
4.467000000000000000e+03 1.777546501159667969e+01 -3.924508988857269287e-01 3.803047557860567141e-13 -2.001604075898850282e-14 1.080866150163402317e-13 -1.601283260719080226e-14
4.468000000000000000e+03 1.770541000366210938e+01 -1.322348713874816895e+00 4.463576860555540371e-13 1.341074739322559162e-13 1.741395520621011328e-13 9.532638892660594276e-14
4.469000000000000000e+03 2.029633522033691406e+01 -7.591359615325927734e-01 3.945161471813340981e-12 7.185758607065884096e-13 1.399121161808902780e-12 1.274020927817531845e-12
4.470000000000000000e+03 1.897309875488281250e+01 -4.076252281665802002e-01 6.004811990527325616e-13 4.403528865333516951e-13 3.122502256758252770e-13 2.562053217150528361e-13
4.471000000000000000e+03 1.811790847778320312e+01 -8.147930502891540527e-01 7.405934589546636637e-13 1.801443651368306309e-13 2.762213472274482884e-13 2.682149478645118323e-13
4.472000000000000000e+03 1.576780700683593750e+01 -6.465103030204772949e-01 2.962373998448980528e-13 -5.604491073703601889e-14 7.205774334422682115e-14 3.202566521438160452e-14
4.473000000000000000e+03 1.365472984313964844e+01 -1.117797017097473145e+00 1.301042606982605321e-13 1.000802037949425141e-14 4.203368474684290867e-14 1.281026608575264181e-13
4.474000000000000000e+03 1.670186805725097656e+01 -5.337377548217773438e+00 -4.003208151797700565e-15 4.403528797570881170e-14 1.200962445539310169e-14 -1.601283260719080226e-14
4.475000000000000000e+03 1.135736179351806641e+01 -1.576196670532226562e+00 1.761411519028352468e-13 -1.601283260719080226e-14 4.803849782157240678e-14 1.200962343895356499e-13
4.476000000000000000e+03 1.057554435729980469e+01 -1.720779180526733398e+00 1.581267126786467525e-13 -2.982389996856321668e-13 -4.203368474684290867e-14 6.405133042876320904e-14
4.477000000000000000e+03 9.001577377319335938e+00 -1.821668505668640137e+00 1.200962343895356499e-13 2.802245740139708285e-13 1.200962343895356499e-13 1.361090737729900302e-13
4.478000000000000000e+03 7.442088127136230469e+00 -1.834363698959350586e+00 5.404330750817011586e-14 -1.140914348673333079e-13 -1.801443583605670529e-14 2.401924891078620339e-14
4.479000000000000000e+03 5.893511772155761719e+00 -1.837827920913696289e+00 -2.401924891078620339e-14 -5.604491073703601889e-14 -2.401924891078620339e-14 1.040834085586084257e-13
4.480000000000000000e+03 5.123886108398437500e+00 -1.845415830612182617e+00 9.007218256841531545e-14 -1.901523778930283570e-13 -3.002405859738391247e-14 4.003208151797700565e-14
4.481000000000000000e+03 4.510288238525390625e+00 -2.574420452117919922e+00 1.281026608575264181e-13 -1.281026608575264181e-13 0.000000000000000000e+00 8.006416303595401129e-14
4.482000000000000000e+03 2.732677221298217773e+00 -1.975360155105590820e+00 -4.603689120457471473e-14 -1.341074739322559162e-13 -5.404330750817011586e-14 1.521218996039172544e-13
4.483000000000000000e+03 3.837795853614807129e-01 -1.900737166404724121e+00 2.201764398785440585e-14 7.806255641895631925e-14 3.002405859738391247e-14 -3.602887167211341057e-14
4.484000000000000000e+03 4.575723707675933838e-01 -4.202141571044921875e+01 -1.601283260719080226e-14 3.362694779747432694e-13 9.607699564314481355e-14 3.202566521438160452e-14
4.485000000000000000e+03 5.482845306396484375e-01 -4.114916610717773438e+01 4.203368474684290867e-14 3.382710778154773834e-13 1.140914348673333079e-13 1.200962445539310169e-14
4.486000000000000000e+03 5.004225969314575195e-01 -4.036101913452148438e+01 5.304250758780305885e-14 2.972381997652651098e-13 1.050842084789754827e-13 5.604491073703601889e-14
4.487000000000000000e+03 3.837501108646392822e-01 -3.880303192138671875e+01 -2.001604075898850282e-14 2.201764432666758475e-13 6.004811719476782494e-14 4.403528797570881170e-14
4.488000000000000000e+03 4.355972111225128174e-01 -3.957842254638671875e+01 -6.204972381176551699e-14 2.021620040424873532e-13 4.203368474684290867e-14 -3.602887167211341057e-14
4.489000000000000000e+03 3.428550064563751221e-01 -3.725025939941406250e+01 5.804651735403371093e-14 1.621299259126421366e-13 6.605293026949732305e-14 -3.602887167211341057e-14
4.490000000000000000e+03 4.123091995716094971e-01 -3.570056152343750000e+01 -2.001604075898850282e-15 1.821459649775647449e-13 5.404330750817011586e-14 8.807057595141762341e-14
4.491000000000000000e+03 4.249188303947448730e-01 -3.489575958251953125e+01 -9.807859548387892756e-14 -4.203368474684290867e-14 -4.203368474684290867e-14 -4.403528797570881170e-14
4.492000000000000000e+03 4.182573258876800537e-01 -3.407981109619140625e+01 4.603689120457471473e-14 2.942358000041639388e-13 1.020818019416107336e-13 2.802245536851800944e-14
4.493000000000000000e+03 4.057303071022033691e-01 -3.326600646972656250e+01 1.200962445539310169e-14 1.881507780522942430e-13 6.004811719476782494e-14 -1.200962445539310169e-14
4.494000000000000000e+03 3.929145336151123047e-01 -3.245643234252929688e+01 2.201764398785440585e-14 2.381908689383371858e-13 7.806255641895631925e-14 -8.006416303595401129e-15
4.495000000000000000e+03 1.209238767623901367e+00 -3.328459548950195312e+01 -4.003208151797700565e-14 1.200962343895356499e-13 2.401924891078620339e-14 2.802245536851800944e-14
4.496000000000000000e+03 3.833793103694915771e-01 -3.165070152282714844e+01 5.404330750817011586e-14 2.061652172764827373e-13 7.806255641895631925e-14 -4.003208151797700565e-15
4.497000000000000000e+03 3.720761835575103760e-01 -2.922989273071289062e+01 -2.001604075898850282e-15 2.201764398785440585e-14 6.004812227696550847e-15 8.006416303595401129e-15
4.498000000000000000e+03 3.726858198642730713e-01 -2.842151641845703125e+01 -1.401122768425900472e-14 -6.004812227696550847e-15 -6.004812227696550847e-15 -2.001604075898850282e-14
4.499000000000000000e+03 3.730067610740661621e-01 -2.761208343505859375e+01 -1.200962445539310169e-14 1.321058605389946461e-13 3.602887167211341057e-14 -2.802245536851800944e-14
4.500000000000000000e+03 1.124044060707092285e+00 -2.841042900085449219e+01 -7.005614350349270714e-14 1.301042606982605321e-13 1.801443583605670529e-14 -5.204170427930421283e-14
4.501000000000000000e+03 1.811443924903869629e+00 -2.585786819458007812e+01 3.602887167211341057e-14 2.441956955655938399e-13 8.406736949368581735e-14 3.602887167211341057e-14
4.502000000000000000e+03 6.226326465606689453e+00 -2.148085784912109375e+01 1.641315257533762506e-13 2.762213472274482884e-13 1.321058605389946461e-13 -8.506816941405287436e-14
4.503000000000000000e+03 6.881857872009277344e+00 -2.277683639526367188e+01 2.281828697346666157e-13 3.722983564231202580e-13 1.801443651368306309e-13 -1.120898214740720378e-13
4.504000000000000000e+03 1.038359761238098145e+00 -2.513237190246582031e+01 1.801443583605670529e-14 2.822261738547049426e-13 9.007218256841531545e-14 1.160930347080674219e-13
4.505000000000000000e+03 3.477923274040222168e-01 -2.197635078430175781e+01 2.201764398785440585e-14 3.983192085627723644e-13 1.261010474642651480e-13 -4.803849782157240678e-14
4.506000000000000000e+03 1.031052231788635254e+00 -2.194794082641601562e+01 1.200962343895356499e-13 4.403528865333516951e-13 1.681347389873716347e-13 -7.606094980195862720e-14
4.507000000000000000e+03 3.595969974994659424e-01 -2.116692733764648438e+01 8.606896933441993136e-14 1.741395520621011328e-13 7.806255641895631925e-14 -4.403528797570881170e-14
4.508000000000000000e+03 1.048236727714538574e+00 -1.945706748962402344e+01 4.003208151797700565e-14 2.001604042017532392e-13 7.205774334422682115e-14 -4.403528797570881170e-14
4.509000000000000000e+03 5.115263462066650391e+00 -1.857559013366699219e+01 4.003208151797700565e-15 -4.403528797570881170e-14 -1.200962445539310169e-14 -2.401924891078620339e-14
4.510000000000000000e+03 1.726501464843750000e+00 -1.858037185668945312e+01 5.204170427930421283e-14 6.805453688649501509e-14 3.602887167211341057e-14 -2.001604075898850282e-14
4.511000000000000000e+03 3.561714589595794678e-01 -1.792754173278808594e+01 3.402726844324750755e-14 1.060850151756061177e-13 4.203368474684290867e-14 8.006416303595401129e-14
4.512000000000000000e+03 5.445902824401855469e+00 -1.602079010009765625e+01 1.701363388281057487e-13 2.101684169579509653e-13 1.140914348673333079e-13 4.003208151797700565e-14
4.513000000000000000e+03 3.555025756359100342e-01 -1.470529079437255859e+01 -1.801443651368306309e-13 6.004811719476782494e-14 -3.602887167211341057e-14 -3.602887167211341057e-14
4.514000000000000000e+03 3.519596159458160400e-01 -1.390206718444824219e+01 1.681347389873716347e-13 7.205774334422682115e-14 7.205774334422682115e-14 -2.401924891078620339e-14
4.515000000000000000e+03 3.502445518970489502e-01 -1.309991645812988281e+01 -1.301042606982605321e-13 -1.000802037949425141e-14 -4.203368474684290867e-14 -4.803849782157240678e-14
4.516000000000000000e+03 3.504468798637390137e-01 -1.229875373840332031e+01 1.140914348673333079e-13 -1.341074739322559162e-13 -6.004812227696550847e-15 -2.001604075898850282e-14
4.517000000000000000e+03 3.514760434627532959e-01 -1.149778270721435547e+01 -1.040834085586084257e-13 2.401924891078620339e-14 -2.401924891078620339e-14 -6.004811719476782494e-14
4.518000000000000000e+03 1.051334381103515625e+00 -1.219285297393798828e+01 -7.005614350349270714e-14 -3.002405859738391247e-14 -3.002405859738391247e-14 -8.006416303595401129e-15
4.519000000000000000e+03 3.515428602695465088e-01 -1.069640731811523438e+01 1.040834085586084257e-13 -2.401924891078620339e-14 2.401924891078620339e-14 7.205774334422682115e-14
4.520000000000000000e+03 3.428393006324768066e-01 -8.295571327209472656e+00 -1.421138868477195283e-13 -1.981587908084919691e-13 -1.020818019416107336e-13 3.602887167211341057e-14
4.521000000000000000e+03 3.366988301277160645e-01 -7.498945236206054688e+00 7.005614350349270714e-14 -2.902325732176413986e-13 -6.605293026949732305e-14 1.120898214740720378e-13
4.522000000000000000e+03 3.306590914726257324e-01 -6.704052448272705078e+00 -2.802245536851800944e-14 -1.200962445539310169e-14 -1.200962445539310169e-14 1.200962445539310169e-14
4.523000000000000000e+03 3.795500278472900391e+00 -2.731382608413696289e+00 6.004811719476782494e-14 -2.001604075898850282e-14 1.200962445539310169e-14 -3.202566521438160452e-14
4.524000000000000000e+03 9.929080009460449219e-01 -6.667384147644042969e+00 -6.004812227696550847e-15 -9.407538902614712151e-14 -3.002405859738391247e-14 1.160930347080674219e-13
4.525000000000000000e+03 5.354251861572265625e+00 -3.189968824386596680e+00 0.000000000000000000e+00 0.000000000000000000e+00 0.000000000000000000e+00 6.405133042876320904e-14
4.526000000000000000e+03 1.929263710975646973e+00 -1.923728346824645996e+00 2.802245536851800944e-14 1.200962445539310169e-14 1.200962445539310169e-14 -4.403528797570881170e-14
4.527000000000000000e+03 7.961780548095703125e+01 -4.203356552124023438e+01 2.001604075898850282e-14 4.203368339159019307e-13 1.321058605389946461e-13 -5.604491073703601889e-14
4.528000000000000000e+03 7.962372589111328125e+01 -4.115939331054687500e+01 3.602887167211341057e-14 2.441956955655938399e-13 8.406736949368581735e-14 2.802245536851800944e-14
4.529000000000000000e+03 7.544533538818359375e+01 -3.802641677856445312e+01 -6.004812227696550847e-15 2.261812563414053456e-13 6.605293026949732305e-14 1.120898214740720378e-13
4.530000000000000000e+03 5.236494827270507812e+01 -3.738220977783203125e+01 6.004812227696550847e-15 9.407538902614712151e-14 3.002405859738391247e-14 -6.805453688649501509e-14
4.531000000000000000e+03 3.406249237060546875e+01 -3.735380935668945312e+01 -1.301042606982605321e-14 6.305052373213257400e-14 1.501202929869195624e-14 6.405133042876320904e-14
4.532000000000000000e+03 1.474074125289916992e+00 -4.004655838012695312e+01 -6.705373696612795809e-14 3.372702778951103264e-13 8.106496295632106830e-14 8.006416303595401129e-15
4.533000000000000000e+03 1.611321806907653809e+00 -4.184968566894531250e+01 -2.001604075898850282e-15 3.422742774969456114e-13 1.020818019416107336e-13 -5.004010105043830980e-14
4.534000000000000000e+03 7.960642242431640625e+01 -7.902947425842285156e+00 1.801443583605670529e-14 1.220978477827969200e-13 4.203368474684290867e-14 2.001604075898850282e-14
4.535000000000000000e+03 7.962556457519531250e+01 -8.692288398742675781e+00 -1.401122768425900472e-14 1.541235129971785245e-13 4.203368474684290867e-14 -1.200962445539310169e-14
4.536000000000000000e+03 7.964794158935546875e+01 -9.476462364196777344e+00 -1.401122768425900472e-14 -6.004812227696550847e-15 -6.004812227696550847e-15 3.202566521438160452e-14
4.537000000000000000e+03 7.781353759765625000e+01 -9.922264099121093750e+00 1.541235129971785245e-13 6.605293026949732305e-14 6.605293026949732305e-14 1.200962445539310169e-14
4.538000000000000000e+03 7.965798950195312500e+01 -1.104674530029296875e+01 -2.602085213965210642e-14 -1.941555911270237411e-13 -6.605293026949732305e-14 -4.403528797570881170e-14
4.539000000000000000e+03 7.963207244873046875e+01 -1.341120052337646484e+01 -1.261010474642651480e-13 -5.404330750817011586e-14 -5.404330750817011586e-14 5.204170427930421283e-14
4.540000000000000000e+03 7.963239288330078125e+01 -1.420847129821777344e+01 1.581267126786467525e-13 -2.982389996856321668e-13 -4.203368474684290867e-14 8.006416303595401129e-15
4.541000000000000000e+03 7.963460540771484375e+01 -1.500710678100585938e+01 -9.407538902614712151e-14 -2.461972954063279539e-13 -1.020818019416107336e-13 4.003208151797700565e-15
4.542000000000000000e+03 7.741471862792968750e+01 -1.479179477691650391e+01 9.207378240914942946e-14 1.080866150163402317e-13 6.004811719476782494e-14 3.202566521438160452e-14
4.543000000000000000e+03 7.963675689697265625e+01 -1.580648994445800781e+01 1.261010474642651480e-13 -1.060850151756061177e-13 6.004812227696550847e-15 -5.204170427930421283e-14
4.544000000000000000e+03 7.890588378906250000e+01 -1.572063159942626953e+01 -1.421138868477195283e-13 -1.981587908084919691e-13 -1.020818019416107336e-13 4.403528797570881170e-14
4.545000000000000000e+03 7.414383697509765625e+01 -2.103628349304199219e+01 1.040834085586084257e-13 -1.841475648182988589e-13 -2.401924891078620339e-14 8.406736949368581735e-14
4.546000000000000000e+03 7.761383819580078125e+01 -2.025012588500976562e+01 8.206576287668812530e-14 2.181748434259417335e-13 9.007218256841531545e-14 6.405133042876320904e-14
4.547000000000000000e+03 7.356997680664062500e+01 -2.192665863037109375e+01 4.803849782157240678e-14 -4.803849782157240678e-14 0.000000000000000000e+00 3.202566521438160452e-14
4.548000000000000000e+03 7.898449707031250000e+01 -2.125536346435546875e+01 -8.006416303595401129e-15 8.807057595141762341e-14 2.401924891078620339e-14 -5.604491073703601889e-14
4.549000000000000000e+03 7.301492309570312500e+01 -2.666199493408203125e+01 1.421138868477195283e-13 1.981587908084919691e-13 1.020818019416107336e-13 -2.401924891078620339e-14
4.550000000000000000e+03 7.626731109619140625e+01 -2.808407974243164062e+01 4.803849782157240678e-14 1.120898214740720378e-13 4.803849782157240678e-14 -7.205774334422682115e-14
4.551000000000000000e+03 7.964707183837890625e+01 -2.614024353027343750e+01 3.002405859738391247e-14 1.501202997631831404e-13 5.404330750817011586e-14 -6.405133042876320904e-14
4.552000000000000000e+03 7.964647674560546875e+01 -2.693411636352539062e+01 -1.341074739322559162e-13 3.402726844324750755e-14 -3.002405859738391247e-14 4.003208151797700565e-15
4.553000000000000000e+03 7.893552398681640625e+01 -2.682168388366699219e+01 -9.607699564314481355e-14 9.607699564314481355e-14 0.000000000000000000e+00 -4.803849782157240678e-14
4.554000000000000000e+03 7.964294433593750000e+01 -2.852174758911132812e+01 -1.861491782115601290e-13 -3.402726844324750755e-14 -6.605293026949732305e-14 0.000000000000000000e+00
4.555000000000000000e+03 7.961959838867187500e+01 -3.091434288024902344e+01 -1.401122768425900472e-14 3.142518255165593910e-13 9.007218256841531545e-14 1.601283260719080226e-14
4.556000000000000000e+03 7.960567474365234375e+01 -3.171269798278808594e+01 -2.802245536851800944e-14 -1.200962445539310169e-14 -1.200962445539310169e-14 -1.200962445539310169e-14
4.557000000000000000e+03 7.958904266357421875e+01 -3.251292419433593750e+01 -5.004010105043830980e-14 7.005614350349270714e-14 6.004812227696550847e-15 -1.200962445539310169e-14
4.558000000000000000e+03 7.956971740722656250e+01 -3.331835937500000000e+01 5.804651735403371093e-14 1.621299259126421366e-13 6.605293026949732305e-14 -6.805453688649501509e-14
4.559000000000000000e+03 7.871826934814453125e+01 -3.323567199707031250e+01 -1.120898214740720378e-13 1.120898214740720378e-13 0.000000000000000000e+00 -4.003208151797700565e-15
4.560000000000000000e+03 7.953096008300781250e+01 -3.495467376708984375e+01 5.804651735403371093e-14 1.621299259126421366e-13 6.605293026949732305e-14 -1.200962445539310169e-14
4.561000000000000000e+03 7.963270568847656250e+01 -3.736744689941406250e+01 1.000802021008766196e-13 3.402726776562114974e-13 1.321058605389946461e-13 3.602887167211341057e-14
4.562000000000000000e+03 7.957100677490234375e+01 -3.810383224487304688e+01 -3.402726844324750755e-14 2.141716301919463494e-13 5.404330750817011586e-14 -1.601283260719080226e-14
4.563000000000000000e+03 7.954185485839843750e+01 -3.893220520019531250e+01 5.604491073703601889e-14 5.044041898570605920e-13 1.681347389873716347e-13 2.802245536851800944e-14
4.564000000000000000e+03 7.971598815917968750e+01 -4.042079925537109375e+01 -1.361090737729900302e-13 2.161732300326804634e-13 2.401924891078620339e-14 0.000000000000000000e+00
4.565000000000000000e+03 4.653059768676757812e+01 -2.880417251586914062e+01 -1.796439651766471024e-13 1.451162933850842773e-14 -4.953969770212299228e-14 6.605293026949732305e-14
4.566000000000000000e+03 4.940138244628906250e+01 -3.185416030883789062e+01 2.041636038832214672e-13 3.162534253572935050e-13 1.561251128379126385e-13 -1.200962343895356499e-13
4.567000000000000000e+03 4.923287963867187500e+01 -3.402289581298828125e+01 2.802245536851800944e-14 1.721379386688398627e-13 6.004811719476782494e-14 8.006416303595401129e-15
4.568000000000000000e+03 4.723107147216796875e+01 -3.663460540771484375e+01 -2.595830180581598645e-13 -1.570008093801020244e-13 -1.249751441657204198e-13 -3.853087824929463112e-14
4.569000000000000000e+03 4.670731735229492188e+01 -3.724053955078125000e+01 -1.506206997233666689e-13 -6.455173038894673754e-14 -6.455173038894673754e-14 -9.407538902614712151e-14
4.570000000000000000e+03 4.531571197509765625e+01 -3.942644119262695312e+01 -1.941555911270237411e-13 5.404330750817011586e-14 -4.203368474684290867e-14 3.803047490097931360e-14
4.571000000000000000e+03 4.503736877441406250e+01 -3.802785491943359375e+01 -2.942358000041639388e-13 -1.261010474642651480e-13 -1.261010474642651480e-13 -6.004811719476782494e-14
4.572000000000000000e+03 4.410485076904296875e+01 -3.817295837402343750e+01 -3.522823038056704936e-13 3.202566521438160452e-14 -9.607699564314481355e-14 1.200962445539310169e-14
4.573000000000000000e+03 3.961775588989257812e+01 -3.136281585693359375e+01 -3.602887167211341057e-14 3.963175816169839383e-13 1.080866150163402317e-13 2.321860694161348437e-13
4.574000000000000000e+03 4.073115921020507812e+01 -2.927350425720214844e+01 -3.302646513474866152e-14 1.230986477031639770e-13 2.702165375408505793e-14 9.607699564314481355e-14
4.575000000000000000e+03 4.127136230468750000e+01 -2.863605880737304688e+01 -1.608789192359197373e-13 3.885613890104028245e-13 6.830473686658677934e-14 6.004811719476782494e-14
4.576000000000000000e+03 2.305181884765625000e+01 -2.904902267456054688e+01 -2.001604075898850282e-14 6.004811719476782494e-14 1.200962445539310169e-14 -1.276022524270134170e-14
4.577000000000000000e+03 2.402200317382812500e+01 -3.037286186218261719e+01 -2.802245536851800944e-14 3.082470259943570490e-13 8.406736949368581735e-14 -8.306656957331876034e-14
4.578000000000000000e+03 2.437278938293457031e+01 -3.113082122802734375e+01 1.120898214740720378e-13 2.081668171172168513e-13 9.607699564314481355e-14 -5.204170427930421283e-14
4.579000000000000000e+03 2.553612709045410156e+01 -3.438102340698242188e+01 -1.521218996039172544e-13 3.923143819355157103e-13 7.205774334422682115e-14 2.401924891078620339e-14
4.580000000000000000e+03 2.466558456420898438e+01 -3.521299362182617188e+01 -8.006416303595401129e-15 4.083272077664429345e-13 1.200962343895356499e-13 -6.004811719476782494e-14
4.581000000000000000e+03 2.198101043701171875e+01 -3.931631851196289062e+01 1.401122768425900472e-14 6.004812227696550847e-15 6.004812227696550847e-15 2.802245536851800944e-14
4.582000000000000000e+03 1.985684967041015625e+01 -4.006953048706054688e+01 9.907939540424598457e-14 -4.903929774193946378e-14 1.501202929869195624e-14 -9.207378240914942946e-14
4.583000000000000000e+03 1.919574356079101562e+01 -4.032416534423828125e+01 5.804651735403371093e-14 2.001604075898850282e-15 1.801443583605670529e-14 -3.302646513474866152e-14
4.584000000000000000e+03 1.502000331878662109e+01 -3.877118682861328125e+01 -1.080866150163402317e-13 -2.522020949285302960e-13 -1.080866150163402317e-13 -2.001604075898850282e-14
4.585000000000000000e+03 1.317442798614501953e+01 -3.609502029418945312e+01 -1.240994476235310340e-13 8.406736949368581735e-14 -1.200962445539310169e-14 -3.202566521438160452e-14
4.586000000000000000e+03 1.303286552429199219e+01 -3.362908935546875000e+01 1.200962445539310169e-14 1.881507780522942430e-13 6.004811719476782494e-14 3.202566521438160452e-14
4.587000000000000000e+03 1.265649127960205078e+01 -3.185429000854492188e+01 1.481186999224490264e-13 -2.802245536851800944e-14 3.602887167211341057e-14 -8.006416303595401129e-15
4.588000000000000000e+03 1.331241893768310547e+01 -3.199608802795410156e+01 -1.020818019416107336e-13 2.001604075898850282e-15 -3.002405859738391247e-14 3.202566521438160452e-14
4.589000000000000000e+03 1.436540699005126953e+01 -2.976863861083984375e+01 1.721379386688398627e-13 3.482791041242022656e-13 1.561251128379126385e-13 2.642117210779892922e-13
4.590000000000000000e+03 1.484374713897705078e+01 -2.910450744628906250e+01 1.871499781319271860e-13 2.632109211576222352e-13 1.351082738526229732e-13 2.562053217150528361e-13
4.591000000000000000e+03 1.652630805969238281e+01 -2.730618286132812500e+01 2.279326629783112734e-13 2.349382624208806725e-13 1.388612803302630150e-13 2.722181475459800604e-13
4.592000000000000000e+03 1.888121986389160156e+01 -2.657854080200195312e+01 8.206576287668812530e-14 2.181748434259417335e-13 9.007218256841531545e-14 -1.200962445539310169e-14
4.593000000000000000e+03 1.807179641723632812e+01 -2.666558074951171875e+01 9.807859548387892756e-14 4.203368474684290867e-14 4.203368474684290867e-14 9.207378240914942946e-14
4.594000000000000000e+03 3.689872741699218750e+01 -1.641543197631835938e+01 -1.139663314891556367e-13 4.265918469707231930e-14 -2.139214234355910071e-14 -7.506014649345978118e-15
4.595000000000000000e+03 3.748244857788085938e+01 -1.699717140197753906e+01 2.952365863720038397e-14 1.956567910075743266e-13 6.755413692631148659e-14 7.806255641895631925e-14
4.596000000000000000e+03 3.909629058837890625e+01 -1.987836074829101562e+01 4.003208151797700565e-15 5.964779993712643336e-13 1.801443651368306309e-13 -1.040834085586084257e-13
4.597000000000000000e+03 3.877577209472656250e+01 -1.911845207214355469e+01 -4.403528797570881170e-14 4.843881914497194519e-13 1.321058605389946461e-13 -1.921539912862896271e-13
4.598000000000000000e+03 3.937908935546875000e+01 -2.065711212158203125e+01 8.606896933441993136e-14 8.146528156921517549e-13 2.702165477052459464e-13 -2.642117210779892922e-13
4.599000000000000000e+03 3.964843750000000000e+01 -2.314409446716308594e+01 -2.201764398785440585e-14 4.023224082442405924e-13 1.140914348673333079e-13 9.207378240914942946e-14
4.600000000000000000e+03 4.124838638305664062e+01 -2.630510711669921875e+01 -9.607699564314481355e-14 2.562053217150528361e-13 4.803849782157240678e-14 1.681347389873716347e-13
4.601000000000000000e+03 3.806564712524414062e+01 -2.687595558166503906e+01 -7.105694342385976414e-14 1.010810020212436766e-13 9.007217918028352643e-15 -8.506816941405287436e-14
4.602000000000000000e+03 3.863668441772460938e+01 -3.173834419250488281e+01 1.501202997631831404e-13 1.100882216333379238e-13 7.806255641895631925e-14 1.721379386688398627e-13
4.603000000000000000e+03 3.087174034118652344e+01 -2.666748046875000000e+01 -1.050842084789754827e-13 7.506014988159157020e-14 -9.007217918028352643e-15 1.100882199392720293e-14
4.604000000000000000e+03 3.038668823242187500e+01 -2.510673522949218750e+01 1.045838085187919542e-13 3.507810903725927520e-13 1.366094737331735587e-13 -3.427746842333927180e-14
4.605000000000000000e+03 2.946759414672851562e+01 -2.376239204406738281e+01 1.861491782115601290e-13 4.343480599060950409e-13 1.861491782115601290e-13 -1.531227130768114675e-13
4.606000000000000000e+03 2.919943046569824219e+01 -2.047384643554687500e+01 1.881507780522942430e-13 4.923945908126559079e-13 2.041636038832214672e-13 1.200962343895356499e-13
4.607000000000000000e+03 3.006997299194335938e+01 -1.819151496887207031e+01 4.803849782157240678e-14 1.120898214740720378e-13 4.803849782157240678e-14 9.607699564314481355e-14
4.608000000000000000e+03 3.157679748535156250e+01 -1.628071975708007812e+01 -1.271018609371593611e-13 3.702967498061225660e-14 -2.702165375408505793e-14 -2.602085213965210642e-14
4.609000000000000000e+03 3.222726058959960938e+01 -1.572704410552978516e+01 -2.954867795758320259e-13 -1.723881454251952050e-13 -1.403624802108136005e-13 7.506014649345978118e-15
4.610000000000000000e+03 1.486855506896972656e+01 -1.504658222198486328e+01 -1.150922347877003649e-13 -9.507618894651417851e-14 -6.305052373213257400e-14 3.522823038056704936e-13
4.611000000000000000e+03 1.565021324157714844e+01 -1.595504283905029297e+01 -8.406736949368581735e-14 2.842277736954390566e-13 6.004811719476782494e-14 1.000802021008766196e-13
4.612000000000000000e+03 1.577715110778808594e+01 -1.897278785705566406e+01 1.140914348673333079e-13 3.462775042834681516e-13 1.381106736137241442e-13 -1.601283260719080226e-14
4.613000000000000000e+03 1.404150962829589844e+01 -2.155609321594238281e+01 3.002405859738391247e-14 2.301844695754007297e-13 7.806255641895631925e-14 8.206576287668812530e-14
4.614000000000000000e+03 1.293136119842529297e+01 -2.218865776062011719e+01 1.481186999224490264e-13 1.321058605389946461e-13 8.406736949368581735e-14 1.481186999224490264e-13
4.615000000000000000e+03 9.203991889953613281e+00 -2.285392761230468750e+01 -3.402726844324750755e-14 -1.060850151756061177e-13 -4.203368474684290867e-14 8.807057595141762341e-14
4.616000000000000000e+03 5.731070518493652344e+00 -2.089891052246093750e+01 2.101684237342145434e-14 4.903929774193946378e-14 2.101684237342145434e-14 -1.541235129971785245e-13
4.617000000000000000e+03 5.296283721923828125e+00 -1.778854560852050781e+01 6.805453688649501509e-14 -1.080866150163402317e-13 -1.200962445539310169e-14 1.761411519028352468e-13
4.618000000000000000e+03 6.890586376190185547e+00 -1.504628467559814453e+01 2.110460786165779812e-13 2.789364063077864886e-13 1.469947481878147721e-13 1.263942563892866966e-13
4.619000000000000000e+03 7.966219425201416016e+00 -1.389185810089111328e+01 2.401924687790712998e-13 2.401924687790712998e-13 1.441154866884536423e-13 2.071660171968497943e-13
4.620000000000000000e+03 9.104389190673828125e+00 -1.288364696502685547e+01 1.000802037949425141e-15 2.291836696550336727e-13 6.905533680686207210e-14 1.321058605389946461e-13
4.621000000000000000e+03 6.405711364746093750e+01 -2.855028533935546875e+01 1.119647248721579447e-13 1.544988095791843818e-13 7.993905965777634015e-14 -2.599583146401657219e-13
4.622000000000000000e+03 6.459651947021484375e+01 -2.912007713317871094e+01 2.504507018441515243e-13 1.573761195146350378e-13 1.223480409866251062e-13 -1.683849321911998209e-13
4.623000000000000000e+03 6.626786041259765625e+01 -3.096335792541503906e+01 7.005614350349270714e-14 3.002405859738391247e-14 3.002405859738391247e-14 -7.906335633932337625e-14
4.624000000000000000e+03 6.552561187744140625e+01 -3.496024322509765625e+01 -2.401924891078620339e-14 -5.604491073703601889e-14 -2.401924891078620339e-14 -4.003208151797700565e-15
4.625000000000000000e+03 6.359954452514648438e+01 -3.740613937377929688e+01 7.568565491401866435e-15 -8.825822424242055209e-14 -2.420689889585502658e-14 4.478589130411589347e-14
4.626000000000000000e+03 6.288111495971679688e+01 -3.790147399902343750e+01 4.103288143834406265e-14 1.090874217129708668e-13 4.503609128420765773e-14 -3.202566521438160452e-14
4.627000000000000000e+03 5.829135513305664062e+01 -3.740292739868164062e+01 -1.801443583605670529e-14 3.803047490097931360e-14 6.004812227696550847e-15 -1.271018609371593611e-13
4.628000000000000000e+03 5.767805862426757812e+01 -3.676823806762695312e+01 1.623175742036450653e-13 1.610665675269226660e-13 9.701524387442303499e-14 -1.003304020809683839e-13
4.629000000000000000e+03 5.646561431884765625e+01 -3.199279212951660156e+01 -6.605293026949732305e-14 2.461972954063279539e-13 5.404330750817011586e-14 -3.202566521438160452e-14
4.630000000000000000e+03 5.668428039550781250e+01 -3.121232414245605469e+01 -7.005614350349270714e-14 -3.002405859738391247e-14 -3.002405859738391247e-14 8.006416303595401129e-15
4.631000000000000000e+03 6.206516647338867188e+01 -2.661848449707031250e+01 2.502004950877961820e-13 4.503609128420765773e-13 2.101684169579509653e-13 -1.361090737729900302e-13
4.632000000000000000e+03 4.284447860717773438e+01 -2.018653631210327148e+00 8.006416303595401129e-15 2.321860694161348437e-13 7.205774334422682115e-14 -1.761411519028352468e-13
4.633000000000000000e+03 4.608050537109375000e+01 -3.499747276306152344e+00 1.040834085586084257e-13 -1.841475648182988589e-13 -2.401924891078620339e-14 -2.602085213965210642e-13
4.634000000000000000e+03 5.206446838378906250e+01 -5.743882656097412109e+00 7.606094980195862720e-14 6.044843987342007896e-13 2.041636038832214672e-13 -8.406736949368581735e-14
4.635000000000000000e+03 4.718643951416015625e+01 -1.099174404144287109e+01 2.261812563414053456e-13 3.142518255165593910e-13 1.621299259126421366e-13 5.204170427930421283e-14
4.636000000000000000e+03 4.603759384155273438e+01 -1.226135349273681641e+01 5.204170427930421283e-14 6.805453688649501509e-14 3.602887167211341057e-14 -6.455173038894673754e-14
4.637000000000000000e+03 4.475300216674804688e+01 -1.316987419128417969e+01 -2.031628039628544102e-13 1.931547912066566841e-13 -3.002406113848275424e-15 4.303448466720996568e-14
4.638000000000000000e+03 4.347677230834960938e+01 -1.355432224273681641e+01 -4.523625126828106913e-13 1.200962445539310169e-14 -1.321058605389946461e-13 1.000802037949425141e-14
4.639000000000000000e+03 4.189250564575195312e+01 -1.344357872009277344e+01 -5.524426944548965768e-13 -8.006416303595401129e-15 -1.681347389873716347e-13 2.401924891078620339e-14
4.640000000000000000e+03 3.972069549560546875e+01 -1.220535469055175781e+01 -2.199887949756729189e-13 4.297193636625291913e-14 -5.310505588876010541e-14 -4.553649124439118623e-14
4.641000000000000000e+03 3.916553497314453125e+01 -1.156246376037597656e+01 1.075862116680249142e-14 1.418636800913641860e-13 4.578669122448295048e-14 -1.501202929869195624e-14
4.642000000000000000e+03 3.795656204223632812e+01 -1.341440486907958984e+01 -1.301042606982605321e-13 3.102486258350911630e-13 5.404330750817011586e-14 5.604491073703601889e-14
4.643000000000000000e+03 3.761089324951171875e+01 -9.785979270935058594e+00 5.554451077685249039e-14 6.955573676704560060e-14 3.753007494079578510e-14 -1.601283260719080226e-13
4.644000000000000000e+03 3.724787521362304688e+01 -8.543817520141601562e+00 6.605293026949732305e-14 3.943159817762498243e-13 1.381106736137241442e-13 -6.405133042876320904e-14
4.645000000000000000e+03 3.798937988281250000e+01 -4.003567218780517578e+00 1.000802021008766196e-13 -1.401122870069854143e-13 -1.200962445539310169e-14 1.561251128379126385e-13
4.646000000000000000e+03 3.696035385131835938e+01 -2.628155469894409180e+00 1.321058605389946461e-13 1.481186999224490264e-13 8.406736949368581735e-14 2.401924891078620339e-14
4.647000000000000000e+03 7.235575866699218750e+01 -1.827719116210937500e+01 -3.002406113848275424e-15 -7.005613842129502361e-15 -3.002406113848275424e-15 -3.340176849301809692e-14
4.648000000000000000e+03 7.320491790771484375e+01 -1.959866333007812500e+01 -1.200962445539310169e-14 -2.802245536851800944e-14 -1.200962445539310169e-14 2.001604075898850282e-14
4.649000000000000000e+03 7.357397460937500000e+01 -2.271271705627441406e+01 -2.481988952470620680e-13 1.681347389873716347e-13 -2.401924891078620339e-14 7.205774334422682115e-14
4.650000000000000000e+03 7.190765380859375000e+01 -2.552955436706542969e+01 3.042437992078345088e-13 -1.441154866884536423e-13 4.803849782157240678e-14 2.161732300326804634e-13
4.651000000000000000e+03 7.118669128417968750e+01 -2.583436393737792969e+01 3.462775042834681516e-13 1.941555911270237411e-13 1.621299259126421366e-13 1.200962343895356499e-13
4.652000000000000000e+03 6.878408813476562500e+01 -2.614645195007324219e+01 1.321058605389946461e-13 -1.721379386688398627e-13 -1.200962445539310169e-14 9.607699564314481355e-14
4.653000000000000000e+03 6.679119110107421875e+01 -2.469729042053222656e+01 2.251804564210382886e-14 1.926543912464731556e-13 6.455173038894673754e-14 -5.804651735403371093e-14
4.654000000000000000e+03 6.571430969238281250e+01 -2.351677131652832031e+01 6.004811719476782494e-14 3.002405995263662808e-13 1.080866150163402317e-13 -1.681347389873716347e-13
4.655000000000000000e+03 6.470946502685546875e+01 -2.311593437194824219e+01 1.200962343895356499e-13 1.200962343895356499e-13 7.205774334422682115e-14 5.004010105043830980e-14
4.656000000000000000e+03 6.496739196777343750e+01 -2.125913619995117188e+01 -4.003208151797700565e-14 4.403528865333516951e-13 1.200962343895356499e-13 -6.805453688649501509e-14
4.657000000000000000e+03 6.532017517089843750e+01 -1.780460548400878906e+01 3.052446194569922999e-14 1.045838085187919542e-13 4.053248147816053415e-14 4.303448466720996568e-14
4.658000000000000000e+03 6.620012664794921875e+01 -1.553977394104003906e+01 1.636311257931927221e-13 1.616295259524586081e-13 9.757819552369539906e-14 3.602887167211341057e-14
4.659000000000000000e+03 6.891291809082031250e+01 -1.631626892089843750e+01 1.921539912862896271e-13 -1.921539912862896271e-13 0.000000000000000000e+00 -2.001604075898850282e-14
4.660000000000000000e+03 5.358185195922851562e+01 -1.699374580383300781e+01 1.741395520621011328e-13 1.661331391466375207e-13 1.020818019416107336e-13 -1.601283260719080226e-13
4.661000000000000000e+03 5.446693801879882812e+01 -1.782305335998535156e+01 9.207378240914942946e-14 4.283432603838926989e-13 1.561251128379126385e-13 -3.162534253572935050e-13
4.662000000000000000e+03 5.518874359130859375e+01 -2.172937011718750000e+01 -1.160930347080674219e-13 6.365100503960552381e-13 1.561251128379126385e-13 8.006416303595401129e-15
4.663000000000000000e+03 5.336307144165039062e+01 -2.465364074707031250e+01 -3.382710778154773834e-13 3.803047490097931360e-14 -9.007218256841531545e-14 -7.606094980195862720e-14
4.664000000000000000e+03 5.184619522094726562e+01 -2.503854560852050781e+01 -3.903127820947815962e-13 -3.002405859738391247e-14 -1.261010474642651480e-13 -4.803849782157240678e-14
4.665000000000000000e+03 4.784553527832031250e+01 -2.457608795166015625e+01 2.602085213965210642e-14 4.343480599060950409e-13 1.381106736137241442e-13 -8.556856937423640286e-14
4.666000000000000000e+03 4.716528320312500000e+01 -2.314171600341796875e+01 9.269928574751062911e-14 4.514868025880941493e-13 1.632558292111868647e-13 -1.504330514323637402e-13
4.667000000000000000e+03 4.022921752929687500e+01 -3.862684011459350586e+00 -1.120898214740720378e-13 -4.803849782157240678e-14 -4.803849782157240678e-14 -1.601283260719080226e-14
4.668000000000000000e+03 3.940411758422851562e+01 -2.369971275329589844e+00 1.000802037949425141e-14 -2.702165477052459464e-13 -7.806255641895631925e-14 7.405934996122451319e-14
4.669000000000000000e+03 3.889009094238281250e+01 -4.618806362152099609e+00 -8.006416303595401129e-14 -8.006416303595401129e-14 -4.803849782157240678e-14 -3.602887167211341057e-14
4.670000000000000000e+03 3.966648101806640625e+01 -1.795276761054992676e+00 3.682951296365977178e-13 1.120898214740720378e-13 1.441154866884536423e-13 -4.003208151797700565e-14
4.671000000000000000e+03 7.722415161132812500e+01 -7.951409816741943359e+00 8.406736949368581735e-14 3.602887167211341057e-14 3.602887167211341057e-14 5.604491073703601889e-14
4.672000000000000000e+03 7.649906921386718750e+01 -7.960577487945556641e+00 4.203368474684290867e-14 1.801443583605670529e-14 1.801443583605670529e-14 8.006416303595401129e-15
4.673000000000000000e+03 1.974728775024414062e+01 -1.246747493743896484e+00 8.807057730667033901e-13 4.003208084035064784e-13 3.843079825725792542e-13 7.305854597509930937e-13
4.674000000000000000e+03 1.834704399108886719e+01 -3.212077021598815918e-01 6.565261030135050024e-13 -1.761411519028352468e-13 1.441154866884536423e-13 -8.006416303595401129e-14
4.675000000000000000e+03 1.853043937683105469e+01 -2.329686641693115234e+00 1.656327256339268361e-13 4.398524730206410105e-13 1.816455650173812164e-13 3.367698643823996418e-13
4.676000000000000000e+03 1.507768630981445312e+01 -8.048962354660034180e-01 7.606094980195862720e-14 -1.961571909677578551e-13 -3.602887167211341057e-14 8.807057595141762341e-14
4.677000000000000000e+03 1.649750518798828125e+01 -1.174738287925720215e+00 3.402726776562114974e-13 1.000802021008766196e-13 1.321058605389946461e-13 4.803849782157240678e-14
4.678000000000000000e+03 1.437281036376953125e+01 -9.647536873817443848e-01 3.823063556267908281e-13 1.180946345488015359e-13 1.501202997631831404e-13 8.006416303595401129e-14
4.679000000000000000e+03 1.458675384521484375e+01 -2.350617170333862305e+00 2.582069215557869502e-13 -1.180946345488015359e-13 4.203368474684290867e-14 1.200962445539310169e-14
4.680000000000000000e+03 1.290677738189697266e+01 -1.269277095794677734e+00 1.501202997631831404e-13 -2.101684169579509653e-13 -1.801443583605670529e-14 1.361090737729900302e-13
4.681000000000000000e+03 1.623738861083984375e+01 -3.709168672561645508e+00 6.004811719476782494e-14 -2.001604075898850282e-14 1.200962445539310169e-14 7.606094980195862720e-14
4.682000000000000000e+03 1.802622985839843750e+01 -3.040302038192749023e+00 3.442758773376797254e-13 3.763015561045884860e-13 2.161732300326804634e-13 1.501202997631831404e-13
4.683000000000000000e+03 1.059887599945068359e+01 -1.185521030426025391e+01 -7.806255641895631925e-14 -1.821459649775647449e-13 -7.806255641895631925e-14 2.001604042017532392e-13
4.684000000000000000e+03 1.021478271484375000e+01 -1.254180526733398438e+01 -2.441956955655938399e-13 1.240994476235310340e-13 -3.602887167211341057e-14 2.041636038832214672e-13
4.685000000000000000e+03 4.329376220703125000e+01 -2.497582435607910156e+01 1.251002547436781426e-15 5.629511410525957216e-14 1.726383420171551802e-14 1.638813257732844864e-14
4.686000000000000000e+03 4.354697036743164062e+01 -2.760505867004394531e+01 -7.225790603880566376e-13 1.020818019416107336e-13 -1.861491782115601290e-13 1.120898214740720378e-13
4.687000000000000000e+03 6.563891601562500000e+01 -1.505914783477783203e+01 1.461170865291877563e-13 1.541235129971785245e-13 9.007218256841531545e-14 -4.403528797570881170e-14
4.688000000000000000e+03 4.937857437133789062e+01 -3.259347534179687500e+01 -1.721379386688398627e-13 2.922341730583755126e-13 3.602887167211341057e-14 8.006416303595401129e-15
4.689000000000000000e+03 1.929813957214355469e+01 -1.026936173439025879e+00 1.603284779244651403e-12 5.804651735403371093e-14 4.983993903348582499e-13 3.542839036464046076e-13
4.690000000000000000e+03 5.045816040039062500e+01 -3.132458877563476562e+01 1.681347389873716347e-13 7.205774334422682115e-14 7.205774334422682115e-14 -6.204972381176551699e-14
4.691000000000000000e+03 3.786207199096679688e+01 -3.431174468994140625e+01 6.004812227696550847e-15 -1.461170865291877563e-13 -4.203368474684290867e-14 1.861491782115601290e-13
4.692000000000000000e+03 7.334186553955078125e+01 -2.421070289611816406e+01 2.201764398785440585e-14 2.381908689383371858e-13 7.806255641895631925e-14 1.761411519028352468e-13
4.693000000000000000e+03 7.894185638427734375e+01 -2.523301887512207031e+01 7.205774334422682115e-14 1.681347389873716347e-13 7.205774334422682115e-14 -3.602887167211341057e-14
4.694000000000000000e+03 3.427816772460937500e+01 -2.112668991088867188e+00 3.682951296365977178e-13 1.120898214740720378e-13 1.441154866884536423e-13 -1.601283260719080226e-14
4.695000000000000000e+03 3.954988861083984375e+01 -4.236374855041503906e+00 -1.070858150959731747e-13 1.371098736933570872e-13 9.007217918028352643e-15 -9.207378240914942946e-14
4.696000000000000000e+03 3.851633834838867188e+01 -1.257821202278137207e+00 1.881507780522942430e-13 1.721379386688398627e-13 1.080866150163402317e-13 -3.202566521438160452e-14
4.697000000000000000e+03 3.597331237792968750e+01 -2.214946985244750977e+00 1.040834085586084257e-13 -2.401924891078620339e-14 2.401924891078620339e-14 1.000802021008766196e-13
4.698000000000000000e+03 3.272121429443359375e+01 -2.725125551223754883e+00 3.492799040445693226e-13 -7.906335633932337625e-14 8.106496295632106830e-14 -2.001604075898850282e-14
4.699000000000000000e+03 3.749604797363281250e+01 -6.970430374145507812e+00 1.741395520621011328e-13 4.863897912904535659e-13 1.981587908084919691e-13 8.006416303595401129e-15
4.700000000000000000e+03 4.039044952392578125e+01 -3.816713714599609375e+01 -1.899021846892001708e-13 -1.276022524270134170e-14 -6.079872391130669573e-14 9.057258252859884395e-14
4.701000000000000000e+03 1.820202231407165527e+00 -2.110541343688964844e+01 2.802245536851800944e-14 3.322662782932750414e-13 1.080866150163402317e-13 -1.401122870069854143e-13
4.702000000000000000e+03 5.243908405303955078e+00 -2.023130798339843750e+01 7.205774334422682115e-14 -1.521218996039172544e-13 -2.401924891078620339e-14 -8.006416303595401129e-15
4.703000000000000000e+03 7.027055358886718750e+01 -1.533929443359375000e+01 8.807057595141762341e-14 -1.681347389873716347e-13 -2.401924891078620339e-14 -1.200962445539310169e-14
4.704000000000000000e+03 3.914634704589843750e+01 -2.558960151672363281e+01 1.421138868477195283e-13 4.383512866926175811e-13 1.741395520621011328e-13 1.521218996039172544e-13
4.705000000000000000e+03 4.962727355957031250e+01 -2.583662605285644531e+01 -1.711371387484728057e-13 2.011612041221202962e-13 9.007217918028352643e-15 -1.961571909677578551e-13
4.706000000000000000e+03 1.560699939727783203e+01 -1.980072975158691406e+01 4.003208151797700565e-14 2.001604042017532392e-13 7.205774334422682115e-14 1.281026608575264181e-13
4.707000000000000000e+03 6.333785629272460938e+01 -1.956186103820800781e+01 5.404330750817011586e-14 2.061652172764827373e-13 7.806255641895631925e-14 1.601283260719080226e-14
4.708000000000000000e+03 6.576837921142578125e+01 -1.720783615112304688e+01 1.891515779726613000e-13 8.106496295632106830e-14 8.106496295632106830e-14 9.307458910578006450e-14
4.709000000000000000e+03 5.115167999267578125e+01 -1.614216995239257812e+01 -1.381106736137241442e-13 -8.206576287668812530e-14 -6.605293026949732305e-14 -4.003208151797700565e-15
4.710000000000000000e+03 4.904109573364257812e+01 -1.685056495666503906e+01 -1.421138868477195283e-13 1.220978477827969200e-13 -6.004812227696550847e-15 -1.601283260719080226e-13
4.711000000000000000e+03 6.666331768035888672e+00 -2.205436515808105469e+01 8.606896933441993136e-14 1.741395520621011328e-13 7.806255641895631925e-14 -1.441154866884536423e-13
4.712000000000000000e+03 6.925900936126708984e+00 -2.361404800415039062e+01 -7.005614350349270714e-14 -3.002405859738391247e-14 -3.002405859738391247e-14 -1.120898214740720378e-13
4.713000000000000000e+03 2.081716918945312500e+01 -2.690022468566894531e+01 1.441154866884536423e-13 9.607699564314481355e-14 7.205774334422682115e-14 3.002405859738391247e-14
4.714000000000000000e+03 3.511824035644531250e+01 -2.830864524841308594e+01 -3.222582519845501592e-13 2.201764398785440585e-14 -9.007218256841531545e-14 -2.802245536851800944e-14
4.715000000000000000e+03 4.081250762939453125e+01 -2.792599678039550781e+01 -3.292638514271195582e-13 1.791435652164635739e-13 -4.503609128420765773e-14 1.601283260719080226e-14
4.716000000000000000e+03 4.829347610473632812e+01 -2.417569351196289062e+01 -2.852285871683332696e-14 3.352686848306397904e-14 1.501203056924137712e-15 -2.622101212372551782e-13
4.717000000000000000e+03 3.785040283203125000e+01 -3.313488769531250000e+01 9.007218256841531545e-14 2.101684169579509653e-13 9.007218256841531545e-14 1.391114735340912012e-13
4.718000000000000000e+03 3.864840698242187500e+01 -3.355657196044921875e+01 -7.624860486922513392e-14 -4.447313963493529365e-14 -3.621652335124812827e-14 1.018316019615189694e-13
4.719000000000000000e+03 4.736510086059570312e+01 -4.124362182617187500e+01 -1.381106736137241442e-13 -2.001604075898850282e-15 -4.203368474684290867e-14 -2.802245536851800944e-14
4.720000000000000000e+03 4.798838424682617188e+01 -3.697524261474609375e+01 -2.301844695754007297e-13 -3.002405859738391247e-14 -7.806255641895631925e-14 4.003208151797700565e-15
4.721000000000000000e+03 3.922412490844726562e+01 -2.953205490112304688e+01 -5.204170427930421283e-14 2.522020949285302960e-13 6.004811719476782494e-14 2.001604042017532392e-13
4.722000000000000000e+03 4.890752029418945312e+01 -3.676269149780273438e+01 -1.801443583605670529e-14 3.803047490097931360e-14 6.004812227696550847e-15 -9.607699564314481355e-14
4.723000000000000000e+03 4.005137252807617188e+01 -2.900167083740234375e+01 -9.407538902614712151e-14 2.341876692568689577e-13 4.203368474684290867e-14 1.441154866884536423e-13
4.724000000000000000e+03 3.781343460083007812e+01 -2.801373100280761719e+01 -6.023577226203433166e-14 1.571884712236321091e-13 2.908580697797390202e-14 4.003208151797700565e-15
4.725000000000000000e+03 3.900519943237304688e+01 -3.103630065917968750e+01 1.421138868477195283e-13 1.981587908084919691e-13 1.020818019416107336e-13 2.401924891078620339e-14
4.726000000000000000e+03 3.434928894042968750e+01 -2.839344024658203125e+01 -3.422742774969456114e-13 -7.806255641895631925e-14 -1.261010474642651480e-13 5.604491073703601889e-14
4.727000000000000000e+03 5.035953521728515625e+01 -2.538074874877929688e+01 -2.912333731380084556e-13 -7.906335633932337625e-14 -1.110890215537049808e-13 -1.120898214740720378e-13
4.728000000000000000e+03 4.872513580322265625e+01 -2.966417884826660156e+01 -8.206576287668812530e-14 1.821459649775647449e-13 3.002405859738391247e-14 -5.804651735403371093e-14
4.729000000000000000e+03 5.159635925292968750e+01 -2.691672897338867188e+01 -8.406736949368581735e-14 -3.602887167211341057e-14 -3.602887167211341057e-14 -2.241796429481440756e-13
4.730000000000000000e+03 4.999005126953125000e+01 -3.345489501953125000e+01 -1.341074739322559162e-13 3.402726844324750755e-14 -3.002405859738391247e-14 -2.401924891078620339e-14
4.731000000000000000e+03 4.761719131469726562e+01 -2.264928054809570312e+01 2.231788430277770185e-13 3.072462260739899920e-13 1.591275125990138095e-13 -3.587875168405835202e-13
4.732000000000000000e+03 4.751717758178710938e+01 -2.872118759155273438e+01 -3.002405995263662808e-13 -6.004811719476782494e-14 -1.080866150163402317e-13 -3.803047490097931360e-14
4.733000000000000000e+03 5.558341217041015625e+01 -3.241811752319335938e+01 1.811451650571976879e-13 1.691355389077386917e-13 1.050842084789754827e-13 -1.200962343895356499e-13
4.734000000000000000e+03 4.874271011352539062e+01 -2.376131820678710938e+01 2.211772431870429045e-13 2.491996951674291250e-13 1.411130869273524713e-13 -2.892317732972743416e-13
4.735000000000000000e+03 4.773755264282226562e+01 -2.365792083740234375e+01 1.776423585596494104e-14 1.448660934049925131e-13 4.878909776184769953e-14 -1.801443651368306309e-13
4.736000000000000000e+03 3.906792449951171875e+01 -3.600947189331054688e+01 -1.341074739322559162e-13 3.402726844324750755e-14 -3.002405859738391247e-14 1.180946345488015359e-13
4.737000000000000000e+03 3.957628250122070312e+01 -3.662675857543945312e+01 -1.000802037949425141e-14 1.100882216333379238e-13 3.002405859738391247e-14 1.160930347080674219e-13
4.738000000000000000e+03 1.526827907562255859e+01 -2.143256950378417969e+01 1.521218996039172544e-13 2.481988952470620680e-13 1.200962343895356499e-13 1.140914348673333079e-13
4.739000000000000000e+03 1.458826255798339844e+01 -2.105719947814941406e+01 2.451964954859608969e-13 1.451162866088206993e-13 1.170938346284344789e-13 1.045838085187919542e-13
4.740000000000000000e+03 7.344775390625000000e+01 -2.035671234130859375e+01 1.681347389873716347e-13 7.205774334422682115e-14 7.205774334422682115e-14 -3.202566521438160452e-14
4.741000000000000000e+03 7.354608154296875000e+01 -2.114180183410644531e+01 -1.281026608575264181e-13 -3.202566521438160452e-14 -4.803849782157240678e-14 -1.321058605389946461e-13
4.742000000000000000e+03 6.749427032470703125e+01 -2.957990837097167969e+01 1.741395520621011328e-13 -7.405934996122451319e-14 3.002405859738391247e-14 -1.060850151756061177e-13
4.743000000000000000e+03 7.054284667968750000e+01 -2.668255043029785156e+01 1.961571909677578551e-13 2.441956955655938399e-13 1.321058605389946461e-13 4.803849782157240678e-14
4.744000000000000000e+03 7.351890563964843750e+01 -2.568548011779785156e+01 4.803849782157240678e-14 2.722181475459800604e-13 9.607699564314481355e-14 1.601283260719080226e-14
4.745000000000000000e+03 6.449890899658203125e+01 -2.223101997375488281e+01 4.203368474684290867e-14 3.382710778154773834e-13 1.140914348673333079e-13 -1.681347389873716347e-13
4.746000000000000000e+03 6.495859527587890625e+01 -1.973115158081054688e+01 -5.004010105043830980e-14 3.903127820947815962e-13 1.020818019416107336e-13 8.006416303595401129e-15
4.747000000000000000e+03 7.131888580322265625e+01 -1.715514373779296875e+01 1.461170865291877563e-13 7.405934996122451319e-14 6.605293026949732305e-14 -5.504411081666896188e-14
4.748000000000000000e+03 7.109266662597656250e+01 -1.278300285339355469e+01 5.104090097080536681e-14 1.190954344691685929e-13 5.104090097080536681e-14 6.455173038894673754e-14
4.749000000000000000e+03 6.288713836669921875e+01 -2.662701606750488281e+01 2.021620040424873532e-13 1.801443583605670529e-14 6.605293026949732305e-14 -1.080866150163402317e-13
4.750000000000000000e+03 3.596690595149993896e-01 -2.035601615905761719e+01 -1.601283260719080226e-14 1.761411519028352468e-13 4.803849782157240678e-14 -4.003208151797700565e-14
4.751000000000000000e+03 7.134359741210937500e+01 -2.646422386169433594e+01 3.042437992078345088e-13 1.601283260719080226e-14 9.607699564314481355e-14 1.441154866884536423e-13
4.752000000000000000e+03 7.184591674804687500e+01 -1.769809150695800781e+01 3.402726844324750755e-14 2.602085213965210642e-14 1.801443583605670529e-14 3.202566521438160452e-14
4.753000000000000000e+03 6.689611053466796875e+01 -2.575898170471191406e+01 -1.070858150959731747e-13 3.372702778951103264e-13 6.905533680686207210e-14 -3.803047490097931360e-14
4.754000000000000000e+03 6.495262908935546875e+01 -2.048641014099121094e+01 2.421940957248597259e-13 3.783031559453226000e-13 1.861491782115601290e-13 -4.003208151797700565e-15
4.755000000000000000e+03 6.438545989990234375e+01 -2.141424751281738281e+01 -8.006416303595401129e-15 2.481988952470620680e-13 7.205774334422682115e-14 2.001604075898850282e-14
4.756000000000000000e+03 7.159296417236328125e+01 -1.627255630493164062e+01 1.801443651368306309e-13 1.000802021008766196e-13 8.406736949368581735e-14 -1.120898214740720378e-13
4.757000000000000000e+03 7.210056304931640625e+01 -2.620292472839355469e+01 2.642117210779892922e-13 1.361090737729900302e-13 1.200962343895356499e-13 2.161732300326804634e-13
4.758000000000000000e+03 6.407089233398437500e+01 -1.927177810668945312e+01 -1.000802021008766196e-13 1.401122870069854143e-13 1.200962445539310169e-14 -2.361892690976030718e-13
4.759000000000000000e+03 1.133261203765869141e+01 -2.452412605285644531e+01 1.921539912862896271e-13 -1.921539912862896271e-13 0.000000000000000000e+00 8.807057595141762341e-14
4.760000000000000000e+03 8.423915863037109375e+00 -2.284467506408691406e+01 -7.405934996122451319e-14 1.401122768425900472e-14 -1.801443583605670529e-14 -1.120898214740720378e-13
4.761000000000000000e+03 1.655927276611328125e+01 -8.897947311401367188e+00 4.403528797570881170e-14 2.361892690976030718e-13 8.406736949368581735e-14 1.501202997631831404e-13
4.762000000000000000e+03 1.561504554748535156e+01 -1.663940238952636719e+01 1.100882216333379238e-13 2.301844695754007297e-13 1.020818019416107336e-13 -2.401924891078620339e-14
4.763000000000000000e+03 1.907331657409667969e+01 -1.262275409698486328e+01 -2.461972954063279539e-13 -2.542037218743187221e-13 -1.501202997631831404e-13 1.251002475438980910e-13
4.764000000000000000e+03 7.966367340087890625e+01 -2.057590103149414062e+01 -4.403528797570881170e-14 1.641315257533762506e-13 3.602887167211341057e-14 4.003208151797700565e-15
4.765000000000000000e+03 1.757245445251464844e+01 -9.541066169738769531e+00 -1.541235129971785245e-13 -6.605293026949732305e-14 -6.605293026949732305e-14 1.040834085586084257e-13
4.766000000000000000e+03 1.623264694213867188e+01 -1.590779113769531250e+01 -1.561251128379126385e-13 1.160930347080674219e-13 -1.200962445539310169e-14 9.607699564314481355e-14
4.767000000000000000e+03 7.290304565429687500e+01 -1.798886871337890625e+01 2.802245536851800944e-14 1.200962445539310169e-14 1.200962445539310169e-14 -5.004010189747125706e-15
4.768000000000000000e+03 7.243838500976562500e+01 -1.737857627868652344e+01 3.002406113848275424e-15 7.005613842129502361e-15 3.002406113848275424e-15 -2.401924891078620339e-14
4.769000000000000000e+03 6.714822387695312500e+01 -1.530407619476318359e+01 4.403528797570881170e-14 1.561251128379126385e-13 6.004811719476782494e-14 1.601283260719080226e-14
4.770000000000000000e+03 6.681974792480468750e+01 -1.608781051635742188e+01 3.122502256758252770e-13 8.807057595141762341e-14 1.200962343895356499e-13 6.405133042876320904e-14
4.771000000000000000e+03 1.268130397796630859e+01 -1.259815216064453125e+01 -2.041636038832214672e-13 1.641315257533762506e-13 -1.200962445539310169e-14 2.401924891078620339e-14
4.772000000000000000e+03 7.198871612548828125e+01 -1.680666732788085938e+01 4.403528797570881170e-14 -1.641315257533762506e-13 -3.602887167211341057e-14 -6.004811719476782494e-14
4.773000000000000000e+03 7.499124145507812500e+01 -2.339372253417968750e+01 1.160930347080674219e-13 3.242598518252842732e-13 1.321058605389946461e-13 1.881507780522942430e-13
4.774000000000000000e+03 7.423979187011718750e+01 -2.266131401062011719e+01 1.281026608575264181e-13 1.921539912862896271e-13 9.607699564314481355e-14 8.006416303595401129e-14
4.775000000000000000e+03 6.421679687500000000e+01 -1.993361091613769531e+01 2.902325732176413986e-13 1.701363388281057487e-13 1.381106736137241442e-13 -1.281026608575264181e-13
4.776000000000000000e+03 6.373511123657226562e+01 -2.646900749206542969e+01 1.421138868477195283e-13 5.184154429523080143e-13 1.981587908084919691e-13 -1.921539912862896271e-13
4.777000000000000000e+03 6.388837051391601562e+01 -2.709917831420898438e+01 1.401122870069854143e-13 3.803047557860567141e-13 1.561251128379126385e-13 8.006416303595401129e-15
4.778000000000000000e+03 9.579959869384765625e+00 -1.223033618927001953e+01 -1.271018609371593611e-13 3.702967498061225660e-14 -2.702165375408505793e-14 1.521218996039172544e-13
4.779000000000000000e+03 3.628002405166625977e-01 -1.712228584289550781e+01 4.803849782157240678e-14 1.120898214740720378e-13 4.803849782157240678e-14 2.802245536851800944e-14
4.780000000000000000e+03 1.223047924041748047e+01 -2.236524391174316406e+01 -2.001604075898850282e-15 1.821459649775647449e-13 5.404330750817011586e-14 4.403528797570881170e-14
4.781000000000000000e+03 3.599395751953125000e-01 -1.550990104675292969e+01 7.005614350349270714e-14 3.002405859738391247e-14 3.002405859738391247e-14 -3.602887167211341057e-14
4.782000000000000000e+03 1.082347512245178223e+00 -1.538831138610839844e+01 1.401122768425900472e-14 6.004812227696550847e-15 6.004812227696550847e-15 -4.803849782157240678e-14
4.783000000000000000e+03 8.517315864562988281e+00 -1.229962635040283203e+01 2.921090696801978415e-14 1.040208568695195901e-13 3.996952982888817008e-14 2.211772431870429045e-13
4.784000000000000000e+03 1.091065883636474609e+01 -1.275049114227294922e+01 -4.003208084035064784e-13 -8.006416303595401129e-14 -1.441154866884536423e-13 1.200962343895356499e-13
4.785000000000000000e+03 1.081107139587402344e+00 -2.593911170959472656e+01 4.003208151797700565e-14 2.001604042017532392e-13 7.205774334422682115e-14 2.001604075898850282e-14
4.786000000000000000e+03 1.682003855705261230e+00 -2.197405815124511719e+01 -2.001604075898850282e-14 2.201764432666758475e-13 6.004811719476782494e-14 -1.601283260719080226e-14
4.787000000000000000e+03 3.276495039463043213e-01 -2.358964157104492188e+01 -4.003208151797700565e-14 1.200962343895356499e-13 2.401924891078620339e-14 1.200962445539310169e-14
4.788000000000000000e+03 1.805777359008789062e+01 -1.023515987396240234e+01 -3.502807039649363796e-13 -1.501202997631831404e-13 -1.501202997631831404e-13 7.606094980195862720e-14
4.789000000000000000e+03 1.206389904022216797e+01 -2.386004447937011719e+01 1.761411519028352468e-13 1.441154866884536423e-13 9.607699564314481355e-14 1.321058605389946461e-13
4.790000000000000000e+03 9.977323532104492188e+00 -2.338275146484375000e+01 -6.405133042876320904e-14 -2.562053217150528361e-13 -9.607699564314481355e-14 -9.607699564314481355e-14
4.791000000000000000e+03 9.206837654113769531e+00 -2.345658874511718750e+01 -6.204972381176551699e-14 2.021620040424873532e-13 4.203368474684290867e-14 -1.601283260719080226e-14
4.792000000000000000e+03 1.070002460479736328e+01 -2.393639183044433594e+01 9.007218256841531545e-14 -1.901523778930283570e-13 -3.002405859738391247e-14 1.481186999224490264e-13
4.793000000000000000e+03 1.618353271484375000e+01 -1.519742107391357422e+01 -1.361090737729900302e-13 2.161732300326804634e-13 2.401924891078620339e-14 4.803849782157240678e-14
4.794000000000000000e+03 1.660992240905761719e+01 -1.879807472229003906e+01 1.461170865291877563e-13 1.541235129971785245e-13 9.007218256841531545e-14 1.881507780522942430e-13
4.795000000000000000e+03 1.737391662597656250e+01 -1.842886543273925781e+01 7.005614350349270714e-14 3.002405859738391247e-14 3.002405859738391247e-14 1.441154866884536423e-13
4.796000000000000000e+03 1.635626029968261719e+01 -1.728313255310058594e+01 5.204170427930421283e-14 6.805453688649501509e-14 3.602887167211341057e-14 4.003208151797700565e-14
4.797000000000000000e+03 1.145931816101074219e+01 -2.319560813903808594e+01 -8.606896933441993136e-14 -1.741395520621011328e-13 -7.806255641895631925e-14 4.403528797570881170e-14
4.798000000000000000e+03 6.415601730346679688e+00 -1.568245506286621094e+01 1.391114735340912012e-13 1.110890215537049808e-13 7.506014988159157020e-14 1.266014474244486765e-13
4.799000000000000000e+03 1.741632223129272461e+00 -1.287621116638183594e+01 -4.803849782157240678e-14 2.081668171172168513e-13 4.803849782157240678e-14 -6.405133042876320904e-14
4.800000000000000000e+03 1.799151611328125000e+01 -2.579145050048828125e+01 3.682951296365977178e-13 4.323464600653609269e-13 2.401924687790712998e-13 2.321860694161348437e-13
4.801000000000000000e+03 6.389516353607177734e+00 -1.464062500000000000e+01 1.631307258330091936e-13 2.071660171968497943e-13 1.110890215537049808e-13 1.120898214740720378e-13
4.802000000000000000e+03 1.851657748222351074e+00 -1.607829284667968750e+01 7.606094980195862720e-14 -3.602887167211341057e-14 1.200962445539310169e-14 -3.602887167211341057e-14
4.803000000000000000e+03 1.284874820709228516e+01 -2.311790847778320312e+01 6.405133042876320904e-14 2.562053217150528361e-13 9.607699564314481355e-14 8.006416303595401129e-14
4.804000000000000000e+03 1.646287155151367188e+01 -1.802094650268554688e+01 -2.001604075898850282e-15 1.821459649775647449e-13 5.404330750817011586e-14 9.207378240914942946e-14
4.805000000000000000e+03 1.217327690124511719e+01 -2.313165473937988281e+01 -1.541235129971785245e-13 9.407538902614712151e-14 -1.801443583605670529e-14 1.080866150163402317e-13
4.806000000000000000e+03 7.486031055450439453e+00 -2.493087053298950195e+00 1.721379386688398627e-13 2.802245536851800944e-14 6.004811719476782494e-14 7.205774334422682115e-14
4.807000000000000000e+03 1.027279376983642578e+00 -8.224774360656738281e+00 1.200962343895356499e-13 -4.003208151797700565e-14 2.401924891078620339e-14 0.000000000000000000e+00
4.808000000000000000e+03 8.220544815063476562e+00 -1.830278515815734863e+00 2.361892690976030718e-13 -3.602887167211341057e-14 6.004811719476782494e-14 -1.601283260719080226e-14
4.809000000000000000e+03 8.293684005737304688e+00 -3.103570222854614258e+00 1.180946345488015359e-13 1.421138868477195283e-13 7.806255641895631925e-14 -1.521218996039172544e-13
4.810000000000000000e+03 8.257981300354003906e+00 -2.479316949844360352e+00 5.004010105043830980e-14 -7.005614350349270714e-14 -6.004812227696550847e-15 2.001604075898850282e-14
4.811000000000000000e+03 6.666328907012939453e+00 -1.835338592529296875e+00 1.040834085586084257e-13 1.361090737729900302e-13 7.205774334422682115e-14 1.040834085586084257e-13
4.812000000000000000e+03 6.722331523895263672e+00 -2.499752283096313477e+00 -4.403528797570881170e-14 1.641315257533762506e-13 3.602887167211341057e-14 1.601283260719080226e-14
4.813000000000000000e+03 5.231488227844238281e+00 -2.524832010269165039e+00 9.007218256841531545e-14 2.902325732176413986e-13 1.140914348673333079e-13 8.807057595141762341e-14
4.814000000000000000e+03 3.270315229892730713e-01 -5.908950805664062500e+00 1.080866150163402317e-13 9.207378240914942946e-14 6.004811719476782494e-14 4.003208151797700565e-15
4.815000000000000000e+03 3.281062841415405273e-01 -5.110631465911865234e+00 -4.403528797570881170e-14 1.641315257533762506e-13 3.602887167211341057e-14 -2.802245536851800944e-14
4.816000000000000000e+03 1.153269529342651367e+00 -1.904247522354125977e+00 -4.003208151797700565e-15 -1.160930347080674219e-13 -3.602887167211341057e-14 3.602887167211341057e-14
4.817000000000000000e+03 3.763592481613159180e+00 -3.602717161178588867e+00 1.411130869273524713e-13 -3.102486190588275849e-14 3.302646513474866152e-14 -8.006416303595401129e-15
4.818000000000000000e+03 3.679077923297882080e-01 -2.702488660812377930e+00 -2.401924891078620339e-14 -5.604491073703601889e-14 -2.401924891078620339e-14 4.403528797570881170e-14
4.819000000000000000e+03 3.358067870140075684e-01 -4.309086322784423828e+00 1.180946345488015359e-13 -1.801443583605670529e-14 3.002405859738391247e-14 8.006416303595401129e-15
4.820000000000000000e+03 9.826040267944335938e+00 -2.417544126510620117e+00 1.421138868477195283e-13 -1.220978477827969200e-13 6.004812227696550847e-15 1.200962343895356499e-13
4.821000000000000000e+03 6.927497863769531250e+01 -1.192567634582519531e+01 1.281026608575264181e-13 3.202566521438160452e-14 4.803849782157240678e-14 8.006416303595401129e-14
4.822000000000000000e+03 1.723833274841308594e+01 -2.682865142822265625e+01 4.153328343140666457e-13 3.152526254369264480e-13 2.191756433463087905e-13 1.200962445539310169e-14
4.823000000000000000e+03 5.289975738525390625e+01 -8.547685623168945312e+00 1.881194988196180362e-13 4.389455107983025739e-13 1.881194988196180362e-13 -1.368440408731907976e-13
4.824000000000000000e+03 6.028739929199218750e+01 -8.686222076416015625e+00 -1.261010474642651480e-13 -3.742999562638543720e-13 -1.501202997631831404e-13 -6.004811719476782494e-14
4.825000000000000000e+03 5.590350341796875000e+01 -1.445866584777832031e+01 -1.200962445539310169e-14 2.922341730583755126e-13 8.406736949368581735e-14 -2.702165477052459464e-13
4.826000000000000000e+03 7.888708496093750000e+01 -1.249651622772216797e+01 2.802245536851800944e-14 -1.481186999224490264e-13 -3.602887167211341057e-14 1.441154866884536423e-13
4.827000000000000000e+03 6.816474151611328125e+01 -1.213327312469482422e+01 3.552847171192988207e-14 -3.052446194569922999e-14 1.501203056924137712e-15 3.402726844324750755e-14
4.828000000000000000e+03 7.500556182861328125e+01 -9.092641830444335938e+00 6.605293026949732305e-14 3.943159817762498243e-13 1.381106736137241442e-13 2.401924891078620339e-14
4.829000000000000000e+03 4.825191116333007812e+01 -1.712338447570800781e+01 -2.987393860932885392e-13 -3.652927163229693908e-14 -1.005806020610601481e-13 2.201764398785440585e-14
4.830000000000000000e+03 4.951366806030273438e+01 -1.591101741790771484e+01 -9.207378240914942946e-14 2.121700303512122354e-13 3.602887167211341057e-14 -1.881507780522942430e-13
4.831000000000000000e+03 4.711691665649414062e+01 -2.205946731567382812e+01 1.652574290519209788e-13 5.740850503310745978e-13 2.218027465254041042e-13 -2.166736299928639919e-13
4.832000000000000000e+03 4.042744827270507812e+01 -2.317620658874511719e+01 5.404330750817011586e-14 5.264218423152444704e-13 1.741395520621011328e-13 8.406736949368581735e-14
4.833000000000000000e+03 5.970427322387695312e+01 -9.224831581115722656e+00 -6.204972381176551699e-14 -1.981587908084919691e-13 -7.806255641895631925e-14 -2.061652172764827373e-13
4.834000000000000000e+03 6.534099578857421875e+01 -1.169634723663330078e+01 8.807057595141762341e-14 1.521218996039172544e-13 7.205774334422682115e-14 6.605293026949732305e-14
4.835000000000000000e+03 7.199385070800781250e+01 -1.156666088104248047e+01 2.481988952470620680e-13 -1.681347389873716347e-13 2.401924891078620339e-14 0.000000000000000000e+00
4.836000000000000000e+03 6.730780029296875000e+01 -1.050873088836669922e+01 2.151724233360498284e-14 -3.652927163229693908e-14 -4.503608959014176322e-15 7.005613842129502361e-15
4.837000000000000000e+03 7.385213470458984375e+01 -1.152779769897460938e+01 5.204170427930421283e-14 6.805453688649501509e-14 3.602887167211341057e-14 6.204972381176551699e-14
4.838000000000000000e+03 7.238202667236328125e+01 -1.217148780822753906e+01 2.602085213965210642e-13 2.001604075898850282e-14 8.406736949368581735e-14 1.561251128379126385e-13
4.839000000000000000e+03 6.475994110107421875e+01 -6.320928573608398438e+00 5.604491073703601889e-14 1.841475648182988589e-13 7.205774334422682115e-14 -2.802245536851800944e-14
4.840000000000000000e+03 7.170458984375000000e+01 -1.247263813018798828e+01 2.542037218743187221e-13 6.004812227696550847e-15 7.806255641895631925e-14 -8.807057595141762341e-14
4.841000000000000000e+03 6.741814422607421875e+01 -1.165116024017333984e+01 8.006416303595401129e-14 8.006416303595401129e-14 4.803849782157240678e-14 -7.806255641895631925e-14
4.842000000000000000e+03 6.480632019042968750e+01 -7.148564338684082031e+00 -1.341074739322559162e-13 3.402726844324750755e-14 -3.002405859738391247e-14 1.561251128379126385e-13
4.843000000000000000e+03 6.074623870849609375e+01 -8.065038681030273438e+00 6.505213034913026604e-14 -1.551243129175455815e-13 -2.702165375408505793e-14 -3.783031559453226000e-13
4.844000000000000000e+03 6.550788116455078125e+01 -5.402437210083007812e+00 8.606896933441993136e-14 1.401122768425900472e-14 3.002405859738391247e-14 6.805453688649501509e-14
4.845000000000000000e+03 6.403032684326171875e+01 -4.904707431793212891e+00 1.601283260719080226e-14 -1.601283260719080226e-14 0.000000000000000000e+00 4.803849782157240678e-14
4.846000000000000000e+03 5.873776245117187500e+01 -1.106230545043945312e+01 1.926543912464731556e-14 8.256616283687165381e-15 8.256616283687165381e-15 -9.207378240914942946e-14
4.847000000000000000e+03 5.712343978881835938e+01 -1.022426509857177734e+01 1.341074739322559162e-13 -3.402726844324750755e-14 3.002405859738391247e-14 -7.806255641895631925e-14
4.848000000000000000e+03 6.673567962646484375e+01 -1.102804660797119141e+01 -7.793745304077864811e-14 3.165036185611216912e-14 -1.388612769421312260e-14 -1.213472444543898382e-14
4.849000000000000000e+03 6.619712829589843750e+01 -1.029740047454833984e+01 -1.080866150163402317e-13 6.805453688649501509e-14 -1.200962445539310169e-14 5.504410996963601463e-15
4.850000000000000000e+03 6.070038604736328125e+01 -1.013910007476806641e+01 1.108388215736132165e-13 -8.256616283687165381e-15 3.077466192579099424e-14 -3.001155097007157657e-13
4.851000000000000000e+03 4.867279052734375000e+01 -2.686825275421142578e+00 3.402726844324750755e-14 -2.141716301919463494e-13 -5.404330750817011586e-14 -2.161732300326804634e-13
4.852000000000000000e+03 5.501950073242187500e+01 -8.930849075317382812e+00 2.922341730583755126e-13 3.082470259943570490e-13 1.801443651368306309e-13 -2.892317732972743416e-13
4.853000000000000000e+03 5.511476898193359375e+01 -9.998740196228027344e+00 2.171740299530475204e-13 2.932350000837968818e-13 1.531227130768114675e-13 -3.627907165220517482e-13
4.854000000000000000e+03 6.230590057373046875e+01 -5.131443977355957031e+00 6.004812227696550847e-15 -2.261812563414053456e-13 -6.605293026949732305e-14 -6.004811719476782494e-14
4.855000000000000000e+03 2.550516319274902344e+01 -3.600072479248046875e+01 -1.261010474642651480e-13 1.060850151756061177e-13 -6.004812227696550847e-15 4.803849782157240678e-14
4.856000000000000000e+03 2.434437751770019531e+01 -3.789474105834960938e+01 4.553649124439118623e-14 1.796439651766471024e-13 6.755413692631148659e-14 4.003208151797700565e-14
4.857000000000000000e+03 5.214130783081054688e+01 -9.914868354797363281e+00 8.807057595141762341e-14 2.321860694161348437e-13 9.607699564314481355e-14 -1.160930347080674219e-13
4.858000000000000000e+03 5.911596298217773438e+01 -1.058474445343017578e+01 -1.661331391466375207e-13 -1.741395520621011328e-13 -1.020818019416107336e-13 -4.003208151797700565e-14
4.859000000000000000e+03 5.028764343261718750e+01 -2.336851119995117188e+00 -8.006416303595401129e-14 -4.003208084035064784e-13 -1.441154866884536423e-13 -1.921539912862896271e-13
4.860000000000000000e+03 5.271190261840820312e+01 -4.784298896789550781e+00 -1.601283260719080226e-14 9.767827822623753597e-13 2.882309733769072846e-13 8.807057595141762341e-14
4.861000000000000000e+03 1.374322032928466797e+01 -1.800980329513549805e+00 1.721379386688398627e-13 -2.922341730583755126e-13 -3.602887167211341057e-14 1.561251128379126385e-13
4.862000000000000000e+03 1.062863254547119141e+01 -2.340094089508056641e+00 1.040834085586084257e-13 -1.841475648182988589e-13 -2.401924891078620339e-14 5.604491073703601889e-14
4.863000000000000000e+03 1.220338153839111328e+01 -2.080489158630371094e+00 1.481186999224490264e-13 -2.802245536851800944e-14 3.602887167211341057e-14 1.761411519028352468e-13
4.864000000000000000e+03 1.448931884765625000e+01 -1.660417556762695312e+00 1.000802021008766196e-13 2.001604075898850282e-14 3.602887167211341057e-14 2.401924687790712998e-13
4.865000000000000000e+03 5.059465789794921875e+01 -4.717401504516601562e+00 3.182550251980276190e-13 1.821459649775647449e-13 1.501202997631831404e-13 1.561251128379126385e-13
4.866000000000000000e+03 6.229239654541015625e+01 -5.854757785797119141e+00 1.361090737729900302e-13 1.040834085586084257e-13 7.205774334422682115e-14 -1.521218996039172544e-13
4.867000000000000000e+03 6.094522857666015625e+01 -6.162261962890625000e+00 -7.205774334422682115e-14 -1.681347389873716347e-13 -7.205774334422682115e-14 -4.003208151797700565e-14
4.868000000000000000e+03 5.444796371459960938e+01 -8.361665725708007812e+00 2.246800564608547601e-13 3.707971429900425164e-13 1.786431517037528893e-13 -1.601283260719080226e-13
4.869000000000000000e+03 5.450975418090820312e+01 -9.409907341003417969e+00 8.606896933441993136e-14 5.744603469130804552e-13 1.981587908084919691e-13 -1.145918348275168364e-13
4.870000000000000000e+03 5.286718750000000000e+01 -7.472386837005615234e+00 1.783929584999247031e-13 4.696263451904603148e-13 1.944057843308519273e-13 -1.128404281906109086e-13
4.871000000000000000e+03 5.394364929199218750e+01 -8.800518035888671875e+00 1.306046606584440606e-13 3.047442127205451934e-13 1.306046606584440606e-13 -2.404426755354266421e-13
4.872000000000000000e+03 6.012354660034179688e+01 -2.689471435546875000e+01 -2.802245536851800944e-14 -1.200962445539310169e-14 -1.200962445539310169e-14 -6.405133042876320904e-14
4.873000000000000000e+03 5.487969970703125000e+01 -2.329373359680175781e+01 -5.604491073703601889e-14 1.361090737729900302e-13 2.401924891078620339e-14 1.040834085586084257e-13
4.874000000000000000e+03 3.505968093872070312e+01 -1.452867126464843750e+01 -6.925550085669363032e-13 -6.805453688649501509e-14 -2.281828697346666157e-13 6.405133042876320904e-14
4.875000000000000000e+03 1.935857200622558594e+01 -4.151750946044921875e+01 2.276824562219559311e-14 9.757819552369539906e-15 9.757819552369539906e-15 -3.202566521438160452e-14
4.876000000000000000e+03 1.841063880920410156e+01 -4.054935836791992188e+01 -1.601283260719080226e-14 -1.441154866884536423e-13 -4.803849782157240678e-14 8.006416303595401129e-15
4.877000000000000000e+03 4.576405334472656250e+01 -1.878747177124023438e+01 1.200962445539310169e-14 3.482791041242022656e-13 1.080866150163402317e-13 1.200962445539310169e-14
4.878000000000000000e+03 2.785283470153808594e+01 -2.356718063354492188e+01 2.011612041221202962e-13 2.692157477848788893e-13 1.411130869273524713e-13 -1.881507780522942430e-13
4.879000000000000000e+03 2.851226425170898438e+01 -2.316056632995605469e+01 2.742197473867141744e-13 2.602085213965210642e-14 9.007218256841531545e-14 8.006416303595401129e-15
4.880000000000000000e+03 2.891634941101074219e+01 -2.402425193786621094e+01 -1.261010474642651480e-13 5.864700001675937635e-13 1.381106736137241442e-13 -1.601283260719080226e-14
4.881000000000000000e+03 3.922655487060546875e+01 -2.674942970275878906e+01 -5.954771723458429644e-14 2.346880827695796423e-13 5.254210423948774134e-14 9.657739560332834206e-14
4.882000000000000000e+03 5.602616882324218750e+01 -1.764820861816406250e+01 9.807859548387892756e-14 2.021620040424873532e-13 9.007218256841531545e-14 -1.761411519028352468e-13
4.883000000000000000e+03 3.939748382568359375e+01 -3.037977981567382812e+01 -5.104090097080536681e-14 1.611291259922750796e-13 3.302646513474866152e-14 2.081668171172168513e-13
4.884000000000000000e+03 3.047846603393554688e+01 -1.655029487609863281e+01 -7.405934996122451319e-14 9.407538902614712151e-14 6.004812227696550847e-15 3.502806921064751181e-15
4.885000000000000000e+03 3.913733673095703125e+01 -1.271626472473144531e+01 -2.822261738547049426e-13 1.421138868477195283e-13 -4.203368474684290867e-14 -1.100882199392720293e-14
4.886000000000000000e+03 3.976573181152343750e+01 -2.973136138916015625e+01 -2.602085213965210642e-14 4.603689120457471473e-14 6.004812227696550847e-15 -3.602887167211341057e-14
4.887000000000000000e+03 2.928307723999023438e+01 -2.583532333374023438e+01 1.941555911270237411e-13 3.462775042834681516e-13 1.621299259126421366e-13 -1.115894215138885093e-13
4.888000000000000000e+03 3.387834167480468750e+01 -2.957180404663085938e+01 -1.411130869273524713e-13 3.102486190588275849e-14 -3.302646513474866152e-14 5.604491073703601889e-14
4.889000000000000000e+03 4.119827651977539062e+01 -2.319862365722656250e+01 1.200962445539310169e-14 5.084074437486374443e-13 1.561251128379126385e-13 -6.805453688649501509e-14
4.890000000000000000e+03 4.342903518676757812e+01 -2.590653419494628906e+01 -2.221780431074099615e-13 -3.803047490097931360e-14 -7.806255641895631925e-14 1.000802037949425141e-14
4.891000000000000000e+03 3.774080657958984375e+01 -1.198144435882568359e+01 -2.115445270128510358e-13 2.002855075799309104e-13 -3.377706719260632241e-15 4.603689120457471473e-14
4.892000000000000000e+03 3.741061782836914062e+01 -2.741090965270996094e+01 -2.261812563414053456e-13 -1.541235129971785245e-13 -1.140914348673333079e-13 -7.005614350349270714e-14
4.893000000000000000e+03 3.971224975585937500e+01 -2.740197753906250000e+01 -1.881507780522942430e-13 1.481186999224490264e-13 -1.200962445539310169e-14 -1.581267126786467525e-13
4.894000000000000000e+03 3.725692367553710938e+01 -1.586554050445556641e+01 -2.522020949285302960e-13 -1.080866150163402317e-13 -1.080866150163402317e-13 1.200962445539310169e-14
4.895000000000000000e+03 2.695103645324707031e+01 -1.365071296691894531e+01 -3.833071555471578851e-13 -3.072462260739899920e-13 -2.071660171968497943e-13 -3.702967498061225660e-14
4.896000000000000000e+03 2.909993553161621094e+01 -1.867689132690429688e+01 -1.401122768425900472e-14 -8.606896933441993136e-14 -3.002405859738391247e-14 1.040834085586084257e-13
4.897000000000000000e+03 3.866002273559570312e+01 -2.946187400817871094e+01 -2.802245536851800944e-14 -1.200962445539310169e-14 -1.200962445539310169e-14 2.401924891078620339e-14
4.898000000000000000e+03 2.908122253417968750e+01 -2.129709625244140625e+01 -2.001604042017532392e-13 2.802245740139708285e-13 2.401924891078620339e-14 7.205774334422682115e-14
4.899000000000000000e+03 2.834151458740234375e+01 -2.219042396545410156e+01 -4.203368474684290867e-14 4.623705389915355735e-13 1.261010474642651480e-13 -4.403528797570881170e-14
4.900000000000000000e+03 2.970143699645996094e+01 -1.891651344299316406e+01 9.007218256841531545e-14 1.301042606982605321e-13 6.605293026949732305e-14 8.006416303595401129e-15
4.901000000000000000e+03 3.800057220458984375e+01 -1.764538002014160156e+01 -6.455173038894673754e-14 1.095878216731543953e-13 1.351082687704252897e-14 -7.405934996122451319e-14
4.902000000000000000e+03 3.857138824462890625e+01 -1.710443305969238281e+01 -2.139214234355910071e-13 3.014916062030886801e-13 2.627105211974387067e-14 -3.227586519447336877e-14
4.903000000000000000e+03 3.852949523925781250e+01 -2.737916755676269531e+01 -4.553649124439118623e-14 -1.951563910473907981e-14 -1.951563910473907981e-14 -1.200962445539310169e-14
4.904000000000000000e+03 3.274045944213867188e+01 -2.926802062988281250e+01 -1.401122768425900472e-14 -6.004812227696550847e-15 -6.004812227696550847e-15 -7.205774334422682115e-14
4.905000000000000000e+03 2.841758155822753906e+01 -2.123005485534667969e+01 1.961571909677578551e-13 8.406736949368581735e-14 8.406736949368581735e-14 2.001604075898850282e-14
4.906000000000000000e+03 3.137533569335937500e+01 -2.726654052734375000e+01 1.441154866884536423e-13 3.362694779747432694e-13 1.441154866884536423e-13 -1.180946345488015359e-13
4.907000000000000000e+03 3.907574462890625000e+01 -1.790678215026855469e+01 -3.602887167211341057e-14 3.963175816169839383e-13 1.080866150163402317e-13 -9.207378240914942946e-14
4.908000000000000000e+03 3.964160537719726562e+01 -2.230540657043457031e+01 -3.202566521438160452e-14 5.124106434301056723e-13 1.441154866884536423e-13 1.160930347080674219e-13
4.909000000000000000e+03 2.951136016845703125e+01 -1.792698097229003906e+01 1.240994476235310340e-13 7.606094980195862720e-14 6.004811719476782494e-14 6.004812227696550847e-15
4.910000000000000000e+03 3.301009750366210938e+01 -1.530346679687500000e+01 -4.433552862944528661e-13 -7.005613842129502361e-15 -1.351082738526229732e-13 -9.607699564314481355e-14
4.911000000000000000e+03 2.893143081665039062e+01 -1.197770118713378906e+01 -1.220978477827969200e-13 -1.781427517435693608e-13 -9.007218256841531545e-14 7.005614350349270714e-14
4.912000000000000000e+03 4.619906234741210938e+01 -1.979197502136230469e+01 8.907137587178468041e-14 5.414338682258046376e-13 1.891515779726613000e-13 8.807057595141762341e-14
4.913000000000000000e+03 4.001325988769531250e+01 -2.041060447692871094e+01 1.000802021008766196e-13 6.605293026949732305e-13 2.281828697346666157e-13 -5.604491073703601889e-14
4.914000000000000000e+03 5.583282470703125000e+01 -2.174434471130371094e+01 1.240994476235310340e-13 3.963175816169839383e-13 1.561251128379126385e-13 -3.202566521438160452e-14
4.915000000000000000e+03 5.067356491088867188e+01 -2.620687866210937500e+01 -1.271018609371593611e-13 3.702967498061225660e-14 -2.702165375408505793e-14 -1.521218996039172544e-13
4.916000000000000000e+03 3.147938537597656250e+01 -2.625244522094726562e+01 2.386912824510478703e-13 7.656135653840573374e-14 9.457578898633065001e-14 -9.407538902614712151e-14
4.917000000000000000e+03 5.347168350219726562e+01 -2.551362800598144531e+01 -2.181748434259417335e-13 1.581267126786467525e-13 -1.801443583605670529e-14 7.205774334422682115e-14
4.918000000000000000e+03 3.036453819274902344e+01 -2.607742881774902344e+01 6.104892389139845998e-14 2.491996951674291250e-13 9.307458910578006450e-14 -4.353488801552528320e-14
4.919000000000000000e+03 1.546663475036621094e+01 -3.943632507324218750e+01 -3.803047490097931360e-14 -1.421138868477195283e-13 -5.404330750817011586e-14 8.006416303595401129e-14
4.920000000000000000e+03 4.269725799560546875e+01 -1.354800891876220703e+01 -6.725389559494865388e-13 3.202566521438160452e-14 -1.921539912862896271e-13 -1.601283260719080226e-14
4.921000000000000000e+03 5.514135742187500000e+01 -1.697054672241210938e+01 4.003208151797700565e-14 2.001604042017532392e-13 7.205774334422682115e-14 -2.722181475459800604e-13
4.922000000000000000e+03 4.695511245727539062e+01 -1.740533065795898438e+01 -2.782229470681824024e-13 2.582069215557869502e-13 -6.004812227696550847e-15 1.601283260719080226e-14
4.923000000000000000e+03 4.546772384643554688e+01 -1.629050254821777344e+01 -2.441956955655938399e-13 4.443560862148199231e-13 6.004811719476782494e-14 1.681347389873716347e-13
4.924000000000000000e+03 4.932161331176757812e+01 -2.429069900512695312e+01 1.150922347877003649e-13 2.151724301123134064e-13 9.907939540424598457e-14 -1.671339390670045777e-13
4.925000000000000000e+03 4.813824462890625000e+01 -2.919329071044921875e+01 -7.606094980195862720e-14 1.961571909677578551e-13 3.602887167211341057e-14 -2.061652172764827373e-13
4.926000000000000000e+03 5.498915100097656250e+01 -1.930760765075683594e+01 -8.006416303595401129e-14 5.604491480279416571e-13 1.441154866884536423e-13 -2.321860694161348437e-13
4.927000000000000000e+03 5.562526321411132812e+01 -1.923989677429199219e+01 -5.604491073703601889e-14 2.962373998448980528e-13 7.205774334422682115e-14 -1.120898214740720378e-13
4.928000000000000000e+03 7.952570343017578125e+01 -3.578297042846679688e+01 8.406736949368581735e-14 1.961571909677578551e-13 8.406736949368581735e-14 -6.405133042876320904e-14
4.929000000000000000e+03 7.963762664794921875e+01 -2.931817817687988281e+01 -7.205774334422682115e-14 1.521218996039172544e-13 2.401924891078620339e-14 -5.204170427930421283e-14
4.930000000000000000e+03 7.881654357910156250e+01 -3.160589981079101562e+01 1.000802037949425141e-14 2.101684169579509653e-13 6.605293026949732305e-14 -1.080866150163402317e-13
4.931000000000000000e+03 7.964878845214843750e+01 -2.454718589782714844e+01 -3.202566521438160452e-14 3.202566521438160452e-14 0.000000000000000000e+00 3.602887167211341057e-14
4.932000000000000000e+03 7.965113067626953125e+01 -2.375069236755371094e+01 1.381106736137241442e-13 2.421940957248597259e-13 1.140914348673333079e-13 -5.604491073703601889e-14
4.933000000000000000e+03 7.965800476074218750e+01 -1.899075126647949219e+01 -4.403528797570881170e-14 1.641315257533762506e-13 3.602887167211341057e-14 4.003208151797700565e-15
4.934000000000000000e+03 7.965076446533203125e+01 -1.819554710388183594e+01 7.005614350349270714e-14 1.901523778930283570e-13 7.806255641895631925e-14 -1.601283260719080226e-14
4.935000000000000000e+03 7.965936279296875000e+01 -2.215954589843750000e+01 2.001604075898850282e-15 1.381106736137241442e-13 4.203368474684290867e-14 -3.202566521438160452e-14
4.936000000000000000e+03 7.966236877441406250e+01 -2.136716270446777344e+01 -2.001604075898850282e-14 2.201764432666758475e-13 6.004811719476782494e-14 -6.405133042876320904e-14
4.937000000000000000e+03 7.963535308837890625e+01 -1.261837959289550781e+01 0.000000000000000000e+00 0.000000000000000000e+00 0.000000000000000000e+00 2.802245536851800944e-14
4.938000000000000000e+03 7.964554595947265625e+01 -1.183118724822998047e+01 9.607699564314481355e-14 -9.607699564314481355e-14 0.000000000000000000e+00 -3.202566521438160452e-14
4.939000000000000000e+03 7.966115570068359375e+01 -1.026064682006835938e+01 -2.401924891078620339e-14 -5.604491073703601889e-14 -2.401924891078620339e-14 -4.003208151797700565e-15
4.940000000000000000e+03 7.547454833984375000e+01 -1.096853637695312500e+01 -4.803849782157240678e-14 -1.120898214740720378e-13 -4.803849782157240678e-14 8.006416303595401129e-14
4.941000000000000000e+03 7.628947448730468750e+01 -1.024177074432373047e+01 3.803047490097931360e-14 6.204972381176551699e-14 3.002405859738391247e-14 -3.202566521438160452e-14
4.942000000000000000e+03 7.888489532470703125e+01 -1.329476070404052734e+01 1.200962343895356499e-13 -4.003208151797700565e-14 2.401924891078620339e-14 -1.601283260719080226e-14
4.943000000000000000e+03 7.888997650146484375e+01 -1.410290241241455078e+01 -1.080866150163402317e-13 -9.207378240914942946e-14 -6.004811719476782494e-14 4.403528797570881170e-14
4.944000000000000000e+03 7.815585327148437500e+01 -1.483804607391357422e+01 -1.381106736137241442e-13 -8.206576287668812530e-14 -6.605293026949732305e-14 8.807057595141762341e-14
4.945000000000000000e+03 7.963904571533203125e+01 -1.660486984252929688e+01 -1.541235129971785245e-13 -6.605293026949732305e-14 -6.605293026949732305e-14 -4.403528797570881170e-14
4.946000000000000000e+03 7.892949676513671875e+01 -1.732174873352050781e+01 -1.200962343895356499e-13 4.003208151797700565e-14 -2.401924891078620339e-14 3.202566521438160452e-14
4.947000000000000000e+03 7.891260528564453125e+01 -1.652567481994628906e+01 6.605293026949732305e-14 7.405934996122451319e-14 4.203368474684290867e-14 1.401122870069854143e-13
4.948000000000000000e+03 7.349786376953125000e+01 -1.769964981079101562e+01 9.007218256841531545e-14 -1.100882216333379238e-13 -6.004812227696550847e-15 -5.904731727440076794e-14
4.949000000000000000e+03 7.895726776123046875e+01 -1.811722183227539062e+01 8.807057595141762341e-14 -8.006416303595401129e-15 2.401924891078620339e-14 9.607699564314481355e-14
4.950000000000000000e+03 7.899135589599609375e+01 -2.047472572326660156e+01 -8.006416303595401129e-15 8.807057595141762341e-14 2.401924891078620339e-14 -6.405133042876320904e-14
4.951000000000000000e+03 7.897530364990234375e+01 -2.204053497314453125e+01 4.003208151797700565e-15 2.762213472274482884e-13 8.406736949368581735e-14 -5.204170427930421283e-14
4.952000000000000000e+03 7.757723236083984375e+01 -2.258125495910644531e+01 2.041636038832214672e-13 -4.003208151797700565e-15 6.004811719476782494e-14 -5.204170427930421283e-14
4.953000000000000000e+03 7.893480682373046875e+01 -2.761005783081054688e+01 -2.001604075898850282e-14 2.201764432666758475e-13 6.004811719476782494e-14 -1.200962445539310169e-14
4.954000000000000000e+03 7.964546203613281250e+01 -2.772728347778320312e+01 -4.003208151797700565e-15 4.403528797570881170e-14 1.200962445539310169e-14 -3.602887167211341057e-14
4.955000000000000000e+03 7.893032836914062500e+01 -2.840176010131835938e+01 2.121700303512122354e-13 6.805453688649501509e-14 8.406736949368581735e-14 4.003208151797700565e-15
4.956000000000000000e+03 7.891621398925781250e+01 -2.919876861572265625e+01 -6.805453688649501509e-14 1.080866150163402317e-13 1.200962445539310169e-14 9.207378240914942946e-14
4.957000000000000000e+03 7.866244506835937500e+01 -3.408190536499023438e+01 6.204972381176551699e-14 2.782229470681824024e-13 1.020818019416107336e-13 4.403528797570881170e-14
4.958000000000000000e+03 7.954908752441406250e+01 -3.413185882568359375e+01 -1.100882216333379238e-13 9.007218256841531545e-14 -6.004812227696550847e-15 -4.403528797570881170e-14
4.959000000000000000e+03 7.860706329345703125e+01 -3.496179580688476562e+01 1.000802037949425141e-14 2.101684169579509653e-13 6.605293026949732305e-14 -5.604491073703601889e-14
4.960000000000000000e+03 7.857779693603515625e+01 -3.587759780883789062e+01 5.204170427930421283e-14 2.281828697346666157e-13 8.406736949368581735e-14 4.803849782157240678e-14
4.961000000000000000e+03 7.919326019287109375e+01 -4.003692626953125000e+01 -8.344186615532461770e-14 1.472429898277324845e-13 1.914033913460143344e-14 1.035830085984248972e-13
4.962000000000000000e+03 7.969899749755859375e+01 -3.973765182495117188e+01 1.601283260719080226e-14 3.042437992078345088e-13 9.607699564314481355e-14 -6.405133042876320904e-14
4.963000000000000000e+03 7.884640502929687500e+01 -4.076166152954101562e+01 1.601283260719080226e-14 4.643721388322696875e-13 1.441154866884536423e-13 1.200962445539310169e-14
4.964000000000000000e+03 7.870761108398437500e+01 -4.185430908203125000e+01 3.402726844324750755e-14 2.662133209187234062e-13 9.007218256841531545e-14 4.403528797570881170e-14
4.965000000000000000e+03 5.311920547485351562e+01 -1.571788406372070312e+01 -3.102486190588275849e-14 1.411130869273524713e-13 3.302646513474866152e-14 -2.331868693365019007e-13
4.966000000000000000e+03 4.665301132202148438e+01 -1.825008773803710938e+01 -1.801443583605670529e-14 3.582871304329271478e-13 1.020818019416107336e-13 -3.202566521438160452e-14
4.967000000000000000e+03 5.512061691284179688e+01 -2.010536193847656250e+01 7.205774334422682115e-14 3.282630515067525012e-13 1.200962343895356499e-13 -1.321058605389946461e-13
4.968000000000000000e+03 5.709162521362304688e+01 -2.754783058166503906e+01 -2.502005094873562853e-15 2.076664171570333228e-13 6.154932385158198849e-14 -7.756215645877279075e-14
4.969000000000000000e+03 1.301582813262939453e+01 -3.528384017944335938e+01 8.006416303595401129e-14 2.401924687790712998e-13 9.607699564314481355e-14 -6.405133042876320904e-14
4.970000000000000000e+03 1.290113830566406250e+01 -3.783167266845703125e+01 1.240994476235310340e-13 7.606094980195862720e-14 6.004811719476782494e-14 -6.004811719476782494e-14
4.971000000000000000e+03 4.685559082031250000e+01 -2.829021072387695312e+01 -1.200962343895356499e-13 2.001604042017532392e-13 2.401924891078620339e-14 -2.421940957248597259e-13
4.972000000000000000e+03 2.531498908996582031e+01 -3.177630996704101562e+01 6.605293026949732305e-14 3.943159817762498243e-13 1.381106736137241442e-13 -1.200962445539310169e-14
4.973000000000000000e+03 2.463262557983398438e+01 -3.276332092285156250e+01 1.501202997631831404e-13 4.303448602246268129e-13 1.741395520621011328e-13 -2.802245536851800944e-14
4.974000000000000000e+03 4.647132492065429688e+01 -2.735572814941406250e+01 -2.201764432666758475e-13 1.801443651368306309e-13 -1.200962445539310169e-14 -2.361892690976030718e-13
4.975000000000000000e+03 5.575738906860351562e+01 -2.005534553527832031e+01 4.403528797570881170e-14 4.763817378766743715e-13 1.561251128379126385e-13 -2.041636038832214672e-13
4.976000000000000000e+03 2.354800987243652344e+01 -3.866387939453125000e+01 1.160930347080674219e-13 1.641315257533762506e-13 8.406736949368581735e-14 9.207378240914942946e-14
4.977000000000000000e+03 5.262985229492187500e+01 -1.513122940063476562e+01 3.602887167211341057e-14 2.441956955655938399e-13 8.406736949368581735e-14 -1.571259127582796955e-13
4.978000000000000000e+03 5.191015243530273438e+01 -1.573471927642822266e+01 4.228388472693467293e-14 1.553745061213737677e-13 5.929751725449253219e-14 -1.861491782115601290e-13
4.979000000000000000e+03 4.597652053833007812e+01 -2.216098976135253906e+01 1.521218996039172544e-13 2.481988952470620680e-13 1.200962343895356499e-13 -1.841475648182988589e-13
4.980000000000000000e+03 4.573995590209960938e+01 -2.697155380249023438e+01 -2.882309733769072846e-13 -3.202566521438160452e-14 -9.607699564314481355e-14 4.403528797570881170e-14
4.981000000000000000e+03 5.582792282104492188e+01 -2.088926315307617188e+01 4.203368474684290867e-14 3.382710778154773834e-13 1.140914348673333079e-13 -8.807057595141762341e-14
4.982000000000000000e+03 2.356459045410156250e+01 -2.968172454833984375e+01 -5.904731727440076794e-14 1.291034607778934751e-13 2.101684237342145434e-14 5.754611739385018243e-14
4.983000000000000000e+03 1.881572723388671875e+01 -2.575712776184082031e+01 2.361892690976030718e-13 -3.602887167211341057e-14 6.004811719476782494e-14 1.401122870069854143e-13
4.984000000000000000e+03 2.550563812255859375e+01 -3.521957778930664062e+01 1.541235129971785245e-13 2.261812563414053456e-13 1.140914348673333079e-13 -4.403528797570881170e-14
4.985000000000000000e+03 2.467137336730957031e+01 -3.603598022460937500e+01 9.407538902614712151e-14 4.063256079257088205e-13 1.501202997631831404e-13 -2.401924891078620339e-14
4.986000000000000000e+03 1.285765647888183594e+01 -3.097529220581054688e+01 1.921539912862896271e-13 1.281026608575264181e-13 9.607699564314481355e-14 4.003208151797700565e-14
4.987000000000000000e+03 1.216567993164062500e+01 -3.537125015258789062e+01 -2.401924891078620339e-14 1.040834085586084257e-13 2.401924891078620339e-14 -4.803849782157240678e-14
4.988000000000000000e+03 2.135874748229980469e+01 -2.740766525268554688e+01 -3.702967498061225660e-14 -3.302646513474866152e-14 -2.101684237342145434e-14 2.902325867701685547e-14
4.989000000000000000e+03 2.273235893249511719e+01 -2.662725830078125000e+01 -9.807859548387892756e-14 -1.220978477827969200e-13 -6.605293026949732305e-14 5.404330750817011586e-14
4.990000000000000000e+03 2.125755691528320312e+01 -3.967972564697265625e+01 -8.006416303595401129e-15 8.807057595141762341e-14 2.401924891078620339e-14 6.405133042876320904e-14
4.991000000000000000e+03 2.071343040466308594e+01 -4.137282943725585938e+01 9.157338244896590096e-14 -6.505213034913026604e-15 2.552045048540268340e-14 2.001604075898850282e-14
4.992000000000000000e+03 1.993104934692382812e+01 -4.086896514892578125e+01 2.351884725653678038e-14 1.501203056924137712e-15 7.506014649345978118e-15 4.503609128420765773e-14
4.993000000000000000e+03 1.392823791503906250e+01 -3.046640205383300781e+01 1.481186999224490264e-13 2.922341730583755126e-13 1.321058605389946461e-13 2.642117210779892922e-13
4.994000000000000000e+03 1.323935222625732422e+01 -3.015334129333496094e+01 1.381106736137241442e-13 3.222582519845501592e-13 1.381106736137241442e-13 -2.001604075898850282e-14
4.995000000000000000e+03 2.468285751342773438e+01 -3.001815986633300781e+01 8.106496295632106830e-14 3.492799040445693226e-13 1.291034607778934751e-13 -5.804651735403371093e-14
4.996000000000000000e+03 2.376340675354003906e+01 -4.011049652099609375e+01 -1.000802037949425141e-14 1.100882216333379238e-13 3.002405859738391247e-14 5.404330750817011586e-14
4.997000000000000000e+03 1.535889053344726562e+01 -2.847427749633789062e+01 1.881507780522942430e-13 1.721379386688398627e-13 1.080866150163402317e-13 2.962373998448980528e-13
4.998000000000000000e+03 1.480078506469726562e+01 -2.810957336425781250e+01 3.347682645416655278e-13 1.406126869671689428e-13 1.426142868079030568e-13 2.466976818139843264e-13
4.999000000000000000e+03 2.673089027404785156e+01 -2.172611045837402344e+01 1.020818019416107336e-13 -2.001604075898850282e-15 3.002405859738391247e-14 -6.805453688649501509e-14
5.000000000000000000e+03 1.377482128143310547e+01 -2.944086074829101562e+01 4.123304345529654746e-13 2.682149478645118323e-13 2.041636038832214672e-13 1.606287260320915511e-13
5.001000000000000000e+03 1.219232559204101562e+01 -3.445923233032226562e+01 5.004010105043830980e-14 2.502004950877961820e-13 9.007218256841531545e-14 -6.405133042876320904e-14
5.002000000000000000e+03 2.544075202941894531e+01 -3.350889968872070312e+01 3.803047490097931360e-14 3.823063556267908281e-13 1.261010474642651480e-13 -4.403528797570881170e-14
5.003000000000000000e+03 1.247435379028320312e+01 -3.271290206909179688e+01 0.000000000000000000e+00 1.601283260719080226e-13 4.803849782157240678e-14 4.003208151797700565e-15
5.004000000000000000e+03 1.231324672698974609e+01 -3.357486724853515625e+01 8.206576287668812530e-14 5.804651735403371093e-14 4.203368474684290867e-14 -4.003208151797700565e-15
5.005000000000000000e+03 1.615780258178710938e+01 -4.014358901977539062e+01 1.251002526260957745e-14 -1.751403587587317678e-14 -1.501203056924137712e-15 4.403528797570881170e-14
5.006000000000000000e+03 2.165068054199218750e+01 -2.644853591918945312e+01 -2.001604075898850282e-14 -2.602085213965210642e-13 -8.406736949368581735e-14 5.604491073703601889e-14
5.007000000000000000e+03 1.404346752166748047e+01 -3.896802902221679688e+01 -2.201764398785440585e-14 -7.806255641895631925e-14 -3.002405859738391247e-14 6.805453688649501509e-14
5.008000000000000000e+03 1.314569187164306641e+01 -2.473680496215820312e+01 2.802245536851800944e-14 1.200962445539310169e-14 1.200962445539310169e-14 1.040834085586084257e-13
5.009000000000000000e+03 2.465214157104492188e+01 -3.358313369750976562e+01 -1.841475648182988589e-13 2.642117210779892922e-13 2.401924891078620339e-14 4.003208151797700565e-14
5.010000000000000000e+03 6.309622192382812500e+01 -2.737464904785156250e+01 1.921539912862896271e-13 2.882309733769072846e-13 1.441154866884536423e-13 -2.802245740139708285e-13
5.011000000000000000e+03 5.908923339843750000e+01 -2.550581169128417969e+01 1.441154866884536423e-13 3.362694779747432694e-13 1.441154866884536423e-13 -4.003208151797700565e-14
5.012000000000000000e+03 6.132512664794921875e+01 -2.653919982910156250e+01 -3.402726844324750755e-14 -4.263416605431585849e-13 -1.381106736137241442e-13 -1.561251128379126385e-13
5.013000000000000000e+03 7.650774383544921875e+01 -8.731704711914062500e+00 5.004010105043830980e-14 2.502004950877961820e-13 9.007218256841531545e-14 8.406736949368581735e-14
5.014000000000000000e+03 7.801715087890625000e+01 -7.938874721527099609e+00 1.321058605389946461e-13 1.481186999224490264e-13 8.406736949368581735e-14 1.040834085586084257e-13
5.015000000000000000e+03 3.538165092468261719e-01 -3.802814102172851562e+01 1.000802037949425141e-14 3.702967294773318319e-13 1.140914348673333079e-13 1.601283260719080226e-14
5.016000000000000000e+03 1.018621206283569336e+00 -3.722232055664062500e+01 1.180946345488015359e-13 1.421138868477195283e-13 7.806255641895631925e-14 -1.040834085586084257e-13
5.017000000000000000e+03 3.637412190437316895e-01 -1.631598472595214844e+01 -6.805453688649501509e-14 1.080866150163402317e-13 1.200962445539310169e-14 4.003208151797700565e-15
5.018000000000000000e+03 1.010596513748168945e+00 -7.442802906036376953e+00 -2.301844695754007297e-13 -1.901523778930283570e-13 -1.261010474642651480e-13 2.001604075898850282e-14
5.019000000000000000e+03 3.510706722736358643e-01 -1.873345565795898438e+01 6.004812227696550847e-15 2.542037218743187221e-13 7.806255641895631925e-14 4.803849782157240678e-14
5.020000000000000000e+03 3.331981599330902100e-01 -2.278483009338378906e+01 -8.006416303595401129e-14 4.003208084035064784e-13 9.607699564314481355e-14 -8.006416303595401129e-15
5.021000000000000000e+03 3.465965986251831055e-01 -2.519124794006347656e+01 -7.806255641895631925e-14 5.804651735403371093e-14 -6.004812227696550847e-15 -4.003208151797700565e-15
5.022000000000000000e+03 1.124339699745178223e+00 -3.004737281799316406e+01 -2.001604075898850282e-14 -1.000802021008766196e-13 -3.602887167211341057e-14 -7.205774334422682115e-14
5.023000000000000000e+03 1.136672139167785645e+00 -3.657463455200195312e+01 -1.601283260719080226e-14 1.601283260719080226e-14 0.000000000000000000e+00 -2.001604075898850282e-14
5.024000000000000000e+03 1.267230510711669922e+00 -3.932751846313476562e+01 -1.000802021008766196e-13 1.401122870069854143e-13 1.200962445539310169e-14 4.803849782157240678e-14
5.025000000000000000e+03 1.823222041130065918e+00 -3.779652023315429688e+01 6.805453688649501509e-14 2.121700303512122354e-13 8.406736949368581735e-14 -1.160930347080674219e-13
5.026000000000000000e+03 1.137903332710266113e+00 -3.862547683715820312e+01 -5.604491073703601889e-14 2.962373998448980528e-13 7.205774334422682115e-14 -4.003208151797700565e-14
5.027000000000000000e+03 1.292929053306579590e+00 -3.582752609252929688e+01 -1.601283260719080226e-14 1.761411519028352468e-13 4.803849782157240678e-14 -5.204170427930421283e-14
5.028000000000000000e+03 1.895608901977539062e+00 -3.089647483825683594e+01 -1.801443583605670529e-14 3.803047490097931360e-14 6.004812227696550847e-15 7.205774334422682115e-14
5.029000000000000000e+03 1.173609375953674316e+00 -3.246815109252929688e+01 1.000802037949425141e-14 5.004010105043830980e-14 1.801443583605670529e-14 8.006416303595401129e-15
5.030000000000000000e+03 3.779310882091522217e-01 -3.084599685668945312e+01 -5.004010105043830980e-14 2.301844695754007297e-13 5.404330750817011586e-14 -2.401924891078620339e-14
5.031000000000000000e+03 1.119744062423706055e+00 -2.922997474670410156e+01 -2.001604075898850282e-15 3.422742774969456114e-13 1.020818019416107336e-13 -7.205774334422682115e-14
5.032000000000000000e+03 1.134350538253784180e+00 -3.086048126220703125e+01 -2.001604075898850282e-14 2.201764432666758475e-13 6.004811719476782494e-14 -7.205774334422682115e-14
5.033000000000000000e+03 1.127972126007080078e+00 -2.758450126647949219e+01 -1.601283260719080226e-14 1.761411519028352468e-13 4.803849782157240678e-14 1.040834085586084257e-13
5.034000000000000000e+03 3.593763411045074463e-01 -2.599561882019042969e+01 1.080866150163402317e-13 4.123304345529654746e-13 1.561251128379126385e-13 5.204170427930421283e-14
5.035000000000000000e+03 1.644930839538574219e+00 -2.426046562194824219e+01 1.200962445539310169e-14 1.881507780522942430e-13 6.004811719476782494e-14 3.202566521438160452e-14
5.036000000000000000e+03 2.143822431564331055e+00 -2.342323684692382812e+01 -8.006416303595401129e-14 8.006416303595401129e-14 0.000000000000000000e+00 -9.207378240914942946e-14
5.037000000000000000e+03 9.959868788719177246e-01 -2.433921241760253906e+01 1.140914348673333079e-13 1.861491782115601290e-13 9.007218256841531545e-14 4.403528797570881170e-14
5.038000000000000000e+03 3.197548627853393555e+00 -1.791079902648925781e+01 1.080866150163402317e-13 9.207378240914942946e-14 6.004811719476782494e-14 6.004811719476782494e-14
5.039000000000000000e+03 4.042176246643066406e+00 -2.008064079284667969e+01 5.204170427930421283e-14 6.805453688649501509e-14 3.602887167211341057e-14 -1.240994476235310340e-13
5.040000000000000000e+03 3.530203402042388916e-01 -1.954355430603027344e+01 -4.603689120457471473e-14 1.861491782115601290e-13 4.203368474684290867e-14 0.000000000000000000e+00
5.041000000000000000e+03 2.448086261749267578e+00 -1.995759201049804688e+01 -3.002405859738391247e-14 1.701363388281057487e-13 4.203368474684290867e-14 -1.521218996039172544e-13
5.042000000000000000e+03 4.731435298919677734e+00 -1.756104469299316406e+01 1.761411519028352468e-13 -1.601283260719080226e-14 4.803849782157240678e-14 8.006416303595401129e-14
5.043000000000000000e+03 1.795084834098815918e+00 -1.777306175231933594e+01 1.000802037949425141e-14 5.004010105043830980e-14 1.801443583605670529e-14 5.204170427930421283e-14
5.044000000000000000e+03 1.098194718360900879e+00 -1.620115661621093750e+01 -2.401924891078620339e-14 -5.604491073703601889e-14 -2.401924891078620339e-14 9.207378240914942946e-14
5.045000000000000000e+03 1.064776182174682617e+00 -1.458330917358398438e+01 1.541235129971785245e-13 6.605293026949732305e-14 6.605293026949732305e-14 -8.406736949368581735e-14
5.046000000000000000e+03 1.054994583129882812e+00 -1.139853286743164062e+01 1.240994476235310340e-13 -8.406736949368581735e-14 1.200962445539310169e-14 -8.807057595141762341e-14
5.047000000000000000e+03 3.496827781200408936e-01 -9.895269393920898438e+00 -3.803047490097931360e-14 -6.204972381176551699e-14 -3.002405859738391247e-14 1.080866150163402317e-13
5.048000000000000000e+03 1.047138810157775879e+00 -9.805810928344726562e+00 1.401122870069854143e-13 6.004811719476782494e-14 6.004811719476782494e-14 -1.401122870069854143e-13
5.049000000000000000e+03 4.696383953094482422e+00 -3.219835758209228516e+00 6.405133042876320904e-14 -6.405133042876320904e-14 0.000000000000000000e+00 1.601283260719080226e-14
5.050000000000000000e+03 3.265210628509521484e+00 -3.194571256637573242e+00 5.304250758780305885e-14 -3.432750774173126684e-13 -8.706977603105056640e-14 1.080866150163402317e-13
5.051000000000000000e+03 1.740504980087280273e+00 -3.573512315750122070e+00 -8.606896933441993136e-14 -1.741395520621011328e-13 -7.806255641895631925e-14 2.802245536851800944e-14
5.052000000000000000e+03 9.807021021842956543e-01 -5.892739295959472656e+00 4.003208151797700565e-15 -4.403528797570881170e-14 -1.200962445539310169e-14 4.403528797570881170e-14
5.053000000000000000e+03 1.050623059272766113e+00 -3.518693208694458008e+00 3.202566521438160452e-14 1.281026608575264181e-13 4.803849782157240678e-14 6.405133042876320904e-14
5.054000000000000000e+03 3.502090573310852051e-01 -3.505587100982666016e+00 -1.160930347080674219e-13 -4.003208151797700565e-15 -3.602887167211341057e-14 4.003208151797700565e-15
5.055000000000000000e+03 4.127415466308593750e+01 -1.606146216392517090e+00 1.631307258330091936e-13 2.071660171968497943e-13 1.110890215537049808e-13 3.602887167211341057e-14
5.056000000000000000e+03 4.213804244995117188e+01 -3.576090574264526367e+00 -3.262614516660183872e-13 -1.741395520621011328e-13 -1.501202997631831404e-13 -2.041636038832214672e-13
5.057000000000000000e+03 3.008756065368652344e+01 -9.362204551696777344e+00 -1.160930347080674219e-13 -4.003208151797700565e-15 -3.602887167211341057e-14 9.807859548387892756e-14
5.058000000000000000e+03 3.028500747680664062e+01 -8.409699440002441406e+00 3.462775042834681516e-13 3.402726844324750755e-14 1.140914348673333079e-13 -4.403528797570881170e-14
5.059000000000000000e+03 2.183415222167968750e+01 -1.354743766784667969e+01 -4.523625126828106913e-13 -1.481186999224490264e-13 -1.801443651368306309e-13 7.205774334422682115e-14
5.060000000000000000e+03 2.204771804809570312e+01 -1.526156902313232422e+01 -5.604491073703601889e-14 -2.401924891078620339e-14 -2.401924891078620339e-14 1.200962445539310169e-14
5.061000000000000000e+03 4.091654968261718750e+01 -3.528498888015747070e+00 -6.305052373213257400e-14 -2.702165375408505793e-14 -2.702165375408505793e-14 -6.805453688649501509e-14
5.062000000000000000e+03 4.153648376464843750e+01 -3.024164676666259766e+00 1.243496543798863763e-13 5.329270756789482311e-14 5.329270756789482311e-14 1.190954344691685929e-13
5.063000000000000000e+03 6.511463928222656250e+01 -2.972301483154296875e+01 2.401924891078620339e-14 2.161732300326804634e-13 7.205774334422682115e-14 -1.601283260719080226e-13
5.064000000000000000e+03 6.553417205810546875e+01 -3.037573432922363281e+01 9.882919542415422032e-15 1.414883835093583286e-13 4.541139125434530410e-14 -1.175942345886180074e-13
5.065000000000000000e+03 5.884187316894531250e+01 -2.774202728271484375e+01 -7.606094980195862720e-14 1.961571909677578551e-13 3.602887167211341057e-14 -4.803849782157240678e-14
5.066000000000000000e+03 5.947808456420898438e+01 -2.726392936706542969e+01 -1.180946345488015359e-13 -6.204972381176551699e-14 -5.404330750817011586e-14 1.701363422162375377e-14
5.067000000000000000e+03 3.803543472290039062e+01 -5.509274959564208984e+00 3.202566521438160452e-14 -3.202566521438160452e-14 0.000000000000000000e+00 6.004811719476782494e-14
5.068000000000000000e+03 5.815292358398437500e+01 -3.883147811889648438e+01 -4.703769451307356075e-14 1.571259127582796955e-13 3.302646513474866152e-14 -1.771419518232023038e-13
5.069000000000000000e+03 5.616620254516601562e+01 -3.355494308471679688e+01 1.391114735340912012e-13 1.511210996835501974e-13 8.706977603105056640e-14 -1.160930347080674219e-13
5.070000000000000000e+03 1.348010730743408203e+01 -1.288638877868652344e+01 -1.641315257533762506e-13 4.403528797570881170e-14 -3.602887167211341057e-14 -4.403528797570881170e-14
5.071000000000000000e+03 5.576262283325195312e+01 -2.259531211853027344e+01 8.606896933441993136e-14 1.741395520621011328e-13 7.806255641895631925e-14 2.401924891078620339e-14
5.072000000000000000e+03 4.727791595458984375e+01 -7.681173324584960938e+00 1.881507780522942430e-13 3.322662782932750414e-13 1.561251128379126385e-13 -1.200962343895356499e-13
5.073000000000000000e+03 4.741027832031250000e+01 -8.524001121520996094e+00 -8.807057595141762341e-14 8.006416303595401129e-15 -2.401924891078620339e-14 0.000000000000000000e+00
5.074000000000000000e+03 6.699959564208984375e+01 -3.213307189941406250e+01 1.050842118671072717e-14 4.503608959014176322e-15 4.503608959014176322e-15 -1.361090737729900302e-13
5.075000000000000000e+03 2.457424163818359375e+01 -1.437678527832031250e+01 -3.592879303532942048e-13 -9.107298248878237246e-14 -1.351082738526229732e-13 -2.902325867701685547e-14
5.076000000000000000e+03 2.389083480834960938e+01 -1.364376831054687500e+01 -4.503609128420765773e-13 -9.007218256841531545e-14 -1.621299259126421366e-13 -1.105886215935214523e-13
5.077000000000000000e+03 4.027510452270507812e+01 -1.986829280853271484e+00 3.242598518252842732e-13 1.160930347080674219e-13 1.321058605389946461e-13 2.461972954063279539e-13
5.078000000000000000e+03 4.213166046142578125e+01 -2.582939147949218750e+00 6.405133042876320904e-14 9.607699564314481355e-14 4.803849782157240678e-14 -8.406736949368581735e-14
5.079000000000000000e+03 4.358535385131835938e+01 -4.253677845001220703e+00 1.361090737729900302e-13 1.040834085586084257e-13 7.205774334422682115e-14 -1.981587908084919691e-13
5.080000000000000000e+03 5.042529678344726562e+01 -7.888620376586914062e+00 1.200962445539310169e-14 1.881507780522942430e-13 6.004811719476782494e-14 -1.601283260719080226e-14
5.081000000000000000e+03 6.271730422973632812e+01 -3.919873046875000000e+01 9.007218256841531545e-14 -3.002405859738391247e-14 1.801443583605670529e-14 -5.104090097080536681e-14
5.082000000000000000e+03 6.202647018432617188e+01 -3.828388977050781250e+01 6.004811719476782494e-14 -2.001604075898850282e-14 1.200962445539310169e-14 3.602887167211341057e-14
5.083000000000000000e+03 2.963387107849121094e+01 -1.022236442565917969e+01 -7.906335633932337625e-14 -1.711371387484728057e-13 -7.506014988159157020e-14 -1.120898214740720378e-13
5.084000000000000000e+03 5.629722213745117188e+01 -3.277719116210937500e+01 6.004812227696550847e-15 9.407538902614712151e-14 3.002405859738391247e-14 6.405133042876320904e-14
5.085000000000000000e+03 5.495279312133789062e+01 -3.390273284912109375e+01 4.003208151797700565e-14 4.003208151797700565e-14 2.401924891078620339e-14 -1.160930347080674219e-13
5.086000000000000000e+03 5.100059890747070312e+01 -3.228084182739257812e+01 6.204972381176551699e-14 1.180946345488015359e-13 5.404330750817011586e-14 -2.081668171172168513e-13
5.087000000000000000e+03 6.449485015869140625e+01 -3.796599197387695312e+01 5.104090097080536681e-14 3.903127820947815962e-14 2.702165375408505793e-14 1.000802037949425141e-15
5.088000000000000000e+03 1.973143959045410156e+01 -1.213017749786376953e+01 -1.374851702753629445e-13 -5.892222067248667483e-14 -5.892222067248667483e-14 3.062454261536229350e-13
5.089000000000000000e+03 2.006955909729003906e+01 -1.354289913177490234e+01 -1.901523778930283570e-13 1.701363388281057487e-13 -6.004812227696550847e-15 1.601283260719080226e-13
5.090000000000000000e+03 4.801633834838867188e+01 -1.176237678527832031e+01 5.604491073703601889e-14 3.442758773376797254e-13 1.200962343895356499e-13 1.601283260719080226e-14
5.091000000000000000e+03 5.655701065063476562e+01 -3.742651367187500000e+01 -2.602085213965210642e-14 1.261010474642651480e-13 3.002405859738391247e-14 -7.205774334422682115e-14
5.092000000000000000e+03 3.732892608642578125e+01 -7.760900974273681641e+00 -5.004010105043830980e-14 3.903127820947815962e-13 1.020818019416107336e-13 1.200962445539310169e-14
5.093000000000000000e+03 3.619022369384765625e+01 -9.046795845031738281e+00 6.405133042876320904e-14 9.607699564314481355e-14 4.803849782157240678e-14 -7.405934996122451319e-14
5.094000000000000000e+03 5.738526535034179688e+01 -2.973279380798339844e+01 2.401924891078620339e-14 5.604491073703601889e-14 2.401924891078620339e-14 1.601283260719080226e-14
5.095000000000000000e+03 5.648178100585937500e+01 -3.016670227050781250e+01 -1.541235129971785245e-13 1.401122768425900472e-14 -4.203368474684290867e-14 1.000802037949425141e-14
5.096000000000000000e+03 6.503620147705078125e+01 -3.718284606933593750e+01 -4.603689120457471473e-14 2.602085213965210642e-14 -6.004812227696550847e-15 4.203368474684290867e-14
5.097000000000000000e+03 6.355055236816406250e+01 -2.796544647216796875e+01 3.442758773376797254e-13 2.161732300326804634e-13 1.681347389873716347e-13 -8.506816941405287436e-14
5.098000000000000000e+03 6.368534851074218750e+01 -2.575630569458007812e+01 3.002405859738391247e-14 1.501202997631831404e-13 5.404330750817011586e-14 -4.003208151797700565e-14
5.099000000000000000e+03 6.712004089355468750e+01 -3.698465347290039062e+01 5.867202069239491058e-14 2.514515051526503703e-14 2.514515051526503703e-14 8.006416303595401129e-14
5.100000000000000000e+03 4.004719924926757812e+01 -1.847870635986328125e+01 -1.020818019416107336e-13 4.023224082442405924e-13 9.007218256841531545e-14 -5.804651735403371093e-14
5.101000000000000000e+03 6.570603942871093750e+01 -3.327198791503906250e+01 -4.603689120457471473e-14 2.602085213965210642e-14 -6.004812227696550847e-15 -2.802245536851800944e-14
5.102000000000000000e+03 6.659877777099609375e+01 -3.367087173461914062e+01 -1.160930347080674219e-13 3.162534253572935050e-13 6.004811719476782494e-14 -3.602887167211341057e-14
5.103000000000000000e+03 1.915955543518066406e+01 -1.759605646133422852e+00 5.104090435893715583e-13 2.301844695754007297e-13 2.221780431074099615e-13 2.582069215557869502e-13
5.104000000000000000e+03 6.416844177246093750e+01 -2.767489242553710938e+01 8.606896933441993136e-14 2.542037218743187221e-13 1.020818019416107336e-13 -1.781427517435693608e-13
5.105000000000000000e+03 5.685435867309570312e+01 -2.941796684265136719e+01 -1.261010474642651480e-13 2.602085213965210642e-14 -3.002405859738391247e-14 -6.004812227696550847e-15
5.106000000000000000e+03 5.265272521972656250e+01 -3.219677352905273438e+01 -1.000802021008766196e-13 -2.001604075898850282e-14 -3.602887167211341057e-14 -3.803047490097931360e-14
5.107000000000000000e+03 5.529190063476562500e+01 -3.314339065551757812e+01 -4.803849782157240678e-14 -1.120898214740720378e-13 -4.803849782157240678e-14 -2.802245536851800944e-14
5.108000000000000000e+03 5.681923294067382812e+01 -3.541482162475585938e+01 1.541235129971785245e-13 3.863095824133133682e-13 1.621299259126421366e-13 -5.604491073703601889e-14
5.109000000000000000e+03 5.726168823242187500e+01 -2.867987632751464844e+01 -6.004812227696550847e-15 1.461170865291877563e-13 4.203368474684290867e-14 2.502005052521915490e-14
5.110000000000000000e+03 3.037701988220214844e+01 -1.559821319580078125e+01 -3.783031559453226000e-13 7.806255641895631925e-14 -9.007218256841531545e-14 -5.004010105043830980e-14
5.111000000000000000e+03 5.979391098022460938e+01 -2.584425544738769531e+01 3.702967498061225660e-14 1.531227130768114675e-13 5.704571743366665393e-14 -1.240994476235310340e-13
5.112000000000000000e+03 6.638178253173828125e+01 -3.443207550048828125e+01 -1.751403519824681898e-13 -7.506014988159157020e-14 -7.506014988159157020e-14 -2.401924891078620339e-14
5.113000000000000000e+03 6.470398712158203125e+01 -2.746660423278808594e+01 9.607699564314481355e-14 5.444362950919601207e-13 1.921539912862896271e-13 -2.001604075898850282e-14
5.114000000000000000e+03 6.772100830078125000e+01 -3.331901168823242188e+01 1.501202929869195624e-14 2.351884691772360148e-13 7.506014988159157020e-14 -3.602887167211341057e-14
5.115000000000000000e+03 3.033271598815917969e+01 -5.663181781768798828e+00 -2.602085213965210642e-13 -2.001604075898850282e-14 -8.406736949368581735e-14 2.001604075898850282e-14
5.116000000000000000e+03 2.994587326049804688e+01 -3.223108291625976562e+00 -2.016616040823038247e-13 9.657739560332834206e-14 -3.152526186606628700e-14 -3.763015561045884860e-13
5.117000000000000000e+03 6.457147979736328125e+01 -2.695945739746093750e+01 2.321860694161348437e-13 3.282630515067525012e-13 1.681347389873716347e-13 -2.321860694161348437e-13
5.118000000000000000e+03 2.978992843627929688e+01 -4.061391830444335938e+00 -2.542037218743187221e-13 7.405934996122451319e-14 -5.404330750817011586e-14 5.604491073703601889e-14
5.119000000000000000e+03 2.922852325439453125e+01 -4.207015991210937500e+00 6.945566084076704172e-13 2.862293735361731706e-13 2.942358000041639388e-13 -9.407538902614712151e-14
5.120000000000000000e+03 1.751358985900878906e+01 -1.056484889984130859e+01 -9.582678888678947127e-14 4.328468803543351895e-14 -1.576263093303314350e-14 4.578669122448295048e-14
5.121000000000000000e+03 1.462753105163574219e+01 -3.038079261779785156e+00 1.000802021008766196e-13 1.801443651368306309e-13 8.406736949368581735e-14 2.602085213965210642e-13
5.122000000000000000e+03 3.153655433654785156e+01 -1.361420059204101562e+01 -1.781427517435693608e-13 -1.220978477827969200e-13 -9.007218256841531545e-14 1.521218996039172544e-13
5.123000000000000000e+03 2.858259010314941406e+01 -1.060311985015869141e+01 3.202566521438160452e-14 1.281026608575264181e-13 4.803849782157240678e-14 2.952365863720038397e-14
5.124000000000000000e+03 2.645975494384765625e+01 -1.315060901641845703e+01 -3.322662782932750414e-13 -1.881507780522942430e-13 -1.561251128379126385e-13 -1.571259127582796955e-13
5.125000000000000000e+03 2.962513160705566406e+01 -6.630427837371826172e+00 -2.201764432666758475e-13 -1.401122870069854143e-13 -1.080866150163402317e-13 4.803849782157240678e-14
5.126000000000000000e+03 3.097511482238769531e+01 -7.507011890411376953e+00 1.361090737729900302e-13 -2.161732300326804634e-13 -2.401924891078620339e-14 -6.405133042876320904e-14
5.127000000000000000e+03 1.657794952392578125e+01 -6.152326583862304688e+00 -8.807057595141762341e-14 3.282630515067525012e-13 7.205774334422682115e-14 -5.604491073703601889e-14
5.128000000000000000e+03 4.585139083862304688e+01 -1.481269931793212891e+01 -3.102486258350911630e-13 3.702967294773318319e-13 1.801443583605670529e-14 9.207378240914942946e-14
5.129000000000000000e+03 2.529431724548339844e+01 -1.302347183227539062e+01 -3.742999562638543720e-13 3.402726844324750755e-14 -1.020818019416107336e-13 -2.021620040424873532e-13
5.130000000000000000e+03 1.646511077880859375e+01 -6.998091220855712891e+00 1.000802037949425141e-14 5.004010105043830980e-14 1.801443583605670529e-14 1.321058605389946461e-13
5.131000000000000000e+03 4.538453292846679688e+01 -1.274165534973144531e+01 -4.003208151797700565e-15 4.403528797570881170e-14 1.200962445539310169e-14 8.431756947377758160e-14
5.132000000000000000e+03 4.710086059570312500e+01 -1.511287117004394531e+01 -3.262614516660183872e-13 2.261812563414053456e-13 -3.002405859738391247e-14 -1.040834085586084257e-13
5.133000000000000000e+03 3.666582107543945312e+01 -7.551837444305419922e+00 4.003208151797700565e-15 2.762213472274482884e-13 8.406736949368581735e-14 -8.006416303595401129e-15
5.134000000000000000e+03 2.411223793029785156e+01 -1.484809589385986328e+01 -2.994900063623545661e-13 -1.283528540613546043e-13 -1.283528540613546043e-13 -6.305052373213257400e-14
5.135000000000000000e+03 3.616616821289062500e+01 -3.913277864456176758e+00 -2.201764398785440585e-14 8.206576287668812530e-14 1.801443583605670529e-14 -8.006416303595401129e-14
5.136000000000000000e+03 3.687084197998046875e+01 -6.788192272186279297e+00 9.007218256841531545e-14 1.301042606982605321e-13 6.605293026949732305e-14 -7.205774334422682115e-14
5.137000000000000000e+03 2.907477569580078125e+01 -1.094896221160888672e+01 -6.555253030931379454e-14 -9.957980214069309111e-14 -4.953969770212299228e-14 3.702967498061225660e-14
5.138000000000000000e+03 3.655524826049804688e+01 -1.536651039123535156e+01 -5.084074437486374443e-13 -1.721379386688398627e-13 -2.041636038832214672e-13 -7.806255641895631925e-14
5.139000000000000000e+03 1.714631462097167969e+01 -7.893852710723876953e+00 -1.040834085586084257e-13 1.841475648182988589e-13 2.401924891078620339e-14 6.004811719476782494e-14
5.140000000000000000e+03 3.031678390502929688e+01 -7.485721588134765625e+00 -2.121700303512122354e-13 -6.805453688649501509e-14 -8.406736949368581735e-14 9.607699564314481355e-14
5.141000000000000000e+03 1.856315994262695312e+01 -1.192080020904541016e+01 6.154932385158198849e-14 -1.766415518630187753e-13 -3.452766840343103605e-14 1.381106736137241442e-13
5.142000000000000000e+03 1.638157653808593750e+01 -7.921287059783935547e+00 4.003208151797700565e-15 1.160930347080674219e-13 3.602887167211341057e-14 -3.602887167211341057e-14
5.143000000000000000e+03 3.039256477355957031e+01 -6.577845573425292969e+00 1.661331391466375207e-13 -6.605293026949732305e-14 3.002405859738391247e-14 0.000000000000000000e+00
5.144000000000000000e+03 1.680446815490722656e+01 -1.443986988067626953e+01 -1.261010474642651480e-13 2.662133209187234062e-13 4.203368474684290867e-14 1.561251128379126385e-13
5.145000000000000000e+03 3.912293243408203125e+01 -1.847543358802795410e+00 1.881507780522942430e-13 1.721379386688398627e-13 1.080866150163402317e-13 -2.401924891078620339e-14
5.146000000000000000e+03 3.666416931152343750e+01 -1.933200001716613770e+00 1.040834085586084257e-13 -2.401924891078620339e-14 2.401924891078620339e-14 1.681347389873716347e-13
5.147000000000000000e+03 3.813895416259765625e+01 -4.775056838989257812e+00 -2.001604042017532392e-13 1.200962343895356499e-13 -2.401924891078620339e-14 -7.205774334422682115e-14
5.148000000000000000e+03 4.551578140258789062e+01 -1.378861141204833984e+01 -2.061652172764827373e-13 4.263416605431585849e-13 6.605293026949732305e-14 1.501202997631831404e-13
5.149000000000000000e+03 4.600241088867187500e+01 -1.326327610015869141e+01 -1.396118734942747297e-13 -5.504410996963601463e-15 -4.353488801552528320e-14 -8.907137587178468041e-14
5.150000000000000000e+03 4.502637481689453125e+01 -5.112728595733642578e+00 1.981587908084919691e-13 1.421138868477195283e-13 1.020818019416107336e-13 -2.992397996059992238e-13
5.151000000000000000e+03 4.566269302368164062e+01 -5.655040264129638672e+00 4.123304345529654746e-13 2.682149478645118323e-13 2.041636038832214672e-13 -1.311050606186275891e-13
5.152000000000000000e+03 4.556456756591796875e+01 -4.591157913208007812e+00 2.749703405507258891e-13 1.178444413449733497e-13 1.178444413449733497e-13 -1.261010474642651480e-13
5.153000000000000000e+03 4.799193572998046875e+01 -9.415147781372070312e+00 -5.604491073703601889e-14 2.962373998448980528e-13 7.205774334422682115e-14 4.003208151797700565e-14
5.154000000000000000e+03 4.657648468017578125e+01 -1.273109149932861328e+01 -1.085870149765237602e-13 -4.653729455289003225e-14 -4.653729455289003225e-14 8.106496295632106830e-14
5.155000000000000000e+03 4.700371170043945312e+01 -2.857815504074096680e+00 -1.100882216333379238e-13 -5.504410946141624628e-13 -1.981587908084919691e-13 -2.562053217150528361e-13
5.156000000000000000e+03 3.766276168823242188e+01 -1.094616222381591797e+01 2.652125379390152943e-14 1.486190998826325549e-13 5.254210423948774134e-14 -6.805453688649501509e-14
5.157000000000000000e+03 5.107635498046875000e+01 -6.583486080169677734e+00 1.000802021008766196e-13 5.004009901755923639e-13 1.801443651368306309e-13 5.004010105043830980e-14
5.158000000000000000e+03 4.700876235961914062e+01 -3.489746570587158203e+00 1.160930347080674219e-13 3.242598518252842732e-13 1.321058605389946461e-13 -2.962373998448980528e-13
5.159000000000000000e+03 3.867084884643554688e+01 -1.205590534210205078e+01 -2.371900690179701288e-13 1.271018609371593611e-13 -3.302646513474866152e-14 -2.602085213965210642e-14
5.160000000000000000e+03 4.525560379028320312e+01 -2.658572435379028320e+00 7.806255641895631925e-14 -5.804651735403371093e-14 6.004812227696550847e-15 -2.161732300326804634e-13
5.161000000000000000e+03 4.319474792480468750e+01 -3.365659713745117188e+00 4.403528797570881170e-14 1.561251128379126385e-13 6.004811719476782494e-14 -2.722181475459800604e-13
5.162000000000000000e+03 3.863927078247070312e+01 -3.844477415084838867e+00 3.202566521438160452e-14 -3.202566521438160452e-14 0.000000000000000000e+00 -1.120898214740720378e-13
5.163000000000000000e+03 3.731204986572265625e+01 -1.652343630790710449e+00 1.401122870069854143e-13 -1.000802021008766196e-13 1.200962445539310169e-14 0.000000000000000000e+00
5.164000000000000000e+03 4.785271835327148438e+01 -2.828295946121215820e+00 -1.160930347080674219e-13 -4.003208151797700565e-15 -3.602887167211341057e-14 -1.841475648182988589e-13
5.165000000000000000e+03 5.143653488159179688e+01 -3.888148307800292969e+00 4.183352340751678167e-13 3.622903301143953758e-13 2.341876692568689577e-13 2.121700303512122354e-13
5.166000000000000000e+03 4.948399353027343750e+01 -2.524228811264038086e+00 -1.281026608575264181e-13 1.281026608575264181e-13 0.000000000000000000e+00 8.006416303595401129e-15
5.167000000000000000e+03 4.887588882446289062e+01 -8.030754089355468750e+00 3.282630515067525012e-13 7.205774334422682115e-14 1.200962343895356499e-13 -9.207378240914942946e-14
5.168000000000000000e+03 4.567515182495117188e+01 -2.111491203308105469e+01 2.922341730583755126e-13 3.082470259943570490e-13 1.801443651368306309e-13 -1.481186999224490264e-13
5.169000000000000000e+03 4.344219970703125000e+01 -2.820641756057739258e+00 1.981587908084919691e-13 5.424346952512260067e-13 2.221780431074099615e-13 -1.681347389873716347e-13
5.170000000000000000e+03 4.422844696044921875e+01 -3.091885328292846680e+00 1.531227130768114675e-13 1.571259127582796955e-13 9.307458910578006450e-14 -3.042437992078345088e-13
5.171000000000000000e+03 4.480076599121093750e+01 -4.054186344146728516e+00 6.605293026949732305e-14 1.541235129971785245e-13 6.605293026949732305e-14 -3.022421993671003948e-13
5.172000000000000000e+03 4.801557159423828125e+01 -4.851390838623046875e+00 2.121700303512122354e-13 -2.522020949285302960e-13 -1.200962445539310169e-14 -2.602085213965210642e-13
5.173000000000000000e+03 6.478761291503906250e+01 -5.524563312530517578e+00 -9.807859548387892756e-14 -4.203368474684290867e-14 -4.203368474684290867e-14 6.405133042876320904e-14
5.174000000000000000e+03 3.113880920410156250e+01 -3.373044967651367188e+00 1.611291259922750796e-13 6.905533680686207210e-14 6.905533680686207210e-14 -2.001604042017532392e-13
5.175000000000000000e+03 3.734966659545898438e+01 -4.717380523681640625e+00 1.200962445539310169e-14 1.881507780522942430e-13 6.004811719476782494e-14 1.681347389873716347e-13
5.176000000000000000e+03 3.300844955444335938e+01 -3.434072494506835938e+00 2.031628039628544102e-13 8.706977603105056640e-14 8.706977603105056640e-14 -1.321058605389946461e-13
5.177000000000000000e+03 3.224395751953125000e+01 -3.793655633926391602e+00 1.220978477827969200e-13 1.781427517435693608e-13 9.007218256841531545e-14 -1.341074739322559162e-13
5.178000000000000000e+03 5.135517120361328125e+01 -4.771004199981689453e+00 1.180946345488015359e-13 4.623705389915355735e-13 1.741395520621011328e-13 7.606094980195862720e-14
5.179000000000000000e+03 5.047290420532226562e+01 -3.076300621032714844e+00 8.807057595141762341e-14 3.122502256758252770e-13 1.200962343895356499e-13 1.000802021008766196e-13
5.180000000000000000e+03 6.310636138916015625e+01 -5.841459274291992188e+00 -9.607699564314481355e-14 -2.241796429481440756e-13 -9.607699564314481355e-14 -3.602887167211341057e-14
5.181000000000000000e+03 2.947399711608886719e+01 -3.457962989807128906e+00 1.881507780522942430e-13 1.721379386688398627e-13 1.080866150163402317e-13 -3.602887302736612618e-13
5.182000000000000000e+03 3.700965642929077148e+00 -4.175441741943359375e+01 1.050842118671072717e-14 2.446960819732502124e-13 7.656135653840573374e-14 4.803849782157240678e-14
5.183000000000000000e+03 3.884062194824218750e+01 -3.884036636352539062e+01 -1.000802021008766196e-13 6.004811719476782494e-14 -1.200962445539310169e-14 1.701363422162375377e-14
5.184000000000000000e+03 1.809568023681640625e+01 -1.854867219924926758e+00 6.435156769436789492e-13 4.703769451307356075e-14 2.071660171968497943e-13 1.025822086780578402e-13
5.185000000000000000e+03 1.586876296997070312e+01 -1.314360499382019043e+00 2.762213472274482884e-13 -1.561251128379126385e-13 3.602887167211341057e-14 1.961571909677578551e-13
5.186000000000000000e+03 3.906218719482421875e+01 -1.209426879882812500e+00 3.923143819355157103e-13 -1.521218996039172544e-13 7.205774334422682115e-14 -7.205774334422682115e-14
5.187000000000000000e+03 3.993423843383789062e+01 -3.252907037734985352e+00 -1.881507780522942430e-13 -1.721379386688398627e-13 -1.080866150163402317e-13 -4.803849782157240678e-14
5.188000000000000000e+03 3.961443710327148438e+01 -1.195374608039855957e+00 3.082470259943570490e-13 -2.802245536851800944e-14 8.406736949368581735e-14 8.406736949368581735e-14
5.189000000000000000e+03 1.878383064270019531e+01 -1.411289453506469727e+00 4.883913911311876799e-13 3.923143819355157103e-13 2.642117210779892922e-13 4.363496868518834670e-13
5.190000000000000000e+03 1.653079795837402344e+01 -2.269730567932128906e+00 7.606094980195862720e-14 -3.602887167211341057e-14 1.200962445539310169e-14 5.204170427930421283e-14
5.191000000000000000e+03 1.873887634277343750e+01 -9.391170144081115723e-01 6.525229033320367744e-13 -2.922341730583755126e-13 1.080866150163402317e-13 -2.081668171172168513e-13
5.192000000000000000e+03 7.463909149169921875e+01 -1.116390800476074219e+01 1.861491782115601290e-13 3.402726844324750755e-14 6.605293026949732305e-14 -4.003208151797700565e-14
5.193000000000000000e+03 3.844639587402343750e+01 -2.413597822189331055e+00 2.502005052521915490e-14 5.004010189747125706e-15 9.007217918028352643e-15 1.431146867680865853e-13
5.194000000000000000e+03 6.833112335205078125e+01 -1.561836719512939453e+01 2.081668171172168513e-13 -4.803849782157240678e-14 4.803849782157240678e-14 -3.202566521438160452e-14
5.195000000000000000e+03 6.742725372314453125e+01 -1.472049045562744141e+01 2.041636038832214672e-13 -3.242598518252842732e-13 -3.602887167211341057e-14 1.000802021008766196e-13
5.196000000000000000e+03 1.731775665283203125e+01 -2.221228361129760742e+00 4.363496868518834670e-13 4.003208151797700565e-15 1.321058605389946461e-13 2.401924687790712998e-13
5.197000000000000000e+03 1.297805309295654297e+01 -1.938219070434570312e+00 5.604491073703601889e-14 2.401924891078620339e-14 2.401924891078620339e-14 1.481186999224490264e-13
5.198000000000000000e+03 1.459036254882812500e+01 -3.746998310089111328e+00 1.200962343895356499e-13 -4.003208151797700565e-14 2.401924891078620339e-14 7.205774334422682115e-14
5.199000000000000000e+03 4.614783859252929688e+01 -2.790547370910644531e+01 -2.481988952470620680e-13 3.282630515067525012e-13 2.401924891078620339e-14 4.803849782157240678e-14
5.200000000000000000e+03 5.011272430419921875e+01 -3.274488830566406250e+01 1.261010474642651480e-13 3.742999562638543720e-13 1.501202997631831404e-13 -1.200962343895356499e-13
5.201000000000000000e+03 5.336297225952148438e+01 -3.274181365966796875e+01 -5.240136802123554483e-14 1.147951227348578684e-13 1.871812539764716038e-14 -1.040834085586084257e-13
5.202000000000000000e+03 6.577338409423828125e+01 -2.455223274230957031e+01 2.001604075898850282e-15 2.181748434259417335e-13 6.605293026949732305e-14 -2.031628039628544102e-13
5.203000000000000000e+03 6.516571044921875000e+01 -2.391586494445800781e+01 -4.203368474684290867e-14 3.823063556267908281e-13 1.020818019416107336e-13 -9.582678888678947127e-14
5.204000000000000000e+03 1.123958015441894531e+01 -1.212051391601562500e+01 -1.361090737729900302e-13 5.604491073703601889e-14 -2.401924891078620339e-14 3.202566521438160452e-14
5.205000000000000000e+03 6.895414733886718750e+01 -1.565297508239746094e+01 4.043240080849747065e-13 -2.842277736954390566e-13 3.602887167211341057e-14 2.882309733769072846e-13
5.206000000000000000e+03 6.883307647705078125e+01 -1.259931278228759766e+01 1.506206997233666689e-13 6.455173038894673754e-14 6.455173038894673754e-14 4.803849782157240678e-14
5.207000000000000000e+03 4.889639282226562500e+01 -2.621592712402343750e+01 -1.291034607778934751e-13 5.394322683850705236e-13 1.230986477031639770e-13 -1.441154866884536423e-13
5.208000000000000000e+03 4.030925369262695312e+01 -2.128577041625976562e+01 1.481186999224490264e-13 5.324266418374468124e-13 2.041636038832214672e-13 1.401122768425900472e-14
5.209000000000000000e+03 4.044838333129882812e+01 -2.223067092895507812e+01 5.604491073703601889e-14 6.645325565865500828e-13 2.161732300326804634e-13 -9.207378240914942946e-14
5.210000000000000000e+03 4.946364212036132812e+01 -3.463771820068359375e+01 -6.004811719476782494e-14 1.801443651368306309e-13 3.602887167211341057e-14 1.048340084988837184e-13
5.211000000000000000e+03 5.585883140563964844e+00 -2.180669021606445312e+01 7.806255641895631925e-14 1.821459649775647449e-13 7.806255641895631925e-14 -1.561251128379126385e-13
5.212000000000000000e+03 5.188645362854003906e+00 -2.121182632446289062e+01 2.191756433463087905e-13 3.102486190588275849e-14 7.506014988159157020e-14 -8.406736949368581735e-14
5.213000000000000000e+03 1.574293994903564453e+01 -6.857252597808837891e+00 -8.006416303595401129e-14 2.401924687790712998e-13 4.803849782157240678e-14 -8.006416303595401129e-15
5.214000000000000000e+03 3.758972930908203125e+01 -2.317816495895385742e+00 1.801443651368306309e-13 -6.004811719476782494e-14 3.602887167211341057e-14 1.521218996039172544e-13
5.215000000000000000e+03 3.793108749389648438e+01 -1.403287410736083984e+00 4.043240080849747065e-13 1.961571909677578551e-13 1.801443651368306309e-13 7.205774334422682115e-14
5.216000000000000000e+03 3.450337982177734375e+01 -2.774300575256347656e+00 4.003208151797700565e-14 -1.200962343895356499e-13 -2.401924891078620339e-14 0.000000000000000000e+00
5.217000000000000000e+03 3.665175628662109375e+01 -4.640979290008544922e+00 -1.321058605389946461e-13 1.721379386688398627e-13 1.200962445539310169e-14 1.200962445539310169e-14
5.218000000000000000e+03 3.601004409790039062e+01 -4.502309799194335938e+00 5.604491073703601889e-14 3.442758773376797254e-13 1.200962343895356499e-13 -4.003208151797700565e-14
5.219000000000000000e+03 3.817915725708007812e+01 -1.147567749023437500e+01 -1.546239129573620530e-13 2.997402131187099084e-13 4.353488801552528320e-14 6.004812227696550847e-15
5.220000000000000000e+03 3.760321426391601562e+01 -1.522301006317138672e+01 -2.512012950081632390e-13 1.210970478624298630e-13 -3.903127820947815962e-14 1.721379386688398627e-13
5.221000000000000000e+03 2.967299270629882812e+01 -2.753131675720214844e+01 -2.081668171172168513e-13 4.803849782157240678e-14 -4.803849782157240678e-14 -2.502005094873562853e-15
5.222000000000000000e+03 6.751413726806640625e+01 -2.639611625671386719e+01 1.421138868477195283e-13 1.981587908084919691e-13 1.020818019416107336e-13 -4.203368474684290867e-14
5.223000000000000000e+03 6.882332611083984375e+01 -2.689928817749023438e+01 1.701363388281057487e-13 5.004010105043830980e-14 6.605293026949732305e-14 2.401924891078620339e-14
5.224000000000000000e+03 3.996512603759765625e+01 -2.640385627746582031e+00 6.204972381176551699e-14 1.180946345488015359e-13 5.404330750817011586e-14 -1.200962343895356499e-13
5.225000000000000000e+03 7.821413421630859375e+01 -2.671099853515625000e+01 -8.006416303595401129e-15 8.807057595141762341e-14 2.401924891078620339e-14 6.004811719476782494e-14
5.226000000000000000e+03 7.896351623535156250e+01 -2.283381652832031250e+01 4.003208151797700565e-14 2.001604042017532392e-13 7.205774334422682115e-14 -9.607699564314481355e-14
5.227000000000000000e+03 6.912483692169189453e+00 -1.400023078918457031e+01 2.562053217150528361e-13 3.843079825725792542e-13 1.921539912862896271e-13 9.007218256841531545e-14
5.228000000000000000e+03 5.281573295593261719e+00 -2.326713371276855469e+01 1.681347389873716347e-13 7.205774334422682115e-14 7.205774334422682115e-14 -1.120898214740720378e-13
5.229000000000000000e+03 6.037996768951416016e+00 -2.305124664306640625e+01 2.401924891078620339e-14 5.604491073703601889e-14 2.401924891078620339e-14 -6.405133042876320904e-14
5.230000000000000000e+03 5.798611640930175781e+00 -5.336570262908935547e+00 -1.801443583605670529e-14 2.782229470681824024e-13 7.806255641895631925e-14 1.501202997631831404e-13
5.231000000000000000e+03 7.535902023315429688e+00 -3.127624750137329102e+00 -9.607699564314481355e-14 9.607699564314481355e-14 0.000000000000000000e+00 1.721379386688398627e-13
5.232000000000000000e+03 9.058735847473144531e+00 -3.082480907440185547e+00 7.205774334422682115e-14 -1.521218996039172544e-13 -2.401924891078620339e-14 2.241796429481440756e-13
5.233000000000000000e+03 6.057562828063964844e+00 -3.170666933059692383e+00 -8.006416303595401129e-14 2.401924687790712998e-13 4.803849782157240678e-14 1.160930347080674219e-13
5.234000000000000000e+03 5.969666481018066406e+00 -2.507533788681030273e+00 3.803047490097931360e-14 6.204972381176551699e-14 3.002405859738391247e-14 6.405133042876320904e-14
5.235000000000000000e+03 6.788930892944335938e+00 -3.150773286819458008e+00 1.921539912862896271e-13 1.281026608575264181e-13 9.607699564314481355e-14 -8.006416303595401129e-15
5.236000000000000000e+03 2.601341485977172852e+00 -2.873829603195190430e+00 1.160930347080674219e-13 1.641315257533762506e-13 8.406736949368581735e-14 2.001604075898850282e-14
5.237000000000000000e+03 4.818114280700683594e+00 -3.854440927505493164e+00 -1.040834085586084257e-13 -1.361090737729900302e-13 -7.205774334422682115e-14 8.006416303595401129e-15
5.238000000000000000e+03 1.848188042640686035e+00 -2.759709119796752930e+00 2.802245536851800944e-14 -1.481186999224490264e-13 -3.602887167211341057e-14 9.607699564314481355e-14
5.239000000000000000e+03 9.823061227798461914e-01 -5.109658718109130859e+00 2.522020949285302960e-13 -5.204170427930421283e-14 6.004811719476782494e-14 -3.602887167211341057e-14
5.240000000000000000e+03 1.142397308349609375e+01 -2.220943212509155273e+00 2.041636038832214672e-13 -3.242598518252842732e-13 -3.602887167211341057e-14 1.441154866884536423e-13
5.241000000000000000e+03 3.026533508300781250e+01 -2.708134269714355469e+01 -6.104892389139845998e-14 1.110890215537049808e-13 1.501202929869195624e-14 -1.000802037949425141e-14
5.242000000000000000e+03 5.236785125732421875e+01 -3.192699670791625977e+00 6.004811990527325616e-13 7.606095115721134281e-13 4.083272077664429345e-13 4.843881914497194519e-13
5.243000000000000000e+03 2.632778739929199219e+01 -3.417438125610351562e+01 8.606896933441993136e-14 4.143320343936995886e-13 1.501202997631831404e-13 3.202566521438160452e-14
5.244000000000000000e+03 2.617179489135742188e+01 -3.342963409423828125e+01 -1.981587908084919691e-13 2.582069215557869502e-13 1.801443583605670529e-14 3.602887167211341057e-14
5.245000000000000000e+03 1.881056594848632812e+01 -2.501463890075683594e+01 2.822261738547049426e-13 -6.204972381176551699e-14 6.605293026949732305e-14 2.041636038832214672e-13
5.246000000000000000e+03 3.286585998535156250e+01 -1.459473705291748047e+01 -4.963977904941241359e-13 1.601283260719080226e-14 -1.441154866884536423e-13 -8.406736949368581735e-14
5.247000000000000000e+03 4.325196456909179688e+01 -1.447953510284423828e+01 -3.522823038056704936e-13 3.202566521438160452e-14 -9.607699564314481355e-14 8.807057595141762341e-14
5.248000000000000000e+03 5.013709640502929688e+01 -3.515403747558593750e+01 1.661331391466375207e-13 1.741395520621011328e-13 1.020818019416107336e-13 -2.341876692568689577e-13
5.249000000000000000e+03 5.731821441650390625e+01 -3.819430160522460938e+01 1.401122768425900472e-14 1.661331391466375207e-13 5.404330750817011586e-14 -1.059599117974284466e-13
5.250000000000000000e+03 4.597442626953125000e+01 -2.047709846496582031e+01 -1.010810020212436766e-13 2.311852694957677867e-13 3.903127820947815962e-14 -4.003208151797700565e-15
5.251000000000000000e+03 1.803759002685546875e+01 -1.125664043426513672e+01 -4.168340477471443872e-13 -4.388516731002739535e-13 -2.567057081227092086e-13 1.383608803700794865e-13
5.252000000000000000e+03 1.540427303314208984e+01 -1.466554546356201172e+01 -1.421138868477195283e-13 2.021620040424873532e-13 1.801443583605670529e-14 -6.004812227696550847e-15
5.253000000000000000e+03 1.224743938446044922e+01 -2.735716819763183594e+00 -8.006416303595401129e-15 -2.321860694161348437e-13 -7.205774334422682115e-14 2.041636038832214672e-13
5.254000000000000000e+03 1.065651512145996094e+01 -2.989061117172241211e+00 9.407538902614712151e-14 -2.341876692568689577e-13 -4.203368474684290867e-14 1.080866150163402317e-13
5.255000000000000000e+03 1.380581283569335938e+01 -2.469498395919799805e+00 -2.401924891078620339e-14 -5.604491073703601889e-14 -2.401924891078620339e-14 1.881507780522942430e-13
5.256000000000000000e+03 2.877938461303710938e+01 -1.948396492004394531e+01 -3.202566521438160452e-14 3.522823038056704936e-13 9.607699564314481355e-14 1.501202997631831404e-13
5.257000000000000000e+03 5.394321823120117188e+01 -9.882883071899414062e+00 2.101684237342145434e-14 3.692959295569647749e-13 1.170938346284344789e-13 -2.999903927700109385e-13
5.258000000000000000e+03 5.340093612670898438e+01 -8.163028717041015625e+00 1.453664933651760416e-13 7.128212408356870977e-13 2.574563283917752354e-13 -1.563753195942679808e-13
5.259000000000000000e+03 7.866125488281250000e+01 -3.679962158203125000e+01 8.006416303595401129e-14 2.401924687790712998e-13 9.607699564314481355e-14 -8.406736949368581735e-14
5.260000000000000000e+03 7.714813995361328125e+01 -3.877877044677734375e+01 -3.803047490097931360e-14 2.582069215557869502e-13 6.605293026949732305e-14 4.003208151797700565e-15
5.261000000000000000e+03 7.735747528076171875e+01 -4.093717193603515625e+01 1.451162933850842773e-14 4.408532729410080675e-13 1.366094737331735587e-13 -3.602887167211341057e-14
5.262000000000000000e+03 7.889213562011718750e+01 -3.000061416625976562e+01 1.601283260719080226e-14 3.042437992078345088e-13 9.607699564314481355e-14 1.200962445539310169e-14
5.263000000000000000e+03 7.735749053955078125e+01 -3.053011512756347656e+01 -1.080866150163402317e-13 2.281828697346666157e-13 3.602887167211341057e-14 8.807057595141762341e-14
5.264000000000000000e+03 7.347382354736328125e+01 -1.245253372192382812e+01 9.607699564314481355e-14 6.405133042876320904e-14 4.803849782157240678e-14 5.804651735403371093e-14
5.265000000000000000e+03 7.897245788574218750e+01 -1.095977020263671875e+01 -1.601283260719080226e-14 -1.441154866884536423e-13 -4.803849782157240678e-14 0.000000000000000000e+00
5.266000000000000000e+03 7.894760131835937500e+01 -9.463140487670898438e+00 -1.401122768425900472e-14 -6.004812227696550847e-15 -6.004812227696550847e-15 -3.202566521438160452e-14
5.267000000000000000e+03 7.825967407226562500e+01 -9.524653434753417969e+00 1.160930347080674219e-13 4.003208151797700565e-15 3.602887167211341057e-14 4.003208151797700565e-15
5.268000000000000000e+03 7.889824676513671875e+01 -1.491186523437500000e+01 1.000802021008766196e-13 -1.401122870069854143e-13 -1.200962445539310169e-14 -4.003208151797700565e-15
5.269000000000000000e+03 7.306919097900390625e+01 -1.707205963134765625e+01 1.661331391466375207e-13 1.741395520621011328e-13 1.020818019416107336e-13 2.001604075898850282e-15
5.270000000000000000e+03 7.899279785156250000e+01 -1.969483757019042969e+01 -4.403528797570881170e-14 1.641315257533762506e-13 3.602887167211341057e-14 -8.006416303595401129e-14
5.271000000000000000e+03 7.829684448242187500e+01 -2.113890266418457031e+01 6.004812227696550847e-15 9.407538902614712151e-14 3.002405859738391247e-14 1.160930347080674219e-13
5.272000000000000000e+03 7.893820953369140625e+01 -2.603107261657714844e+01 -9.207378240914942946e-14 5.204170427930421283e-14 -1.200962445539310169e-14 6.405133042876320904e-14
5.273000000000000000e+03 7.877017211914062500e+01 -3.241325759887695312e+01 -4.803849782157240678e-14 4.803849782157240678e-14 0.000000000000000000e+00 -5.204170427930421283e-14
5.274000000000000000e+03 7.787824249267578125e+01 -3.313141250610351562e+01 3.002405859738391247e-14 1.501202997631831404e-13 5.404330750817011586e-14 2.001604075898850282e-14
5.275000000000000000e+03 7.894383239746093750e+01 -2.443257522583007812e+01 1.080866150163402317e-13 -6.805453688649501509e-14 1.200962445539310169e-14 -3.202566521438160452e-14
5.276000000000000000e+03 7.404457855224609375e+01 -2.482106971740722656e+01 3.202566521438160452e-14 2.882309733769072846e-13 9.607699564314481355e-14 3.202566521438160452e-14
5.277000000000000000e+03 7.334743499755859375e+01 -1.865793037414550781e+01 5.204170427930421283e-14 6.805453688649501509e-14 3.602887167211341057e-14 -7.205774334422682115e-14
5.278000000000000000e+03 7.828421783447265625e+01 -2.191710281372070312e+01 1.321058605389946461e-13 1.481186999224490264e-13 8.406736949368581735e-14 3.602887167211341057e-14
5.279000000000000000e+03 7.700458526611328125e+01 -1.037609958648681641e+01 2.341876692568689577e-13 1.461170865291877563e-13 1.140914348673333079e-13 1.281026608575264181e-13
5.280000000000000000e+03 7.814224243164062500e+01 -1.401318931579589844e+01 8.206576287668812530e-14 5.804651735403371093e-14 4.203368474684290867e-14 1.080866150163402317e-13
5.281000000000000000e+03 7.399551391601562500e+01 -2.021159362792968750e+01 1.040834085586084257e-13 1.361090737729900302e-13 7.205774334422682115e-14 2.401924891078620339e-14
5.282000000000000000e+03 7.739717102050781250e+01 -1.394390487670898438e+01 0.000000000000000000e+00 0.000000000000000000e+00 0.000000000000000000e+00 1.040834085586084257e-13
5.283000000000000000e+03 7.372679901123046875e+01 -1.940394783020019531e+01 -6.004812227696550847e-15 2.261812563414053456e-13 6.605293026949732305e-14 2.401924891078620339e-14
5.284000000000000000e+03 7.898224639892578125e+01 -1.891057205200195312e+01 2.802245536851800944e-14 1.200962445539310169e-14 1.200962445539310169e-14 1.281026608575264181e-13
5.285000000000000000e+03 7.543512725830078125e+01 -2.083187294006347656e+01 4.003208151797700565e-15 1.160930347080674219e-13 3.602887167211341057e-14 8.406736949368581735e-14
5.286000000000000000e+03 7.831368255615234375e+01 -2.037067794799804688e+01 1.401122768425900472e-14 3.262614516660183872e-13 1.020818019416107336e-13 1.601283260719080226e-14
5.287000000000000000e+03 7.826766967773437500e+01 -2.270841598510742188e+01 1.080866150163402317e-13 4.123304345529654746e-13 1.561251128379126385e-13 2.401924891078620339e-14
5.288000000000000000e+03 7.895060729980468750e+01 -2.363299560546875000e+01 -1.601283260719080226e-14 1.761411519028352468e-13 4.803849782157240678e-14 1.160930347080674219e-13
5.289000000000000000e+03 7.461613464355468750e+01 -2.453085899353027344e+01 2.717177340332693758e-13 2.537033083616080376e-13 1.576263127184632240e-13 3.602887167211341057e-14
5.290000000000000000e+03 7.820959472656250000e+01 -2.907498931884765625e+01 1.501202997631831404e-13 1.100882216333379238e-13 7.806255641895631925e-14 -8.006416303595401129e-15
5.291000000000000000e+03 7.822313690185546875e+01 -2.592226409912109375e+01 2.001604075898850282e-14 1.000802021008766196e-13 3.602887167211341057e-14 5.204170427930421283e-14
5.292000000000000000e+03 7.822707366943359375e+01 -2.828406906127929688e+01 -1.361090737729900302e-13 2.161732300326804634e-13 2.401924891078620339e-14 4.003208151797700565e-14
5.293000000000000000e+03 7.816655731201171875e+01 -2.987513351440429688e+01 1.200962445539310169e-14 1.881507780522942430e-13 6.004811719476782494e-14 8.406736949368581735e-14
5.294000000000000000e+03 7.703515625000000000e+01 -3.301143264770507812e+01 -1.401122768425900472e-14 3.142518255165593910e-13 9.007218256841531545e-14 -1.080866150163402317e-13
5.295000000000000000e+03 7.780060577392578125e+01 -3.399973297119140625e+01 -2.602085213965210642e-14 2.862293735361731706e-13 7.806255641895631925e-14 -6.004811719476782494e-14
5.296000000000000000e+03 7.759474945068359375e+01 -3.595525360107421875e+01 -4.203368474684290867e-14 3.022421993671003948e-13 7.806255641895631925e-14 -8.807057595141762341e-14
5.297000000000000000e+03 7.795287322998046875e+01 -3.229624557495117188e+01 -5.204170427930421283e-14 2.522020949285302960e-13 6.004811719476782494e-14 -2.401924891078620339e-14
5.298000000000000000e+03 7.771342468261718750e+01 -3.492269897460937500e+01 -4.803849782157240678e-14 2.081668171172168513e-13 4.803849782157240678e-14 8.406736949368581735e-14
5.299000000000000000e+03 1.503103733062744141e+01 -4.115757751464843750e+01 -1.008308020411519124e-13 -1.118396214939802735e-13 -6.380113044867144478e-14 4.403528797570881170e-14
5.300000000000000000e+03 6.587487030029296875e+01 -2.556130790710449219e+01 7.005613842129502361e-15 3.232590519049172162e-13 9.907939540424598457e-14 -6.004811719476782494e-14
5.301000000000000000e+03 2.411403083801269531e+01 -2.931654357910156250e+01 -3.002405859738391247e-14 1.701363388281057487e-13 4.203368474684290867e-14 -5.604491073703601889e-14
5.302000000000000000e+03 2.357881355285644531e+01 -2.868113327026367188e+01 -2.301844560228735737e-14 1.731387521417340758e-13 4.503609128420765773e-14 1.240994476235310340e-13
5.303000000000000000e+03 1.783979225158691406e+01 -1.749786567687988281e+01 -9.407538902614712151e-14 -8.606896933441993136e-14 -5.404330750817011586e-14 2.001604042017532392e-13
5.304000000000000000e+03 5.422461318969726562e+01 -2.522311973571777344e+01 -2.021620040424873532e-13 1.421138868477195283e-13 -1.801443583605670529e-14 1.601283260719080226e-13
5.305000000000000000e+03 5.663538360595703125e+01 -2.833397674560546875e+01 -2.201764398785440585e-14 4.023224082442405924e-13 1.140914348673333079e-13 1.601283260719080226e-14
5.306000000000000000e+03 4.039710235595703125e+01 -2.410795211791992188e+01 -5.404330750817011586e-14 4.343480599060950409e-13 1.140914348673333079e-13 4.403528797570881170e-14
5.307000000000000000e+03 4.018130874633789062e+01 -2.504144859313964844e+01 7.005614350349270714e-14 3.502807039649363796e-13 1.261010474642651480e-13 8.006416303595401129e-14
5.308000000000000000e+03 1.072758007049560547e+01 -2.328806304931640625e+01 -1.000802037949425141e-14 -5.004010105043830980e-14 -1.801443583605670529e-14 -7.205774334422682115e-14
5.309000000000000000e+03 1.416788101196289062e+01 -2.565966796875000000e+01 -8.006416303595401129e-15 8.807057595141762341e-14 2.401924891078620339e-14 1.761411519028352468e-13
5.310000000000000000e+03 7.167090606689453125e+01 -2.790357398986816406e+01 1.701363388281057487e-13 2.101684169579509653e-13 1.140914348673333079e-13 1.401122870069854143e-13
5.311000000000000000e+03 5.898912429809570312e+00 -1.531353378295898438e+01 7.205774334422682115e-14 1.681347389873716347e-13 7.205774334422682115e-14 1.521218996039172544e-13
5.312000000000000000e+03 6.458460998535156250e+01 -2.821028709411621094e+01 1.453664933651760416e-13 3.925645886918710525e-13 1.613793191961032658e-13 -8.081476297622930405e-14
5.313000000000000000e+03 3.187366867065429688e+01 -4.943836212158203125e+00 -4.003208151797700565e-15 2.041636038832214672e-13 6.004811719476782494e-14 -1.301042606982605321e-13
5.314000000000000000e+03 1.430591201782226562e+01 -1.330475807189941406e+01 -5.404330750817011586e-14 3.542839036464046076e-13 9.007218256841531545e-14 0.000000000000000000e+00
5.315000000000000000e+03 1.793689537048339844e+01 -1.231378459930419922e+01 -1.631307258330091936e-13 -3.272622515863854442e-13 -1.471179000020819694e-13 1.601283260719080226e-13
5.316000000000000000e+03 6.906983947753906250e+01 -3.210076522827148438e+01 -4.803849782157240678e-14 2.081668171172168513e-13 4.803849782157240678e-14 8.006416303595401129e-15
5.317000000000000000e+03 1.249383687973022461e+00 -3.411560440063476562e+01 -7.205774334422682115e-14 1.521218996039172544e-13 2.401924891078620339e-14 4.003208151797700565e-15
5.318000000000000000e+03 1.946502208709716797e+00 -3.248490524291992188e+01 1.261010474642651480e-13 3.742999562638543720e-13 1.501202997631831404e-13 1.441154866884536423e-13
5.319000000000000000e+03 2.278342008590698242e+00 -3.958604049682617188e+01 -7.005613842129502361e-15 3.172542252776605620e-13 9.307458910578006450e-14 -4.603689120457471473e-14
5.320000000000000000e+03 1.844154596328735352e+00 -3.846146774291992188e+01 7.005614350349270714e-14 3.002405859738391247e-14 3.002405859738391247e-14 -2.401924891078620339e-14
5.321000000000000000e+03 2.231801986694335938e+00 -3.589757537841796875e+01 4.003208151797700565e-15 1.160930347080674219e-13 3.602887167211341057e-14 1.321058605389946461e-13
5.322000000000000000e+03 1.757349848747253418e+00 -1.130605220794677734e+01 -1.120898214740720378e-13 -4.803849782157240678e-14 -4.803849782157240678e-14 -6.805453688649501509e-14
5.323000000000000000e+03 1.096981287002563477e+00 -1.701877784729003906e+01 5.404330750817011586e-14 2.061652172764827373e-13 7.806255641895631925e-14 1.120898214740720378e-13
5.324000000000000000e+03 1.047538995742797852e+00 -1.864066123962402344e+01 4.403528797570881170e-14 1.561251128379126385e-13 6.004811719476782494e-14 5.604491073703601889e-14
5.325000000000000000e+03 5.047009944915771484e+00 -1.676975822448730469e+01 1.601283260719080226e-13 1.601283260719080226e-13 9.607699564314481355e-14 4.803849782157240678e-14
5.326000000000000000e+03 1.114285945892333984e+00 -2.675755119323730469e+01 1.000802037949425141e-14 3.702967294773318319e-13 1.140914348673333079e-13 6.405133042876320904e-14
5.327000000000000000e+03 6.151287555694580078e+00 -2.378654479980468750e+01 1.381106736137241442e-13 2.421940957248597259e-13 1.140914348673333079e-13 -1.801443651368306309e-13
5.328000000000000000e+03 9.804149270057678223e-01 -2.276004219055175781e+01 8.006416303595401129e-15 2.321860694161348437e-13 7.205774334422682115e-14 -6.004811719476782494e-14
5.329000000000000000e+03 4.338617801666259766e+00 -1.925554847717285156e+01 8.406736949368581735e-14 3.602887167211341057e-14 3.602887167211341057e-14 -9.207378240914942946e-14
5.330000000000000000e+03 1.077280163764953613e+00 -2.028624343872070312e+01 8.807057595141762341e-14 3.122502256758252770e-13 1.200962343895356499e-13 -1.641315257533762506e-13
5.331000000000000000e+03 4.508300781250000000e+00 -1.838553619384765625e+01 3.202566521438160452e-14 -3.202566521438160452e-14 0.000000000000000000e+00 1.441154866884536423e-13
5.332000000000000000e+03 1.048959732055664062e+00 -1.298658466339111328e+01 2.041636038832214672e-13 -4.003208151797700565e-15 6.004811719476782494e-14 -9.607699564314481355e-14
5.333000000000000000e+03 3.063328504562377930e+00 -1.269684982299804688e+01 1.240994476235310340e-13 2.361892690976030718e-13 1.080866150163402317e-13 9.607699564314481355e-14
5.334000000000000000e+03 5.467649459838867188e+00 -3.869169712066650391e+00 -8.006416303595401129e-15 8.807057595141762341e-14 2.401924891078620339e-14 1.281026608575264181e-13
5.335000000000000000e+03 1.633110523223876953e+00 -5.895942211151123047e+00 1.801443651368306309e-13 -6.004811719476782494e-14 3.602887167211341057e-14 2.401924891078620339e-14
5.336000000000000000e+03 3.895960092544555664e+00 -2.316807937622070312e+01 6.405133042876320904e-14 2.562053217150528361e-13 9.607699564314481355e-14 -6.405133042876320904e-14
5.337000000000000000e+03 1.039392471313476562e+00 -9.012616157531738281e+00 -8.807057595141762341e-14 -3.122502256758252770e-13 -1.200962343895356499e-13 8.807057595141762341e-14
5.338000000000000000e+03 1.708449482917785645e+00 -8.164453506469726562e+00 -1.040834085586084257e-13 -1.361090737729900302e-13 -7.205774334422682115e-14 -2.802245536851800944e-14
5.339000000000000000e+03 2.301232814788818359e+00 -4.449704170227050781e+00 -1.000802037949425141e-14 -5.004010105043830980e-14 -1.801443583605670529e-14 -1.120898214740720378e-13
5.340000000000000000e+03 1.148992776870727539e+00 -3.166399955749511719e+01 1.401122768425900472e-14 3.262614516660183872e-13 1.020818019416107336e-13 1.921539912862896271e-13
5.341000000000000000e+03 1.878764986991882324e+00 -3.007901382446289062e+01 -2.001604075898850282e-15 1.821459649775647449e-13 5.404330750817011586e-14 1.921539912862896271e-13
5.342000000000000000e+03 2.512096405029296875e+00 -3.856412124633789062e+01 -6.805453688649501509e-14 2.682149478645118323e-13 6.004811719476782494e-14 -1.601283260719080226e-14
5.343000000000000000e+03 1.074739933013916016e+00 -3.791755294799804688e+01 2.001604075898850282e-15 1.381106736137241442e-13 4.203368474684290867e-14 -1.080866150163402317e-13
5.344000000000000000e+03 1.995999097824096680e+00 -3.329457473754882812e+01 -4.603689120457471473e-14 2.602085213965210642e-14 -6.004812227696550847e-15 6.405133042876320904e-14
5.345000000000000000e+03 2.666206121444702148e+00 -3.095769500732421875e+01 -7.205774334422682115e-14 1.521218996039172544e-13 2.401924891078620339e-14 7.606094980195862720e-14
5.346000000000000000e+03 1.871522307395935059e+00 -2.925469398498535156e+01 1.801443583605670529e-14 1.220978477827969200e-13 4.203368474684290867e-14 2.802245536851800944e-14
5.347000000000000000e+03 1.881711125373840332e+00 -2.842221260070800781e+01 -1.481186999224490264e-13 3.482791041242022656e-13 6.004811719476782494e-14 4.003208151797700565e-15
5.348000000000000000e+03 2.409030675888061523e+00 -2.491001319885253906e+01 -2.802245536851800944e-14 3.082470259943570490e-13 8.406736949368581735e-14 1.120898214740720378e-13
5.349000000000000000e+03 4.544617176055908203e+00 -2.337290573120117188e+01 -4.003208151797700565e-15 2.041636038832214672e-13 6.004811719476782494e-14 -3.602887167211341057e-14
5.350000000000000000e+03 3.622833013534545898e+00 -2.086083984375000000e+01 1.120898214740720378e-13 4.803849782157240678e-14 4.803849782157240678e-14 -4.403528797570881170e-14
5.351000000000000000e+03 9.681779146194458008e-01 -2.355416107177734375e+01 -1.200962445539310169e-14 1.321058605389946461e-13 3.602887167211341057e-14 5.604491073703601889e-14
5.352000000000000000e+03 1.079624772071838379e+00 -2.112047958374023438e+01 -5.004010105043830980e-14 2.301844695754007297e-13 5.404330750817011586e-14 0.000000000000000000e+00
5.353000000000000000e+03 4.219707965850830078e+00 -2.176976776123046875e+01 3.102486258350911630e-13 -5.004010105043830980e-14 7.806255641895631925e-14 -1.120898214740720378e-13
5.354000000000000000e+03 1.744769573211669922e+00 -1.366334438323974609e+01 1.961571909677578551e-13 8.406736949368581735e-14 8.406736949368581735e-14 -1.481186999224490264e-13
5.355000000000000000e+03 1.052725195884704590e+00 -1.378352165222167969e+01 -1.321058605389946461e-13 1.721379386688398627e-13 1.200962445539310169e-14 -6.004811719476782494e-14
5.356000000000000000e+03 2.420481204986572266e+00 -1.277386283874511719e+01 6.405133042876320904e-14 -6.405133042876320904e-14 0.000000000000000000e+00 -7.606094980195862720e-14
5.357000000000000000e+03 2.466469764709472656e+00 -1.430569362640380859e+01 2.301844695754007297e-13 -1.301042606982605321e-13 3.002405859738391247e-14 -1.321058605389946461e-13
5.358000000000000000e+03 2.449617385864257812e+00 -1.200152301788330078e+01 -6.605293026949732305e-14 8.606896933441993136e-14 6.004812227696550847e-15 -6.805453688649501509e-14
5.359000000000000000e+03 1.749862790107727051e+00 -1.051245498657226562e+01 4.403528797570881170e-14 -4.003208151797700565e-15 1.200962445539310169e-14 -8.006416303595401129e-14
5.360000000000000000e+03 1.736437559127807617e+00 -9.722106933593750000e+00 -1.000802021008766196e-13 1.401122870069854143e-13 1.200962445539310169e-14 4.003208151797700565e-14
5.361000000000000000e+03 1.005082964897155762e+00 -4.318406581878662109e+00 -4.403528797570881170e-14 4.003208151797700565e-15 -1.200962445539310169e-14 4.403528797570881170e-14
5.362000000000000000e+03 2.065227508544921875e+00 -3.412950515747070312e+01 1.421138868477195283e-13 3.582871304329271478e-13 1.501202997631831404e-13 -4.003208151797700565e-15
5.363000000000000000e+03 2.143526077270507812e+00 -3.499107742309570312e+01 -8.406736949368581735e-14 2.842277736954390566e-13 6.004811719476782494e-14 -1.200962445539310169e-14
5.364000000000000000e+03 2.446223020553588867e+00 -3.683676910400390625e+01 1.601283260719080226e-14 -1.601283260719080226e-14 0.000000000000000000e+00 -2.001604075898850282e-15
5.365000000000000000e+03 1.662201642990112305e+00 -3.704801559448242188e+01 2.401924891078620339e-14 3.763015561045884860e-13 1.200962343895356499e-13 4.003208151797700565e-14
5.366000000000000000e+03 7.716524505615234375e+01 -9.636752128601074219e+00 9.007218256841531545e-14 1.301042606982605321e-13 6.605293026949732305e-14 1.080866150163402317e-13
5.367000000000000000e+03 2.621557807922363281e+01 -3.559476852416992188e+01 -8.256616283687165381e-15 2.709671408692576611e-13 7.881315635923161200e-14 1.276022608973428896e-13
5.368000000000000000e+03 3.098762702941894531e+01 -8.338591575622558594e+00 -2.121700303512122354e-13 9.207378240914942946e-14 -3.602887167211341057e-14 1.601283260719080226e-14
5.369000000000000000e+03 6.631984710693359375e+01 -3.530733489990234375e+01 5.204170427930421283e-14 6.805453688649501509e-14 3.602887167211341057e-14 1.601283260719080226e-14
5.370000000000000000e+03 4.416638946533203125e+01 -2.629028892517089844e+01 -2.001604075898850282e-14 2.201764432666758475e-13 6.004811719476782494e-14 7.806255641895631925e-14
5.371000000000000000e+03 6.386609554290771484e+00 -1.355158519744873047e+01 1.316054605788111176e-13 1.936551911668402126e-13 9.757819552369539906e-14 2.401924891078620339e-14
5.372000000000000000e+03 7.266864776611328125e+01 -1.649332618713378906e+01 7.005614350349270714e-14 -2.101684169579509653e-13 -4.203368474684290867e-14 -8.606896933441993136e-14
5.373000000000000000e+03 4.110415649414062500e+01 -1.318869876861572266e+01 -4.503609128420765773e-13 -1.000802037949425141e-14 -1.381106736137241442e-13 1.601283260719080226e-14
5.374000000000000000e+03 4.090524291992187500e+01 -1.385046386718750000e+01 -5.404330954104918927e-13 2.001604075898850282e-14 -1.561251128379126385e-13 -1.401122870069854143e-13
5.375000000000000000e+03 1.717149543762207031e+01 -1.778157615661621094e+01 1.721379386688398627e-13 2.802245536851800944e-14 6.004811719476782494e-14 1.841475648182988589e-13
5.376000000000000000e+03 5.234608459472656250e+01 -6.675446033477783203e+00 1.511210996835501974e-13 4.593681121253800903e-13 1.831467648979318019e-13 -6.805453688649501509e-14
5.377000000000000000e+03 5.340870285034179688e+01 -9.220581054687500000e+00 9.582678888678947127e-14 5.972285925352760483e-13 2.079166103608615090e-13 -1.711371387484728057e-13
5.378000000000000000e+03 4.013276672363281250e+01 -1.354213142395019531e+01 -3.282630515067525012e-13 8.807057595141762341e-14 -7.205774334422682115e-14 0.000000000000000000e+00
5.379000000000000000e+03 2.513333892822265625e+01 -1.397479343414306641e+01 -3.317658647805643568e-13 2.652125379390152943e-14 -9.157338244896590096e-14 -2.016616040823038247e-13
5.380000000000000000e+03 4.924312973022460938e+01 -3.009435462951660156e+01 1.030826086382413687e-13 2.271820562617724026e-13 9.907939540424598457e-14 -4.403528797570881170e-14
5.381000000000000000e+03 4.541123199462890625e+01 -2.755200576782226562e+01 -3.843079825725792542e-13 2.241796429481440756e-13 -4.803849782157240678e-14 -2.802245536851800944e-14
5.382000000000000000e+03 3.233037567138671875e+01 -2.854652404785156250e+01 -5.804651735403371093e-14 2.381908689383371858e-13 5.404330750817011586e-14 1.601283260719080226e-14
5.383000000000000000e+03 3.518120956420898438e+01 -3.053340148925781250e+01 4.703769451307356075e-14 -1.170938346284344789e-13 -2.101684237342145434e-14 -4.003208151797700565e-15
5.384000000000000000e+03 2.689377975463867188e+01 -3.488825988769531250e+01 -1.030513294055651619e-13 1.064915909902881819e-13 1.032077035460895673e-15 -8.920429905813140325e-14
5.385000000000000000e+03 4.897568511962890625e+01 -5.697774887084960938e+00 4.563657394693332314e-13 1.040834085586084257e-13 1.681347389873716347e-13 2.401924891078620339e-14
5.386000000000000000e+03 5.206692504882812500e+01 -4.804027080535888672e+00 3.903127820947815962e-13 6.705373561087524248e-13 3.182550251980276190e-13 2.161732300326804634e-13
5.387000000000000000e+03 4.788682937622070312e+01 -3.470293283462524414e+00 1.401122870069854143e-13 -2.602085213965210642e-13 -3.602887167211341057e-14 -2.401924687790712998e-13
5.388000000000000000e+03 4.737635040283203125e+01 -5.265230178833007812e+00 1.388612803302630150e-13 1.638813325495480644e-13 9.082278250869060821e-14 -2.354386759335913570e-13
5.389000000000000000e+03 5.124188232421875000e+01 -2.757140398025512695e+00 2.782229470681824024e-13 -1.801443583605670529e-14 7.806255641895631925e-14 -3.202566521438160452e-14
5.390000000000000000e+03 1.597125530242919922e+01 -2.684782981872558594e+01 2.298717043536929738e-13 2.161106851198552059e-13 1.337947222630753163e-13 1.100256699442490882e-13
5.391000000000000000e+03 6.380154800415039062e+01 -1.864411163330078125e+01 1.841475648182988589e-13 3.763015561045884860e-13 1.681347389873716347e-13 -1.100882216333379238e-13
5.392000000000000000e+03 6.305770492553710938e+01 -1.898865699768066406e+01 -2.802245536851800944e-14 1.481186999224490264e-13 3.602887167211341057e-14 3.803047490097931360e-14
5.393000000000000000e+03 3.792486572265625000e+01 -1.644371414184570312e+01 -2.441956955655938399e-13 2.842277736954390566e-13 1.200962445539310169e-14 6.405133042876320904e-14
5.394000000000000000e+03 1.554454708099365234e+01 -7.735545158386230469e+00 1.261010474642651480e-13 5.404330750817011586e-14 5.404330750817011586e-14 9.207378240914942946e-14
5.395000000000000000e+03 7.054206085205078125e+01 -1.316190147399902344e+01 3.087474124020134214e-13 8.656937607086703790e-14 1.185950345089850644e-13 0.000000000000000000e+00
5.396000000000000000e+03 7.156850433349609375e+01 -1.341336822509765625e+01 1.891515779726613000e-13 1.210970478624298630e-13 9.307458910578006450e-14 -1.501202929869195624e-14
5.397000000000000000e+03 3.716898727416992188e+01 -1.408450698852539062e+01 -4.743801380359402575e-13 2.542037218743187221e-13 -6.605293026949732305e-14 -2.401924891078620339e-14
5.398000000000000000e+03 3.707120895385742188e+01 -3.280326080322265625e+01 7.205774334422682115e-14 8.807057595141762341e-14 4.803849782157240678e-14 7.606094980195862720e-14
5.399000000000000000e+03 3.828098678588867188e+01 -3.243168258666992188e+01 9.707779556351187056e-14 1.331066604593617031e-13 6.905533680686207210e-14 1.881507780522942430e-13
5.400000000000000000e+03 2.253013038635253906e+01 -2.753841972351074219e+01 -1.901523745048965680e-14 1.691355389077386917e-13 4.503609128420765773e-14 -3.102486190588275849e-14
5.401000000000000000e+03 2.708236312866210938e+01 -2.531426048278808594e+01 5.004010105043830980e-14 3.302646513474866152e-13 1.140914348673333079e-13 1.210970478624298630e-13
5.402000000000000000e+03 2.985651397705078125e+01 -2.545759391784667969e+01 -5.254210423948774134e-14 1.976583908483084406e-13 4.353488801552528320e-14 -6.355093046857968053e-14
5.403000000000000000e+03 1.159166908264160156e+01 -3.345458602905273438e+01 -8.807057595141762341e-14 1.681347389873716347e-13 2.401924891078620339e-14 3.602887167211341057e-14
5.404000000000000000e+03 7.127875518798828125e+01 -1.573526859283447266e+01 1.040834085586084257e-13 -1.841475648182988589e-13 -2.401924891078620339e-14 6.405133042876320904e-14
5.405000000000000000e+03 6.366614913940429688e+01 -2.084713363647460938e+01 1.000802021008766196e-13 1.801443651368306309e-13 8.406736949368581735e-14 -4.003208151797700565e-14
5.406000000000000000e+03 6.430959320068359375e+01 -2.065240287780761719e+01 -2.001604075898850282e-15 5.024025900163264780e-13 1.501202997631831404e-13 -1.080866150163402317e-13
5.407000000000000000e+03 3.376269531250000000e+01 -3.090293884277343750e+00 4.203368339159019307e-13 2.001604075898850282e-14 1.321058605389946461e-13 -5.604491073703601889e-14
5.408000000000000000e+03 3.336031723022460938e+01 -4.142229557037353516e+00 2.191756433463087905e-13 2.311852694957677867e-13 1.351082738526229732e-13 -1.321058605389946461e-13
5.409000000000000000e+03 5.645085525512695312e+01 -1.998638916015625000e+01 1.040834085586084257e-13 4.563657394693332314e-13 1.681347389873716347e-13 -1.000802021008766196e-13
5.410000000000000000e+03 6.708609771728515625e+01 -1.232313251495361328e+01 -6.004811719476782494e-14 2.001604075898850282e-14 -1.200962445539310169e-14 1.000802021008766196e-13
5.411000000000000000e+03 3.898176956176757812e+01 -2.789906883239746094e+01 -2.564555216951446004e-14 1.720128488431893476e-13 4.391018798566292958e-14 1.025822086780578402e-13
5.412000000000000000e+03 7.231500244140625000e+01 -1.594837856292724609e+01 8.006416303595401129e-14 -8.006416303595401129e-14 0.000000000000000000e+00 -6.405133042876320904e-14
5.413000000000000000e+03 2.212387275695800781e+01 -2.552645301818847656e+01 7.005614350349270714e-14 3.002405859738391247e-14 3.002405859738391247e-14 7.205774334422682115e-14
5.414000000000000000e+03 1.564671993255615234e+01 -1.532843589782714844e+01 -5.204170427930421283e-14 -6.805453688649501509e-14 -3.602887167211341057e-14 -4.803849782157240678e-14
5.415000000000000000e+03 1.428806114196777344e+01 -2.876928710937500000e+01 1.621299259126421366e-13 3.783031559453226000e-13 1.621299259126421366e-13 1.961571909677578551e-13
5.416000000000000000e+03 1.535391521453857422e+01 -2.747097587585449219e+01 2.920465247673725839e-13 3.078091709469987780e-13 1.799567168458277022e-13 2.012863075002979674e-13
5.417000000000000000e+03 6.529502105712890625e+01 -8.805861473083496094e+00 -1.080866150163402317e-13 6.805453688649501509e-14 -1.200962445539310169e-14 -8.306656957331876034e-14
5.418000000000000000e+03 6.017319869995117188e+01 -9.656649589538574219e+00 -8.869607928977882305e-14 -1.752654553606458609e-13 -7.918845971750104740e-14 5.404330750817011586e-14
5.419000000000000000e+03 2.304824447631835938e+01 -2.809185981750488281e+01 -2.552045048540268340e-14 -5.954771723458429644e-14 -2.552045048540268340e-14 -1.100882216333379238e-13
5.420000000000000000e+03 4.793434143066406250e+01 -1.020800495147705078e+01 2.562053217150528361e-13 6.405133042876320904e-14 9.607699564314481355e-14 9.607699564314481355e-14
5.421000000000000000e+03 4.789147567749023438e+01 -1.102444171905517578e+01 8.006416303595401129e-14 8.006416303595401129e-14 4.803849782157240678e-14 -6.004811719476782494e-14
5.422000000000000000e+03 3.927856445312500000e+01 -3.520552873611450195e+00 -1.000802037949425141e-14 -5.004010105043830980e-14 -1.801443583605670529e-14 1.601283260719080226e-14
5.423000000000000000e+03 4.990369796752929688e+01 -1.488926982879638672e+01 -1.100882216333379238e-13 9.007218256841531545e-14 -6.004812227696550847e-15 -1.040834085586084257e-13
5.424000000000000000e+03 5.018078613281250000e+01 -1.563505649566650391e+01 -1.601283260719080226e-14 1.761411519028352468e-13 4.803849782157240678e-14 4.803849782157240678e-14
5.425000000000000000e+03 3.703430557250976562e+01 -3.007144165039062500e+01 -1.160930347080674219e-13 -1.641315257533762506e-13 -8.406736949368581735e-14 7.205774334422682115e-14
5.426000000000000000e+03 1.351504230499267578e+01 -2.751163482666015625e+01 2.361892690976030718e-13 2.842277736954390566e-13 1.561251128379126385e-13 2.001604042017532392e-13
5.427000000000000000e+03 1.701086616516113281e+01 -9.794892311096191406e+00 -3.312654512678536722e-13 -7.906335633932337625e-14 -1.230986477031639770e-13 -2.001604075898850282e-14
5.428000000000000000e+03 6.533551788330078125e+01 -2.501095008850097656e+01 -6.655333022968085155e-14 2.917337866507191402e-13 6.755413692631148659e-14 -2.612093213168881212e-13
5.429000000000000000e+03 1.450795078277587891e+01 -2.266443252563476562e+01 6.104892389139845998e-14 2.091676170375839083e-13 8.106496295632106830e-14 2.121700303512122354e-13
5.430000000000000000e+03 1.334354114532470703e+01 -2.400129699707031250e+01 2.401924891078620339e-14 5.604491073703601889e-14 2.401924891078620339e-14 9.607699564314481355e-14
5.431000000000000000e+03 1.262157726287841797e+01 -2.968139457702636719e+01 3.942534504159517228e-13 3.171291354520100469e-14 1.277899091883458182e-13 -1.125902282105191443e-14
5.432000000000000000e+03 1.321525478363037109e+01 -2.906257820129394531e+01 1.481186999224490264e-13 2.922341730583755126e-13 1.321058605389946461e-13 8.807057595141762341e-14
5.433000000000000000e+03 3.364243984222412109e+00 -1.559669017791748047e+01 6.104892389139845998e-14 2.091676170375839083e-13 8.106496295632106830e-14 -8.206576287668812530e-14
5.434000000000000000e+03 5.586559677124023438e+01 -3.167838859558105469e+01 -2.001604075898850282e-15 1.821459649775647449e-13 5.404330750817011586e-14 8.006416303595401129e-15
5.435000000000000000e+03 2.473492431640625000e+01 -1.543176364898681641e+01 -2.284330493859676459e-13 1.308548674147994029e-13 -2.927345865710861972e-14 -2.101684237342145434e-14
5.436000000000000000e+03 2.893844413757324219e+01 -1.762234115600585938e+01 7.506014988159157020e-14 1.501202929869195624e-14 2.702165375408505793e-14 1.095878216731543953e-13
5.437000000000000000e+03 2.303928375244140625e+01 -4.170384216308593750e+01 -1.000802037949425141e-14 1.100882216333379238e-13 3.002405859738391247e-14 5.204170427930421283e-14
5.438000000000000000e+03 7.227847290039062500e+01 -2.691719436645507812e+01 1.180946345488015359e-13 1.421138868477195283e-13 7.806255641895631925e-14 2.481988952470620680e-13
5.439000000000000000e+03 6.731185150146484375e+01 -3.142053031921386719e+01 1.341074739322559162e-13 2.862293735361731706e-13 1.261010474642651480e-13 -2.602085213965210642e-14
5.440000000000000000e+03 4.169890594482421875e+01 -1.695763778686523438e+01 5.204170427930421283e-14 2.281828697346666157e-13 8.406736949368581735e-14 1.601283260719080226e-14
5.441000000000000000e+03 4.127115631103515625e+01 -1.966040802001953125e+01 2.902325867701685547e-14 2.411932958044926689e-13 8.106496295632106830e-14 -2.401924891078620339e-14
5.442000000000000000e+03 7.816789245605468750e+01 -1.565897083282470703e+01 1.401122870069854143e-13 6.004811719476782494e-14 6.004811719476782494e-14 6.405133042876320904e-14
5.443000000000000000e+03 5.217222976684570312e+01 -3.960228681564331055e+00 1.200962343895356499e-13 7.606095115721134281e-13 2.642117210779892922e-13 7.606094980195862720e-14
5.444000000000000000e+03 5.168935394287109375e+01 -3.134451150894165039e+00 5.604491073703601889e-14 3.442758773376797254e-13 1.200962343895356499e-13 1.481186999224490264e-13
5.445000000000000000e+03 3.158355712890625000e+01 -1.525734710693359375e+01 -5.454370679072728656e-13 -4.503609128420765773e-14 -1.771419518232023038e-13 -1.000802037949425141e-15
5.446000000000000000e+03 5.452024841308593750e+01 -1.050445079803466797e+01 5.579471075694425464e-14 3.970682018860499651e-13 1.358588670166346879e-13 -1.378604804098959580e-13
5.447000000000000000e+03 2.997319984436035156e+01 -1.721993637084960938e+01 4.503608959014176322e-15 3.307650648601972998e-13 1.005806020610601481e-13 2.852285871683332696e-14
5.448000000000000000e+03 2.941719245910644531e+01 -1.691880226135253906e+01 -6.505213034913026604e-15 2.517017085208739235e-13 7.355895000104098469e-14 -6.054852393121493148e-14
5.449000000000000000e+03 5.653544235229492188e+01 -2.174301338195800781e+01 1.981587908084919691e-13 6.204972381176551699e-14 7.806255641895631925e-14 4.003208151797700565e-15
5.450000000000000000e+03 4.676916885375976562e+01 -3.920308303833007812e+01 -1.781427517435693608e-13 3.803047490097931360e-14 -4.203368474684290867e-14 3.202566521438160452e-14
5.451000000000000000e+03 1.591212463378906250e+01 -6.049357414245605469e+00 3.803047490097931360e-14 6.204972381176551699e-14 3.002405859738391247e-14 1.521218996039172544e-13
5.452000000000000000e+03 4.624186706542968750e+01 -4.198625087738037109e+00 7.606094980195862720e-14 2.842277736954390566e-13 1.080866150163402317e-13 -2.882309733769072846e-13
5.453000000000000000e+03 4.512128829956054688e+01 -3.376609325408935547e+00 5.804651735403371093e-14 4.823865916089853378e-13 1.621299259126421366e-13 -2.241796429481440756e-13
5.454000000000000000e+03 4.682104492187500000e+01 -5.786810398101806641e+00 4.083272077664429345e-13 3.122502256758252770e-13 2.161732300326804634e-13 -1.801443651368306309e-13
5.455000000000000000e+03 2.846665573120117188e+01 -1.158853054046630859e+01 -3.492799040445693226e-13 7.906335633932337625e-14 -8.106496295632106830e-14 -4.003208151797700565e-14
5.456000000000000000e+03 2.782348632812500000e+01 -1.216756153106689453e+01 -2.426944821325160984e-13 -1.251002526260957745e-14 -7.656135653840573374e-14 -1.401122768425900472e-14
5.457000000000000000e+03 3.532549285888671875e+01 -2.900167465209960938e+01 -2.441956955655938399e-13 -3.602887167211341057e-14 -8.406736949368581735e-14 4.003208151797700565e-15
5.458000000000000000e+03 1.472284984588623047e+01 -2.706332969665527344e+01 3.275124583427407865e-13 2.304346492267017599e-13 1.673841322708327639e-13 2.652125209983563492e-13
5.459000000000000000e+03 1.372599697113037109e+01 -2.843198204040527344e+01 2.522020949285302960e-13 1.080866150163402317e-13 1.080866150163402317e-13 1.881507780522942430e-13
5.460000000000000000e+03 7.423994445800781250e+01 -2.348923110961914062e+01 4.003208151797700565e-15 1.160930347080674219e-13 3.602887167211341057e-14 1.120898214740720378e-13
5.461000000000000000e+03 4.969581985473632812e+01 -4.024036407470703125e+00 1.781427517435693608e-13 1.220978477827969200e-13 9.007218256841531545e-14 1.240994476235310340e-13
5.462000000000000000e+03 5.352598571777343750e+01 -1.632162284851074219e+01 2.001604075898850282e-14 1.000802021008766196e-13 3.602887167211341057e-14 -2.161732300326804634e-13
5.463000000000000000e+03 5.325432586669921875e+01 -1.461068916320800781e+01 4.703769451307356075e-14 2.031628039628544102e-13 7.506014988159157020e-14 -2.582069215557869502e-13
5.464000000000000000e+03 6.471700286865234375e+01 -3.952425765991210938e+01 7.005614350349270714e-14 1.100882216333379238e-13 5.404330750817011586e-14 -8.206576287668812530e-14
5.465000000000000000e+03 6.621660614013671875e+01 -3.637055206298828125e+01 -6.204972381176551699e-14 -1.180946345488015359e-13 -5.404330750817011586e-14 -8.807057595141762341e-14
5.466000000000000000e+03 2.844701385498046875e+01 -1.838618278503417969e+01 6.004811719476782494e-14 1.401122870069854143e-13 6.004811719476782494e-14 9.607699564314481355e-14
5.467000000000000000e+03 3.077700996398925781e+01 -4.524394512176513672e+00 -1.701363388281057487e-13 1.100882216333379238e-13 -1.801443583605670529e-14 -2.401924891078620339e-14
5.468000000000000000e+03 1.197815513610839844e+01 -3.175950050354003906e+01 5.204170427930421283e-14 6.805453688649501509e-14 3.602887167211341057e-14 1.240994476235310340e-13
5.469000000000000000e+03 4.003322219848632812e+01 -2.820449256896972656e+01 -6.405133042876320904e-14 6.405133042876320904e-14 0.000000000000000000e+00 1.601283260719080226e-14
5.470000000000000000e+03 4.156883239746093750e+01 -2.753558731079101562e+01 -4.003208084035064784e-13 5.604491480279416571e-13 4.803849782157240678e-14 4.803849782157240678e-14
5.471000000000000000e+03 2.730311584472656250e+01 -1.514091491699218750e+01 -1.491194998428160834e-13 7.906335633932337625e-14 -2.101684237342145434e-14 -1.000802021008766196e-13
5.472000000000000000e+03 2.754996681213378906e+01 -2.204965400695800781e+01 2.341876692568689577e-13 -1.401122768425900472e-14 6.605293026949732305e-14 -1.281026608575264181e-13
5.473000000000000000e+03 2.856137275695800781e+01 -2.033979606628417969e+01 -5.204170427930421283e-14 2.522020949285302960e-13 6.004811719476782494e-14 3.602887167211341057e-14
5.474000000000000000e+03 5.238618469238281250e+01 -8.922171592712402344e+00 -2.301844560228735737e-14 4.933953636279686528e-13 1.411130869273524713e-13 -5.604491073703601889e-14
5.475000000000000000e+03 4.747009658813476562e+01 -6.429929733276367188e+00 1.316054605788111176e-13 1.936551911668402126e-13 9.757819552369539906e-14 -9.107298248878237246e-14
5.476000000000000000e+03 3.698561477661132812e+01 -2.850019454956054688e+01 -1.801443651368306309e-13 -2.602085213965210642e-13 -1.321058605389946461e-13 -4.403528797570881170e-14
5.477000000000000000e+03 7.150313568115234375e+01 -2.715482902526855469e+01 2.421940957248597259e-13 3.783031559453226000e-13 1.861491782115601290e-13 0.000000000000000000e+00
5.478000000000000000e+03 1.684552192687988281e+01 -4.536267280578613281e+00 -1.000802021008766196e-13 3.002405995263662808e-13 6.004811719476782494e-14 6.004811719476782494e-14
5.479000000000000000e+03 1.447993278503417969e+01 -4.496054172515869141e+00 1.120898214740720378e-13 2.081668171172168513e-13 9.607699564314481355e-14 1.881507780522942430e-13
5.480000000000000000e+03 3.279459381103515625e+01 -6.357619285583496094e+00 -7.405934996122451319e-14 9.407538902614712151e-14 6.004812227696550847e-15 -9.870409882224012721e-14
5.481000000000000000e+03 3.567579650878906250e+01 -5.716413974761962891e+00 -8.006416303595401129e-14 -8.006416303595401129e-14 -4.803849782157240678e-14 -8.807057595141762341e-14
5.482000000000000000e+03 2.523224830627441406e+01 -2.947937202453613281e+01 8.506817110811876886e-15 1.866495781717436575e-13 5.854691731421723944e-14 2.802245536851800944e-14
5.483000000000000000e+03 4.676489257812500000e+01 -4.736327648162841797e+00 2.431948956452267829e-13 -7.305854326459387815e-14 5.104090097080536681e-14 -2.081668171172168513e-13
5.484000000000000000e+03 4.620013427734375000e+01 -5.202910423278808594e+00 1.546239129573620530e-13 2.051644071917203133e-14 5.254210423948774134e-14 -3.022421993671003948e-13
5.485000000000000000e+03 1.627528762817382812e+01 -1.658471107482910156e+01 0.000000000000000000e+00 3.202566521438160452e-13 9.607699564314481355e-14 2.401924687790712998e-13
5.486000000000000000e+03 7.310218048095703125e+01 -1.186154842376708984e+01 9.207378240914942946e-14 -2.121700303512122354e-13 -3.602887167211341057e-14 5.604491073703601889e-14
5.487000000000000000e+03 8.427198410034179688e+00 -2.350132942199707031e+01 1.321058605389946461e-13 -1.721379386688398627e-13 -1.200962445539310169e-14 -2.241796429481440756e-13
5.488000000000000000e+03 9.982079505920410156e+00 -2.402346229553222656e+01 -5.204170427930421283e-14 2.522020949285302960e-13 6.004811719476782494e-14 -1.921539912862896271e-13
5.489000000000000000e+03 3.885587310791015625e+01 -3.001981353759765625e+01 -1.044899843732904898e-13 3.212261728315068954e-13 6.502085789271763727e-14 2.689655376403917580e-14
5.490000000000000000e+03 3.611807250976562500e+01 -2.877420043945312500e+01 -2.441956955655938399e-13 -3.602887167211341057e-14 -8.406736949368581735e-14 2.001604075898850282e-14
5.491000000000000000e+03 1.702971076965332031e+01 -3.737662792205810547e+00 1.761411519028352468e-13 1.441154866884536423e-13 9.607699564314481355e-14 2.281828697346666157e-13
5.492000000000000000e+03 1.302551555633544922e+01 -2.594667911529541016e+00 1.040834085586084257e-13 -1.841475648182988589e-13 -2.401924891078620339e-14 4.003208151797700565e-14
5.493000000000000000e+03 3.940657043457031250e+01 -1.347350692749023438e+01 -3.182550251980276190e-13 1.381106736137241442e-13 -5.404330750817011586e-14 -1.321058605389946461e-13
5.494000000000000000e+03 2.043121719360351562e+01 -4.033790588378906250e+01 4.003208151797700565e-15 -4.403528797570881170e-14 -1.200962445539310169e-14 7.205774334422682115e-14
5.495000000000000000e+03 7.746998596191406250e+01 -2.661367607116699219e+01 1.080866150163402317e-13 9.207378240914942946e-14 6.004811719476782494e-14 1.601283260719080226e-14
5.496000000000000000e+03 7.281224822998046875e+01 -2.593008804321289062e+01 8.406736949368581735e-14 3.602887167211341057e-14 3.602887167211341057e-14 2.361892690976030718e-13
5.497000000000000000e+03 1.867759132385253906e+01 -1.461593532562255859e+01 -2.351884691772360148e-13 -1.751403519824681898e-13 -1.230986477031639770e-13 1.501202997631831404e-13
5.498000000000000000e+03 2.511093330383300781e+01 -3.085923576354980469e+01 -1.501202997631831404e-13 2.101684169579509653e-13 1.801443583605670529e-14 -1.601283260719080226e-14
5.499000000000000000e+03 4.994776535034179688e+01 -2.650523567199707031e+01 -1.891515779726613000e-13 2.391916688587042428e-13 1.501202929869195624e-14 -8.006416303595401129e-14
5.500000000000000000e+03 1.352646350860595703e+01 -2.320602607727050781e+01 9.807859548387892756e-14 3.622903301143953758e-13 1.381106736137241442e-13 1.561251128379126385e-13
5.501000000000000000e+03 1.270425319671630859e+01 -2.390496444702148438e+01 -1.881507780522942430e-13 1.481186999224490264e-13 -1.200962445539310169e-14 4.403528797570881170e-14
5.502000000000000000e+03 5.721215057373046875e+01 -1.988105010986328125e+01 1.000802021008766196e-13 1.801443651368306309e-13 8.406736949368581735e-14 -1.961571909677578551e-13
5.503000000000000000e+03 5.631788635253906250e+01 -1.916619682312011719e+01 9.607699564314481355e-14 3.843079825725792542e-13 1.441154866884536423e-13 -2.762213472274482884e-13
5.504000000000000000e+03 1.188760375976562500e+01 -3.012386894226074219e+01 3.402726844324750755e-14 1.861491782115601290e-13 6.605293026949732305e-14 3.402726844324750755e-14
5.505000000000000000e+03 1.207118129730224609e+01 -3.090430641174316406e+01 1.301042606982605321e-13 1.000802037949425141e-14 4.203368474684290867e-14 3.202566521438160452e-14
5.506000000000000000e+03 5.778223419189453125e+01 -2.350094223022460938e+01 1.581267126786467525e-13 3.422742774969456114e-13 1.501202997631831404e-13 -2.001604075898850282e-14
5.507000000000000000e+03 5.947954559326171875e+01 -2.640598297119140625e+01 1.846479647784823874e-13 1.706367387882892772e-13 1.065854151357896462e-13 3.803047490097931360e-14
5.508000000000000000e+03 1.804453134536743164e+00 -2.021330451965332031e+01 -6.204972381176551699e-14 2.021620040424873532e-13 4.203368474684290867e-14 -1.361090737729900302e-13
5.509000000000000000e+03 6.075967025756835938e+01 -9.131817817687988281e+00 1.160930347080674219e-13 4.003208151797700565e-15 3.602887167211341057e-14 -2.742197473867141744e-13
5.510000000000000000e+03 1.616345787048339844e+01 -1.240044116973876953e+01 -1.000802021008766196e-13 3.002405995263662808e-13 6.004811719476782494e-14 -7.005614350349270714e-14
5.511000000000000000e+03 2.762161445617675781e+01 -1.314399528503417969e+01 -2.481988952470620680e-13 -1.521218996039172544e-13 -1.200962343895356499e-13 -1.711371387484728057e-13
5.512000000000000000e+03 4.661037826538085938e+01 -1.371216201782226562e+01 -1.351082738526229732e-13 5.004010189747125706e-15 -3.903127820947815962e-14 9.307458910578006450e-14
5.513000000000000000e+03 7.197650909423828125e+01 -1.399662113189697266e+01 1.781427517435693608e-13 4.203368474684290867e-14 6.605293026949732305e-14 4.003208151797700565e-14
5.514000000000000000e+03 3.155011749267578125e+01 -6.120954513549804688e+00 -2.582069215557869502e-13 3.803047490097931360e-14 -6.605293026949732305e-14 -4.203368474684290867e-14
5.515000000000000000e+03 2.936602210998535156e+01 -2.477919387817382812e+01 1.170938346284344789e-13 2.331868693365019007e-13 1.050842084789754827e-13 -1.120898214740720378e-13
5.516000000000000000e+03 2.977539825439453125e+01 -2.647969818115234375e+01 -7.506014649345978118e-15 3.627907165220517482e-13 1.065854151357896462e-13 -1.200962445539310169e-14
5.517000000000000000e+03 6.469567871093750000e+01 -1.714912414550781250e+01 1.045838085187919542e-13 -2.296840560626900452e-13 -3.753007494079578510e-14 8.206576287668812530e-14
5.518000000000000000e+03 6.240528488159179688e+01 -1.935407829284667969e+01 6.805453688649501509e-14 2.121700303512122354e-13 8.406736949368581735e-14 -1.381106736137241442e-13
5.519000000000000000e+03 6.836682891845703125e+01 -1.418574142456054688e+01 2.522020949285302960e-13 -5.204170427930421283e-14 6.004811719476782494e-14 4.603689120457471473e-14
5.520000000000000000e+03 2.828402328491210938e+01 -1.258262920379638672e+01 -3.742999562638543720e-13 3.402726844324750755e-14 -1.020818019416107336e-13 9.207378240914942946e-14
5.521000000000000000e+03 4.926078796386718750e+01 -2.524837112426757812e+01 -1.761411519028352468e-13 3.362694779747432694e-13 4.803849782157240678e-14 -1.240994476235310340e-13
5.522000000000000000e+03 5.615471267700195312e+01 -3.092514610290527344e+01 1.601283260719080226e-14 1.441154866884536423e-13 4.803849782157240678e-14 -1.200962445539310169e-14
5.523000000000000000e+03 7.486101531982421875e+01 -2.176148223876953125e+01 1.361090737729900302e-13 1.040834085586084257e-13 7.205774334422682115e-14 1.681347389873716347e-13
5.524000000000000000e+03 3.149676704406738281e+01 -4.162084102630615234e+00 3.182550251980276190e-13 1.821459649775647449e-13 1.501202997631831404e-13 -2.321860694161348437e-13
5.525000000000000000e+03 6.301858901977539062e+01 -2.490773773193359375e+01 -5.204170427930421283e-14 9.207378240914942946e-14 1.200962445539310169e-14 -2.682149478645118323e-13
5.526000000000000000e+03 2.036022186279296875e+01 -2.544328498840332031e+01 2.982389996856321668e-13 8.206576287668812530e-14 1.140914348673333079e-13 -3.202566521438160452e-14
5.527000000000000000e+03 1.957490348815917969e+01 -2.563905143737792969e+01 3.202566521438160452e-14 -3.202566521438160452e-14 0.000000000000000000e+00 1.601283260719080226e-14
5.528000000000000000e+03 1.088319587707519531e+01 -3.323289871215820312e+01 1.601283260719080226e-14 -1.761411519028352468e-13 -4.803849782157240678e-14 2.401924891078620339e-14
5.529000000000000000e+03 7.832942199707031250e+01 -1.961231613159179688e+01 -8.006416303595401129e-15 -2.321860694161348437e-13 -7.205774334422682115e-14 1.841475648182988589e-13
5.530000000000000000e+03 4.832776260375976562e+01 -1.479009437561035156e+01 6.204972381176551699e-14 3.803047490097931360e-14 3.002405859738391247e-14 -6.605293026949732305e-14
5.531000000000000000e+03 3.467969894409179688e+01 -1.126556396484375000e+01 -1.240994476235310340e-13 8.406736949368581735e-14 -1.200962445539310169e-14 -2.401924891078620339e-14
5.532000000000000000e+03 1.630415534973144531e+01 -2.011931991577148438e+01 3.142518255165593910e-13 2.261812563414053456e-13 1.621299259126421366e-13 1.240994476235310340e-13
5.533000000000000000e+03 3.833549499511718750e+01 -2.851850128173828125e+01 -1.150922280114367868e-14 -1.336070739720723877e-13 -4.353488801552528320e-14 3.640417164225105695e-14
5.534000000000000000e+03 6.313755035400390625e+01 -6.662105083465576172e+00 3.602887167211341057e-14 -7.606094980195862720e-14 -1.200962445539310169e-14 -6.805453688649501509e-14
5.535000000000000000e+03 2.597194290161132812e+01 -3.068488502502441406e+01 -1.080866150163402317e-13 3.883111822540474822e-13 8.406736949368581735e-14 5.604491073703601889e-14
5.536000000000000000e+03 4.881232070922851562e+01 -2.470790672302246094e+01 6.905533680686207210e-14 1.611291259922750796e-13 6.905533680686207210e-14 -2.091676170375839083e-13
5.537000000000000000e+03 4.731111145019531250e+01 -2.412184333801269531e+01 5.235445594848481266e-14 4.799471367208929529e-13 1.596904710245497516e-13 -1.215974478226133915e-13
5.538000000000000000e+03 1.807224869728088379e+00 -1.525255012512207031e+01 1.601283260719080226e-13 0.000000000000000000e+00 4.803849782157240678e-14 -6.405133042876320904e-14
5.539000000000000000e+03 3.707720565795898438e+01 -6.049197196960449219e+00 -7.806255641895631925e-14 3.783031559453226000e-13 9.007218256841531545e-14 -1.681347389873716347e-13
5.540000000000000000e+03 3.620848846435546875e+01 -6.585072517395019531e+00 -2.602085213965210642e-14 1.261010474642651480e-13 3.002405859738391247e-14 -1.281026608575264181e-13
5.541000000000000000e+03 4.511922073364257812e+01 -1.439627075195312500e+01 -2.486993087597727525e-13 2.136712302317628209e-13 -1.050842118671072717e-14 1.761411519028352468e-13
5.542000000000000000e+03 4.619574737548828125e+01 -1.423768711090087891e+01 -2.081668171172168513e-13 2.081668171172168513e-13 0.000000000000000000e+00 9.407538902614712151e-14
5.543000000000000000e+03 3.582471466064453125e+01 -1.492629528045654297e+01 -4.783833377174084855e-13 -2.201764398785440585e-14 -1.501202997631831404e-13 1.601283260719080226e-13
5.544000000000000000e+03 5.412164688110351562e+01 -3.338083648681640625e+01 4.003208151797700565e-15 -1.240994476235310340e-13 -3.602887167211341057e-14 -5.604491073703601889e-14
5.545000000000000000e+03 4.101356887817382812e+01 -2.087380409240722656e+01 1.746399520222846613e-13 4.408532729410080675e-13 1.846479647784823874e-13 -1.000802021008766196e-13
5.546000000000000000e+03 5.081527328491210938e+01 -3.068715667724609375e+01 9.207378240914942946e-14 2.682149478645118323e-13 1.080866150163402317e-13 -1.601283260719080226e-14
5.547000000000000000e+03 3.727270126342773438e+01 -1.152568149566650391e+01 -2.306848559830571022e-13 4.958973769814134513e-13 7.956375629950690476e-14 3.202566521438160452e-14
5.548000000000000000e+03 2.938670539855957031e+01 -1.237295055389404297e+01 -2.632109211576222352e-13 -6.705373696612795809e-14 -9.907939540424598457e-14 5.204170427930421283e-14
5.549000000000000000e+03 2.934588432312011719e+01 -1.440818214416503906e+01 -1.501202997631831404e-13 -1.100882216333379238e-13 -7.806255641895631925e-14 8.606896933441993136e-14
5.550000000000000000e+03 5.019515991210937500e+01 -2.725100135803222656e+01 -5.804651735403371093e-14 1.581267126786467525e-13 3.002405859738391247e-14 -1.040834085586084257e-13
5.551000000000000000e+03 4.874423217773437500e+01 -2.726921653747558594e+01 -2.942358000041639388e-13 2.742197473867141744e-13 -6.004812227696550847e-15 -1.801443651368306309e-13
5.552000000000000000e+03 1.378927803039550781e+01 -1.224999141693115234e+01 -1.781427517435693608e-13 3.582871304329271478e-13 5.404330750817011586e-14 -1.361090737729900302e-13
5.553000000000000000e+03 5.267327880859375000e+01 -2.567260742187500000e+01 -2.061652172764827373e-13 -1.341074739322559162e-13 -1.020818019416107336e-13 -5.204170427930421283e-14
5.554000000000000000e+03 5.644853210449218750e+01 -2.701758003234863281e+01 -2.014113973259484824e-13 2.339374625005136155e-13 9.757819552369539906e-15 4.553649124439118623e-14
5.555000000000000000e+03 6.970133972167968750e+01 -2.683386039733886719e+01 2.502004950877961820e-13 -3.002405859738391247e-14 6.605293026949732305e-14 8.807057595141762341e-14
5.556000000000000000e+03 6.931125640869140625e+01 -3.143160438537597656e+01 1.200962445539310169e-14 3.482791041242022656e-13 1.080866150163402317e-13 -9.607699564314481355e-14
5.557000000000000000e+03 1.739228057861328125e+01 -4.184302902221679688e+01 5.504410996963601463e-15 -2.051644071917203133e-14 -4.503608959014176322e-15 2.401924891078620339e-14
5.558000000000000000e+03 1.424139404296875000e+01 -3.996502304077148438e+01 8.006416303595401129e-15 -8.807057595141762341e-14 -2.401924891078620339e-14 1.601283260719080226e-14
5.559000000000000000e+03 5.120846176147460938e+01 -3.163226699829101562e+01 -1.281026608575264181e-13 1.281026608575264181e-13 0.000000000000000000e+00 -1.361090737729900302e-13
5.560000000000000000e+03 6.600022125244140625e+01 -1.441666126251220703e+01 1.471179000020819694e-13 6.305052373213257400e-14 6.305052373213257400e-14 -6.004811719476782494e-14
5.561000000000000000e+03 5.960470581054687500e+01 -1.013909149169921875e+01 8.531836939414463861e-14 -6.780433690640325084e-14 5.254210593355363584e-15 -1.899021846892001708e-13
5.562000000000000000e+03 5.154151535034179688e+01 -1.496199607849121094e+01 1.220978477827969200e-13 9.807859548387892756e-14 6.605293026949732305e-14 -6.405133042876320904e-14
5.563000000000000000e+03 4.233065795898437500e+01 -2.708792877197265625e+01 -4.523625126828106913e-13 1.721379386688398627e-13 -8.406736949368581735e-14 -1.000802037949425141e-14
5.564000000000000000e+03 6.372991180419921875e+01 -3.867040634155273438e+01 4.103288143834406265e-14 -2.111692168783180223e-13 -5.104090097080536681e-14 5.904731727440076794e-14
5.565000000000000000e+03 6.331658935546875000e+01 -4.017287063598632812e+01 1.701363422162375377e-14 -1.070858150959731747e-13 -2.702165375408505793e-14 2.001604075898850282e-14
5.566000000000000000e+03 6.076647186279296875e+01 -2.557404708862304688e+01 1.331066604593617031e-13 -2.632109211576222352e-13 -3.903127820947815962e-14 -1.601283260719080226e-14
5.567000000000000000e+03 1.269223117828369141e+01 -3.706975936889648438e+01 -1.561251128379126385e-13 3.602887167211341057e-14 -3.602887167211341057e-14 -3.002405859738391247e-14
5.568000000000000000e+03 1.250866413116455078e+01 -4.001487350463867188e+01 -5.504411081666896188e-14 -1.150922347877003649e-13 -5.104090097080536681e-14 -3.602887167211341057e-14
5.569000000000000000e+03 4.495668411254882812e+01 -2.662011528015136719e+01 -4.003208084035064784e-13 2.401924687790712998e-13 -4.803849782157240678e-14 -9.607699564314481355e-14
5.570000000000000000e+03 3.599805450439453125e+01 -7.304500579833984375e+00 3.803047490097931360e-14 6.204972381176551699e-14 3.002405859738391247e-14 -1.841475648182988589e-13
5.571000000000000000e+03 5.616465377807617188e+01 -1.838874435424804688e+01 7.606094980195862720e-14 2.842277736954390566e-13 1.080866150163402317e-13 -6.004811719476782494e-14
5.572000000000000000e+03 1.135216426849365234e+01 -3.654206848144531250e+01 8.006416303595401129e-15 7.205774334422682115e-14 2.401924891078620339e-14 -6.004812227696550847e-15
5.573000000000000000e+03 9.843707084655761719e+00 -3.051956892013549805e+00 1.641315257533762506e-13 -2.041636038832214672e-13 -1.200962445539310169e-14 5.604491073703601889e-14
5.574000000000000000e+03 5.832098770141601562e+01 -2.727507019042968750e+01 -2.176744299132310489e-13 2.927345865710861972e-13 2.251804564210382886e-14 -1.551243095294137925e-14
5.575000000000000000e+03 5.493596649169921875e+01 -2.502405166625976562e+01 -6.805453688649501509e-14 1.080866150163402317e-13 1.200962445539310169e-14 8.006416303595401129e-15
5.576000000000000000e+03 6.213006973266601562e+01 -2.567444229125976562e+01 -6.204972381176551699e-14 -1.180946345488015359e-13 -5.404330750817011586e-14 -3.042437992078345088e-13
5.577000000000000000e+03 6.578850555419921875e+01 -2.645405197143554688e+01 6.004811719476782494e-14 3.002405995263662808e-13 1.080866150163402317e-13 8.807057595141762341e-14
5.578000000000000000e+03 5.538808059692382812e+01 -2.839727592468261719e+01 -1.020818019416107336e-13 3.222582519845501592e-13 6.605293026949732305e-14 1.601283260719080226e-14
5.579000000000000000e+03 5.629598999023437500e+01 -2.912202262878417969e+01 -1.481186999224490264e-13 2.802245536851800944e-14 -3.602887167211341057e-14 7.205774334422682115e-14
5.580000000000000000e+03 5.559940338134765625e+01 -3.058610153198242188e+01 -2.321860694161348437e-13 -8.006416303595401129e-15 -7.205774334422682115e-14 2.401924891078620339e-14
5.581000000000000000e+03 2.233341407775878906e+01 -1.453378295898437500e+01 -2.912333731380084556e-13 -3.993200084831394214e-13 -2.071660171968497943e-13 -4.003208151797700565e-14
5.582000000000000000e+03 2.177066421508789062e+01 -1.597305297851562500e+01 -1.120898214740720378e-13 -3.682951296365977178e-13 -1.441154866884536423e-13 4.803849782157240678e-14
5.583000000000000000e+03 6.313961410522460938e+01 -2.245005607604980469e+01 1.921539912862896271e-13 4.483592858962881511e-13 1.921539912862896271e-13 -1.401122870069854143e-13
5.584000000000000000e+03 5.651888656616210938e+01 -2.084243774414062500e+01 2.221780431074099615e-13 4.383512866926175811e-13 1.981587908084919691e-13 -5.204170427930421283e-14
5.585000000000000000e+03 4.249270248413085938e+01 -1.433212661743164062e+01 -3.202566521438160452e-13 -1.601283260719080226e-13 -1.441154866884536423e-13 -4.003208151797700565e-14
5.586000000000000000e+03 4.373973464965820312e+01 -1.546244239807128906e+01 -1.961571909677578551e-13 2.361892690976030718e-13 1.200962445539310169e-14 3.202566521438160452e-14
5.587000000000000000e+03 1.587220382690429688e+01 -9.271408081054687500e+00 -1.391114735340912012e-13 -1.511210996835501974e-13 -8.706977603105056640e-14 4.003208151797700565e-15
5.588000000000000000e+03 3.770798110961914062e+01 -3.024825859069824219e+01 -2.201764398785440585e-14 1.621299259126421366e-13 4.203368474684290867e-14 -2.802245536851800944e-14
5.589000000000000000e+03 6.777108001708984375e+01 -3.070128631591796875e+01 1.381106736137241442e-13 -7.806255641895631925e-14 1.801443583605670529e-14 -1.000802037949425141e-14
5.590000000000000000e+03 7.477585601806640625e+01 -2.091917037963867188e+01 0.000000000000000000e+00 0.000000000000000000e+00 0.000000000000000000e+00 8.006416303595401129e-14
5.591000000000000000e+03 7.562186431884765625e+01 -1.850931739807128906e+01 1.110890215537049808e-13 -1.811451650571976879e-13 -2.101684237342145434e-14 4.803849782157240678e-14
5.592000000000000000e+03 4.154936599731445312e+01 -2.146517944335937500e+01 1.461170865291877563e-13 5.544442942956306908e-13 2.101684169579509653e-13 4.003208151797700565e-15
5.593000000000000000e+03 1.701888656616210938e+01 -1.711421775817871094e+01 -2.602085213965210642e-14 1.261010474642651480e-13 3.002405859738391247e-14 2.882309733769072846e-13
5.594000000000000000e+03 6.567565155029296875e+01 -2.921477699279785156e+01 1.554996094995514389e-13 2.089174238337557221e-14 5.291740759775717673e-14 -1.396118734942747297e-13
5.595000000000000000e+03 6.557740020751953125e+01 -2.817626953125000000e+01 8.807057595141762341e-14 1.521218996039172544e-13 7.205774334422682115e-14 -1.701363388281057487e-13
5.596000000000000000e+03 4.033541488647460938e+01 -1.928339767456054688e+01 3.602887167211341057e-14 5.644523477094098851e-13 1.801443651368306309e-13 -8.206576287668812530e-14
5.597000000000000000e+03 4.641035461425781250e+01 -1.904565620422363281e+01 -8.406736949368581735e-14 2.842277736954390566e-13 6.004811719476782494e-14 4.803849782157240678e-14
5.598000000000000000e+03 2.723643875122070312e+01 -2.291289520263671875e+01 1.215974478226133915e-13 1.436150867282701138e-13 7.956375629950690476e-14 -3.202566521438160452e-14
5.599000000000000000e+03 2.317111015319824219e+01 -2.713995170593261719e+01 5.604491073703601889e-14 2.401924891078620339e-14 2.401924891078620339e-14 -1.761411519028352468e-13
5.600000000000000000e+03 5.153044128417968750e+01 -3.316647338867187500e+01 1.040834085586084257e-13 2.962373998448980528e-13 1.200962343895356499e-13 -2.522020949285302960e-13
5.601000000000000000e+03 3.676776885986328125e+01 -1.113727855682373047e+01 -1.411130869273524713e-13 3.102486190588275849e-14 -3.302646513474866152e-14 4.803849782157240678e-14
5.602000000000000000e+03 5.762923431396484375e+01 -1.196469020843505859e+01 -1.120898214740720378e-13 -4.803849782157240678e-14 -4.803849782157240678e-14 -3.042437992078345088e-13
5.603000000000000000e+03 5.526990127563476562e+01 -1.770660972595214844e+01 2.101684169579509653e-13 2.502004950877961820e-13 1.381106736137241442e-13 -1.921539912862896271e-13
5.604000000000000000e+03 4.788594055175781250e+01 -2.816019439697265625e+01 -1.321058605389946461e-13 3.322662782932750414e-13 6.004811719476782494e-14 -1.901523778930283570e-13
5.605000000000000000e+03 6.344804382324218750e+01 -9.894363403320312500e+00 6.855493684667854359e-14 -1.536231130369949960e-13 -2.552045048540268340e-14 7.205774334422682115e-14
5.606000000000000000e+03 7.886853027343750000e+01 -8.704414367675781250e+00 1.080866150163402317e-13 9.207378240914942946e-14 6.004811719476782494e-14 5.204170427930421283e-14
5.607000000000000000e+03 5.193297195434570312e+01 -2.567817687988281250e+01 -3.742999562638543720e-13 1.140914348673333079e-13 -7.806255641895631925e-14 3.202566521438160452e-14
5.608000000000000000e+03 5.249172210693359375e+01 -2.644661140441894531e+01 -1.981587908084919691e-13 3.382710778154773834e-13 4.203368474684290867e-14 -4.003208151797700565e-15
5.609000000000000000e+03 4.478612136840820312e+01 -1.512486553192138672e+01 -3.322662782932750414e-13 4.523625126828106913e-13 3.602887167211341057e-14 1.281026608575264181e-13
5.610000000000000000e+03 3.733099746704101562e+01 -3.383314514160156250e+01 -5.692061405548898279e-14 -7.943865969759281165e-14 -4.090778144829818053e-14 6.129912217742432973e-15
5.611000000000000000e+03 4.806464004516601562e+01 -7.751470088958740234e+00 5.604491073703601889e-14 1.841475648182988589e-13 7.205774334422682115e-14 -1.361090737729900302e-13
5.612000000000000000e+03 4.169808959960937500e+01 -1.413470077514648438e+01 -4.083272077664429345e-13 8.006416303595401129e-15 -1.200962343895356499e-13 -8.006416303595401129e-14
5.613000000000000000e+03 5.697514343261718750e+01 -1.111219215393066406e+01 1.401122870069854143e-13 2.201764432666758475e-13 1.080866150163402317e-13 -3.642919299551294898e-13
5.614000000000000000e+03 5.939045333862304688e+01 -1.152737903594970703e+01 -9.207378240914942946e-14 5.204170427930421283e-14 -1.200962445539310169e-14 -3.202566521438160452e-14
5.615000000000000000e+03 5.007958984375000000e+01 -2.859673500061035156e+01 -4.003208151797700565e-15 3.642919299551294898e-13 1.080866150163402317e-13 -4.803849782157240678e-14
5.616000000000000000e+03 6.522811889648437500e+01 -1.664627265930175781e+01 1.997850940672202258e-13 -5.879711814134195094e-15 5.817161395594780404e-14 -2.001604075898850282e-14
5.617000000000000000e+03 3.120212173461914062e+01 -2.830340003967285156e+01 3.002405859738391247e-14 3.903127820947815962e-13 1.261010474642651480e-13 -7.005614350349270714e-14
5.618000000000000000e+03 2.616917610168457031e+01 -3.163753128051757812e+01 -1.501202997631831404e-13 2.101684169579509653e-13 1.801443583605670529e-14 -2.401924891078620339e-14
5.619000000000000000e+03 6.338477325439453125e+01 -1.801694297790527344e+01 -6.605293026949732305e-14 6.004812227696550847e-15 -1.801443583605670529e-14 3.602887167211341057e-14
5.620000000000000000e+03 6.405465698242187500e+01 -7.356800556182861328e+00 -7.405934996122451319e-14 1.401122768425900472e-14 -1.801443583605670529e-14 -4.403528797570881170e-14
5.621000000000000000e+03 3.023061180114746094e+01 -1.060426235198974609e+01 -1.130906281707026728e-13 -3.172542252776605620e-13 -1.291034607778934751e-13 1.556247128777291100e-13
5.622000000000000000e+03 3.645956039428710938e+01 -8.299256324768066406e+00 1.240994476235310340e-13 3.963175816169839383e-13 1.561251128379126385e-13 -1.641315257533762506e-13
5.623000000000000000e+03 7.675499916076660156e+00 -2.352965354919433594e+01 6.605293026949732305e-14 2.341876692568689577e-13 9.007218256841531545e-14 -3.002405995263662808e-13
5.624000000000000000e+03 6.165597152709960938e+01 -3.978503417968750000e+01 -1.050842084789754827e-13 7.506014988159157020e-14 -9.007217918028352643e-15 8.206576287668812530e-14
5.625000000000000000e+03 6.301175308227539062e+01 -4.161053085327148438e+01 -2.502005094873562853e-15 -1.251002526260957745e-14 -4.503608959014176322e-15 3.202566521438160452e-14
5.626000000000000000e+03 3.389666366577148438e+01 -1.285473442077636719e+01 -3.202566521438160452e-13 -1.601283260719080226e-13 -1.441154866884536423e-13 8.206576287668812530e-14
5.627000000000000000e+03 5.524581527709960938e+01 -3.937118530273437500e+01 -7.806255641895631925e-14 1.381106736137241442e-13 1.801443583605670529e-14 -2.802245536851800944e-14
5.628000000000000000e+03 5.452654647827148438e+01 -3.474703979492187500e+01 8.406736949368581735e-14 -1.240994476235310340e-13 -1.200962445539310169e-14 -1.140914348673333079e-13
5.629000000000000000e+03 1.002148723602294922e+01 -1.153550052642822266e+01 -1.060850151756061177e-13 4.603689120457471473e-14 -1.801443583605670529e-14 3.442758773376797254e-13
5.630000000000000000e+03 9.011206626892089844e+00 -1.172416210174560547e+01 -1.336070739720723877e-13 3.087474124020134214e-13 5.254210423948774134e-14 2.642117210779892922e-13
5.631000000000000000e+03 6.074980545043945312e+01 -1.110720729827880859e+01 1.321058605389946461e-13 -1.721379386688398627e-13 -1.200962445539310169e-14 -1.956567910075743266e-13
5.632000000000000000e+03 1.199847507476806641e+01 -3.744588470458984375e+01 -7.355895000104098469e-14 -3.152526186606628700e-14 -3.152526186606628700e-14 -2.001604075898850282e-14
5.633000000000000000e+03 4.126061248779296875e+01 -2.692227363586425781e+01 -2.682149478645118323e-13 2.281828697346666157e-13 -1.200962445539310169e-14 6.405133042876320904e-14
5.634000000000000000e+03 5.432628250122070312e+01 -1.544046115875244141e+01 2.802245536851800944e-14 1.721379386688398627e-13 6.004811719476782494e-14 -1.961571909677578551e-13
5.635000000000000000e+03 7.102535247802734375e+01 -1.374989795684814453e+01 1.261010474642651480e-13 -2.602085213965210642e-14 3.002405859738391247e-14 1.401122768425900472e-14
5.636000000000000000e+03 5.182603073120117188e+01 -9.237531661987304688e+00 9.607699564314481355e-14 2.241796429481440756e-13 9.607699564314481355e-14 -1.361090737729900302e-13
5.637000000000000000e+03 6.027605056762695312e+01 -4.091624069213867188e+01 2.652125379390152943e-14 4.853889778175593528e-14 2.251804564210382886e-14 2.677145377399329368e-14
5.638000000000000000e+03 5.620624542236328125e+01 -1.126951503753662109e+01 -1.000802021008766196e-13 1.401122870069854143e-13 1.200962445539310169e-14 -1.761411519028352468e-13
5.639000000000000000e+03 3.059241104125976562e+01 -2.866585731506347656e+01 -1.190954344691685929e-13 2.692157477848788893e-13 4.503609128420765773e-14 -8.006416303595401129e-15
5.640000000000000000e+03 2.624167823791503906e+01 -3.258116912841796875e+01 2.001604075898850282e-14 2.602085213965210642e-13 8.406736949368581735e-14 -1.200962445539310169e-14
5.641000000000000000e+03 3.312797164916992188e+01 -3.005460357666015625e+01 3.202566521438160452e-14 -1.921539912862896271e-13 -4.803849782157240678e-14 -1.180946345488015359e-13
5.642000000000000000e+03 3.669125366210937500e+01 -3.356188583374023438e+01 -5.804651735403371093e-14 -1.621299259126421366e-13 -6.605293026949732305e-14 2.081668171172168513e-13
5.643000000000000000e+03 5.129563522338867188e+01 -5.712987899780273438e+00 2.742197473867141744e-13 3.462775042834681516e-13 1.861491782115601290e-13 8.406736949368581735e-14
5.644000000000000000e+03 5.072509384155273438e+01 -7.279858112335205078e+00 4.483592858962881511e-13 1.921539912862896271e-13 1.921539912862896271e-13 4.003208151797700565e-15
5.645000000000000000e+03 2.083132362365722656e+01 -1.388305377960205078e+01 -2.692157477848788893e-13 -1.611291259922750796e-13 -1.291034607778934751e-13 8.006416303595401129e-14
5.646000000000000000e+03 1.912520790100097656e+01 -1.782406234741210938e+01 1.120898214740720378e-13 -1.120898214740720378e-13 0.000000000000000000e+00 -1.200962445539310169e-14
5.647000000000000000e+03 3.624236297607421875e+01 -2.898977994918823242e+00 9.007218256841531545e-14 1.301042606982605321e-13 6.605293026949732305e-14 6.405133042876320904e-14
5.648000000000000000e+03 7.641210937500000000e+01 -9.491991996765136719e+00 1.561251128379126385e-13 2.041636038832214672e-13 1.080866150163402317e-13 -1.200962445539310169e-14
5.649000000000000000e+03 4.554515075683593750e+01 -1.949594497680664062e+01 -7.606094980195862720e-14 1.961571909677578551e-13 3.602887167211341057e-14 -5.604491073703601889e-14
5.650000000000000000e+03 3.548499298095703125e+01 -3.147630214691162109e+00 5.204170427930421283e-14 -9.207378240914942946e-14 -1.200962445539310169e-14 2.401924891078620339e-14
5.651000000000000000e+03 8.579721450805664062e+00 -2.492672157287597656e+01 -6.004811719476782494e-14 -1.401122870069854143e-13 -6.004811719476782494e-14 -8.006416303595401129e-14
5.652000000000000000e+03 3.575429534912109375e+01 -8.021229743957519531e+00 5.204170427930421283e-14 6.805453688649501509e-14 3.602887167211341057e-14 -2.401924891078620339e-14
5.653000000000000000e+03 3.071603965759277344e+01 -1.115279579162597656e+01 -2.752205540833448094e-14 -5.754611739385018243e-14 -2.552045048540268340e-14 4.203368474684290867e-14
5.654000000000000000e+03 7.822392272949218750e+01 -2.749798965454101562e+01 -3.202566521438160452e-14 3.202566521438160452e-14 0.000000000000000000e+00 -4.803849782157240678e-14
5.655000000000000000e+03 6.126255416870117188e+01 -9.648069381713867188e+00 -4.553649124439118623e-14 -1.596279261117244941e-13 -6.154932385158198849e-14 2.702165375408505793e-14
5.656000000000000000e+03 6.190929412841796875e+01 -8.085642814636230469e+00 -7.005614350349270714e-14 -2.702165477052459464e-13 -1.020818019416107336e-13 8.807057595141762341e-14
5.657000000000000000e+03 6.916074371337890625e+01 -1.500772571563720703e+01 1.321058605389946461e-13 1.481186999224490264e-13 8.406736949368581735e-14 1.441154866884536423e-13
5.658000000000000000e+03 4.276234054565429688e+01 -2.587548255920410156e+00 2.602085213965210642e-14 1.941555911270237411e-13 6.605293026949732305e-14 0.000000000000000000e+00
5.659000000000000000e+03 5.510279083251953125e+01 -2.579692840576171875e+01 -6.004811719476782494e-14 3.402726776562114974e-13 8.406736949368581735e-14 -9.207378240914942946e-14
5.660000000000000000e+03 5.812159347534179688e+01 -2.604505920410156250e+01 4.403528797570881170e-14 3.162534253572935050e-13 1.080866150163402317e-13 1.160930347080674219e-13
5.661000000000000000e+03 5.589200210571289062e+01 -1.616377067565917969e+01 2.141716301919463494e-13 3.662935297958636038e-13 1.741395520621011328e-13 -2.281828697346666157e-13
5.662000000000000000e+03 7.823294067382812500e+01 -2.431905746459960938e+01 -6.004812227696550847e-15 6.605293026949732305e-14 1.801443583605670529e-14 1.601283260719080226e-14
5.663000000000000000e+03 4.798805618286132812e+01 -1.644287872314453125e+01 -1.521218996039172544e-13 7.205774334422682115e-14 -2.401924891078620339e-14 5.604491073703601889e-14
5.664000000000000000e+03 4.637815093994140625e+01 -1.571118259429931641e+01 -3.182550251980276190e-13 4.583673393100673454e-13 4.203368474684290867e-14 5.604491073703601889e-14
5.665000000000000000e+03 7.730549621582031250e+01 -1.232813072204589844e+01 4.003208151797700565e-14 4.003208151797700565e-14 2.401924891078620339e-14 1.401122870069854143e-13
5.666000000000000000e+03 7.693019866943359375e+01 -1.102246189117431641e+01 5.604491073703601889e-14 2.401924891078620339e-14 2.401924891078620339e-14 1.120898214740720378e-13
5.667000000000000000e+03 4.964591979980468750e+01 -2.961726379394531250e+01 -1.080866150163402317e-13 2.281828697346666157e-13 3.602887167211341057e-14 -5.604491073703601889e-14
5.668000000000000000e+03 4.981779861450195312e+01 -3.028785514831542969e+01 -8.006416303595401129e-15 8.807057595141762341e-14 2.401924891078620339e-14 -4.003208151797700565e-14
5.669000000000000000e+03 6.449930572509765625e+01 -2.636931419372558594e+01 2.421940957248597259e-13 3.783031559453226000e-13 1.861491782115601290e-13 4.403528797570881170e-14
5.670000000000000000e+03 5.182226181030273438e+01 -1.385824584960937500e+01 1.291034607778934751e-13 1.010810020212436766e-13 6.905533680686207210e-14 -8.006416303595401129e-14
5.671000000000000000e+03 6.778040313720703125e+01 -1.271620178222656250e+01 1.331066604593617031e-13 5.704571743366665393e-14 5.704571743366665393e-14 0.000000000000000000e+00
5.672000000000000000e+03 6.620606994628906250e+01 -2.859809684753417969e+01 2.176744299132310489e-13 4.753809447325708926e-14 7.956375629950690476e-14 -6.405133042876320904e-14
5.673000000000000000e+03 6.693296051025390625e+01 -3.025453948974609375e+01 8.006416303595401129e-14 8.006416303595401129e-14 4.803849782157240678e-14 -6.004812227696550847e-15
5.674000000000000000e+03 2.624143981933593750e+01 -3.976264572143554688e+01 1.951563910473907981e-14 1.456166865690042278e-13 4.953969770212299228e-14 -2.602085213965210642e-14
5.675000000000000000e+03 1.106594324111938477e+00 -2.712390422821044922e+00 -5.204170427930421283e-14 -6.805453688649501509e-14 -3.602887167211341057e-14 -1.120898214740720378e-13
5.676000000000000000e+03 2.956903839111328125e+01 -1.132732009887695312e+01 -2.111692168783180223e-13 4.103288143834406265e-14 -5.104090097080536681e-14 -1.551243129175455815e-13
5.677000000000000000e+03 3.585041427612304688e+01 -9.815967559814453125e+00 1.601283260719080226e-14 1.441154866884536423e-13 4.803849782157240678e-14 -1.601283260719080226e-14
5.678000000000000000e+03 6.034452056884765625e+01 -2.346623992919921875e+01 1.381106736137241442e-13 1.621299259126421366e-13 9.007218256841531545e-14 -1.120898214740720378e-13
5.679000000000000000e+03 3.992894363403320312e+01 -4.056123733520507812e+01 -1.455541416561789703e-13 1.274145990538128048e-13 -5.441861001940660400e-15 3.268244100915543293e-14
5.680000000000000000e+03 4.529460525512695312e+01 -2.173781394958496094e+01 7.005614350349270714e-14 2.702165477052459464e-13 1.020818019416107336e-13 -7.606094980195862720e-14
5.681000000000000000e+03 2.825271844863891602e+00 -1.941318893432617188e+01 -5.604491073703601889e-14 -2.401924891078620339e-14 -2.401924891078620339e-14 5.604491073703601889e-14
5.682000000000000000e+03 2.293381214141845703e+00 -2.210528182983398438e+01 6.805453688649501509e-14 2.121700303512122354e-13 8.406736949368581735e-14 -8.807057595141762341e-14
5.683000000000000000e+03 2.303710556030273438e+01 -1.492576217651367188e+01 -3.197562386311053606e-13 -4.553649124439118623e-14 -1.095878216731543953e-13 1.200962445539310169e-14
5.684000000000000000e+03 1.517245292663574219e+01 -8.547113418579101562e+00 1.801443583605670529e-14 1.220978477827969200e-13 4.203368474684290867e-14 7.405934996122451319e-14
5.685000000000000000e+03 1.663150596618652344e+01 -2.622984504699707031e+01 1.821459649775647449e-13 5.584474939770989188e-13 2.221780431074099615e-13 1.481186999224490264e-13
5.686000000000000000e+03 1.586487483978271484e+01 -2.575597763061523438e+01 1.481186999224490264e-13 2.922341730583755126e-13 1.321058605389946461e-13 1.251002475438980910e-13
5.687000000000000000e+03 4.824814987182617188e+01 -6.962947368621826172e+00 4.883913911311876799e-13 2.321860694161348437e-13 2.161732300326804634e-13 8.006416303595401129e-15
5.688000000000000000e+03 1.576762104034423828e+01 -2.081905555725097656e+01 3.202566521438160452e-14 -3.202566521438160452e-14 0.000000000000000000e+00 1.851483647386659159e-13
5.689000000000000000e+03 1.694158935546875000e+01 -2.057861328125000000e+01 2.451964887096973189e-14 1.105886215935214523e-13 4.053248147816053415e-14 1.175942345886180074e-13
5.690000000000000000e+03 4.703790283203125000e+01 -4.156201362609863281e+00 7.405934996122451319e-14 -3.342678781340091554e-13 -7.806255641895631925e-14 -2.642117210779892922e-13
5.691000000000000000e+03 4.882823181152343750e+01 -1.151564598083496094e+01 9.707779556351187056e-14 1.331066604593617031e-13 6.905533680686207210e-14 -8.006416303595401129e-14
5.692000000000000000e+03 6.574565124511718750e+01 -1.612468147277832031e+01 1.701363388281057487e-13 1.301042606982605321e-13 9.007218256841531545e-14 -2.852285871683332696e-14
5.693000000000000000e+03 6.490808868408203125e+01 -1.258318805694580078e+01 3.202566521438160452e-14 1.281026608575264181e-13 4.803849782157240678e-14 -4.003208151797700565e-14
5.694000000000000000e+03 4.182036590576171875e+01 -2.656603050231933594e+01 -3.487794905318586380e-13 2.537033083616080376e-13 -2.852285871683332696e-14 3.627907165220517482e-14
5.695000000000000000e+03 8.002408981323242188e+00 -1.284255027770996094e+01 1.776423585596494104e-14 2.549543150383304368e-13 8.181556289659636105e-14 1.235990476633475055e-13
5.696000000000000000e+03 1.222551441192626953e+01 -1.177844429016113281e+01 -2.081668171172168513e-13 4.803849782157240678e-14 -4.803849782157240678e-14 -8.406736949368581735e-14
5.697000000000000000e+03 4.857276535034179688e+01 -1.545888233184814453e+01 -6.004811719476782494e-14 1.801443651368306309e-13 3.602887167211341057e-14 6.405133042876320904e-14
5.698000000000000000e+03 6.304283523559570312e+01 -2.101230621337890625e+01 -4.003208151797700565e-15 3.642919299551294898e-13 1.080866150163402317e-13 -1.521218996039172544e-13
5.699000000000000000e+03 6.140907287597656250e+01 -2.568260955810546875e+01 1.741395520621011328e-13 3.262614516660183872e-13 1.501202997631831404e-13 -1.080866150163402317e-13
5.700000000000000000e+03 3.996671915054321289e+00 -3.892414474487304688e+01 3.202566521438160452e-14 3.682951296365977178e-13 1.200962343895356499e-13 -1.200962445539310169e-14
5.701000000000000000e+03 6.187969970703125000e+01 -6.456622123718261719e+00 -2.241796429481440756e-13 -4.163336342344337027e-13 -1.921539912862896271e-13 -7.806255641895631925e-14
5.702000000000000000e+03 6.225417327880859375e+01 -6.999963760375976562e+00 -9.857899544406245607e-14 3.502806921064751181e-15 -2.852285871683332696e-14 -2.401924891078620339e-14
5.703000000000000000e+03 3.882791137695312500e+01 -3.747358703613281250e+01 -1.661331391466375207e-13 -9.407538902614712151e-14 -7.806255641895631925e-14 8.206576287668812530e-14
5.704000000000000000e+03 3.860441970825195312e+01 -1.904851198196411133e+00 2.201764432666758475e-13 -1.801443651368306309e-13 1.200962445539310169e-14 -7.205774334422682115e-14
5.705000000000000000e+03 1.538719081878662109e+01 -2.206174612045288086e+00 2.121700303512122354e-13 6.805453688649501509e-14 8.406736949368581735e-14 2.001604042017532392e-13
5.706000000000000000e+03 1.636287498474121094e+01 -2.928030490875244141e+00 3.682951296365977178e-13 1.120898214740720378e-13 1.441154866884536423e-13 2.722181475459800604e-13
5.707000000000000000e+03 1.131933593750000000e+01 -2.512266349792480469e+01 -5.404330750817011586e-14 1.140914348673333079e-13 1.801443583605670529e-14 2.401924891078620339e-14
5.708000000000000000e+03 1.270980930328369141e+01 -2.863873863220214844e+01 3.074964057252910221e-13 1.303544674546158744e-13 1.313552673749829314e-13 -2.076664239332969009e-14
5.709000000000000000e+03 1.098563480377197266e+01 -1.122765445709228516e+01 4.003208151797700565e-15 1.160930347080674219e-13 3.602887167211341057e-14 7.405934996122451319e-14
5.710000000000000000e+03 9.922001838684082031e+00 -1.053418827056884766e+01 -8.106496295632106830e-14 1.100882199392720293e-14 -2.101684237342145434e-14 2.401924687790712998e-13
5.711000000000000000e+03 1.592357349395751953e+01 -2.322631835937500000e+01 1.060850151756061177e-13 -4.603689120457471473e-14 1.801443583605670529e-14 1.281026608575264181e-13
5.712000000000000000e+03 1.157806682586669922e+01 -1.151246261596679688e+01 -1.020818019416107336e-13 -7.806255641895631925e-14 -5.404330750817011586e-14 1.781427517435693608e-13
5.713000000000000000e+03 6.848406219482421875e+01 -1.487787151336669922e+01 4.003208084035064784e-13 8.006416303595401129e-14 1.441154866884536423e-13 1.321058605389946461e-13
5.714000000000000000e+03 2.116439437866210938e+01 -2.516549491882324219e+01 1.210970478624298630e-13 1.891515779726613000e-13 9.307458910578006450e-14 6.405133042876320904e-14
5.715000000000000000e+03 2.025099372863769531e+01 -2.468259429931640625e+01 2.401924891078620339e-14 5.604491073703601889e-14 2.401924891078620339e-14 8.406736949368581735e-14
5.716000000000000000e+03 1.530023097991943359e+01 -4.523959636688232422e+00 9.007218256841531545e-14 1.301042606982605321e-13 6.605293026949732305e-14 3.602887167211341057e-14
5.717000000000000000e+03 1.146405887603759766e+01 -2.878499984741210938e+00 1.601283260719080226e-13 -1.601283260719080226e-13 0.000000000000000000e+00 1.160930347080674219e-13
5.718000000000000000e+03 3.474962997436523438e+01 -3.403792381286621094e+00 1.601283260719080226e-14 -1.601283260719080226e-14 0.000000000000000000e+00 -1.000802021008766196e-13
5.719000000000000000e+03 7.837178802490234375e+01 -1.015287971496582031e+01 -1.200962445539310169e-14 1.321058605389946461e-13 3.602887167211341057e-14 -8.807057595141762341e-14
5.720000000000000000e+03 5.221469879150390625e+01 -1.449240207672119141e+01 9.957980214069309111e-14 2.256808563812218171e-13 9.757819552369539906e-14 -1.981587908084919691e-13
5.721000000000000000e+03 4.719888305664062500e+01 -2.772298049926757812e+01 -2.321860694161348437e-13 1.521218996039172544e-13 -2.401924891078620339e-14 -1.200962343895356499e-13
5.722000000000000000e+03 4.692077255249023438e+01 -2.460623931884765625e+01 1.190954344691685929e-13 3.712975565027532010e-13 1.471179000020819694e-13 -3.202566521438160452e-14
5.723000000000000000e+03 4.064544677734375000e+01 -2.007723236083984375e+01 1.080866150163402317e-13 4.123304345529654746e-13 1.561251128379126385e-13 -4.003208151797700565e-14
5.724000000000000000e+03 3.074720764160156250e+01 -2.767742538452148438e+01 -2.081668171172168513e-13 4.803849782157240678e-14 -4.803849782157240678e-14 -3.803047490097931360e-14
5.725000000000000000e+03 3.094436645507812500e+01 -2.931003379821777344e+01 -9.007218256841531545e-14 1.901523778930283570e-13 3.002405859738391247e-14 8.006416303595401129e-15
5.726000000000000000e+03 3.839633941650390625e+01 -3.223750591278076172e+00 5.604491073703601889e-14 2.401924891078620339e-14 2.401924891078620339e-14 -2.401924891078620339e-14
5.727000000000000000e+03 5.187755584716796875e+00 -2.263014793395996094e+01 3.602887167211341057e-14 2.441956955655938399e-13 8.406736949368581735e-14 -8.006416303595401129e-15
5.728000000000000000e+03 5.001444816589355469e+00 -2.206691169738769531e+01 1.561251128379126385e-13 4.403528797570881170e-14 6.004811719476782494e-14 1.200962445539310169e-14
5.729000000000000000e+03 6.801832580566406250e+01 -2.708710098266601562e+01 3.002405859738391247e-14 -9.007218256841531545e-14 -1.801443583605670529e-14 9.607699564314481355e-14
5.730000000000000000e+03 7.491773986816406250e+01 -2.257706069946289062e+01 -9.807859548387892756e-14 -4.203368474684290867e-14 -4.203368474684290867e-14 1.240994476235310340e-13
5.731000000000000000e+03 6.631347656250000000e+01 -2.738260269165039062e+01 8.957178260823178695e-14 1.756407519426517183e-13 7.956375629950690476e-14 -7.205774334422682115e-14
5.732000000000000000e+03 8.967719078063964844e+00 -4.349152088165283203e+00 1.120898214740720378e-13 -2.722181475459800604e-13 -4.803849782157240678e-14 2.882309733769072846e-13
5.733000000000000000e+03 7.597241401672363281e+00 -3.740321636199951172e+00 2.802245536851800944e-14 3.322662782932750414e-13 1.080866150163402317e-13 0.000000000000000000e+00
5.734000000000000000e+03 6.876731395721435547e+00 -3.787201642990112305e+00 1.200962445539310169e-14 1.881507780522942430e-13 6.004811719476782494e-14 1.681347389873716347e-13
5.735000000000000000e+03 6.160417556762695312e+00 -3.836386680603027344e+00 -8.406736949368581735e-14 -3.602887167211341057e-14 -3.602887167211341057e-14 3.202566521438160452e-14
5.736000000000000000e+03 4.126954078674316406e+00 -3.307412385940551758e+00 -5.604491073703601889e-14 -1.841475648182988589e-13 -7.205774334422682115e-14 1.281026608575264181e-13
5.737000000000000000e+03 4.243449687957763672e+00 -3.800691604614257812e+00 1.240994476235310340e-13 -8.406736949368581735e-14 1.200962445539310169e-14 1.681347389873716347e-13
5.738000000000000000e+03 1.682882070541381836e+00 -7.399021148681640625e+00 -2.802245536851800944e-14 -1.200962445539310169e-14 -1.200962445539310169e-14 8.006416303595401129e-14
5.739000000000000000e+03 3.018825769424438477e+00 -3.880804538726806641e+00 7.005614350349270714e-14 3.002405859738391247e-14 3.002405859738391247e-14 -1.601283260719080226e-14
5.740000000000000000e+03 2.401524066925048828e+00 -3.687390327453613281e+00 3.402726844324750755e-14 -2.141716301919463494e-13 -5.404330750817011586e-14 1.681347389873716347e-13
5.741000000000000000e+03 1.630441069602966309e+00 -5.135313034057617188e+00 6.004811719476782494e-14 -2.001604075898850282e-14 1.200962445539310169e-14 -1.200962445539310169e-14
5.742000000000000000e+03 1.744564437866210938e+01 -1.163257503509521484e+01 -4.003208151797700565e-14 -4.003208151797700565e-14 -2.401924891078620339e-14 2.552045048540268340e-14
5.743000000000000000e+03 3.816893386840820312e+01 -1.249540042877197266e+01 -2.411932958044926689e-13 1.711371387484728057e-13 -2.101684237342145434e-14 5.004010105043830980e-14
5.744000000000000000e+03 3.406814575195312500e+01 -3.758035898208618164e+00 2.231788430277770185e-13 1.871499781319271860e-13 1.230986477031639770e-13 -1.000802021008766196e-13
5.745000000000000000e+03 3.888207244873046875e+01 -2.883030509948730469e+01 -1.401122870069854143e-13 1.000802021008766196e-13 -1.200962445539310169e-14 2.622101212372551782e-13
5.746000000000000000e+03 4.123234176635742188e+01 -2.410502624511718750e+01 7.005614350349270714e-14 1.901523778930283570e-13 7.806255641895631925e-14 2.401924687790712998e-13
5.747000000000000000e+03 4.554500198364257812e+01 -2.275423049926757812e+01 2.001604075898850282e-15 2.181748434259417335e-13 6.605293026949732305e-14 -6.805453688649501509e-14
5.748000000000000000e+03 3.272909545898437500e+01 -3.531483078002929688e+01 -2.001604075898850282e-15 2.201764398785440585e-14 6.004812227696550847e-15 6.805453688649501509e-14
5.749000000000000000e+03 1.500191116333007812e+01 -6.600984573364257812e+00 1.190954344691685929e-13 5.104090097080536681e-14 5.104090097080536681e-14 1.120898214740720378e-13
5.750000000000000000e+03 4.983420944213867188e+01 -4.741377830505371094e+00 1.521218996039172544e-13 -7.205774334422682115e-14 2.401924891078620339e-14 -1.200962343895356499e-13
5.751000000000000000e+03 4.879854202270507812e+01 -4.110666751861572266e+00 1.321058605389946461e-13 -1.721379386688398627e-13 -1.200962445539310169e-14 -1.841475648182988589e-13
5.752000000000000000e+03 7.812747955322265625e+01 -1.318884181976318359e+01 -9.207378240914942946e-14 -1.080866150163402317e-13 -6.004811719476782494e-14 1.561251128379126385e-13
5.753000000000000000e+03 7.369636535644531250e+01 -1.676390838623046875e+01 1.601283260719080226e-14 -1.601283260719080226e-14 0.000000000000000000e+00 -1.040834085586084257e-13
5.754000000000000000e+03 7.516597747802734375e+01 -1.259165287017822266e+01 1.501202997631831404e-13 1.100882216333379238e-13 7.806255641895631925e-14 4.003208151797700565e-14
5.755000000000000000e+03 7.832344818115234375e+01 -1.885030746459960938e+01 1.100882216333379238e-13 -9.007218256841531545e-14 6.004812227696550847e-15 2.802245536851800944e-14
5.756000000000000000e+03 7.758554077148437500e+01 -2.179661178588867188e+01 -5.804651735403371093e-14 1.581267126786467525e-13 3.002405859738391247e-14 1.200962445539310169e-14
5.757000000000000000e+03 7.651818084716796875e+01 -2.366680335998535156e+01 8.606896933441993136e-14 9.407538902614712151e-14 5.404330750817011586e-14 3.402726844324750755e-14
5.758000000000000000e+03 7.824259948730468750e+01 -2.351212120056152344e+01 2.341876692568689577e-13 1.461170865291877563e-13 1.140914348673333079e-13 -8.006416303595401129e-14
5.759000000000000000e+03 7.624454498291015625e+01 -2.242608833312988281e+01 1.000802037949425141e-14 5.004010105043830980e-14 1.801443583605670529e-14 -2.401924891078620339e-14
5.760000000000000000e+03 7.820944213867187500e+01 -1.727408218383789062e+01 -3.402726844324750755e-14 -2.662133209187234062e-13 -9.007218256841531545e-14 1.080866150163402317e-13
5.761000000000000000e+03 7.625410461425781250e+01 -1.908625793457031250e+01 1.301042606982605321e-14 9.707779556351187056e-14 3.302646513474866152e-14 -9.607699564314481355e-14
5.762000000000000000e+03 7.762729644775390625e+01 -1.806932258605957031e+01 1.240994476235310340e-13 -8.406736949368581735e-14 1.200962445539310169e-14 1.160930347080674219e-13
5.763000000000000000e+03 7.461559295654296875e+01 -2.004530143737792969e+01 7.405934996122451319e-14 -1.401122768425900472e-14 1.801443583605670529e-14 1.401122870069854143e-13
5.764000000000000000e+03 7.817185974121093750e+01 -1.647207260131835938e+01 -4.603689120457471473e-14 2.602085213965210642e-14 -6.004812227696550847e-15 7.606094980195862720e-14
5.765000000000000000e+03 7.660024261474609375e+01 -1.849473953247070312e+01 -1.411130869273524713e-13 3.102486190588275849e-14 -3.302646513474866152e-14 -1.000802037949425141e-14
5.766000000000000000e+03 7.746711730957031250e+01 -1.728218269348144531e+01 -5.604491073703601889e-14 -1.841475648182988589e-13 -7.205774334422682115e-14 -1.000802021008766196e-13
5.767000000000000000e+03 7.418605041503906250e+01 -2.784126472473144531e+01 1.130906281707026728e-13 2.772221471478153454e-13 1.170938346284344789e-13 1.200962343895356499e-13
5.768000000000000000e+03 7.823693084716796875e+01 -2.512477111816406250e+01 4.403528797570881170e-14 1.561251128379126385e-13 6.004811719476782494e-14 1.040834085586084257e-13
5.769000000000000000e+03 7.749574279785156250e+01 -2.581107902526855469e+01 -8.006416303595401129e-15 8.807057595141762341e-14 2.401924891078620339e-14 5.604491073703601889e-14
5.770000000000000000e+03 7.754662322998046875e+01 -2.818358612060546875e+01 -8.006416303595401129e-15 8.807057595141762341e-14 2.401924891078620339e-14 -6.805453688649501509e-14
5.771000000000000000e+03 7.816321563720703125e+01 -1.155534934997558594e+01 -1.401122768425900472e-14 -6.004812227696550847e-15 -6.004812227696550847e-15 0.000000000000000000e+00
5.772000000000000000e+03 7.418836212158203125e+01 -1.215251159667968750e+01 2.041636038832214672e-13 1.561251128379126385e-13 1.080866150163402317e-13 1.401122768425900472e-14
5.773000000000000000e+03 7.755485534667968750e+01 -2.503275489807128906e+01 5.404330750817011586e-14 2.061652172764827373e-13 7.806255641895631925e-14 -3.602887167211341057e-14
5.774000000000000000e+03 7.588923645019531250e+01 -2.390324211120605469e+01 6.805453688649501509e-14 2.121700303512122354e-13 8.406736949368581735e-14 -2.401924891078620339e-14
5.775000000000000000e+03 7.680606079101562500e+01 -2.429675865173339844e+01 1.240994476235310340e-13 2.361892690976030718e-13 1.080866150163402317e-13 -2.401924891078620339e-14
5.776000000000000000e+03 7.829328918457031250e+01 -1.082138538360595703e+01 8.406736949368581735e-14 3.602887167211341057e-14 3.602887167211341057e-14 -3.202566521438160452e-14
5.777000000000000000e+03 7.626737213134765625e+01 -1.097999477386474609e+01 1.120898214740720378e-13 4.803849782157240678e-14 4.803849782157240678e-14 -5.604491073703601889e-14
5.778000000000000000e+03 7.588076782226562500e+01 -3.562662887573242188e+01 -1.281026608575264181e-13 2.882309733769072846e-13 4.803849782157240678e-14 -8.807057595141762341e-14
5.779000000000000000e+03 7.802625274658203125e+01 -3.148314857482910156e+01 -3.803047490097931360e-14 2.582069215557869502e-13 6.605293026949732305e-14 -1.200962445539310169e-14
5.780000000000000000e+03 7.713146209716796875e+01 -3.216218566894531250e+01 6.204972381176551699e-14 1.180946345488015359e-13 5.404330750817011586e-14 0.000000000000000000e+00
5.781000000000000000e+03 7.595319366455078125e+01 -3.470131683349609375e+01 -8.406736949368581735e-14 1.240994476235310340e-13 1.200962445539310169e-14 1.240994476235310340e-13
5.782000000000000000e+03 7.768366241455078125e+01 -3.707866287231445312e+01 4.003208151797700565e-15 3.562855034871387216e-13 1.080866150163402317e-13 1.200962343895356499e-13
5.783000000000000000e+03 7.694138336181640625e+01 -3.389136505126953125e+01 4.003208151797700565e-15 2.762213472274482884e-13 8.406736949368581735e-14 9.207378240914942946e-14
5.784000000000000000e+03 7.810127258300781250e+01 -3.067899322509765625e+01 1.060850151756061177e-13 2.742197473867141744e-13 1.140914348673333079e-13 -8.006416303595401129e-15
5.785000000000000000e+03 7.747138214111328125e+01 -2.973550033569335938e+01 1.261010474642651480e-13 5.404330750817011586e-14 5.404330750817011586e-14 -4.403528797570881170e-14
5.786000000000000000e+03 6.745572662353515625e+01 -3.417481231689453125e+01 -5.804651735403371093e-14 1.581267126786467525e-13 3.002405859738391247e-14 8.006416303595401129e-14
5.787000000000000000e+03 6.885286712646484375e+01 -3.285866546630859375e+01 -4.703769451307356075e-14 1.170938346284344789e-13 2.101684237342145434e-14 -6.004811719476782494e-14
5.788000000000000000e+03 7.796151733398437500e+01 -3.996395874023437500e+01 -3.853087824929463112e-14 1.436150867282701138e-13 3.152526186606628700e-14 3.002405859738391247e-14
5.789000000000000000e+03 3.158319664001464844e+01 -7.515738487243652344e+00 -8.807057595141762341e-14 8.006416303595401129e-15 -2.401924891078620339e-14 6.405133042876320904e-14
5.790000000000000000e+03 2.464348030090332031e+01 -2.888156509399414062e+01 -4.128308141843582690e-15 4.707522349364778869e-13 1.399871836288077431e-13 -4.548957917164045406e-14
5.791000000000000000e+03 1.149438285827636719e+01 -3.555691957473754883e+00 1.100882216333379238e-13 -9.007218256841531545e-14 6.004812227696550847e-15 1.721379386688398627e-13
5.792000000000000000e+03 1.383274745941162109e+01 -3.121779918670654297e+00 1.961571909677578551e-13 8.406736949368581735e-14 8.406736949368581735e-14 5.604491073703601889e-14
5.793000000000000000e+03 2.666218042373657227e+00 -3.779393768310546875e+01 2.602085213965210642e-14 3.542839036464046076e-13 1.140914348673333079e-13 1.321058605389946461e-13
5.794000000000000000e+03 1.580062389373779297e+00 -2.276492309570312500e+01 1.601283260719080226e-14 1.441154866884536423e-13 4.803849782157240678e-14 -5.604491073703601889e-14
5.795000000000000000e+03 1.707860827445983887e+00 -1.937805557250976562e+01 -4.003208151797700565e-15 2.041636038832214672e-13 6.004811719476782494e-14 -3.602887167211341057e-14
5.796000000000000000e+03 2.954476594924926758e+00 -2.046199226379394531e+01 -7.005614350349270714e-14 5.004010105043830980e-14 -6.004812227696550847e-15 -1.100882216333379238e-13
5.797000000000000000e+03 1.768226981163024902e+00 -1.445257854461669922e+01 2.401924891078620339e-14 5.604491073703601889e-14 2.401924891078620339e-14 -7.606094980195862720e-14
5.798000000000000000e+03 2.398317575454711914e+00 -8.882225036621093750e+00 -1.040834085586084257e-13 1.841475648182988589e-13 2.401924891078620339e-14 9.607699564314481355e-14
5.799000000000000000e+03 1.725864887237548828e+00 -8.939308166503906250e+00 1.200962445539310169e-14 1.881507780522942430e-13 6.004811719476782494e-14 -7.205774334422682115e-14
5.800000000000000000e+03 3.422873497009277344e+00 -1.699968528747558594e+01 -4.403528797570881170e-14 -1.561251128379126385e-13 -6.004811719476782494e-14 -8.807057595141762341e-14
5.801000000000000000e+03 1.574928641319274902e+00 -2.351158332824707031e+01 1.841475648182988589e-13 5.604491073703601889e-14 7.205774334422682115e-14 -8.406736949368581735e-14
5.802000000000000000e+03 6.917345523834228516e+00 -1.290634822845458984e+01 1.399871836288077431e-13 3.266367482480242446e-13 1.399871836288077431e-13 5.454371085648543338e-14
5.803000000000000000e+03 1.750737905502319336e+00 -1.209296989440917969e+01 9.607699564314481355e-14 -9.607699564314481355e-14 0.000000000000000000e+00 -1.361090737729900302e-13
5.804000000000000000e+03 1.854675173759460449e+00 -1.692984199523925781e+01 1.040834085586084257e-13 1.361090737729900302e-13 7.205774334422682115e-14 -9.207378240914942946e-14
5.805000000000000000e+03 2.457927227020263672e+00 -1.121877384185791016e+01 1.220978477827969200e-13 9.807859548387892756e-14 6.605293026949732305e-14 -8.006416303595401129e-14
5.806000000000000000e+03 3.160235881805419922e+00 -1.193510437011718750e+01 1.541235129971785245e-13 6.605293026949732305e-14 6.605293026949732305e-14 -5.204170427930421283e-14
5.807000000000000000e+03 2.409375905990600586e+00 -9.645715713500976562e+00 2.201764398785440585e-14 2.381908689383371858e-13 7.806255641895631925e-14 2.802245536851800944e-14
5.808000000000000000e+03 2.431513547897338867e+00 -1.042600822448730469e+01 -1.200962343895356499e-13 4.003208151797700565e-14 -2.401924891078620339e-14 1.120898214740720378e-13
5.809000000000000000e+03 2.637206554412841797e+00 -1.593402385711669922e+01 1.541235129971785245e-13 6.605293026949732305e-14 6.605293026949732305e-14 -7.205774334422682115e-14
5.810000000000000000e+03 2.525205135345458984e+00 -1.508725070953369141e+01 6.204972381176551699e-14 1.180946345488015359e-13 5.404330750817011586e-14 8.807057595141762341e-14
5.811000000000000000e+03 4.837915420532226562e+00 -4.511817932128906250e+00 -1.601283260719080226e-14 -1.441154866884536423e-13 -4.803849782157240678e-14 2.401924687790712998e-13
5.812000000000000000e+03 1.727174997329711914e+00 -2.504362487792968750e+01 1.441154866884536423e-13 1.761411519028352468e-13 9.607699564314481355e-14 -7.205774334422682115e-14
5.813000000000000000e+03 1.901282906532287598e+00 -2.756693077087402344e+01 -1.180946345488015359e-13 1.781427517435693608e-13 1.801443583605670529e-14 -4.403528797570881170e-14
5.814000000000000000e+03 1.654664874076843262e+00 -6.646088123321533203e+00 -2.401924891078620339e-14 -5.604491073703601889e-14 -2.401924891078620339e-14 -7.205774334422682115e-14
5.815000000000000000e+03 1.882065415382385254e+00 -2.670225524902343750e+01 8.006416303595401129e-15 7.205774334422682115e-14 2.401924891078620339e-14 -2.401924891078620339e-14
5.816000000000000000e+03 2.295397996902465820e+00 -2.411607360839843750e+01 2.421940957248597259e-13 5.804651735403371093e-14 9.007218256841531545e-14 -3.602887167211341057e-14
5.817000000000000000e+03 2.380943536758422852e+00 -8.121634483337402344e+00 -1.341074739322559162e-13 3.402726844324750755e-14 -3.002405859738391247e-14 -7.606094980195862720e-14
5.818000000000000000e+03 3.547987222671508789e+00 -5.310038089752197266e+00 7.205774334422682115e-14 1.681347389873716347e-13 7.205774334422682115e-14 2.001604042017532392e-13
5.819000000000000000e+03 4.184014797210693359e+00 -4.304190635681152344e+00 -1.461170865291877563e-13 -1.541235129971785245e-13 -9.007218256841531545e-14 -9.607699564314481355e-14
5.820000000000000000e+03 5.376575946807861328e+00 -2.398562431335449219e+01 -1.601283260719080226e-14 1.761411519028352468e-13 4.803849782157240678e-14 -1.040834085586084257e-13
5.821000000000000000e+03 2.689988613128662109e+00 -2.662850570678710938e+01 -1.200962445539310169e-14 2.922341730583755126e-13 8.406736949368581735e-14 6.004811719476782494e-14
5.822000000000000000e+03 2.627845048904418945e+00 -2.930304145812988281e+01 -1.240994476235310340e-13 2.441956955655938399e-13 3.602887167211341057e-14 4.003208151797700565e-14
5.823000000000000000e+03 1.916744232177734375e+00 -3.169460296630859375e+01 -2.802245536851800944e-14 1.481186999224490264e-13 3.602887167211341057e-14 4.403528797570881170e-14
5.824000000000000000e+03 3.426991701126098633e+00 -3.102800941467285156e+01 8.606896933441993136e-14 1.741395520621011328e-13 7.806255641895631925e-14 7.205774334422682115e-14
5.825000000000000000e+03 2.637512207031250000e+00 -3.013098907470703125e+01 -2.001604075898850282e-15 1.821459649775647449e-13 5.404330750817011586e-14 6.805453688649501509e-14
5.826000000000000000e+03 2.761091232299804688e+00 -3.329263687133789062e+01 1.601283260719080226e-14 1.441154866884536423e-13 4.803849782157240678e-14 6.004811719476782494e-14
5.827000000000000000e+03 2.980968475341796875e+00 -3.495482254028320312e+01 2.401924891078620339e-14 2.161732300326804634e-13 7.205774334422682115e-14 8.406736949368581735e-14
5.828000000000000000e+03 2.862629890441894531e+00 -3.410989379882812500e+01 -6.805453688649501509e-14 2.682149478645118323e-13 6.004811719476782494e-14 6.405133042876320904e-14
5.829000000000000000e+03 2.963629484176635742e+00 -3.917353820800781250e+01 -6.405133042876320904e-14 6.405133042876320904e-14 0.000000000000000000e+00 5.204170427930421283e-14
5.830000000000000000e+03 4.789516448974609375e+01 -4.174680709838867188e+00 2.241796429481440756e-13 9.607699564314481355e-14 9.607699564314481355e-14 -2.001604042017532392e-13
5.831000000000000000e+03 4.795537185668945312e+01 -5.849649906158447266e+00 4.384763765182680961e-13 5.066560100066772043e-14 1.467425898675489560e-13 -1.396118734942747297e-13
5.832000000000000000e+03 4.084792327880859375e+01 -2.538400459289550781e+01 -1.841475648182988589e-13 4.243400607024244708e-13 7.205774334422682115e-14 8.106496295632106830e-14
5.833000000000000000e+03 6.501553344726562500e+01 -2.786359786987304688e+01 1.000802021008766196e-13 1.801443651368306309e-13 8.406736949368581735e-14 -6.805453688649501509e-14
5.834000000000000000e+03 3.001731681823730469e+01 -1.175394916534423828e+01 -1.411130869273524713e-13 -2.892317732972743416e-13 -1.291034607778934751e-13 -1.200962445539310169e-14
5.835000000000000000e+03 2.555343627929687500e+01 -2.643121337890625000e+01 7.606094980195862720e-14 2.842277736954390566e-13 1.080866150163402317e-13 -1.441154866884536423e-13
5.836000000000000000e+03 5.330131530761718750e+01 -1.036288070678710938e+01 2.061652172764827373e-13 4.543641125235448053e-13 1.981587908084919691e-13 -1.841475648182988589e-13
5.837000000000000000e+03 2.788076210021972656e+01 -2.018684005737304688e+01 5.204170427930421283e-14 6.805453688649501509e-14 3.602887167211341057e-14 -2.001604075898850282e-14
5.838000000000000000e+03 4.068851852416992188e+01 -1.820876121520996094e+01 -1.261010474642651480e-13 2.662133209187234062e-13 4.203368474684290867e-14 -1.200962343895356499e-13
5.839000000000000000e+03 4.673775863647460938e+01 -2.366083335876464844e+01 -1.351082687704252897e-14 2.687153342721682048e-13 7.656135653840573374e-14 -4.503609128420765773e-14
5.840000000000000000e+03 3.015312576293945312e+01 -2.809502792358398438e+01 7.506014988159157020e-14 3.352686780543762124e-13 1.230986477031639770e-13 3.903127820947815962e-14
5.841000000000000000e+03 3.833563613891601562e+01 -1.578870487213134766e+01 -3.187554387107383036e-13 1.836471648581153304e-13 -4.053248147816053415e-14 -4.703769451307356075e-14
5.842000000000000000e+03 6.469963073730468750e+01 -2.448567199707031250e+01 7.005613842129502361e-15 3.232590519049172162e-13 9.907939540424598457e-14 -1.401122768425900472e-14
5.843000000000000000e+03 6.439589691162109375e+01 -2.574291992187500000e+01 1.841475648182988589e-13 2.161732300326804634e-13 1.200962343895356499e-13 -1.801443651368306309e-13
5.844000000000000000e+03 1.696952629089355469e+01 -1.947932815551757812e+01 1.200962343895356499e-13 2.802245740139708285e-13 1.200962343895356499e-13 1.050842084789754827e-13
5.845000000000000000e+03 6.398601150512695312e+01 -5.684566020965576172e+00 -5.204170427930421283e-14 -6.805453688649501509e-14 -3.602887167211341057e-14 3.602887167211341057e-14
5.846000000000000000e+03 2.577686309814453125e+01 -1.357259178161621094e+01 -3.707971429900425164e-13 -2.046640038434049957e-13 -1.726383521815505473e-13 -2.602085213965210642e-14
5.847000000000000000e+03 6.468930053710937500e+01 -1.606404876708984375e+01 1.951563910473907981e-13 -1.451162866088206993e-13 1.501202929869195624e-14 -4.003208151797700565e-15
5.848000000000000000e+03 2.747928428649902344e+01 -3.199940681457519531e+01 -1.281026608575264181e-13 2.882309733769072846e-13 4.803849782157240678e-14 -2.001604075898850282e-14
5.849000000000000000e+03 3.160745048522949219e+01 -2.898233985900878906e+01 -1.781427517435693608e-13 -4.203368474684290867e-14 -6.605293026949732305e-14 -1.261010474642651480e-13
5.850000000000000000e+03 5.459974288940429688e+01 -2.724595260620117188e+01 -1.421138868477195283e-13 1.220978477827969200e-13 -6.004812227696550847e-15 3.602887167211341057e-14
5.851000000000000000e+03 4.680225849151611328e+00 -2.059524917602539062e+01 9.857899544406245607e-14 -1.436150867282701138e-13 -1.351082687704252897e-14 -1.676343424153198952e-14
5.852000000000000000e+03 3.379751443862915039e+00 -1.971775245666503906e+01 1.110890215537049808e-13 1.391114735340912012e-13 7.506014988159157020e-14 -7.205774334422682115e-14
5.853000000000000000e+03 6.111659240722656250e+01 -2.504226875305175781e+01 2.111692168783180223e-13 2.792237469885494594e-13 1.471179000020819694e-13 -1.020818019416107336e-13
5.854000000000000000e+03 5.509346771240234375e+01 -3.644905090332031250e+01 8.406736949368581735e-14 1.961571909677578551e-13 8.406736949368581735e-14 -2.401924891078620339e-14
5.855000000000000000e+03 4.529996490478515625e+01 -2.014624404907226562e+01 2.071660171968497943e-13 3.632911300347624328e-13 1.711371387484728057e-13 -9.607699564314481355e-14
5.856000000000000000e+03 2.042658615112304688e+01 -1.546266078948974609e+01 -2.922341730583755126e-13 -3.082470259943570490e-13 -1.801443651368306309e-13 1.881507780522942430e-13
5.857000000000000000e+03 1.694075012207031250e+01 -1.090894889831542969e+01 -3.677947432289413454e-13 -2.176744299132310489e-13 -1.756407519426517183e-13 3.452766840343103605e-14
5.858000000000000000e+03 1.577220439910888672e+01 -1.354405212402343750e+01 -1.010810020212436766e-13 2.311852694957677867e-13 3.903127820947815962e-14 3.202566521438160452e-14
5.859000000000000000e+03 3.444298934936523438e+01 -1.407295227050781250e+01 -3.853087824929463112e-13 1.551243129175455815e-13 -6.905533680686207210e-14 -1.203464411458909922e-13
5.860000000000000000e+03 3.547860336303710938e+01 -1.391609096527099609e+01 -1.781427517435693608e-13 -4.203368474684290867e-14 -6.605293026949732305e-14 -1.000802037949425141e-14
5.861000000000000000e+03 6.493244171142578125e+01 -2.549239158630371094e+01 1.225982443548486595e-14 4.556150920952128924e-13 1.403624802108136005e-13 1.688853359630316121e-15
5.862000000000000000e+03 7.170939636230468750e+01 -1.487077045440673828e+01 1.441154866884536423e-13 1.601283260719080226e-14 4.803849782157240678e-14 1.361090737729900302e-13
5.863000000000000000e+03 6.894319915771484375e+01 -1.375082588195800781e+01 2.473231851523455260e-13 -1.685100355693774921e-13 2.364394724658266250e-14 1.050842084789754827e-13
5.864000000000000000e+03 7.011252880096435547e+00 -2.440063285827636719e+01 9.607699564314481355e-14 2.241796429481440756e-13 9.607699564314481355e-14 -3.122502256758252770e-13
5.865000000000000000e+03 7.965425491333007812e+00 -1.172893428802490234e+01 -7.293344666267978504e-14 4.720032416132002862e-13 1.197209378075297925e-13 2.557049082023421516e-13
5.866000000000000000e+03 3.229359436035156250e+01 -5.706418991088867188e+00 1.961571909677578551e-13 -7.606094980195862720e-14 3.602887167211341057e-14 -2.902325867701685547e-14
5.867000000000000000e+03 3.108684539794921875e+01 -6.693559646606445312e+00 0.000000000000000000e+00 1.601283260719080226e-13 4.803849782157240678e-14 -4.003208151797700565e-15
5.868000000000000000e+03 3.851844787597656250e+01 -1.307305717468261719e+01 -3.963175816169839383e-13 3.602887167211341057e-14 -1.080866150163402317e-13 -1.160930347080674219e-13
5.869000000000000000e+03 2.518328094482421875e+01 -1.497187805175781250e+01 -2.361892690976030718e-13 -2.842277736954390566e-13 -1.561251128379126385e-13 -1.451162866088206993e-13
5.870000000000000000e+03 2.629767990112304688e+01 -1.410786247253417969e+01 -2.121700303512122354e-13 9.207378240914942946e-14 -3.602887167211341057e-14 -8.807057595141762341e-14
5.871000000000000000e+03 7.409792327880859375e+01 -2.421630287170410156e+01 1.781427517435693608e-13 1.220978477827969200e-13 9.007218256841531545e-14 -5.204170427930421283e-14
5.872000000000000000e+03 7.424057006835937500e+01 -2.545566558837890625e+01 2.642117210779892922e-13 2.962373998448980528e-13 1.681347389873716347e-13 0.000000000000000000e+00
5.873000000000000000e+03 6.561292266845703125e+01 -1.251289653778076172e+01 2.201764398785440585e-14 7.806255641895631925e-14 3.002405859738391247e-14 1.120898214740720378e-13
5.874000000000000000e+03 6.559231567382812500e+01 -1.064480304718017578e+01 -1.421138868477195283e-13 4.203368474684290867e-14 -3.002405859738391247e-14 1.170938346284344789e-13
5.875000000000000000e+03 1.139364814758300781e+01 -2.387261581420898438e+01 -3.402726844324750755e-14 2.141716301919463494e-13 5.404330750817011586e-14 -6.405133042876320904e-14
5.876000000000000000e+03 1.418717765808105469e+01 -2.774647331237792969e+01 4.703769451307356075e-14 2.031628039628544102e-13 7.506014988159157020e-14 1.361090737729900302e-13
5.877000000000000000e+03 6.270823287963867188e+01 -1.985624694824218750e+01 2.802245536851800944e-14 1.200962445539310169e-14 1.200962445539310169e-14 -8.006416303595401129e-14
5.878000000000000000e+03 7.549407958984375000e+01 -1.013286685943603516e+01 1.261010474642651480e-13 2.141716301919463494e-13 1.020818019416107336e-13 7.606094980195862720e-14
5.879000000000000000e+03 7.566326904296875000e+01 -1.174896812438964844e+01 1.681347389873716347e-13 -8.807057595141762341e-14 2.401924891078620339e-14 -4.403528797570881170e-14
5.880000000000000000e+03 6.956135559082031250e+01 -1.432510852813720703e+01 2.486993087597727525e-13 -2.136712302317628209e-13 1.050842118671072717e-14 4.003208151797700565e-14
5.881000000000000000e+03 6.944927215576171875e+01 -1.312192440032958984e+01 2.797241605012601440e-13 -1.546239129573620530e-13 3.753007494079578510e-14 8.106496295632106830e-14
5.882000000000000000e+03 4.068944931030273438e+01 -1.458788299560546875e+01 -3.712975565027532010e-13 1.611291259922750796e-13 -6.305052373213257400e-14 -4.003208151797700565e-14
5.883000000000000000e+03 6.822993469238281250e+01 -3.179812240600585938e+01 1.160930347080674219e-13 1.641315257533762506e-13 8.406736949368581735e-14 -4.803849782157240678e-14
5.884000000000000000e+03 6.864215850830078125e+01 -3.372255325317382812e+01 -9.507618894651417851e-14 1.651323256737433076e-13 2.101684237342145434e-14 5.604491073703601889e-14
5.885000000000000000e+03 6.513261413574218750e+01 -9.885159492492675781e+00 7.906335633932337625e-14 -2.902325867701685547e-14 1.501202929869195624e-14 2.301844560228735737e-14
5.886000000000000000e+03 6.452623748779296875e+01 -1.021489238739013672e+01 -7.506014988159157020e-14 -1.501202929869195624e-14 -2.702165375408505793e-14 1.100882216333379238e-13
5.887000000000000000e+03 6.018712997436523438e+01 -1.061339569091796875e+01 -6.004811719476782494e-14 -1.401122870069854143e-13 -6.004811719476782494e-14 -1.000802037949425141e-14
5.888000000000000000e+03 6.428584289550781250e+01 -8.257120132446289062e+00 -4.003208151797700565e-15 4.403528797570881170e-14 1.200962445539310169e-14 -1.040834085586084257e-13
5.889000000000000000e+03 4.965403366088867188e+01 -3.602625274658203125e+01 -1.926543912464731556e-13 7.756215645877279075e-14 -3.452766840343103605e-14 -5.904731727440076794e-14
5.890000000000000000e+03 5.139504623413085938e+01 -3.388092803955078125e+01 -8.406736949368581735e-14 1.240994476235310340e-13 1.200962445539310169e-14 -8.406736949368581735e-14
5.891000000000000000e+03 5.508963775634765625e+01 -1.109179878234863281e+01 7.756215645877279075e-14 2.877305869692509122e-13 1.095878216731543953e-13 -1.571259127582796955e-13
5.892000000000000000e+03 5.506354141235351562e+01 -1.549973583221435547e+01 1.761411519028352468e-13 3.042437992078345088e-13 1.441154866884536423e-13 -1.681347389873716347e-13
5.893000000000000000e+03 5.564149093627929688e+01 -2.491158103942871094e+01 -5.204170427930421283e-14 5.724587470723463412e-13 1.561251128379126385e-13 0.000000000000000000e+00
5.894000000000000000e+03 6.292327117919921875e+01 -2.040656471252441406e+01 -1.401122768425900472e-14 3.142518255165593910e-13 9.007218256841531545e-14 -4.803849782157240678e-14
5.895000000000000000e+03 1.556165122985839844e+01 -2.234572982788085938e+01 9.207378240914942946e-14 1.080866150163402317e-13 6.004811719476782494e-14 1.481186999224490264e-13
5.896000000000000000e+03 1.595443248748779297e+01 -2.176292037963867188e+01 1.000802021008766196e-13 3.402726776562114974e-13 1.321058605389946461e-13 1.781427517435693608e-13
5.897000000000000000e+03 4.679913330078125000e+01 -1.461525630950927734e+01 -1.451162866088206993e-13 1.951563910473907981e-13 1.501202929869195624e-14 1.271018609371593611e-13
5.898000000000000000e+03 4.712651443481445312e+01 -1.655427360534667969e+01 -2.381908689383371858e-13 3.783031559453226000e-13 4.203368474684290867e-14 1.160930347080674219e-13
5.899000000000000000e+03 4.556330490112304688e+01 -2.536247634887695312e+01 -1.271018609371593611e-13 3.702967498061225660e-14 -2.702165375408505793e-14 -1.000802021008766196e-13
5.900000000000000000e+03 4.659546661376953125e+01 -2.263457489013671875e+01 1.200962343895356499e-13 2.802245740139708285e-13 1.200962343895356499e-13 -8.807057595141762341e-14
5.901000000000000000e+03 1.471415042877197266e+01 -2.601149940490722656e+01 1.491194998428160834e-13 8.106496295632106830e-14 6.905533680686207210e-14 1.611291259922750796e-13
5.902000000000000000e+03 7.265315246582031250e+01 -1.510200023651123047e+01 6.004811719476782494e-14 -2.001604075898850282e-14 1.200962445539310169e-14 7.606094980195862720e-14
5.903000000000000000e+03 6.658112335205078125e+01 -1.487364864349365234e+01 7.405934996122451319e-14 -1.401122768425900472e-14 1.801443583605670529e-14 4.803849782157240678e-14
5.904000000000000000e+03 4.296333312988281250e+01 -2.650829505920410156e+01 -2.789735673372484293e-13 2.464475021626832962e-13 -9.757819552369539906e-15 1.341074739322559162e-13
5.905000000000000000e+03 4.850235366821289062e+01 -2.866012573242187500e+01 -2.767217607401589730e-13 2.016616040823038247e-13 -2.251804564210382886e-14 -5.004010105043830980e-14
5.906000000000000000e+03 4.913426971435546875e+01 -2.910603523254394531e+01 -9.707779556351187056e-14 1.871499781319271860e-13 2.702165375408505793e-14 -1.361090737729900302e-13
5.907000000000000000e+03 1.621610641479492188e+01 -2.263429260253906250e+01 1.321058605389946461e-13 1.481186999224490264e-13 8.406736949368581735e-14 2.622101212372551782e-13
5.908000000000000000e+03 7.392134857177734375e+01 -1.587516880035400391e+01 2.802245536851800944e-14 1.200962445539310169e-14 1.200962445539310169e-14 -9.207378240914942946e-14
5.909000000000000000e+03 2.282171821594238281e+01 -2.526320457458496094e+01 1.000802037949425141e-14 5.004010105043830980e-14 1.801443583605670529e-14 -3.202566521438160452e-14
5.910000000000000000e+03 2.237876319885253906e+01 -2.610201644897460938e+01 1.000802021008766196e-13 3.402726776562114974e-13 1.321058605389946461e-13 1.641315257533762506e-13
5.911000000000000000e+03 1.472784137725830078e+01 -7.335953712463378906e+00 7.806255641895631925e-14 2.622101212372551782e-13 1.020818019416107336e-13 2.802245536851800944e-14
5.912000000000000000e+03 2.159789276123046875e+01 -1.421688175201416016e+01 -2.872301734565402276e-13 -1.230986477031639770e-13 -1.230986477031639770e-13 -4.003208151797700565e-15
5.913000000000000000e+03 1.984620666503906250e+01 -1.444303798675537109e+01 -3.522823038056704936e-13 -2.882309733769072846e-13 -1.921539912862896271e-13 1.681347389873716347e-13
5.914000000000000000e+03 2.838625526428222656e+01 -3.470518112182617188e+01 -6.605293026949732305e-14 1.661331391466375207e-13 3.002405859738391247e-14 -1.701363422162375377e-14
5.915000000000000000e+03 3.261594772338867188e+01 -4.534548282623291016e+00 2.952365999245309958e-13 3.502807175174635357e-14 9.907939540424598457e-14 -1.521218996039172544e-13
5.916000000000000000e+03 5.373641490936279297e+00 -1.494211864471435547e+01 2.802245536851800944e-14 1.200962445539310169e-14 1.200962445539310169e-14 1.361090737729900302e-13
5.917000000000000000e+03 3.378985214233398438e+01 -4.855573654174804688e+00 2.281828697346666157e-13 1.321058605389946461e-13 1.080866150163402317e-13 -6.805453688649501509e-14
5.918000000000000000e+03 5.237445449829101562e+01 -7.857714176177978516e+00 3.652927163229693908e-14 6.189960653421588965e-13 1.966575909279413836e-13 -4.853889778175593528e-14
5.919000000000000000e+03 4.854292297363281250e+01 -1.019100856781005859e+01 1.841475648182988589e-13 2.161732300326804634e-13 1.200962343895356499e-13 2.401924891078620339e-14
5.920000000000000000e+03 4.528803634643554688e+01 -1.786297988891601562e+01 -3.602887167211341057e-14 3.963175816169839383e-13 1.080866150163402317e-13 4.003208151797700565e-14
5.921000000000000000e+03 4.279327774047851562e+01 -1.676644706726074219e+01 -6.605293026949732305e-14 2.461972954063279539e-13 5.404330750817011586e-14 5.604491073703601889e-14
5.922000000000000000e+03 4.830873870849609375e+01 -1.239074516296386719e+01 2.702165375408505793e-14 1.030826086382413687e-13 3.903127820947815962e-14 -8.807057595141762341e-14
5.923000000000000000e+03 7.393091583251953125e+01 -1.839822006225585938e+01 5.404330750817011586e-14 1.261010474642651480e-13 5.404330750817011586e-14 5.304250758780305885e-14
5.924000000000000000e+03 7.672944641113281250e+01 -1.556049346923828125e+01 2.121700303512122354e-13 2.281828697346666157e-13 1.321058605389946461e-13 -9.607699564314481355e-14
5.925000000000000000e+03 5.869133472442626953e+00 -1.423147964477539062e+01 6.054852393121493148e-14 1.946559910872072696e-13 7.656135653840573374e-14 1.349831704744453020e-13
5.926000000000000000e+03 7.443341732025146484e+00 -1.229675102233886719e+01 5.454371085648543338e-14 2.051644071917203133e-14 2.251804564210382886e-14 8.882117589169291616e-14
5.927000000000000000e+03 5.083342361450195312e+01 -3.295307922363281250e+01 -7.806255641895631925e-14 5.804651735403371093e-14 -6.004812227696550847e-15 2.401924891078620339e-14
5.928000000000000000e+03 5.453779220581054688e+01 -3.265589141845703125e+01 4.403528797570881170e-14 1.561251128379126385e-13 6.004811719476782494e-14 -1.761411519028352468e-13
5.929000000000000000e+03 3.490012359619140625e+01 -6.218840122222900391e+00 3.602887167211341057e-14 2.441956955655938399e-13 8.406736949368581735e-14 -1.601283260719080226e-13
5.930000000000000000e+03 7.558573150634765625e+01 -2.247872924804687500e+01 7.606094980195862720e-14 1.240994476235310340e-13 6.004811719476782494e-14 1.721379386688398627e-13
5.931000000000000000e+03 1.055339527130126953e+01 -3.410424423217773438e+01 -2.101684237342145434e-14 3.112494257554582200e-13 8.706977603105056640e-14 -3.202566521438160452e-14
5.932000000000000000e+03 1.136576366424560547e+01 -3.437283325195312500e+01 -4.003208151797700565e-14 -4.003208151797700565e-14 -2.401924891078620339e-14 1.601283260719080226e-14
5.933000000000000000e+03 4.862559509277343750e+01 -9.550488471984863281e+00 2.962373998448980528e-13 1.040834085586084257e-13 1.200962343895356499e-13 1.000802021008766196e-13
5.934000000000000000e+03 7.317695617675781250e+01 -1.335768890380859375e+01 4.003208151797700565e-15 -4.403528797570881170e-14 -1.200962445539310169e-14 7.806255641895631925e-14
5.935000000000000000e+03 7.215179443359375000e+01 -1.308851337432861328e+01 1.100882216333379238e-13 -1.000802037949425141e-14 3.002405859738391247e-14 1.301042606982605321e-13
5.936000000000000000e+03 9.239167213439941406e+00 -2.411345481872558594e+01 6.204972381176551699e-14 -2.021620040424873532e-13 -4.203368474684290867e-14 1.601283260719080226e-14
5.937000000000000000e+03 9.574201583862304688e+00 -2.632832717895507812e+01 -8.406736949368581735e-14 -3.602887167211341057e-14 -3.602887167211341057e-14 -1.000802021008766196e-13
5.938000000000000000e+03 1.150244522094726562e+01 -2.945258712768554688e+01 8.807057595141762341e-14 -8.006416303595401129e-15 2.401924891078620339e-14 4.003208151797700565e-14
5.939000000000000000e+03 1.552957439422607422e+01 -2.466550445556640625e+01 -5.604491073703601889e-14 -2.401924891078620339e-14 -2.401924891078620339e-14 1.601283260719080226e-13
5.940000000000000000e+03 6.385275268554687500e+01 -2.237755775451660156e+01 -5.604491073703601889e-14 -2.401924891078620339e-14 -2.401924891078620339e-14 -1.481186999224490264e-13
5.941000000000000000e+03 3.978194808959960938e+01 -1.761694335937500000e+01 -1.281026608575264181e-13 2.882309733769072846e-13 4.803849782157240678e-14 -6.204972381176551699e-14
5.942000000000000000e+03 3.615147018432617188e+01 -1.432360076904296875e+01 -4.763817378766743715e-13 -2.041636038832214672e-13 -2.041636038832214672e-13 -1.601283260719080226e-14
5.943000000000000000e+03 1.602596092224121094e+01 -5.272103309631347656e+00 -1.601283260719080226e-14 1.761411519028352468e-13 4.803849782157240678e-14 5.604491073703601889e-14
5.944000000000000000e+03 1.525728130340576172e+01 -5.914488315582275391e+00 -9.607699564314481355e-14 9.607699564314481355e-14 0.000000000000000000e+00 -7.205774334422682115e-14
5.945000000000000000e+03 5.768856048583984375e+01 -2.681833648681640625e+01 -3.007410130390769654e-13 3.657931433882072314e-13 1.951563910473907981e-14 1.050842118671072717e-14
5.946000000000000000e+03 5.440552520751953125e+01 -2.600038909912109375e+01 -2.642117210779892922e-13 2.401924891078620339e-14 -7.205774334422682115e-14 1.561251128379126385e-13
5.947000000000000000e+03 6.837169647216796875e+01 -3.471172332763671875e+01 -3.202566521438160452e-14 1.921539912862896271e-13 4.803849782157240678e-14 -6.805453688649501509e-14
5.948000000000000000e+03 5.573829650878906250e+01 -2.884988975524902344e+01 5.904731727440076794e-14 3.512815038853034366e-13 1.230986477031639770e-13 -6.705373696612795809e-14
5.949000000000000000e+03 3.751555252075195312e+01 -3.207484436035156250e+01 5.304250758780305885e-14 -2.301844560228735737e-14 9.007217918028352643e-15 7.606094980195862720e-14
5.950000000000000000e+03 3.555163192749023438e+01 -2.967472648620605469e+01 -8.006416303595401129e-14 -8.006416303595401129e-14 -4.803849782157240678e-14 4.803849782157240678e-14
5.951000000000000000e+03 9.050318717956542969e+00 -3.708812952041625977e+00 2.061652172764827373e-13 -1.861491782115601290e-13 6.004812227696550847e-15 -5.604491073703601889e-14
5.952000000000000000e+03 9.822750091552734375e+00 -3.713412523269653320e+00 1.621299259126421366e-13 -2.201764398785440585e-14 4.203368474684290867e-14 2.361892690976030718e-13
5.953000000000000000e+03 5.047481918334960938e+01 -3.439881896972656250e+01 -1.401122768425900472e-14 3.142518255165593910e-13 9.007218256841531545e-14 -8.807057595141762341e-14
5.954000000000000000e+03 1.477802085876464844e+01 -1.032508659362792969e+01 -3.207570385514724176e-13 4.553649124439118623e-14 -8.256616283687165381e-14 1.401122768425900472e-14
5.955000000000000000e+03 2.787009239196777344e+01 -1.793051719665527344e+01 2.251804564210382886e-14 -1.276022608973428896e-13 -3.152526186606628700e-14 1.561251128379126385e-13
5.956000000000000000e+03 5.016901397705078125e+01 -2.795553398132324219e+01 -8.807057595141762341e-14 1.681347389873716347e-13 2.401924891078620339e-14 6.405133042876320904e-14
5.957000000000000000e+03 1.253539180755615234e+01 -2.462412452697753906e+01 8.006416303595401129e-15 7.205774334422682115e-14 2.401924891078620339e-14 5.204170427930421283e-14
5.958000000000000000e+03 2.879916954040527344e+01 -2.513632774353027344e+01 -6.505213034913026604e-14 1.551243129175455815e-13 2.702165375408505793e-14 -1.000802021008766196e-13
5.959000000000000000e+03 3.111672401428222656e+01 -5.365950584411621094e+00 2.522020949285302960e-13 1.080866150163402317e-13 1.080866150163402317e-13 -9.207378240914942946e-14
5.960000000000000000e+03 3.172664833068847656e+01 -6.814266681671142578e+00 1.200962343895356499e-13 -4.003208151797700565e-14 2.401924891078620339e-14 3.202566521438160452e-14
5.961000000000000000e+03 1.717689323425292969e+01 -1.648963928222656250e+00 4.843881914497194519e-13 1.160930347080674219e-13 1.801443651368306309e-13 -5.204170427930421283e-14
5.962000000000000000e+03 1.611623191833496094e+01 -4.497825622558593750e+00 8.006416303595401129e-14 4.003208084035064784e-13 1.441154866884536423e-13 1.281026608575264181e-13
5.963000000000000000e+03 1.228402328491210938e+01 -3.383158683776855469e+00 1.921539912862896271e-13 -1.921539912862896271e-13 0.000000000000000000e+00 9.607699564314481355e-14
5.964000000000000000e+03 6.677850341796875000e+01 -1.298922538757324219e+01 1.180946345488015359e-13 1.421138868477195283e-13 7.806255641895631925e-14 -8.606896933441993136e-14
5.965000000000000000e+03 6.635807037353515625e+01 -1.230448436737060547e+01 1.601283260719080226e-14 -1.601283260719080226e-14 0.000000000000000000e+00 -2.001604075898850282e-14
5.966000000000000000e+03 5.835065841674804688e+01 -2.026770973205566406e+01 2.542037218743187221e-13 6.004812227696550847e-15 7.806255641895631925e-14 -3.272622515863854442e-13
5.967000000000000000e+03 1.608622932434082031e+01 -1.440066432952880859e+01 -1.321058605389946461e-13 -1.481186999224490264e-13 -8.406736949368581735e-14 0.000000000000000000e+00
5.968000000000000000e+03 3.082341575622558594e+01 -1.494798755645751953e+01 -2.181748434259417335e-13 7.806255641895631925e-14 -4.203368474684290867e-14 1.301042606982605321e-13
5.969000000000000000e+03 8.484579086303710938e+00 -2.419969367980957031e+01 3.803047490097931360e-14 6.204972381176551699e-14 3.002405859738391247e-14 -2.562053217150528361e-13
5.970000000000000000e+03 1.267242145538330078e+01 -2.779821777343750000e+01 1.761411519028352468e-13 1.441154866884536423e-13 9.607699564314481355e-14 2.502005052521915490e-14
5.971000000000000000e+03 2.825157928466796875e+01 -1.620168876647949219e+01 -1.055846084391590112e-13 2.051644071917203133e-14 -2.552045048540268340e-14 4.753809447325708926e-14
5.972000000000000000e+03 3.796095275878906250e+01 -2.935483169555664062e+01 -8.807057595141762341e-14 8.006416303595401129e-15 -2.401924891078620339e-14 4.003208151797700565e-15
5.973000000000000000e+03 3.837429809570312500e+01 -3.061234855651855469e+01 -2.101684237342145434e-14 -9.007217918028352643e-15 -9.007217918028352643e-15 1.160930347080674219e-13
5.974000000000000000e+03 7.246805572509765625e+01 -2.767602348327636719e+01 9.407538902614712151e-14 4.063256079257088205e-13 1.501202997631831404e-13 6.004811719476782494e-14
5.975000000000000000e+03 7.069383239746093750e+01 -2.736313247680664062e+01 2.762213472274482884e-13 1.641315257533762506e-13 1.321058605389946461e-13 1.281026608575264181e-13
5.976000000000000000e+03 3.292649841308593750e+01 -1.387591934204101562e+01 -1.641315257533762506e-13 -2.762213472274482884e-13 -1.321058605389946461e-13 2.882309733769072846e-13
5.977000000000000000e+03 5.492463684082031250e+01 -3.198354148864746094e+01 -1.000802037949425141e-15 9.107298248878237246e-14 2.702165375408505793e-14 -1.601283260719080226e-14
5.978000000000000000e+03 5.527243041992187500e+01 -3.129672241210937500e+01 -3.002406113848275424e-15 2.732189474663471174e-13 8.106496295632106830e-14 -1.160930347080674219e-13
5.979000000000000000e+03 5.145737838745117188e+01 -3.098981475830078125e+01 1.160930347080674219e-13 1.641315257533762506e-13 8.406736949368581735e-14 -1.441154866884536423e-13
5.980000000000000000e+03 1.682601737976074219e+01 -1.201493549346923828e+01 -2.922341730583755126e-13 -1.481186999224490264e-13 -1.321058605389946461e-13 3.903127820947815962e-14
5.981000000000000000e+03 1.402109622955322266e+01 -2.415689849853515625e+01 2.001604075898850282e-15 1.381106736137241442e-13 4.203368474684290867e-14 1.601283260719080226e-13
5.982000000000000000e+03 1.424932861328125000e+01 -2.341078567504882812e+01 1.461170865291877563e-13 1.541235129971785245e-13 9.007218256841531545e-14 1.361090737729900302e-13
5.983000000000000000e+03 7.232825469970703125e+01 -1.455819606781005859e+01 9.607699564314481355e-14 6.405133042876320904e-14 4.803849782157240678e-14 -1.180946345488015359e-13
5.984000000000000000e+03 6.581208038330078125e+01 -2.702490615844726562e+01 1.441154866884536423e-13 3.362694779747432694e-13 1.441154866884536423e-13 -8.006416303595401129e-14
5.985000000000000000e+03 7.382364654541015625e+01 -1.305825614929199219e+01 1.501202997631831404e-13 1.100882216333379238e-13 7.806255641895631925e-14 8.006416303595401129e-15
5.986000000000000000e+03 6.637011718750000000e+01 -2.619714736938476562e+01 1.100882216333379238e-13 2.301844695754007297e-13 1.020818019416107336e-13 -1.761411519028352468e-13
5.987000000000000000e+03 6.540602111816406250e+01 -2.594695854187011719e+01 4.503609128420765773e-14 2.652125209983563492e-13 9.307458910578006450e-14 -1.946559910872072696e-13
5.988000000000000000e+03 6.047641372680664062e+01 -2.456750869750976562e+01 7.806255641895631925e-14 1.821459649775647449e-13 7.806255641895631925e-14 -1.861491782115601290e-13
5.989000000000000000e+03 4.051429748535156250e+01 -2.708908843994140625e+01 -2.602085213965210642e-13 3.002405995263662808e-13 1.200962445539310169e-14 1.401122870069854143e-13
5.990000000000000000e+03 2.990381431579589844e+01 -1.624936294555664062e+01 -1.291034607778934751e-13 1.901523745048965680e-14 -3.302646513474866152e-14 9.707779556351187056e-14
5.991000000000000000e+03 1.799952697753906250e+01 -1.807824516296386719e+01 1.170938346284344789e-13 2.331868693365019007e-13 1.050842084789754827e-13 -4.403528797570881170e-14
5.992000000000000000e+03 3.121291542053222656e+01 -1.428986167907714844e+01 -4.203368339159019307e-13 -1.801443651368306309e-13 -1.801443651368306309e-13 -8.006416303595401129e-14
5.993000000000000000e+03 3.943474197387695312e+01 -1.417975902557373047e+01 -4.123304345529654746e-13 5.204170427930421283e-14 -1.080866150163402317e-13 -4.003208151797700565e-14
5.994000000000000000e+03 9.789203643798828125e+00 -3.365372848510742188e+01 5.304250758780305885e-14 -2.301844560228735737e-14 9.007217918028352643e-15 -1.160930347080674219e-13
5.995000000000000000e+03 4.248385906219482422e+00 -2.117926597595214844e+01 1.461170865291877563e-13 -8.606896933441993136e-14 1.801443583605670529e-14 -1.801443583605670529e-14
5.996000000000000000e+03 3.497646331787109375e+00 -2.374111938476562500e+01 1.000802037949425141e-15 1.090874217129708668e-13 3.302646513474866152e-14 -4.303448466720996568e-14
5.997000000000000000e+03 3.807361841201782227e+00 -2.441970252990722656e+01 -7.005614350349270714e-14 -3.002405859738391247e-14 -3.002405859738391247e-14 -4.803849782157240678e-14
5.998000000000000000e+03 2.746399688720703125e+01 -1.414890766143798828e+01 -1.611291259922750796e-13 -1.090874217129708668e-13 -8.106496295632106830e-14 -1.261010474642651480e-13
5.999000000000000000e+03 1.838720512390136719e+01 -1.296962451934814453e+01 -4.403528797570881170e-14 1.641315257533762506e-13 3.602887167211341057e-14 1.661331391466375207e-13
6.000000000000000000e+03 1.935025978088378906e+01 -1.339799976348876953e+01 -2.802245740139708285e-13 -2.802245740139708285e-13 -1.681347389873716347e-13 2.041636038832214672e-13
6.001000000000000000e+03 2.510833263397216797e+00 -1.778612518310546875e+01 9.607699564314481355e-14 6.405133042876320904e-14 4.803849782157240678e-14 -1.361090737729900302e-13
6.002000000000000000e+03 4.463236331939697266e+00 -1.646491432189941406e+01 1.381106736137241442e-13 2.421940957248597259e-13 1.140914348673333079e-13 -8.006416303595401129e-14
6.003000000000000000e+03 4.795325469970703125e+01 -2.584651947021484375e+01 -2.962373998448980528e-13 3.763015561045884860e-13 2.401924891078620339e-14 -1.200962445539310169e-14
6.004000000000000000e+03 2.557764625549316406e+01 -2.888495445251464844e+01 3.402726844324750755e-14 4.263416605431585849e-13 1.381106736137241442e-13 4.003208151797700565e-14
6.005000000000000000e+03 7.432753753662109375e+01 -1.918548965454101562e+01 1.200962445539310169e-14 1.881507780522942430e-13 6.004811719476782494e-14 -9.407538902614712151e-14
6.006000000000000000e+03 7.739641571044921875e+01 -1.644425773620605469e+01 9.007218256841531545e-14 -1.901523778930283570e-13 -3.002405859738391247e-14 -1.120898214740720378e-13
6.007000000000000000e+03 3.077373504638671875e+01 -9.739719390869140625e+00 -3.202566521438160452e-14 3.202566521438160452e-14 0.000000000000000000e+00 2.001604075898850282e-14
6.008000000000000000e+03 6.987084197998046875e+01 -3.229050827026367188e+01 -6.004812227696550847e-15 2.261812563414053456e-13 6.605293026949732305e-14 -4.803849782157240678e-14
6.009000000000000000e+03 3.860624551773071289e+00 -1.813557624816894531e+01 -3.202566521438160452e-14 3.202566521438160452e-14 0.000000000000000000e+00 -3.202566521438160452e-14
6.010000000000000000e+03 2.270807266235351562e+01 -1.563767528533935547e+01 -1.020818019416107336e-13 -3.182550251980276190e-13 -1.261010474642651480e-13 -4.403528797570881170e-14
6.011000000000000000e+03 2.433138275146484375e+01 -1.595670032501220703e+01 -2.263063597195830168e-13 -1.427393901860807279e-13 -1.107137249716991234e-13 -7.806255641895631925e-14
6.012000000000000000e+03 2.060651588439941406e+01 -1.466644001007080078e+01 -2.241796429481440756e-13 -9.607699564314481355e-14 -9.607699564314481355e-14 1.441154866884536423e-13
6.013000000000000000e+03 1.874976730346679688e+01 -1.360701560974121094e+01 -2.341876692568689577e-13 -1.461170865291877563e-13 -1.140914348673333079e-13 6.405133042876320904e-14
6.014000000000000000e+03 1.112082386016845703e+01 -3.041739082336425781e+01 1.361090737729900302e-13 1.040834085586084257e-13 7.205774334422682115e-14 0.000000000000000000e+00
6.015000000000000000e+03 1.134953689575195312e+01 -3.100309753417968750e+01 1.040834085586084257e-13 1.361090737729900302e-13 7.205774334422682115e-14 1.441154866884536423e-13
6.016000000000000000e+03 5.646757888793945312e+01 -2.263745117187500000e+01 -4.203368474684290867e-14 3.022421993671003948e-13 7.806255641895631925e-14 -1.761411519028352468e-13
6.017000000000000000e+03 5.727026748657226562e+01 -2.076418113708496094e+01 2.662133209187234062e-13 2.742197473867141744e-13 1.621299259126421366e-13 -1.200962343895356499e-13
6.018000000000000000e+03 1.547435665130615234e+01 -2.949289798736572266e+00 2.041636038832214672e-13 -4.003208151797700565e-15 6.004811719476782494e-14 5.204170427930421283e-14
6.019000000000000000e+03 3.810490036010742188e+01 -1.998214840888977051e+00 2.001604042017532392e-13 -1.200962343895356499e-13 2.401924891078620339e-14 -8.807057595141762341e-14
6.020000000000000000e+03 5.637017822265625000e+01 -2.344150733947753906e+01 3.602887167211341057e-14 2.441956955655938399e-13 8.406736949368581735e-14 -1.040834085586084257e-13
6.021000000000000000e+03 4.108156204223632812e+00 -1.729232597351074219e+01 2.622101212372551782e-13 -1.621299259126421366e-13 3.002405859738391247e-14 1.601283260719080226e-13
6.022000000000000000e+03 1.116552639007568359e+01 -3.542640304565429688e+01 0.000000000000000000e+00 1.601283260719080226e-13 4.803849782157240678e-14 -4.203368474684290867e-14
6.023000000000000000e+03 6.469223785400390625e+01 -9.098003387451171875e+00 3.502807175174635357e-14 -2.502005052521915490e-14 3.002406113848275424e-15 5.404330750817011586e-14
6.024000000000000000e+03 3.688156509399414062e+01 -1.304207992553710938e+01 -3.457770907707574670e-13 8.056456299613753980e-14 -7.956375629950690476e-14 -7.005614350349270714e-14
6.025000000000000000e+03 3.686201477050781250e+01 -1.475975322723388672e+01 -3.853087824929463112e-13 4.753809650613616267e-13 2.702165375408505793e-14 3.602887167211341057e-14
6.026000000000000000e+03 4.474721145629882812e+01 -1.631080436706542969e+01 -2.441956955655938399e-13 1.240994476235310340e-13 -3.602887167211341057e-14 2.522020949285302960e-13
6.027000000000000000e+03 6.397440338134765625e+01 -2.327467918395996094e+01 2.301844695754007297e-13 5.104090435893715583e-13 2.221780431074099615e-13 1.200962445539310169e-14
6.028000000000000000e+03 4.365863323211669922e+00 -1.532915592193603516e+01 2.802245536851800944e-14 1.200962445539310169e-14 1.200962445539310169e-14 -1.601283260719080226e-14
6.029000000000000000e+03 4.125143432617187500e+01 -2.228842926025390625e+01 1.501202997631831404e-13 4.303448602246268129e-13 1.741395520621011328e-13 2.401924891078620339e-14
6.030000000000000000e+03 4.463058853149414062e+01 -2.135667419433593750e+01 1.881507780522942430e-13 3.322662782932750414e-13 1.561251128379126385e-13 -9.807859548387892756e-14
6.031000000000000000e+03 5.704761123657226562e+01 -1.905579376220703125e+01 6.405133042876320904e-14 2.562053217150528361e-13 9.607699564314481355e-14 -1.361090737729900302e-13
6.032000000000000000e+03 7.603038024902343750e+01 -1.313970375061035156e+01 2.001604042017532392e-13 2.001604042017532392e-13 1.200962343895356499e-13 1.200962445539310169e-14
6.033000000000000000e+03 6.984635925292968750e+01 -2.757176208496093750e+01 2.081668171172168513e-13 2.722181475459800604e-13 1.441154866884536423e-13 2.401924891078620339e-14
6.034000000000000000e+03 3.638631820678710938e+01 -5.892096042633056641e+00 -1.000802037949425141e-14 2.702165477052459464e-13 7.806255641895631925e-14 -5.604491073703601889e-14
6.035000000000000000e+03 3.534481811523437500e+01 -7.050080776214599609e+00 5.604491073703601889e-14 2.401924891078620339e-14 2.401924891078620339e-14 -4.803849782157240678e-14
6.036000000000000000e+03 3.199264144897460938e+01 -1.453229522705078125e+01 -2.161732300326804634e-13 1.361090737729900302e-13 -2.401924891078620339e-14 8.006416303595401129e-14
6.037000000000000000e+03 3.222450637817382812e+01 -1.377767562866210938e+01 -6.325068507145870100e-13 -2.481988952470620680e-13 -2.642117210779892922e-13 5.204170427930421283e-14
6.038000000000000000e+03 5.477732849121093750e+01 -2.923584365844726562e+01 2.602085213965210642e-13 1.801443651368306309e-13 1.321058605389946461e-13 8.807057595141762341e-14
6.039000000000000000e+03 5.593744277954101562e+01 -2.985546302795410156e+01 3.202566521438160452e-14 1.281026608575264181e-13 4.803849782157240678e-14 4.003208151797700565e-15
6.040000000000000000e+03 3.423401260375976562e+01 -3.029601669311523438e+01 -4.603689120457471473e-14 -2.942358000041639388e-13 -1.020818019416107336e-13 2.401924891078620339e-14
6.041000000000000000e+03 2.866983795166015625e+01 -1.404897880554199219e+01 -2.997402131187099084e-13 -1.656327256339268361e-13 -1.396118734942747297e-13 7.480994990149980595e-14
6.042000000000000000e+03 1.662609577178955078e+00 -4.363694667816162109e+00 1.020818019416107336e-13 -2.001604075898850282e-15 3.002405859738391247e-14 1.761411519028352468e-13
6.043000000000000000e+03 2.833034896850585938e+01 -2.438192749023437500e+01 1.641315257533762506e-13 1.160930347080674219e-13 8.406736949368581735e-14 7.606094980195862720e-14
6.044000000000000000e+03 2.917933082580566406e+01 -2.692205238342285156e+01 -8.006416303595401129e-15 2.481988952470620680e-13 7.205774334422682115e-14 -1.090874217129708668e-13
6.045000000000000000e+03 3.720130920410156250e+01 -3.337480306625366211e+00 1.240994476235310340e-13 7.606094980195862720e-14 6.004811719476782494e-14 1.801443651368306309e-13
6.046000000000000000e+03 3.784698104858398438e+01 -3.320352315902709961e+00 4.403528797570881170e-14 1.561251128379126385e-13 6.004811719476782494e-14 -3.202566521438160452e-14
6.047000000000000000e+03 5.290216827392578125e+01 -3.071661567687988281e+01 -2.121700303512122354e-13 -6.805453688649501509e-14 -8.406736949368581735e-14 -7.205774334422682115e-14
6.048000000000000000e+03 5.470768737792968750e+01 -3.089045524597167969e+01 -1.311050606186275891e-13 8.106496295632106830e-14 -1.501202929869195624e-14 -2.802245536851800944e-14
6.049000000000000000e+03 4.302783966064453125e+01 -1.528342342376708984e+01 -2.962373998448980528e-13 -1.040834085586084257e-13 -1.200962343895356499e-13 4.803849782157240678e-14
6.050000000000000000e+03 3.711953735351562500e+01 -2.928742218017578125e+01 -5.804651735403371093e-14 -2.001604075898850282e-15 -1.801443583605670529e-14 -1.601283260719080226e-14
6.051000000000000000e+03 3.628430557250976562e+01 -2.946161460876464844e+01 -3.602887167211341057e-14 -8.406736949368581735e-14 -3.602887167211341057e-14 -1.000802021008766196e-13
6.052000000000000000e+03 1.679567527770996094e+01 -1.583380413055419922e+01 -1.401122870069854143e-13 2.602085213965210642e-13 3.602887167211341057e-14 2.722181475459800604e-13
6.053000000000000000e+03 2.059747314453125000e+01 -1.854562377929687500e+01 1.000802037949425141e-14 -3.002405859738391247e-14 -6.004812227696550847e-15 8.807057595141762341e-14
6.054000000000000000e+03 3.782553100585937500e+01 -3.557800292968750000e+01 -7.405934996122451319e-14 1.401122768425900472e-14 -1.801443583605670529e-14 1.881507780522942430e-13
6.055000000000000000e+03 3.705022811889648438e+01 -3.513899612426757812e+01 -7.568565321995276984e-14 8.194066627477403220e-14 1.876503662336494530e-15 -3.227586519447336877e-14
6.056000000000000000e+03 4.964093780517578125e+01 -1.417044067382812500e+01 -6.805453688649501509e-14 1.080866150163402317e-13 1.200962445539310169e-14 -8.807057595141762341e-14
6.057000000000000000e+03 4.615636444091796875e+01 -2.319637298583984375e+01 1.025822086780578402e-13 2.727185339536364328e-13 1.125902282105191443e-13 -1.861491782115601290e-13
6.058000000000000000e+03 5.178551864624023438e+01 -7.131463050842285156e+00 2.171740299530475204e-13 2.932350000837968818e-13 1.531227130768114675e-13 1.000802037949425141e-14
6.059000000000000000e+03 5.370064544677734375e+01 -2.632593345642089844e+01 -1.261010474642651480e-13 2.602085213965210642e-14 -3.002405859738391247e-14 1.581267126786467525e-13
6.060000000000000000e+03 5.507621002197265625e+01 -1.622812652587890625e+01 1.160930347080674219e-13 3.242598518252842732e-13 1.321058605389946461e-13 -1.281026608575264181e-13
6.061000000000000000e+03 4.862170410156250000e+01 -2.561387634277343750e+01 -2.281828697346666157e-13 2.682149478645118323e-13 1.200962445539310169e-14 -2.522020949285302960e-13
6.062000000000000000e+03 4.734566879272460938e+01 -2.651662635803222656e+01 -2.682149478645118323e-13 2.281828697346666157e-13 -1.200962445539310169e-14 4.003208151797700565e-14
6.063000000000000000e+03 6.125516128540039062e+01 -1.163145065307617188e+01 8.606896933441993136e-14 -2.261812563414053456e-13 -4.203368474684290867e-14 -6.004811719476782494e-14
6.064000000000000000e+03 5.975141906738281250e+01 -1.107024002075195312e+01 2.001604075898850282e-14 -6.004811719476782494e-14 -1.200962445539310169e-14 -1.240994476235310340e-13
6.065000000000000000e+03 7.103385162353515625e+01 -1.515410995483398438e+01 2.532028948488973530e-13 3.372702778951103264e-13 1.771419518232023038e-13 0.000000000000000000e+00
6.066000000000000000e+03 5.389952850341796875e+01 -1.103556823730468750e+01 1.871499781319271860e-13 2.231788430277770185e-13 1.230986477031639770e-13 -2.236792429879605471e-13
6.067000000000000000e+03 7.766064453125000000e+01 -1.951704406738281250e+01 5.204170427930421283e-14 6.805453688649501509e-14 3.602887167211341057e-14 1.601283260719080226e-14
6.068000000000000000e+03 3.488175201416015625e+01 -2.993403244018554688e+01 -8.506816941405287436e-14 5.504411081666896188e-14 -9.007217918028352643e-15 -8.807057595141762341e-14
6.069000000000000000e+03 3.729658889770507812e+01 -3.101990127563476562e+01 5.104090097080536681e-14 -4.103288143834406265e-14 3.002406113848275424e-15 7.806255641895631925e-14
6.070000000000000000e+03 2.585199546813964844e+01 -2.495101547241210938e+01 2.421940957248597259e-13 2.181748434259417335e-13 1.381106736137241442e-13 3.202566521438160452e-14
6.071000000000000000e+03 7.768930816650390625e+01 -1.880265235900878906e+01 -5.204170427930421283e-14 -6.805453688649501509e-14 -3.602887167211341057e-14 -8.006416303595401129e-15
6.072000000000000000e+03 3.651081085205078125e+01 -1.257858371734619141e+01 -2.542037218743187221e-13 1.541235129971785245e-13 -3.002405859738391247e-14 1.681347389873716347e-13
6.073000000000000000e+03 3.645895004272460938e+01 -1.172673034667968750e+01 -1.891515779726613000e-13 2.391916688587042428e-13 1.501202929869195624e-14 1.441154866884536423e-13
6.074000000000000000e+03 6.242616653442382812e+01 -8.655583381652832031e+00 -1.771419518232023038e-13 -9.307458910578006450e-14 -8.106496295632106830e-14 -1.060850151756061177e-13
6.075000000000000000e+03 5.309066390991210938e+01 -2.685115814208984375e+01 -1.398620802506300720e-13 7.731195647868102649e-14 -1.876503747039789255e-14 -9.457578898633065001e-14
6.076000000000000000e+03 2.598654556274414062e+01 -2.981253623962402344e+01 -9.007218256841531545e-14 3.502807039649363796e-13 7.806255641895631925e-14 2.001604075898850282e-14
6.077000000000000000e+03 5.593257522583007812e+01 -1.691745758056640625e+01 1.521218996039172544e-13 2.481988952470620680e-13 1.200962343895356499e-13 -4.003208151797700565e-14
6.078000000000000000e+03 3.546079254150390625e+01 -8.753231048583984375e+00 8.006416303595401129e-15 2.321860694161348437e-13 7.205774334422682115e-14 -1.000802021008766196e-13
6.079000000000000000e+03 4.224946594238281250e+01 -1.516631317138671875e+01 -2.301844695754007297e-13 1.301042606982605321e-13 -3.002405859738391247e-14 8.006416303595401129e-15
6.080000000000000000e+03 4.095918273925781250e+01 -1.894756507873535156e+01 1.481186999224490264e-13 2.922341730583755126e-13 1.321058605389946461e-13 -1.120898214740720378e-13
6.081000000000000000e+03 5.380041122436523438e+01 -3.422894287109375000e+01 1.401122870069854143e-13 6.004811719476782494e-14 6.004811719476782494e-14 -9.207378240914942946e-14
6.082000000000000000e+03 2.679927825927734375e+01 -2.355270767211914062e+01 2.491996951674291250e-13 6.104892389139845998e-14 9.307458910578006450e-14 -1.421138868477195283e-13
6.083000000000000000e+03 6.414611816406250000e+01 -1.652604484558105469e+01 3.217578384718394746e-13 1.836471648581153304e-13 1.516214996437337259e-13 -8.006416303595401129e-15
6.084000000000000000e+03 6.268046188354492188e+01 -1.841947746276855469e+01 1.361090737729900302e-13 4.243400607024244708e-13 1.681347389873716347e-13 -3.202566521438160452e-14
6.085000000000000000e+03 6.375414276123046875e+01 -2.499503898620605469e+01 2.642117210779892922e-13 4.563657394693332314e-13 2.161732300326804634e-13 -5.204170427930421283e-14
6.086000000000000000e+03 6.393338775634765625e+01 -2.417755317687988281e+01 -8.606896933441993136e-14 1.461170865291877563e-13 1.801443583605670529e-14 -2.762213472274482884e-13
6.087000000000000000e+03 4.052276229858398438e+01 -2.621640396118164062e+01 -1.841475648182988589e-13 4.243400607024244708e-13 7.205774334422682115e-14 8.406736949368581735e-14
6.088000000000000000e+03 3.653670883178710938e+01 -5.249660015106201172e+00 -1.100882216333379238e-13 9.007218256841531545e-14 -6.004812227696550847e-15 -2.401924891078620339e-14
6.089000000000000000e+03 3.501163482666015625e+01 -3.958315849304199219e+00 1.661331391466375207e-13 2.542037218743187221e-13 1.261010474642651480e-13 -1.321058605389946461e-13
6.090000000000000000e+03 5.700728607177734375e+01 -1.186467933654785156e+01 -8.406736949368581735e-14 -3.562855034871387216e-13 -1.321058605389946461e-13 -7.205774334422682115e-14
6.091000000000000000e+03 5.845686340332031250e+01 -1.161772060394287109e+01 -9.507618894651417851e-14 3.252606517456513302e-13 6.905533680686207210e-14 -6.805453688649501509e-14
6.092000000000000000e+03 3.681641006469726562e+01 -3.173234176635742188e+01 2.802245536851800944e-14 1.721379386688398627e-13 6.004811719476782494e-14 -3.002406113848275424e-15
6.093000000000000000e+03 7.200292205810546875e+01 -1.541600418090820312e+01 7.806255641895631925e-14 2.622101212372551782e-13 1.020818019416107336e-13 -5.204170427930421283e-14
6.094000000000000000e+03 4.616734313964843750e+01 -1.722382545471191406e+01 -1.581267126786467525e-13 2.982389996856321668e-13 4.203368474684290867e-14 5.204170427930421283e-14
6.095000000000000000e+03 4.414485549926757812e+01 -1.632261085510253906e+01 -1.561251128379126385e-13 4.363496868518834670e-13 8.406736949368581735e-14 6.004811719476782494e-14
6.096000000000000000e+03 7.743327140808105469e+00 -2.428867340087890625e+01 -9.607699564314481355e-14 -6.405133042876320904e-14 -4.803849782157240678e-14 -2.161732300326804634e-13
6.097000000000000000e+03 9.305507659912109375e+00 -2.481086349487304688e+01 6.004811719476782494e-14 1.401122870069854143e-13 6.004811719476782494e-14 -1.681347389873716347e-13
6.098000000000000000e+03 7.615529632568359375e+01 -2.454969596862792969e+01 3.803047490097931360e-14 6.204972381176551699e-14 3.002405859738391247e-14 -6.405133042876320904e-14
6.099000000000000000e+03 1.295246505737304688e+01 -1.201979827880859375e+01 -1.641315257533762506e-13 4.403528797570881170e-14 -3.602887167211341057e-14 6.805453688649501509e-14
6.100000000000000000e+03 4.764720153808593750e+01 -1.273018169403076172e+01 -7.405934996122451319e-14 2.542037218743187221e-13 5.404330750817011586e-14 9.807859548387892756e-14
6.101000000000000000e+03 4.708476257324218750e+01 -1.318900203704833984e+01 -8.481796943396111010e-14 1.223480409866251062e-13 1.125902282105191443e-14 -2.326864727644501613e-14
6.102000000000000000e+03 7.373554229736328125e+01 -2.640403747558593750e+01 1.401122870069854143e-13 2.201764432666758475e-13 1.080866150163402317e-13 1.160930347080674219e-13
6.103000000000000000e+03 7.395092010498046875e+01 -2.712499046325683594e+01 1.521218996039172544e-13 8.807057595141762341e-14 7.205774334422682115e-14 3.202566521438160452e-14
6.104000000000000000e+03 5.131802749633789062e+01 -2.586916923522949219e+01 -2.612093213168881212e-13 7.105694342385976414e-14 -5.704571743366665393e-14 -1.200962343895356499e-13
6.105000000000000000e+03 2.193341255187988281e+01 -2.488442230224609375e+01 1.361090737729900302e-13 1.040834085586084257e-13 7.205774334422682115e-14 3.202566521438160452e-14
6.106000000000000000e+03 1.499165821075439453e+01 -2.367183685302734375e+01 -4.603689120457471473e-14 2.602085213965210642e-14 -6.004812227696550847e-15 2.321860694161348437e-13
6.107000000000000000e+03 5.633157730102539062e+01 -2.485816574096679688e+01 -1.421138868477195283e-13 1.220978477827969200e-13 -6.004812227696550847e-15 7.205774334422682115e-14
6.108000000000000000e+03 5.883610534667968750e+01 -2.620168304443359375e+01 -1.200962343895356499e-13 3.602887302736612618e-13 7.205774334422682115e-14 -1.921539912862896271e-13
6.109000000000000000e+03 1.139026641845703125e+01 -3.821540832519531250e+01 -4.178348476675114442e-14 -4.078268145825229840e-14 -2.476984885106149614e-14 -6.505213034913026604e-14
6.110000000000000000e+03 1.034431648254394531e+01 -3.716059875488281250e+01 -2.752205540833448094e-14 -1.175942345886180074e-13 -4.353488801552528320e-14 -8.344186615532461770e-14
6.111000000000000000e+03 6.177924728393554688e+01 -1.020644664764404297e+01 1.276022524270134170e-14 2.977385861729214822e-14 1.276022524270134170e-14 -1.225982443548486595e-14
6.112000000000000000e+03 5.061310577392578125e+01 -2.828288078308105469e+01 -1.696359388679222202e-13 3.848083689802356266e-13 6.455173038894673754e-14 -6.805453688649501509e-14
6.113000000000000000e+03 5.067583847045898438e+01 -8.761871337890625000e+00 1.745148486441069902e-13 2.120449269730345643e-13 1.159679313298897507e-13 1.150922280114367868e-14
6.114000000000000000e+03 5.656427764892578125e+01 -1.259120655059814453e+01 5.604491073703601889e-14 2.401924891078620339e-14 2.401924891078620339e-14 -3.442758773376797254e-13
6.115000000000000000e+03 4.865515518188476562e+01 -1.086622619628906250e+01 9.007218256841531545e-14 1.301042606982605321e-13 6.605293026949732305e-14 4.003208151797700565e-14
6.116000000000000000e+03 5.282454299926757812e+01 -9.606533050537109375e+00 9.507618894651417851e-14 3.152526254369264480e-13 1.230986477031639770e-13 -2.041636038832214672e-13
6.117000000000000000e+03 4.219058609008789062e+01 -2.177784538269042969e+01 1.240994476235310340e-13 2.361892690976030718e-13 1.080866150163402317e-13 -7.806255641895631925e-14
6.118000000000000000e+03 6.747720336914062500e+01 -1.388202095031738281e+01 2.522020949285302960e-13 -2.121700303512122354e-13 1.200962445539310169e-14 -6.004812227696550847e-15
6.119000000000000000e+03 3.153523635864257812e+01 -1.002023124694824219e+01 -1.060850151756061177e-13 4.603689120457471473e-14 -1.801443583605670529e-14 1.200962343895356499e-13
6.120000000000000000e+03 3.196611976623535156e+01 -2.974709510803222656e+01 -1.611291259922750796e-13 -6.905533680686207210e-14 -6.905533680686207210e-14 -8.807057595141762341e-14
6.121000000000000000e+03 3.356553268432617188e+01 -3.077218627929687500e+01 -2.902325867701685547e-14 -1.210970478624298630e-13 -4.503609128420765773e-14 -4.303448466720996568e-14
6.122000000000000000e+03 5.116588973999023438e+01 -2.785407257080078125e+01 -1.160930347080674219e-13 -4.003208151797700565e-15 -3.602887167211341057e-14 -5.604491073703601889e-14
6.123000000000000000e+03 5.565282440185546875e+01 -2.338882827758789062e+01 -4.003208151797700565e-14 4.403528865333516951e-13 1.200962343895356499e-13 7.205774334422682115e-14
6.124000000000000000e+03 5.705270004272460938e+01 -2.641347312927246094e+01 4.953969770212299228e-14 2.757209608197919160e-13 9.757819552369539906e-14 -1.651323256737433076e-13
6.125000000000000000e+03 6.859384918212890625e+01 -3.109209442138671875e+01 1.521218996039172544e-13 2.481988952470620680e-13 1.200962343895356499e-13 6.204972381176551699e-14
6.126000000000000000e+03 6.730799102783203125e+01 -2.852726936340332031e+01 2.632109211576222352e-13 6.705373696612795809e-14 9.907939540424598457e-14 -7.706175649858926224e-14
6.127000000000000000e+03 7.739267730712890625e+01 -1.312419319152832031e+01 1.040834085586084257e-13 -2.401924891078620339e-14 2.401924891078620339e-14 2.001604075898850282e-14
6.128000000000000000e+03 7.492163848876953125e+01 -1.189927482604980469e+01 2.602085213965210642e-14 -1.261010474642651480e-13 -3.002405859738391247e-14 1.601283260719080226e-14
6.129000000000000000e+03 3.174752235412597656e+01 -9.319316864013671875e+00 2.001604042017532392e-13 -1.200962343895356499e-13 2.401924891078620339e-14 6.004811719476782494e-14
6.130000000000000000e+03 4.224995040893554688e+01 -2.596498298645019531e+01 -3.567859169998494062e-13 1.215974478226133915e-13 -7.055654346367623564e-14 2.401924891078620339e-14
6.131000000000000000e+03 1.439887714385986328e+01 -8.045959472656250000e+00 6.004812227696550847e-15 9.407538902614712151e-14 3.002405859738391247e-14 1.281026608575264181e-13
6.132000000000000000e+03 5.554877471923828125e+01 -1.167813968658447266e+01 2.101684169579509653e-13 4.103288347122313606e-13 1.861491782115601290e-13 -2.161732300326804634e-13
6.133000000000000000e+03 5.369707107543945312e+01 -1.518573951721191406e+01 3.227586519447336877e-14 2.354386759335913570e-13 8.031436301604577555e-14 -2.749703405507258891e-13
6.134000000000000000e+03 5.769367980957031250e+01 -2.503590583801269531e+01 2.622101212372551782e-13 4.783833377174084855e-13 2.221780431074099615e-13 5.604491073703601889e-14
6.135000000000000000e+03 3.152818107604980469e+01 -1.079296302795410156e+01 2.602085213965210642e-14 -2.862293735361731706e-13 -7.806255641895631925e-14 1.200962343895356499e-13
6.136000000000000000e+03 3.620346832275390625e+01 -1.082210540771484375e+01 -3.202566521438160452e-14 3.522823038056704936e-13 9.607699564314481355e-14 4.003208151797700565e-14
6.137000000000000000e+03 3.651408195495605469e+00 -1.894905090332031250e+01 -3.402726844324750755e-14 -1.060850151756061177e-13 -4.203368474684290867e-14 1.281026608575264181e-13
6.138000000000000000e+03 6.183692169189453125e+01 -9.151639938354492188e+00 4.703769451307356075e-14 1.631307258330091936e-13 6.305052373213257400e-14 6.455173038894673754e-14
6.139000000000000000e+03 2.616540336608886719e+01 -2.061580276489257812e+01 2.261812563414053456e-13 2.341876692568689577e-13 1.381106736137241442e-13 4.003208151797700565e-15
6.140000000000000000e+03 5.192145919799804688e+01 -3.189828491210937500e+01 1.080866150163402317e-13 -6.805453688649501509e-14 1.200962445539310169e-14 -1.441154866884536423e-13
6.141000000000000000e+03 5.387532043457031250e+01 -3.107641792297363281e+01 2.251804564210382886e-14 1.926543912464731556e-13 6.455173038894673754e-14 -6.004811719476782494e-14
6.142000000000000000e+03 5.003931427001953125e+01 -6.950453281402587891e+00 7.906335633932337625e-14 1.711371387484728057e-13 7.506014988159157020e-14 -4.003208151797700565e-14
6.143000000000000000e+03 4.785930252075195312e+01 -1.568984889984130859e+01 -3.602887167211341057e-14 7.606094980195862720e-14 1.200962445539310169e-14 -6.405133042876320904e-14
6.144000000000000000e+03 5.775217819213867188e+01 -1.128557109832763672e+01 3.252606517456513302e-13 -1.351082738526229732e-13 5.704571743366665393e-14 -1.441154866884536423e-13
6.145000000000000000e+03 4.499505996704101562e+01 -2.075580215454101562e+01 -9.407538902614712151e-14 2.341876692568689577e-13 4.203368474684290867e-14 3.202566521438160452e-14
6.146000000000000000e+03 4.449995422363281250e+01 -1.845956611633300781e+01 1.281026608575264181e-13 1.921539912862896271e-13 9.607699564314481355e-14 -4.403528797570881170e-14
6.147000000000000000e+03 3.725806045532226562e+01 -5.370144844055175781e+00 -2.361892690976030718e-13 3.562855034871387216e-13 3.602887167211341057e-14 -4.003208151797700565e-14
6.148000000000000000e+03 3.650846099853515625e+01 -3.925971221923828125e+01 -7.005614350349270714e-14 5.004010105043830980e-14 -6.004812227696550847e-15 7.405934996122451319e-14
6.149000000000000000e+03 5.059025573730468750e+01 -3.885028600692749023e+00 1.000802021008766196e-13 2.001604075898850282e-14 3.602887167211341057e-14 -6.805453688649501509e-14
6.150000000000000000e+03 1.526673698425292969e+01 -1.097345161437988281e+01 -1.351082738526229732e-13 1.251002475438980910e-13 -3.002406113848275424e-15 1.561251128379126385e-13
6.151000000000000000e+03 1.642472457885742188e+01 -1.012777233123779297e+01 -9.307458910578006450e-14 1.431146867680865853e-13 1.501202929869195624e-14 -1.601283260719080226e-14
6.152000000000000000e+03 6.651045989990234375e+01 -3.952587127685546875e+01 6.255012377194904549e-14 7.255814330441034965e-14 4.053248147816053415e-14 3.602887167211341057e-14
6.153000000000000000e+03 4.984515762329101562e+01 -5.377526283264160156e+00 4.123304345529654746e-13 2.682149478645118323e-13 2.041636038832214672e-13 1.361090737729900302e-13
6.154000000000000000e+03 4.861647415161132812e+01 -6.305141925811767578e+00 2.341876692568689577e-13 1.461170865291877563e-13 1.140914348673333079e-13 -1.000802021008766196e-13
6.155000000000000000e+03 3.123693466186523438e+01 -9.022789955139160156e+00 5.854691731421723944e-14 -2.036632039230379387e-13 -4.353488801552528320e-14 1.901523778930283570e-13
6.156000000000000000e+03 3.357446289062500000e+01 -1.386129760742187500e+01 -3.642919299551294898e-13 -1.561251128379126385e-13 -1.561251128379126385e-13 -6.405133042876320904e-14
6.157000000000000000e+03 3.707118606567382812e+01 -4.140952301025390625e+01 -8.656937607086703790e-14 3.152526186606628700e-14 -1.651323256737433076e-14 -1.000802037949425141e-14
6.158000000000000000e+03 4.253595733642578125e+01 -4.148650360107421875e+01 -1.651323256737433076e-13 -2.502005052521915490e-14 -5.704571743366665393e-14 2.802245536851800944e-14
6.159000000000000000e+03 4.127190780639648438e+01 -3.912105941772460938e+01 -1.240994476235310340e-13 -7.606094980195862720e-14 -6.004811719476782494e-14 4.003208151797700565e-14
6.160000000000000000e+03 2.838652420043945312e+01 -3.886257553100585938e+01 -3.652927163229693908e-14 1.015814019814272051e-13 1.951563910473907981e-14 -4.003208151797700565e-14
6.161000000000000000e+03 2.678461647033691406e+01 -3.645153808593750000e+01 -6.305052373213257400e-14 -2.702165375408505793e-14 -2.702165375408505793e-14 -4.003208151797700565e-14
6.162000000000000000e+03 4.929616928100585938e+01 -3.827586364746093750e+01 -1.431146867680865853e-13 5.304250758780305885e-14 -2.702165375408505793e-14 -2.001604075898850282e-14
6.163000000000000000e+03 7.611130523681640625e+01 -3.940183639526367188e+01 6.455173038894673754e-14 -9.507618725244828400e-15 1.651323256737433076e-14 -9.257418236933295796e-14
6.164000000000000000e+03 3.792414474487304688e+01 -3.671995162963867188e+01 -1.000802037949425141e-14 1.100882216333379238e-13 3.002405859738391247e-14 1.321058605389946461e-13
6.165000000000000000e+03 5.366058349609375000e+01 -3.776024246215820312e+01 -1.200962445539310169e-14 1.321058605389946461e-13 3.602887167211341057e-14 4.003208151797700565e-15
6.166000000000000000e+03 5.387132263183593750e+01 -3.633954620361328125e+01 8.406736949368581735e-14 1.961571909677578551e-13 8.406736949368581735e-14 -9.007218256841531545e-14
6.167000000000000000e+03 1.246296882629394531e+01 -4.159619140625000000e+01 -1.200962445539310169e-14 -2.802245536851800944e-14 -1.200962445539310169e-14 -5.804651735403371093e-14
6.168000000000000000e+03 5.016084289550781250e+01 -4.025355911254882812e+01 -1.333568672157170454e-13 7.581074982186686295e-14 -1.726383420171551802e-14 -6.280032375204080974e-14
6.169000000000000000e+03 6.716397857666015625e+01 -4.140335464477539062e+01 -2.051644071917203133e-14 -5.454371085648543338e-14 -2.251804564210382886e-14 -3.402726844324750755e-14
6.170000000000000000e+03 6.609774780273437500e+01 -3.746265792846679688e+01 -6.004812227696550847e-15 6.605293026949732305e-14 1.801443583605670529e-14 4.003208151797700565e-15
6.171000000000000000e+03 2.702151107788085938e+01 -4.157139587402343750e+01 -3.352686848306397904e-14 8.857097591160115191e-14 1.651323256737433076e-14 -4.803849782157240678e-14
6.172000000000000000e+03 2.994299125671386719e+01 -4.042698669433593750e+01 -7.136969509304036396e-14 1.295413158252517460e-13 1.745148418678434121e-14 2.777225538842624519e-14
6.173000000000000000e+03 2.926693725585937500e+01 -1.338429546356201172e+01 -3.077466124816463644e-13 -7.756215645877279075e-14 -1.155926347478838934e-13 7.806255641895631925e-14
6.174000000000000000e+03 2.837858963012695312e+01 -1.725255966186523438e+01 -8.006416303595401129e-14 2.401924687790712998e-13 4.803849782157240678e-14 2.001604075898850282e-14
6.175000000000000000e+03 6.825193786621093750e+01 -2.834442520141601562e+01 2.201764432666758475e-13 -2.001604075898850282e-14 6.004811719476782494e-14 6.805453688649501509e-14
6.176000000000000000e+03 6.269196510314941406e+00 -2.455225372314453125e+01 8.606896933441993136e-14 1.741395520621011328e-13 7.806255641895631925e-14 -8.807057595141762341e-14
6.177000000000000000e+03 1.819649505615234375e+01 -2.442357444763183594e+01 2.081668171172168513e-13 -4.803849782157240678e-14 4.803849782157240678e-14 1.200962343895356499e-13
6.178000000000000000e+03 1.752803039550781250e+01 -1.999958038330078125e+01 1.060850151756061177e-13 1.941555911270237411e-13 9.007218256841531545e-14 1.411130869273524713e-13
6.179000000000000000e+03 5.452498245239257812e+01 -1.159030342102050781e+01 1.521218996039172544e-13 2.481988952470620680e-13 1.200962343895356499e-13 -1.691355389077386917e-13
6.180000000000000000e+03 4.275637817382812500e+01 -2.314823341369628906e+01 3.803047490097931360e-14 3.823063556267908281e-13 1.261010474642651480e-13 -1.401122870069854143e-13
6.181000000000000000e+03 4.204206085205078125e+01 -2.395658683776855469e+01 4.603689120457471473e-14 2.942358000041639388e-13 1.020818019416107336e-13 2.802245536851800944e-14
6.182000000000000000e+03 5.576610946655273438e+01 -2.563076782226562500e+01 -1.601283260719080226e-13 0.000000000000000000e+00 -4.803849782157240678e-14 4.003208151797700565e-14
6.183000000000000000e+03 7.750254058837890625e+01 -1.125348949432373047e+01 1.701363388281057487e-13 2.101684169579509653e-13 1.140914348673333079e-13 5.604491073703601889e-14
6.184000000000000000e+03 7.707755279541015625e+01 -1.162660980224609375e+01 6.004811719476782494e-14 -1.801443651368306309e-13 -3.602887167211341057e-14 1.401122768425900472e-14
6.185000000000000000e+03 6.839189910888671875e+01 -1.316970539093017578e+01 2.195509399283146479e-13 -4.315958804538763682e-14 5.291740759775717673e-14 5.804651735403371093e-14
6.186000000000000000e+03 7.491770172119140625e+01 -2.517478942871093750e+01 1.601283260719080226e-14 1.441154866884536423e-13 4.803849782157240678e-14 8.006416303595401129e-14
6.187000000000000000e+03 4.528259277343750000e+01 -2.600654983520507812e+01 -1.200962343895356499e-13 2.001604042017532392e-13 2.401924891078620339e-14 -3.602887167211341057e-14
6.188000000000000000e+03 6.472359466552734375e+01 -1.507097148895263672e+01 2.612093213168881212e-13 -1.911531778133954140e-13 2.101684237342145434e-14 -4.003208151797700565e-15
6.189000000000000000e+03 8.087109565734863281e+00 -6.057246685028076172e+00 2.802245536851800944e-14 1.200962445539310169e-14 1.200962445539310169e-14 1.716375387086563342e-13
6.190000000000000000e+03 9.481706619262695312e+00 -1.111853313446044922e+01 -7.055654346367623564e-14 1.551243095294137925e-14 -1.651323256737433076e-14 1.321058605389946461e-13
6.191000000000000000e+03 1.010014915466308594e+01 -2.540939331054687500e+01 -8.006416303595401129e-15 8.807057595141762341e-14 2.401924891078620339e-14 -5.604491073703601889e-14
6.192000000000000000e+03 5.120028305053710938e+01 -1.426605701446533203e+01 1.100882216333379238e-13 2.301844695754007297e-13 1.020818019416107336e-13 -1.160930347080674219e-13
6.193000000000000000e+03 4.904258346557617188e+01 -1.212973785400390625e+01 1.721379386688398627e-13 5.084074437486374443e-13 2.041636038832214672e-13 4.403528797570881170e-14
6.194000000000000000e+03 6.246113586425781250e+01 -2.108498191833496094e+01 1.601283260719080226e-14 1.441154866884536423e-13 4.803849782157240678e-14 -8.006416303595401129e-15
6.195000000000000000e+03 1.305485534667968750e+01 -3.230583429336547852e+00 -1.080866150163402317e-13 -9.207378240914942946e-14 -6.004811719476782494e-14 2.321860694161348437e-13
6.196000000000000000e+03 1.530962181091308594e+01 -5.259968280792236328e+00 5.204170427930421283e-14 3.883111822540474822e-13 1.321058605389946461e-13 5.204170427930421283e-14
6.197000000000000000e+03 3.558781433105468750e+01 -3.769813299179077148e+00 1.281026608575264181e-13 1.921539912862896271e-13 9.607699564314481355e-14 -8.006416303595401129e-15
6.198000000000000000e+03 6.735858917236328125e+01 -2.749655342102050781e+01 2.176744299132310489e-13 4.753809447325708926e-14 7.956375629950690476e-14 -8.006416303595401129e-15
6.199000000000000000e+03 3.582958984375000000e+01 -5.092535495758056641e+00 -3.202566521438160452e-14 3.522823038056704936e-13 9.607699564314481355e-14 -1.521218996039172544e-13
6.200000000000000000e+03 4.872377014160156250e+01 -4.794571399688720703e+00 3.022421993671003948e-13 3.803047490097931360e-14 1.020818019416107336e-13 0.000000000000000000e+00
6.201000000000000000e+03 1.290335559844970703e+01 -9.782763481140136719e+00 4.403528797570881170e-14 1.561251128379126385e-13 6.004811719476782494e-14 5.404330750817011586e-14
6.202000000000000000e+03 1.249973869323730469e+01 -1.120812129974365234e+01 -2.682149478645118323e-13 -9.207378240914942946e-14 -1.080866150163402317e-13 2.802245536851800944e-14
6.203000000000000000e+03 4.784957122802734375e+01 -1.440186595916748047e+01 -4.003208151797700565e-15 3.642919299551294898e-13 1.080866150163402317e-13 8.406736949368581735e-14
6.204000000000000000e+03 7.659810638427734375e+01 -3.751865005493164062e+01 -8.006416303595401129e-15 8.807057595141762341e-14 2.401924891078620339e-14 -1.200962343895356499e-13
6.205000000000000000e+03 4.731132030487060547e+00 -3.578791427612304688e+01 -1.040834085586084257e-13 1.841475648182988589e-13 2.401924891078620339e-14 -9.207378240914942946e-14
6.206000000000000000e+03 4.610774612426757812e+01 -2.637355041503906250e+01 -2.341876692568689577e-13 1.401122768425900472e-14 -6.605293026949732305e-14 -1.421138868477195283e-13
6.207000000000000000e+03 4.679939651489257812e+01 -2.680696868896484375e+01 -3.042437992078345088e-13 -1.601283260719080226e-14 -9.607699564314481355e-14 -1.921539912862896271e-13
6.208000000000000000e+03 1.373820686340332031e+01 -4.426743507385253906e+00 2.562053217150528361e-13 6.405133042876320904e-14 9.607699564314481355e-14 -1.601283260719080226e-14
6.209000000000000000e+03 3.732018661499023438e+01 -4.038360595703125000e+00 -1.240994476235310340e-13 8.406736949368581735e-14 -1.200962445539310169e-14 8.006416303595401129e-14
6.210000000000000000e+03 8.321849822998046875e+00 -3.706600904464721680e+00 -9.807859548387892756e-14 -4.203368474684290867e-14 -4.203368474684290867e-14 3.442758773376797254e-13
6.211000000000000000e+03 8.874319076538085938e+00 -5.449098587036132812e+00 -1.451162933850842773e-14 3.953167816966168813e-14 7.506014649345978118e-15 1.941555911270237411e-13
6.212000000000000000e+03 3.933911895751953125e+01 -2.841825485229492188e+01 -1.381106736137241442e-13 7.806255641895631925e-14 -1.801443583605670529e-14 -1.281026608575264181e-13
6.213000000000000000e+03 5.562535762786865234e+00 -4.590862751007080078e+00 -1.301042606982605321e-13 -1.701363388281057487e-13 -9.007218256841531545e-14 -1.200962343895356499e-13
6.214000000000000000e+03 3.596461534500122070e+00 -4.107935905456542969e+00 2.842277736954390566e-13 -2.441956955655938399e-13 1.200962445539310169e-14 1.921539912862896271e-13
6.215000000000000000e+03 2.911878824234008789e+00 -5.256135940551757812e+00 -5.204170427930421283e-14 -6.805453688649501509e-14 -3.602887167211341057e-14 -9.607699564314481355e-14
6.216000000000000000e+03 2.271495580673217773e+00 -5.187191009521484375e+00 9.807859548387892756e-14 4.203368474684290867e-14 4.203368474684290867e-14 -8.006416303595401129e-15
6.217000000000000000e+03 2.285927057266235352e+00 -5.916397094726562500e+00 -8.006416303595401129e-14 -8.006416303595401129e-14 -4.803849782157240678e-14 -1.601283260719080226e-14
6.218000000000000000e+03 7.679163455963134766e+00 -4.349549293518066406e+00 -1.240994476235310340e-13 8.406736949368581735e-14 -1.200962445539310169e-14 2.361892690976030718e-13
6.219000000000000000e+03 2.744057846069335938e+01 -2.905015945434570312e+01 4.003208151797700565e-15 4.363496868518834670e-13 1.321058605389946461e-13 -1.200962445539310169e-14
6.220000000000000000e+03 3.375314712524414062e+01 -1.443980884552001953e+01 -4.283432603838926989e-13 -9.207378240914942946e-14 -1.561251128379126385e-13 8.807057595141762341e-14
6.221000000000000000e+03 3.489339447021484375e+01 -1.351906108856201172e+01 -5.744603469130804552e-13 -3.262614516660183872e-13 -2.702165477052459464e-13 7.005614350349270714e-14
6.222000000000000000e+03 4.930625915527343750e+01 -5.091740608215332031e+00 1.130906281707026728e-13 -4.303448466720996568e-14 2.101684237342145434e-14 -1.641315257533762506e-13
6.223000000000000000e+03 7.753396606445312500e+01 -2.895294380187988281e+01 -1.401122870069854143e-13 2.602085213965210642e-13 3.602887167211341057e-14 2.802245536851800944e-14
6.224000000000000000e+03 7.663417816162109375e+01 -3.033279418945312500e+01 1.060850151756061177e-13 2.742197473867141744e-13 1.140914348673333079e-13 0.000000000000000000e+00
6.225000000000000000e+03 7.630869293212890625e+01 -3.200877761840820312e+01 6.204972381176551699e-14 4.383512866926175811e-13 1.501202997631831404e-13 -6.004811719476782494e-14
6.226000000000000000e+03 7.723480987548828125e+01 -3.133678817749023438e+01 -2.001604075898850282e-14 2.201764432666758475e-13 6.004811719476782494e-14 -1.601283260719080226e-14
6.227000000000000000e+03 7.751039886474609375e+01 -2.422428321838378906e+01 1.261010474642651480e-13 2.141716301919463494e-13 1.020818019416107336e-13 0.000000000000000000e+00
6.228000000000000000e+03 7.751966094970703125e+01 -2.339084815979003906e+01 1.421138868477195283e-13 1.981587908084919691e-13 1.020818019416107336e-13 5.604491073703601889e-14
6.229000000000000000e+03 7.752574920654296875e+01 -2.741468811035156250e+01 4.603689120457471473e-14 -2.602085213965210642e-14 6.004812227696550847e-15 -1.200962445539310169e-14
6.230000000000000000e+03 7.448775482177734375e+01 -1.279600238800048828e+01 4.003208151797700565e-15 -2.041636038832214672e-13 -6.004811719476782494e-14 -4.403528797570881170e-14
6.231000000000000000e+03 7.618791198730468750e+01 -2.166311645507812500e+01 4.603689120457471473e-14 -2.602085213965210642e-14 6.004812227696550847e-15 1.200962343895356499e-13
6.232000000000000000e+03 7.758932495117187500e+01 -2.101742935180664062e+01 -1.401122870069854143e-13 -6.004811719476782494e-14 -6.004811719476782494e-14 -4.003208151797700565e-15
6.233000000000000000e+03 7.629667663574218750e+01 -2.309948539733886719e+01 1.240994476235310340e-13 2.361892690976030718e-13 1.080866150163402317e-13 2.401924891078620339e-14
6.234000000000000000e+03 7.568695831298828125e+01 -2.321992492675781250e+01 2.401924891078620339e-14 5.604491073703601889e-14 2.401924891078620339e-14 1.601283260719080226e-14
6.235000000000000000e+03 7.613018798828125000e+01 -2.082572746276855469e+01 -1.601283260719080226e-14 1.601283260719080226e-14 0.000000000000000000e+00 -3.602887167211341057e-14
6.236000000000000000e+03 7.690005493164062500e+01 -2.884110641479492188e+01 1.821459649775647449e-13 7.806255641895631925e-14 7.806255641895631925e-14 8.006416303595401129e-14
6.237000000000000000e+03 7.453601074218750000e+01 -1.810891723632812500e+01 -6.605293026949732305e-14 -7.405934996122451319e-14 -4.203368474684290867e-14 -8.006416303595401129e-14
6.238000000000000000e+03 7.743910217285156250e+01 -1.561864757537841797e+01 6.004812227696550847e-15 9.407538902614712151e-14 3.002405859738391247e-14 -1.601283260719080226e-14
6.239000000000000000e+03 7.616122436523437500e+01 -1.797161674499511719e+01 -2.001604075898850282e-15 -1.381106736137241442e-13 -4.203368474684290867e-14 -1.481186999224490264e-13
6.240000000000000000e+03 7.765134429931640625e+01 -1.059671497344970703e+01 6.805453688649501509e-14 2.121700303512122354e-13 8.406736949368581735e-14 1.040834085586084257e-13
6.241000000000000000e+03 7.656726074218750000e+01 -1.239201354980468750e+01 1.921539912862896271e-13 -1.921539912862896271e-13 0.000000000000000000e+00 -1.681347389873716347e-13
6.242000000000000000e+03 7.611837005615234375e+01 -3.648828506469726562e+01 -1.401122768425900472e-14 3.943159817762498243e-13 1.140914348673333079e-13 3.803047490097931360e-14
6.243000000000000000e+03 7.669490051269531250e+01 -3.578530502319335938e+01 6.705373696612795809e-14 1.431146867680865853e-13 6.305052373213257400e-14 4.403528797570881170e-14
6.244000000000000000e+03 7.642701721191406250e+01 -1.429951190948486328e+01 1.541235129971785245e-13 6.605293026949732305e-14 6.605293026949732305e-14 -3.202566521438160452e-14
6.245000000000000000e+03 7.559510803222656250e+01 -1.393550586700439453e+01 2.401924687790712998e-13 4.003208084035064784e-13 1.921539912862896271e-13 -6.004811719476782494e-14
6.246000000000000000e+03 7.613704681396484375e+01 -2.666487884521484375e+01 -2.802245536851800944e-14 3.082470259943570490e-13 8.406736949368581735e-14 8.406736949368581735e-14
6.247000000000000000e+03 7.683879852294921875e+01 -2.559540176391601562e+01 2.602085213965210642e-13 1.801443651368306309e-13 1.321058605389946461e-13 0.000000000000000000e+00
6.248000000000000000e+03 7.678097534179687500e+01 -2.665790176391601562e+01 2.802245536851800944e-14 1.721379386688398627e-13 6.004811719476782494e-14 6.805453688649501509e-14
6.249000000000000000e+03 7.618326568603515625e+01 -3.287490844726562500e+01 2.201764398785440585e-14 2.381908689383371858e-13 7.806255641895631925e-14 5.204170427930421283e-14
6.250000000000000000e+03 1.944151878356933594e+01 -2.416277885437011719e+01 2.762213472274482884e-13 1.641315257533762506e-13 1.321058605389946461e-13 1.281026608575264181e-13
6.251000000000000000e+03 6.697305297851562500e+01 -1.424194908142089844e+01 1.028949535709748619e-14 4.409783966479764727e-15 4.409783966479764727e-15 -5.410585919725895143e-14
6.252000000000000000e+03 6.780596923828125000e+01 -1.439787960052490234e+01 2.281828697346666157e-13 5.204170427930421283e-14 8.406736949368581735e-14 8.006416303595401129e-14
6.253000000000000000e+03 3.080878734588623047e+00 -1.033454513549804688e+01 1.441154866884536423e-13 3.362694779747432694e-13 1.441154866884536423e-13 -1.120898214740720378e-13
6.254000000000000000e+03 7.643447113037109375e+01 -3.115118217468261719e+01 -1.200962445539310169e-14 1.321058605389946461e-13 3.602887167211341057e-14 -4.003208151797700565e-15
6.255000000000000000e+03 7.533819580078125000e+01 -2.993379020690917969e+01 1.931547912066566841e-13 2.371900690179701288e-13 1.291034607778934751e-13 1.015814019814272051e-13
6.256000000000000000e+03 8.968595504760742188e+00 -1.061896038055419922e+01 -1.950312876692131270e-13 5.366800753803246948e-14 -4.240898471698055505e-14 3.437754909300233530e-13
6.257000000000000000e+03 3.391180038452148438e+00 -3.019999122619628906e+01 -8.406736949368581735e-14 2.842277736954390566e-13 6.004811719476782494e-14 6.004811719476782494e-14
6.258000000000000000e+03 2.717458963394165039e+00 -3.251733779907226562e+01 1.000802037949425141e-14 3.702967294773318319e-13 1.140914348673333079e-13 5.604491073703601889e-14
6.259000000000000000e+03 3.410658836364746094e+00 -2.935734558105468750e+01 1.301042606982605321e-13 3.302646513474866152e-13 1.381106736137241442e-13 -2.401924891078620339e-14
6.260000000000000000e+03 7.129963874816894531e+00 -2.517519760131835938e+01 -2.201764398785440585e-14 8.206576287668812530e-14 1.801443583605670529e-14 -1.401122870069854143e-13
6.261000000000000000e+03 2.629881143569946289e+00 -2.846820831298828125e+01 9.407538902614712151e-14 8.606896933441993136e-14 5.404330750817011586e-14 -8.006416303595401129e-15
6.262000000000000000e+03 3.740872955322265625e+01 -1.342081928253173828e+01 -3.362694779747432694e-13 1.761411519028352468e-13 -4.803849782157240678e-14 -3.202566521438160452e-14
6.263000000000000000e+03 2.542860984802246094e+00 -2.573048973083496094e+01 9.807859548387892756e-14 4.203368474684290867e-14 4.203368474684290867e-14 -4.003208151797700565e-14
6.264000000000000000e+03 3.028812885284423828e+00 -2.335755157470703125e+01 2.522020949285302960e-13 1.080866150163402317e-13 1.080866150163402317e-13 -5.604491073703601889e-14
6.265000000000000000e+03 2.113642692565917969e+00 -2.280842399597167969e+01 1.120898214740720378e-13 4.803849782157240678e-14 4.803849782157240678e-14 -4.003208151797700565e-14
6.266000000000000000e+03 2.852856159210205078e+00 -2.237478446960449219e+01 2.542037218743187221e-13 2.461972954063279539e-13 1.501202997631831404e-13 0.000000000000000000e+00
6.267000000000000000e+03 4.151484012603759766e+00 -2.258401107788085938e+01 1.140914348673333079e-13 1.861491782115601290e-13 9.007218256841531545e-14 3.602887167211341057e-14
6.268000000000000000e+03 2.651942968368530273e+00 -1.687007904052734375e+01 2.181748434259417335e-13 1.621299259126421366e-13 1.140914348673333079e-13 7.606094980195862720e-14
6.269000000000000000e+03 2.382264852523803711e+00 -1.858838462829589844e+01 1.441154866884536423e-13 1.761411519028352468e-13 9.607699564314481355e-14 -8.006416303595401129e-15
6.270000000000000000e+03 2.300812721252441406e+00 -1.930804824829101562e+01 4.403528797570881170e-14 1.561251128379126385e-13 6.004811719476782494e-14 -1.841475648182988589e-13
6.271000000000000000e+03 2.421761989593505859e+00 -1.354220390319824219e+01 -2.001604075898850282e-15 1.821459649775647449e-13 5.404330750817011586e-14 6.004811719476782494e-14
6.272000000000000000e+03 2.318750858306884766e+00 -6.638897895812988281e+00 -3.803047490097931360e-14 -6.204972381176551699e-14 -3.002405859738391247e-14 8.406736949368581735e-14
6.273000000000000000e+03 2.353610754013061523e+00 -7.369868755340576172e+00 -6.204972381176551699e-14 -1.180946345488015359e-13 -5.404330750817011586e-14 -8.006416303595401129e-14
6.274000000000000000e+03 3.846466064453125000e+00 -1.496015071868896484e+01 1.501202997631831404e-13 1.100882216333379238e-13 7.806255641895631925e-14 9.607699564314481355e-14
6.275000000000000000e+03 2.548352479934692383e+00 -2.127740097045898438e+01 -6.004812227696550847e-15 2.261812563414053456e-13 6.605293026949732305e-14 -2.401924891078620339e-14
6.276000000000000000e+03 3.015326499938964844e+00 -1.871042633056640625e+01 -6.004811719476782494e-14 2.001604075898850282e-14 -1.200962445539310169e-14 -7.205774334422682115e-14
6.277000000000000000e+03 3.055845975875854492e+00 -9.585564613342285156e+00 -9.607699564314481355e-14 9.607699564314481355e-14 0.000000000000000000e+00 2.001604075898850282e-14
6.278000000000000000e+03 3.176762342453002930e+00 -1.112800979614257812e+01 -1.761411519028352468e-13 1.601283260719080226e-14 -4.803849782157240678e-14 2.802245536851800944e-14
6.279000000000000000e+03 3.845056772232055664e+00 -1.611275291442871094e+01 1.894017847290166423e-13 2.284330493859676459e-13 1.253504543002534333e-13 3.627907165220517482e-14
6.280000000000000000e+03 3.094135046005249023e+00 -2.471907043457031250e+01 1.421138868477195283e-13 1.981587908084919691e-13 1.020818019416107336e-13 0.000000000000000000e+00
6.281000000000000000e+03 4.013425827026367188e+00 -2.523287582397460938e+01 2.241796429481440756e-13 9.607699564314481355e-14 9.607699564314481355e-14 1.200962445539310169e-14
6.282000000000000000e+03 2.699198246002197266e+00 -2.757392501831054688e+01 -8.807057595141762341e-14 1.681347389873716347e-13 2.401924891078620339e-14 -6.004811719476782494e-14
6.283000000000000000e+03 3.493147850036621094e+00 -2.638774871826171875e+01 1.341074739322559162e-13 2.862293735361731706e-13 1.261010474642651480e-13 -4.003208151797700565e-15
6.284000000000000000e+03 3.421105146408081055e+00 -2.777489662170410156e+01 1.331066604593617031e-13 5.704571743366665393e-14 5.704571743366665393e-14 -1.601283260719080226e-14
6.285000000000000000e+03 3.130727291107177734e+00 -3.582688903808593750e+01 -3.803047490097931360e-14 9.807859548387892756e-14 1.801443583605670529e-14 -2.401924891078620339e-14
6.286000000000000000e+03 4.282782554626464844e+00 -1.421608352661132812e+01 2.632109211576222352e-13 3.873103823336804252e-13 1.951563910473907981e-13 -1.601283260719080226e-14
6.287000000000000000e+03 3.235510349273681641e+00 -1.488381576538085938e+01 1.461170865291877563e-13 -6.004812227696550847e-15 4.203368474684290867e-14 -1.641315257533762506e-13
6.288000000000000000e+03 2.701063156127929688e+00 -3.175624656677246094e+01 8.606896933441993136e-14 1.741395520621011328e-13 7.806255641895631925e-14 9.207378240914942946e-14
6.289000000000000000e+03 4.459379196166992188e+00 -2.882568740844726562e+01 -6.505213034913026604e-14 4.753809650613616267e-13 1.230986477031639770e-13 -5.204170427930421283e-14
6.290000000000000000e+03 2.991221427917480469e+00 -6.640657424926757812e+00 -5.804651735403371093e-14 -1.621299259126421366e-13 -6.605293026949732305e-14 -9.607699564314481355e-14
6.291000000000000000e+03 3.686969757080078125e+00 -6.655147552490234375e+00 -9.807859548387892756e-14 2.782229470681824024e-13 5.404330750817011586e-14 1.240994476235310340e-13
6.292000000000000000e+03 6.518007659912109375e+01 -2.641641998291015625e+01 1.281026608575264181e-13 5.124106434301056723e-13 1.921539912862896271e-13 -3.042437992078345088e-13
6.293000000000000000e+03 6.442149353027343750e+01 -2.513849830627441406e+01 -4.803849782157240678e-14 2.081668171172168513e-13 4.803849782157240678e-14 -1.000802021008766196e-13
6.294000000000000000e+03 3.061766147613525391e+00 -8.848835945129394531e+00 -2.001604075898850282e-14 2.201764432666758475e-13 6.004811719476782494e-14 -8.807057595141762341e-14
6.295000000000000000e+03 3.045234203338623047e+00 -8.098746299743652344e+00 -2.722181475459800604e-13 -2.081668171172168513e-13 -1.441154866884536423e-13 -1.160930347080674219e-13
6.296000000000000000e+03 3.353844881057739258e+00 -2.853655052185058594e+01 -2.802245536851800944e-14 1.481186999224490264e-13 3.602887167211341057e-14 -4.803849782157240678e-14
6.297000000000000000e+03 1.066060543060302734e+01 -3.672016382217407227e+00 1.220978477827969200e-13 -2.221780431074099615e-13 -3.002405859738391247e-14 8.406736949368581735e-14
6.298000000000000000e+03 1.307857990264892578e+01 -3.837615251541137695e+00 1.801443651368306309e-13 -6.004811719476782494e-14 3.602887167211341057e-14 2.401924891078620339e-14
6.299000000000000000e+03 3.531858682632446289e+00 -3.185842704772949219e+01 -1.341074739322559162e-13 1.941555911270237411e-13 1.801443583605670529e-14 2.001604075898850282e-14
6.300000000000000000e+03 3.536269378662109375e+01 -1.130301284790039062e+01 1.080866150163402317e-13 4.123304345529654746e-13 1.561251128379126385e-13 -6.805453688649501509e-14
6.301000000000000000e+03 1.729014778137207031e+01 -1.271414470672607422e+01 1.000802037949425141e-14 5.004010105043830980e-14 1.801443583605670529e-14 -1.601283260719080226e-14
6.302000000000000000e+03 3.810190200805664062e+00 -3.488248443603515625e+01 -9.207378240914942946e-14 5.204170427930421283e-14 -1.200962445539310169e-14 -1.441154866884536423e-13
6.303000000000000000e+03 3.499041318893432617e+00 -3.259372711181640625e+01 8.606896933441993136e-14 1.741395520621011328e-13 7.806255641895631925e-14 9.607699564314481355e-14
6.304000000000000000e+03 1.427404022216796875e+01 -6.239553928375244141e+00 1.000802021008766196e-13 1.801443651368306309e-13 8.406736949368581735e-14 3.602887167211341057e-14
6.305000000000000000e+03 2.414453506469726562e+01 -2.827335739135742188e+01 6.004812227696550847e-15 1.401122768425900472e-14 6.004812227696550847e-15 -8.706977603105056640e-14
6.306000000000000000e+03 2.701401329040527344e+01 -2.644993209838867188e+01 1.411130869273524713e-13 2.892317732972743416e-13 1.291034607778934751e-13 9.207378240914942946e-14
6.307000000000000000e+03 3.164639854431152344e+01 -8.125234603881835938e+00 1.461170865291877563e-13 -1.661331391466375207e-13 -6.004812227696550847e-15 1.040834085586084257e-13
6.308000000000000000e+03 3.341736984252929688e+01 -5.912454605102539062e+00 1.140914348673333079e-13 -1.341074739322559162e-13 -6.004812227696550847e-15 -1.401122870069854143e-13
6.309000000000000000e+03 1.830031967163085938e+01 -1.849135589599609375e+01 4.203368474684290867e-14 2.582069215557869502e-13 9.007218256841531545e-14 2.441956955655938399e-13
6.310000000000000000e+03 1.769824600219726562e+01 -1.897999382019042969e+01 1.040834085586084257e-13 1.361090737729900302e-13 7.205774334422682115e-14 -1.000802037949425141e-14
6.311000000000000000e+03 7.299046325683593750e+01 -3.101121902465820312e+01 -3.853087824929463112e-14 3.037434128001781364e-13 7.956375629950690476e-14 1.601283260719080226e-14
6.312000000000000000e+03 6.971709442138671875e+01 -3.309011840820312500e+01 8.206576287668812530e-14 2.181748434259417335e-13 9.007218256841531545e-14 2.001604075898850282e-14
6.313000000000000000e+03 6.675919342041015625e+01 -2.799640274047851562e+01 1.045838085187919542e-13 3.052446194569922999e-14 4.053248147816053415e-14 -1.701363422162375377e-14
6.314000000000000000e+03 7.023927307128906250e+01 -1.464255237579345703e+01 2.522020949285302960e-13 1.080866150163402317e-13 1.080866150163402317e-13 -7.606094980195862720e-14
6.315000000000000000e+03 5.330284595489501953e+00 -1.382807064056396484e+01 4.053248147816053415e-14 9.457578898633065001e-14 4.053248147816053415e-14 2.952365863720038397e-14
6.316000000000000000e+03 4.146725845336914062e+01 -2.493851280212402344e+01 -1.000802021008766196e-13 1.401122870069854143e-13 1.200962445539310169e-14 4.603689120457471473e-14
6.317000000000000000e+03 2.516399574279785156e+01 -2.843947219848632812e+01 -5.004010189747125706e-15 1.351082738526229732e-13 3.903127820947815962e-14 -1.080866150163402317e-13
6.318000000000000000e+03 3.976237869262695312e+01 -1.674084091186523438e+01 -1.881507780522942430e-13 3.082470259943570490e-13 3.602887167211341057e-14 -1.240994476235310340e-13
6.319000000000000000e+03 3.088734245300292969e+01 -1.341105842590332031e+01 -4.543641125235448053e-13 -5.264218423152444704e-13 -2.942358000041639388e-13 -8.006416303595401129e-15
6.320000000000000000e+03 6.406650543212890625e+01 -9.465436935424804688e+00 1.251002475438980910e-13 2.502005052521915490e-14 4.503609128420765773e-14 7.506014988159157020e-14
6.321000000000000000e+03 3.447457504272460938e+01 -4.406764984130859375e+00 3.127506188597452275e-14 1.964073977241131974e-13 6.830473686658677934e-14 -2.161732300326804634e-13
6.322000000000000000e+03 3.490902328491210938e+01 -5.539039611816406250e+00 2.401924891078620339e-14 5.604491073703601889e-14 2.401924891078620339e-14 -2.321860694161348437e-13
6.323000000000000000e+03 2.771181678771972656e+01 -2.109465026855468750e+01 4.003208151797700565e-15 2.762213472274482884e-13 8.406736949368581735e-14 -1.200962445539310169e-14
6.324000000000000000e+03 6.900066375732421875e+01 -2.769518089294433594e+01 9.607699564314481355e-14 6.405133042876320904e-14 4.803849782157240678e-14 1.801443651368306309e-13
6.325000000000000000e+03 1.918391609191894531e+01 -1.413259601593017578e+01 -1.821459649775647449e-13 1.621299259126421366e-13 -6.004812227696550847e-15 1.821459649775647449e-13
6.326000000000000000e+03 4.157769393920898438e+01 -1.857964324951171875e+01 -1.100882216333379238e-13 4.103288347122313606e-13 9.007218256841531545e-14 6.805453688649501509e-14
6.327000000000000000e+03 4.144282913208007812e+01 -1.493039894104003906e+01 -3.042437992078345088e-13 1.441154866884536423e-13 -4.803849782157240678e-14 -1.961571909677578551e-13
6.328000000000000000e+03 1.572585201263427734e+01 -1.166976451873779297e+01 -1.971579908881249121e-13 -3.302646513474866152e-14 -6.905533680686207210e-14 7.806255641895631925e-14
6.329000000000000000e+03 2.652996063232421875e+01 -1.850282287597656250e+01 1.160930347080674219e-13 4.003208151797700565e-15 3.602887167211341057e-14 5.604491073703601889e-14
6.330000000000000000e+03 2.371187591552734375e+01 -1.543026351928710938e+01 -2.026624040026708817e-13 -1.326062604991781746e-13 -1.005806020610601481e-13 -8.606896933441993136e-14
6.331000000000000000e+03 5.940303421020507812e+01 -2.479023933410644531e+01 -1.160930347080674219e-13 -4.003208151797700565e-15 -3.602887167211341057e-14 -7.205774334422682115e-14
6.332000000000000000e+03 6.010662841796875000e+01 -2.519148063659667969e+01 1.190954344691685929e-13 3.712975565027532010e-13 1.471179000020819694e-13 -8.807057595141762341e-14
6.333000000000000000e+03 2.722171211242675781e+01 -1.835549354553222656e+01 2.001604075898850282e-14 2.602085213965210642e-13 8.406736949368581735e-14 -1.000802037949425141e-14
6.334000000000000000e+03 2.808260345458984375e+01 -1.926219177246093750e+01 8.006416303595401129e-15 2.321860694161348437e-13 7.205774334422682115e-14 5.404330750817011586e-14
6.335000000000000000e+03 2.983548355102539062e+01 -1.276291847229003906e+01 -2.271820562617724026e-13 -1.431146867680865853e-13 -1.110890215537049808e-13 2.001604075898850282e-14
6.336000000000000000e+03 7.609170532226562500e+01 -1.990861511230468750e+01 1.200962445539310169e-14 1.881507780522942430e-13 6.004811719476782494e-14 3.602887167211341057e-14
6.337000000000000000e+03 3.329481124877929688e+01 -6.849560737609863281e+00 6.580273028940555879e-14 -6.330072371222433825e-14 7.506015284620688559e-16 -9.007217918028352643e-15
6.338000000000000000e+03 7.002730560302734375e+01 -1.367105579376220703e+01 1.471179000020819694e-13 2.301844560228735737e-14 5.104090097080536681e-14 -8.006416303595401129e-15
6.339000000000000000e+03 5.354921722412109375e+01 -1.244597625732421875e+01 9.807859548387892756e-14 1.220978477827969200e-13 6.605293026949732305e-14 -2.522020949285302960e-13
6.340000000000000000e+03 4.489259719848632812e+01 -2.234745788574218750e+01 1.060850151756061177e-13 3.542839036464046076e-13 1.381106736137241442e-13 -7.205774334422682115e-14
6.341000000000000000e+03 5.908042144775390625e+01 -1.201045703887939453e+01 5.254210423948774134e-14 2.251804564210382886e-14 2.251804564210382886e-14 -5.604491073703601889e-14
6.342000000000000000e+03 6.288994598388671875e+01 -1.739888954162597656e+01 1.150922347877003649e-13 2.151724301123134064e-13 9.907939540424598457e-14 9.707779556351187056e-14
6.343000000000000000e+03 6.354806518554687500e+01 -1.696901702880859375e+01 -5.704571743366665393e-14 -2.932350000837968818e-13 -1.050842084789754827e-13 6.505213034913026604e-15
6.344000000000000000e+03 5.135800552368164062e+01 -7.722401142120361328e+00 1.313552605987193533e-14 3.258861550840125298e-13 1.017065053596048763e-13 7.005614350349270714e-14
6.345000000000000000e+03 1.506567287445068359e+01 -1.204773616790771484e+01 -4.503609128420765773e-14 2.552045217946857791e-13 6.305052373213257400e-14 7.205774334422682115e-14
6.346000000000000000e+03 5.424435806274414062e+01 -1.475609683990478516e+01 9.207378240914942946e-14 2.682149478645118323e-13 1.080866150163402317e-13 -2.001604042017532392e-13
6.347000000000000000e+03 6.308848571777343750e+01 -2.169143104553222656e+01 4.403528797570881170e-14 1.561251128379126385e-13 6.004811719476782494e-14 -8.807057595141762341e-14
6.348000000000000000e+03 7.551634216308593750e+01 -2.168877029418945312e+01 -1.421138868477195283e-13 -1.981587908084919691e-13 -1.020818019416107336e-13 3.202566521438160452e-14
6.349000000000000000e+03 4.961117553710937500e+01 -6.008522510528564453e+00 8.006416303595401129e-14 2.401924687790712998e-13 9.607699564314481355e-14 -1.841475648182988589e-13
6.350000000000000000e+03 5.283882141113281250e+01 -1.399509620666503906e+01 2.051644071917203133e-14 5.454371085648543338e-14 2.251804564210382886e-14 -2.221780431074099615e-13
6.351000000000000000e+03 1.463737106323242188e+01 -1.138430023193359375e+01 -2.512012950081632390e-13 1.210970478624298630e-13 -3.903127820947815962e-14 4.003208151797700565e-15
6.352000000000000000e+03 3.731146240234375000e+01 -1.249923038482666016e+01 -3.823063556267908281e-13 2.021620040424873532e-13 -5.404330750817011586e-14 2.001604075898850282e-14
6.353000000000000000e+03 7.521269989013671875e+01 -2.415892410278320312e+01 -2.001604075898850282e-14 6.004811719476782494e-14 1.200962445539310169e-14 1.621299259126421366e-13
6.354000000000000000e+03 7.521788024902343750e+01 -2.588945388793945312e+01 2.361892690976030718e-13 2.842277736954390566e-13 1.561251128379126385e-13 -1.401122768425900472e-14
6.355000000000000000e+03 5.051979446411132812e+01 -3.650020217895507812e+01 8.606896933441993136e-14 9.407538902614712151e-14 5.404330750817011586e-14 -9.807859548387892756e-14
6.356000000000000000e+03 5.355960083007812500e+01 -2.748581123352050781e+01 -1.841475648182988589e-13 1.040834085586084257e-13 -2.401924891078620339e-14 2.181748434259417335e-13
6.357000000000000000e+03 5.963859176635742188e+01 -1.243628120422363281e+01 -7.099439173477092857e-14 1.532478096787255606e-14 -1.670088424650904846e-14 -7.074419175467916432e-14
6.358000000000000000e+03 6.496170043945312500e+01 -1.094901847839355469e+01 1.301042606982605321e-13 9.007218256841531545e-14 6.605293026949732305e-14 -1.801443583605670529e-14
6.359000000000000000e+03 6.339276123046875000e+01 -1.395811367034912109e+01 3.903127820947815962e-14 -3.492799040445693226e-13 -9.307458910578006450e-14 5.604491073703601889e-14
6.360000000000000000e+03 5.997674942016601562e+01 -1.199169921875000000e+01 9.607699564314481355e-14 -9.607699564314481355e-14 0.000000000000000000e+00 -1.701363388281057487e-13
6.361000000000000000e+03 6.332192611694335938e+01 -1.095892238616943359e+01 3.602887167211341057e-14 -7.606094980195862720e-14 -1.200962445539310169e-14 4.403528797570881170e-14
6.362000000000000000e+03 3.555274200439453125e+01 -1.057990932464599609e+01 -6.805453688649501509e-14 -5.204170427930421283e-14 -3.602887167211341057e-14 -6.805453688649501509e-14
6.363000000000000000e+03 4.478288650512695312e+01 -2.442984771728515625e+01 -1.060850151756061177e-13 2.061652172764827373e-13 3.002405859738391247e-14 -4.003208151797700565e-15
6.364000000000000000e+03 4.812241744995117188e+01 -2.644617652893066406e+01 -1.821459649775647449e-13 4.023224082442405924e-13 6.605293026949732305e-14 -1.281026608575264181e-13
6.365000000000000000e+03 4.833557510375976562e+01 -2.770460891723632812e+01 -2.757209608197919160e-13 4.308452737373374974e-13 4.653729455289003225e-14 -1.321058605389946461e-13
6.366000000000000000e+03 1.742291450500488281e+01 -2.486972236633300781e+01 1.921539912862896271e-13 1.281026608575264181e-13 9.607699564314481355e-14 2.161732300326804634e-13
6.367000000000000000e+03 1.575332450866699219e+01 -2.392424964904785156e+01 1.841475648182988589e-13 2.161732300326804634e-13 1.200962343895356499e-13 1.801443651368306309e-13
6.368000000000000000e+03 4.597769165039062500e+01 -1.802374839782714844e+01 -1.681347389873716347e-13 2.481988952470620680e-13 2.401924891078620339e-14 3.202566521438160452e-14
6.369000000000000000e+03 4.421951675415039062e+01 -1.964357757568359375e+01 3.202566521438160452e-13 3.202566521438160452e-13 1.921539912862896271e-13 -1.120898214740720378e-13
6.370000000000000000e+03 6.302745437622070312e+01 -8.128043174743652344e+00 4.003208151797700565e-15 -2.041636038832214672e-13 -6.004811719476782494e-14 -2.939855864715450184e-14
6.371000000000000000e+03 6.744792938232421875e+01 -1.330504608154296875e+01 -1.801443583605670529e-14 3.803047490097931360e-14 6.004812227696550847e-15 1.441154866884536423e-13
6.372000000000000000e+03 5.109753417968750000e+01 -3.007071304321289062e+01 -2.001604075898850282e-14 6.004811719476782494e-14 1.200962445539310169e-14 -1.200962343895356499e-13
6.373000000000000000e+03 5.047848129272460938e+01 -3.010598754882812500e+01 1.200962445539310169e-14 1.881507780522942430e-13 6.004811719476782494e-14 -4.003208151797700565e-15
6.374000000000000000e+03 4.924340820312500000e+01 -2.682470130920410156e+01 -2.742197473867141744e-13 2.141716301919463494e-13 -1.801443583605670529e-14 -8.206576287668812530e-14
6.375000000000000000e+03 4.961635208129882812e+01 -2.790762710571289062e+01 -8.006416303595401129e-14 2.401924687790712998e-13 4.803849782157240678e-14 -7.205774334422682115e-14
6.376000000000000000e+03 5.179056167602539062e+01 -2.628130340576171875e+01 7.606094980195862720e-14 2.842277736954390566e-13 1.080866150163402317e-13 -4.003208151797700565e-14
6.377000000000000000e+03 5.675145339965820312e+01 -1.760045623779296875e+01 7.606094980195862720e-14 1.240994476235310340e-13 6.004811719476782494e-14 -6.805453688649501509e-14
6.378000000000000000e+03 4.924539947509765625e+01 -1.517090892791748047e+01 4.003208151797700565e-15 -4.403528797570881170e-14 -1.200962445539310169e-14 -4.003208151797700565e-14
6.379000000000000000e+03 5.055611801147460938e+01 -1.459916019439697266e+01 -4.403528797570881170e-14 4.003208151797700565e-15 -1.200962445539310169e-14 -3.803047490097931360e-14
6.380000000000000000e+03 6.218165969848632812e+01 -2.015631675720214844e+01 1.361090737729900302e-13 4.243400607024244708e-13 1.681347389873716347e-13 -1.761411519028352468e-13
6.381000000000000000e+03 4.200800323486328125e+01 -2.245241737365722656e+01 2.802245536851800944e-14 4.923945908126559079e-13 1.561251128379126385e-13 2.001604075898850282e-14
6.382000000000000000e+03 4.205396270751953125e+01 -2.082247734069824219e+01 3.252606517456513302e-14 2.426944821325160984e-13 8.256616283687165381e-14 -1.120898214740720378e-13
6.383000000000000000e+03 2.101627349853515625e+01 -2.443859481811523438e+01 1.621299259126421366e-13 -2.201764398785440585e-14 4.203368474684290867e-14 -5.604491073703601889e-14
6.384000000000000000e+03 4.720628356933593750e+01 -1.412769603729248047e+01 -1.721379386688398627e-13 -2.802245536851800944e-14 -6.004811719476782494e-14 8.406736949368581735e-14
6.385000000000000000e+03 3.472490692138671875e+01 -6.781277179718017578e+00 2.902325867701685547e-14 2.411932958044926689e-13 8.106496295632106830e-14 -2.522020949285302960e-13
6.386000000000000000e+03 1.194231033325195312e+01 -2.453518104553222656e+01 -1.200962445539310169e-14 -2.802245536851800944e-14 -1.200962445539310169e-14 2.401924891078620339e-14
6.387000000000000000e+03 1.069200515747070312e+01 -2.459584617614746094e+01 1.000802037949425141e-14 3.702967294773318319e-13 1.140914348673333079e-13 -9.607699564314481355e-14
6.388000000000000000e+03 1.224786663055419922e+01 -2.818077278137207031e+01 8.907137587178468041e-14 1.010810020212436766e-13 5.704571743366665393e-14 8.757017937936588392e-15
6.389000000000000000e+03 1.215590953826904297e+01 -2.910290336608886719e+01 1.261010474642651480e-13 4.543641125235448053e-13 1.741395520621011328e-13 3.402726844324750755e-14
6.390000000000000000e+03 4.856363677978515625e+01 -1.301375007629394531e+01 1.200962445539310169e-14 1.881507780522942430e-13 6.004811719476782494e-14 1.601283260719080226e-14
6.391000000000000000e+03 6.958890533447265625e+01 -3.401780700683593750e+01 -3.202566521438160452e-14 3.202566521438160452e-14 0.000000000000000000e+00 8.006416303595401129e-15
6.392000000000000000e+03 5.460578155517578125e+01 -2.664392471313476562e+01 -8.406736949368581735e-14 2.842277736954390566e-13 6.004811719476782494e-14 4.003208151797700565e-14
6.393000000000000000e+03 5.600301742553710938e+01 -2.633883285522460938e+01 -1.401122768425900472e-14 3.943159817762498243e-13 1.140914348673333079e-13 -8.006416303595401129e-14
6.394000000000000000e+03 4.632921981811523438e+01 -2.419100952148437500e+01 4.403528797570881170e-14 4.763817378766743715e-13 1.561251128379126385e-13 -1.781427517435693608e-13
6.395000000000000000e+03 5.667992401123046875e+01 -1.690200424194335938e+01 2.041636038832214672e-13 3.162534253572935050e-13 1.561251128379126385e-13 -2.682149478645118323e-13
6.396000000000000000e+03 6.294935226440429688e+01 -9.243597984313964844e+00 7.856295637913984775e-14 2.166736299928639919e-13 8.857097591160115191e-14 2.802245536851800944e-14
6.397000000000000000e+03 5.641420745849609375e+01 -1.197617053985595703e+01 2.622101212372551782e-13 1.581267126786467525e-13 1.261010474642651480e-13 -1.281026608575264181e-13
6.398000000000000000e+03 5.181801986694335938e+01 -1.141665840148925781e+01 3.002405859738391247e-14 1.501202997631831404e-13 5.404330750817011586e-14 -1.681347389873716347e-13
6.399000000000000000e+03 2.300829315185546875e+01 -2.579977416992187500e+01 1.291034607778934751e-13 -2.191756433463087905e-13 -2.702165375408505793e-14 -1.120898214740720378e-13
6.400000000000000000e+03 2.383284378051757812e+01 -2.666818046569824219e+01 8.807057595141762341e-14 -8.006416303595401129e-15 2.401924891078620339e-14 2.241796429481440756e-13
6.401000000000000000e+03 3.412491989135742188e+01 -5.593168735504150391e+00 4.603689120457471473e-14 2.942358000041639388e-13 1.020818019416107336e-13 -8.006416303595401129e-15
6.402000000000000000e+03 1.235107231140136719e+01 -4.004594802856445312e+00 -5.204170427930421283e-14 2.522020949285302960e-13 6.004811719476782494e-14 2.962373998448980528e-13
6.403000000000000000e+03 4.226488494873046875e+01 -2.472084426879882812e+01 -8.006416303595401129e-15 2.481988952470620680e-13 7.205774334422682115e-14 1.180946345488015359e-13
6.404000000000000000e+03 4.383798599243164062e+01 -2.538749504089355469e+01 -7.906335633932337625e-14 1.491194998428160834e-13 2.101684237342145434e-14 9.607699564314481355e-14
6.405000000000000000e+03 5.598479461669921875e+01 -2.819861412048339844e+01 1.200962445539310169e-14 1.881507780522942430e-13 6.004811719476782494e-14 6.405133042876320904e-14
6.406000000000000000e+03 4.493915557861328125e+01 -1.925407218933105469e+01 1.921539912862896271e-13 1.281026608575264181e-13 9.607699564314481355e-14 -4.003208151797700565e-14
6.407000000000000000e+03 5.838820266723632812e+01 -2.524740600585937500e+01 -2.522020949285302960e-13 5.204170427930421283e-14 -6.004811719476782494e-14 2.001604075898850282e-15
6.408000000000000000e+03 5.657876205444335938e+01 -2.598541831970214844e+01 -3.162534253572935050e-13 2.762213472274482884e-13 -1.200962445539310169e-14 6.705373696612795809e-14
6.409000000000000000e+03 5.459239196777343750e+01 -2.792618942260742188e+01 -3.803047490097931360e-14 2.582069215557869502e-13 6.605293026949732305e-14 4.003208151797700565e-14
6.410000000000000000e+03 6.681175994873046875e+01 -2.911471176147460938e+01 4.453568793589234021e-14 1.105886215935214523e-13 4.653729455289003225e-14 -8.006416303595401129e-15
6.411000000000000000e+03 6.829749298095703125e+01 -2.998729515075683594e+01 1.220978477827969200e-13 2.582069215557869502e-13 1.140914348673333079e-13 6.605293026949732305e-14
6.412000000000000000e+03 4.628859710693359375e+01 -1.643667984008789062e+01 -1.881507780522942430e-13 4.683753385137379155e-13 8.406736949368581735e-14 8.006416303595401129e-14
6.413000000000000000e+03 1.855131912231445312e+01 -1.791753005981445312e+01 7.205774334422682115e-14 -1.521218996039172544e-13 -2.401924891078620339e-14 2.241796429481440756e-13
6.414000000000000000e+03 2.334535408020019531e+01 -1.607765007019042969e+01 -4.853889778175593528e-14 -6.655333022968085155e-14 -3.452766840343103605e-14 4.003208151797700565e-15
6.415000000000000000e+03 3.478923797607421875e+01 -8.415781021118164062e+00 1.220978477827969200e-13 -2.221780431074099615e-13 -3.002405859738391247e-14 -4.803849782157240678e-14
6.416000000000000000e+03 2.868700218200683594e+01 -2.625575828552246094e+01 -1.000802037949425141e-15 3.712975565027532010e-13 1.110890215537049808e-13 -1.356086738128065017e-13
6.417000000000000000e+03 2.961532974243164062e+01 -2.857834243774414062e+01 -1.901523778930283570e-13 2.502004950877961820e-13 1.801443583605670529e-14 -2.026624073908026707e-14
6.418000000000000000e+03 3.508778762817382812e+01 -7.720128059387207031e+00 1.301042606982605321e-14 9.707779556351187056e-14 3.302646513474866152e-14 -1.521218996039172544e-13
6.419000000000000000e+03 3.210132980346679688e+01 -7.706074714660644531e+00 2.802245536851800944e-14 1.200962445539310169e-14 1.200962445539310169e-14 8.807057595141762341e-14
6.420000000000000000e+03 1.465362262725830078e+01 -9.196057319641113281e+00 -2.451964954859608969e-13 -1.451162866088206993e-13 -1.170938346284344789e-13 3.102486190588275849e-14
6.421000000000000000e+03 3.237148666381835938e+01 -6.999687671661376953e+00 7.405934996122451319e-14 -1.401122768425900472e-14 1.801443583605670529e-14 -1.601283260719080226e-14
6.422000000000000000e+03 6.519403076171875000e+01 -2.745018959045410156e+01 1.821459649775647449e-13 7.806255641895631925e-14 7.806255641895631925e-14 -1.921539912862896271e-13
6.423000000000000000e+03 4.905946731567382812e+01 -7.308694839477539062e+00 2.562053217150528361e-13 2.241796429481440756e-13 1.441154866884536423e-13 -1.521218996039172544e-13
6.424000000000000000e+03 4.958813858032226562e+01 -8.266394615173339844e+00 0.000000000000000000e+00 0.000000000000000000e+00 0.000000000000000000e+00 -2.401924891078620339e-14
6.425000000000000000e+03 4.612676620483398438e+00 -2.274170112609863281e+01 1.120898214740720378e-13 4.803849782157240678e-14 4.803849782157240678e-14 -1.601283260719080226e-14
6.426000000000000000e+03 4.501191139221191406e+00 -2.226605796813964844e+01 1.180946345488015359e-13 1.421138868477195283e-13 7.806255641895631925e-14 -4.803849782157240678e-14
6.427000000000000000e+03 4.581293106079101562e+00 -2.415766525268554688e+01 1.220978477827969200e-13 9.807859548387892756e-14 6.605293026949732305e-14 2.802245536851800944e-14
6.428000000000000000e+03 7.357305908203125000e+01 -1.534460449218750000e+01 8.106496295632106830e-14 -1.100882199392720293e-14 2.101684237342145434e-14 9.607699564314481355e-14
6.429000000000000000e+03 7.410339355468750000e+01 -1.739665412902832031e+01 -2.902325867701685547e-14 7.906335633932337625e-14 1.501202929869195624e-14 8.006416303595401129e-14
6.430000000000000000e+03 7.140430450439453125e+01 -1.430944442749023438e+01 2.191756433463087905e-13 2.311852694957677867e-13 1.351082738526229732e-13 1.200962445539310169e-14
6.431000000000000000e+03 3.181335067749023438e+01 -8.714611053466796875e+00 -2.481988952470620680e-13 1.681347389873716347e-13 -2.401924891078620339e-14 1.160930347080674219e-13
6.432000000000000000e+03 1.395189285278320312e+01 -6.940852642059326172e+00 9.907939540424598457e-14 2.712173476256130034e-13 1.110890215537049808e-13 2.642117210779892922e-13
6.433000000000000000e+03 1.001456260681152344e+01 -2.469902229309082031e+01 9.207378240914942946e-14 -5.204170427930421283e-14 1.200962445539310169e-14 8.006416303595401129e-15
6.434000000000000000e+03 1.298065280914306641e+01 -2.689734458923339844e+01 1.441154866884536423e-13 1.601283260719080226e-14 4.803849782157240678e-14 1.361090737729900302e-13
6.435000000000000000e+03 5.028084945678710938e+01 -2.931220817565917969e+01 -1.120898214740720378e-13 2.722181475459800604e-13 4.803849782157240678e-14 -1.060850151756061177e-13
6.436000000000000000e+03 1.370226097106933594e+01 -7.639313697814941406e+00 9.607699564314481355e-14 6.405133042876320904e-14 4.803849782157240678e-14 1.020818019416107336e-13
6.437000000000000000e+03 1.446592044830322266e+01 -2.505849075317382812e+01 6.004811719476782494e-14 3.002405995263662808e-13 1.080866150163402317e-13 1.861491782115601290e-13
6.438000000000000000e+03 4.942127990722656250e+01 -1.345767498016357422e+01 1.140914348673333079e-13 1.861491782115601290e-13 9.007218256841531545e-14 8.807057595141762341e-14
6.439000000000000000e+03 5.532118988037109375e+01 -3.529548645019531250e+01 6.805453688649501509e-14 5.204170427930421283e-14 3.602887167211341057e-14 -2.481988952470620680e-13
6.440000000000000000e+03 5.688973999023437500e+01 -1.830666923522949219e+01 2.201764432666758475e-13 3.002405995263662808e-13 1.561251128379126385e-13 -2.882309733769072846e-13
6.441000000000000000e+03 1.115403461456298828e+01 -3.244556808471679688e+01 8.006416303595401129e-14 2.401924687790712998e-13 9.607699564314481355e-14 6.405133042876320904e-14
6.442000000000000000e+03 4.840123653411865234e+00 -1.457301139831542969e+01 2.346880827695796423e-13 2.807249604216272010e-13 1.546239129573620530e-13 1.213472410662580492e-13
6.443000000000000000e+03 5.797580337524414062e+01 -1.964667510986328125e+01 7.105694342385976414e-14 2.592077214761540072e-13 9.907939540424598457e-14 -1.441154866884536423e-13
6.444000000000000000e+03 1.137054061889648438e+01 -1.061809444427490234e+01 -2.542037218743187221e-13 -1.661331391466375207e-13 -1.261010474642651480e-13 1.321058605389946461e-13
6.445000000000000000e+03 1.043671989440917969e+01 -1.091194629669189453e+01 -9.907939540424598457e-14 -2.311852694957677867e-13 -9.907939540424598457e-14 1.771419518232023038e-13
6.446000000000000000e+03 4.815120697021484375e+01 -2.711614990234375000e+01 -2.081668171172168513e-13 2.081668171172168513e-13 0.000000000000000000e+00 -1.240994476235310340e-13
6.447000000000000000e+03 1.515484142303466797e+01 -2.536423301696777344e+01 4.203368474684290867e-14 2.582069215557869502e-13 9.007218256841531545e-14 2.441956955655938399e-13
6.448000000000000000e+03 2.091787338256835938e+01 -1.638896560668945312e+01 -1.741395520621011328e-13 -1.661331391466375207e-13 -1.020818019416107336e-13 -8.006416303595401129e-15
6.449000000000000000e+03 6.239067077636718750e+01 -2.060627746582031250e+01 3.262614516660183872e-13 4.143320343936995886e-13 2.221780431074099615e-13 -5.604491073703601889e-14
6.450000000000000000e+03 2.884500694274902344e+01 -1.658716773986816406e+01 1.701363422162375377e-14 -6.705373696612795809e-14 -1.501202929869195624e-14 3.602887167211341057e-14
6.451000000000000000e+03 5.342810821533203125e+01 -1.352013397216796875e+01 1.951563910473907981e-14 1.456166865690042278e-13 4.953969770212299228e-14 -2.762213472274482884e-13
6.452000000000000000e+03 5.236266326904296875e+01 -1.228364562988281250e+01 4.803849782157240678e-14 1.120898214740720378e-13 4.803849782157240678e-14 -2.161732300326804634e-13
6.453000000000000000e+03 7.292959594726562500e+01 -1.424324989318847656e+01 -3.002405859738391247e-14 9.007218256841531545e-14 1.801443583605670529e-14 1.000802021008766196e-13
6.454000000000000000e+03 7.297328186035156250e+01 -1.564189720153808594e+01 1.601283260719080226e-13 0.000000000000000000e+00 4.803849782157240678e-14 -1.601283260719080226e-14
6.455000000000000000e+03 1.368039321899414062e+01 -5.729938507080078125e+00 1.080866150163402317e-13 -6.805453688649501509e-14 1.200962445539310169e-14 1.531227130768114675e-13
6.456000000000000000e+03 4.720648574829101562e+01 -2.591992378234863281e+01 -1.641315257533762506e-13 2.041636038832214672e-13 1.200962445539310169e-14 -1.841475648182988589e-13
6.457000000000000000e+03 9.726685523986816406e+00 -4.418202877044677734e+00 1.441154866884536423e-13 -1.441154866884536423e-13 0.000000000000000000e+00 -6.004811719476782494e-14
6.458000000000000000e+03 1.131174850463867188e+01 -3.170119857788085938e+01 -2.602085213965210642e-14 -1.941555911270237411e-13 -6.605293026949732305e-14 4.803849782157240678e-14
6.459000000000000000e+03 5.170166778564453125e+01 -3.251899337768554688e+01 -2.201764432666758475e-13 -1.401122870069854143e-13 -1.080866150163402317e-13 -8.006416303595401129e-14
6.460000000000000000e+03 5.068001174926757812e+01 -3.366076660156250000e+01 9.807859548387892756e-14 3.622903301143953758e-13 1.381106736137241442e-13 -2.241796429481440756e-13
6.461000000000000000e+03 1.133689117431640625e+01 -2.814758682250976562e+01 -1.301042606982605321e-14 1.831467648979318019e-13 5.104090097080536681e-14 -2.251804564210382886e-14
6.462000000000000000e+03 4.575468444824218750e+01 -2.373826980590820312e+01 -6.505213034913026604e-14 1.551243129175455815e-13 2.702165375408505793e-14 -1.701363422162375377e-14
6.463000000000000000e+03 4.590781021118164062e+01 -2.474330139160156250e+01 -5.004010105043830980e-14 1.501202997631831404e-13 3.002405859738391247e-14 -6.004811719476782494e-14
6.464000000000000000e+03 1.381788444519042969e+01 -3.768830299377441406e+00 -2.201764398785440585e-14 8.206576287668812530e-14 1.801443583605670529e-14 1.921539912862896271e-13
6.465000000000000000e+03 6.282092571258544922e+00 -3.003677177429199219e+01 1.080866150163402317e-13 9.207378240914942946e-14 6.004811719476782494e-14 -6.405133042876320904e-14
6.466000000000000000e+03 2.930875587463378906e+01 -1.594934844970703125e+01 -1.311050606186275891e-13 -3.903127820947815962e-14 -5.104090097080536681e-14 1.100882199392720293e-14
6.467000000000000000e+03 2.681629562377929688e+01 -1.462816619873046875e+01 -4.123304345529654746e-13 -1.080866150163402317e-13 -1.561251128379126385e-13 -7.005613842129502361e-15
6.468000000000000000e+03 7.676061248779296875e+01 -1.751346969604492188e+01 1.261010474642651480e-13 5.404330750817011586e-14 5.404330750817011586e-14 1.601283260719080226e-14
6.469000000000000000e+03 2.876176643371582031e+01 -1.299242496490478516e+01 -2.121700303512122354e-13 9.207378240914942946e-14 -3.602887167211341057e-14 4.703769451307356075e-14
6.470000000000000000e+03 5.726612091064453125e+01 -2.164122772216796875e+01 3.402726844324750755e-14 2.662133209187234062e-13 9.007218256841531545e-14 -8.006416303595401129e-14
6.471000000000000000e+03 5.796039581298828125e+01 -2.152661132812500000e+01 1.361090737729900302e-13 1.040834085586084257e-13 7.205774334422682115e-14 -6.405133042876320904e-14
6.472000000000000000e+03 1.416955566406250000e+01 -2.658092880249023438e+01 1.349831704744453020e-13 2.866046701181790279e-13 1.264763575987981614e-13 1.506206997233666689e-13
6.473000000000000000e+03 1.294630432128906250e+01 -2.546208000183105469e+01 1.481186999224490264e-13 -2.802245536851800944e-14 3.602887167211341057e-14 1.120898214740720378e-13
6.474000000000000000e+03 5.385231018066406250e+01 -1.414616584777832031e+01 -7.455974992140804170e-14 5.954771723458429644e-14 -4.503608959014176322e-15 -3.082470259943570490e-13
6.475000000000000000e+03 3.574915695190429688e+01 -3.034029960632324219e+01 -3.602887167211341057e-14 7.606094980195862720e-14 1.200962445539310169e-14 1.281026608575264181e-13
6.476000000000000000e+03 2.812382125854492188e+01 -1.359717655181884766e+01 -3.042437992078345088e-13 -1.761411519028352468e-13 -1.441154866884536423e-13 2.301844560228735737e-14
6.477000000000000000e+03 3.050124359130859375e+01 -1.403340816497802734e+01 -3.062454261536229350e-13 6.004812227696550847e-15 -9.007218256841531545e-14 9.607699564314481355e-14
6.478000000000000000e+03 2.874448966979980469e+01 -1.564243698120117188e+01 -1.200962445539310169e-14 -1.881507780522942430e-13 -6.004811719476782494e-14 -5.204170427930421283e-14
6.479000000000000000e+03 5.386536026000976562e+01 -3.209016418457031250e+01 1.656327256339268361e-13 -4.053248147816053415e-14 3.753007494079578510e-14 -5.204170427930421283e-14
6.480000000000000000e+03 5.434313583374023438e+01 -3.151629829406738281e+01 -8.606896933441993136e-14 1.461170865291877563e-13 1.801443583605670529e-14 -3.202566521438160452e-14
6.481000000000000000e+03 9.355056762695312500e+00 -3.445289611816406250e+01 -2.101684237342145434e-14 2.712173476256130034e-13 7.506014988159157020e-14 -1.000802037949425141e-14
6.482000000000000000e+03 1.015264797210693359e+01 -3.510774993896484375e+01 -3.002405859738391247e-14 -1.501202997631831404e-13 -5.404330750817011586e-14 -3.602887167211341057e-14
6.483000000000000000e+03 5.851980972290039062e+01 -1.878222656250000000e+01 2.281828697346666157e-13 3.722983564231202580e-13 1.801443651368306309e-13 -1.361090737729900302e-13
6.484000000000000000e+03 6.256409072875976562e+01 -7.633000850677490234e+00 -3.692959295569647749e-13 -3.412734775765785544e-13 -2.131708302715792924e-13 -2.562053217150528361e-13
6.485000000000000000e+03 7.322531890869140625e+01 -2.740974617004394531e+01 1.321058605389946461e-13 1.481186999224490264e-13 8.406736949368581735e-14 6.405133042876320904e-14
6.486000000000000000e+03 1.540446567535400391e+01 -3.724000453948974609e+00 1.220978477827969200e-13 9.807859548387892756e-14 6.605293026949732305e-14 1.801443651368306309e-13
6.487000000000000000e+03 5.191712570190429688e+01 -8.288050651550292969e+00 9.007218256841531545e-14 4.503609128420765773e-13 1.621299259126421366e-13 -7.606094980195862720e-14
6.488000000000000000e+03 4.966492843627929688e+01 -9.726072311401367188e+00 1.361090737729900302e-13 1.040834085586084257e-13 7.205774334422682115e-14 -1.361090737729900302e-13
6.489000000000000000e+03 7.084263610839843750e+01 -1.458636569976806641e+01 1.741395520621011328e-13 -1.541235129971785245e-13 6.004812227696550847e-15 0.000000000000000000e+00
6.490000000000000000e+03 1.076209926605224609e+01 -2.976427841186523438e+01 5.204170427930421283e-14 2.281828697346666157e-13 8.406736949368581735e-14 -5.404330750817011586e-14
6.491000000000000000e+03 1.072001838684082031e+01 -3.094580841064453125e+01 -1.801443583605670529e-14 3.803047490097931360e-14 6.004812227696550847e-15 -7.205774334422682115e-14
6.492000000000000000e+03 2.711186790466308594e+01 -3.278214263916015625e+01 -6.705373696612795809e-14 3.372702778951103264e-13 8.106496295632106830e-14 8.006416303595401129e-15
6.493000000000000000e+03 2.753185272216796875e+01 -3.409658050537109375e+01 1.451162933850842773e-14 2.807249604216272010e-13 8.857097591160115191e-14 -4.003208151797700565e-15
6.494000000000000000e+03 1.290472507476806641e+01 -2.738025283813476562e+01 6.805453688649501509e-14 2.121700303512122354e-13 8.406736949368581735e-14 8.807057595141762341e-14
6.495000000000000000e+03 1.355579185485839844e+01 -2.690881538391113281e+01 1.741395520621011328e-13 1.661331391466375207e-13 1.020818019416107336e-13 2.401924891078620339e-14
6.496000000000000000e+03 2.820164680480957031e+01 -2.555076599121093750e+01 1.901523745048965680e-14 1.911531778133954140e-13 6.305052373213257400e-14 7.205774334422682115e-14
6.497000000000000000e+03 2.798005676269531250e+01 -2.794680976867675781e+01 -1.000802021008766196e-13 1.401122870069854143e-13 1.200962445539310169e-14 -2.401924891078620339e-14
6.498000000000000000e+03 4.163253784179687500e+01 -2.030471038818359375e+01 1.203464411458909922e-13 4.175846409111561020e-13 1.613793191961032658e-13 -6.004812227696550847e-15
6.499000000000000000e+03 4.472039794921875000e+01 -1.986485481262207031e+01 -8.006416303595401129e-15 8.807057595141762341e-14 2.401924891078620339e-14 1.841475648182988589e-13
6.500000000000000000e+03 1.019001483917236328e+01 -3.286923980712890625e+01 -7.606094980195862720e-14 1.961571909677578551e-13 3.602887167211341057e-14 -4.803849782157240678e-14
6.501000000000000000e+03 5.503816986083984375e+01 -3.022550201416015625e+01 2.101684169579509653e-13 4.103288347122313606e-13 1.861491782115601290e-13 -1.281026608575264181e-13
6.502000000000000000e+03 5.268292617797851562e+01 -2.926043128967285156e+01 -1.601283260719080226e-14 1.761411519028352468e-13 4.803849782157240678e-14 -5.604491073703601889e-14
6.503000000000000000e+03 4.778157043457031250e+01 -2.534022331237792969e+01 -6.805453688649501509e-14 4.283432603838926989e-13 1.080866150163402317e-13 -8.807057595141762341e-14
6.504000000000000000e+03 4.745200729370117188e+01 -2.495329093933105469e+01 -1.561251128379126385e-13 5.964779993712643336e-13 1.321058605389946461e-13 -1.681347389873716347e-13
6.505000000000000000e+03 2.767999839782714844e+01 -3.565088272094726562e+01 -2.814755705262978608e-14 2.395669925457644123e-13 6.342582709040200939e-14 8.506817110811876886e-15
6.506000000000000000e+03 3.142856979370117188e+01 -3.099915313720703125e+01 1.801443583605670529e-14 1.220978477827969200e-13 4.203368474684290867e-14 -1.080866150163402317e-13
6.507000000000000000e+03 1.748880767822265625e+01 -1.629591560363769531e+01 -2.201764432666758475e-13 1.801443651368306309e-13 -1.200962445539310169e-14 3.282630515067525012e-13
6.508000000000000000e+03 1.767111396789550781e+01 -1.687563133239746094e+01 4.403528797570881170e-14 -1.641315257533762506e-13 -3.602887167211341057e-14 1.521218996039172544e-13
6.509000000000000000e+03 7.585337066650390625e+01 -1.458637332916259766e+01 0.000000000000000000e+00 0.000000000000000000e+00 0.000000000000000000e+00 7.205774334422682115e-14
6.510000000000000000e+03 3.594711303710937500e+01 -1.145977020263671875e+01 -1.180946345488015359e-13 1.781427517435693608e-13 1.801443583605670529e-14 6.405133042876320904e-14
6.511000000000000000e+03 3.603604507446289062e+01 -1.270277500152587891e+01 -1.521218996039172544e-13 7.205774334422682115e-14 -2.401924891078620339e-14 -1.601283260719080226e-14
6.512000000000000000e+03 3.819849395751953125e+01 -1.397596836090087891e+01 -2.471980953266950110e-13 3.973184086424053074e-13 4.503609128420765773e-14 1.441154866884536423e-13
6.513000000000000000e+03 7.182232666015625000e+01 -2.872461509704589844e+01 -5.004010105043830980e-14 7.005614350349270714e-14 6.004812227696550847e-15 4.803849782157240678e-14
6.514000000000000000e+03 7.086629486083984375e+01 -2.807791328430175781e+01 5.204170427930421283e-14 6.805453688649501509e-14 3.602887167211341057e-14 -2.001604075898850282e-14
6.515000000000000000e+03 2.971454429626464844e+01 -1.531742668151855469e+01 -1.020818019416107336e-13 8.206576287668812530e-14 -6.004812227696550847e-15 4.203368474684290867e-14
6.516000000000000000e+03 3.009627151489257812e+01 -1.467481517791748047e+01 -3.082470259943570490e-13 -1.321058605389946461e-13 -1.321058605389946461e-13 -3.202566521438160452e-14
6.517000000000000000e+03 3.619485855102539062e+01 -3.132783126831054688e+01 -1.901523745048965680e-14 -1.511210996835501974e-13 -5.104090097080536681e-14 1.776423517833858323e-13
6.518000000000000000e+03 4.048284912109375000e+01 -1.747428131103515625e+01 -1.000802021008766196e-13 4.603689391508014594e-13 1.080866150163402317e-13 -4.803849782157240678e-14
6.519000000000000000e+03 3.665435791015625000e+01 -3.432002258300781250e+01 6.405133042876320904e-14 -6.405133042876320904e-14 0.000000000000000000e+00 1.120898214740720378e-13
6.520000000000000000e+03 5.160359191894531250e+01 -3.873315048217773438e+01 -9.832879546397069181e-14 1.408628801709971290e-13 1.276022524270134170e-14 -1.200962445539310169e-14
6.521000000000000000e+03 5.062897109985351562e+01 -3.763110351562500000e+01 -1.411130869273524713e-13 7.105694342385976414e-14 -2.101684237342145434e-14 -1.621299259126421366e-13
6.522000000000000000e+03 1.674766921997070312e+01 -1.516244029998779297e+01 -2.522020949285302960e-13 -1.080866150163402317e-13 -1.080866150163402317e-13 9.607699564314481355e-14
6.523000000000000000e+03 2.265975189208984375e+01 -2.464996910095214844e+01 4.803849782157240678e-14 1.120898214740720378e-13 4.803849782157240678e-14 -8.006416303595401129e-15
6.524000000000000000e+03 2.365041923522949219e+01 -2.768683433532714844e+01 7.506014988159157020e-14 1.751403519824681898e-13 7.506014988159157020e-14 5.204170427930421283e-14
6.525000000000000000e+03 1.542990016937255859e+01 -1.273050403594970703e+01 -2.922341730583755126e-13 1.200962445539310169e-14 -8.406736949368581735e-14 1.160930347080674219e-13
6.526000000000000000e+03 2.901548767089843750e+01 -2.994782447814941406e+01 -6.805453688649501509e-14 1.080866150163402317e-13 1.200962445539310169e-14 -1.281026608575264181e-13
6.527000000000000000e+03 5.446856307983398438e+01 -2.987507820129394531e+01 -1.401122870069854143e-13 2.602085213965210642e-13 3.602887167211341057e-14 5.204170427930421283e-14
6.528000000000000000e+03 5.417063903808593750e+01 -3.050983047485351562e+01 1.200962445539310169e-14 1.881507780522942430e-13 6.004811719476782494e-14 -9.207378240914942946e-14
6.529000000000000000e+03 6.153469848632812500e+01 -2.450434303283691406e+01 -1.696359388679222202e-13 6.455173038894673754e-14 -3.152526186606628700e-14 -2.281828697346666157e-13
6.530000000000000000e+03 4.952335357666015625e+01 -8.992297172546386719e+00 3.382710778154773834e-13 2.822261738547049426e-13 1.861491782115601290e-13 4.403528797570881170e-14
6.531000000000000000e+03 4.908519744873046875e+01 -9.984214782714843750e+00 1.511210996835501974e-13 3.392718777358444404e-13 1.471179000020819694e-13 5.604491073703601889e-14
6.532000000000000000e+03 4.933591842651367188e+01 -1.064775276184082031e+01 1.421138868477195283e-13 1.981587908084919691e-13 1.020818019416107336e-13 -8.006416303595401129e-15
6.533000000000000000e+03 5.094915008544921875e+01 -9.733767509460449219e+00 1.135910281308862013e-13 2.316856559034241592e-13 1.035830085984248972e-13 -3.002405859738391247e-14
6.534000000000000000e+03 5.392929553985595703e+00 -1.053297805786132812e+01 3.002405859738391247e-14 1.501202997631831404e-13 5.404330750817011586e-14 -1.200962445539310169e-14
6.535000000000000000e+03 5.052392959594726562e+01 -5.527247428894042969e+00 1.120898214740720378e-13 3.682951296365977178e-13 1.441154866884536423e-13 -6.004811719476782494e-14
6.536000000000000000e+03 5.781261444091796875e+01 -1.887283134460449219e+01 1.861491782115601290e-13 3.402726844324750755e-14 6.605293026949732305e-14 -2.321860694161348437e-13
6.537000000000000000e+03 4.742773437500000000e+01 -2.711631011962890625e+01 -2.982389996856321668e-13 2.381908689383371858e-13 -1.801443583605670529e-14 -1.681347389873716347e-13
6.538000000000000000e+03 2.624177742004394531e+01 -2.327011108398437500e+01 2.281828697346666157e-13 2.121700303512122354e-13 1.321058605389946461e-13 -3.202566521438160452e-14
6.539000000000000000e+03 2.648420524597167969e+01 -2.253993606567382812e+01 2.041636038832214672e-13 -4.003208151797700565e-15 6.004811719476782494e-14 -1.841475648182988589e-13
6.540000000000000000e+03 5.234475326538085938e+01 -3.277629470825195312e+01 1.281026608575264181e-13 3.202566521438160452e-14 4.803849782157240678e-14 -1.921539912862896271e-13
6.541000000000000000e+03 2.678812408447265625e+01 -2.912492179870605469e+01 -2.261812563414053456e-13 4.063256079257088205e-13 5.404330750817011586e-14 5.604491073703601889e-14
6.542000000000000000e+03 2.698724365234375000e+01 -3.140680313110351562e+01 3.002406113848275424e-15 3.672943297162306608e-13 1.110890215537049808e-13 7.205774334422682115e-14
6.543000000000000000e+03 2.715077972412109375e+01 -2.002769088745117188e+01 1.601283260719080226e-14 1.441154866884536423e-13 4.803849782157240678e-14 1.681347389873716347e-13
6.544000000000000000e+03 7.500080108642578125e+01 -1.893385314941406250e+01 6.405133042876320904e-14 2.562053217150528361e-13 9.607699564314481355e-14 1.681347389873716347e-13
6.545000000000000000e+03 7.704324340820312500e+01 -1.816545867919921875e+01 -6.605293026949732305e-14 -7.405934996122451319e-14 -4.203368474684290867e-14 -1.521218996039172544e-13
6.546000000000000000e+03 3.649214553833007812e+01 -1.366561317443847656e+01 -3.652927298754965468e-13 2.552045217946857791e-13 -3.302646513474866152e-14 5.604491073703601889e-14
6.547000000000000000e+03 7.852402687072753906e+00 -2.504686546325683594e+01 -5.804651735403371093e-14 1.581267126786467525e-13 3.002405859738391247e-14 -2.802245740139708285e-13
6.548000000000000000e+03 9.414441108703613281e+00 -2.554773330688476562e+01 -1.441154866884536423e-13 -1.761411519028352468e-13 -9.607699564314481355e-14 -1.321058605389946461e-13
6.549000000000000000e+03 2.112168312072753906e+01 -1.567806243896484375e+01 -1.120898214740720378e-13 2.722181475459800604e-13 4.803849782157240678e-14 1.601283260719080226e-14
6.550000000000000000e+03 1.967993545532226562e+01 -1.534195709228515625e+01 -7.806255641895631925e-14 5.804651735403371093e-14 -6.004812227696550847e-15 3.602887167211341057e-14
6.551000000000000000e+03 5.763693237304687500e+01 -1.816001892089843750e+01 -6.405133042876320904e-14 6.405133042876320904e-14 0.000000000000000000e+00 -1.080866150163402317e-13
6.552000000000000000e+03 3.554018402099609375e+01 -6.380833148956298828e+00 6.805453688649501509e-14 2.121700303512122354e-13 8.406736949368581735e-14 -1.881507780522942430e-13
6.553000000000000000e+03 3.443210601806640625e+01 -7.381830215454101562e+00 1.210970478624298630e-13 1.891515779726613000e-13 9.307458910578006450e-14 -1.681347389873716347e-13
6.554000000000000000e+03 5.745801925659179688e+01 -2.575804710388183594e+01 -2.962373998448980528e-13 3.763015561045884860e-13 2.401924891078620339e-14 0.000000000000000000e+00
6.555000000000000000e+03 1.382306003570556641e+01 -1.091532325744628906e+01 -3.482791041242022656e-13 -1.200962445539310169e-14 -1.080866150163402317e-13 2.722181475459800604e-13
6.556000000000000000e+03 1.712094497680664062e+01 -2.554990005493164062e+01 1.601283260719080226e-13 1.601283260719080226e-13 9.607699564314481355e-14 8.006416303595401129e-15
6.557000000000000000e+03 1.932641601562500000e+01 -2.348887443542480469e+01 1.200962445539310169e-14 -2.922341730583755126e-13 -8.406736949368581735e-14 7.606094980195862720e-14
6.558000000000000000e+03 5.091476058959960938e+01 -2.892497634887695312e+01 1.626303258728256651e-13 2.527025084412409806e-13 1.245998475837145625e-13 -1.441154866884536423e-13
6.559000000000000000e+03 9.443564414978027344e+00 -3.602196502685546875e+01 1.198460411857074637e-13 1.728885453853787335e-13 8.782037597132585915e-14 3.753007642310344279e-16
6.560000000000000000e+03 1.725678825378417969e+01 -1.519064807891845703e+01 -1.401122870069854143e-13 2.602085213965210642e-13 3.602887167211341057e-14 2.642117210779892922e-13
6.561000000000000000e+03 4.288822937011718750e+01 -1.604585075378417969e+01 -1.741395520621011328e-13 1.541235129971785245e-13 -6.004812227696550847e-15 7.606094980195862720e-14
6.562000000000000000e+03 4.541491699218750000e+01 -1.709818458557128906e+01 -2.281828697346666157e-13 2.682149478645118323e-13 1.200962445539310169e-14 4.003208151797700565e-14
6.563000000000000000e+03 7.580664825439453125e+01 -2.926874351501464844e+01 5.604491073703601889e-14 2.401924891078620339e-14 2.401924891078620339e-14 -1.601283260719080226e-14
6.564000000000000000e+03 6.319207382202148438e+01 -2.326480674743652344e+01 -1.321058605389946461e-13 1.200962445539310169e-14 -3.602887167211341057e-14 -1.240994476235310340e-13
6.565000000000000000e+03 6.314826583862304688e+01 -2.408987808227539062e+01 2.141716301919463494e-13 3.662935297958636038e-13 1.741395520621011328e-13 -4.003208151797700565e-14
6.566000000000000000e+03 4.001031494140625000e+01 -1.432395648956298828e+01 -4.623705389915355735e-13 1.220978477827969200e-13 -1.020818019416107336e-13 -1.040834085586084257e-13
6.567000000000000000e+03 4.392234039306640625e+01 -1.774318885803222656e+01 -5.404330750817011586e-14 1.140914348673333079e-13 1.801443583605670529e-14 -4.803849782157240678e-14
6.568000000000000000e+03 4.512429046630859375e+01 -1.858547019958496094e+01 -7.806255641895631925e-14 5.804651735403371093e-14 -6.004812227696550847e-15 2.401924891078620339e-14
6.569000000000000000e+03 2.725634002685546875e+01 -2.413011360168457031e+01 1.586271126388302810e-13 -2.351884725653678038e-14 4.053248147816053415e-14 6.204972381176551699e-14
6.570000000000000000e+03 1.232591152191162109e+01 -2.530348396301269531e+01 4.803849782157240678e-14 -2.081668171172168513e-13 -4.803849782157240678e-14 1.761411519028352468e-13
6.571000000000000000e+03 5.407739639282226562e+01 -2.697767639160156250e+01 -1.991596042813861822e-13 1.891515779726613000e-13 -3.002406113848275424e-15 1.431146867680865853e-13
6.572000000000000000e+03 5.392005920410156250e+01 -2.823329925537109375e+01 -3.702967498061225660e-14 1.671339390670045777e-13 3.903127820947815962e-14 1.160930347080674219e-13
6.573000000000000000e+03 2.831746482849121094e+01 -3.237238693237304688e+01 -2.802245536851800944e-14 3.082470259943570490e-13 8.406736949368581735e-14 1.200962445539310169e-14
6.574000000000000000e+03 3.007933235168457031e+01 -2.901697158813476562e+01 -5.904731727440076794e-14 2.892317732972743416e-13 6.905533680686207210e-14 -1.501202929869195624e-14
6.575000000000000000e+03 6.966348266601562500e+01 -2.992181968688964844e+01 7.359022245745361346e-14 2.250866322755368243e-13 8.960305506464441572e-14 7.548236531261173776e-14
6.576000000000000000e+03 3.876990890502929688e+01 -1.369096946716308594e+01 -4.903929909719217939e-13 1.100882216333379238e-13 -1.140914348673333079e-13 -2.401924891078620339e-14
6.577000000000000000e+03 2.626204490661621094e+01 -2.392981338500976562e+01 4.403528797570881170e-14 -1.641315257533762506e-13 -3.602887167211341057e-14 3.202566521438160452e-14
6.578000000000000000e+03 3.670823669433593750e+01 -3.069459724426269531e+01 7.205774334422682115e-14 8.006416303595401129e-15 2.401924891078620339e-14 6.480193036903850179e-14
6.579000000000000000e+03 2.857524871826171875e+01 -3.147848320007324219e+01 -1.601283260719080226e-13 1.601283260719080226e-13 0.000000000000000000e+00 1.601283260719080226e-14
6.580000000000000000e+03 3.120590019226074219e+01 -3.007331657409667969e+01 -1.741395520621011328e-13 1.541235129971785245e-13 -6.004812227696550847e-15 -1.040834085586084257e-13
6.581000000000000000e+03 3.456903839111328125e+01 -3.189963531494140625e+01 8.006416303595401129e-14 8.006416303595401129e-14 4.803849782157240678e-14 -4.753809447325708926e-14
6.582000000000000000e+03 3.626686096191406250e+01 -3.250824356079101562e+01 3.402726844324750755e-14 2.602085213965210642e-14 1.801443583605670529e-14 2.031628039628544102e-13
6.583000000000000000e+03 3.464502334594726562e+01 -3.092048263549804688e+01 -2.502005094873562853e-15 -9.257418236933295796e-14 -2.852285871683332696e-14 -7.205774334422682115e-14
6.584000000000000000e+03 5.139879226684570312e+01 -3.683824539184570312e+01 -7.205774334422682115e-14 1.521218996039172544e-13 2.401924891078620339e-14 -2.401924891078620339e-14
6.585000000000000000e+03 5.274601745605468750e+01 -3.616723251342773438e+01 -6.004811719476782494e-14 2.001604075898850282e-14 -1.200962445539310169e-14 -4.003208151797700565e-15
6.586000000000000000e+03 7.582443237304687500e+01 -4.160972976684570312e+01 2.401924891078620339e-14 1.761411519028352468e-13 6.004811719476782494e-14 -4.603689120457471473e-14
6.587000000000000000e+03 6.179484367370605469e+00 -3.979057693481445312e+01 -2.652125379390152943e-14 1.716375387086563342e-13 4.353488801552528320e-14 -2.001604075898850282e-15
6.588000000000000000e+03 4.730551719665527344e+00 -3.739248275756835938e+01 -7.205774334422682115e-14 3.122502256758252770e-13 7.205774334422682115e-14 7.405934996122451319e-14
6.589000000000000000e+03 2.755799531936645508e+00 -4.011226654052734375e+01 -4.203368474684290867e-14 3.022421993671003948e-13 7.806255641895631925e-14 1.200962445539310169e-14
6.590000000000000000e+03 4.076648712158203125e+00 -4.026989364624023438e+01 -4.503609128420765773e-14 9.507618894651417851e-14 1.501202929869195624e-14 2.602085213965210642e-14
6.591000000000000000e+03 2.743615531921386719e+01 -3.753964996337890625e+01 2.502005052521915490e-14 2.451964954859608969e-13 8.106496295632106830e-14 -3.602887167211341057e-14
6.592000000000000000e+03 2.797337532043457031e+01 -3.323403167724609375e+01 -5.904731727440076794e-14 2.491996951674291250e-13 5.704571743366665393e-14 4.803849782157240678e-14
6.593000000000000000e+03 2.889975738525390625e+01 -3.373398208618164062e+01 -1.351082738526229732e-13 1.251002475438980910e-13 -3.002406113848275424e-15 -3.202566521438160452e-14
6.594000000000000000e+03 7.380999755859375000e+01 -3.698402023315429688e+01 -3.002406113848275424e-15 1.130906281707026728e-13 3.302646513474866152e-14 2.401924891078620339e-14
6.595000000000000000e+03 5.756078720092773438e+01 -4.173158645629882812e+01 -7.205774334422682115e-14 -8.006416303595401129e-15 -2.401924891078620339e-14 -7.005614350349270714e-14
6.596000000000000000e+03 1.065696239471435547e+01 -3.931090927124023438e+01 -3.702967498061225660e-14 4.703769451307356075e-14 3.002406113848275424e-15 -5.404330750817011586e-14
6.597000000000000000e+03 6.943533325195312500e+01 -3.513670730590820312e+01 -1.120898214740720378e-13 2.722181475459800604e-13 4.803849782157240678e-14 7.205774334422682115e-14
6.598000000000000000e+03 6.235094070434570312e+01 -9.731674194335937500e+00 -1.075862150561567032e-13 -1.376102736535406157e-13 -7.355895000104098469e-14 -3.602887167211341057e-14
6.599000000000000000e+03 6.358523559570312500e+01 -8.702864646911621094e+00 -2.662133209187234062e-13 -1.140914348673333079e-13 -1.140914348673333079e-13 4.003208151797700565e-15
6.600000000000000000e+03 7.531538391113281250e+01 -1.988228607177734375e+01 6.004812227696550847e-15 9.407538902614712151e-14 3.002405859738391247e-14 -6.405133042876320904e-14
6.601000000000000000e+03 6.408116912841796875e+01 -1.215896320343017578e+01 5.004010105043830980e-14 -7.005614350349270714e-14 -6.004812227696550847e-15 -4.003208151797700565e-14
6.602000000000000000e+03 2.731747627258300781e+01 -1.915420722961425781e+01 1.040834085586084257e-13 1.361090737729900302e-13 7.205774334422682115e-14 -1.881507780522942430e-13
6.603000000000000000e+03 5.814363479614257812e+01 -2.272431755065917969e+01 -5.204170427930421283e-14 2.522020949285302960e-13 6.004811719476782494e-14 -8.006416303595401129e-14
6.604000000000000000e+03 5.709703063964843750e+01 -2.278295898437500000e+01 2.141716301919463494e-13 3.662935297958636038e-13 1.741395520621011328e-13 -2.401924687790712998e-13
6.605000000000000000e+03 4.275225830078125000e+01 -2.539466857910156250e+01 -1.651323256737433076e-13 9.507618894651417851e-14 -2.101684237342145434e-14 6.430153040885497329e-14
6.606000000000000000e+03 1.389738082885742188e+01 -1.155144214630126953e+01 -2.421940957248597259e-13 2.622101212372551782e-13 6.004812227696550847e-15 -1.401122870069854143e-13
6.607000000000000000e+03 6.052251052856445312e+01 -1.246497058868408203e+01 -1.170938346284344789e-13 -1.130906281707026728e-13 -6.905533680686207210e-14 -4.403528797570881170e-14
6.608000000000000000e+03 6.243310165405273438e+01 -2.401225662231445312e+01 -2.301844695754007297e-13 1.301042606982605321e-13 -3.002405859738391247e-14 -1.681347389873716347e-13
6.609000000000000000e+03 5.692308425903320312e+01 -1.548324871063232422e+01 4.203368474684290867e-14 2.582069215557869502e-13 9.007218256841531545e-14 -2.021620040424873532e-13
6.610000000000000000e+03 5.880815124511718750e+01 -1.253826427459716797e+01 5.604491073703601889e-14 2.401924891078620339e-14 2.401924891078620339e-14 7.606094980195862720e-14
6.611000000000000000e+03 2.462879562377929688e+01 -2.049322700500488281e+01 1.160930347080674219e-13 4.003208151797700565e-15 3.602887167211341057e-14 -5.604491073703601889e-14
6.612000000000000000e+03 4.932641220092773438e+01 -6.650225639343261719e+00 5.664539475501439991e-13 3.342678781340091554e-13 2.702165477052459464e-13 7.205774334422682115e-14
6.613000000000000000e+03 5.031713104248046875e+01 -6.276905536651611328e+00 5.164138431115739003e-13 2.441956955655938399e-13 2.281828697346666157e-13 1.401122870069854143e-13
6.614000000000000000e+03 1.314630317687988281e+01 -1.143568706512451172e+01 -2.602085213965210642e-13 -2.001604075898850282e-14 -8.406736949368581735e-14 -4.003208151797700565e-14
6.615000000000000000e+03 6.033434295654296875e+01 -1.154474639892578125e+01 4.666239454293591438e-14 -1.630056224548315225e-13 -3.490296837356868243e-14 -4.003208151797700565e-14
6.616000000000000000e+03 6.459769439697265625e+01 -1.449270439147949219e+01 1.921539912862896271e-13 -3.202566521438160452e-14 4.803849782157240678e-14 -3.602887167211341057e-14
6.617000000000000000e+03 7.669902038574218750e+01 -1.310082340240478516e+01 6.805453688649501509e-14 -1.080866150163402317e-13 -1.200962445539310169e-14 4.803849782157240678e-14
6.618000000000000000e+03 7.616201019287109375e+01 -1.377026271820068359e+01 1.040834085586084257e-13 1.361090737729900302e-13 7.205774334422682115e-14 1.080866150163402317e-13
6.619000000000000000e+03 5.260640716552734375e+01 -2.742820739746093750e+01 -1.666335391068210492e-13 1.115894215138885093e-13 -1.651323256737433076e-14 1.781427517435693608e-13
6.620000000000000000e+03 4.336785888671875000e+01 -1.873387145996093750e+01 5.079070099071360256e-14 2.176744400776264160e-14 2.176744400776264160e-14 -8.907137587178468041e-14
6.621000000000000000e+03 5.581994247436523438e+01 -2.752176856994628906e+01 1.130906281707026728e-13 2.772221471478153454e-13 1.170938346284344789e-13 -9.607699564314481355e-14
6.622000000000000000e+03 5.735929489135742188e+01 -1.691087341308593750e+01 1.441154866884536423e-13 3.362694779747432694e-13 1.441154866884536423e-13 -1.281026608575264181e-13
6.623000000000000000e+03 1.584722518920898438e+01 -1.053918552398681641e+01 -1.971579908881249121e-13 -1.931547912066566841e-13 -1.170938346284344789e-13 3.202566521438160452e-14
6.624000000000000000e+03 5.529183197021484375e+01 -2.653943252563476562e+01 -7.205774334422682115e-14 1.521218996039172544e-13 2.401924891078620339e-14 5.604491073703601889e-14
6.625000000000000000e+03 3.508553695678710938e+01 -9.541481018066406250e+00 -1.180946345488015359e-13 1.801443583605670529e-14 -3.002405859738391247e-14 -1.861491782115601290e-13
6.626000000000000000e+03 4.754480361938476562e+00 -1.212521076202392578e+01 -1.826463581614846954e-14 2.209270364306875623e-13 6.079872391130669573e-14 9.707779556351187056e-14
6.627000000000000000e+03 3.264329910278320312e+01 -8.024628639221191406e+00 -4.403528797570881170e-14 4.003208151797700565e-15 -1.200962445539310169e-14 4.003208151797700565e-14
6.628000000000000000e+03 4.977745056152343750e+01 -7.595847606658935547e+00 5.194162157676207592e-13 1.311050606186275891e-13 1.951563910473907981e-13 1.601283260719080226e-14
6.629000000000000000e+03 5.091165542602539062e+01 -2.705995368957519531e+01 -1.361090737729900302e-13 2.161732300326804634e-13 2.401924891078620339e-14 -8.406736949368581735e-14
6.630000000000000000e+03 4.797711563110351562e+01 -1.324345970153808594e+01 -2.001604075898850282e-14 2.201764432666758475e-13 6.004811719476782494e-14 -5.604491073703601889e-14
6.631000000000000000e+03 4.873871231079101562e+01 -1.370707702636718750e+01 -7.205774334422682115e-14 1.521218996039172544e-13 2.401924891078620339e-14 -1.441154866884536423e-13
6.632000000000000000e+03 4.895635986328125000e+01 -1.444310092926025391e+01 2.001604075898850282e-15 1.381106736137241442e-13 4.203368474684290867e-14 8.006416303595401129e-14
6.633000000000000000e+03 5.700954437255859375e+01 -2.489740562438964844e+01 -3.282630515067525012e-13 4.083272077664429345e-13 2.401924891078620339e-14 -2.321860694161348437e-13
6.634000000000000000e+03 3.584027862548828125e+01 -1.328801441192626953e+01 -4.043240080849747065e-13 -1.961571909677578551e-13 -1.801443651368306309e-13 -8.006416303595401129e-15
6.635000000000000000e+03 5.751817703247070312e+01 -1.257675266265869141e+01 -1.401122768425900472e-14 3.142518255165593910e-13 9.007218256841531545e-14 -3.522823038056704936e-13
6.636000000000000000e+03 3.879870605468750000e+01 -1.518666648864746094e+01 -3.167538388700041896e-13 2.216776431472264330e-13 -2.852285871683332696e-14 6.255012377194904549e-14
6.637000000000000000e+03 5.741526794433593750e+01 -1.631020164489746094e+01 1.521218996039172544e-13 2.481988952470620680e-13 1.200962343895356499e-13 -3.122502256758252770e-13
6.638000000000000000e+03 6.908296966552734375e+01 -3.042941093444824219e+01 1.281026608575264181e-13 3.202566521438160452e-14 4.803849782157240678e-14 -2.602085213965210642e-14
6.639000000000000000e+03 6.793843078613281250e+01 -2.894244575500488281e+01 1.841475648182988589e-13 2.161732300326804634e-13 1.200962343895356499e-13 7.806255641895631925e-14
6.640000000000000000e+03 3.233214950561523438e+01 -1.001502227783203125e+01 2.742197473867141744e-13 2.602085213965210642e-14 9.007218256841531545e-14 1.361090737729900302e-13
6.641000000000000000e+03 5.019840240478515625e+01 -8.446896553039550781e+00 4.203368339159019307e-13 1.801443651368306309e-13 1.801443651368306309e-13 9.607699564314481355e-14
6.642000000000000000e+03 3.040173530578613281e+01 -1.220109748840332031e+01 -1.596279261117244941e-13 -2.056648173162992088e-13 -1.095878216731543953e-13 9.607699564314481355e-14
6.643000000000000000e+03 3.281903076171875000e+01 -1.241312503814697266e+01 -4.323464600653609269e-13 1.120898214740720378e-13 -9.607699564314481355e-14 1.391114735340912012e-13
6.644000000000000000e+03 1.529411602020263672e+01 -9.817100524902343750e+00 -6.505213034913026604e-15 2.717177340332693758e-13 7.956375629950690476e-14 9.007218256841531545e-14
6.645000000000000000e+03 1.398338413238525391e+01 -8.686073303222656250e+00 -3.002405859738391247e-14 -7.005614350349270714e-14 -3.002405859738391247e-14 3.602887167211341057e-14
6.646000000000000000e+03 1.151242542266845703e+01 -2.562064933776855469e+01 -7.506014649345978118e-15 4.253408470702643718e-14 1.050842118671072717e-14 1.641315257533762506e-13
6.647000000000000000e+03 4.327708053588867188e+01 -2.221863555908203125e+01 2.266816563015888741e-13 1.886511780124777715e-13 1.245998475837145625e-13 -1.240994476235310340e-13
6.648000000000000000e+03 1.649546432495117188e+01 -2.340203666687011719e+01 2.201764432666758475e-13 -2.001604075898850282e-14 6.004811719476782494e-14 2.441956955655938399e-13
6.649000000000000000e+03 1.951668548583984375e+01 -2.488052368164062500e+01 1.441154866884536423e-13 -1.441154866884536423e-13 0.000000000000000000e+00 0.000000000000000000e+00
6.650000000000000000e+03 2.909824562072753906e+01 -2.805800437927246094e+01 -1.341074739322559162e-13 2.742197473867141744e-13 4.203368474684290867e-14 -2.301844560228735737e-14
6.651000000000000000e+03 4.151373291015625000e+01 -2.564746665954589844e+01 -6.004812227696550847e-15 2.261812563414053456e-13 6.605293026949732305e-14 8.807057595141762341e-14
6.652000000000000000e+03 4.417132568359375000e+01 -2.443417739868164062e+01 2.401924891078620339e-14 5.604491073703601889e-14 2.401924891078620339e-14 -2.001604075898850282e-14
6.653000000000000000e+03 4.451428222656250000e+01 -2.569508552551269531e+01 -1.771419518232023038e-13 1.070858150959731747e-13 -2.101684237342145434e-14 -4.803849782157240678e-14
6.654000000000000000e+03 1.643790435791015625e+01 -2.394790840148925781e+01 3.803047490097931360e-14 -2.582069215557869502e-13 -6.605293026949732305e-14 2.802245740139708285e-13
6.655000000000000000e+03 1.706638336181640625e+01 -2.156213569641113281e+01 1.521218996039172544e-13 2.481988952470620680e-13 1.200962343895356499e-13 5.404330750817011586e-14
6.656000000000000000e+03 1.757435417175292969e+01 -2.102215003967285156e+01 1.130906281707026728e-13 1.571259127582796955e-13 8.106496295632106830e-14 1.120898214740720378e-13
6.657000000000000000e+03 3.976887893676757812e+01 -1.500918006896972656e+01 -1.321058605389946461e-13 3.322662782932750414e-13 6.004811719476782494e-14 2.001604075898850282e-14
6.658000000000000000e+03 4.003896331787109375e+01 -1.597730445861816406e+01 -3.622903301143953758e-13 2.221780431074099615e-13 -4.203368474684290867e-14 -8.006416303595401129e-15
6.659000000000000000e+03 3.274087905883789062e+00 -2.551823234558105469e+01 -9.207378240914942946e-14 5.204170427930421283e-14 -1.200962445539310169e-14 -4.803849782157240678e-14
6.660000000000000000e+03 7.683051300048828125e+01 -2.957560920715332031e+01 -1.601283260719080226e-14 3.362694779747432694e-13 9.607699564314481355e-14 9.207378240914942946e-14
6.661000000000000000e+03 7.547994995117187500e+01 -3.184398841857910156e+01 -1.401122768425900472e-14 3.142518255165593910e-13 9.007218256841531545e-14 5.204170427930421283e-14
6.662000000000000000e+03 3.676684141159057617e+00 -1.020255756378173828e+01 -1.801443651368306309e-13 6.004811719476782494e-14 -3.602887167211341057e-14 6.405133042876320904e-14
6.663000000000000000e+03 8.341088294982910156e+00 -4.289332389831542969e+00 8.006416303595401129e-14 8.006416303595401129e-14 4.803849782157240678e-14 8.006416303595401129e-14
6.664000000000000000e+03 9.437168121337890625e+00 -1.007268047332763672e+01 -1.401122870069854143e-13 -6.004811719476782494e-14 -6.004811719476782494e-14 1.876503780921107145e-13
6.665000000000000000e+03 6.210854530334472656e+00 -5.985913276672363281e+00 -1.311050606186275891e-13 -3.903127820947815962e-14 -5.104090097080536681e-14 6.255012377194904549e-14
6.666000000000000000e+03 4.093908309936523438e+00 -4.794237613677978516e+00 1.881507780522942430e-13 -1.481186999224490264e-13 1.200962445539310169e-14 1.281026608575264181e-13
6.667000000000000000e+03 2.949529409408569336e+00 -5.945594787597656250e+00 2.001604075898850282e-14 1.000802021008766196e-13 3.602887167211341057e-14 2.802245536851800944e-14
6.668000000000000000e+03 1.033558750152587891e+01 -9.991707801818847656e+00 -1.561251128379126385e-13 -4.403528797570881170e-14 -6.004811719476782494e-14 2.276824562219559311e-13
6.669000000000000000e+03 6.995096683502197266e+00 -4.406291961669921875e+00 -1.120898214740720378e-13 -4.803849782157240678e-14 -4.803849782157240678e-14 -6.805453688649501509e-14
6.670000000000000000e+03 7.152872085571289062e+00 -4.997495651245117188e+00 -4.003208151797700565e-15 4.403528797570881170e-14 1.200962445539310169e-14 1.240994476235310340e-13
6.671000000000000000e+03 6.294100761413574219e+00 -4.498610019683837891e+00 -1.200962343895356499e-13 4.003208151797700565e-14 -2.401924891078620339e-14 3.122502256758252770e-13
6.672000000000000000e+03 5.112960815429687500e+00 -5.688122272491455078e+00 1.000802037949425141e-14 5.004010105043830980e-14 1.801443583605670529e-14 4.403528797570881170e-14
6.673000000000000000e+03 2.030423545837402344e+01 -1.621522903442382812e+01 -6.805453688649501509e-14 1.080866150163402317e-13 1.200962445539310169e-14 8.406736949368581735e-14
6.674000000000000000e+03 2.150411796569824219e+01 -1.665919685363769531e+01 -2.401924891078620339e-14 -5.604491073703601889e-14 -2.401924891078620339e-14 1.381106736137241442e-13
6.675000000000000000e+03 7.494596862792968750e+01 -3.569558334350585938e+01 -4.003208151797700565e-15 2.041636038832214672e-13 6.004811719476782494e-14 9.207378240914942946e-14
6.676000000000000000e+03 7.606222534179687500e+01 -3.377262115478515625e+01 -1.801443583605670529e-14 5.184154429523080143e-13 1.501202997631831404e-13 -7.606094980195862720e-14
6.677000000000000000e+03 7.486591339111328125e+01 -2.758784484863281250e+01 1.060850151756061177e-13 2.742197473867141744e-13 1.140914348673333079e-13 0.000000000000000000e+00
6.678000000000000000e+03 7.627008056640625000e+01 -2.940067672729492188e+01 4.603689120457471473e-14 2.942358000041639388e-13 1.020818019416107336e-13 8.807057595141762341e-14
6.679000000000000000e+03 3.509447860717773438e+01 -4.863294124603271484e+00 6.405133042876320904e-14 2.562053217150528361e-13 9.607699564314481355e-14 -1.020818019416107336e-13
6.680000000000000000e+03 3.554074096679687500e+01 -1.243713378906250000e+01 -4.898925774592111093e-13 6.455173038894673754e-14 -1.276022608973428896e-13 4.203368474684290867e-14
6.681000000000000000e+03 7.689495086669921875e+01 -2.811427307128906250e+01 3.803047490097931360e-14 6.204972381176551699e-14 3.002405859738391247e-14 9.207378240914942946e-14
6.682000000000000000e+03 7.685355377197265625e+01 -2.738798141479492188e+01 3.602887167211341057e-14 2.441956955655938399e-13 8.406736949368581735e-14 5.204170427930421283e-14
6.683000000000000000e+03 7.694057464599609375e+01 -2.499057388305664062e+01 1.961571909677578551e-13 4.043240080849747065e-13 1.801443651368306309e-13 7.205774334422682115e-14
6.684000000000000000e+03 7.588538360595703125e+01 -2.553925704956054688e+01 1.200962445539310169e-14 3.482791041242022656e-13 1.080866150163402317e-13 6.805453688649501509e-14
6.685000000000000000e+03 7.639011383056640625e+01 -1.169386577606201172e+01 3.803047490097931360e-14 6.204972381176551699e-14 3.002405859738391247e-14 9.207378240914942946e-14
6.686000000000000000e+03 7.686655426025390625e+01 -2.319287300109863281e+01 1.561251128379126385e-13 2.041636038832214672e-13 1.080866150163402317e-13 -8.006416303595401129e-15
6.687000000000000000e+03 7.500842285156250000e+01 -1.412296199798583984e+01 7.205774334422682115e-14 -1.521218996039172544e-13 -2.401924891078620339e-14 -5.604491073703601889e-14
6.688000000000000000e+03 7.673054504394531250e+01 -1.380822086334228516e+01 2.341876692568689577e-13 4.663737386730038015e-13 2.101684169579509653e-13 -1.441154866884536423e-13
6.689000000000000000e+03 7.709980773925781250e+01 -1.874343490600585938e+01 1.160930347080674219e-13 4.003208151797700565e-15 3.602887167211341057e-14 7.205774334422682115e-14
6.690000000000000000e+03 7.687590026855468750e+01 -2.009796524047851562e+01 1.000802037949425141e-14 5.004010105043830980e-14 1.801443583605670529e-14 -1.000802021008766196e-13
6.691000000000000000e+03 7.697094726562500000e+01 -1.936620140075683594e+01 8.006416303595401129e-14 -8.006416303595401129e-14 0.000000000000000000e+00 1.200962343895356499e-13
6.692000000000000000e+03 7.690497589111328125e+01 -2.246797180175781250e+01 -5.604491073703601889e-14 -2.401924891078620339e-14 -2.401924891078620339e-14 1.441154866884536423e-13
6.693000000000000000e+03 7.688261413574218750e+01 -2.170211029052734375e+01 -4.803849782157240678e-14 4.803849782157240678e-14 0.000000000000000000e+00 2.401924891078620339e-14
6.694000000000000000e+03 7.685943603515625000e+01 -2.090290069580078125e+01 -2.201764398785440585e-14 8.206576287668812530e-14 1.801443583605670529e-14 2.802245536851800944e-14
6.695000000000000000e+03 7.662413787841796875e+01 -1.629421424865722656e+01 6.004812227696550847e-15 -2.261812563414053456e-13 -6.605293026949732305e-14 -8.006416303595401129e-14
6.696000000000000000e+03 7.673287963867187500e+01 -1.487827301025390625e+01 -7.005614350349270714e-14 -3.002405859738391247e-14 -3.002405859738391247e-14 -1.601283260719080226e-14
6.697000000000000000e+03 7.430768585205078125e+01 -1.642713546752929688e+01 8.206576287668812530e-14 2.181748434259417335e-13 9.007218256841531545e-14 -1.601283260719080226e-14
6.698000000000000000e+03 7.631999969482421875e+01 -1.690715789794921875e+01 6.004811719476782494e-14 -1.801443651368306309e-13 -3.602887167211341057e-14 -9.407538902614712151e-14
6.699000000000000000e+03 1.775682830810546875e+01 -1.335536575317382812e+01 -1.025822086780578402e-13 -2.727185339536364328e-13 -1.125902282105191443e-13 9.207378240914942946e-14
6.700000000000000000e+03 1.660041236877441406e+01 -1.316507625579833984e+01 -2.116696303910287069e-13 -2.737193609790578019e-13 -1.456166865690042278e-13 4.003208151797700565e-14
6.701000000000000000e+03 7.542350006103515625e+01 -2.667142105102539062e+01 1.100882216333379238e-13 2.301844695754007297e-13 1.020818019416107336e-13 5.204170427930421283e-14
6.702000000000000000e+03 4.243978023529052734e+00 -2.602241516113281250e+01 3.402726844324750755e-14 1.060850151756061177e-13 4.203368474684290867e-14 8.807057595141762341e-14
6.703000000000000000e+03 3.302237319946289062e+01 -5.248348712921142578e+00 -6.805453688649501509e-14 1.080866150163402317e-13 1.200962445539310169e-14 -1.100882216333379238e-13
6.704000000000000000e+03 4.134584426879882812e+00 -3.031333160400390625e+01 1.000802037949425141e-14 5.004010105043830980e-14 1.801443583605670529e-14 -9.207378240914942946e-14
6.705000000000000000e+03 4.841089630126953125e+01 -5.341154575347900391e+00 2.592077214761540072e-13 7.105694342385976414e-14 9.907939540424598457e-14 -1.621299259126421366e-13
6.706000000000000000e+03 3.367333889007568359e+00 -2.274558639526367188e+01 5.604491073703601889e-14 2.401924891078620339e-14 2.401924891078620339e-14 0.000000000000000000e+00
6.707000000000000000e+03 3.209590673446655273e+00 -2.164590263366699219e+01 3.602887167211341057e-14 8.406736949368581735e-14 3.602887167211341057e-14 -4.903929774193946378e-14
6.708000000000000000e+03 5.693577766418457031e+00 -2.549393272399902344e+01 -8.807057595141762341e-14 1.681347389873716347e-13 2.401924891078620339e-14 -8.006416303595401129e-15
6.709000000000000000e+03 6.828365325927734375e+01 -2.775707054138183594e+01 3.562855034871387216e-13 2.441956955655938399e-13 1.801443651368306309e-13 6.405133042876320904e-14
6.710000000000000000e+03 6.687624359130859375e+01 -2.687606048583984375e+01 1.115894215138885093e-13 9.357498906596359300e-14 6.154932385158198849e-14 -6.004811719476782494e-14
6.711000000000000000e+03 3.736353158950805664e+00 -2.212539291381835938e+01 6.767923352822557970e-14 1.662582289722880358e-13 7.018124010540680024e-14 0.000000000000000000e+00
6.712000000000000000e+03 3.067572593688964844e+00 -1.341681098937988281e+01 1.941555911270237411e-13 -5.404330750817011586e-14 4.203368474684290867e-14 -1.721379386688398627e-13
6.713000000000000000e+03 6.882441520690917969e+00 -1.175103664398193359e+01 -5.504411081666896188e-14 2.051644173561156803e-13 4.503609128420765773e-14 7.806255641895631925e-14
6.714000000000000000e+03 3.894891977310180664e+00 -2.716305160522460938e+01 4.903929774193946378e-14 2.211772431870429045e-13 8.106496295632106830e-14 8.056456299613753980e-14
6.715000000000000000e+03 4.397567749023437500e+00 -2.777740859985351562e+01 -3.677947500052049234e-14 7.430954994131627744e-14 1.125902282105191443e-14 -1.406126869671689428e-13
6.716000000000000000e+03 3.181516885757446289e+00 -1.413516521453857422e+01 4.003208151797700565e-15 2.762213472274482884e-13 8.406736949368581735e-14 3.202566521438160452e-14
6.717000000000000000e+03 3.680272817611694336e+00 -9.570766448974609375e+00 -2.401924891078620339e-14 2.642117210779892922e-13 7.205774334422682115e-14 -5.604491073703601889e-14
6.718000000000000000e+03 5.118169784545898438e+00 -2.915350151062011719e+01 1.000802037949425141e-14 3.702967294773318319e-13 1.140914348673333079e-13 -1.200962343895356499e-13
6.719000000000000000e+03 4.271180629730224609e+00 -1.151822566986083984e+01 -5.204170427930421283e-14 9.207378240914942946e-14 1.200962445539310169e-14 -6.605293026949732305e-14
6.720000000000000000e+03 3.886260986328125000e+00 -1.087494468688964844e+01 7.606094980195862720e-14 1.240994476235310340e-13 6.004811719476782494e-14 9.207378240914942946e-14
6.721000000000000000e+03 3.479964494705200195e+00 -3.327135086059570312e+01 -1.200962445539310169e-14 2.922341730583755126e-13 8.406736949368581735e-14 -4.003208151797700565e-15
6.722000000000000000e+03 7.452495574951171875e+00 -3.062161827087402344e+01 -1.000802037949425141e-14 1.100882216333379238e-13 3.002405859738391247e-14 -8.606896933441993136e-14
6.723000000000000000e+03 3.930594921112060547e+00 -2.829330444335937500e+01 -3.252606517456513302e-14 7.756215645877279075e-14 1.351082687704252897e-14 8.006416303595401129e-14
6.724000000000000000e+03 3.652262926101684570e+00 -3.404242706298828125e+01 -2.401924891078620339e-14 2.642117210779892922e-13 7.205774334422682115e-14 6.405133042876320904e-14
6.725000000000000000e+03 9.535781860351562500e+00 -3.234634017944335938e+01 -1.401122768425900472e-14 -6.004812227696550847e-15 -6.004812227696550847e-15 -8.807057595141762341e-14
6.726000000000000000e+03 7.561576080322265625e+01 -3.101975822448730469e+01 1.481186999224490264e-13 4.523625126828106913e-13 1.801443651368306309e-13 -6.004811719476782494e-14
6.727000000000000000e+03 3.021060228347778320e+00 -7.356170177459716797e+00 -1.601283260719080226e-14 1.761411519028352468e-13 4.803849782157240678e-14 1.000802021008766196e-13
6.728000000000000000e+03 3.739159584045410156e+00 -8.854781150817871094e+00 -6.805453688649501509e-14 1.080866150163402317e-13 1.200962445539310169e-14 4.803849782157240678e-14
6.729000000000000000e+03 4.451419830322265625e+00 -6.695425033569335938e+00 -1.200962343895356499e-13 2.001604042017532392e-13 2.401924891078620339e-14 -1.481186999224490264e-13
6.730000000000000000e+03 4.393395423889160156e+00 -5.952017307281494141e+00 5.204170427930421283e-14 3.883111822540474822e-13 1.321058605389946461e-13 -3.602887167211341057e-14
6.731000000000000000e+03 6.365308761596679688e+01 -1.488592243194580078e+01 -6.004812227696550847e-15 -1.741395520621011328e-13 -5.404330750817011586e-14 -1.105886215935214523e-13
6.732000000000000000e+03 4.120438575744628906e+00 -3.106581115722656250e+01 -1.441154866884536423e-13 3.042437992078345088e-13 4.803849782157240678e-14 -1.200962445539310169e-14
6.733000000000000000e+03 5.587991333007812500e+01 -1.223302555084228516e+01 1.401122768425900472e-14 6.004812227696550847e-15 6.004812227696550847e-15 -2.081668171172168513e-13
6.734000000000000000e+03 7.502653503417968750e+01 -3.463065338134765625e+01 -6.605293026949732305e-14 4.063256079257088205e-13 1.020818019416107336e-13 -7.205774334422682115e-14
6.735000000000000000e+03 2.559983634948730469e+01 -2.179486846923828125e+01 1.441154866884536423e-13 1.601283260719080226e-14 4.803849782157240678e-14 0.000000000000000000e+00
6.736000000000000000e+03 2.500247955322265625e+01 -2.193237113952636719e+01 7.205774334422682115e-14 1.681347389873716347e-13 7.205774334422682115e-14 -2.081668171172168513e-13
6.737000000000000000e+03 4.285033702850341797e+00 -3.646458816528320312e+01 -9.107298248878237246e-14 -3.903127820947815962e-14 -3.903127820947815962e-14 -9.607699564314481355e-14
6.738000000000000000e+03 4.418393611907958984e+00 -3.389256286621093750e+01 -1.441154866884536423e-13 1.441154866884536423e-13 0.000000000000000000e+00 1.200962445539310169e-14
6.739000000000000000e+03 7.542072296142578125e+01 -2.931506156921386719e+01 1.040834085586084257e-13 1.361090737729900302e-13 7.205774334422682115e-14 -2.401924891078620339e-14
6.740000000000000000e+03 7.532944488525390625e+01 -3.271545410156250000e+01 2.201764398785440585e-14 5.584474939770989188e-13 1.741395520621011328e-13 -2.401924891078620339e-14
6.741000000000000000e+03 4.292594528198242188e+01 -2.443852615356445312e+01 2.001604075898850282e-15 1.381106736137241442e-13 4.203368474684290867e-14 1.601283260719080226e-14
6.742000000000000000e+03 4.148824691772460938e+01 -1.624920654296875000e+01 -1.931547912066566841e-13 2.832269737750719996e-13 2.702165375408505793e-14 -1.120898214740720378e-13
6.743000000000000000e+03 1.155410957336425781e+01 -4.268986701965332031e+00 1.791435652164635739e-13 -2.892317732972743416e-13 -3.302646513474866152e-14 -4.803849782157240678e-14
6.744000000000000000e+03 1.291701698303222656e+01 -4.971856594085693359e+00 6.204972381176551699e-14 1.180946345488015359e-13 5.404330750817011586e-14 -8.006416303595401129e-15
6.745000000000000000e+03 7.352987670898437500e+01 -1.394212150573730469e+01 1.120898214740720378e-13 4.803849782157240678e-14 4.803849782157240678e-14 2.001604075898850282e-14
6.746000000000000000e+03 7.256234741210937500e+01 -1.367499542236328125e+01 1.060850151756061177e-13 2.742197473867141744e-13 1.140914348673333079e-13 -5.604491073703601889e-14
6.747000000000000000e+03 6.176335906982421875e+01 -1.125647830963134766e+01 7.255814330441034965e-14 -1.976583908483084406e-13 -3.753007494079578510e-14 -4.403528797570881170e-14
6.748000000000000000e+03 6.123937225341796875e+01 -1.066853618621826172e+01 -4.078268145825229840e-14 -3.620401233580400335e-13 -1.208468411060745207e-13 -6.792943350831734395e-14
6.749000000000000000e+03 6.225746536254882812e+01 -2.479899787902832031e+01 4.103288347122313606e-13 4.503609128420765773e-13 2.582069215557869502e-13 1.601283260719080226e-14
6.750000000000000000e+03 2.361061668395996094e+01 -2.567331504821777344e+01 -1.000802021008766196e-13 4.603689391508014594e-13 1.080866150163402317e-13 1.441154866884536423e-13
6.751000000000000000e+03 2.428767204284667969e+01 -2.724674797058105469e+01 1.110890215537049808e-13 2.592077214761540072e-13 1.110890215537049808e-13 -8.807057595141762341e-14
6.752000000000000000e+03 4.755051040649414062e+01 -1.359535217285156250e+01 -1.421138868477195283e-13 4.203368474684290867e-14 -3.002405859738391247e-14 1.050842084789754827e-13
6.753000000000000000e+03 3.638843917846679688e+01 -3.017206573486328125e+01 -1.240994476235310340e-13 -2.361892690976030718e-13 -1.080866150163402317e-13 6.405133042876320904e-14
6.754000000000000000e+03 4.770818710327148438e+00 -1.343835163116455078e+01 1.661331391466375207e-13 2.542037218743187221e-13 1.261010474642651480e-13 -2.401924891078620339e-14
6.755000000000000000e+03 7.447049713134765625e+01 -2.614933204650878906e+01 1.160930347080674219e-13 1.641315257533762506e-13 8.406736949368581735e-14 1.200962343895356499e-13
6.756000000000000000e+03 7.348104858398437500e+01 -2.819727325439453125e+01 1.481186999224490264e-13 2.922341730583755126e-13 1.321058605389946461e-13 3.202566521438160452e-14
6.757000000000000000e+03 4.660531997680664062e+01 -2.513574981689453125e+01 -8.706977603105056640e-14 2.371900690179701288e-13 4.503609128420765773e-14 -2.682149478645118323e-13
6.758000000000000000e+03 1.634747314453125000e+01 -1.128235054016113281e+01 -1.911531778133954140e-13 1.010810020212436766e-13 -2.702165375408505793e-14 -6.405133042876320904e-14
6.759000000000000000e+03 7.513123321533203125e+01 -1.775480461120605469e+01 -1.100882199392720293e-14 4.103288143834406265e-14 9.007217918028352643e-15 6.004811719476782494e-14
6.760000000000000000e+03 3.439756774902343750e+01 -9.133573532104492188e+00 1.266014474244486765e-13 8.506817110811876886e-15 4.053248147816053415e-14 -7.405934996122451319e-14
6.761000000000000000e+03 1.175056171417236328e+01 -9.990221023559570312e+00 -2.001604075898850282e-14 -2.602085213965210642e-13 -8.406736949368581735e-14 6.605293026949732305e-14
6.762000000000000000e+03 1.192488002777099609e+01 -1.091365242004394531e+01 -8.206576287668812530e-14 2.201764398785440585e-14 -1.801443583605670529e-14 -1.441154866884536423e-13
6.763000000000000000e+03 5.763502502441406250e+01 -2.284985923767089844e+01 8.406736949368581735e-14 3.602887167211341057e-14 3.602887167211341057e-14 -2.081668171172168513e-13
6.764000000000000000e+03 5.706382369995117188e+01 -2.421118736267089844e+01 -3.002405859738391247e-14 1.701363388281057487e-13 4.203368474684290867e-14 -6.405133042876320904e-14
6.765000000000000000e+03 5.088828659057617188e+01 -1.364049148559570312e+01 2.001604075898850282e-15 1.381106736137241442e-13 4.203368474684290867e-14 -5.604491073703601889e-14
6.766000000000000000e+03 5.689416503906250000e+01 -2.551605415344238281e+01 1.080866150163402317e-13 4.123304345529654746e-13 1.561251128379126385e-13 -1.441154866884536423e-13
6.767000000000000000e+03 7.586071777343750000e+01 -1.245981597900390625e+01 4.003208151797700565e-15 -2.041636038832214672e-13 -6.004811719476782494e-14 6.805453688649501509e-14
6.768000000000000000e+03 1.065206718444824219e+01 -4.399430274963378906e+00 2.602085213965210642e-14 -1.261010474642651480e-13 -3.002405859738391247e-14 2.922341730583755126e-13
6.769000000000000000e+03 5.858855438232421875e+01 -2.084020233154296875e+01 1.281026608575264181e-13 5.124106434301056723e-13 1.921539912862896271e-13 -1.281026608575264181e-13
6.770000000000000000e+03 4.808226394653320312e+01 -1.380439758300781250e+01 -3.602887167211341057e-14 7.606094980195862720e-14 1.200962445539310169e-14 1.040834085586084257e-13
6.771000000000000000e+03 5.503213119506835938e+01 -1.321142673492431641e+01 4.903929774193946378e-14 2.101684237342145434e-14 2.101684237342145434e-14 -1.621299259126421366e-13
6.772000000000000000e+03 2.239219474792480469e+01 -1.633150291442871094e+01 -9.707779556351187056e-14 -1.331066604593617031e-13 -6.905533680686207210e-14 -1.200962343895356499e-13
6.773000000000000000e+03 5.701996612548828125e+01 -1.246669101715087891e+01 1.200962343895356499e-13 2.802245740139708285e-13 1.200962343895356499e-13 5.604491073703601889e-14
6.774000000000000000e+03 2.585156250000000000e+01 -1.643761444091796875e+01 -1.782678585098788210e-14 -9.914194709333482014e-14 -3.509062005270340012e-14 1.003304020809683839e-13
6.775000000000000000e+03 2.774021720886230469e+01 -1.569437599182128906e+01 -3.527827173183811782e-14 -1.523721063602725967e-13 -5.629511410525957216e-14 -1.501202929869195624e-14
6.776000000000000000e+03 5.031922912597656250e+01 -9.594512939453125000e+00 2.321860694161348437e-13 3.282630515067525012e-13 1.681347389873716347e-13 4.803849782157240678e-14
6.777000000000000000e+03 2.743680191040039062e+01 -1.742481422424316406e+01 1.819113978375475060e-13 3.177077199413569364e-13 1.498857326231659015e-13 -1.336696188848976452e-13
6.778000000000000000e+03 2.858203125000000000e+01 -2.741989326477050781e+01 -3.602887167211341057e-14 2.361892690976030718e-13 6.004811719476782494e-14 -9.307458910578006450e-14
6.779000000000000000e+03 2.677290916442871094e+01 -2.981820487976074219e+01 -1.060850151756061177e-13 3.662935297958636038e-13 7.806255641895631925e-14 -1.040834085586084257e-13
6.780000000000000000e+03 7.465202331542968750e+01 -2.982440948486328125e+01 -3.402726844324750755e-14 2.141716301919463494e-13 5.404330750817011586e-14 1.441154866884536423e-13
6.781000000000000000e+03 1.141776847839355469e+01 -2.717085838317871094e+01 1.003304020809683839e-13 -2.752205498481800731e-15 2.927345865710861972e-14 -2.702165375408505793e-14
6.782000000000000000e+03 1.266854572296142578e+01 -2.614292144775390625e+01 1.401122870069854143e-13 2.201764432666758475e-13 1.080866150163402317e-13 8.807057595141762341e-14
6.783000000000000000e+03 4.283410644531250000e+01 -1.928312683105468750e+01 2.697161341925352618e-13 4.358492733391727825e-13 2.116696303910287069e-13 1.301042606982605321e-14
6.784000000000000000e+03 7.553965759277343750e+01 -2.485248184204101562e+01 2.632109211576222352e-13 3.873103823336804252e-13 1.951563910473907981e-13 8.807057595141762341e-14
6.785000000000000000e+03 4.188619232177734375e+01 -1.921173858642578125e+01 1.376102736535406157e-13 2.877305869692509122e-13 1.276022608973428896e-13 -7.205774334422682115e-14
6.786000000000000000e+03 4.712580490112304688e+01 -1.578326034545898438e+01 -2.602085213965210642e-13 -2.001604075898850282e-14 -8.406736949368581735e-14 1.361090737729900302e-13
6.787000000000000000e+03 4.772482299804687500e+01 -1.501079559326171875e+01 -2.001604075898850282e-15 1.821459649775647449e-13 5.404330750817011586e-14 1.681347389873716347e-13
6.788000000000000000e+03 1.768138885498046875e+01 -1.509588432312011719e+01 -2.602085213965210642e-14 -1.941555911270237411e-13 -6.605293026949732305e-14 1.521218996039172544e-13
6.789000000000000000e+03 7.506993865966796875e+01 -3.681459426879882812e+01 -8.406736949368581735e-14 1.240994476235310340e-13 1.200962445539310169e-14 -1.040834085586084257e-13
6.790000000000000000e+03 3.941709518432617188e+01 -1.566199398040771484e+01 -2.491996951674291250e-13 2.592077214761540072e-13 3.002406113848275424e-15 -1.441154866884536423e-13
6.791000000000000000e+03 7.009301757812500000e+01 -2.824018669128417969e+01 1.040834085586084257e-13 1.361090737729900302e-13 7.205774334422682115e-14 1.321058605389946461e-13
6.792000000000000000e+03 6.362828445434570312e+01 -1.592015361785888672e+01 1.661331391466375207e-13 -3.062454261536229350e-13 -4.203368474684290867e-14 -2.852285871683332696e-14
6.793000000000000000e+03 6.221638107299804688e+01 -1.783479309082031250e+01 -1.090874217129708668e-13 -4.103288143834406265e-14 -4.503609128420765773e-14 -1.210970478624298630e-13
6.794000000000000000e+03 3.530358886718750000e+01 -1.195955657958984375e+01 -2.161732300326804634e-13 1.361090737729900302e-13 -2.401924891078620339e-14 -3.202566521438160452e-14
6.795000000000000000e+03 1.474582099914550781e+01 -2.438194656372070312e+01 9.607699564314481355e-14 -9.607699564314481355e-14 0.000000000000000000e+00 2.121700303512122354e-13
6.796000000000000000e+03 2.984272003173828125e+01 -1.373608684539794922e+01 -2.992397996059992238e-13 -1.110890215537049808e-13 -1.230986477031639770e-13 5.004010105043830980e-14
6.797000000000000000e+03 2.760086822509765625e+01 -2.600376701354980469e+01 -2.802245536851800944e-14 3.082470259943570490e-13 8.406736949368581735e-14 -7.606094980195862720e-14
6.798000000000000000e+03 4.372116088867187500e+01 -1.959747505187988281e+01 -5.604491073703601889e-14 2.962373998448980528e-13 7.205774334422682115e-14 -7.205774334422682115e-14
6.799000000000000000e+03 4.441831588745117188e+01 -2.042277717590332031e+01 2.441956955655938399e-13 1.961571909677578551e-13 1.321058605389946461e-13 -1.801443583605670529e-14
6.800000000000000000e+03 2.921480178833007812e+00 -4.567449569702148438e+00 2.261812563414053456e-13 -8.606896933441993136e-14 4.203368474684290867e-14 1.441154866884536423e-13
6.801000000000000000e+03 4.038837432861328125e+01 -1.529827785491943359e+01 -4.113296346325984176e-13 2.812253739343378856e-13 -3.903127820947815962e-14 -1.200962343895356499e-13
6.802000000000000000e+03 2.625294685363769531e+01 -1.598186492919921875e+01 -4.503609128420765773e-14 -1.050842084789754827e-13 -4.503609128420765773e-14 -2.301844695754007297e-13
6.803000000000000000e+03 2.616098594665527344e+01 -2.909367179870605469e+01 -1.441154866884536423e-13 1.441154866884536423e-13 0.000000000000000000e+00 1.601283260719080226e-14
6.804000000000000000e+03 2.626561164855957031e+01 -2.851495742797851562e+01 6.004811719476782494e-14 6.204972516701823260e-13 2.041636038832214672e-13 -1.521218996039172544e-13
6.805000000000000000e+03 4.997818756103515625e+01 -1.254475688934326172e+01 1.381106736137241442e-13 2.421940957248597259e-13 1.140914348673333079e-13 3.602887167211341057e-14
6.806000000000000000e+03 4.441325759887695312e+01 -1.575663852691650391e+01 -3.527827173183811782e-13 7.756215645877279075e-14 -8.256616283687165381e-14 1.120898214740720378e-13
6.807000000000000000e+03 4.272292709350585938e+01 -1.779698562622070312e+01 -1.210970478624298630e-13 1.311050606186275891e-13 3.002406113848275424e-15 -9.207378240914942946e-14
6.808000000000000000e+03 8.708714485168457031e+00 -2.568317604064941406e+01 2.401924891078620339e-14 -1.040834085586084257e-13 -2.401924891078620339e-14 -2.722181475459800604e-13
6.809000000000000000e+03 5.149692916870117188e+01 -8.699132919311523438e+00 -1.050842118671072717e-14 3.157530389496371326e-13 9.157338244896590096e-14 4.603689120457471473e-14
6.810000000000000000e+03 4.983693695068359375e+01 -1.188501834869384766e+01 2.401924891078620339e-14 2.161732300326804634e-13 7.205774334422682115e-14 -8.807057595141762341e-14
6.811000000000000000e+03 5.535250473022460938e+01 -1.490813827514648438e+01 1.588773193951856233e-13 2.639615414266882620e-13 1.268516541808040188e-13 -9.983000212078485536e-14
6.812000000000000000e+03 1.810862159729003906e+01 -2.504329109191894531e+01 1.281026608575264181e-13 3.202566521438160452e-14 4.803849782157240678e-14 1.481186999224490264e-13
6.813000000000000000e+03 1.847684097290039062e+01 -1.725248908996582031e+01 -4.803849782157240678e-14 -1.120898214740720378e-13 -4.803849782157240678e-14 -1.601283260719080226e-14
6.814000000000000000e+03 1.832308006286621094e+01 -1.655532073974609375e+01 -1.811451650571976879e-13 -1.691355389077386917e-13 -1.050842084789754827e-13 1.200962343895356499e-13
6.815000000000000000e+03 5.120888900756835938e+01 -3.467127990722656250e+01 2.001604075898850282e-15 1.381106736137241442e-13 4.203368474684290867e-14 -1.401122870069854143e-13
6.816000000000000000e+03 5.215609359741210938e+01 -3.405517959594726562e+01 1.040834085586084257e-13 1.361090737729900302e-13 7.205774334422682115e-14 -2.081668171172168513e-13
6.817000000000000000e+03 6.141544723510742188e+01 -1.936266517639160156e+01 2.201764398785440585e-14 3.182550251980276190e-13 1.020818019416107336e-13 -8.006416303595401129e-14
6.818000000000000000e+03 6.202121353149414062e+01 -1.885135269165039062e+01 5.804651735403371093e-14 8.206576287668812530e-14 4.203368474684290867e-14 -1.281026608575264181e-13
6.819000000000000000e+03 5.216017913818359375e+01 -2.913019943237304688e+01 -3.602887167211341057e-14 3.963175816169839383e-13 1.080866150163402317e-13 -1.040834085586084257e-13
6.820000000000000000e+03 1.892170333862304688e+01 -1.541813755035400391e+01 -2.461972954063279539e-13 -1.741395520621011328e-13 -1.261010474642651480e-13 2.201764432666758475e-13
6.821000000000000000e+03 4.558577728271484375e+01 -1.549952888488769531e+01 -3.943159817762498243e-13 1.401122768425900472e-14 -1.140914348673333079e-13 1.921539912862896271e-13
6.822000000000000000e+03 7.268560791015625000e+01 -2.848822212219238281e+01 2.001604075898850282e-15 1.381106736137241442e-13 4.203368474684290867e-14 1.881507780522942430e-13
6.823000000000000000e+03 3.296218490600585938e+01 -7.388560771942138672e+00 2.001604075898850282e-14 1.000802021008766196e-13 3.602887167211341057e-14 -9.607699564314481355e-14
6.824000000000000000e+03 1.379222011566162109e+01 -2.486089515686035156e+01 -5.204170427930421283e-14 -6.805453688649501509e-14 -3.602887167211341057e-14 6.405133042876320904e-14
6.825000000000000000e+03 4.460868835449218750e+01 -1.777123641967773438e+01 -5.604491073703601889e-14 1.361090737729900302e-13 2.401924891078620339e-14 2.001604075898850282e-14
6.826000000000000000e+03 4.217807388305664062e+01 -1.601032066345214844e+01 -2.602085213965210642e-14 1.261010474642651480e-13 3.002405859738391247e-14 0.000000000000000000e+00
6.827000000000000000e+03 3.432552337646484375e+01 -6.305145740509033203e+00 4.403528797570881170e-14 -1.641315257533762506e-13 -3.602887167211341057e-14 -1.761411519028352468e-13
6.828000000000000000e+03 6.520011901855468750e+01 -1.559322166442871094e+01 2.421940957248597259e-13 1.381106736137241442e-13 1.140914348673333079e-13 2.502005052521915490e-14
6.829000000000000000e+03 6.513096618652343750e+01 -1.467059421539306641e+01 7.305854326459387815e-14 7.706175649858926224e-14 4.503609128420765773e-14 4.003208151797700565e-14
6.830000000000000000e+03 4.419809722900390625e+01 -2.352771759033203125e+01 -1.080866150163402317e-13 2.281828697346666157e-13 3.602887167211341057e-14 -1.080866150163402317e-13
6.831000000000000000e+03 4.275949478149414062e+01 -2.382210159301757812e+01 -8.006416303595401129e-15 8.807057595141762341e-14 2.401924891078620339e-14 1.040834085586084257e-13
6.832000000000000000e+03 2.772074890136718750e+01 -2.482965660095214844e+01 1.000802021008766196e-13 1.801443651368306309e-13 8.406736949368581735e-14 -1.281026608575264181e-13
6.833000000000000000e+03 2.601452255249023438e+01 -2.137549209594726562e+01 1.521218996039172544e-13 -7.205774334422682115e-14 2.401924891078620339e-14 -1.321058605389946461e-13
6.834000000000000000e+03 1.631528282165527344e+01 -2.507205009460449219e+01 4.503608959014176322e-15 2.306848559830571022e-13 7.055654346367623564e-14 2.922341730583755126e-13
6.835000000000000000e+03 1.770862197875976562e+01 -2.431484985351562500e+01 6.004811719476782494e-14 -3.402726776562114974e-13 -8.406736949368581735e-14 2.922341730583755126e-13
6.836000000000000000e+03 2.178855705261230469e+01 -2.418421554565429688e+01 1.701363388281057487e-13 2.101684169579509653e-13 1.140914348673333079e-13 7.205774334422682115e-14
6.837000000000000000e+03 7.448316192626953125e+01 -3.252465820312500000e+01 -6.004811719476782494e-14 3.402726776562114974e-13 8.406736949368581735e-14 1.321058605389946461e-13
6.838000000000000000e+03 6.468381500244140625e+01 -1.191392135620117188e+01 0.000000000000000000e+00 1.601283260719080226e-13 4.803849782157240678e-14 5.204170427930421283e-14
6.839000000000000000e+03 6.478679656982421875e+01 -1.387715721130371094e+01 1.641315257533762506e-13 4.363496868518834670e-13 1.801443651368306309e-13 8.807057595141762341e-14
6.840000000000000000e+03 2.570157432556152344e+01 -1.454123878479003906e+01 -2.707794925782547324e-13 -1.514338513527307972e-13 -1.266640058898010901e-13 -1.280713816248502113e-14
6.841000000000000000e+03 2.530686187744140625e+01 -1.595828533172607422e+01 -1.082117183945179029e-13 -6.255012737183907132e-16 -3.265116516461101515e-14 -6.505213034913026604e-14
6.842000000000000000e+03 6.636029052734375000e+01 -1.368081474304199219e+01 7.756215645877279075e-14 -1.251002526260957745e-14 1.951563910473907981e-14 1.160930347080674219e-13
6.843000000000000000e+03 1.247405242919921875e+01 -9.225228309631347656e+00 -1.140914348673333079e-13 -1.861491782115601290e-13 -9.007218256841531545e-14 6.004811719476782494e-14
6.844000000000000000e+03 1.083010578155517578e+01 -1.032547569274902344e+01 -1.601283260719080226e-14 1.601283260719080226e-14 0.000000000000000000e+00 1.030826086382413687e-13
6.845000000000000000e+03 1.180831718444824219e+01 -2.513862609863281250e+01 1.020818019416107336e-13 -2.001604075898850282e-15 3.002405859738391247e-14 -4.803849782157240678e-14
6.846000000000000000e+03 1.075008201599121094e+01 -2.526420402526855469e+01 8.807057595141762341e-14 -3.282630515067525012e-13 -7.205774334422682115e-14 7.606094980195862720e-14
6.847000000000000000e+03 2.979310035705566406e+01 -2.948484992980957031e+01 -2.161732300326804634e-13 1.361090737729900302e-13 -2.401924891078620339e-14 8.006416303595401129e-15
6.848000000000000000e+03 1.373118877410888672e+01 -2.607325744628906250e+01 1.781427517435693608e-13 -1.180946345488015359e-13 1.801443583605670529e-14 6.505213034913026604e-14
6.849000000000000000e+03 6.168278503417968750e+01 -2.035848045349121094e+01 1.240994476235310340e-13 2.361892690976030718e-13 1.080866150163402317e-13 -1.601283260719080226e-13
6.850000000000000000e+03 1.716458511352539062e+01 -2.244110870361328125e+01 -3.002406113848275424e-15 -7.005613842129502361e-15 -3.002406113848275424e-15 2.141716301919463494e-13
6.851000000000000000e+03 1.310002326965332031e+01 -7.340609550476074219e+00 1.441154866884536423e-13 1.601283260719080226e-14 4.803849782157240678e-14 4.003208151797700565e-15
6.852000000000000000e+03 1.232658100128173828e+01 -1.030251789093017578e+01 -2.401924687790712998e-13 -2.401924687790712998e-13 -1.441154866884536423e-13 6.805453688649501509e-14
6.853000000000000000e+03 7.052529144287109375e+01 -3.321242523193359375e+01 -1.321058605389946461e-13 1.721379386688398627e-13 1.200962445539310169e-14 -6.004811719476782494e-14
6.854000000000000000e+03 6.433640289306640625e+01 -1.124913978576660156e+01 6.605293026949732305e-14 -6.004812227696550847e-15 1.801443583605670529e-14 4.403528797570881170e-14
6.855000000000000000e+03 2.695914077758789062e+01 -2.087754058837890625e+01 2.281828697346666157e-13 5.204170427930421283e-14 8.406736949368581735e-14 -5.604491073703601889e-14
6.856000000000000000e+03 9.341318130493164062e+00 -6.010230064392089844e+00 1.831467648979318019e-13 1.070858150959731747e-13 8.706977603105056640e-14 2.512012950081632390e-13
6.857000000000000000e+03 1.048178863525390625e+01 -5.088042259216308594e+00 1.160930347080674219e-13 -1.561251128379126385e-13 -1.200962445539310169e-14 6.004811719476782494e-14
6.858000000000000000e+03 1.183586883544921875e+01 -4.943652153015136719e+00 1.200962445539310169e-14 1.881507780522942430e-13 6.004811719476782494e-14 -1.000802037949425141e-14
6.859000000000000000e+03 4.516270828247070312e+01 -2.331721496582031250e+01 4.403528797570881170e-14 1.561251128379126385e-13 6.004811719476782494e-14 -5.204170427930421283e-14
6.860000000000000000e+03 4.351560211181640625e+01 -2.322429466247558594e+01 2.081668171172168513e-13 2.722181475459800604e-13 1.441154866884536423e-13 6.405133042876320904e-14
6.861000000000000000e+03 2.123103332519531250e+01 -1.731259727478027344e+01 -1.641315257533762506e-13 -1.160930347080674219e-13 -8.406736949368581735e-14 -1.601283260719080226e-14
6.862000000000000000e+03 1.472443771362304688e+01 -5.596487998962402344e+00 -6.255012377194904549e-14 -7.255814330441034965e-14 -4.053248147816053415e-14 1.521218996039172544e-13
6.863000000000000000e+03 5.254272079467773438e+01 -1.068415737152099609e+01 -5.204170427930421283e-14 9.207378240914942946e-14 1.200962445539310169e-14 -2.141716301919463494e-13
6.864000000000000000e+03 4.762788295745849609e+00 -2.496297836303710938e+01 -6.004811719476782494e-14 2.001604075898850282e-14 -1.200962445539310169e-14 -4.803849782157240678e-14
6.865000000000000000e+03 6.410983085632324219e+00 -2.531913185119628906e+01 1.060850151756061177e-13 -4.603689120457471473e-14 1.801443583605670529e-14 -2.081668171172168513e-13
6.866000000000000000e+03 7.325772857666015625e+01 -1.479672527313232422e+01 6.405133042876320904e-14 9.607699564314481355e-14 4.803849782157240678e-14 5.404330750817011586e-14
6.867000000000000000e+03 4.223108291625976562e+01 -1.978251457214355469e+01 -1.776423585596494104e-14 1.753905451862963760e-13 4.728789449316532501e-14 -7.055654346367623564e-14
6.868000000000000000e+03 5.052292633056640625e+01 -1.012776851654052734e+01 3.402726844324750755e-14 1.861491782115601290e-13 6.605293026949732305e-14 -1.080866150163402317e-13
6.869000000000000000e+03 5.523753356933593750e+01 -2.779615402221679688e+01 -2.602085213965210642e-14 1.261010474642651480e-13 3.002405859738391247e-14 3.202566521438160452e-14
6.870000000000000000e+03 9.036119461059570312e+00 -2.730481147766113281e+01 2.201764398785440585e-14 7.806255641895631925e-14 3.002405859738391247e-14 -1.881507780522942430e-13
6.871000000000000000e+03 3.232553100585937500e+01 -3.062667274475097656e+01 -7.556054984177509870e-14 1.506206997233666689e-13 2.251804564210382886e-14 -7.205774334422682115e-14
6.872000000000000000e+03 3.561656188964843750e+01 -3.204183578491210938e+01 3.702967498061225660e-14 3.302646513474866152e-14 2.101684237342145434e-14 9.107298248878237246e-14
6.873000000000000000e+03 7.470677947998046875e+01 -1.705798530578613281e+01 -7.205774334422682115e-14 -1.681347389873716347e-13 -7.205774334422682115e-14 -1.281026608575264181e-13
6.874000000000000000e+03 7.593747711181640625e+01 -1.631639099121093750e+01 -1.150922347877003649e-13 -9.507618894651417851e-14 -6.305052373213257400e-14 -1.361090737729900302e-13
6.875000000000000000e+03 3.569293212890625000e+01 -3.450915527343750000e+01 -1.220978477827969200e-13 6.204972381176551699e-14 -1.801443583605670529e-14 1.200962343895356499e-13
6.876000000000000000e+03 5.797390747070312500e+01 -2.081183242797851562e+01 2.401924891078620339e-14 2.161732300326804634e-13 7.205774334422682115e-14 -1.841475648182988589e-13
6.877000000000000000e+03 2.808303833007812500e+01 -2.671506118774414062e+01 6.505213034913026604e-15 3.687955431493084024e-13 1.125902282105191443e-13 4.403528797570881170e-14
6.878000000000000000e+03 2.853808212280273438e+01 -2.869035530090332031e+01 -1.248187751073936980e-13 4.497666887363915844e-13 9.748437137819393472e-14 -1.135910281308862013e-13
6.879000000000000000e+03 1.068998241424560547e+01 -3.162593841552734375e+01 1.000802037949425141e-14 5.004010105043830980e-14 1.801443583605670529e-14 -2.401924891078620339e-14
6.880000000000000000e+03 1.308932495117187500e+01 -4.409615993499755859e+00 -4.803849782157240678e-14 2.081668171172168513e-13 4.803849782157240678e-14 1.761411519028352468e-13
6.881000000000000000e+03 3.045066261291503906e+01 -3.020750999450683594e+01 -4.803849782157240678e-14 2.081668171172168513e-13 4.803849782157240678e-14 -1.160930347080674219e-13
6.882000000000000000e+03 2.781213951110839844e+01 -1.684141349792480469e+01 5.004010105043830980e-14 -7.005614350349270714e-14 -6.004812227696550847e-15 5.604491073703601889e-14
6.883000000000000000e+03 2.574017524719238281e+01 -1.550244617462158203e+01 -1.786431517037528893e-13 -9.657739560332834206e-14 -8.256616283687165381e-14 -2.802245536851800944e-14
6.884000000000000000e+03 6.391572952270507812e+01 -1.057418537139892578e+01 1.371098736933570872e-13 1.301042606982605321e-14 4.503609128420765773e-14 1.200962343895356499e-13
6.885000000000000000e+03 5.989217376708984375e+01 -1.975398826599121094e+01 -7.305854326459387815e-14 4.303448466720996568e-14 -9.007217918028352643e-15 -2.051644173561156803e-13
6.886000000000000000e+03 4.190627670288085938e+01 -1.759384155273437500e+01 -6.905533680686207210e-14 1.991596042813861822e-13 3.903127820947815962e-14 -4.803849782157240678e-14
6.887000000000000000e+03 1.051694011688232422e+01 -2.892247772216796875e+01 1.441154866884536423e-13 -1.441154866884536423e-13 0.000000000000000000e+00 -1.020818019416107336e-13
6.888000000000000000e+03 1.177771949768066406e+01 -2.856482887268066406e+01 2.181748434259417335e-13 -7.806255641895631925e-14 4.203368474684290867e-14 4.803849782157240678e-14
6.889000000000000000e+03 1.911025428771972656e+01 -1.708084869384765625e+01 -2.001604075898850282e-14 -1.000802021008766196e-13 -3.602887167211341057e-14 9.207378240914942946e-14
6.890000000000000000e+03 6.907232666015625000e+01 -3.649190139770507812e+01 -1.200962445539310169e-14 1.321058605389946461e-13 3.602887167211341057e-14 -3.202566521438160452e-14
6.891000000000000000e+03 5.399870681762695312e+01 -1.308692646026611328e+01 -2.001604075898850282e-15 1.821459649775647449e-13 5.404330750817011586e-14 -2.602085213965210642e-13
6.892000000000000000e+03 5.487974929809570312e+01 -1.434953022003173828e+01 1.301042606982605321e-13 9.007218256841531545e-14 6.605293026949732305e-14 -1.751403519824681898e-13
6.893000000000000000e+03 3.074939918518066406e+01 -1.260253906250000000e+01 -1.971579908881249121e-13 -3.132510255961923340e-13 -1.531227130768114675e-13 -4.803849782157240678e-14
6.894000000000000000e+03 2.798618888854980469e+01 -1.465402984619140625e+01 -1.941555911270237411e-13 -3.462775042834681516e-13 -1.621299259126421366e-13 -1.801443583605670529e-14
6.895000000000000000e+03 6.167933654785156250e+01 -2.144957542419433594e+01 9.307458910578006450e-14 1.771419518232023038e-13 8.106496295632106830e-14 -9.607699564314481355e-14
6.896000000000000000e+03 5.240292358398437500e+01 -1.337775707244873047e+01 1.328564672555335169e-13 2.399422891277702696e-13 1.118396214939802735e-13 -2.161732300326804634e-13
6.897000000000000000e+03 2.537799835205078125e+01 -2.737076187133789062e+01 -3.903127820947815962e-14 3.492799040445693226e-13 9.307458910578006450e-14 -9.307458910578006450e-14
6.898000000000000000e+03 5.633760452270507812e+01 -2.417117309570312500e+01 -1.881507780522942430e-13 4.683753385137379155e-13 8.406736949368581735e-14 -8.006416303595401129e-14
6.899000000000000000e+03 5.344926071166992188e+01 -3.144853019714355469e+01 -7.005614350349270714e-14 -3.002405859738391247e-14 -3.002405859738391247e-14 -4.003208151797700565e-14
6.900000000000000000e+03 1.054386329650878906e+01 -3.221799850463867188e+01 -1.921539912862896271e-13 -1.281026608575264181e-13 -9.607699564314481355e-14 -6.004811719476782494e-14
6.901000000000000000e+03 5.649675369262695312e+00 -2.994418334960937500e+01 -2.401924687790712998e-13 -8.006416303595401129e-14 -9.607699564314481355e-14 -5.204170427930421283e-14
6.902000000000000000e+03 5.838898181915283203e+00 -1.310963916778564453e+01 -1.951563910473907981e-14 2.747201608994248589e-13 7.656135653840573374e-14 8.594387273250583825e-14
6.903000000000000000e+03 5.861128234863281250e+01 -1.935072135925292969e+01 1.361090737729900302e-13 1.040834085586084257e-13 7.205774334422682115e-14 -3.282630515067525012e-13
6.904000000000000000e+03 8.704075813293457031e+00 -3.498739624023437500e+01 -5.604491073703601889e-14 1.361090737729900302e-13 2.401924891078620339e-14 -1.220978477827969200e-13
6.905000000000000000e+03 6.090599441528320312e+01 -2.402208900451660156e+01 3.658087830045453348e-13 2.482770933287525850e-13 1.842257628999893759e-13 -4.928949772203122803e-14
6.906000000000000000e+03 1.324412441253662109e+01 -1.033697605133056641e+01 -2.882309733769072846e-13 -3.202566521438160452e-14 -9.607699564314481355e-14 4.803849782157240678e-14
6.907000000000000000e+03 3.309098815917968750e+01 -1.322110652923583984e+01 -4.643721388322696875e-13 -1.601283260719080226e-14 -1.441154866884536423e-13 -4.003208151797700565e-14
6.908000000000000000e+03 6.561840057373046875e+01 -1.334827804565429688e+01 1.801443651368306309e-13 2.602085213965210642e-13 1.321058605389946461e-13 4.003208151797700565e-14
6.909000000000000000e+03 5.142623901367187500e+01 -2.848821830749511719e+01 -1.000802021008766196e-13 4.603689391508014594e-13 1.080866150163402317e-13 0.000000000000000000e+00
6.910000000000000000e+03 9.955888748168945312e+00 -3.001716041564941406e+01 1.200962343895356499e-13 -4.003208151797700565e-14 2.401924891078620339e-14 -6.805453688649501509e-14
6.911000000000000000e+03 9.963991165161132812e+00 -3.094026756286621094e+01 -5.004010105043830980e-14 7.005614350349270714e-14 6.004812227696550847e-15 -2.001604075898850282e-14
6.912000000000000000e+03 3.583297348022460938e+01 -3.343628311157226562e+01 2.401924891078620339e-14 -1.040834085586084257e-13 -2.401924891078620339e-14 7.606094980195862720e-14
6.913000000000000000e+03 3.512121963500976562e+01 -3.147328186035156250e+01 5.704571743366665393e-14 -1.871499781319271860e-13 -3.903127820947815962e-14 4.753809447325708926e-14
6.914000000000000000e+03 2.477272224426269531e+01 -2.784087562561035156e+01 -9.007217918028352643e-15 4.593681121253800903e-13 1.351082738526229732e-13 -6.705373696612795809e-14
6.915000000000000000e+03 2.634785270690917969e+01 -2.725588607788085938e+01 -1.000802037949425141e-14 1.901523778930283570e-13 5.404330750817011586e-14 3.602887167211341057e-14
6.916000000000000000e+03 3.561828231811523438e+01 -3.095397186279296875e+01 -1.050842084789754827e-13 -8.506816941405287436e-14 -5.704571743366665393e-14 1.130906281707026728e-13
6.917000000000000000e+03 5.426727294921875000e+01 -2.889767074584960938e+01 3.702967498061225660e-14 3.532831037260375506e-13 1.170938346284344789e-13 8.306656957331876034e-14
6.918000000000000000e+03 5.328145217895507812e+01 -2.931443977355957031e+01 -1.261010474642651480e-13 2.662133209187234062e-13 4.203368474684290867e-14 8.006416303595401129e-15
6.919000000000000000e+03 7.279386901855468750e+01 -2.927111625671386719e+01 2.602085213965210642e-14 1.941555911270237411e-13 6.605293026949732305e-14 -2.401924891078620339e-14
6.920000000000000000e+03 7.097016143798828125e+01 -2.885664367675781250e+01 1.261010474642651480e-13 2.141716301919463494e-13 1.020818019416107336e-13 2.001604075898850282e-14
6.921000000000000000e+03 2.299963951110839844e+01 -1.674464988708496094e+01 -2.441956955655938399e-13 -1.961571909677578551e-13 -1.321058605389946461e-13 -3.202566521438160452e-14
6.922000000000000000e+03 5.231015014648437500e+01 -3.055496788024902344e+01 -6.805453688649501509e-14 1.080866150163402317e-13 1.200962445539310169e-14 -9.607699564314481355e-14
6.923000000000000000e+03 5.343158721923828125e+01 -3.082821083068847656e+01 2.281828697346666157e-13 5.204170427930421283e-14 8.406736949368581735e-14 -4.803849782157240678e-14
6.924000000000000000e+03 4.957990264892578125e+01 -1.127168178558349609e+01 6.405133042876320904e-14 9.607699564314481355e-14 4.803849782157240678e-14 -2.401924891078620339e-14
6.925000000000000000e+03 9.034146308898925781e+00 -2.804041290283203125e+01 6.805453688649501509e-14 -1.080866150163402317e-13 -1.200962445539310169e-14 -1.040834085586084257e-13
6.926000000000000000e+03 2.836304664611816406e+01 -1.519869995117187500e+01 -1.581267126786467525e-13 -2.201764398785440585e-14 -5.404330750817011586e-14 3.602887167211341057e-14
6.927000000000000000e+03 3.102254867553710938e+01 -1.176332855224609375e+01 -1.361090737729900302e-13 -1.040834085586084257e-13 -7.205774334422682115e-14 4.803849782157240678e-14
6.928000000000000000e+03 5.281983184814453125e+01 -3.146225357055664062e+01 2.161732300326804634e-13 1.841475648182988589e-13 1.200962343895356499e-13 -8.006416303595401129e-14
6.929000000000000000e+03 5.219652175903320312e+01 -3.333688354492187500e+01 -1.200962445539310169e-14 1.321058605389946461e-13 3.602887167211341057e-14 3.202566521438160452e-14
6.930000000000000000e+03 6.974974060058593750e+01 -3.092394638061523438e+01 6.256185348420262304e-14 2.527298845460962395e-13 9.458751869858422756e-14 -2.650170596754479468e-14
6.931000000000000000e+03 5.212592315673828125e+01 -3.124261283874511719e+01 -1.481186999224490264e-13 1.881507780522942430e-13 1.200962445539310169e-14 -9.207378240914942946e-14
6.932000000000000000e+03 2.971541595458984375e+01 -3.014689826965332031e+01 -1.601283260719080226e-13 1.601283260719080226e-13 0.000000000000000000e+00 -1.601283260719080226e-14
6.933000000000000000e+03 2.975815010070800781e+01 -3.754262542724609375e+01 -4.028228149806876990e-14 1.428644800117312430e-13 3.077466192579099424e-14 3.002405859738391247e-14
6.934000000000000000e+03 2.941563987731933594e+01 -3.540505599975585938e+01 -1.110890215537049808e-13 1.811451650571976879e-13 2.101684237342145434e-14 4.203368474684290867e-14
6.935000000000000000e+03 2.924975585937500000e+01 -3.276792526245117188e+01 3.602887167211341057e-14 2.441956955655938399e-13 8.406736949368581735e-14 4.403528797570881170e-14
6.936000000000000000e+03 3.050106430053710938e+01 -3.105241394042968750e+01 -1.060850151756061177e-13 4.603689120457471473e-14 -1.801443583605670529e-14 1.200962445539310169e-14
6.937000000000000000e+03 7.406188201904296875e+01 -3.840314865112304688e+01 -3.002405859738391247e-14 9.007218256841531545e-14 1.801443583605670529e-14 -8.206576287668812530e-14
6.938000000000000000e+03 4.644419193267822266e+00 -3.481951522827148438e+01 -1.461170865291877563e-13 1.661331391466375207e-13 6.004812227696550847e-15 5.204170427930421283e-14
6.939000000000000000e+03 5.340892791748046875e+00 -3.843999862670898438e+01 -3.102486190588275849e-14 1.010810020212436766e-13 2.101684237342145434e-14 -1.200962445539310169e-14
6.940000000000000000e+03 7.261457824707031250e+01 -4.021456527709960938e+01 5.204170427930421283e-14 6.805453688649501509e-14 3.602887167211341057e-14 1.601283260719080226e-14
6.941000000000000000e+03 3.619454574584960938e+01 -3.730288696289062500e+01 -1.030826086382413687e-13 1.301042606982605321e-14 -2.702165375408505793e-14 8.807057595141762341e-14
6.942000000000000000e+03 7.032072544097900391e+00 -4.158280944824218750e+01 -3.202566521438160452e-14 1.120898214740720378e-13 2.401924891078620339e-14 -1.601283260719080226e-14
6.943000000000000000e+03 9.320577621459960938e+00 -3.806338882446289062e+01 3.121251358501747619e-14 1.795814067112946888e-13 6.323817879939908071e-14 3.976624192154713799e-14
6.944000000000000000e+03 6.363847732543945312e+00 -1.242983150482177734e+01 2.376904723662854463e-14 1.088372149566155245e-13 3.978187814975345238e-14 3.602887167211341057e-14
6.945000000000000000e+03 6.086599349975585938e+01 -1.200524139404296875e+01 -5.054050101062183831e-14 -2.046640038434049957e-13 -7.656135653840573374e-14 -1.831467648979318019e-13
6.946000000000000000e+03 6.354628753662109375e+01 -1.248909759521484375e+01 6.505213034913026604e-14 1.651323256737433076e-13 6.905533680686207210e-14 1.240994476235310340e-13
6.947000000000000000e+03 1.278979301452636719e+01 -1.068096446990966797e+01 -1.271018609371593611e-13 3.702967498061225660e-14 -2.702165375408505793e-14 6.004811719476782494e-14
6.948000000000000000e+03 5.864735412597656250e+01 -2.444114303588867188e+01 1.691355389077386917e-13 3.012413994467333378e-13 1.411130869273524713e-13 -1.200962343895356499e-13
6.949000000000000000e+03 7.413958740234375000e+01 -1.367317581176757812e+01 4.003208151797700565e-14 -1.200962343895356499e-13 -2.401924891078620339e-14 -1.601283260719080226e-14
6.950000000000000000e+03 5.575168609619140625e+01 -1.545138835906982422e+01 5.604491073703601889e-14 3.442758773376797254e-13 1.200962343895356499e-13 -2.001604042017532392e-13
6.951000000000000000e+03 5.547651290893554688e+01 -1.266352176666259766e+01 1.951563910473907981e-14 1.456166865690042278e-13 4.953969770212299228e-14 -1.721379386688398627e-13
6.952000000000000000e+03 2.418929672241210938e+01 -1.763032913208007812e+01 2.151724233360498284e-14 -3.652927163229693908e-14 -4.503608959014176322e-15 1.801443651368306309e-13
6.953000000000000000e+03 7.439411163330078125e+00 -1.114587306976318359e+01 -1.576263093303314350e-14 -6.755413438521264483e-15 -6.755413438521264483e-15 1.431146867680865853e-13
6.954000000000000000e+03 7.992574214935302734e+00 -1.061616611480712891e+01 -2.020369006643096821e-13 3.709222328156930315e-13 5.066560100066772043e-14 2.577065080430762656e-13
6.955000000000000000e+03 1.359541416168212891e+01 -2.552228927612304688e+01 1.401122870069854143e-13 2.201764432666758475e-13 1.080866150163402317e-13 1.961571909677578551e-13
6.956000000000000000e+03 7.572186279296875000e+01 -1.733920097351074219e+01 -7.205774334422682115e-14 -1.681347389873716347e-13 -7.205774334422682115e-14 2.802245536851800944e-14
6.957000000000000000e+03 5.687888717651367188e+01 -1.296824645996093750e+01 2.121700303512122354e-13 5.484394947734283488e-13 2.281828697346666157e-13 4.003208151797700565e-14
6.958000000000000000e+03 5.896004486083984375e+01 -1.984922599792480469e+01 1.455013681154332383e-13 1.538596317409227088e-13 8.980829453589592171e-14 -1.641002600732271999e-13
6.959000000000000000e+03 6.043067932128906250e+01 -1.712084197998046875e+01 6.204972381176551699e-14 4.383512866926175811e-13 1.501202997631831404e-13 -3.002406113848275424e-15
6.960000000000000000e+03 5.743466567993164062e+01 -1.752428245544433594e+01 2.922341730583755126e-13 1.481186999224490264e-13 1.321058605389946461e-13 -3.002405995263662808e-13
6.961000000000000000e+03 2.491578674316406250e+01 -1.645701789855957031e+01 -7.706175649858926224e-14 -3.302646513474866152e-14 -3.302646513474866152e-14 6.405133042876320904e-14
6.962000000000000000e+03 1.829916191101074219e+01 -1.550798606872558594e+01 0.000000000000000000e+00 0.000000000000000000e+00 0.000000000000000000e+00 -5.204170427930421283e-14
6.963000000000000000e+03 1.782513236999511719e+01 -1.558304691314697266e+01 -2.902325732176413986e-13 1.501202997631831404e-13 -4.203368474684290867e-14 2.161732300326804634e-13
6.964000000000000000e+03 4.995423507690429688e+01 -1.038924884796142578e+01 2.562053217150528361e-13 2.241796429481440756e-13 1.441154866884536423e-13 1.200962445539310169e-14
6.965000000000000000e+03 5.099604415893554688e+01 -8.261614799499511719e+00 2.852285736158061136e-13 3.052445991282015658e-13 1.771419518232023038e-13 6.004812227696550847e-15
6.966000000000000000e+03 5.020177078247070312e+01 -9.007123947143554688e+00 1.281026608575264181e-13 1.921539912862896271e-13 9.607699564314481355e-14 -1.601283260719080226e-14
6.967000000000000000e+03 4.353683853149414062e+01 -1.617138099670410156e+01 -2.361892690976030718e-13 1.961571909677578551e-13 -1.200962445539310169e-14 2.802245536851800944e-14
6.968000000000000000e+03 1.772504425048828125e+01 -1.432469844818115234e+01 -4.003208151797700565e-15 -1.160930347080674219e-13 -3.602887167211341057e-14 1.323560672953499884e-13
6.969000000000000000e+03 1.715920066833496094e+01 -1.381084823608398438e+01 -1.135910281308862013e-13 -5.154130431912068433e-14 -4.953969770212299228e-14 -4.803849782157240678e-14
6.970000000000000000e+03 4.403710937500000000e+01 -1.700032043457031250e+01 -1.481186999224490264e-13 1.881507780522942430e-13 1.200962445539310169e-14 3.202566521438160452e-14
6.971000000000000000e+03 2.013923454284667969e+01 -2.395105171203613281e+01 -6.805453688649501509e-14 -2.121700303512122354e-13 -8.406736949368581735e-14 -1.761411519028352468e-13
6.972000000000000000e+03 2.605303573608398438e+01 -1.884659767150878906e+01 8.206576287668812530e-14 2.181748434259417335e-13 9.007218256841531545e-14 -3.582871304329271478e-13
6.973000000000000000e+03 2.335736846923828125e+01 -2.130357933044433594e+01 3.632911300347624328e-13 -7.305854326459387815e-14 8.706977603105056640e-14 -1.040834085586084257e-13
6.974000000000000000e+03 2.386739349365234375e+01 -2.421309280395507812e+01 1.821459649775647449e-13 7.806255641895631925e-14 7.806255641895631925e-14 -8.006416303595401129e-15
6.975000000000000000e+03 3.380991744995117188e+01 -7.133475303649902344e+00 1.080866150163402317e-13 9.207378240914942946e-14 6.004811719476782494e-14 -1.521218996039172544e-13
6.976000000000000000e+03 1.759356117248535156e+01 -2.279405403137207031e+01 1.801443583605670529e-14 2.822261738547049426e-13 9.007218256841531545e-14 1.781427517435693608e-13
6.977000000000000000e+03 2.431434059143066406e+01 -2.553332901000976562e+01 2.001604042017532392e-13 4.003208151797700565e-14 7.205774334422682115e-14 6.004811719476782494e-14
6.978000000000000000e+03 2.660787391662597656e+01 -2.461528778076171875e+01 7.405934996122451319e-14 3.062454261536229350e-13 1.140914348673333079e-13 -7.606094980195862720e-14
6.979000000000000000e+03 8.489532470703125000e+00 -1.007286357879638672e+01 3.193183768074835116e-14 -1.235677684306712987e-13 -2.749077956379006316e-14 2.007859075401144389e-13
6.980000000000000000e+03 8.479561805725097656e+00 -1.117831611633300781e+01 -3.288572891649646501e-14 -5.984482928742679286e-14 -2.781916746117697736e-14 1.845854198656571299e-13
6.981000000000000000e+03 3.376584625244140625e+01 -6.533637046813964844e+00 1.801443583605670529e-14 -3.803047490097931360e-14 -6.004812227696550847e-15 -5.604491073703601889e-14
6.982000000000000000e+03 5.028389358520507812e+01 -1.391088581085205078e+01 4.603689120457471473e-14 2.942358000041639388e-13 1.020818019416107336e-13 -9.607699564314481355e-14
6.983000000000000000e+03 8.713078498840332031e+00 -6.604258060455322266e+00 4.866399777180181740e-14 -9.995509872269894847e-14 -1.538733096289549712e-14 1.214723444444357203e-13
6.984000000000000000e+03 8.118713378906250000e+00 -7.257974624633789062e+00 6.755413692631148659e-14 2.577065080430762656e-13 9.757819552369539906e-14 1.160930347080674219e-13
6.985000000000000000e+03 4.401085662841796875e+01 -2.097419548034667969e+01 2.101684237342145434e-14 4.903929774193946378e-14 2.101684237342145434e-14 6.104892389139845998e-14
6.986000000000000000e+03 4.272703552246093750e+01 -2.250737571716308594e+01 1.321058605389946461e-13 1.481186999224490264e-13 8.406736949368581735e-14 9.607699564314481355e-14
6.987000000000000000e+03 5.143762588500976562e+01 -1.329573726654052734e+01 6.004811719476782494e-14 3.002405995263662808e-13 1.080866150163402317e-13 -1.831467648979318019e-13
6.988000000000000000e+03 7.477557373046875000e+01 -2.904514312744140625e+01 5.604491073703601889e-14 1.841475648182988589e-13 7.205774334422682115e-14 1.621299259126421366e-13
6.989000000000000000e+03 7.631119537353515625e+01 -2.875609207153320312e+01 -2.401924891078620339e-14 -5.604491073703601889e-14 -2.401924891078620339e-14 1.481186999224490264e-13
6.990000000000000000e+03 3.382805633544921875e+01 -8.655168533325195312e+00 2.001604075898850282e-15 -1.020818019416107336e-13 -3.002405859738391247e-14 -1.200962445539310169e-14
6.991000000000000000e+03 3.354644012451171875e+01 -7.723114490509033203e+00 5.604491073703601889e-14 1.841475648182988589e-13 7.205774334422682115e-14 4.803849782157240678e-14
6.992000000000000000e+03 1.237216949462890625e+01 -2.737529754638671875e+01 1.461170865291877563e-13 -1.661331391466375207e-13 -6.004812227696550847e-15 7.205774334422682115e-14
6.993000000000000000e+03 6.011761474609375000e+01 -1.290542411804199219e+01 2.251804564210382886e-14 1.926543912464731556e-13 6.455173038894673754e-14 -5.304250758780305885e-14
6.994000000000000000e+03 4.957711029052734375e+01 -2.737757873535156250e+01 -1.261010474642651480e-13 2.662133209187234062e-13 4.203368474684290867e-14 -4.003208151797700565e-14
6.995000000000000000e+03 6.418166351318359375e+01 -1.545027446746826172e+01 1.566255127980961670e-13 1.586271126388302810e-13 9.457578898633065001e-14 -2.802245536851800944e-14
6.996000000000000000e+03 7.501892852783203125e+01 -3.025736427307128906e+01 1.481186999224490264e-13 2.922341730583755126e-13 1.321058605389946461e-13 1.601283260719080226e-14
6.997000000000000000e+03 5.669906997680664062e+01 -1.617870330810546875e+01 8.206576287668812530e-14 2.181748434259417335e-13 9.007218256841531545e-14 -5.204170427930421283e-14
6.998000000000000000e+03 7.064218902587890625e+01 -3.241447448730468750e+01 -3.803047490097931360e-14 2.582069215557869502e-13 6.605293026949732305e-14 -1.601283260719080226e-14
6.999000000000000000e+03 3.406689453125000000e+01 -3.138030052185058594e+01 -7.706175649858926224e-14 -3.302646513474866152e-14 -3.302646513474866152e-14 1.040834085586084257e-13
7.000000000000000000e+03 1.679407119750976562e+01 -2.448062133789062500e+01 8.713232772013940197e-14 3.734242326166106740e-14 3.734242326166106740e-14 7.756215645877279075e-14
7.001000000000000000e+03 4.477849578857421875e+01 -2.507861137390136719e+01 -1.361090737729900302e-13 5.604491073703601889e-14 -2.401924891078620339e-14 -6.805453688649501509e-14
7.002000000000000000e+03 4.483270645141601562e+01 -2.384756851196289062e+01 4.903929774193946378e-14 2.101684237342145434e-14 2.101684237342145434e-14 4.003208151797700565e-14
7.003000000000000000e+03 3.784573364257812500e+01 -1.449936485290527344e+01 -1.261010474642651480e-13 2.662133209187234062e-13 4.203368474684290867e-14 1.281026608575264181e-13
7.004000000000000000e+03 3.894450378417968750e+01 -1.428021144866943359e+01 -2.481988952470620680e-13 1.681347389873716347e-13 -2.401924891078620339e-14 1.601283260719080226e-14
7.005000000000000000e+03 4.636733531951904297e+00 -5.059949874877929688e+00 -2.602085213965210642e-14 3.662935297958636038e-13 1.020818019416107336e-13 2.001604075898850282e-14
7.006000000000000000e+03 8.504678726196289062e+00 -4.856979846954345703e+00 8.807057595141762341e-14 -8.006416303595401129e-15 2.401924891078620339e-14 1.881507780522942430e-13
7.007000000000000000e+03 7.472723007202148438e+00 -6.749147415161132812e+00 -1.541235129971785245e-13 1.401122768425900472e-14 -4.203368474684290867e-14 1.881507780522942430e-13
7.008000000000000000e+03 5.668273448944091797e+00 -6.407561302185058594e+00 6.004812227696550847e-15 4.143320343936995886e-13 1.261010474642651480e-13 8.807057595141762341e-14
7.009000000000000000e+03 6.825417518615722656e+00 -5.786249160766601562e+00 5.004010105043830980e-14 9.007218256841531545e-14 4.203368474684290867e-14 7.205774334422682115e-14
7.010000000000000000e+03 6.513962268829345703e+00 -5.153523921966552734e+00 -1.481186999224490264e-13 2.802245536851800944e-14 -3.602887167211341057e-14 1.120898214740720378e-13
7.011000000000000000e+03 7.350021362304687500e+01 -2.950535202026367188e+01 1.220978477827969200e-13 4.183352340751678167e-13 1.621299259126421366e-13 5.604491073703601889e-14
7.012000000000000000e+03 4.205493927001953125e+00 -2.952410125732421875e+01 -1.160930347080674219e-13 3.162534253572935050e-13 6.004811719476782494e-14 8.006416303595401129e-15
7.013000000000000000e+03 5.331614494323730469e+00 -2.864662933349609375e+01 -4.003208151797700565e-15 3.642919299551294898e-13 1.080866150163402317e-13 -2.922341730583755126e-13
7.014000000000000000e+03 7.565954589843750000e+01 -2.811700630187988281e+01 -2.001604075898850282e-14 -1.000802021008766196e-13 -3.602887167211341057e-14 1.120898214740720378e-13
7.015000000000000000e+03 2.673252105712890625e+01 -1.556296730041503906e+01 -1.601283260719080226e-13 1.601283260719080226e-13 0.000000000000000000e+00 4.753809447325708926e-14
7.016000000000000000e+03 7.641773223876953125e+01 -2.515472412109375000e+01 1.461170865291877563e-13 3.943159817762498243e-13 1.621299259126421366e-13 -6.004812227696550847e-15
7.017000000000000000e+03 1.969481468200683594e+01 -1.690327644348144531e+01 1.020818019416107336e-13 -2.001604075898850282e-15 3.002405859738391247e-14 2.401924891078620339e-14
7.018000000000000000e+03 7.619377899169921875e+01 -2.738718795776367188e+01 -8.006416303595401129e-15 8.807057595141762341e-14 2.401924891078620339e-14 1.200962343895356499e-13
7.019000000000000000e+03 6.539455413818359375e+01 -1.407674789428710938e+01 1.000802021008766196e-13 -1.401122870069854143e-13 -1.200962445539310169e-14 8.006416303595401129e-15
7.020000000000000000e+03 6.433554840087890625e+01 -1.268381595611572266e+01 -6.405133042876320904e-14 2.241796429481440756e-13 4.803849782157240678e-14 2.081668171172168513e-13
7.021000000000000000e+03 7.538144683837890625e+01 -1.326621723175048828e+01 2.121700303512122354e-13 -9.207378240914942946e-14 3.602887167211341057e-14 -8.006416303595401129e-14
7.022000000000000000e+03 7.475650787353515625e+01 -1.344848155975341797e+01 8.406736949368581735e-14 1.961571909677578551e-13 8.406736949368581735e-14 -6.405133042876320904e-14
7.023000000000000000e+03 4.956114768981933594e+00 -2.977556228637695312e+01 -1.000802037949425141e-14 2.702165477052459464e-13 7.806255641895631925e-14 -8.006416303595401129e-14
7.024000000000000000e+03 7.531612396240234375e+01 -1.667826080322265625e+01 1.801443583605670529e-14 4.203368474684290867e-14 1.801443583605670529e-14 2.401924891078620339e-14
7.025000000000000000e+03 7.558974456787109375e+01 -1.560192012786865234e+01 -2.001604075898850282e-14 -1.000802021008766196e-13 -3.602887167211341057e-14 1.200962445539310169e-14
7.026000000000000000e+03 7.640682220458984375e+01 -2.608813858032226562e+01 0.000000000000000000e+00 1.601283260719080226e-13 4.803849782157240678e-14 4.753809447325708926e-14
7.027000000000000000e+03 7.410253906250000000e+01 -1.506468009948730469e+01 1.381106736137241442e-13 2.421940957248597259e-13 1.140914348673333079e-13 -1.120898214740720378e-13
7.028000000000000000e+03 4.911710262298583984e+00 -2.735433197021484375e+01 7.405934996122451319e-14 -1.401122768425900472e-14 1.801443583605670529e-14 -1.120898214740720378e-13
7.029000000000000000e+03 2.092827033996582031e+01 -1.793619728088378906e+01 5.004010105043830980e-14 -7.005614350349270714e-14 -6.004812227696550847e-15 0.000000000000000000e+00
7.030000000000000000e+03 2.208099937438964844e+01 -1.699975395202636719e+01 -2.031628039628544102e-13 -8.706977603105056640e-14 -8.706977603105056640e-14 -1.200962445539310169e-14
7.031000000000000000e+03 4.864056587219238281e+00 -3.049155426025390625e+01 -1.821459649775647449e-13 2.421940957248597259e-13 1.801443583605670529e-14 -8.006416303595401129e-15
7.032000000000000000e+03 4.335650444030761719e+00 -3.179118156433105469e+01 1.020818019416107336e-13 2.381908689383371858e-13 1.020818019416107336e-13 9.207378240914942946e-14
7.033000000000000000e+03 5.518264770507812500e+00 -2.474187660217285156e+01 1.040834085586084257e-13 1.361090737729900302e-13 7.205774334422682115e-14 -1.601283260719080226e-13
7.034000000000000000e+03 4.090162277221679688e+00 -3.304506683349609375e+01 -4.303448466720996568e-14 3.933151818558827673e-13 1.050842084789754827e-13 1.120898214740720378e-13
7.035000000000000000e+03 8.641528129577636719e+00 -3.403253173828125000e+01 1.000802037949425141e-14 -1.901523778930283570e-13 -5.404330750817011586e-14 -1.761411519028352468e-13
7.036000000000000000e+03 3.792839050292968750e+00 -1.207840251922607422e+01 1.631307258330091936e-13 2.071660171968497943e-13 1.110890215537049808e-13 6.805453688649501509e-14
7.037000000000000000e+03 4.210679531097412109e+00 -1.321407794952392578e+01 4.403528797570881170e-14 1.561251128379126385e-13 6.004811719476782494e-14 6.004811719476782494e-14
7.038000000000000000e+03 4.547426223754882812e+00 -2.673754692077636719e+01 8.606896933441993136e-14 2.542037218743187221e-13 1.020818019416107336e-13 -1.100882216333379238e-13
7.039000000000000000e+03 5.440325260162353516e+00 -2.702840995788574219e+01 2.001604075898850282e-14 2.602085213965210642e-13 8.406736949368581735e-14 -1.641315257533762506e-13
7.040000000000000000e+03 3.657890558242797852e+00 -1.326606559753417969e+01 1.501202997631831404e-13 1.100882216333379238e-13 7.806255641895631925e-14 4.003208151797700565e-14
7.041000000000000000e+03 5.269347190856933594e+00 -1.267125034332275391e+01 8.406736949368581735e-14 1.961571909677578551e-13 8.406736949368581735e-14 1.332317689197370578e-14
7.042000000000000000e+03 3.830612421035766602e+00 -1.380423450469970703e+01 2.755333125287889873e-13 2.658380378892447049e-14 9.063513421768767953e-14 -2.964875862724626610e-14
7.043000000000000000e+03 4.664505958557128906e+00 -9.423731803894042969e+00 6.004811719476782494e-14 -2.001604075898850282e-14 1.200962445539310169e-14 5.404330750817011586e-14
7.044000000000000000e+03 4.857190132141113281e+00 -1.100083637237548828e+01 7.493505327967747709e-14 3.066207227356287923e-13 1.144667314493391652e-13 6.705373696612795809e-14
7.045000000000000000e+03 4.503468513488769531e+00 -1.043583202362060547e+01 -4.803849782157240678e-14 -1.120898214740720378e-13 -4.803849782157240678e-14 2.802245536851800944e-14
7.046000000000000000e+03 5.308284282684326172e+00 -2.785977172851562500e+01 -1.601283260719080226e-14 1.761411519028352468e-13 4.803849782157240678e-14 -2.802245740139708285e-13
7.047000000000000000e+03 7.385835266113281250e+01 -3.568800735473632812e+01 -7.205774334422682115e-14 3.122502256758252770e-13 7.205774334422682115e-14 -6.204972381176551699e-14
7.048000000000000000e+03 7.517520141601562500e+01 -3.364257431030273438e+01 -3.402726844324750755e-14 2.141716301919463494e-13 5.404330750817011586e-14 6.004811719476782494e-14
7.049000000000000000e+03 3.695900917053222656e+00 -8.087782859802246094e+00 -8.006416303595401129e-15 8.807057595141762341e-14 2.401924891078620339e-14 -5.204170427930421283e-14
7.050000000000000000e+03 3.684994220733642578e+00 -7.358457088470458984e+00 -1.861491782115601290e-13 -3.402726844324750755e-14 -6.605293026949732305e-14 -1.561251128379126385e-13
7.051000000000000000e+03 4.859245777130126953e+00 -8.048941612243652344e+00 -1.321058605389946461e-13 4.923945908126559079e-13 1.080866150163402317e-13 2.401924891078620339e-14
7.052000000000000000e+03 4.387048721313476562e+00 -8.774817466735839844e+00 -1.401122768425900472e-14 3.142518255165593910e-13 9.007218256841531545e-14 -5.604491073703601889e-14
7.053000000000000000e+03 1.811720466613769531e+01 -2.046620178222656250e+01 7.030634348358447139e-14 5.729591741375841818e-14 3.828067826920286687e-14 2.802245536851800944e-14
7.054000000000000000e+03 3.438952636718750000e+01 -1.315332889556884766e+01 -2.201764432666758475e-13 1.801443651368306309e-13 -1.200962445539310169e-14 -1.281026608575264181e-13
7.055000000000000000e+03 3.417328262329101562e+01 -3.239112472534179688e+01 1.000802021008766196e-13 2.001604075898850282e-14 3.602887167211341057e-14 2.241796429481440756e-13
7.056000000000000000e+03 3.286889648437500000e+01 -3.138913345336914062e+01 -8.356696953350228885e-14 -8.156536291650459680e-14 -4.953969770212299228e-14 2.702165375408505793e-14
7.057000000000000000e+03 5.602672195434570312e+01 -1.282334804534912109e+01 1.521218996039172544e-13 -7.205774334422682115e-14 2.401924891078620339e-14 -4.003208151797700565e-14
7.058000000000000000e+03 7.915125370025634766e+00 -3.356565093994140625e+01 -9.257418745153064149e-15 4.178348476675114442e-14 9.757819552369539906e-15 8.706977603105056640e-14
7.059000000000000000e+03 5.784050369262695312e+01 -2.426105117797851562e+01 3.202566521438160452e-14 2.882309733769072846e-13 9.607699564314481355e-14 -5.204170427930421283e-14
7.060000000000000000e+03 5.706068420410156250e+01 -2.349988555908203125e+01 6.204972381176551699e-14 4.383512866926175811e-13 1.501202997631831404e-13 -8.807057595141762341e-14
7.061000000000000000e+03 5.453249740600585938e+01 -1.263941955566406250e+01 1.533729062806396537e-13 2.944859796554649689e-13 1.343576671360841024e-13 -2.321860694161348437e-13
7.062000000000000000e+03 5.444968414306640625e+01 -1.370118904113769531e+01 1.441154866884536423e-13 1.761411519028352468e-13 9.607699564314481355e-14 -2.231788430277770185e-13
7.063000000000000000e+03 4.250342559814453125e+01 -2.120562744140625000e+01 1.451162866088206993e-13 2.852285736158061136e-13 1.291034607778934751e-13 1.220978477827969200e-13
7.064000000000000000e+03 6.133894729614257812e+01 -2.355550384521484375e+01 1.523721063602725967e-13 6.530233032922203029e-14 6.530233032922203029e-14 -2.141716301919463494e-13
7.065000000000000000e+03 6.236302566528320312e+01 -2.171051788330078125e+01 1.261010474642651480e-13 3.742999562638543720e-13 1.501202997631831404e-13 -1.481186999224490264e-13
7.066000000000000000e+03 6.364493370056152344e+00 -3.453542709350585938e+01 2.001604075898850282e-15 1.381106736137241442e-13 4.203368474684290867e-14 5.204170427930421283e-14
7.067000000000000000e+03 1.323101139068603516e+01 -2.643177413940429688e+01 2.421940957248597259e-13 1.381106736137241442e-13 1.140914348673333079e-13 9.857899544406245607e-14
7.068000000000000000e+03 5.176493167877197266e+00 -3.367785263061523438e+01 0.000000000000000000e+00 1.601283260719080226e-13 4.803849782157240678e-14 5.004010105043830980e-14
7.069000000000000000e+03 7.480847167968750000e+01 -3.084713935852050781e+01 -1.601283260719080226e-14 3.362694779747432694e-13 9.607699564314481355e-14 1.601283260719080226e-14
7.070000000000000000e+03 7.364782714843750000e+01 -3.231281280517578125e+01 6.605293026949732305e-14 5.544442942956306908e-13 1.861491782115601290e-13 -4.803849782157240678e-14
7.071000000000000000e+03 1.874267005920410156e+01 -1.888066482543945312e+01 1.020818019416107336e-13 2.381908689383371858e-13 1.020818019416107336e-13 1.050842084789754827e-13
7.072000000000000000e+03 1.815080833435058594e+01 -1.945057487487792969e+01 9.007218256841531545e-14 5.004010105043830980e-14 4.203368474684290867e-14 2.502005052521915490e-14
7.073000000000000000e+03 1.117285537719726562e+01 -9.762317657470703125e+00 -1.541235129971785245e-13 -1.461170865291877563e-13 -9.007218256841531545e-14 1.220978477827969200e-13
7.074000000000000000e+03 9.993055343627929688e+00 -5.571359634399414062e+00 1.000802037949425141e-14 -1.901523778930283570e-13 -5.404330750817011586e-14 1.641315257533762506e-13
7.075000000000000000e+03 2.766135215759277344e+01 -3.043179702758789062e+01 -1.481186999224490264e-13 3.482791041242022656e-13 6.004811719476782494e-14 4.803849782157240678e-14
7.076000000000000000e+03 5.795031738281250000e+01 -1.689835357666015625e+01 1.000802021008766196e-13 1.801443651368306309e-13 8.406736949368581735e-14 -2.321860694161348437e-13
7.077000000000000000e+03 4.131550598144531250e+01 -1.791191482543945312e+01 4.103288143834406265e-14 4.293440603042597559e-13 1.411130869273524713e-13 3.202566521438160452e-14
7.078000000000000000e+03 3.236269760131835938e+01 -9.364822387695312500e+00 -1.521218996039172544e-13 7.205774334422682115e-14 -2.401924891078620339e-14 6.004811719476782494e-14
7.079000000000000000e+03 3.307070541381835938e+01 -9.911808013916015625e+00 -2.802245536851800944e-14 -1.200962445539310169e-14 -1.200962445539310169e-14 6.405133042876320904e-14
7.080000000000000000e+03 4.451480865478515625e+01 -2.294289779663085938e+01 6.204972381176551699e-14 1.981587908084919691e-13 7.806255641895631925e-14 -7.405934996122451319e-14
7.081000000000000000e+03 4.436455154418945312e+01 -1.908937454223632812e+01 1.040834085586084257e-13 1.361090737729900302e-13 7.205774334422682115e-14 1.601283260719080226e-14
7.082000000000000000e+03 2.070761680603027344e+01 -1.705298805236816406e+01 -1.801443583605670529e-14 -2.822261738547049426e-13 -9.007218256841531545e-14 4.003208151797700565e-14
7.083000000000000000e+03 3.247064208984375000e+01 -1.303518962860107422e+01 1.060850151756061177e-13 -4.603689120457471473e-14 1.801443583605670529e-14 1.601283260719080226e-13
7.084000000000000000e+03 4.338040542602539062e+01 -1.691797065734863281e+01 -3.202566521438160452e-14 5.124106434301056723e-13 1.441154866884536423e-13 2.001604075898850282e-14
7.085000000000000000e+03 1.025621986389160156e+01 -2.614497756958007812e+01 6.004812227696550847e-15 -2.261812563414053456e-13 -6.605293026949732305e-14 4.803849782157240678e-14
7.086000000000000000e+03 1.016075134277343750e+01 -2.804940986633300781e+01 8.406736949368581735e-14 1.160930347080674219e-13 6.004811719476782494e-14 -8.907137587178468041e-14
7.087000000000000000e+03 5.863894653320312500e+01 -2.212839508056640625e+01 3.362694779747432694e-13 1.441154866884536423e-13 1.441154866884536423e-13 -1.481186999224490264e-13
7.088000000000000000e+03 5.264180374145507812e+01 -1.153145122528076172e+01 1.381106736137241442e-13 2.421940957248597259e-13 1.140914348673333079e-13 -1.921539912862896271e-13
7.089000000000000000e+03 5.166481781005859375e+01 -1.197977161407470703e+01 4.203368474684290867e-14 3.382710778154773834e-13 1.140914348673333079e-13 -8.807057595141762341e-14
7.090000000000000000e+03 5.502095794677734375e+01 -1.214823246002197266e+01 7.405934996122451319e-14 3.062454261536229350e-13 1.140914348673333079e-13 -2.011612041221202962e-13
7.091000000000000000e+03 5.406597518920898438e+01 -1.208875656127929688e+01 1.124651248323414732e-13 9.395028564796945036e-14 6.192462720985142388e-14 -2.231788430277770185e-13
7.092000000000000000e+03 1.295867347717285156e+01 -6.104635715484619141e+00 1.281026608575264181e-13 1.921539912862896271e-13 9.607699564314481355e-14 9.807859548387892756e-14
7.093000000000000000e+03 2.348831939697265625e+01 -2.506426239013671875e+01 2.321860694161348437e-13 1.681347389873716347e-13 1.200962343895356499e-13 1.601283260719080226e-14
7.094000000000000000e+03 2.455366897583007812e+01 -2.620755577087402344e+01 3.602887167211341057e-14 2.441956955655938399e-13 8.406736949368581735e-14 -5.004010105043830980e-14
7.095000000000000000e+03 2.671491241455078125e+01 -1.639366912841796875e+01 -1.110890215537049808e-13 -1.391114735340912012e-13 -7.506014988159157020e-14 1.921539912862896271e-13
7.096000000000000000e+03 6.303092193603515625e+01 -1.635623359680175781e+01 2.321860694161348437e-13 3.282630515067525012e-13 1.681347389873716347e-13 3.903127820947815962e-14
7.097000000000000000e+03 5.904631042480468750e+01 -1.897941970825195312e+01 -3.502807175174635357e-14 -1.501202929869195624e-14 -1.501202929869195624e-14 -2.802245536851800944e-14
7.098000000000000000e+03 6.237233734130859375e+01 -2.247631072998046875e+01 -4.403528797570881170e-14 4.003208151797700565e-15 -1.200962445539310169e-14 -9.207378240914942946e-14
7.099000000000000000e+03 4.424366378784179688e+01 -2.196844482421875000e+01 5.404330750817011586e-14 2.061652172764827373e-13 7.806255641895631925e-14 -7.606094980195862720e-14
7.100000000000000000e+03 2.690797042846679688e+01 -2.764721488952636719e+01 -3.402726844324750755e-14 2.141716301919463494e-13 5.404330750817011586e-14 4.403528797570881170e-14
7.101000000000000000e+03 5.636112976074218750e+01 -2.547884559631347656e+01 -3.202566521438160452e-14 6.725389559494865388e-13 1.921539912862896271e-13 4.003208151797700565e-14
7.102000000000000000e+03 5.135860443115234375e+01 -2.941918754577636719e+01 -3.102486190588275849e-14 2.612093213168881212e-13 6.905533680686207210e-14 -6.805453688649501509e-14
7.103000000000000000e+03 5.170989227294921875e+01 -2.890650749206542969e+01 -1.601283260719080226e-14 1.601283260719080226e-14 0.000000000000000000e+00 -1.000802037949425141e-14
7.104000000000000000e+03 6.313874816894531250e+01 -1.534525966644287109e+01 2.787233605808930870e-13 2.767217607401589730e-13 1.666335391068210492e-13 5.054050101062183831e-14
7.105000000000000000e+03 7.467810821533203125e+01 -2.687290573120117188e+01 1.461170865291877563e-13 1.541235129971785245e-13 9.007218256841531545e-14 8.006416303595401129e-15
7.106000000000000000e+03 4.362797927856445312e+01 -2.159590721130371094e+01 1.381106736137241442e-13 2.421940957248597259e-13 1.140914348673333079e-13 -5.604491073703601889e-14
7.107000000000000000e+03 3.242001724243164062e+01 -1.132879734039306641e+01 5.204170427930421283e-14 -2.522020949285302960e-13 -6.004811719476782494e-14 1.441154866884536423e-13
7.108000000000000000e+03 7.266509532928466797e+00 -2.595456504821777344e+01 2.602085213965210642e-14 -1.261010474642651480e-13 -3.002405859738391247e-14 -2.562053217150528361e-13
7.109000000000000000e+03 5.802083206176757812e+01 -1.644399261474609375e+01 2.401924891078620339e-14 2.161732300326804634e-13 7.205774334422682115e-14 -6.004811719476782494e-14
7.110000000000000000e+03 5.143112564086914062e+01 -1.245104026794433594e+01 -3.803047490097931360e-14 3.382710778154773834e-13 9.007218256841531545e-14 -1.321058605389946461e-13
7.111000000000000000e+03 7.988237857818603516e+00 -2.581853485107421875e+01 -1.180946345488015359e-13 -1.421138868477195283e-13 -7.806255641895631925e-14 0.000000000000000000e+00
7.112000000000000000e+03 2.693952751159667969e+01 -1.771177291870117188e+01 6.805453688649501509e-14 -2.682149478645118323e-13 -6.004811719476782494e-14 8.006416303595401129e-14
7.113000000000000000e+03 6.247017288208007812e+01 -2.325470352172851562e+01 1.561251128379126385e-13 2.041636038832214672e-13 1.080866150163402317e-13 -1.801443651368306309e-13
7.114000000000000000e+03 5.902370071411132812e+01 -2.364788055419921875e+01 -1.941555911270237411e-13 2.942358000041639388e-13 3.002405859738391247e-14 -1.240994476235310340e-13
7.115000000000000000e+03 5.026970291137695312e+01 -1.097671508789062500e+01 6.004811719476782494e-14 -2.001604075898850282e-14 1.200962445539310169e-14 -5.004010105043830980e-14
7.116000000000000000e+03 5.146949005126953125e+01 -1.024027156829833984e+01 1.040834085586084257e-13 1.361090737729900302e-13 7.205774334422682115e-14 -6.805453688649501509e-14
7.117000000000000000e+03 7.208776855468750000e+01 -2.946358680725097656e+01 -2.251804564210382886e-14 4.478588994886317787e-13 1.276022608973428896e-13 8.807057595141762341e-14
7.118000000000000000e+03 7.078248596191406250e+01 -2.966581153869628906e+01 -2.802245536851800944e-14 3.082470259943570490e-13 8.406736949368581735e-14 3.602887167211341057e-14
7.119000000000000000e+03 4.923937606811523438e+01 -1.276718425750732422e+01 3.602887167211341057e-14 2.441956955655938399e-13 8.406736949368581735e-14 -1.801443651368306309e-13
7.120000000000000000e+03 6.228152084350585938e+01 -1.177366447448730469e+01 -1.157802830388868220e-13 -2.326239244634931147e-13 -1.045212568297031186e-13 -1.866495781717436575e-13
7.121000000000000000e+03 3.118832969665527344e+01 -1.282999324798583984e+01 -1.200962343895356499e-13 -1.200962343895356499e-13 -7.205774334422682115e-14 1.641315257533762506e-13
7.122000000000000000e+03 7.051635742187500000e+01 -3.412495422363281250e+01 -5.604491073703601889e-14 1.361090737729900302e-13 2.401924891078620339e-14 -4.403528797570881170e-14
7.123000000000000000e+03 7.464553833007812500e+01 -3.164349937438964844e+01 -4.403528797570881170e-14 4.843881914497194519e-13 1.321058605389946461e-13 2.802245536851800944e-14
7.124000000000000000e+03 3.415799331665039062e+01 -8.052314758300781250e+00 8.406736949368581735e-14 3.602887167211341057e-14 3.602887167211341057e-14 -4.403528797570881170e-14
7.125000000000000000e+03 5.839447021484375000e+01 -2.324784088134765625e+01 2.191756433463087905e-13 2.311852694957677867e-13 1.351082738526229732e-13 -8.106496295632106830e-14
7.126000000000000000e+03 5.864694595336914062e+01 -2.273112487792968750e+01 -6.805453688649501509e-14 1.080866150163402317e-13 1.200962445539310169e-14 -1.281026608575264181e-13
7.127000000000000000e+03 3.924398040771484375e+01 -1.471396160125732422e+01 -4.583673393100673454e-13 3.182550251980276190e-13 -4.203368474684290867e-14 -7.305854326459387815e-14
7.128000000000000000e+03 3.235959243774414062e+01 -1.067094612121582031e+01 -2.001604075898850282e-14 -1.000802021008766196e-13 -3.602887167211341057e-14 1.361090737729900302e-13
7.129000000000000000e+03 3.480154037475585938e+01 -1.040201187133789062e+01 7.405934996122451319e-14 1.461170865291877563e-13 6.605293026949732305e-14 -5.204170427930421283e-14
7.130000000000000000e+03 1.183757019042968750e+01 -2.766996955871582031e+01 1.761411519028352468e-13 -1.601283260719080226e-14 4.803849782157240678e-14 4.403528797570881170e-14
7.131000000000000000e+03 3.170710182189941406e+01 -1.149537849426269531e+01 -7.005614350349270714e-14 -3.002405859738391247e-14 -3.002405859738391247e-14 1.281026608575264181e-13
7.132000000000000000e+03 6.493353271484375000e+01 -1.324775886535644531e+01 1.601283260719080226e-13 -1.601283260719080226e-13 0.000000000000000000e+00 4.803849782157240678e-14
7.133000000000000000e+03 5.979537963867187500e+01 -2.406327247619628906e+01 1.240994476235310340e-13 2.361892690976030718e-13 1.080866150163402317e-13 -1.381106736137241442e-13
7.134000000000000000e+03 5.250655746459960938e+01 -2.988918495178222656e+01 -8.807057595141762341e-14 3.282630515067525012e-13 7.205774334422682115e-14 -6.004811719476782494e-14
7.135000000000000000e+03 2.087955474853515625e+01 -2.371231842041015625e+01 1.601283260719080226e-14 -1.601283260719080226e-14 0.000000000000000000e+00 1.441154866884536423e-13
7.136000000000000000e+03 2.256118965148925781e+01 -2.396935081481933594e+01 1.761411519028352468e-13 -1.601283260719080226e-14 4.803849782157240678e-14 -2.401924891078620339e-14
7.137000000000000000e+03 7.065779876708984375e+01 -3.528578186035156250e+01 -8.206576287668812530e-14 1.020818019416107336e-13 6.004812227696550847e-15 -3.602887167211341057e-14
7.138000000000000000e+03 5.282929229736328125e+01 -3.326342010498046875e+01 2.822261738547049426e-13 -6.204972381176551699e-14 6.605293026949732305e-14 -1.441154866884536423e-13
7.139000000000000000e+03 5.202318954467773438e+01 -3.491812515258789062e+01 2.201764398785440585e-14 2.381908689383371858e-13 7.806255641895631925e-14 -1.200962343895356499e-13
7.140000000000000000e+03 4.092877197265625000e+01 -1.663794326782226562e+01 -8.306656957331876034e-14 1.931547912066566841e-13 3.302646513474866152e-14 -7.205774334422682115e-14
7.141000000000000000e+03 4.246533966064453125e+01 -1.727266883850097656e+01 -3.552847171192988207e-14 3.507810903725927520e-13 9.457578898633065001e-14 8.006416303595401129e-15
7.142000000000000000e+03 2.395495033264160156e+01 -1.654887580871582031e+01 -1.195958344293521214e-13 -5.504410996963601463e-15 -3.753007494079578510e-14 2.201764398785440585e-14
7.143000000000000000e+03 2.265600967407226562e+01 -1.740254783630371094e+01 -7.305854326459387815e-14 -7.706175649858926224e-14 -4.503609128420765773e-14 -1.080866150163402317e-13
7.144000000000000000e+03 9.365560531616210938e+00 -7.110578536987304688e+00 1.095878216731543953e-13 2.757209608197919160e-13 1.155926347478838934e-13 2.481988952470620680e-13
7.145000000000000000e+03 1.899322509765625000e+01 -1.628932952880859375e+01 -6.405133042876320904e-14 -9.607699564314481355e-14 -4.803849782157240678e-14 1.441154866884536423e-13
7.146000000000000000e+03 4.040276336669921875e+01 -1.679970550537109375e+01 -1.921539912862896271e-13 1.921539912862896271e-13 0.000000000000000000e+00 -8.006416303595401129e-14
7.147000000000000000e+03 4.103733062744140625e+01 -1.566197109222412109e+01 -8.506816941405287436e-14 1.751403519824681898e-13 2.702165375408505793e-14 -1.000802037949425141e-15
7.148000000000000000e+03 4.156973361968994141e+00 -5.300913810729980469e+00 -4.003208151797700565e-14 -4.003208151797700565e-14 -2.401924891078620339e-14 -1.200962445539310169e-14
7.149000000000000000e+03 3.638186454772949219e+00 -5.970025539398193359e+00 -1.301042606982605321e-13 -1.000802037949425141e-14 -4.203368474684290867e-14 6.004811719476782494e-14
7.150000000000000000e+03 2.573960876464843750e+01 -2.242550277709960938e+01 9.607699564314481355e-14 -9.607699564314481355e-14 0.000000000000000000e+00 2.401924891078620339e-14
7.151000000000000000e+03 1.293567180633544922e+01 -8.763065338134765625e+00 1.141539797801585654e-13 1.404250251236388580e-13 7.637370147113922703e-14 8.957178260823178695e-14
7.152000000000000000e+03 5.125085449218750000e+01 -1.112895584106445312e+01 2.001604042017532392e-13 2.001604042017532392e-13 1.200962343895356499e-13 2.301844560228735737e-14
7.153000000000000000e+03 4.247275543212890625e+01 -1.875417137145996094e+01 -3.502807175174635357e-14 3.052445991282015658e-13 8.106496295632106830e-14 -7.606094980195862720e-14
7.154000000000000000e+03 4.379944229125976562e+01 -1.901599121093750000e+01 9.207378240914942946e-14 2.682149478645118323e-13 1.080866150163402317e-13 -1.040834085586084257e-13
7.155000000000000000e+03 2.746849250793457031e+01 -2.717537879943847656e+01 1.501202929869195624e-14 2.351884691772360148e-13 7.506014988159157020e-14 -1.160930347080674219e-13
7.156000000000000000e+03 2.734070968627929688e+01 -2.832759666442871094e+01 -6.405133042876320904e-14 3.843079825725792542e-13 9.607699564314481355e-14 -1.200962343895356499e-13
7.157000000000000000e+03 9.078594207763671875e+00 -3.317825317382812500e+01 -3.002405859738391247e-14 1.701363388281057487e-13 4.203368474684290867e-14 6.805453688649501509e-14
7.158000000000000000e+03 2.746219444274902344e+01 -2.970435523986816406e+01 -2.782229470681824024e-13 3.382710778154773834e-13 1.801443583605670529e-14 6.405133042876320904e-14
7.159000000000000000e+03 4.396183013916015625e+01 -2.007173156738281250e+01 9.072895836318914387e-14 2.117008960711777577e-13 9.072895836318914387e-14 1.070858150959731747e-13
7.160000000000000000e+03 1.201588249206542969e+01 -2.594422721862792969e+01 1.461170865291877563e-13 -8.606896933441993136e-14 1.801443583605670529e-14 1.200962445539310169e-14
7.161000000000000000e+03 6.315305328369140625e+01 -1.443730258941650391e+01 2.256808563812218171e-13 2.597081078838103796e-13 1.456166865690042278e-13 1.150922280114367868e-14
7.162000000000000000e+03 6.180923843383789062e+01 -2.388329887390136719e+01 3.903127820947815962e-13 3.502807039649363796e-13 2.221780431074099615e-13 -7.205774334422682115e-14
7.163000000000000000e+03 5.300539398193359375e+01 -2.791592597961425781e+01 -1.170938346284344789e-13 8.706977603105056640e-14 -9.007217918028352643e-15 -6.405133042876320904e-14
7.164000000000000000e+03 5.215857696533203125e+01 -2.791599273681640625e+01 1.901523745048965680e-14 -9.007217918028352643e-15 3.002406113848275424e-15 -1.351082687704252897e-14
7.165000000000000000e+03 6.109624099731445312e+01 -2.048195266723632812e+01 -3.602887167211341057e-14 7.606094980195862720e-14 1.200962445539310169e-14 -1.040834085586084257e-13
7.166000000000000000e+03 1.322739791870117188e+01 -6.773756980895996094e+00 3.202566521438160452e-14 -3.202566521438160452e-14 0.000000000000000000e+00 4.003208151797700565e-15
7.167000000000000000e+03 1.420857334136962891e+01 -5.209018707275390625e+00 1.120898214740720378e-13 4.803849782157240678e-14 4.803849782157240678e-14 -7.405934996122451319e-14
7.168000000000000000e+03 1.111541461944580078e+01 -5.522416114807128906e+00 1.683849321911998209e-13 -1.108388215736132165e-13 1.726383420171551802e-14 2.001604042017532392e-13
7.169000000000000000e+03 9.849631309509277344e+00 -6.457773208618164062e+00 -1.301042606982605321e-14 -9.707779556351187056e-14 -3.302646513474866152e-14 2.241796429481440756e-13
7.170000000000000000e+03 1.176068592071533203e+01 -2.661028099060058594e+01 1.301042606982605321e-13 1.000802037949425141e-14 4.203368474684290867e-14 2.401924891078620339e-14
7.171000000000000000e+03 7.260543823242187500e+01 -2.992600440979003906e+01 2.201764398785440585e-14 2.381908689383371858e-13 7.806255641895631925e-14 4.803849782157240678e-14
7.172000000000000000e+03 6.868466186523437500e+01 -2.924654006958007812e+01 2.041636038832214672e-13 -1.641315257533762506e-13 1.200962445539310169e-14 8.006416303595401129e-14
7.173000000000000000e+03 6.893750000000000000e+01 -2.847313308715820312e+01 1.341074739322559162e-13 2.862293735361731706e-13 1.261010474642651480e-13 9.207378240914942946e-14
7.174000000000000000e+03 5.175115203857421875e+01 -2.751438903808593750e+01 -1.491194998428160834e-13 1.190954344691685929e-13 -9.007217918028352643e-15 2.802245536851800944e-14
7.175000000000000000e+03 5.804163360595703125e+01 -1.280965709686279297e+01 1.681347389873716347e-13 2.321860694161348437e-13 1.200962343895356499e-13 1.200962445539310169e-14
7.176000000000000000e+03 1.678068542480468750e+01 -2.291392517089843750e+01 1.240994476235310340e-13 2.361892690976030718e-13 1.080866150163402317e-13 -6.004812227696550847e-15
7.177000000000000000e+03 1.690964889526367188e+01 -2.364672279357910156e+01 -5.804651735403371093e-14 1.581267126786467525e-13 3.002405859738391247e-14 -6.605293026949732305e-14
7.178000000000000000e+03 5.496216773986816406e+00 -3.473111724853515625e+01 -3.002405859738391247e-14 1.701363388281057487e-13 4.203368474684290867e-14 -9.207378240914942946e-14
7.179000000000000000e+03 1.415842723846435547e+01 -9.788573265075683594e+00 4.603689120457471473e-14 5.404330750817011586e-14 3.002405859738391247e-14 4.103288143834406265e-14
7.180000000000000000e+03 2.493064689636230469e+01 -2.680697631835937500e+01 -1.000802037949425141e-14 1.901523778930283570e-13 5.404330750817011586e-14 3.602887167211341057e-14
7.181000000000000000e+03 4.971326351165771484e+00 -2.572319602966308594e+01 1.441154866884536423e-13 1.601283260719080226e-14 4.803849782157240678e-14 -1.601283260719080226e-13
7.182000000000000000e+03 3.523186111450195312e+01 -1.292747879028320312e+01 -2.251804564210382886e-13 -5.004010189747125706e-15 -6.905533680686207210e-14 -9.207378240914942946e-14
7.183000000000000000e+03 5.295891189575195312e+01 -1.283929443359375000e+01 6.505213034913026604e-14 1.651323256737433076e-13 6.905533680686207210e-14 -2.401924687790712998e-13
7.184000000000000000e+03 6.052184295654296875e+01 -2.066710472106933594e+01 -1.000802037949425141e-14 2.702165477052459464e-13 7.806255641895631925e-14 -1.601283260719080226e-13
7.185000000000000000e+03 5.947010040283203125e+01 -1.935343551635742188e+01 -6.204972381176551699e-14 2.822261738547049426e-13 6.605293026949732305e-14 -2.261812563414053456e-13
7.186000000000000000e+03 6.285210418701171875e+01 -1.033809280395507812e+01 1.045838085187919542e-13 9.057258252859884395e-14 5.854691731421723944e-14 -6.004812227696550847e-15
7.187000000000000000e+03 6.112167358398437500e+01 -2.114658164978027344e+01 2.001604075898850282e-14 4.203368339159019307e-13 1.321058605389946461e-13 -1.521218996039172544e-13
7.188000000000000000e+03 7.408325195312500000e+01 -3.452460861206054688e+01 -1.200962445539310169e-14 1.321058605389946461e-13 3.602887167211341057e-14 6.405133042876320904e-14
7.189000000000000000e+03 7.031912231445312500e+01 -3.039427757263183594e+01 2.001604075898850282e-14 2.602085213965210642e-13 8.406736949368581735e-14 2.802245536851800944e-14
7.190000000000000000e+03 5.169887924194335938e+01 -3.033448982238769531e+01 -8.206576287668812530e-14 1.020818019416107336e-13 6.004812227696550847e-15 -4.003208151797700565e-14
7.191000000000000000e+03 6.228806304931640625e+01 -1.078734302520751953e+01 -1.055846084391590112e-13 -1.396118734942747297e-13 -7.355895000104098469e-14 -1.386110735739076727e-13
7.192000000000000000e+03 6.208415985107421875e+01 -1.232576465606689453e+01 8.606896933441993136e-14 -1.461170865291877563e-13 -1.801443583605670529e-14 -2.241796429481440756e-13
7.193000000000000000e+03 2.572558975219726562e+01 -2.833359718322753906e+01 -2.201764432666758475e-13 1.801443651368306309e-13 -1.200962445539310169e-14 1.361090737729900302e-13
7.194000000000000000e+03 1.008289146423339844e+01 -3.175384140014648438e+01 8.006416303595401129e-15 7.205774334422682115e-14 2.401924891078620339e-14 -1.361090737729900302e-13
7.195000000000000000e+03 4.774986743927001953e+00 -3.266217803955078125e+01 -9.007218256841531545e-14 1.901523778930283570e-13 3.002405859738391247e-14 -2.001604075898850282e-14
7.196000000000000000e+03 5.703782558441162109e+00 -3.592778778076171875e+01 -1.000802021008766196e-13 1.401122870069854143e-13 1.200962445539310169e-14 3.202566521438160452e-14
7.197000000000000000e+03 9.089391708374023438e+00 -3.097653198242187500e+01 -1.000802037949425141e-14 -5.004010105043830980e-14 -1.801443583605670529e-14 -4.403528797570881170e-14
7.198000000000000000e+03 2.593750000000000000e+01 -2.777537155151367188e+01 -1.461170865291877563e-13 8.606896933441993136e-14 -1.801443583605670529e-14 -4.403528797570881170e-14
7.199000000000000000e+03 2.658353042602539062e+01 -2.581406211853027344e+01 9.057258252859884395e-14 8.456776945386934585e-14 5.254210423948774134e-14 -3.102486190588275849e-14
7.200000000000000000e+03 5.363452148437500000e+01 -3.021811485290527344e+01 -3.002405859738391247e-14 1.701363388281057487e-13 4.203368474684290867e-14 9.607699564314481355e-14
7.201000000000000000e+03 5.768738269805908203e+00 -2.931994056701660156e+01 -4.003208151797700565e-14 1.200962343895356499e-13 2.401924891078620339e-14 -1.601283260719080226e-13
7.202000000000000000e+03 6.828726196289062500e+01 -3.814709472656250000e+01 -4.653729455289003225e-14 -8.857097591160115191e-14 -4.053248147816053415e-14 6.004812227696550847e-15
7.203000000000000000e+03 2.837393760681152344e+01 -3.009053230285644531e+01 -2.061652172764827373e-13 1.861491782115601290e-13 -6.004812227696550847e-15 -1.040834085586084257e-13
7.204000000000000000e+03 3.045611190795898438e+01 -3.204154586791992188e+01 -5.004010105043830980e-14 2.301844695754007297e-13 5.404330750817011586e-14 -1.601283260719080226e-14
7.205000000000000000e+03 7.202263355255126953e+00 -3.726553344726562500e+01 -6.705373696612795809e-14 1.771419518232023038e-13 3.302646513474866152e-14 5.204170427930421283e-14
7.206000000000000000e+03 3.066057586669921875e+01 -3.614473724365234375e+01 -2.702165375408505793e-14 9.707779556351187056e-14 2.101684237342145434e-14 5.904731727440076794e-14
7.207000000000000000e+03 2.997575378417968750e+01 -3.426320648193359375e+01 -1.000802037949425141e-15 9.107298248878237246e-14 2.702165375408505793e-14 6.405133042876320904e-14
7.208000000000000000e+03 3.369102096557617188e+01 -3.925226593017578125e+01 -3.102486190588275849e-14 1.010810020212436766e-13 2.101684237342145434e-14 -1.000802037949425141e-14
7.209000000000000000e+03 7.269179534912109375e+01 -4.173524475097656250e+01 -4.703769451307356075e-14 -4.303448466720996568e-14 -2.702165375408505793e-14 3.002405859738391247e-14
7.210000000000000000e+03 7.467650604248046875e+01 -3.992927551269531250e+01 -4.903929774193946378e-14 1.391114735340912012e-13 2.702165375408505793e-14 5.404330750817011586e-14
7.211000000000000000e+03 5.328406906127929688e+01 -3.938081741333007812e+01 -4.703769451307356075e-14 1.170938346284344789e-13 2.101684237342145434e-14 -1.801443583605670529e-14
7.212000000000000000e+03 3.428356552124023438e+01 -3.576151275634765625e+01 -5.404330750817011586e-14 -4.603689120457471473e-14 -3.002405859738391247e-14 3.602887167211341057e-14
7.213000000000000000e+03 3.585180664062500000e+01 -3.573773956298828125e+01 6.004811719476782494e-14 6.004811719476782494e-14 3.602887167211341057e-14 1.160930347080674219e-13
7.214000000000000000e+03 3.217995452880859375e+01 -3.686137008666992188e+01 -9.007217918028352643e-15 1.901523745048965680e-14 3.002406113848275424e-15 -8.006416303595401129e-15
7.215000000000000000e+03 3.297161102294921875e+01 -4.138684463500976562e+01 -5.654531408535133641e-14 2.151724233360498284e-14 -1.050842118671072717e-14 2.602085213965210642e-14
7.216000000000000000e+03 7.059062957763671875e+01 -3.683027267456054688e+01 -4.203368474684290867e-14 2.221780431074099615e-13 5.404330750817011586e-14 6.004812227696550847e-15
7.217000000000000000e+03 8.036238670349121094e+00 -3.894347000122070312e+01 -6.054852393121493148e-14 1.256006475040816195e-13 1.951563910473907981e-14 -3.227586519447336877e-14
7.218000000000000000e+03 3.310614395141601562e+01 -3.264242935180664062e+01 -5.804651735403371093e-14 -1.621299259126421366e-13 -6.605293026949732305e-14 3.202566521438160452e-14
7.219000000000000000e+03 5.827365875244140625e+01 -1.783182525634765625e+01 3.152526254369264480e-13 4.153328343140666457e-13 2.191756433463087905e-13 5.504411081666896188e-14
7.220000000000000000e+03 5.256289672851562500e+01 -2.824727439880371094e+01 4.403528797570881170e-14 1.561251128379126385e-13 6.004811719476782494e-14 7.405934996122451319e-14
7.221000000000000000e+03 5.231884384155273438e+01 -2.862804412841796875e+01 2.602085213965210642e-14 -1.261010474642651480e-13 -3.002405859738391247e-14 1.601283260719080226e-14
7.222000000000000000e+03 1.042878246307373047e+01 -6.028430938720703125e+00 5.204170427930421283e-14 3.883111822540474822e-13 1.321058605389946461e-13 2.001604075898850282e-14
7.223000000000000000e+03 2.359520721435546875e+01 -1.718558120727539062e+01 7.506014988159157020e-14 -1.050842084789754827e-13 -9.007217918028352643e-15 -7.205774334422682115e-14
7.224000000000000000e+03 7.388833618164062500e+01 -2.888255119323730469e+01 -3.402726844324750755e-14 2.141716301919463494e-13 5.404330750817011586e-14 1.461170865291877563e-13
7.225000000000000000e+03 8.868214607238769531e+00 -2.647232437133789062e+01 -1.200962343895356499e-13 -1.200962343895356499e-13 -7.205774334422682115e-14 -1.521218996039172544e-13
7.226000000000000000e+03 4.338096618652343750e+01 -2.377964210510253906e+01 1.200962343895356499e-13 2.802245740139708285e-13 1.200962343895356499e-13 -3.202566521438160452e-14
7.227000000000000000e+03 2.175876617431640625e+01 -1.762917137145996094e+01 -2.902325867701685547e-14 7.906335633932337625e-14 1.501202929869195624e-14 5.204170427930421283e-14
7.228000000000000000e+03 2.637550926208496094e+01 -1.982568359375000000e+01 2.301844695754007297e-13 -1.301042606982605321e-13 3.002405859738391247e-14 -1.921539912862896271e-13
7.229000000000000000e+03 5.611901473999023438e+01 -1.348960208892822266e+01 -1.200962445539310169e-14 2.922341730583755126e-13 8.406736949368581735e-14 -3.242598518252842732e-13
7.230000000000000000e+03 5.389044952392578125e+01 -2.951903915405273438e+01 7.005614350349270714e-14 4.303448602246268129e-13 1.501202997631831404e-13 4.803849782157240678e-14
7.231000000000000000e+03 5.328371429443359375e+01 -2.856445121765136719e+01 -1.601283260719080226e-14 1.761411519028352468e-13 4.803849782157240678e-14 1.601283260719080226e-13
7.232000000000000000e+03 5.739385604858398438e+01 -1.428193855285644531e+01 1.240994476235310340e-13 2.361892690976030718e-13 1.080866150163402317e-13 -2.882309733769072846e-13
7.233000000000000000e+03 6.560724735260009766e+00 -2.608692550659179688e+01 -3.602887167211341057e-14 2.361892690976030718e-13 6.004811719476782494e-14 -1.200962445539310169e-14
7.234000000000000000e+03 6.163031387329101562e+01 -2.265301704406738281e+01 2.121700303512122354e-13 2.281828697346666157e-13 1.321058605389946461e-13 -2.361892690976030718e-13
7.235000000000000000e+03 6.064350509643554688e+01 -2.244997978210449219e+01 6.004811719476782494e-14 1.401122870069854143e-13 6.004811719476782494e-14 -2.161732300326804634e-13
7.236000000000000000e+03 1.802240371704101562e+01 -2.303429985046386719e+01 4.003208151797700565e-14 4.003208151797700565e-14 2.401924891078620339e-14 2.802245536851800944e-14
7.237000000000000000e+03 7.442281341552734375e+01 -1.430075168609619141e+01 9.207378240914942946e-14 -5.204170427930421283e-14 1.200962445539310169e-14 -8.807057595141762341e-14
7.238000000000000000e+03 7.446124267578125000e+01 -1.549837589263916016e+01 1.074611184542426101e-13 1.439903833102759712e-13 7.543545323986100559e-14 2.614595212969798854e-14
7.239000000000000000e+03 3.185268020629882812e+01 -1.217916679382324219e+01 -4.403528797570881170e-14 -1.561251128379126385e-13 -6.004811719476782494e-14 1.801443651368306309e-13
7.240000000000000000e+03 3.363373184204101562e+01 -1.336003875732421875e+01 -5.604491073703601889e-14 -2.401924891078620339e-14 -2.401924891078620339e-14 1.601283260719080226e-13
7.241000000000000000e+03 6.399117660522460938e+01 -1.430253219604492188e+01 1.481186999224490264e-13 2.922341730583755126e-13 1.321058605389946461e-13 -8.006416303595401129e-14
7.242000000000000000e+03 2.332053947448730469e+01 -2.448891067504882812e+01 1.501202997631831404e-13 1.100882216333379238e-13 7.806255641895631925e-14 2.401924891078620339e-14
7.243000000000000000e+03 6.510177135467529297e+00 -1.064897823333740234e+01 4.203368474684290867e-14 1.801443583605670529e-14 1.801443583605670529e-14 1.601283260719080226e-14
7.244000000000000000e+03 7.553353881835937500e+01 -2.743420219421386719e+01 6.204972381176551699e-14 1.180946345488015359e-13 5.404330750817011586e-14 -4.803849782157240678e-14
7.245000000000000000e+03 5.295810699462890625e+00 -1.152965068817138672e+01 -5.429350748826188011e-14 -2.326864727644501613e-14 -2.326864727644501613e-14 -3.402726844324750755e-14
7.246000000000000000e+03 4.301327514648437500e+01 -1.828187942504882812e+01 1.100882216333379238e-13 2.301844695754007297e-13 1.020818019416107336e-13 6.204972381176551699e-14
7.247000000000000000e+03 4.389418792724609375e+01 -1.842417335510253906e+01 -6.405133042876320904e-14 6.405133042876320904e-14 0.000000000000000000e+00 -1.601283260719080226e-14
7.248000000000000000e+03 7.559204864501953125e+01 -3.036142730712890625e+01 -1.481186999224490264e-13 2.802245536851800944e-14 -3.602887167211341057e-14 -1.761411519028352468e-13
7.249000000000000000e+03 7.576596832275390625e+01 -2.873557281494140625e+01 1.401122870069854143e-13 3.803047557860567141e-13 1.561251128379126385e-13 -1.521218996039172544e-13
7.250000000000000000e+03 6.143715667724609375e+01 -1.221077156066894531e+01 1.240994476235310340e-13 -4.043240080849747065e-13 -8.406736949368581735e-14 1.601283260719080226e-14
7.251000000000000000e+03 7.525428009033203125e+01 -2.882904052734375000e+01 1.040834085586084257e-13 -2.401924891078620339e-14 2.401924891078620339e-14 -4.803849782157240678e-14
7.252000000000000000e+03 7.384169006347656250e+01 -1.451782989501953125e+01 8.006416303595401129e-15 7.205774334422682115e-14 2.401924891078620339e-14 9.607699564314481355e-14
7.253000000000000000e+03 1.350764942169189453e+01 -9.283192634582519531e+00 -3.016166960287391952e-13 -1.750152486042905187e-13 -1.429895833899089141e-13 -1.701363422162375377e-14
7.254000000000000000e+03 1.275539398193359375e+01 -7.830080986022949219e+00 7.405934996122451319e-14 6.605293026949732305e-14 4.203368474684290867e-14 1.421138868477195283e-13
7.255000000000000000e+03 4.413544082641601562e+01 -2.491797256469726562e+01 -1.120898214740720378e-13 1.120898214740720378e-13 0.000000000000000000e+00 8.807057595141762341e-14
7.256000000000000000e+03 4.534854507446289062e+01 -2.424558448791503906e+01 -2.702165375408505793e-14 4.173344341548007597e-13 1.170938346284344789e-13 -1.033328086183331329e-13
7.257000000000000000e+03 5.672082901000976562e+01 -1.352505970001220703e+01 1.160930347080674219e-13 3.242598518252842732e-13 1.321058605389946461e-13 -1.761411519028352468e-13
7.258000000000000000e+03 5.779197311401367188e+01 -1.337492752075195312e+01 1.130906281707026728e-13 2.772221471478153454e-13 1.170938346284344789e-13 -4.203368339159019307e-13
7.259000000000000000e+03 2.337812423706054688e+01 -1.896336746215820312e+01 -1.000802037949425141e-14 3.002405859738391247e-14 6.004812227696550847e-15 -7.706175649858926224e-14
7.260000000000000000e+03 4.351142120361328125e+01 -2.047604942321777344e+01 8.606896933441993136e-14 1.741395520621011328e-13 7.806255641895631925e-14 -1.180946345488015359e-13
7.261000000000000000e+03 4.296513366699218750e+01 -2.082613945007324219e+01 1.421138868477195283e-13 2.782229470681824024e-13 1.261010474642651480e-13 2.201764398785440585e-14
7.262000000000000000e+03 7.435430908203125000e+01 -2.935834312438964844e+01 1.593777193553691518e-13 6.830473686658677934e-14 6.830473686658677934e-14 -5.004010189747125706e-15
7.263000000000000000e+03 2.802184867858886719e+01 -2.933139610290527344e+01 -6.380113044867144478e-14 2.014113973259484824e-13 4.128308141843582690e-14 4.603689120457471473e-14
7.264000000000000000e+03 2.454682922363281250e+01 -1.701583862304687500e+01 9.757819552369539906e-14 -2.326864558237912162e-13 -4.053248147816053415e-14 -5.804651735403371093e-14
7.265000000000000000e+03 7.447000885009765625e+01 -2.849049186706542969e+01 1.601283260719080226e-13 1.601283260719080226e-13 9.607699564314481355e-14 3.202566521438160452e-14
7.266000000000000000e+03 5.217239379882812500e+00 -6.971103668212890625e+00 3.853087824929463112e-14 1.651323256737433076e-14 1.651323256737433076e-14 7.205774334422682115e-14
7.267000000000000000e+03 5.834383964538574219e+00 -2.876398277282714844e+01 -1.601283260719080226e-14 1.761411519028352468e-13 4.803849782157240678e-14 -4.003208151797700565e-14
7.268000000000000000e+03 7.506705760955810547e+00 -5.529590129852294922e+00 1.301042606982605321e-14 -2.301844560228735737e-14 -3.002406113848275424e-15 1.090874217129708668e-13
7.269000000000000000e+03 7.506137084960937500e+01 -2.824619674682617188e+01 2.802245536851800944e-14 1.200962445539310169e-14 1.200962445539310169e-14 3.202566521438160452e-14
7.270000000000000000e+03 1.725772285461425781e+01 -2.321993064880371094e+01 1.080866150163402317e-13 -2.281828697346666157e-13 -3.602887167211341057e-14 1.481186999224490264e-13
7.271000000000000000e+03 5.676510334014892578e+00 -2.829012680053710938e+01 -2.101684169579509653e-13 -9.007218256841531545e-14 -9.007218256841531545e-14 -9.607699564314481355e-14
7.272000000000000000e+03 4.862310886383056641e+00 -2.828721427917480469e+01 -6.605293026949732305e-14 -7.405934996122451319e-14 -4.203368474684290867e-14 -2.602085213965210642e-14
7.273000000000000000e+03 5.942493057250976562e+01 -1.844089698791503906e+01 1.851483647386659159e-13 4.453568861351869801e-13 1.891515779726613000e-13 -3.602887167211341057e-14
7.274000000000000000e+03 1.767933845520019531e+01 -2.199218368530273438e+01 1.103384216134296880e-13 9.732799554360363481e-14 6.229992379185728124e-14 1.325437155863529171e-13
7.275000000000000000e+03 1.868336296081542969e+01 -1.990621757507324219e+01 5.591981074699013676e-14 4.507362094240824346e-13 1.519968097782667393e-13 1.863680921827121084e-13
7.276000000000000000e+03 4.770075321197509766e+00 -3.126411247253417969e+01 5.904731727440076794e-14 7.105694342385976414e-14 3.903127820947815962e-14 -1.000802021008766196e-13
7.277000000000000000e+03 1.966201591491699219e+01 -1.618299484252929688e+01 -7.806255641895631925e-14 -2.622101212372551782e-13 -1.020818019416107336e-13 1.361090737729900302e-13
7.278000000000000000e+03 4.346031951904296875e+01 -2.423368072509765625e+01 6.004811719476782494e-14 1.401122870069854143e-13 6.004811719476782494e-14 -8.006416303595401129e-14
7.279000000000000000e+03 4.372510147094726562e+01 -2.464246559143066406e+01 -1.491194998428160834e-13 1.190954344691685929e-13 -9.007217918028352643e-15 1.080866150163402317e-13
7.280000000000000000e+03 7.491674804687500000e+01 -1.600417137145996094e+01 7.506014649345978118e-15 -4.253408470702643718e-14 -1.050842118671072717e-14 -2.021620040424873532e-13
7.281000000000000000e+03 7.524237060546875000e+01 -1.485161590576171875e+01 1.401122870069854143e-13 2.201764432666758475e-13 1.080866150163402317e-13 -2.001604042017532392e-13
7.282000000000000000e+03 4.383063507080078125e+01 -2.259517097473144531e+01 1.080866150163402317e-13 2.522020949285302960e-13 1.080866150163402317e-13 -2.401924891078620339e-14
7.283000000000000000e+03 1.384775829315185547e+01 -1.035470771789550781e+01 -2.401924687790712998e-13 8.006416303595401129e-14 -4.803849782157240678e-14 -1.441154866884536423e-13
7.284000000000000000e+03 6.203295230865478516e+00 -2.797601127624511719e+01 -1.040834085586084257e-13 1.841475648182988589e-13 2.401924891078620339e-14 -6.405133042876320904e-14
7.285000000000000000e+03 2.020291709899902344e+01 -1.686705017089843750e+01 -1.521218996039172544e-13 -2.481988952470620680e-13 -1.200962343895356499e-13 6.405133042876320904e-14
7.286000000000000000e+03 8.405865669250488281e+00 -3.273942184448242188e+01 -1.331066604593617031e-13 -5.704571743366665393e-14 -5.704571743366665393e-14 -9.207378240914942946e-14
7.287000000000000000e+03 2.715875053405761719e+01 -1.606253814697265625e+01 -2.161732300326804634e-13 -1.841475648182988589e-13 -1.200962343895356499e-13 -8.006416303595401129e-15
7.288000000000000000e+03 5.205137729644775391e+00 -2.642089080810546875e+01 6.204972381176551699e-14 1.180946345488015359e-13 5.404330750817011586e-14 -4.803849782157240678e-14
7.289000000000000000e+03 5.875990390777587891e+00 -2.621953392028808594e+01 4.803849782157240678e-14 1.120898214740720378e-13 4.803849782157240678e-14 -1.361090737729900302e-13
7.290000000000000000e+03 5.814540386199951172e+00 -1.199146175384521484e+01 -5.504411081666896188e-14 2.051644173561156803e-13 4.503609128420765773e-14 1.160930347080674219e-13
7.291000000000000000e+03 4.186438083648681641e+00 -1.255394363403320312e+01 1.000802037949425141e-14 5.004010105043830980e-14 1.801443583605670529e-14 0.000000000000000000e+00
7.292000000000000000e+03 6.288695335388183594e+00 -1.132027244567871094e+01 1.100882199392720293e-14 -4.103288143834406265e-14 -9.007217918028352643e-15 2.401924891078620339e-14
7.293000000000000000e+03 5.800705432891845703e+00 -2.747233200073242188e+01 3.440256926041810118e-15 2.749078091904277876e-13 8.350441784441345328e-14 -1.639438774623733219e-13
7.294000000000000000e+03 1.857926750183105469e+01 -2.307634735107421875e+01 1.481186999224490264e-13 -2.802245536851800944e-14 3.602887167211341057e-14 8.006416303595401129e-14
7.295000000000000000e+03 6.148200035095214844e+00 -9.778000831604003906e+00 -4.003208151797700565e-15 3.642919299551294898e-13 1.080866150163402317e-13 8.006416303595401129e-15
7.296000000000000000e+03 4.165694236755371094e+00 -9.863042831420898438e+00 -1.245998475837145625e-13 1.296038607380770036e-13 1.501203056924137712e-15 3.002405859738391247e-14
7.297000000000000000e+03 5.609333038330078125e+00 -9.422492980957031250e+00 2.527025050531091915e-14 -4.778829445334885351e-14 -6.755413438521264483e-15 1.723881454251952050e-13
7.298000000000000000e+03 5.853167533874511719e+00 -7.517477035522460938e+00 -7.343384662286331355e-14 5.175397328575914724e-13 1.332317638375393742e-13 4.353488801552528320e-14
7.299000000000000000e+03 6.715411663055419922e+00 -3.320378875732421875e+01 1.261010474642651480e-13 5.404330750817011586e-14 5.404330750817011586e-14 1.120898214740720378e-13
7.300000000000000000e+03 4.938030242919921875e+00 -7.537497997283935547e+00 6.004812227696550847e-15 4.143320343936995886e-13 1.261010474642651480e-13 -2.161732300326804634e-13
7.301000000000000000e+03 4.307369232177734375e+00 -8.069650650024414062e+00 -1.361090737729900302e-13 -1.040834085586084257e-13 -7.205774334422682115e-14 -8.807057595141762341e-14
7.302000000000000000e+03 9.890345573425292969e+00 -9.579082489013671875e+00 -8.106496295632106830e-14 2.912333731380084556e-13 6.305052373213257400e-14 2.111692168783180223e-13
7.303000000000000000e+03 4.470955657958984375e+01 -1.704601097106933594e+01 -6.805453688649501509e-14 4.283432603838926989e-13 1.080866150163402317e-13 1.721379386688398627e-13
7.304000000000000000e+03 7.359635353088378906e+00 -3.287397766113281250e+01 2.301844560228735737e-14 1.471179000020819694e-13 5.104090097080536681e-14 -1.601283260719080226e-14
7.305000000000000000e+03 5.859351730346679688e+01 -2.149818420410156250e+01 -1.321058605389946461e-13 -1.481186999224490264e-13 -8.406736949368581735e-14 -3.042437992078345088e-13
7.306000000000000000e+03 7.786429882049560547e+00 -3.537935256958007812e+01 1.291034607778934751e-13 2.612093213168881212e-13 1.170938346284344789e-13 9.207378240914942946e-14
7.307000000000000000e+03 1.083577919006347656e+01 -2.763211631774902344e+01 2.011612041221202962e-13 -5.104090097080536681e-14 4.503609128420765773e-14 3.602887167211341057e-14
7.308000000000000000e+03 7.350148010253906250e+01 -3.328461074829101562e+01 2.602085213965210642e-14 1.941555911270237411e-13 6.605293026949732305e-14 7.205774334422682115e-14
7.309000000000000000e+03 7.430924224853515625e+01 -3.348064422607421875e+01 0.000000000000000000e+00 3.202566521438160452e-13 9.607699564314481355e-14 -4.403528797570881170e-14
7.310000000000000000e+03 4.216563796997070312e+01 -1.819303512573242188e+01 4.303448466720996568e-14 2.471980953266950110e-13 8.706977603105056640e-14 -6.004811719476782494e-14
7.311000000000000000e+03 5.997895431518554688e+01 -2.278177642822265625e+01 2.201764398785440585e-14 -8.206576287668812530e-14 -1.801443583605670529e-14 -1.120898214740720378e-13
7.312000000000000000e+03 7.414105224609375000e+01 -2.985745048522949219e+01 -2.602085213965210642e-14 4.463576860555540371e-13 1.261010474642651480e-13 1.281026608575264181e-13
7.313000000000000000e+03 7.402206420898437500e+01 -3.057132530212402344e+01 1.481186999224490264e-13 2.922341730583755126e-13 1.321058605389946461e-13 1.481186999224490264e-13
7.314000000000000000e+03 5.916090774536132812e+01 -1.339196968078613281e+01 -1.401122768425900472e-14 3.142518255165593910e-13 9.007218256841531545e-14 -9.607699564314481355e-14
7.315000000000000000e+03 5.932444763183593750e+01 -1.287246322631835938e+01 2.502005094873562853e-15 9.257418236933295796e-14 2.852285871683332696e-14 -5.204170427930421283e-14
7.316000000000000000e+03 6.270010757446289062e+01 -1.479472255706787109e+01 7.205774334422682115e-14 -1.521218996039172544e-13 -2.401924891078620339e-14 -1.961571909677578551e-13
7.317000000000000000e+03 4.225974273681640625e+01 -1.673570632934570312e+01 -9.007218256841531545e-14 1.901523778930283570e-13 3.002405859738391247e-14 2.401924891078620339e-14
7.318000000000000000e+03 6.373601150512695312e+01 -1.157483768463134766e+01 1.080866150163402317e-13 9.207378240914942946e-14 6.004811719476782494e-14 7.606094980195862720e-14
7.319000000000000000e+03 1.070365619659423828e+01 -9.484898567199707031e+00 6.305052373213257400e-14 -1.301042606982605321e-14 1.501202929869195624e-14 4.703769451307356075e-14
7.320000000000000000e+03 1.050748348236083984e+01 -6.653952121734619141e+00 9.607699564314481355e-14 6.405133042876320904e-14 4.803849782157240678e-14 2.001604075898850282e-14
7.321000000000000000e+03 4.316893005371093750e+01 -1.986249542236328125e+01 1.220978477827969200e-13 9.807859548387892756e-14 6.605293026949732305e-14 -1.200962445539310169e-14
7.322000000000000000e+03 2.548011398315429688e+01 -1.691810607910156250e+01 -6.880513682677030785e-14 1.626303258728256651e-14 -1.576263093303314350e-14 -9.507618894651417851e-14
7.323000000000000000e+03 2.322641181945800781e+01 -1.784361648559570312e+01 -2.962373998448980528e-13 5.604491073703601889e-14 -7.205774334422682115e-14 -3.202566521438160452e-14
7.324000000000000000e+03 5.966465377807617188e+01 -2.094053268432617188e+01 6.805453688649501509e-14 2.121700303512122354e-13 8.406736949368581735e-14 -6.405133042876320904e-14
7.325000000000000000e+03 5.120146179199218750e+01 -9.182003021240234375e+00 2.071660171968497943e-13 3.632911300347624328e-13 1.711371387484728057e-13 -8.006416303595401129e-15
7.326000000000000000e+03 1.965422248840332031e+01 -1.789694595336914062e+01 -4.803849782157240678e-14 2.081668171172168513e-13 4.803849782157240678e-14 2.602085213965210642e-14
7.327000000000000000e+03 1.239381408691406250e+01 -5.502642154693603516e+00 3.753007494079578510e-14 -2.326864558237912162e-13 -5.854691731421723944e-14 1.796439651766471024e-13
7.328000000000000000e+03 5.189886474609375000e+01 -2.842076683044433594e+01 2.201764398785440585e-14 2.381908689383371858e-13 7.806255641895631925e-14 -9.607699564314481355e-14
7.329000000000000000e+03 1.113422012329101562e+01 -2.660403823852539062e+01 1.401122870069854143e-13 -1.000802021008766196e-13 1.200962445539310169e-14 1.601283260719080226e-14
7.330000000000000000e+03 5.192775344848632812e+01 -1.284417629241943359e+01 8.656937607086703790e-14 1.486190998826325549e-13 7.055654346367623564e-14 -5.979791721467606069e-14
7.331000000000000000e+03 6.156891250610351562e+01 -1.830467605590820312e+01 1.791435652164635739e-13 4.713777653798933986e-13 1.951563910473907981e-13 7.005613842129502361e-15
7.332000000000000000e+03 6.237549591064453125e+01 -1.677948951721191406e+01 -4.903929774193946378e-14 -6.104892389139845998e-14 -3.302646513474866152e-14 -2.111692168783180223e-13
7.333000000000000000e+03 3.325338745117187500e+01 -8.299297332763671875e+00 1.361090737729900302e-13 -5.604491073703601889e-14 2.401924891078620339e-14 1.160930347080674219e-13
7.334000000000000000e+03 3.295400619506835938e+01 -9.346548080444335938e+00 5.204170427930421283e-14 6.805453688649501509e-14 3.602887167211341057e-14 7.205774334422682115e-14
7.335000000000000000e+03 3.469033813476562500e+01 -1.262160778045654297e+01 -4.003208084035064784e-13 -8.006416303595401129e-14 -1.441154866884536423e-13 -1.521218996039172544e-13
7.336000000000000000e+03 6.036677551269531250e+01 -2.188469505310058594e+01 1.421138868477195283e-13 1.981587908084919691e-13 1.020818019416107336e-13 -7.205774334422682115e-14
7.337000000000000000e+03 1.334737682342529297e+01 -8.236393928527832031e+00 -5.604491073703601889e-14 -1.841475648182988589e-13 -7.205774334422682115e-14 -9.807859548387892756e-14
7.338000000000000000e+03 3.315583801269531250e+01 -1.055337715148925781e+01 1.000802021008766196e-13 -1.401122870069854143e-13 -1.200962445539310169e-14 1.601283260719080226e-13
7.339000000000000000e+03 2.722527503967285156e+01 -1.660724258422851562e+01 -1.481186999224490264e-13 -1.321058605389946461e-13 -8.406736949368581735e-14 -1.240994476235310340e-13
7.340000000000000000e+03 2.414200592041015625e+01 -2.484285545349121094e+01 6.004812227696550847e-15 9.407538902614712151e-14 3.002405859738391247e-14 2.401924891078620339e-14
7.341000000000000000e+03 2.563198089599609375e+01 -2.311565589904785156e+01 2.121700303512122354e-13 -9.207378240914942946e-14 3.602887167211341057e-14 -1.601283260719080226e-14
7.342000000000000000e+03 2.446854972839355469e+01 -2.189540863037109375e+01 1.561251128379126385e-13 -1.160930347080674219e-13 1.200962445539310169e-14 -4.803849782157240678e-14
7.343000000000000000e+03 6.286456298828125000e+01 -1.393864440917968750e+01 -5.404330750817011586e-14 -2.061652172764827373e-13 -7.806255641895631925e-14 -2.722181475459800604e-13
7.344000000000000000e+03 8.741111755371093750e+00 -7.799174308776855469e+00 -1.238492544197028478e-13 -9.882919542415422032e-14 -6.680353698603619383e-14 1.010810020212436766e-13
7.345000000000000000e+03 6.255571365356445312e+01 -1.575117206573486328e+01 -2.201764398785440585e-14 -1.581267126786467525e-13 -5.404330750817011586e-14 -1.531227130768114675e-13
7.346000000000000000e+03 3.180211448669433594e+01 -1.289963054656982422e+01 -4.763817378766743715e-13 -2.041636038832214672e-13 -2.041636038832214672e-13 1.000802021008766196e-13
7.347000000000000000e+03 3.380213928222656250e+01 -9.666076660156250000e+00 -3.202566521438160452e-14 -2.882309733769072846e-13 -9.607699564314481355e-14 -3.402726844324750755e-14
7.348000000000000000e+03 2.588026046752929688e+01 -2.693271064758300781e+01 4.603689120457471473e-14 2.141716301919463494e-13 7.806255641895631925e-14 7.005614350349270714e-14
7.349000000000000000e+03 7.131881713867187500e+01 -3.397033691406250000e+01 -2.291836696550336727e-13 3.903127820947815962e-14 -5.704571743366665393e-14 5.604491073703601889e-14
7.350000000000000000e+03 8.137563705444335938e+00 -2.659817504882812500e+01 2.001604075898850282e-14 -6.004811719476782494e-14 -1.200962445539310169e-14 -1.040834085586084257e-13
7.351000000000000000e+03 9.548497200012207031e+00 -2.841790008544921875e+01 8.106496295632106830e-14 -1.100882199392720293e-14 2.101684237342145434e-14 4.803849782157240678e-14
7.352000000000000000e+03 5.307896804809570312e+01 -3.003339958190917969e+01 1.080866150163402317e-13 4.123304345529654746e-13 1.561251128379126385e-13 -4.003208151797700565e-14
7.353000000000000000e+03 9.808390617370605469e+00 -2.917825698852539062e+01 9.007218256841531545e-14 1.301042606982605321e-13 6.605293026949732305e-14 3.202566521438160452e-14
7.354000000000000000e+03 9.022799491882324219e+00 -2.865497207641601562e+01 1.080866150163402317e-13 9.207378240914942946e-14 6.004811719476782494e-14 -9.607699564314481355e-14
7.355000000000000000e+03 7.021717834472656250e+01 -2.882703208923339844e+01 -7.205774334422682115e-14 1.521218996039172544e-13 2.401924891078620339e-14 1.200962343895356499e-13
7.356000000000000000e+03 7.000677490234375000e+01 -3.154034805297851562e+01 4.003208151797700565e-14 2.001604042017532392e-13 7.205774334422682115e-14 3.202566521438160452e-14
7.357000000000000000e+03 2.963533973693847656e+01 -3.093382835388183594e+01 -1.381106736137241442e-13 7.806255641895631925e-14 -1.801443583605670529e-14 8.006416303595401129e-15
7.358000000000000000e+03 2.165525436401367188e+01 -2.346298789978027344e+01 5.804651735403371093e-14 -1.581267126786467525e-13 -3.002405859738391247e-14 -8.006416303595401129e-15
7.359000000000000000e+03 5.007327270507812500e+01 -1.323469066619873047e+01 -3.002405859738391247e-14 1.701363388281057487e-13 4.203368474684290867e-14 -9.607699564314481355e-14
7.360000000000000000e+03 1.809176063537597656e+01 -2.391294479370117188e+01 1.030826086382413687e-13 -9.307458910578006450e-14 3.002406113848275424e-15 4.403528797570881170e-14
7.361000000000000000e+03 1.999687194824218750e+01 -2.324317741394042969e+01 1.140914348673333079e-13 1.861491782115601290e-13 9.007218256841531545e-14 4.803849782157240678e-14
7.362000000000000000e+03 6.419090270996093750e+01 -1.369140625000000000e+01 -2.802245536851800944e-14 -3.322662782932750414e-13 -1.080866150163402317e-13 -8.406736949368581735e-14
7.363000000000000000e+03 5.106802749633789062e+01 -1.283707237243652344e+01 8.381716951359405310e-14 -7.130714340395152839e-14 3.753007324672989059e-15 1.401122768425900472e-14
7.364000000000000000e+03 5.643873596191406250e+01 -1.404298591613769531e+01 1.351082687704252897e-14 3.152526186606628700e-14 1.351082687704252897e-14 -2.226784430675934900e-13
7.365000000000000000e+03 5.634823226928710938e+01 -1.504513168334960938e+01 2.291836696550336727e-13 2.812253739343378856e-13 1.531227130768114675e-13 -1.841475648182988589e-13
7.366000000000000000e+03 6.276841735839843750e+01 -1.136065483093261719e+01 2.552045048540268340e-14 -1.005806020610601481e-13 -2.251804564210382886e-14 2.652125379390152943e-14
7.367000000000000000e+03 5.527439880371093750e+01 -2.721475410461425781e+01 3.402726844324750755e-14 4.263416605431585849e-13 1.381106736137241442e-13 -4.403528797570881170e-14
7.368000000000000000e+03 1.736729621887207031e+01 -1.471627140045166016e+01 -1.120898214740720378e-13 -4.803849782157240678e-14 -4.803849782157240678e-14 -1.200962445539310169e-14
7.369000000000000000e+03 7.318444824218750000e+01 -3.430481338500976562e+01 -8.006416303595401129e-15 4.083272077664429345e-13 1.200962343895356499e-13 -1.240994476235310340e-13
7.370000000000000000e+03 1.140651512145996094e+01 -9.234611511230468750e+00 3.202566521438160452e-14 -3.202566521438160452e-14 0.000000000000000000e+00 -8.006416303595401129e-15
7.371000000000000000e+03 5.063606643676757812e+01 -1.155319690704345703e+01 1.160930347080674219e-13 3.242598518252842732e-13 1.321058605389946461e-13 -8.606896933441993136e-14
7.372000000000000000e+03 5.917119598388671875e+01 -2.149049186706542969e+01 3.402726776562114974e-13 1.000802021008766196e-13 1.321058605389946461e-13 -1.401122870069854143e-13
7.373000000000000000e+03 3.422741317749023438e+01 -1.230165576934814453e+01 -3.903127820947815962e-14 6.905533680686207210e-14 9.007217918028352643e-15 -1.025822035958601566e-14
7.374000000000000000e+03 1.171171760559082031e+01 -6.053133964538574219e+00 9.807859548387892756e-14 4.203368474684290867e-14 4.203368474684290867e-14 4.203368474684290867e-14
7.375000000000000000e+03 7.107746887207031250e+01 -3.082117462158203125e+01 -4.003208151797700565e-14 4.403528865333516951e-13 1.200962343895356499e-13 -2.001604075898850282e-15
7.376000000000000000e+03 7.078852844238281250e+01 -3.161322212219238281e+01 -1.080866150163402317e-13 6.805453688649501509e-14 -1.200962445539310169e-14 1.200962445539310169e-14
7.377000000000000000e+03 1.179647636413574219e+01 -7.825269222259521484e+00 8.356696953350228885e-14 8.156536291650459680e-14 4.953969770212299228e-14 -2.001604075898850282e-14
7.378000000000000000e+03 1.193417644500732422e+01 -9.367602348327636719e+00 -2.041636038832214672e-13 4.003208151797700565e-15 -6.004811719476782494e-14 -2.401924891078620339e-14
7.379000000000000000e+03 5.549132919311523438e+01 -1.383856582641601562e+01 1.806447650970141594e-13 2.146720301521298779e-13 1.185950345089850644e-13 -7.606094980195862720e-14
7.380000000000000000e+03 3.452785491943359375e+01 -3.445175552368164062e+01 -4.003208151797700565e-15 -3.602887167211341057e-14 -1.200962445539310169e-14 4.403528797570881170e-14
7.381000000000000000e+03 7.021207809448242188e+00 -8.510219573974609375e+00 -4.103288143834406265e-14 2.111692168783180223e-13 5.104090097080536681e-14 2.802245536851800944e-14
7.382000000000000000e+03 8.827276229858398438e+00 -3.189139938354492188e+01 -8.606896933441993136e-14 1.461170865291877563e-13 1.801443583605670529e-14 6.004812227696550847e-15
7.383000000000000000e+03 5.628268718719482422e+00 -3.242366790771484375e+01 4.803849782157240678e-14 1.120898214740720378e-13 4.803849782157240678e-14 1.220978477827969200e-13
7.384000000000000000e+03 6.055819320678710938e+01 -1.337760353088378906e+01 7.205774334422682115e-14 -1.521218996039172544e-13 -2.401924891078620339e-14 -7.706175649858926224e-14
7.385000000000000000e+03 6.107263946533203125e+01 -1.376545715332031250e+01 1.801443583605670529e-14 2.822261738547049426e-13 9.007218256841531545e-14 1.601283260719080226e-14
7.386000000000000000e+03 2.528819465637207031e+01 -2.585881996154785156e+01 2.201764432666758475e-13 1.401122870069854143e-13 1.080866150163402317e-13 -1.200962445539310169e-14
7.387000000000000000e+03 2.507488441467285156e+01 -2.522234535217285156e+01 7.005614350349270714e-14 3.002405859738391247e-14 3.002405859738391247e-14 -6.405133042876320904e-14
7.388000000000000000e+03 6.096796417236328125e+01 -1.880994033813476562e+01 4.003208151797700565e-14 4.003208151797700565e-14 2.401924891078620339e-14 -4.403528797570881170e-14
7.389000000000000000e+03 6.084967422485351562e+01 -2.160040664672851562e+01 1.080866150163402317e-13 4.123304345529654746e-13 1.561251128379126385e-13 -2.011612041221202962e-13
7.390000000000000000e+03 6.082207870483398438e+01 -1.982608604431152344e+01 -5.604491073703601889e-14 -2.401924891078620339e-14 -2.401924891078620339e-14 -1.841475648182988589e-13
7.391000000000000000e+03 1.432032394409179688e+01 -1.074593162536621094e+01 -9.607699564314481355e-14 9.607699564314481355e-14 0.000000000000000000e+00 -4.403528797570881170e-14
7.392000000000000000e+03 6.183848190307617188e+01 -2.330058288574218750e+01 -9.607699564314481355e-14 9.607699564314481355e-14 0.000000000000000000e+00 -7.205774334422682115e-14
7.393000000000000000e+03 6.125862121582031250e+01 -2.204399681091308594e+01 1.000802037949425141e-15 1.090874217129708668e-13 3.302646513474866152e-14 -3.402726844324750755e-14
7.394000000000000000e+03 1.821936416625976562e+01 -1.396759986877441406e+01 -1.240994476235310340e-13 8.406736949368581735e-14 -1.200962445539310169e-14 8.006416303595401129e-14
7.395000000000000000e+03 3.146699523925781250e+01 -3.339569473266601562e+01 -4.703769451307356075e-14 1.170938346284344789e-13 2.101684237342145434e-14 -3.602887167211341057e-14
7.396000000000000000e+03 3.331229400634765625e+01 -3.406930541992187500e+01 4.603689120457471473e-14 5.404330750817011586e-14 3.002405859738391247e-14 4.503609128420765773e-14
7.397000000000000000e+03 2.884999656677246094e+01 -3.067848968505859375e+01 0.000000000000000000e+00 3.202566521438160452e-13 9.607699564314481355e-14 -9.607699564314481355e-14
7.398000000000000000e+03 2.948139953613281250e+01 -3.181647682189941406e+01 -5.004010105043830980e-14 2.301844695754007297e-13 5.404330750817011586e-14 -8.807057595141762341e-14
7.399000000000000000e+03 3.148007011413574219e+01 -3.211795425415039062e+01 -5.804651735403371093e-14 -2.001604075898850282e-15 -1.801443583605670529e-14 -2.401924891078620339e-14
7.400000000000000000e+03 9.155282974243164062e+00 -3.010050201416015625e+01 5.604491073703601889e-14 2.401924891078620339e-14 2.401924891078620339e-14 -3.202566521438160452e-14
7.401000000000000000e+03 6.442171096801757812e+00 -2.938761329650878906e+01 -1.160930347080674219e-13 -4.003208151797700565e-15 -3.602887167211341057e-14 -2.401924891078620339e-14
7.402000000000000000e+03 8.416205406188964844e+00 -3.671157073974609375e+01 -6.705373696612795809e-14 1.371098736933570872e-13 2.101684237342145434e-14 -7.956375629950690476e-14
7.403000000000000000e+03 3.029823493957519531e+01 -3.313451766967773438e+01 -2.702165375408505793e-14 5.704571743366665393e-14 9.007217918028352643e-15 2.401924891078620339e-14
7.404000000000000000e+03 7.227858734130859375e+01 -3.695291137695312500e+01 -4.303448466720996568e-14 2.331868693365019007e-13 5.704571743366665393e-14 -6.004812227696550847e-15
7.405000000000000000e+03 7.037611389160156250e+01 -4.074195480346679688e+01 5.004010105043830980e-14 2.101684169579509653e-13 7.806255641895631925e-14 3.002406113848275424e-15
7.406000000000000000e+03 6.777821063995361328e+00 -3.577159881591796875e+01 -1.100882199392720293e-14 2.011612041221202962e-13 5.704571743366665393e-14 -6.405133042876320904e-14
7.407000000000000000e+03 5.886272907257080078e+00 -3.732291030883789062e+01 -3.502807175174635357e-14 1.451162866088206993e-13 3.302646513474866152e-14 -8.006416303595401129e-14
7.408000000000000000e+03 7.017437744140625000e+01 -3.872702407836914062e+01 -4.003208151797700565e-14 1.200962343895356499e-13 2.401924891078620339e-14 -4.603689120457471473e-14
7.409000000000000000e+03 3.249660873413085938e+01 -3.325484848022460938e+01 -5.204170427930421283e-14 1.200962445539310169e-14 -1.200962445539310169e-14 4.603689120457471473e-14
7.410000000000000000e+03 3.126663208007812500e+01 -3.475916671752929688e+01 -7.606094980195862720e-14 -4.403528797570881170e-14 -3.602887167211341057e-14 -2.401924891078620339e-14
7.411000000000000000e+03 5.517246627807617188e+01 -3.782152938842773438e+01 2.401924891078620339e-14 2.161732300326804634e-13 7.205774334422682115e-14 -9.807859548387892756e-14
7.412000000000000000e+03 8.274866104125976562e+00 -2.735944366455078125e+01 6.805453688649501509e-14 2.121700303512122354e-13 8.406736949368581735e-14 -1.240994476235310340e-13
7.413000000000000000e+03 9.129701614379882812e+00 -2.933025169372558594e+01 1.080866150163402317e-13 9.207378240914942946e-14 6.004811719476782494e-14 -1.240994476235310340e-13
7.414000000000000000e+03 1.224818038940429688e+01 -7.405272960662841797e+00 9.682759558342010631e-14 -4.253408555405938443e-15 2.777225538842624519e-14 1.105886215935214523e-13
7.415000000000000000e+03 1.134790706634521484e+01 -7.303655147552490234e+00 -7.005614350349270714e-14 -1.100882216333379238e-13 -5.404330750817011586e-14 2.652125209983563492e-13
7.416000000000000000e+03 2.555974197387695312e+01 -2.421241569519042969e+01 8.006416303595401129e-14 8.006416303595401129e-14 4.803849782157240678e-14 -4.603689120457471473e-14
7.417000000000000000e+03 6.304098892211914062e+01 -1.290792179107666016e+01 6.004812227696550847e-15 -2.261812563414053456e-13 -6.605293026949732305e-14 -1.040834085586084257e-13
7.418000000000000000e+03 5.274312591552734375e+01 -2.868926429748535156e+01 -1.361090737729900302e-13 2.161732300326804634e-13 2.401924891078620339e-14 -1.521218996039172544e-13
7.419000000000000000e+03 5.193273162841796875e+01 -2.969988632202148438e+01 8.006416303595401129e-15 2.321860694161348437e-13 7.205774334422682115e-14 -1.200962445539310169e-14
7.420000000000000000e+03 5.760418319702148438e+01 -1.571117591857910156e+01 4.003208151797700565e-14 3.602887302736612618e-13 1.200962343895356499e-13 -1.040834085586084257e-13
7.421000000000000000e+03 5.731923675537109375e+01 -1.365737342834472656e+01 3.602887167211341057e-14 2.441956955655938399e-13 8.406736949368581735e-14 -7.205774334422682115e-14
7.422000000000000000e+03 1.888059806823730469e+01 -2.187491607666015625e+01 3.602887167211341057e-14 2.441956955655938399e-13 8.406736949368581735e-14 1.481186999224490264e-13
7.423000000000000000e+03 1.820927810668945312e+01 -2.148376083374023438e+01 1.601283260719080226e-13 1.601283260719080226e-13 9.607699564314481355e-14 -7.706175649858926224e-14
7.424000000000000000e+03 7.504704284667968750e+01 -2.953159523010253906e+01 2.061652172764827373e-13 5.404330750817011586e-14 7.806255641895631925e-14 3.602887167211341057e-14
7.425000000000000000e+03 2.633618354797363281e+01 -1.787552833557128906e+01 -5.404330750817011586e-14 1.140914348673333079e-13 1.801443583605670529e-14 -1.120898214740720378e-13
7.426000000000000000e+03 2.513473320007324219e+01 -1.745429611206054688e+01 5.254210423948774134e-14 2.251804564210382886e-14 2.251804564210382886e-14 6.004811719476782494e-14
7.427000000000000000e+03 7.186490631103515625e+01 -3.118976974487304688e+01 -3.602887167211341057e-14 2.361892690976030718e-13 6.004811719476782494e-14 4.003208151797700565e-15
7.428000000000000000e+03 2.226844215393066406e+01 -2.246656990051269531e+01 7.005614350349270714e-14 3.002405859738391247e-14 3.002405859738391247e-14 2.201764398785440585e-14
7.429000000000000000e+03 6.942453002929687500e+01 -2.934963417053222656e+01 1.721379386688398627e-13 3.482791041242022656e-13 1.561251128379126385e-13 -3.202566521438160452e-14
7.430000000000000000e+03 1.100542259216308594e+01 -8.998137474060058594e+00 -5.404330750817011586e-14 -2.061652172764827373e-13 -7.806255641895631925e-14 3.803047557860567141e-13
7.431000000000000000e+03 2.142405891418457031e+01 -1.822549438476562500e+01 -3.803047490097931360e-14 -6.204972381176551699e-14 -3.002405859738391247e-14 -1.601283260719080226e-14
7.432000000000000000e+03 6.440374851226806641e+00 -2.867573165893554688e+01 -1.781427517435693608e-13 -1.220978477827969200e-13 -9.007218256841531545e-14 -1.361090737729900302e-13
7.433000000000000000e+03 5.922751617431640625e+01 -1.744060325622558594e+01 1.421138868477195283e-13 4.383512866926175811e-13 1.741395520621011328e-13 0.000000000000000000e+00
7.434000000000000000e+03 5.872329711914062500e+01 -1.466981410980224609e+01 -1.321058605389946461e-13 1.721379386688398627e-13 1.200962445539310169e-14 -1.000802021008766196e-13
7.435000000000000000e+03 7.056758403778076172e+00 -1.054170322418212891e+01 -2.401924687790712998e-13 4.003208084035064784e-13 4.803849782157240678e-14 2.962373998448980528e-13
7.436000000000000000e+03 6.076034927368164062e+01 -1.577211761474609375e+01 6.004811719476782494e-14 1.401122870069854143e-13 6.004811719476782494e-14 -3.602887167211341057e-14
7.437000000000000000e+03 5.969591903686523438e+01 -1.331995010375976562e+01 -1.801443583605670529e-14 3.803047490097931360e-14 6.004812227696550847e-15 -9.607699564314481355e-14
7.438000000000000000e+03 6.012121582031250000e+01 -1.389013385772705078e+01 1.451162866088206993e-13 4.453568861351869801e-13 1.771419518232023038e-13 2.502005052521915490e-14
7.439000000000000000e+03 5.101095199584960938e+01 -1.206841278076171875e+01 3.345180577853101855e-13 1.433648935244419276e-13 1.433648935244419276e-13 -7.105694342385976414e-14
7.440000000000000000e+03 5.064316558837890625e+01 -1.308168506622314453e+01 5.004010105043830980e-14 2.502004950877961820e-13 9.007218256841531545e-14 -1.441154866884536423e-13
7.441000000000000000e+03 2.639830207824707031e+01 -1.688166427612304688e+01 -6.605293026949732305e-14 -7.405934996122451319e-14 -4.203368474684290867e-14 -2.722181475459800604e-13
7.442000000000000000e+03 6.387674808502197266e+00 -3.140422058105468750e+01 7.806255641895631925e-14 2.622101212372551782e-13 1.020818019416107336e-13 -7.205774334422682115e-14
7.443000000000000000e+03 7.231919765472412109e+00 -3.141745758056640625e+01 -1.461170865291877563e-13 1.661331391466375207e-13 6.004812227696550847e-15 -2.401924891078620339e-14
7.444000000000000000e+03 7.258856201171875000e+01 -3.160856246948242188e+01 8.506816941405287436e-14 2.652125209983563492e-13 1.050842084789754827e-13 3.502806921064751181e-15
7.445000000000000000e+03 7.380400085449218750e+01 -3.139340972900390625e+01 6.004811719476782494e-14 3.002405995263662808e-13 1.080866150163402317e-13 -4.803849782157240678e-14
7.446000000000000000e+03 5.830950546264648438e+01 -1.373322677612304688e+01 1.060850151756061177e-13 1.941555911270237411e-13 9.007218256841531545e-14 -2.802245536851800944e-14
7.447000000000000000e+03 6.688748836517333984e+00 -1.007866382598876953e+01 1.501202929869195624e-14 2.351884691772360148e-13 7.506014988159157020e-14 1.481186999224490264e-13
7.448000000000000000e+03 6.007463455200195312e+00 -2.692331504821777344e+01 -3.602887167211341057e-14 7.606094980195862720e-14 1.200962445539310169e-14 -1.281026608575264181e-13
7.449000000000000000e+03 5.528589725494384766e+00 -3.146020698547363281e+01 -1.120898214740720378e-13 2.722181475459800604e-13 4.803849782157240678e-14 -2.802245536851800944e-14
7.450000000000000000e+03 6.300045967102050781e+00 -3.065323829650878906e+01 -4.403528797570881170e-14 1.641315257533762506e-13 3.602887167211341057e-14 -1.200962343895356499e-13
7.451000000000000000e+03 7.158566951751708984e+00 -3.219029617309570312e+01 1.601283260719080226e-14 1.441154866884536423e-13 4.803849782157240678e-14 1.160930347080674219e-13
7.452000000000000000e+03 5.738270282745361328e+00 -1.099286270141601562e+01 2.201764398785440585e-14 2.381908689383371858e-13 7.806255641895631925e-14 1.160930347080674219e-13
7.453000000000000000e+03 5.080285072326660156e+00 -9.975903511047363281e+00 4.103288143834406265e-14 1.090874217129708668e-13 4.503609128420765773e-14 9.207378240914942946e-14
7.454000000000000000e+03 6.008093357086181641e+00 -8.728086471557617188e+00 5.004010189747125706e-15 1.851483647386659159e-13 5.704571743366665393e-14 -4.803849782157240678e-14
7.455000000000000000e+03 6.333027839660644531e+00 -6.950600147247314453e+00 -1.200962445539310169e-14 -2.802245536851800944e-14 -1.200962445539310169e-14 1.451162866088206993e-13
7.456000000000000000e+03 4.940798759460449219e+00 -8.586661338806152344e+00 3.602887167211341057e-14 -7.606094980195862720e-14 -1.200962445539310169e-14 -7.205774334422682115e-14
7.457000000000000000e+03 2.695883941650390625e+01 -1.715514183044433594e+01 1.841475648182988589e-13 -1.040834085586084257e-13 2.401924891078620339e-14 2.321860694161348437e-13
7.458000000000000000e+03 2.660483360290527344e+01 -1.912425994873046875e+01 2.261812563414053456e-13 5.544442942956306908e-13 2.341876692568689577e-13 1.361090737729900302e-13
7.459000000000000000e+03 6.093311309814453125e+01 -1.293236923217773438e+01 2.812253739343378856e-13 2.291836696550336727e-13 1.531227130768114675e-13 -8.006416303595401129e-15
7.460000000000000000e+03 3.473143005371093750e+01 -1.201296329498291016e+01 -8.807057595141762341e-14 8.006416303595401129e-15 -2.401924891078620339e-14 2.001604075898850282e-14
7.461000000000000000e+03 5.960292816162109375e+00 -3.345286560058593750e+01 -9.007218256841531545e-14 1.901523778930283570e-13 3.002405859738391247e-14 -4.403528797570881170e-14
7.462000000000000000e+03 7.219264030456542969e+00 -3.419621658325195312e+01 1.000802037949425141e-14 1.301042606982605321e-13 4.203368474684290867e-14 -3.602887167211341057e-14
7.463000000000000000e+03 7.405773639678955078e+00 -2.673653602600097656e+01 1.321058605389946461e-13 1.481186999224490264e-13 8.406736949368581735e-14 -1.681347389873716347e-13
7.464000000000000000e+03 3.397782897949218750e+01 -1.040880870819091797e+01 -1.401122870069854143e-13 1.000802021008766196e-13 -1.200962445539310169e-14 1.200962445539310169e-14
7.465000000000000000e+03 2.249634361267089844e+01 -2.320943832397460938e+01 1.160930347080674219e-13 4.003208151797700565e-15 3.602887167211341057e-14 4.003208151797700565e-15
7.466000000000000000e+03 2.518501853942871094e+01 -1.974318885803222656e+01 3.402726844324750755e-14 1.060850151756061177e-13 4.203368474684290867e-14 -1.220978477827969200e-13
7.467000000000000000e+03 3.249438476562500000e+01 -1.197978687286376953e+01 -8.807057595141762341e-14 8.006416303595401129e-15 -2.401924891078620339e-14 2.401924687790712998e-13
7.468000000000000000e+03 2.598931121826171875e+01 -2.562175559997558594e+01 -4.803849782157240678e-14 2.081668171172168513e-13 4.803849782157240678e-14 -2.401924891078620339e-14
7.469000000000000000e+03 1.871947860717773438e+01 -2.091655349731445312e+01 3.803047490097931360e-14 3.022421993671003948e-13 1.020818019416107336e-13 2.079166103608615090e-13
7.470000000000000000e+03 1.922624397277832031e+01 -1.934136199951171875e+01 -1.301042606982605321e-14 -9.707779556351187056e-14 -3.302646513474866152e-14 -1.301042606982605321e-13
7.471000000000000000e+03 3.392271423339843750e+01 -1.124260807037353516e+01 4.003208151797700565e-15 -4.403528797570881170e-14 -1.200962445539310169e-14 8.006416303595401129e-15
7.472000000000000000e+03 3.315909194946289062e+01 -1.123244857788085938e+01 -3.042437992078345088e-13 -1.761411519028352468e-13 -1.441154866884536423e-13 2.001604042017532392e-13
7.473000000000000000e+03 6.359671020507812500e+01 -1.339714813232421875e+01 -2.602085213965210642e-14 1.261010474642651480e-13 3.002405859738391247e-14 8.807057595141762341e-14
7.474000000000000000e+03 2.332378578186035156e+01 -2.389345550537109375e+01 6.004811719476782494e-14 -2.001604075898850282e-14 1.200962445539310169e-14 1.601283260719080226e-14
7.475000000000000000e+03 2.449362564086914062e+01 -2.386962127685546875e+01 1.841475648182988589e-13 5.604491073703601889e-14 7.205774334422682115e-14 -3.602887167211341057e-14
7.476000000000000000e+03 6.318034744262695312e+01 -1.193322563171386719e+01 3.803047490097931360e-14 -1.781427517435693608e-13 -4.203368474684290867e-14 -9.607699564314481355e-14
7.477000000000000000e+03 5.683120346069335938e+01 -1.452451229095458984e+01 -4.628709118466647898e-14 2.089174238337557221e-13 4.878909776184769953e-14 -1.180946345488015359e-13
7.478000000000000000e+03 7.266035461425781250e+01 -3.547804641723632812e+01 -7.806255641895631925e-14 5.804651735403371093e-14 -6.004812227696550847e-15 4.703769451307356075e-14
7.479000000000000000e+03 5.984648895263671875e+01 -2.052359008789062500e+01 2.451964887096973189e-14 1.050842118671072717e-14 1.050842118671072717e-14 -1.240994476235310340e-13
7.480000000000000000e+03 8.986791610717773438e+00 -9.538075447082519531e+00 -1.015814019814272051e-13 2.767217607401589730e-13 5.254210423948774134e-14 3.372702778951103264e-13
7.481000000000000000e+03 9.512881278991699219e+00 -9.065037727355957031e+00 0.000000000000000000e+00 0.000000000000000000e+00 0.000000000000000000e+00 1.441154866884536423e-13
7.482000000000000000e+03 9.948736190795898438e+00 -8.152214050292968750e+00 -4.403528797570881170e-14 -1.561251128379126385e-13 -6.004811719476782494e-14 4.003208151797700565e-14
7.483000000000000000e+03 4.339422702789306641e+00 -7.394042491912841797e+00 5.004010105043830980e-14 2.502004950877961820e-13 9.007218256841531545e-14 8.807057595141762341e-14
7.484000000000000000e+03 7.152552795410156250e+01 -3.005840110778808594e+01 1.065854151357896462e-13 2.286832561423229881e-13 1.005806020610601481e-13 -8.006416303595401129e-15
7.485000000000000000e+03 9.791133880615234375e+00 -2.717435455322265625e+01 8.406736949368581735e-14 -2.842277736954390566e-13 -6.004811719476782494e-14 -5.804651735403371093e-14
7.486000000000000000e+03 6.169215774536132812e+01 -1.722181892395019531e+01 1.731387521417340758e-13 4.573665122846459763e-13 1.891515779726613000e-13 2.702165375408505793e-14
7.487000000000000000e+03 6.074510955810546875e+01 -1.432020950317382812e+01 -1.180946345488015359e-13 -2.221780431074099615e-13 -1.020818019416107336e-13 -1.100882216333379238e-13
7.488000000000000000e+03 6.097729110717773438e+01 -2.302742004394531250e+01 -7.405934996122451319e-14 9.407538902614712151e-14 6.004812227696550847e-15 -4.403528797570881170e-14
7.489000000000000000e+03 1.996313858032226562e+01 -1.737856674194335938e+01 8.907137587178468041e-14 -4.193360339955348737e-13 -9.907939540424598457e-14 3.202566521438160452e-14
7.490000000000000000e+03 1.971428871154785156e+01 -1.878799819946289062e+01 1.088372149566155245e-13 9.382518904605535726e-14 6.079872391130669573e-14 8.894627926987058730e-14
7.491000000000000000e+03 2.480731201171875000e+01 -1.805881309509277344e+01 2.371900690179701288e-13 -4.473584859759210941e-13 -6.305052373213257400e-14 -1.240994476235310340e-13
7.492000000000000000e+03 5.966458129882812500e+01 -1.665382003784179688e+01 4.803849782157240678e-14 1.120898214740720378e-13 4.803849782157240678e-14 -1.361090737729900302e-13
7.493000000000000000e+03 5.785194015502929688e+01 -1.508889865875244141e+01 -6.004811719476782494e-14 1.801443651368306309e-13 3.602887167211341057e-14 -1.641315257533762506e-13
7.494000000000000000e+03 1.913984298706054688e+01 -2.286588668823242188e+01 2.101684237342145434e-14 9.007217918028352643e-15 9.007217918028352643e-15 2.081668171172168513e-13
7.495000000000000000e+03 1.202701854705810547e+01 -8.808087348937988281e+00 3.502807175174635357e-14 1.501202929869195624e-14 1.501202929869195624e-14 1.601283260719080226e-13
7.496000000000000000e+03 2.411240577697753906e+01 -2.025466918945312500e+01 7.956375629950690476e-14 1.256006475040816195e-13 6.154932385158198849e-14 -9.607699564314481355e-14
7.497000000000000000e+03 7.548505306243896484e+00 -1.006104278564453125e+01 -1.626303258728256651e-15 -9.219888578732710060e-14 -2.814755705262978608e-14 1.406126869671689428e-13
7.498000000000000000e+03 1.867076873779296875e+01 -2.248385047912597656e+01 2.041636038832214672e-13 -4.003208151797700565e-15 6.004811719476782494e-14 4.803849782157240678e-14
7.499000000000000000e+03 6.064509201049804688e+01 -2.117399787902832031e+01 2.922341730583755126e-13 -1.200962445539310169e-14 8.406736949368581735e-14 -1.761411519028352468e-13
7.500000000000000000e+03 8.480600357055664062e+00 -2.936231231689453125e+01 2.001604075898850282e-14 1.000802021008766196e-13 3.602887167211341057e-14 -9.607699564314481355e-14
7.501000000000000000e+03 7.157719421386718750e+01 -3.186831855773925781e+01 0.000000000000000000e+00 1.601283260719080226e-13 4.803849782157240678e-14 5.604491073703601889e-14
7.502000000000000000e+03 2.613439369201660156e+01 -2.616691207885742188e+01 5.604491073703601889e-14 3.442758773376797254e-13 1.200962343895356499e-13 8.006416303595401129e-14
7.503000000000000000e+03 7.138462829589843750e+01 -3.257668685913085938e+01 -1.140914348673333079e-13 1.341074739322559162e-13 6.004812227696550847e-15 8.006416303595401129e-15
7.504000000000000000e+03 7.182904052734375000e+01 -3.349449920654296875e+01 -1.421138868477195283e-13 4.423544863740858091e-13 9.007218256841531545e-14 -8.406736949368581735e-14
7.505000000000000000e+03 1.125540065765380859e+01 -6.707353115081787109e+00 -6.004812227696550847e-15 -9.407538902614712151e-14 -3.002405859738391247e-14 2.321860694161348437e-13
7.506000000000000000e+03 5.922922897338867188e+01 -2.213877487182617188e+01 0.000000000000000000e+00 0.000000000000000000e+00 0.000000000000000000e+00 -8.006416303595401129e-14
7.507000000000000000e+03 8.254367828369140625e+00 -3.082289123535156250e+01 -8.006416303595401129e-15 2.481988952470620680e-13 7.205774334422682115e-14 -1.120898214740720378e-13
7.508000000000000000e+03 5.981189346313476562e+01 -2.207473945617675781e+01 1.281026608575264181e-13 5.124106434301056723e-13 1.921539912862896271e-13 -1.761411519028352468e-13
7.509000000000000000e+03 1.227941703796386719e+01 -6.516269207000732422e+00 1.321058605389946461e-13 -3.322662782932750414e-13 -6.004811719476782494e-14 1.070858150959731747e-13
7.510000000000000000e+03 7.175337219238281250e+01 -3.481760787963867188e+01 2.689655376403917580e-14 3.546592002284104650e-13 1.144667314493391652e-13 -3.002406113848275424e-15
7.511000000000000000e+03 4.111002349853515625e+01 -1.724580574035644531e+01 -2.822261738547049426e-13 3.823063556267908281e-13 3.002405859738391247e-14 -8.006416303595401129e-15
7.512000000000000000e+03 5.969763183593750000e+01 -2.146747779846191406e+01 -1.481186999224490264e-13 -2.922341730583755126e-13 -1.321058605389946461e-13 -8.807057595141762341e-14
7.513000000000000000e+03 1.057417678833007812e+01 -8.742663383483886719e+00 7.606094980195862720e-14 1.240994476235310340e-13 6.004811719476782494e-14 -4.803849782157240678e-14
7.514000000000000000e+03 1.125628376007080078e+01 -8.160910606384277344e+00 -1.601283260719080226e-14 1.601283260719080226e-14 0.000000000000000000e+00 1.120898214740720378e-13
7.515000000000000000e+03 5.806033325195312500e+01 -1.440877532958984375e+01 1.681347389873716347e-13 7.205774334422682115e-14 7.205774334422682115e-14 -5.604491073703601889e-14
7.516000000000000000e+03 2.502012252807617188e+01 -2.306291961669921875e+01 2.201764432666758475e-13 -1.801443651368306309e-13 1.200962445539310169e-14 -4.003208151797700565e-14
7.517000000000000000e+03 2.482649612426757812e+01 -2.454737663269042969e+01 3.082470259943570490e-13 1.321058605389946461e-13 1.321058605389946461e-13 1.601283260719080226e-14
7.518000000000000000e+03 5.847399902343750000e+01 -1.674791717529296875e+01 6.004812227696550847e-15 1.741395520621011328e-13 5.404330750817011586e-14 0.000000000000000000e+00
7.519000000000000000e+03 5.825766754150390625e+01 -1.593612957000732422e+01 6.805453688649501509e-14 3.722983564231202580e-13 1.321058605389946461e-13 -1.401122870069854143e-13
7.520000000000000000e+03 7.781884670257568359e+00 -3.234318161010742188e+01 -1.100882199392720293e-14 3.612895301940283188e-13 1.050842084789754827e-13 -4.803849782157240678e-14
7.521000000000000000e+03 3.239888000488281250e+01 -3.223353576660156250e+01 -1.601283260719080226e-14 1.601283260719080226e-14 0.000000000000000000e+00 7.005614350349270714e-14
7.522000000000000000e+03 7.242768096923828125e+01 -3.392796325683593750e+01 -1.070858150959731747e-13 1.371098736933570872e-13 9.007217918028352643e-15 3.202566521438160452e-14
7.523000000000000000e+03 3.136056327819824219e+01 -3.856104278564453125e+01 -5.154130431912068433e-14 4.653729455289003225e-14 -1.501203056924137712e-15 6.004811719476782494e-14
7.524000000000000000e+03 2.602504920959472656e+01 -1.734042930603027344e+01 5.254210423948774134e-14 2.251804564210382886e-14 2.251804564210382886e-14 5.304250758780305885e-14
7.525000000000000000e+03 6.210896682739257812e+01 -1.373709964752197266e+01 1.170938346284344789e-13 -8.706977603105056640e-14 9.007217918028352643e-15 -2.642117210779892922e-13
7.526000000000000000e+03 6.041126632690429688e+01 -1.929785919189453125e+01 1.120898214740720378e-13 -1.120898214740720378e-13 0.000000000000000000e+00 -1.251002475438980910e-13
7.527000000000000000e+03 6.046604537963867188e+01 -1.828564071655273438e+01 1.833969716542871442e-13 7.648629451149913105e-13 2.844779804517943989e-13 -7.005614350349270714e-14
7.528000000000000000e+03 5.062611770629882812e+01 -1.254174995422363281e+01 -4.003208151797700565e-15 2.041636038832214672e-13 6.004811719476782494e-14 -3.763015561045884860e-13
7.529000000000000000e+03 2.534506797790527344e+01 -2.051198387145996094e+01 1.741395520621011328e-13 6.004812227696550847e-15 5.404330750817011586e-14 -1.641315257533762506e-13
7.530000000000000000e+03 2.381467628479003906e+01 -1.828199386596679688e+01 5.004010105043830980e-14 -3.102486258350911630e-13 -7.806255641895631925e-14 -1.160930347080674219e-13
7.531000000000000000e+03 5.918196105957031250e+01 -1.560286045074462891e+01 1.461170865291877563e-13 1.541235129971785245e-13 9.007218256841531545e-14 -7.205774334422682115e-14
7.532000000000000000e+03 5.939488887786865234e+00 -1.042877483367919922e+01 2.001604075898850282e-14 1.000802021008766196e-13 3.602887167211341057e-14 6.405133042876320904e-14
7.533000000000000000e+03 8.410205841064453125e+00 -3.006014823913574219e+01 3.602887167211341057e-14 8.406736949368581735e-14 3.602887167211341057e-14 -1.801443651368306309e-13
7.534000000000000000e+03 7.086818695068359375e+00 -2.844538688659667969e+01 -1.601283260719080226e-14 1.761411519028352468e-13 4.803849782157240678e-14 0.000000000000000000e+00
7.535000000000000000e+03 2.043970298767089844e+01 -1.765656852722167969e+01 -6.405133042876320904e-14 6.405133042876320904e-14 0.000000000000000000e+00 -2.802245536851800944e-14
7.536000000000000000e+03 6.140372467041015625e+01 -1.277670097351074219e+01 1.401122870069854143e-13 6.004811719476782494e-14 6.004811719476782494e-14 -1.200962343895356499e-13
7.537000000000000000e+03 2.428346443176269531e+01 -2.316875839233398438e+01 4.003208151797700565e-14 -1.200962343895356499e-13 -2.401924891078620339e-14 -1.561251128379126385e-13
7.538000000000000000e+03 7.717584133148193359e+00 -2.990444755554199219e+01 -1.461170865291877563e-13 1.661331391466375207e-13 6.004812227696550847e-15 -6.405133042876320904e-14
7.539000000000000000e+03 7.409634113311767578e+00 -2.903724098205566406e+01 -9.420048562806121462e-14 -2.198011466846699902e-13 -9.420048562806121462e-14 -1.075862116680249142e-14
7.540000000000000000e+03 5.726409912109375000e+01 -1.488555431365966797e+01 1.080866150163402317e-13 2.522020949285302960e-13 1.080866150163402317e-13 -9.807859548387892756e-14
7.541000000000000000e+03 6.179562759399414062e+01 -1.450782585144042969e+01 -4.803849782157240678e-14 -1.120898214740720378e-13 -4.803849782157240678e-14 -2.502004950877961820e-13
7.542000000000000000e+03 1.803704452514648438e+01 -2.249358558654785156e+01 9.207378240914942946e-14 -5.204170427930421283e-14 1.200962445539310169e-14 -8.006416303595401129e-15
7.543000000000000000e+03 9.198993682861328125e+00 -8.429503440856933594e+00 -1.386110735739076727e-13 1.235990476633475055e-13 -4.503608959014176322e-15 2.962373998448980528e-13
7.544000000000000000e+03 6.956073760986328125e+00 -7.417054653167724609e+00 8.957178260823178695e-14 4.958973769814134513e-13 1.756407519426517183e-13 -1.000802037949425141e-14
7.545000000000000000e+03 5.581747531890869141e+00 -3.064166259765625000e+01 3.602887167211341057e-14 2.441956955655938399e-13 8.406736949368581735e-14 0.000000000000000000e+00
7.546000000000000000e+03 6.817638874053955078e+00 -3.028923034667968750e+01 -7.606094980195862720e-14 1.961571909677578551e-13 3.602887167211341057e-14 2.001604075898850282e-14
7.547000000000000000e+03 2.279414367675781250e+01 -1.851669883728027344e+01 -2.401924891078620339e-14 -5.604491073703601889e-14 -2.401924891078620339e-14 -1.921539912862896271e-13
7.548000000000000000e+03 2.228685379028320312e+01 -1.801836967468261719e+01 -3.452767043631010946e-13 3.502807175174635357e-14 -9.307458910578006450e-14 -5.204170427930421283e-14
7.549000000000000000e+03 6.678457736968994141e+00 -2.688439369201660156e+01 4.403528797570881170e-14 1.561251128379126385e-13 6.004811719476782494e-14 -7.606094980195862720e-14
7.550000000000000000e+03 6.446740150451660156e+00 -3.228630447387695312e+01 -8.006416303595401129e-14 2.401924687790712998e-13 4.803849782157240678e-14 -7.205774334422682115e-14
7.551000000000000000e+03 8.368793487548828125e+00 -2.805910682678222656e+01 7.606094980195862720e-14 -1.961571909677578551e-13 -3.602887167211341057e-14 -1.200962343895356499e-13
7.552000000000000000e+03 7.082572460174560547e+00 -9.559616088867187500e+00 -7.255814330441034965e-14 5.179150294395973297e-13 1.336070739720723877e-13 1.521218996039172544e-13
7.553000000000000000e+03 2.113565063476562500e+01 -2.126718139648437500e+01 1.821459649775647449e-13 3.983192085627723644e-13 1.741395520621011328e-13 -1.601283260719080226e-14
7.554000000000000000e+03 8.030645370483398438e+00 -9.524170875549316406e+00 -4.097033313738701610e-14 4.857017023816856405e-13 1.334194121285423029e-13 2.278075460476064462e-13
7.555000000000000000e+03 6.437572002410888672e+00 -8.045224189758300781e+00 -2.652125379390152943e-14 -8.506817110811876886e-15 -1.050842118671072717e-14 1.741395520621011328e-13
7.556000000000000000e+03 7.223489379882812500e+01 -3.054212188720703125e+01 1.000802037949425141e-14 4.503609128420765773e-13 1.381106736137241442e-13 7.205774334422682115e-14
7.557000000000000000e+03 2.011378479003906250e+01 -1.822986221313476562e+01 1.501202997631831404e-13 3.002405859738391247e-14 5.404330750817011586e-14 1.711371387484728057e-13
7.558000000000000000e+03 3.337261962890625000e+01 -1.262334251403808594e+01 6.605293026949732305e-14 -6.004812227696550847e-15 1.801443583605670529e-14 1.100882216333379238e-13
7.559000000000000000e+03 3.370744705200195312e+01 -1.199281787872314453e+01 -2.582069215557869502e-13 3.803047490097931360e-14 -6.605293026949732305e-14 1.120898214740720378e-13
7.560000000000000000e+03 2.072065353393554688e+01 -2.299380874633789062e+01 7.005614350349270714e-14 3.002405859738391247e-14 3.002405859738391247e-14 -4.003208151797700565e-14
7.561000000000000000e+03 1.977689170837402344e+01 -2.254011535644531250e+01 1.541235129971785245e-13 6.605293026949732305e-14 6.605293026949732305e-14 4.803849782157240678e-14
7.562000000000000000e+03 5.934860992431640625e+01 -1.493738079071044922e+01 1.401122870069854143e-13 6.004811719476782494e-14 6.004811719476782494e-14 -1.841475648182988589e-13
7.563000000000000000e+03 2.547179794311523438e+01 -1.843774795532226562e+01 1.461170865291877563e-13 -8.606896933441993136e-14 1.801443583605670529e-14 -1.180946345488015359e-13
7.564000000000000000e+03 7.123558044433593750e+01 -3.327041625976562500e+01 -4.003208151797700565e-14 2.802245740139708285e-13 7.205774334422682115e-14 7.606094980195862720e-14
7.565000000000000000e+03 7.290808868408203125e+01 -3.224931716918945312e+01 3.803047490097931360e-14 3.823063556267908281e-13 1.261010474642651480e-13 1.361090737729900302e-13
7.566000000000000000e+03 1.267337799072265625e+01 -6.994830131530761719e+00 3.903127820947815962e-14 2.912333731380084556e-13 9.907939540424598457e-14 1.861491782115601290e-13
7.567000000000000000e+03 7.277201080322265625e+01 -3.307389831542968750e+01 -5.604491073703601889e-14 2.962373998448980528e-13 7.205774334422682115e-14 -4.003208151797700565e-14
7.568000000000000000e+03 2.446630287170410156e+01 -1.872972869873046875e+01 2.802245536851800944e-14 1.200962445539310169e-14 1.200962445539310169e-14 -7.606094980195862720e-14
7.569000000000000000e+03 1.771906089782714844e+01 -2.353330802917480469e+01 7.405934996122451319e-14 3.863095824133133682e-13 1.381106736137241442e-13 1.818957582212094026e-13
7.570000000000000000e+03 1.030149269104003906e+01 -9.169735908508300781e+00 -2.494499019237844673e-13 -1.984089975648473114e-13 -1.343576671360841024e-13 2.161732300326804634e-13
7.571000000000000000e+03 1.004741477966308594e+01 -8.758089065551757812e+00 -1.861491782115601290e-13 2.862293735361731706e-13 3.002405859738391247e-14 2.481988952470620680e-13
7.572000000000000000e+03 1.143992805480957031e+01 -8.714402198791503906e+00 9.207378240914942946e-14 2.682149478645118323e-13 1.080866150163402317e-13 -8.807057595141762341e-14
7.573000000000000000e+03 1.234308528900146484e+01 -8.309417724609375000e+00 -1.901523778930283570e-13 9.007218256841531545e-14 -3.002405859738391247e-14 -2.401924891078620339e-14
7.574000000000000000e+03 1.927624511718750000e+01 -2.036205863952636719e+01 7.756215645877279075e-14 -3.252606517456513302e-14 1.351082687704252897e-14 -3.002405859738391247e-14
7.575000000000000000e+03 2.340679550170898438e+01 -2.314924430847167969e+01 2.121700303512122354e-13 6.805453688649501509e-14 8.406736949368581735e-14 -5.204170427930421283e-14
7.576000000000000000e+03 2.357108879089355469e+01 -2.234107017517089844e+01 1.921539912862896271e-13 -3.202566521438160452e-14 4.803849782157240678e-14 -6.405133042876320904e-14
7.577000000000000000e+03 5.988779067993164062e+01 -1.781186103820800781e+01 1.200962343895356499e-13 -4.003208151797700565e-14 2.401924891078620339e-14 -6.805453688649501509e-14
7.578000000000000000e+03 5.995046615600585938e+01 -1.883743095397949219e+01 8.907137587178468041e-14 2.211772431870429045e-13 9.307458910578006450e-14 -1.681347389873716347e-13
7.579000000000000000e+03 6.104393005371093750e+01 -1.772604179382324219e+01 -7.005613842129502361e-15 3.702967498061225660e-14 9.007217918028352643e-15 -9.182358242905766521e-14
7.580000000000000000e+03 6.189336395263671875e+01 -1.614243125915527344e+01 9.807859548387892756e-14 2.822261738547049426e-13 1.140914348673333079e-13 -3.602887167211341057e-14
7.581000000000000000e+03 7.087829589843750000e+00 -2.960503387451171875e+01 -7.105694342385976414e-14 6.104892389139845998e-14 -3.002406113848275424e-15 -1.281026608575264181e-13
7.582000000000000000e+03 4.387968444824218750e+01 -2.398491477966308594e+01 9.007218256841531545e-14 3.702967294773318319e-13 1.381106736137241442e-13 7.606094980195862720e-14
7.583000000000000000e+03 7.546708583831787109e+00 -7.897185325622558594e+00 -8.706977603105056640e-14 -8.306656957331876034e-14 -5.104090097080536681e-14 2.181748434259417335e-13
7.584000000000000000e+03 8.090284347534179688e+00 -8.416058540344238281e+00 4.003208151797700565e-14 5.204170427930421283e-13 1.681347389873716347e-13 1.731387521417340758e-13
7.585000000000000000e+03 6.559943675994873047e+00 -9.126488685607910156e+00 -8.907137587178468041e-14 9.907939540424598457e-14 3.002406113848275424e-15 2.481988952470620680e-13
7.586000000000000000e+03 6.254786682128906250e+01 -1.335270595550537109e+01 1.831467648979318019e-13 3.072462260739899920e-13 1.471179000020819694e-13 4.003208151797700565e-14
7.587000000000000000e+03 8.038077354431152344e+00 -3.161288261413574219e+01 -3.803047490097931360e-14 -6.204972381176551699e-14 -3.002405859738391247e-14 -8.006416303595401129e-14
7.588000000000000000e+03 1.014511108398437500e+01 -7.413198947906494141e+00 -3.803047490097931360e-14 1.801443583605670529e-14 -6.004812227696550847e-15 1.561251128379126385e-13
7.589000000000000000e+03 6.113366699218750000e+01 -1.655196952819824219e+01 -6.905533680686207210e-14 -1.000802037949425141e-15 -2.101684237342145434e-14 -1.170938346284344789e-13
7.590000000000000000e+03 1.085135936737060547e+01 -7.674832344055175781e+00 -1.261010474642651480e-13 -1.341074739322559162e-13 -7.806255641895631925e-14 1.070858150959731747e-13
7.591000000000000000e+03 1.927400588989257812e+01 -2.134518814086914062e+01 2.547041082819750946e-13 2.206768432268593760e-13 1.426142868079030568e-13 -5.154130431912068433e-14
7.592000000000000000e+03 6.199539947509765625e+01 -1.294054317474365234e+01 1.481186999224490264e-13 -3.482791041242022656e-13 -6.004811719476782494e-14 -9.607699564314481355e-14
7.593000000000000000e+03 3.344168853759765625e+01 -9.129225730895996094e+00 1.013312020013354409e-13 -9.382518904605535726e-14 2.251804479507088161e-15 8.006416303595401129e-15
7.594000000000000000e+03 3.300462722778320312e+01 -8.833015441894531250e+00 -1.561251128379126385e-13 -2.041636038832214672e-13 -1.080866150163402317e-13 -5.604491073703601889e-14
7.595000000000000000e+03 1.867350387573242188e+01 -2.368339347839355469e+01 4.083272077664429345e-13 1.521218996039172544e-13 1.681347389873716347e-13 4.803849782157240678e-14
7.596000000000000000e+03 2.147720527648925781e+01 -2.275094795227050781e+01 1.080866150163402317e-13 9.207378240914942946e-14 6.004811719476782494e-14 1.160930347080674219e-13
7.597000000000000000e+03 5.964548873901367188e+01 -1.438870048522949219e+01 -1.246624060490669761e-13 -1.449286383178177706e-13 -8.087731466531813962e-14 -1.451162933850842773e-14
7.598000000000000000e+03 2.514810752868652344e+01 -1.906447982788085938e+01 3.783031559453226000e-13 1.621299259126421366e-13 1.621299259126421366e-13 -1.521218996039172544e-13
7.599000000000000000e+03 2.573095893859863281e+01 -1.782969665527343750e+01 2.001604042017532392e-13 -2.802245740139708285e-13 -2.401924891078620339e-14 -1.601283260719080226e-14
7.600000000000000000e+03 7.556167125701904297e+00 -2.749465370178222656e+01 0.000000000000000000e+00 0.000000000000000000e+00 0.000000000000000000e+00 -3.202566521438160452e-14
7.601000000000000000e+03 6.848978042602539062e+00 -2.768527984619140625e+01 3.202566521438160452e-14 1.281026608575264181e-13 4.803849782157240678e-14 -1.281026608575264181e-13
7.602000000000000000e+03 6.120863723754882812e+01 -1.479672241210937500e+01 2.802245536851800944e-14 3.322662782932750414e-13 1.080866150163402317e-13 1.080866150163402317e-13
7.603000000000000000e+03 7.550425052642822266e+00 -9.000172615051269531e+00 -3.965677815970757025e-14 -3.915637819952404175e-14 -2.364394724658266250e-14 1.930296878284790130e-13
7.604000000000000000e+03 2.111591148376464844e+01 -1.882752799987792969e+01 1.040834085586084257e-13 1.361090737729900302e-13 7.205774334422682115e-14 -8.807057595141762341e-14
7.605000000000000000e+03 2.053236961364746094e+01 -2.226337051391601562e+01 1.601283260719080226e-13 1.601283260719080226e-13 9.607699564314481355e-14 -6.405133042876320904e-14
7.606000000000000000e+03 2.392373466491699219e+01 -2.165177536010742188e+01 1.681347389873716347e-13 7.205774334422682115e-14 7.205774334422682115e-14 5.004010105043830980e-14
7.607000000000000000e+03 2.433539581298828125e+01 -2.107204627990722656e+01 2.101684169579509653e-13 1.701363388281057487e-13 1.140914348673333079e-13 -1.401122870069854143e-13
7.608000000000000000e+03 1.990036773681640625e+01 -2.085452079772949219e+01 7.556054984177509870e-14 6.955573676704560060e-14 4.353488801552528320e-14 4.253408555405938443e-15
7.609000000000000000e+03 2.306349182128906250e+01 -1.970627593994140625e+01 1.601283260719080226e-13 0.000000000000000000e+00 4.803849782157240678e-14 -6.004811719476782494e-14
7.610000000000000000e+03 2.208952140808105469e+01 -2.054967689514160156e+01 1.821459649775647449e-13 7.806255641895631925e-14 7.806255641895631925e-14 -3.602887167211341057e-14
7.611000000000000000e+03 5.994251251220703125e+01 -1.582307910919189453e+01 1.401122768425900472e-14 1.661331391466375207e-13 5.404330750817011586e-14 -3.202566521438160452e-14
7.612000000000000000e+03 5.890629577636718750e+01 -1.628108787536621094e+01 1.271018609371593611e-13 2.832269737750719996e-13 1.230986477031639770e-13 -4.403528797570881170e-14
7.613000000000000000e+03 5.849909973144531250e+01 -1.532924175262451172e+01 2.001604075898850282e-14 1.000802021008766196e-13 3.602887167211341057e-14 -3.202566521438160452e-14
7.614000000000000000e+03 6.175603485107421875e+01 -1.342773723602294922e+01 2.562053217150528361e-13 6.405133042876320904e-14 9.607699564314481355e-14 9.607699564314481355e-14
7.615000000000000000e+03 6.214357376098632812e+01 -1.513998413085937500e+01 1.761411519028352468e-13 1.441154866884536423e-13 9.607699564314481355e-14 -6.605293026949732305e-14
7.616000000000000000e+03 6.236756896972656250e+01 -1.424115657806396484e+01 1.901523778930283570e-13 3.102486258350911630e-13 1.501202997631831404e-13 5.604491073703601889e-14
7.617000000000000000e+03 2.453252983093261719e+01 -1.988241958618164062e+01 2.502004950877961820e-13 5.004010105043830980e-14 9.007218256841531545e-14 3.602887167211341057e-14
7.618000000000000000e+03 8.558504104614257812e+00 -8.970701217651367188e+00 -8.369206613541638196e-14 9.882919542415422032e-15 -2.214274397790028798e-14 1.683849321911998209e-13
7.619000000000000000e+03 6.163358688354492188e+01 -1.391462326049804688e+01 3.162534253572935050e-13 4.403528797570881170e-14 1.080866150163402317e-13 1.601283260719080226e-14
7.620000000000000000e+03 6.150584030151367188e+01 -1.547437572479248047e+01 -3.202566521438160452e-14 3.202566521438160452e-14 0.000000000000000000e+00 -1.200962343895356499e-13
7.621000000000000000e+03 7.721067905426025391e+00 -2.818911743164062500e+01 -8.406736949368581735e-14 -3.602887167211341057e-14 -3.602887167211341057e-14 -1.120898214740720378e-13
7.622000000000000000e+03 2.187548637390136719e+01 -2.125029182434082031e+01 5.804651735403371093e-14 -1.581267126786467525e-13 -3.002405859738391247e-14 -1.040834085586084257e-13
7.623000000000000000e+03 2.022734832763671875e+01 -1.915785980224609375e+01 2.502005052521915490e-14 -3.502807175174635357e-14 -3.002406113848275424e-15 9.607699564314481355e-14
7.624000000000000000e+03 2.190386009216308594e+01 -1.852988624572753906e+01 0.000000000000000000e+00 0.000000000000000000e+00 0.000000000000000000e+00 -1.200962445539310169e-14
7.625000000000000000e+03 1.979196739196777344e+01 -1.977265167236328125e+01 4.003208151797700565e-14 2.001604042017532392e-13 7.205774334422682115e-14 7.305854326459387815e-14
7.626000000000000000e+03 1.958420181274414062e+01 -2.186867523193359375e+01 8.006416303595401129e-14 8.006416303595401129e-14 4.803849782157240678e-14 4.803849782157240678e-14
7.627000000000000000e+03 6.060196685791015625e+01 -1.496408939361572266e+01 5.604491073703601889e-14 2.401924891078620339e-14 2.401924891078620339e-14 -6.405133042876320904e-14
7.628000000000000000e+03 5.995501327514648438e+01 -1.501137351989746094e+01 5.604491073703601889e-14 2.401924891078620339e-14 2.401924891078620339e-14 6.405133042876320904e-14
7.629000000000000000e+03 2.291393852233886719e+01 -2.195672416687011719e+01 7.355895000104098469e-14 1.150922280114367868e-14 2.552045048540268340e-14 1.851483749030612830e-14
7.630000000000000000e+03 7.886898517608642578e+00 -2.877843475341796875e+01 1.000802021008766196e-13 2.001604075898850282e-14 3.602887167211341057e-14 -1.080866150163402317e-13
7.631000000000000000e+03 8.446655273437500000e+00 -2.870810890197753906e+01 -3.202566521438160452e-14 3.202566521438160452e-14 0.000000000000000000e+00 -2.041636038832214672e-13
7.632000000000000000e+03 2.404578590393066406e+01 -1.935465812683105469e+01 2.471980953266950110e-13 -7.706175649858926224e-14 5.104090097080536681e-14 -4.103288143834406265e-14
7.633000000000000000e+03 2.032407379150390625e+01 -2.150465393066406250e+01 2.241796429481440756e-13 9.607699564314481355e-14 9.607699564314481355e-14 -8.006416303595401129e-15
7.634000000000000000e+03 2.224918365478515625e+01 -1.898476028442382812e+01 5.004010105043830980e-14 2.502004950877961820e-13 9.007218256841531545e-14 -4.003208151797700565e-14
7.635000000000000000e+03 2.081713294982910156e+01 -1.947748565673828125e+01 1.441154866884536423e-13 1.601283260719080226e-14 4.803849782157240678e-14 -4.803849782157240678e-14
7.636000000000000000e+03 2.324259376525878906e+01 -2.033166313171386719e+01 2.471980953266950110e-13 4.303448466720996568e-14 8.706977603105056640e-14 -9.957980214069309111e-14
7.637000000000000000e+03 2.365328598022460938e+01 -1.989040184020996094e+01 -1.701363422162375377e-14 -5.304250758780305885e-14 -2.101684237342145434e-14 1.000802021008766196e-13
7.638000000000000000e+03 2.376392936706542969e+01 -2.074626159667968750e+01 2.001604075898850282e-15 -1.020818019416107336e-13 -3.002405859738391247e-14 3.402726844324750755e-14
7.639000000000000000e+03 2.230199432373046875e+01 -1.972113990783691406e+01 8.006416303595401129e-14 -8.006416303595401129e-14 0.000000000000000000e+00 -1.040834085586084257e-13
7.640000000000000000e+03 2.127337074279785156e+01 -2.203491973876953125e+01 3.602887167211341057e-14 -7.606094980195862720e-14 -1.200962445539310169e-14 1.601283260719080226e-14
7.641000000000000000e+03 2.278439140319824219e+01 -2.085235786437988281e+01 1.115894215138885093e-13 -2.266816563015888741e-13 -3.452766840343103605e-14 -2.001604075898850282e-14
7.642000000000000000e+03 2.045211219787597656e+01 -2.019902610778808594e+01 2.181748434259417335e-13 2.421940957248597259e-13 1.381106736137241442e-13 4.403528797570881170e-14
7.643000000000000000e+03 2.150786590576171875e+01 -1.968067359924316406e+01 1.401122870069854143e-13 6.004811719476782494e-14 6.004811719476782494e-14 -6.004811719476782494e-14
7.644000000000000000e+03 2.166392898559570312e+01 -1.903411293029785156e+01 7.005614350349270714e-14 3.002405859738391247e-14 3.002405859738391247e-14 -1.120898214740720378e-13
7.645000000000000000e+03 2.194611740112304688e+01 -2.184530067443847656e+01 2.121700303512122354e-13 6.805453688649501509e-14 8.406736949368581735e-14 -4.803849782157240678e-14
7.646000000000000000e+03 2.242152404785156250e+01 -2.147295570373535156e+01 1.431146867680865853e-13 -9.307458910578006450e-14 1.501202929869195624e-14 -2.602085213965210642e-14
7.647000000000000000e+03 2.124904251098632812e+01 -2.045355033874511719e+01 8.206576287668812530e-14 -1.020818019416107336e-13 -6.004812227696550847e-15 -1.000802021008766196e-13
7.648000000000000000e+03 5.277344131469726562e+01 -4.137642669677734375e+01 -1.245998475837145625e-13 1.296038607380770036e-13 1.501203056924137712e-15 4.403528797570881170e-14
7.649000000000000000e+03 7.485901641845703125e+01 -8.065897941589355469e+00 8.006416303595401129e-15 2.321860694161348437e-13 7.205774334422682115e-14 0.000000000000000000e+00
7.650000000000000000e+03 2.930878829956054688e+01 -3.003028392791748047e+00 -4.863897912904535659e-13 6.605293026949732305e-14 -1.261010474642651480e-13 -5.604491073703601889e-14
7.651000000000000000e+03 6.159832382202148438e+01 -5.933463573455810547e+00 1.801443651368306309e-13 -2.201764432666758475e-13 -1.200962445539310169e-14 -6.004811719476782494e-14
7.652000000000000000e+03 4.880128860473632812e+01 -1.616307830810546875e+01 -1.801443651368306309e-13 -2.602085213965210642e-13 -1.321058605389946461e-13 -1.200962445539310169e-14
7.653000000000000000e+03 6.956288909912109375e+01 -1.553545093536376953e+01 2.461972954063279539e-13 1.401122768425900472e-14 7.806255641895631925e-14 -1.521218996039172544e-13
7.654000000000000000e+03 4.983686447143554688e+01 -3.411806869506835938e+01 6.004811719476782494e-14 3.002405995263662808e-13 1.080866150163402317e-13 -2.602085213965210642e-13
7.655000000000000000e+03 3.837931442260742188e+01 -3.476374053955078125e+01 -1.040834085586084257e-13 -1.361090737729900302e-13 -7.205774334422682115e-14 5.604491073703601889e-14
7.656000000000000000e+03 5.550130844116210938e+01 -4.099655532836914062e+01 -4.803849782157240678e-14 4.803849782157240678e-14 0.000000000000000000e+00 1.601283260719080226e-14
7.657000000000000000e+03 1.274808025360107422e+01 -3.878411865234375000e+01 -8.006416303595401129e-15 8.807057595141762341e-14 2.401924891078620339e-14 -1.040834085586084257e-13
7.658000000000000000e+03 7.227996826171875000e+01 -3.862595748901367188e+01 1.100882199392720293e-14 1.991596042813861822e-13 6.305052373213257400e-14 8.206576287668812530e-14
7.659000000000000000e+03 6.353508377075195312e+01 -2.017599296569824219e+01 -2.001604075898850282e-15 5.024025900163264780e-13 1.501202997631831404e-13 -1.681347389873716347e-13
7.660000000000000000e+03 5.732067871093750000e+01 -4.038754272460937500e+01 -6.004812227696550847e-15 6.605293026949732305e-14 1.801443583605670529e-14 -1.240994476235310340e-13
7.661000000000000000e+03 7.278913116455078125e+01 -1.276754283905029297e+01 1.421138868477195283e-13 1.180946345488015359e-13 7.806255641895631925e-14 -5.404330750817011586e-14
7.662000000000000000e+03 1.193442726135253906e+01 -1.236420822143554688e+01 -2.642117210779892922e-13 2.401924891078620339e-14 -7.205774334422682115e-14 2.802245536851800944e-14
7.663000000000000000e+03 1.641981506347656250e+01 -2.117630577087402344e+01 1.030826086382413687e-13 1.871499781319271860e-13 8.706977603105056640e-14 6.204972381176551699e-14
7.664000000000000000e+03 1.689212417602539062e+01 -1.647066688537597656e+01 -3.002405859738391247e-14 1.701363388281057487e-13 4.203368474684290867e-14 2.001604042017532392e-13
7.665000000000000000e+03 4.707635879516601562e+00 -2.154656410217285156e+01 1.281026608575264181e-13 1.921539912862896271e-13 9.607699564314481355e-14 -7.606094980195862720e-14
7.666000000000000000e+03 4.828762054443359375e+01 -2.506881141662597656e+01 -2.502004950877961820e-13 5.904731998490619915e-13 1.020818019416107336e-13 -1.271018609371593611e-13
7.667000000000000000e+03 1.983844995498657227e+00 -3.901649475097656250e+01 -3.202566521438160452e-14 1.921539912862896271e-13 4.803849782157240678e-14 -1.601283260719080226e-14
7.668000000000000000e+03 2.233984947204589844e+01 -3.991277694702148438e+01 4.603689120457471473e-14 2.141716301919463494e-13 7.806255641895631925e-14 1.210970478624298630e-13
7.669000000000000000e+03 2.138679695129394531e+01 -4.038704681396484375e+01 -1.060850151756061177e-13 4.603689120457471473e-14 -1.801443583605670529e-14 0.000000000000000000e+00
7.670000000000000000e+03 5.426826095581054688e+01 -1.622437667846679688e+01 -2.401924891078620339e-14 1.040834085586084257e-13 2.401924891078620339e-14 -1.961571909677578551e-13
7.671000000000000000e+03 4.048657226562500000e+01 -2.946087598800659180e+00 1.007056986629742412e-13 4.315958804538763682e-14 4.315958804538763682e-14 7.656135653840573374e-14
7.672000000000000000e+03 7.813249969482421875e+01 -3.819697570800781250e+01 -2.702165375408505793e-14 2.171740299530475204e-13 5.704571743366665393e-14 -8.006416303595401129e-15
7.673000000000000000e+03 4.417899703979492188e+01 -3.955854415893554688e+01 -2.371900690179701288e-13 -1.931547912066566841e-13 -1.291034607778934751e-13 -4.403528797570881170e-14
7.674000000000000000e+03 4.488293457031250000e+01 -4.082667922973632812e+01 -2.064154070921791345e-14 3.690457499056637447e-14 4.878909776184769953e-15 -1.601283260719080226e-14
7.675000000000000000e+03 5.091637039184570312e+01 -3.553054046630859375e+01 -1.261010474642651480e-13 1.060850151756061177e-13 -6.004812227696550847e-15 -5.604491073703601889e-14
7.676000000000000000e+03 5.178176116943359375e+01 -3.586069869995117188e+01 -1.601283260719080226e-14 9.607699564314481355e-14 2.401924891078620339e-14 -1.641315257533762506e-13
7.677000000000000000e+03 6.558353424072265625e+01 -3.849170303344726562e+01 -4.303448466720996568e-14 7.305854326459387815e-14 9.007217918028352643e-15 -2.401924891078620339e-14
7.678000000000000000e+03 4.781901550292968750e+01 -3.817803192138671875e+01 -1.561251128379126385e-13 3.602887167211341057e-14 -3.602887167211341057e-14 -3.602887167211341057e-14
7.679000000000000000e+03 1.604493141174316406e+01 -1.941531658172607422e+00 4.303448602246268129e-13 2.301844695754007297e-13 1.981587908084919691e-13 6.405133042876320904e-14
7.680000000000000000e+03 5.823858642578125000e+01 -1.221451377868652344e+01 1.531227130768114675e-13 1.571259127582796955e-13 9.307458910578006450e-14 -2.481988952470620680e-13
7.681000000000000000e+03 1.728253555297851562e+01 -2.400012969970703125e+01 -1.130906281707026728e-13 4.303448466720996568e-14 -2.101684237342145434e-14 1.281026608575264181e-13
7.682000000000000000e+03 1.660195732116699219e+01 -2.209300994873046875e+01 2.261812563414053456e-13 1.541235129971785245e-13 1.140914348673333079e-13 5.404330750817011586e-14
7.683000000000000000e+03 1.733734130859375000e+01 -1.573969745635986328e+01 -1.401122870069854143e-13 -6.004811719476782494e-14 -6.004811719476782494e-14 1.481186999224490264e-13
7.684000000000000000e+03 6.776036834716796875e+01 -2.803069877624511719e+01 2.403175857097761270e-13 1.487442032608102260e-13 1.167185380464286215e-13 4.503609128420765773e-14
7.685000000000000000e+03 4.650256729125976562e+01 -1.509154987335205078e+01 -2.802245740139708285e-13 -1.200962343895356499e-13 -1.200962343895356499e-13 2.081668171172168513e-13
7.686000000000000000e+03 3.654593276977539062e+01 -3.506776094436645508e+00 6.405133042876320904e-14 9.607699564314481355e-14 4.803849782157240678e-14 5.404330750817011586e-14
7.687000000000000000e+03 3.670563507080078125e+01 -4.053936481475830078e+00 1.160930347080674219e-13 3.242598518252842732e-13 1.321058605389946461e-13 8.807057595141762341e-14
7.688000000000000000e+03 2.335824394226074219e+01 -2.621569252014160156e+01 2.271820562617724026e-13 2.632109211576222352e-13 1.471179000020819694e-13 -9.707779556351187056e-14
7.689000000000000000e+03 7.331600952148437500e+01 -1.618952751159667969e+01 5.004010105043830980e-14 1.000802037949425141e-14 1.801443583605670529e-14 -4.003208151797700565e-15
7.690000000000000000e+03 1.713876533508300781e+01 -1.113402605056762695e+00 5.104090435893715583e-13 3.102486258350911630e-13 2.461972954063279539e-13 1.200962343895356499e-13
7.691000000000000000e+03 3.690090942382812500e+01 -1.208384513854980469e+01 -9.507618894651417851e-14 5.004010189747125706e-15 -2.702165375408505793e-14 -2.401924891078620339e-14
7.692000000000000000e+03 5.536560058593750000e+01 -2.950973320007324219e+01 -2.191756433463087905e-13 8.907137587178468041e-14 -3.903127820947815962e-14 2.401924891078620339e-14
7.693000000000000000e+03 3.353763198852539062e+01 -3.194836425781250000e+01 7.606094980195862720e-14 1.240994476235310340e-13 6.004811719476782494e-14 1.000802037949425141e-15
7.694000000000000000e+03 5.381811904907226562e+01 -3.517655563354492188e+01 -9.607699564314481355e-14 9.607699564314481355e-14 0.000000000000000000e+00 6.405133042876320904e-14
7.695000000000000000e+03 3.385467529296875000e+01 -3.312952804565429688e+01 1.000802037949425141e-14 5.004010105043830980e-14 1.801443583605670529e-14 -4.403528797570881170e-14
7.696000000000000000e+03 5.857741546630859375e+01 -1.311540508270263672e+01 2.862293735361731706e-13 -1.060850151756061177e-13 5.404330750817011586e-14 -1.601283260719080226e-13
7.697000000000000000e+03 7.684172821044921875e+01 -3.481364059448242188e+01 6.004812227696550847e-15 4.143320343936995886e-13 1.261010474642651480e-13 -7.205774334422682115e-14
7.698000000000000000e+03 3.940357208251953125e+01 -2.896088409423828125e+01 1.601283260719080226e-14 -1.761411519028352468e-13 -4.803849782157240678e-14 -5.604491073703601889e-14
7.699000000000000000e+03 4.259722518920898438e+01 -2.030697822570800781e+01 1.976583908483084406e-13 2.677145343518011478e-13 1.396118734942747297e-13 6.004811719476782494e-14
7.700000000000000000e+03 3.674668073654174805e+00 -3.774669647216796875e+01 -5.004010105043830980e-14 7.005614350349270714e-14 6.004812227696550847e-15 -7.606094980195862720e-14
7.701000000000000000e+03 3.843903732299804688e+01 -1.456721210479736328e+01 -3.282630515067525012e-13 2.481988952470620680e-13 -2.401924891078620339e-14 8.006416303595401129e-15
7.702000000000000000e+03 1.878665542602539062e+01 -2.432619667053222656e+01 1.601283260719080226e-14 -1.761411519028352468e-13 -4.803849782157240678e-14 1.601283260719080226e-13
7.703000000000000000e+03 1.805340766906738281e+01 -1.601696777343750000e+01 -1.434899833500924426e-13 -1.529976096986337963e-13 -8.894627926987058730e-14 1.561251128379126385e-13
7.704000000000000000e+03 6.575760650634765625e+01 -2.758356285095214844e+01 1.200962343895356499e-13 2.802245740139708285e-13 1.200962343895356499e-13 2.401924891078620339e-14
7.705000000000000000e+03 3.801347351074218750e+01 -2.803437948226928711e+00 3.072462260739899920e-13 -1.371098736933570872e-13 5.104090097080536681e-14 -2.351884725653678038e-14
7.706000000000000000e+03 4.302843475341796875e+01 -2.138909149169921875e+01 6.004811719476782494e-14 3.002405995263662808e-13 1.080866150163402317e-13 -1.441154866884536423e-13
7.707000000000000000e+03 4.278862762451171875e+01 -2.195308685302734375e+01 9.207378240914942946e-14 2.682149478645118323e-13 1.080866150163402317e-13 1.481186999224490264e-13
7.708000000000000000e+03 3.618958282470703125e+01 -1.222166824340820312e+01 -3.122502256758252770e-13 7.205774334422682115e-14 -7.205774334422682115e-14 2.161732300326804634e-13
7.709000000000000000e+03 4.724013519287109375e+01 -2.537483596801757812e+01 -4.003208151797700565e-15 6.845485549938912229e-13 2.041636038832214672e-13 -4.003208151797700565e-14
7.710000000000000000e+03 3.770806884765625000e+01 -1.291097545623779297e+01 -4.389142315656263671e-13 2.694033960758818180e-13 -5.085325267980243813e-14 -2.652125379390152943e-14
7.711000000000000000e+03 7.007285308837890625e+01 -2.942877197265625000e+01 1.601283260719080226e-13 3.202566521438160452e-13 1.441154866884536423e-13 4.403528797570881170e-14
7.712000000000000000e+03 5.926723861694335938e+01 -2.287140464782714844e+01 2.562053217150528361e-13 2.241796429481440756e-13 1.441154866884536423e-13 -2.201764432666758475e-13
7.713000000000000000e+03 6.704357147216796875e+01 -3.500999832153320312e+01 5.429350748826188011e-14 1.833969716542871442e-13 7.130714340395152839e-14 8.957178260823178695e-14
7.714000000000000000e+03 5.289771270751953125e+01 -3.509961318969726562e+01 -8.006416303595401129e-15 8.807057595141762341e-14 2.401924891078620339e-14 -1.961571909677578551e-13
7.715000000000000000e+03 3.576908874511718750e+01 -1.200693893432617188e+01 -4.203368474684290867e-14 3.022421993671003948e-13 7.806255641895631925e-14 -5.604491073703601889e-14
7.716000000000000000e+03 2.563282251358032227e+00 -2.304237365722656250e+01 1.361090737729900302e-13 1.040834085586084257e-13 7.205774334422682115e-14 -2.401924891078620339e-14
7.717000000000000000e+03 3.404969787597656250e+01 -1.361688232421875000e+01 -5.516921012908848621e-13 -2.364394758539584140e-13 -2.364394758539584140e-13 1.401122768425900472e-14
7.718000000000000000e+03 3.521899700164794922e+00 -4.686855316162109375e+00 -4.003208151797700565e-14 1.200962343895356499e-13 2.401924891078620339e-14 0.000000000000000000e+00
7.719000000000000000e+03 5.736177825927734375e+01 -1.311253166198730469e+01 -1.881507780522942430e-13 3.082470259943570490e-13 3.602887167211341057e-14 -2.441956955655938399e-13
7.720000000000000000e+03 5.899030303955078125e+01 -1.401591396331787109e+01 6.805453688649501509e-14 2.121700303512122354e-13 8.406736949368581735e-14 -1.961571909677578551e-13
7.721000000000000000e+03 4.916701507568359375e+01 -2.768283843994140625e+01 -8.156536291650459680e-14 3.768019425122448585e-13 8.857097591160115191e-14 -4.003208151797700565e-14
7.722000000000000000e+03 3.382487297058105469e+00 -3.672267532348632812e+01 4.003208151797700565e-15 2.762213472274482884e-13 8.406736949368581735e-14 6.605293026949732305e-14
7.723000000000000000e+03 3.243430709838867188e+01 -8.700424194335937500e+00 5.204170427930421283e-14 6.805453688649501509e-14 3.602887167211341057e-14 -2.001604075898850282e-14
7.724000000000000000e+03 4.058945465087890625e+01 -1.622989273071289062e+01 -2.662133209187234062e-13 2.862293735361731706e-13 6.004812227696550847e-15 -6.705373696612795809e-14
7.725000000000000000e+03 6.185387802124023438e+01 -1.978597450256347656e+01 -6.905533680686207210e-14 -1.000802037949425141e-15 -2.101684237342145434e-14 -1.606287260320915511e-13
7.726000000000000000e+03 4.638904953002929688e+01 -2.574184799194335938e+01 -5.004010189747125706e-15 4.553649124439118623e-13 1.351082738526229732e-13 -1.160930347080674219e-13
7.727000000000000000e+03 4.944850158691406250e+01 -2.850323295593261719e+01 -2.421940957248597259e-13 2.622101212372551782e-13 6.004812227696550847e-15 3.202566521438160452e-14
7.728000000000000000e+03 5.744757461547851562e+01 -2.231267547607421875e+01 1.641315257533762506e-13 4.363496868518834670e-13 1.801443651368306309e-13 -8.006416303595401129e-14
7.729000000000000000e+03 1.317127704620361328e+01 -2.811232757568359375e+01 1.551243129175455815e-13 2.552045217946857791e-13 1.230986477031639770e-13 3.803047490097931360e-14
7.730000000000000000e+03 1.121170997619628906e+01 -2.876336669921875000e+01 9.607699564314481355e-14 2.241796429481440756e-13 9.607699564314481355e-14 8.807057595141762341e-14
7.731000000000000000e+03 5.345679855346679688e+01 -1.171296024322509766e+01 -2.401924891078620339e-14 1.040834085586084257e-13 2.401924891078620339e-14 -2.762213472274482884e-13
7.732000000000000000e+03 1.812083625793457031e+01 -1.487743377685546875e+01 -3.722983564231202580e-13 -6.805453688649501509e-14 -1.321058605389946461e-13 8.006416303595401129e-14
7.733000000000000000e+03 3.308940505981445312e+01 -1.186787319183349609e+01 -1.040834085586084257e-13 -1.361090737729900302e-13 -7.205774334422682115e-14 4.803849782157240678e-14
7.734000000000000000e+03 3.031922149658203125e+01 -1.312457180023193359e+01 -2.532028948488973530e-13 -2.171740299530475204e-13 -1.411130869273524713e-13 1.386110735739076727e-13
7.735000000000000000e+03 3.123035812377929688e+01 -1.230080032348632812e+01 -4.363496868518834670e-13 -3.242598518252842732e-13 -2.281828697346666157e-13 2.321860694161348437e-13
7.736000000000000000e+03 3.482498168945312500e+01 -3.334083557128906250e+01 -1.601283260719080226e-14 1.601283260719080226e-14 0.000000000000000000e+00 1.681347389873716347e-13
7.737000000000000000e+03 5.803176879882812500e+01 -1.737983703613281250e+01 1.000802037949425141e-14 5.004010105043830980e-14 1.801443583605670529e-14 -9.607699564314481355e-14
7.738000000000000000e+03 2.683071327209472656e+01 -3.360682296752929688e+01 -1.040834085586084257e-13 1.841475648182988589e-13 2.401924891078620339e-14 -3.402726844324750755e-14
7.739000000000000000e+03 3.542515945434570312e+01 -4.310071945190429688e+00 -8.807057595141762341e-14 3.282630515067525012e-13 7.205774334422682115e-14 -1.601283260719080226e-13
7.740000000000000000e+03 6.960400390625000000e+01 -2.867045402526855469e+01 3.042437992078345088e-13 1.601283260719080226e-14 9.607699564314481355e-14 6.405133042876320904e-14
7.741000000000000000e+03 3.489295578002929688e+01 -3.248006057739257812e+01 1.240994476235310340e-13 -8.406736949368581735e-14 1.200962445539310169e-14 8.807057595141762341e-14
7.742000000000000000e+03 5.215359115600585938e+01 -2.707141876220703125e+01 -1.190954344691685929e-13 -5.104090097080536681e-14 -5.104090097080536681e-14 -8.006416303595401129e-15
7.743000000000000000e+03 5.804441833496093750e+01 -2.216016387939453125e+01 8.406736949368581735e-14 3.562855034871387216e-13 1.321058605389946461e-13 -1.040834085586084257e-13
7.744000000000000000e+03 2.927610874176025391e+00 -2.399356460571289062e+01 -1.240994476235310340e-13 -7.606094980195862720e-14 -6.004811719476782494e-14 1.200962445539310169e-14
7.745000000000000000e+03 5.180421829223632812e+01 -1.083725547790527344e+01 4.003208151797700565e-14 2.001604042017532392e-13 7.205774334422682115e-14 -8.006416303595401129e-14
7.746000000000000000e+03 6.436424255371093750e+01 -1.317167186737060547e+01 -2.401924891078620339e-14 2.642117210779892922e-13 7.205774334422682115e-14 1.561251128379126385e-13
7.747000000000000000e+03 6.391960525512695312e+01 -1.294061088562011719e+01 8.506816941405287436e-14 -1.501202929869195624e-14 2.101684237342145434e-14 -1.100882199392720293e-14
7.748000000000000000e+03 1.463982295989990234e+01 -1.261772251129150391e+01 -2.622101212372551782e-13 1.621299259126421366e-13 -3.002405859738391247e-14 9.607699564314481355e-14
7.749000000000000000e+03 1.239186382293701172e+01 -2.678523635864257812e+01 2.722181475459800604e-13 2.081668171172168513e-13 1.441154866884536423e-13 -1.040834085586084257e-13
7.750000000000000000e+03 2.683859252929687500e+01 -3.058813858032226562e+01 -1.261010474642651480e-13 2.662133209187234062e-13 4.203368474684290867e-14 -3.602887167211341057e-14
7.751000000000000000e+03 2.903632354736328125e+01 -1.507163715362548828e+01 -1.861491782115601290e-13 -3.402726844324750755e-14 -6.605293026949732305e-14 2.401924891078620339e-14
7.752000000000000000e+03 3.938624382019042969e+00 -3.570905685424804688e+01 -5.204170427930421283e-14 2.522020949285302960e-13 6.004811719476782494e-14 1.000802021008766196e-13
7.753000000000000000e+03 1.064884662628173828e+01 -8.214981079101562500e+00 -1.321058605389946461e-13 1.721379386688398627e-13 1.200962445539310169e-14 1.601283260719080226e-13
7.754000000000000000e+03 2.502852058410644531e+01 -2.248535537719726562e+01 1.981587908084919691e-13 -9.807859548387892756e-14 3.002405859738391247e-14 -1.921539912862896271e-13
7.755000000000000000e+03 2.432089805603027344e+01 -2.248485565185546875e+01 1.761411519028352468e-13 -1.601283260719080226e-14 4.803849782157240678e-14 2.802245536851800944e-14
7.756000000000000000e+03 5.858894729614257812e+01 -1.728779602050781250e+01 1.040834085586084257e-13 1.361090737729900302e-13 7.205774334422682115e-14 -9.607699564314481355e-14
7.757000000000000000e+03 5.880694580078125000e+01 -1.814678955078125000e+01 -1.781427517435693608e-13 -4.203368474684290867e-14 -6.605293026949732305e-14 -1.481186999224490264e-13
7.758000000000000000e+03 1.927986335754394531e+01 -1.838990020751953125e+01 1.786431517037528893e-13 7.656135653840573374e-14 7.656135653840573374e-14 -4.053248147816053415e-14
7.759000000000000000e+03 7.327656555175781250e+01 -3.026089859008789062e+01 2.502005052521915490e-14 2.852285736158061136e-13 9.307458910578006450e-14 -8.006416303595401129e-15
7.760000000000000000e+03 1.356028270721435547e+01 -5.093734741210937500e+00 1.200962445539310169e-14 -1.321058605389946461e-13 -3.602887167211341057e-14 2.041636038832214672e-13
7.761000000000000000e+03 7.463230895996093750e+01 -1.495151042938232422e+01 1.441154866884536423e-13 1.601283260719080226e-14 4.803849782157240678e-14 0.000000000000000000e+00
7.762000000000000000e+03 3.639988183975219727e+00 -1.267089271545410156e+01 1.801443651368306309e-13 2.602085213965210642e-13 1.321058605389946461e-13 -3.202566521438160452e-14
7.763000000000000000e+03 1.094186401367187500e+01 -2.593355941772460938e+01 4.003208151797700565e-14 4.003208151797700565e-14 2.401924891078620339e-14 -1.160930347080674219e-13
7.764000000000000000e+03 4.885367965698242188e+01 -2.815234375000000000e+01 -2.702165477052459464e-13 2.502004950877961820e-13 -6.004812227696550847e-15 -2.221780431074099615e-13
7.765000000000000000e+03 7.226755523681640625e+01 -3.215055847167968750e+01 4.603689120457471473e-14 2.942358000041639388e-13 1.020818019416107336e-13 -9.607699564314481355e-14
7.766000000000000000e+03 5.480756378173828125e+01 -2.860866355895996094e+01 -4.803849782157240678e-14 3.682951296365977178e-13 9.607699564314481355e-14 -2.401924891078620339e-14
7.767000000000000000e+03 1.048076248168945312e+01 -2.689426231384277344e+01 2.001604075898850282e-15 1.381106736137241442e-13 4.203368474684290867e-14 -8.006416303595401129e-14
7.768000000000000000e+03 6.026909637451171875e+01 -2.017798995971679688e+01 2.041636038832214672e-13 3.162534253572935050e-13 1.561251128379126385e-13 -6.605293026949732305e-14
7.769000000000000000e+03 6.018714141845703125e+01 -2.135290908813476562e+01 -1.801443583605670529e-14 3.582871304329271478e-13 1.020818019416107336e-13 -2.081668171172168513e-13
7.770000000000000000e+03 5.942074584960937500e+01 -2.024194717407226562e+01 1.651323256737433076e-13 3.452767043631010946e-13 1.531227130768114675e-13 -1.401122870069854143e-13
7.771000000000000000e+03 4.328533935546875000e+01 -1.767164993286132812e+01 -8.406736949368581735e-14 -3.602887167211341057e-14 -3.602887167211341057e-14 -4.003208151797700565e-15
7.772000000000000000e+03 6.197161483764648438e+01 -2.088975906372070312e+01 2.502005052521915490e-14 2.852285736158061136e-13 9.307458910578006450e-14 -2.797241605012601440e-13
7.773000000000000000e+03 6.266489028930664062e+01 -1.228909111022949219e+01 1.441154866884536423e-13 -3.042437992078345088e-13 -4.803849782157240678e-14 5.404330750817011586e-14
7.774000000000000000e+03 5.088432693481445312e+01 -1.062493228912353516e+01 1.301042606982605321e-13 2.502004950877961820e-13 1.140914348673333079e-13 2.001604075898850282e-14
7.775000000000000000e+03 2.675736808776855469e+01 -2.852046203613281250e+01 -7.606094980195862720e-14 1.961571909677578551e-13 3.602887167211341057e-14 6.405133042876320904e-14
7.776000000000000000e+03 2.918405342102050781e+01 -2.919832229614257812e+01 -1.931547912066566841e-13 2.832269737750719996e-13 2.702165375408505793e-14 2.401924891078620339e-14
7.777000000000000000e+03 2.774400520324707031e+01 -3.125784683227539062e+01 -6.605293026949732305e-14 2.461972954063279539e-13 5.404330750817011586e-14 -5.204170427930421283e-14
7.778000000000000000e+03 1.181232547760009766e+01 -6.968520641326904297e+00 2.464474886101561402e-14 2.393167857894090700e-13 7.918845971750104740e-14 5.504411081666896188e-14
7.779000000000000000e+03 2.647756767272949219e+01 -2.807540512084960938e+01 -1.040834085586084257e-13 1.841475648182988589e-13 2.401924891078620339e-14 -5.704571743366665393e-14
7.780000000000000000e+03 7.208692932128906250e+01 -3.282179260253906250e+01 7.205774334422682115e-14 1.681347389873716347e-13 7.205774334422682115e-14 8.807057595141762341e-14
7.781000000000000000e+03 5.917406463623046875e+01 -2.083966445922851562e+01 6.004811719476782494e-14 -2.001604075898850282e-14 1.200962445539310169e-14 -1.921539912862896271e-13
7.782000000000000000e+03 2.641823959350585938e+01 -2.670520782470703125e+01 -1.240994476235310340e-13 2.441956955655938399e-13 3.602887167211341057e-14 -2.001604075898850282e-14
7.783000000000000000e+03 2.521596145629882812e+01 -2.359515762329101562e+01 1.441154866884536423e-13 1.601283260719080226e-14 4.803849782157240678e-14 -3.002405859738391247e-14
7.784000000000000000e+03 2.573142242431640625e+01 -1.943337440490722656e+01 2.061652172764827373e-13 5.404330750817011586e-14 7.806255641895631925e-14 -8.706977603105056640e-14
7.785000000000000000e+03 2.537862777709960938e+01 -2.122047424316406250e+01 2.802245536851800944e-14 3.322662782932750414e-13 1.080866150163402317e-13 -1.521218996039172544e-13
7.786000000000000000e+03 7.618888854980468750e+01 -1.521109294891357422e+01 2.301844560228735737e-14 -1.731387521417340758e-13 -4.503609128420765773e-14 -6.405133042876320904e-14
7.787000000000000000e+03 1.251037120819091797e+01 -4.562550067901611328e+00 2.051644173561156803e-13 -9.507618894651417851e-14 3.302646513474866152e-14 1.601283260719080226e-13
7.788000000000000000e+03 6.007299423217773438e+01 -2.087675285339355469e+01 6.605293026949732305e-14 -2.461972954063279539e-13 -5.404330750817011586e-14 -1.281026608575264181e-13
7.789000000000000000e+03 7.777602195739746094e+00 -4.974231719970703125e+00 -3.602887167211341057e-14 -2.441956955655938399e-13 -8.406736949368581735e-14 5.204170427930421283e-14
7.790000000000000000e+03 6.130414199829101562e+01 -1.325331401824951172e+01 -1.481186999224490264e-13 -1.321058605389946461e-13 -8.406736949368581735e-14 -1.401122870069854143e-13
7.791000000000000000e+03 5.459204673767089844e+00 -8.514165878295898438e+00 -8.006416303595401129e-15 8.807057595141762341e-14 2.401924891078620339e-14 2.121700303512122354e-13
7.792000000000000000e+03 9.709635734558105469e+00 -5.074820995330810547e+00 1.000802021008766196e-13 -1.401122870069854143e-13 -1.200962445539310169e-14 2.081668171172168513e-13
7.793000000000000000e+03 2.480378723144531250e+01 -2.144355773925781250e+01 5.404330750817011586e-14 1.261010474642651480e-13 5.404330750817011586e-14 6.004812227696550847e-15
7.794000000000000000e+03 7.894783973693847656e+00 -2.930606651306152344e+01 1.601283260719080226e-14 1.441154866884536423e-13 4.803849782157240678e-14 -9.607699564314481355e-14
7.795000000000000000e+03 7.566407775878906250e+01 -2.966543960571289062e+01 9.807859548387892756e-14 1.220978477827969200e-13 6.605293026949732305e-14 -1.691355389077386917e-13
7.796000000000000000e+03 5.367500305175781250e+00 -7.925433158874511719e+00 2.682149478645118323e-13 -6.805453688649501509e-14 6.004811719476782494e-14 4.803849782157240678e-14
7.797000000000000000e+03 6.785015583038330078e+00 -6.383087158203125000e+00 1.401122870069854143e-13 2.201764432666758475e-13 1.080866150163402317e-13 8.206576287668812530e-14
7.798000000000000000e+03 5.177237510681152344e+00 -9.034075736999511719e+00 -1.150922347877003649e-13 1.050842084789754827e-13 -3.002406113848275424e-15 4.803849782157240678e-14
7.799000000000000000e+03 7.605567169189453125e+01 -3.001004791259765625e+01 1.341074739322559162e-13 2.862293735361731706e-13 1.261010474642651480e-13 4.003208151797700565e-14
7.800000000000000000e+03 7.713175964355468750e+01 -6.420995712280273438e+00 2.602085213965210642e-14 1.941555911270237411e-13 6.605293026949732305e-14 -4.803849782157240678e-14
7.801000000000000000e+03 7.878694152832031250e+01 -7.140852451324462891e+00 -3.602887167211341057e-14 7.606094980195862720e-14 1.200962445539310169e-14 8.006416303595401129e-14
7.802000000000000000e+03 7.716936492919921875e+01 -7.161899089813232422e+00 5.604491073703601889e-14 2.401924891078620339e-14 2.401924891078620339e-14 1.200962445539310169e-14
7.803000000000000000e+03 7.959563446044921875e+01 -7.132152557373046875e+00 -8.406736949368581735e-14 -3.602887167211341057e-14 -3.602887167211341057e-14 -1.200962445539310169e-14
7.804000000000000000e+03 7.795138549804687500e+01 -6.407179832458496094e+00 3.002405859738391247e-14 1.501202997631831404e-13 5.404330750817011586e-14 6.405133042876320904e-14
7.805000000000000000e+03 7.959025573730468750e+01 -6.383417129516601562e+00 -6.004812227696550847e-15 -9.407538902614712151e-14 -3.002405859738391247e-14 -4.003208151797700565e-15
7.806000000000000000e+03 7.797824859619140625e+01 -7.150707721710205078e+00 7.405934996122451319e-14 -1.401122768425900472e-14 1.801443583605670529e-14 2.001604075898850282e-14
7.807000000000000000e+03 7.877082061767578125e+01 -6.394720554351806641e+00 4.203368474684290867e-14 1.801443583605670529e-14 1.801443583605670529e-14 -8.006416303595401129e-15
7.808000000000000000e+03 8.950648307800292969e+00 -1.127177476882934570e+00 1.721379386688398627e-13 2.802245536851800944e-14 6.004811719476782494e-14 2.401924891078620339e-14
7.809000000000000000e+03 9.654337882995605469e+00 -3.896256983280181885e-01 2.101684169579509653e-13 9.007218256841531545e-14 9.007218256841531545e-14 6.805453688649501509e-14
7.810000000000000000e+03 8.111012458801269531e+00 -3.855062127113342285e-01 2.301844695754007297e-13 1.901523778930283570e-13 1.261010474642651480e-13 -8.006416303595401129e-15
7.811000000000000000e+03 7.337950229644775391e+00 -3.871315717697143555e-01 2.522020949285302960e-13 -2.121700303512122354e-13 1.200962445539310169e-14 -2.401924891078620339e-14
7.812000000000000000e+03 6.565063476562500000e+00 -3.886615037918090820e-01 2.181748434259417335e-13 2.001604075898850282e-15 6.605293026949732305e-14 -2.001604075898850282e-14
7.813000000000000000e+03 5.792575359344482422e+00 -3.895556330680847168e-01 5.804651735403371093e-14 -1.581267126786467525e-13 -3.002405859738391247e-14 9.207378240914942946e-14
7.814000000000000000e+03 5.020018577575683594e+00 -3.902509510517120361e-01 2.401924891078620339e-14 5.604491073703601889e-14 2.401924891078620339e-14 -1.200962445539310169e-14
7.815000000000000000e+03 4.246604442596435547e+00 -3.901863992214202881e-01 -9.207378240914942946e-14 -2.682149478645118323e-13 -1.080866150163402317e-13 8.006416303595401129e-14
7.816000000000000000e+03 3.473218679428100586e+00 -3.899813890457153320e-01 -1.100882216333379238e-13 9.007218256841531545e-14 -6.004812227696550847e-15 -1.401122870069854143e-13
7.817000000000000000e+03 2.700762510299682617e+00 -3.899726569652557373e-01 -6.204972381176551699e-14 -1.180946345488015359e-13 -5.404330750817011586e-14 9.207378240914942946e-14
7.818000000000000000e+03 1.928606271743774414e+00 -3.900973796844482422e-01 -8.206576287668812530e-14 1.020818019416107336e-13 6.004812227696550847e-15 -4.403528797570881170e-14
7.819000000000000000e+03 1.157287955284118652e+00 -3.904983699321746826e-01 -1.801443583605670529e-14 3.803047490097931360e-14 6.004812227696550847e-15 4.803849782157240678e-14
7.820000000000000000e+03 3.859849572181701660e-01 -3.903989493846893311e-01 2.401924891078620339e-14 5.604491073703601889e-14 2.401924891078620339e-14 -2.001604075898850282e-14
7.821000000000000000e+03 3.889317214488983154e-01 -1.130398988723754883e+00 2.401924891078620339e-14 5.604491073703601889e-14 2.401924891078620339e-14 3.202566521438160452e-14
7.822000000000000000e+03 9.728007316589355469e+00 -1.129625678062438965e+00 5.204170427930421283e-14 -9.207378240914942946e-14 -1.200962445539310169e-14 -2.001604075898850282e-14
7.823000000000000000e+03 8.172894477844238281e+00 -1.125506162643432617e+00 1.741395520621011328e-13 1.661331391466375207e-13 1.020818019416107336e-13 5.204170427930421283e-14
7.824000000000000000e+03 7.393939018249511719e+00 -1.127131581306457520e+00 3.002405995263662808e-13 2.201764432666758475e-13 1.561251128379126385e-13 -1.000802021008766196e-13
7.825000000000000000e+03 6.615158557891845703e+00 -1.128661513328552246e+00 1.240994476235310340e-13 -8.406736949368581735e-14 1.200962445539310169e-14 1.040834085586084257e-13
7.826000000000000000e+03 5.836776733398437500e+00 -1.129555583000183105e+00 1.501202997631831404e-13 1.100882216333379238e-13 7.806255641895631925e-14 1.601283260719080226e-14
7.827000000000000000e+03 5.058326244354248047e+00 -1.130250930786132812e+00 1.200962445539310169e-14 -1.321058605389946461e-13 -3.602887167211341057e-14 1.481186999224490264e-13
7.828000000000000000e+03 4.279018878936767578e+00 -1.130186438560485840e+00 -4.603689120457471473e-14 2.602085213965210642e-14 -6.004812227696550847e-15 -4.003208151797700565e-14
7.829000000000000000e+03 3.499739646911621094e+00 -1.129981398582458496e+00 -5.404330750817011586e-14 -2.061652172764827373e-13 -7.806255641895631925e-14 3.602887167211341057e-14
7.830000000000000000e+03 2.721390008926391602e+00 -1.129972696304321289e+00 5.404330750817011586e-14 2.061652172764827373e-13 7.806255641895631925e-14 -4.403528797570881170e-14
7.831000000000000000e+03 1.943340182304382324e+00 -1.130097389221191406e+00 2.802245536851800944e-14 1.200962445539310169e-14 1.200962445539310169e-14 1.601283260719080226e-13
7.832000000000000000e+03 8.882872581481933594e+00 -3.871774673461914062e-01 1.801443651368306309e-13 -6.004811719476782494e-14 3.602887167211341057e-14 4.003208151797700565e-14
7.833000000000000000e+03 1.166128277778625488e+00 -1.130498409271240234e+00 -4.203368474684290867e-14 -1.801443583605670529e-14 -1.801443583605670529e-14 -1.361090737729900302e-13
7.834000000000000000e+03 1.115754413604736328e+01 -1.603091955184936523e-01 1.240994476235310340e-13 -8.406736949368581735e-14 1.200962445539310169e-14 4.003208151797700565e-14
7.835000000000000000e+03 1.126386642456054688e+01 -8.940912485122680664e-01 2.922341730583755126e-13 -1.721379386688398627e-13 3.602887167211341057e-14 1.721379386688398627e-13
7.836000000000000000e+03 1.049932956695556641e+01 -1.051980972290039062e+00 2.682149478645118323e-13 9.207378240914942946e-14 1.080866150163402317e-13 -3.202566521438160452e-14
7.837000000000000000e+03 1.279222297668457031e+01 -5.713624954223632812e-01 1.441154866884536423e-13 -1.441154866884536423e-13 0.000000000000000000e+00 1.040834085586084257e-13
7.838000000000000000e+03 1.264629268646240234e+01 1.541289687156677246e-01 3.482791041242022656e-13 3.322662782932750414e-13 2.041636038832214672e-13 8.807057595141762341e-14
7.839000000000000000e+03 1.190196800231933594e+01 -3.807745641097426414e-03 1.981587908084919691e-13 -9.807859548387892756e-14 3.002405859738391247e-14 1.281026608575264181e-13
7.840000000000000000e+03 1.202809429168701172e+01 -7.334445118904113770e-01 1.441154866884536423e-13 1.601283260719080226e-14 4.803849782157240678e-14 1.921539912862896271e-13
7.841000000000000000e+03 1.041281127929687500e+01 -3.140535950660705566e-01 1.721379386688398627e-13 2.802245536851800944e-14 6.004811719476782494e-14 -3.202566521438160452e-14
7.842000000000000000e+03 6.218961715698242188e+01 -3.544780254364013672e+00 -3.943159817762498243e-13 -3.062454261536229350e-13 -2.101684169579509653e-13 1.601283260719080226e-14
7.843000000000000000e+03 6.142840194702148438e+01 -4.621355533599853516e+00 -1.040834085586084257e-13 -1.361090737729900302e-13 -7.205774334422682115e-14 1.601283260719080226e-14
7.844000000000000000e+03 6.229060745239257812e+01 -4.522155284881591797e+00 -4.803849782157240678e-14 -4.323464600653609269e-13 -1.441154866884536423e-13 1.601283260719080226e-14
7.845000000000000000e+03 6.166500854492187500e+01 -3.954722881317138672e+00 2.001604075898850282e-14 -6.004811719476782494e-14 -1.200962445539310169e-14 -2.081668171172168513e-13
7.846000000000000000e+03 6.101048278808593750e+01 -3.887228012084960938e+00 -8.206576287668812530e-14 -5.804651735403371093e-14 -4.203368474684290867e-14 2.802245536851800944e-14
7.847000000000000000e+03 6.081988525390625000e+01 -4.670522689819335938e+00 -1.000802021008766196e-13 -2.001604075898850282e-14 -3.602887167211341057e-14 -2.001604075898850282e-15
7.848000000000000000e+03 6.230106735229492188e+01 -4.019287109375000000e+00 1.561251128379126385e-13 -1.160930347080674219e-13 1.200962445539310169e-14 -3.202566521438160452e-14
7.849000000000000000e+03 1.338139057159423828e+01 3.142086565494537354e-01 2.682149478645118323e-13 -2.281828697346666157e-13 1.200962445539310169e-14 1.000802021008766196e-13
7.850000000000000000e+03 1.410687160491943359e+01 4.760258793830871582e-01 3.482791041242022656e-13 1.200962445539310169e-14 1.080866150163402317e-13 2.802245536851800944e-14
7.851000000000000000e+03 1.353089809417724609e+01 -4.106113612651824951e-01 2.642117210779892922e-13 -2.401924891078620339e-14 7.205774334422682115e-14 2.401924891078620339e-14
7.852000000000000000e+03 1.483218193054199219e+01 6.374483108520507812e-01 2.802245740139708285e-13 -4.003208151797700565e-14 7.205774334422682115e-14 1.321058605389946461e-13
7.853000000000000000e+03 1.495638942718505859e+01 -9.297639876604080200e-02 2.882309733769072846e-13 3.202566521438160452e-14 9.607699564314481355e-14 -5.604491073703601889e-14
7.854000000000000000e+03 1.566942024230957031e+01 6.387124955654144287e-02 1.961571909677578551e-13 8.406736949368581735e-14 8.406736949368581735e-14 1.601283260719080226e-14
7.855000000000000000e+03 1.555786418914794922e+01 7.970982789993286133e-01 3.983192085627723644e-13 -5.804651735403371093e-14 1.020818019416107336e-13 3.202566521438160452e-14
7.856000000000000000e+03 1.424372863769531250e+01 -2.515964508056640625e-01 3.422742774969456114e-13 -8.206576287668812530e-14 7.806255641895631925e-14 1.441154866884536423e-13
7.857000000000000000e+03 5.375558853149414062e+01 -2.739388346672058105e-01 -1.325061805071414689e-12 -3.162534253572935050e-13 -4.923945908126559079e-13 -2.802245536851800944e-14
7.858000000000000000e+03 5.449021530151367188e+01 -2.173187285661697388e-01 -1.799441997317463571e-12 -1.182947945328749473e-12 -8.947169719518421882e-13 -1.136911094781756226e-12
7.859000000000000000e+03 5.503413009643554688e+01 -1.123937517404556274e-01 -6.212978916064759716e-12 2.369899198759184422e-12 -1.152923893507629138e-12 5.284234421559785844e-13
7.860000000000000000e+03 5.623500823974609375e+01 -1.787128448486328125e-01 -1.561251128379126385e-13 4.363496868518834670e-13 8.406736949368581735e-14 8.006416303595401129e-14
7.861000000000000000e+03 5.380104446411132812e+01 -1.022010684013366699e+00 1.575262381474373807e-12 1.407127669592056485e-12 8.947169719518421882e-13 1.088872590183920241e-12
7.862000000000000000e+03 5.568458557128906250e+01 -1.279204636812210083e-01 -2.746200619338501347e-12 -2.457969808591919936e-12 -1.561251128379126385e-12 7.365902592731954357e-13
7.863000000000000000e+03 5.561457443237304688e+01 -2.342342436313629150e-01 5.940760904044051216e-12 -2.578066015876401273e-12 1.008808379714121184e-12 -4.803849782157240678e-14
7.864000000000000000e+03 5.495091629028320312e+01 -3.635899424552917480e-01 7.975891648526189925e-12 6.620805466373003156e-12 4.379009307942105522e-12 5.978791246807890758e-12
7.865000000000000000e+03 5.210131835937500000e+01 -1.211642384529113770e+00 -2.001604075898850282e-14 3.803047557860567141e-13 1.080866150163402317e-13 1.321058605389946461e-13
7.866000000000000000e+03 5.229686355590820312e+01 -4.171653985977172852e-01 -1.236991303658896424e-12 -6.445165039691003184e-13 -5.644523477094098851e-13 -3.282630515067525012e-13
7.867000000000000000e+03 5.292963409423828125e+01 -2.996635138988494873e-01 -1.170938346284344789e-12 5.504410946141624628e-13 -1.861491782115601290e-13 -2.401924687790712998e-13
7.868000000000000000e+03 5.289202499389648438e+01 -1.062223196029663086e+00 -1.941555911270237411e-13 -9.067266252063554965e-13 -3.302646513474866152e-13 -6.445165039691003184e-13
7.869000000000000000e+03 5.174563217163085938e+01 -4.540196359157562256e-01 -1.000801980351184728e-12 4.403528865333516951e-13 -1.681347389873716347e-13 -2.081668171172168513e-13
7.870000000000000000e+03 5.123892593383789062e+01 -5.528637766838073730e-01 -8.006416168070129569e-13 -4.803849375581425996e-13 -3.843079825725792542e-13 -1.681347389873716347e-13
7.871000000000000000e+03 5.068088912963867188e+01 -7.317399382591247559e-01 -6.725389559494865388e-13 3.522823038056704936e-13 -9.607699564314481355e-14 -2.922341730583755126e-13
7.872000000000000000e+03 5.091490173339843750e+01 -1.439408183097839355e+00 -3.522823038056704936e-13 -4.483592858962881511e-13 -2.401924687790712998e-13 -2.882309733769072846e-13
7.873000000000000000e+03 5.150735855102539062e+01 -1.054463028907775879e+00 -7.048930124493868465e-13 -9.684322842349463167e-14 -2.405208736171171591e-13 -4.078189879980903543e-13
7.874000000000000000e+03 4.851011657714843750e+01 -1.236653327941894531e+00 -5.944763995305302196e-13 -3.462775042834681516e-13 -2.822261738547049426e-13 -1.240994476235310340e-13
7.875000000000000000e+03 4.858726501464843750e+01 -1.977923154830932617e+00 -2.421940957248597259e-13 2.622101212372551782e-13 6.004812227696550847e-15 -1.441154866884536423e-13
7.876000000000000000e+03 4.780811309814453125e+01 -2.150522232055664062e+00 -8.206576287668812530e-14 -2.181748434259417335e-13 -9.007218256841531545e-14 -1.761411519028352468e-13
7.877000000000000000e+03 4.925864410400390625e+01 -1.067628383636474609e+00 -5.904731998490619915e-13 2.502004950877961820e-13 -1.020818019416107336e-13 -2.121700303512122354e-13
7.878000000000000000e+03 5.000643920898437500e+01 -8.943891525268554688e-01 -6.345084505553211240e-13 -2.261812563414053456e-13 -2.582069215557869502e-13 -1.281026608575264181e-13
7.879000000000000000e+03 5.014590454101562500e+01 -1.621544718742370605e+00 -3.322662782932750414e-13 4.523625126828106913e-13 3.602887167211341057e-14 -7.606094980195862720e-14
7.880000000000000000e+03 4.936695098876953125e+01 -1.801841139793395996e+00 -2.562053217150528361e-13 -2.241796429481440756e-13 -1.441154866884536423e-13 -1.641315257533762506e-13
7.881000000000000000e+03 4.776212310791015625e+01 -1.402195334434509277e+00 -5.024025900163264780e-13 2.421940957248597259e-13 -7.806255641895631925e-14 -1.521218996039172544e-13
7.882000000000000000e+03 4.469203567504882812e+01 -1.104038357734680176e+00 2.461972954063279539e-13 3.342678781340091554e-13 1.741395520621011328e-13 -4.803849782157240678e-14
7.883000000000000000e+03 4.700760269165039062e+01 -2.182412624359130859e+00 -3.602887167211341057e-14 3.963175816169839383e-13 1.080866150163402317e-13 -3.082470259943570490e-13
7.884000000000000000e+03 4.453843307495117188e+01 -1.829608321189880371e+00 6.204972381176551699e-14 -4.203368474684290867e-14 6.004812227696550847e-15 -2.121700303512122354e-13
7.885000000000000000e+03 4.618450164794921875e+01 -2.070826292037963867e+00 -8.206576287668812530e-14 -2.181748434259417335e-13 -9.007218256841531545e-14 -1.841475648182988589e-13
7.886000000000000000e+03 4.700347900390625000e+01 -1.434312224388122559e+00 -3.362694779747432694e-13 -1.441154866884536423e-13 -1.441154866884536423e-13 -1.281026608575264181e-13
7.887000000000000000e+03 4.546185302734375000e+01 -1.219994664192199707e+00 -2.802245536851800944e-14 -1.200962445539310169e-14 -1.200962445539310169e-14 -1.441154866884536423e-13
7.888000000000000000e+03 4.536082458496093750e+01 -1.953074812889099121e+00 -3.002405859738391247e-14 1.701363388281057487e-13 4.203368474684290867e-14 -2.241796429481440756e-13
7.889000000000000000e+03 4.623295593261718750e+01 -1.330235958099365234e+00 -2.602085213965210642e-14 1.261010474642651480e-13 3.002405859738391247e-14 -1.200962445539310169e-14
7.890000000000000000e+03 4.250700378417968750e+01 -3.963981866836547852e-01 2.161732300326804634e-13 2.401924891078620339e-14 7.205774334422682115e-14 -2.802245740139708285e-13
7.891000000000000000e+03 4.151531600952148438e+01 -8.242236971855163574e-01 2.431948956452267829e-13 2.872301734565402276e-13 1.591275125990138095e-13 1.521218996039172544e-13
7.892000000000000000e+03 4.375409698486328125e+01 -1.632939934730529785e+00 2.101684169579509653e-13 4.103288347122313606e-13 1.861491782115601290e-13 -7.205774334422682115e-14
7.893000000000000000e+03 4.300669479370117188e+01 -1.363770723342895508e+00 2.662133209187234062e-13 -2.061652172764827373e-13 1.801443583605670529e-14 -1.200962343895356499e-13
7.894000000000000000e+03 4.394734954833984375e+01 -9.159503579139709473e-01 2.181748434259417335e-13 -3.182550251980276190e-13 -3.002405859738391247e-14 -1.441154866884536423e-13
7.895000000000000000e+03 4.178872680664062500e+01 -1.361862868070602417e-01 7.205774605473225236e-13 2.401924687790712998e-13 2.882309733769072846e-13 5.204170427930421283e-14
7.896000000000000000e+03 4.322666549682617188e+01 -6.564318537712097168e-01 2.481988952470620680e-13 1.521218996039172544e-13 1.200962343895356499e-13 2.802245536851800944e-14
7.897000000000000000e+03 4.226031494140625000e+01 -1.094086289405822754e+00 3.472783042038352086e-13 7.435958858208191469e-13 3.272622515863854442e-13 -7.205774334422682115e-14
7.898000000000000000e+03 4.027894592285156250e+01 -2.541387975215911865e-01 2.902325732176413986e-13 -1.501202997631831404e-13 4.203368474684290867e-14 4.803849782157240678e-14
7.899000000000000000e+03 4.047003936767578125e+01 4.750773012638092041e-01 1.881507780522942430e-13 -1.481186999224490264e-13 1.200962445539310169e-14 -3.602887167211341057e-14
7.900000000000000000e+03 3.969956207275390625e+01 2.476016059517860413e-02 2.782229470681824024e-13 -1.801443583605670529e-14 7.806255641895631925e-14 4.803849782157240678e-14
7.901000000000000000e+03 4.085557556152343750e+01 -5.415500402450561523e-01 3.983192085627723644e-13 -5.804651735403371093e-14 1.020818019416107336e-13 7.205774334422682115e-14
7.902000000000000000e+03 4.111045455932617188e+01 1.569967120885848999e-01 3.042437992078345088e-13 1.761411519028352468e-13 1.441154866884536423e-13 -5.604491073703601889e-14
7.903000000000000000e+03 3.982687759399414062e+01 7.846456766128540039e-01 1.541235129971785245e-13 6.605293026949732305e-14 6.605293026949732305e-14 0.000000000000000000e+00
7.904000000000000000e+03 3.911914825439453125e+01 2.937080264091491699e-01 2.041636038832214672e-13 -4.003208151797700565e-15 6.004811719476782494e-14 -8.406736949368581735e-14
7.905000000000000000e+03 3.918268203735351562e+01 1.084262847900390625e+00 7.405934996122451319e-14 -1.401122768425900472e-14 1.801443583605670529e-14 6.405133042876320904e-14
7.906000000000000000e+03 3.381026458740234375e+01 -7.248246073722839355e-01 3.562855034871387216e-13 8.406736949368581735e-14 1.321058605389946461e-13 4.003208151797700565e-14
7.907000000000000000e+03 3.458703231811523438e+01 -4.199312925338745117e-01 2.321860694161348437e-13 8.006416303595401129e-15 7.205774334422682115e-14 1.200962343895356499e-13
7.908000000000000000e+03 3.405215835571289062e+01 -1.424708485603332520e+00 2.461972954063279539e-13 1.401122768425900472e-14 7.806255641895631925e-14 2.001604042017532392e-13
7.909000000000000000e+03 3.536509704589843750e+01 -1.194015666842460632e-01 3.242598518252842732e-13 1.160930347080674219e-13 1.321058605389946461e-13 1.080866150163402317e-13
7.910000000000000000e+03 3.614285659790039062e+01 1.828823834657669067e-01 2.291836696550336727e-13 -3.903127820947815962e-14 5.704571743366665393e-14 1.841475648182988589e-13
7.911000000000000000e+03 3.691955184936523438e+01 4.870322942733764648e-01 3.712975565027532010e-13 1.591275125990138095e-13 1.591275125990138095e-13 6.805453688649501509e-14
7.912000000000000000e+03 3.769688415527343750e+01 7.879440784454345703e-01 2.061652172764827373e-13 -1.861491782115601290e-13 6.004812227696550847e-15 7.606094980195862720e-14
7.913000000000000000e+03 3.846224212646484375e+01 2.872591614723205566e-01 1.401122870069854143e-13 -1.000802021008766196e-13 1.200962445539310169e-14 -1.200962445539310169e-14
7.914000000000000000e+03 3.847284317016601562e+01 1.084994435310363770e+00 1.641315257533762506e-13 1.160930347080674219e-13 8.406736949368581735e-14 -6.004811719476782494e-14
7.915000000000000000e+03 3.478684234619140625e+01 -1.136123776435852051e+00 2.852285736158061136e-13 -1.501202929869195624e-14 8.106496295632106830e-14 5.604491073703601889e-14
7.916000000000000000e+03 3.552282333374023438e+01 -8.519025444984436035e-01 1.681347389873716347e-13 7.205774334422682115e-14 7.205774334422682115e-14 1.361090737729900302e-13
7.917000000000000000e+03 3.625850296020507812e+01 -5.659272074699401855e-01 2.401924687790712998e-13 2.401924687790712998e-13 1.441154866884536423e-13 9.207378240914942946e-14
7.918000000000000000e+03 3.699311447143554688e+01 -2.780858278274536133e-01 1.761411519028352468e-13 -1.601283260719080226e-14 4.803849782157240678e-14 1.200962343895356499e-13
7.919000000000000000e+03 3.772836685180664062e+01 6.517409812659025192e-03 3.402726776562114974e-13 1.000802021008766196e-13 1.321058605389946461e-13 -6.805453688649501509e-14
7.920000000000000000e+03 3.171501731872558594e+01 -2.317536830902099609e+00 7.856295908964527897e-13 -7.506014988159157020e-14 2.131708302715792924e-13 -2.321860694161348437e-13
7.921000000000000000e+03 3.159167480468750000e+01 -1.573781251907348633e+00 5.664539475501439991e-13 -3.062454261536229350e-13 7.806255641895631925e-14 2.041636038832214672e-13
7.922000000000000000e+03 3.092625236511230469e+01 -2.603541374206542969e+00 8.066464163292152989e-13 2.542037218743187221e-13 3.182550251980276190e-13 -1.881507780522942430e-13
7.923000000000000000e+03 3.329127502441406250e+01 -1.721204519271850586e+00 4.723785381952061435e-13 8.807057595141762341e-14 1.681347389873716347e-13 -1.401122870069854143e-13
7.924000000000000000e+03 3.305626296997070312e+01 -1.019069790840148926e+00 2.582069215557869502e-13 -1.180946345488015359e-13 4.203368474684290867e-14 1.681347389873716347e-13
7.925000000000000000e+03 3.232479095458984375e+01 -1.299670934677124023e+00 4.503609128420765773e-13 3.302646513474866152e-13 2.341876692568689577e-13 1.441154866884536423e-13
7.926000000000000000e+03 3.250396728515625000e+01 -2.022616147994995117e+00 3.402726776562114974e-13 -6.004811719476782494e-14 8.406736949368581735e-14 2.642117210779892922e-13
7.927000000000000000e+03 3.085874366760253906e+01 -1.838975429534912109e+00 1.044837285267552485e-12 6.765421556309547668e-13 5.164138431115739003e-13 -1.601283260719080226e-13
7.928000000000000000e+03 1.987107276916503906e+01 4.345702007412910461e-02 4.003208151797700565e-15 9.167346786201346909e-13 2.762213472274482884e-13 -2.201764432666758475e-13
7.929000000000000000e+03 2.072495651245117188e+01 6.014696359634399414e-01 -6.505213034913026604e-13 -1.331066658803725655e-12 -5.944763995305302196e-13 -8.326672684688674053e-13
7.930000000000000000e+03 2.293786239624023438e+01 -3.050775229930877686e-01 3.512815038853034366e-12 2.702165477052459464e-13 1.134909440730913488e-12 1.136911094781756226e-12
7.931000000000000000e+03 2.312017631530761719e+01 1.445127129554748535e-01 8.286640687873991773e-13 1.721379386688398627e-13 3.002405995263662808e-13 5.684555473908781131e-13
7.932000000000000000e+03 2.395331382751464844e+01 3.362258896231651306e-02 8.973191113759160231e-12 9.407538902614712151e-14 2.720179767198849241e-12 -2.081668171172168513e-13
7.933000000000000000e+03 2.684564208984375000e+01 -9.302700757980346680e-01 2.385911997485057334e-12 -6.245004513516505540e-13 5.284234421559785844e-13 -1.721379440898507251e-12
7.934000000000000000e+03 2.751040458679199219e+01 -1.280374765396118164e+00 2.159730727591124833e-12 1.142915840093849944e-12 9.907940353576227821e-13 -8.206576287668812530e-14
7.935000000000000000e+03 2.803494644165039062e+01 -1.810520648956298828e+00 5.104090435893715583e-13 -9.707779285300643934e-13 -1.381106736137241442e-13 -9.157338515947133217e-13
7.936000000000000000e+03 2.932235717773437500e+01 -2.434976577758789062e+00 9.287442776645393749e-13 -2.882309733769072846e-13 1.921539912862896271e-13 -4.003208084035064784e-13
7.937000000000000000e+03 1.912479972839355469e+01 2.294156253337860107e-01 6.905534087262021892e-13 -7.005614350349270714e-14 1.861491782115601290e-13 -4.803849782157240678e-14
7.938000000000000000e+03 2.147913932800292969e+01 4.466063976287841797e-01 -2.137713183553158203e-12 1.417135614585618431e-12 -2.161732300326804634e-13 1.281026608575264181e-13
7.939000000000000000e+03 2.857819366455078125e+01 -2.246380090713500977e+00 9.807859548387892756e-14 1.002803634402027466e-12 3.302646513474866152e-13 2.962373998448980528e-13
7.940000000000000000e+03 2.932799530029296875e+01 -1.671779394149780273e+00 1.559249474328283647e-12 4.623705389915355735e-13 6.064859985749349036e-13 -4.243400607024244708e-13
7.941000000000000000e+03 3.012563133239746094e+01 -2.641122102737426758e+00 5.904731998490619915e-13 7.105694071335433293e-13 3.903127820947815962e-13 -3.923143819355157103e-13
7.942000000000000000e+03 3.010111618041992188e+01 -1.870075702667236328e+00 1.613292832658430598e-12 -1.321058605389946461e-13 4.443560862148199231e-13 -3.803047557860567141e-13
7.943000000000000000e+03 2.615677833557128906e+01 -6.120481491088867188e-01 5.500532754970643978e-12 2.174367456919679142e-12 2.302470063567096936e-12 -1.909029791885563654e-12
7.944000000000000000e+03 2.543780899047851562e+01 -3.434176146984100342e-01 1.193556451589694589e-11 1.741395520621011328e-13 3.632911246137515704e-12 -4.963978013361458608e-12
7.945000000000000000e+03 2.470047950744628906e+01 -1.143367812037467957e-01 2.457969765223833036e-11 2.481989006680729304e-12 8.118505867571457202e-12 -6.164940519887140979e-12
7.946000000000000000e+03 2.226067733764648438e+01 2.969752848148345947e-01 -1.767416291445500498e-12 -8.947169719518421882e-13 -7.986400169662788429e-13 1.080866190820983785e-12
7.947000000000000000e+03 2.209705162048339844e+01 -1.917648315429687500e-01 4.843881806076977270e-12 -1.401122815859745518e-12 1.032827686223147801e-12 -9.767827822623753597e-13
7.948000000000000000e+03 2.060986137390136719e+01 -1.332322061061859131e-01 9.507619301227232533e-13 -1.971580017301466370e-12 -3.062454261536229350e-13 -1.401122870069854143e-13
7.949000000000000000e+03 1.996829414367675781e+01 7.828119397163391113e-01 1.441154866884536423e-13 6.565261030135050024e-13 2.401924687790712998e-13 3.682951296365977178e-13
7.950000000000000000e+03 1.920414733886718750e+01 9.734236001968383789e-01 -6.204972381176551699e-14 -1.180946345488015359e-13 -5.404330750817011586e-14 -1.681347389873716347e-13
7.951000000000000000e+03 2.861398124694824219e+01 -1.491032123565673828e+00 2.097680969898041425e-12 3.042437992078345088e-13 7.205774605473225236e-13 -9.047250253656213825e-13
7.952000000000000000e+03 2.133948898315429688e+01 -1.719620227813720703e-01 4.735795089416683368e-12 2.990396342009149500e-12 2.317857494479880209e-12 1.072859791458047329e-12
7.953000000000000000e+03 1.704789733886718750e+01 2.184620499610900879e-01 4.463576860555540371e-13 5.404330750817011586e-14 1.501202997631831404e-13 1.481186999224490264e-13
7.954000000000000000e+03 1.772966766357421875e+01 2.638264298439025879e-01 3.162534253572935050e-13 4.403528797570881170e-14 1.080866150163402317e-13 -8.006416303595401129e-14
7.955000000000000000e+03 1.636662292480468750e+01 1.679807603359222412e-01 5.124106434301056723e-13 -1.921539912862896271e-13 9.607699564314481355e-14 0.000000000000000000e+00
7.956000000000000000e+03 1.841096687316894531e+01 3.041588366031646729e-01 4.143320343936995886e-13 8.606896933441993136e-14 1.501202997631831404e-13 -1.441154866884536423e-13
7.957000000000000000e+03 1.773421287536621094e+01 1.005771040916442871e+00 3.662935297958636038e-13 -2.602085213965210642e-14 1.020818019416107336e-13 -8.006416303595401129e-14
7.958000000000000000e+03 1.700853157043457031e+01 9.574801325798034668e-01 3.042437992078345088e-13 -1.441154866884536423e-13 4.803849782157240678e-14 7.205774334422682115e-14
7.959000000000000000e+03 1.845942306518554688e+01 1.049030065536499023e+00 2.522020949285302960e-13 1.080866150163402317e-13 1.080866150163402317e-13 -8.006416303595401129e-15
7.960000000000000000e+03 1.628334617614746094e+01 9.040722846984863281e-01 2.602085213965210642e-13 1.801443651368306309e-13 1.321058605389946461e-13 5.204170427930421283e-14
7.961000000000000000e+03 6.297758865356445312e+01 -3.427310466766357422e+00 5.604491073703601889e-14 2.401924891078620339e-14 2.401924891078620339e-14 8.006416303595401129e-15
7.962000000000000000e+03 6.430092620849609375e+01 -4.072709083557128906e+00 6.004811719476782494e-14 -1.000802021008766196e-13 -1.200962445539310169e-14 6.805453688649501509e-14
7.963000000000000000e+03 6.615777587890625000e+01 -2.918966054916381836e+00 -6.405133042876320904e-14 6.405133042876320904e-14 0.000000000000000000e+00 1.120898214740720378e-13
7.964000000000000000e+03 6.357865905761718750e+01 -4.003059387207031250e+00 -1.381106736137241442e-13 -4.823865916089853378e-13 -1.861491782115601290e-13 9.807859548387892756e-14
7.965000000000000000e+03 6.542019653320312500e+01 -3.088247299194335938e+00 -1.631307258330091936e-13 -2.071660171968497943e-13 -1.110890215537049808e-13 0.000000000000000000e+00
7.966000000000000000e+03 6.457591247558593750e+01 -3.285033226013183594e+00 -2.201764398785440585e-14 8.206576287668812530e-14 1.801443583605670529e-14 -6.405133042876320904e-14
7.967000000000000000e+03 6.687069702148437500e+01 -2.854792594909667969e+00 -6.004812227696550847e-15 -9.407538902614712151e-14 -3.002405859738391247e-14 5.204170427930421283e-14
7.968000000000000000e+03 6.516509246826171875e+01 -4.016923427581787109e+00 -2.401924891078620339e-14 -1.361090737729900302e-13 -4.803849782157240678e-14 6.004812227696550847e-15
7.969000000000000000e+03 6.375104141235351562e+01 -3.356088638305664062e+00 6.204972381176551699e-14 -2.021620040424873532e-13 -4.203368474684290867e-14 6.405133042876320904e-14
7.970000000000000000e+03 6.298404693603515625e+01 -3.924177885055541992e+00 -2.642117210779892922e-13 2.401924891078620339e-14 -7.205774334422682115e-14 8.006416303595401129e-14
7.971000000000000000e+03 6.308998107910156250e+01 -4.404487609863281250e+00 8.807057595141762341e-14 -8.006416303595401129e-15 2.401924891078620339e-14 8.807057595141762341e-14
7.972000000000000000e+03 6.598447418212890625e+01 -3.973387718200683594e+00 1.801443583605670529e-14 2.822261738547049426e-13 9.007218256841531545e-14 1.160930347080674219e-13
7.973000000000000000e+03 6.643041992187500000e+01 -3.377655744552612305e+00 6.204972381176551699e-14 4.383512866926175811e-13 1.501202997631831404e-13 4.403528797570881170e-14
7.974000000000000000e+03 6.573755645751953125e+01 -3.370942831039428711e+00 1.561251128379126385e-13 -1.160930347080674219e-13 1.200962445539310169e-14 1.521218996039172544e-13
7.975000000000000000e+03 7.564211273193359375e+01 -6.818775653839111328e+00 -1.481186999224490264e-13 -1.321058605389946461e-13 -8.406736949368581735e-14 -9.007217918028352643e-15
7.976000000000000000e+03 7.528914642333984375e+01 -7.400294780731201172e+00 -3.202566521438160452e-14 1.921539912862896271e-13 4.803849782157240678e-14 -1.040834085586084257e-13
7.977000000000000000e+03 7.630777740478515625e+01 -6.486037254333496094e+00 -1.020818019416107336e-13 2.001604075898850282e-15 -3.002405859738391247e-14 1.000802021008766196e-13
7.978000000000000000e+03 7.510444641113281250e+01 -6.611313819885253906e+00 -5.204170427930421283e-14 -6.805453688649501509e-14 -3.602887167211341057e-14 -5.604491073703601889e-14
7.979000000000000000e+03 7.489698791503906250e+01 -7.377375602722167969e+00 -3.002405859738391247e-14 -7.005614350349270714e-14 -3.002405859738391247e-14 1.020818019416107336e-13
7.980000000000000000e+03 7.643633270263671875e+01 -7.216569900512695312e+00 -9.207378240914942946e-14 5.204170427930421283e-14 -1.200962445539310169e-14 4.003208151797700565e-14
7.981000000000000000e+03 7.582361602783203125e+01 -7.345827579498291016e+00 -2.401924891078620339e-14 -5.604491073703601889e-14 -2.401924891078620339e-14 1.441154866884536423e-13
