# el_label, x, y, sXX, sYY, sZZ, sXY
1.000000000000000000e+00 6.226197433471679688e+01 -3.295087814331054688e+00 -3.139695405960083008e+00 -3.191615104675292969e+00 -1.899393081665039062e+00 -2.477260351181030273e+00
2.000000000000000000e+00 6.207052612304687500e+01 -3.349540472030639648e+00 -8.472545742988586426e-01 1.144064426422119141e+00 8.904293924570083618e-02 4.458167552947998047e-01
3.000000000000000000e+00 6.187907409667968750e+01 -3.403993129730224609e+00 -1.685225367546081543e+00 -4.059709310531616211e-01 -6.273589134216308594e-01 -3.261481523513793945e-01
4.000000000000000000e+00 6.168762588500976562e+01 -3.458445549011230469e+00 -1.704517722129821777e+00 1.466549783945083618e-01 -4.673588275909423828e-01 -3.197808563709259033e-01
5.000000000000000000e+00 6.228334045410156250e+01 -3.349377393722534180e+00 8.296363830566406250e+00 -9.330403804779052734e-01 2.208997011184692383e+00 3.845596313476562500e+00
6.000000000000000000e+00 6.210613632202148438e+01 -3.440022945404052734e+00 2.328173875808715820e+00 7.937205433845520020e-01 9.365683197975158691e-01 1.610350370407104492e+00
7.000000000000000000e+00 6.192893218994140625e+01 -3.530668497085571289e+00 2.024215221405029297e+00 1.644991278648376465e+00 1.100761890411376953e+00 2.026637554168701172e+00
8.000000000000000000e+00 6.175172805786132812e+01 -3.621314048767089844e+00 1.380256772041320801e+00 6.292642951011657715e-01 6.028562784194946289e-01 1.003096699714660645e+00
9.000000000000000000e+00 6.231486129760742188e+01 -3.398474693298339844e+00 1.042432498931884766e+01 5.434315681457519531e+00 4.757592201232910156e+00 9.728516578674316406e+00
1.000000000000000000e+01 6.215866851806640625e+01 -3.521852016448974609e+00 6.146584987640380859e+00 3.575484037399291992e+00 2.916620731353759766e+00 5.462131023406982422e+00
1.100000000000000000e+01 6.200247573852539062e+01 -3.645229101181030273e+00 3.805775403976440430e+00 3.160239696502685547e+00 2.089804410934448242e+00 3.906805276870727539e+00
1.200000000000000000e+01 6.184628295898437500e+01 -3.768606185913085938e+00 3.219835758209228516e+00 3.435756921768188477e+00 1.996677756309509277e+00 3.281313419342041016e+00
1.300000000000000000e+01 6.235532760620117188e+01 -3.440505266189575195e+00 1.030123233795166016e+01 1.355522537231445312e+01 7.156937122344970703e+00 1.320766448974609375e+01
1.400000000000000000e+01 6.222610855102539062e+01 -3.591902732849121094e+00 6.164098262786865234e+00 8.312139511108398438e+00 4.342871665954589844e+00 8.571136474609375000e+00
1.500000000000000000e+01 6.209689331054687500e+01 -3.743300199508666992e+00 4.920796871185302734e+00 7.059709548950195312e+00 3.594151973724365234e+00 6.298444271087646484e+00
1.600000000000000000e+01 6.196767807006835938e+01 -3.894697666168212891e+00 3.473735809326171875e+00 5.878874301910400391e+00 2.805783033370971680e+00 5.150406360626220703e+00
1.700000000000000000e+01 6.240319061279296875e+01 -3.473863840103149414e+00 7.533987522125244141e+00 2.152946281433105469e+01 8.719035148620605469e+00 1.442632293701171875e+01
1.800000000000000000e+01 6.230588531494140625e+01 -3.647500514984130859e+00 5.531313419342041016e+00 1.470088195800781250e+01 6.069658756256103516e+00 9.967866897583007812e+00
1.900000000000000000e+01 6.220858001708984375e+01 -3.821136951446533203e+00 3.789790391921997070e+00 1.146661281585693359e+01 4.576920986175537109e+00 7.788598060607910156e+00
2.000000000000000000e+01 6.211127471923828125e+01 -3.994773626327514648e+00 3.220610618591308594e+00 1.017629814147949219e+01 4.019072532653808594e+00 6.300950050354003906e+00
2.100000000000000000e+01 6.245663070678710938e+01 -3.497276782989501953e+00 5.467851161956787109e+00 2.959071350097656250e+01 1.051756954193115234e+01 1.291556167602539062e+01
2.200000000000000000e+01 6.239495086669921875e+01 -3.686522006988525391e+00 3.355502843856811523e+00 2.041405105590820312e+01 7.130866050720214844e+00 9.816774368286132812e+00
2.300000000000000000e+01 6.233327102661132812e+01 -3.875766992568969727e+00 2.818579435348510742e+00 1.694507026672363281e+01 5.929094791412353516e+00 7.758743286132812500e+00
2.400000000000000000e+01 6.227159118652343750e+01 -4.065012454986572266e+00 1.668065667152404785e+00 1.438660335540771484e+01 4.816400527954101562e+00 6.532743453979492188e+00
2.500000000000000000e+01 6.251360321044921875e+01 -3.509849786758422852e+00 3.077924251556396484e+00 3.541331863403320312e+01 1.154737281799316406e+01 9.759843826293945312e+00
2.600000000000000000e+01 6.248990249633789062e+01 -3.707477092742919922e+00 2.468764781951904297e+00 2.605857658386230469e+01 8.558201789855957031e+00 7.794340133666992188e+00
2.700000000000000000e+01 6.246620559692382812e+01 -3.905104160308837891e+00 1.006678223609924316e+00 2.124578666687011719e+01 6.675739765167236328e+00 6.632528305053710938e+00
2.800000000000000000e+01 6.244250869750976562e+01 -4.102731704711914062e+00 9.472493529319763184e-01 1.906275558471679688e+01 6.003001689910888672e+00 5.515737056732177734e+00
2.900000000000000000e+01 6.257193374633789062e+01 -3.511103153228759766e+00 3.426107406616210938e+00 3.970367431640625000e+01 1.293893432617187500e+01 5.131753444671630859e+00
3.000000000000000000e+01 6.258712005615234375e+01 -3.709565877914428711e+00 1.289862751960754395e+00 2.971703529357910156e+01 9.302069664001464844e+00 5.014572143554687500e+00
3.100000000000000000e+01 6.260231018066406250e+01 -3.908028602600097656e+00 8.701792359352111816e-01 2.525194549560546875e+01 7.836637496948242188e+00 4.129497528076171875e+00
3.200000000000000000e+01 6.261749649047851562e+01 -4.106491088867187500e+00 -8.944383263587951660e-02 2.182508277893066406e+01 6.520691394805908203e+00 3.725477695465087891e+00
3.300000000000000000e+01 6.262939453125000000e+01 -3.500988483428955078e+00 4.353882312774658203e+00 4.125550842285156250e+01 1.368281650543212891e+01 5.290172696113586426e-01
3.400000000000000000e+01 6.268288803100585938e+01 -3.692708253860473633e+00 2.458667755126953125e+00 3.210214233398437500e+01 1.036824321746826172e+01 1.445864081382751465e+00
3.500000000000000000e+01 6.273638153076171875e+01 -3.884428024291992188e+00 6.926758289337158203e-01 2.733949089050292969e+01 8.409649848937988281e+00 1.586606860160827637e+00
3.600000000000000000e+01 6.278987503051757812e+01 -4.076147556304931641e+00 3.235966265201568604e-01 2.456554222106933594e+01 7.466741561889648438e+00 8.020510673522949219e-01
3.700000000000000000e+01 6.268378829956054688e+01 -3.479892492294311523e+00 7.676402091979980469e+00 4.091359329223632812e+01 1.457699871063232422e+01 -3.559324026107788086e+00
3.800000000000000000e+01 6.277354431152343750e+01 -3.657548189163208008e+00 3.978109836578369141e+00 3.270692062377929688e+01 1.100550842285156250e+01 -1.703366041183471680e+00
3.900000000000000000e+01 6.286330413818359375e+01 -3.835203886032104492e+00 2.566319465637207031e+00 2.797562217712402344e+01 9.162582397460937500e+00 -1.353870511054992676e+00
4.000000000000000000e+01 6.295306396484375000e+01 -4.012859821319580078e+00 7.756461501121520996e-01 2.578582000732421875e+01 7.968440055847167969e+00 -8.336055278778076172e-01
4.100000000000000000e+01 6.273304367065429688e+01 -3.448620557785034180e+00 1.153603839874267578e+01 3.926158905029296875e+01 1.523928833007812500e+01 -6.193879604339599609e+00
4.200000000000000000e+01 6.285563659667968750e+01 -3.605428218841552734e+00 7.013404846191406250e+00 3.164715194702148438e+01 1.159816741943359375e+01 -4.341047286987304688e+00
4.300000000000000000e+01 6.297823333740234375e+01 -3.762236118316650391e+00 4.698997497558593750e+00 2.776712799072265625e+01 9.739837646484375000e+00 -3.408306360244750977e+00
4.400000000000000000e+01 6.310082626342773438e+01 -3.919044017791748047e+00 3.527244806289672852e+00 2.442751312255859375e+01 8.386426925659179688e+00 -2.643275499343872070e+00
4.500000000000000000e+01 6.277527618408203125e+01 -3.408366918563842773e+00 1.585843467712402344e+01 3.639846420288085938e+01 1.567706966400146484e+01 -7.411213874816894531e+00
4.600000000000000000e+01 6.292602539062500000e+01 -3.538338899612426758e+00 1.032684707641601562e+01 3.023835372924804688e+01 1.216956043243408203e+01 -5.689567565917968750e+00
4.700000000000000000e+01 6.307677459716796875e+01 -3.668310642242431641e+00 7.763124465942382812e+00 2.580001449584960938e+01 1.006894207000732422e+01 -4.683578014373779297e+00
4.800000000000000000e+01 6.322752380371093750e+01 -3.798282623291015625e+00 6.193918228149414062e+00 2.364315032958984375e+01 8.951120376586914062e+00 -4.065593242645263672e+00
4.900000000000000000e+01 6.280887222290039062e+01 -3.360668420791625977e+00 1.985464477539062500e+01 3.415976333618164062e+01 1.620432281494140625e+01 -7.064613819122314453e+00
5.000000000000000000e+01 6.298202133178710938e+01 -3.458841562271118164e+00 1.365697479248046875e+01 2.772814559936523438e+01 1.241553592681884766e+01 -5.750196933746337891e+00
5.100000000000000000e+01 6.315516662597656250e+01 -3.557014465332031250e+00 1.066686534881591797e+01 2.436179924011230469e+01 1.050859928131103516e+01 -5.013608932495117188e+00
5.200000000000000000e+01 6.332831573486328125e+01 -3.655187606811523438e+00 8.814060211181640625e+00 2.155839920043945312e+01 9.111738204956054688e+00 -4.141891002655029297e+00
5.300000000000000000e+01 6.283255004882812500e+01 -3.307346820831298828e+00 2.267275047302246094e+01 3.168128395080566406e+01 1.630620956420898438e+01 -5.619696617126464844e+00
5.400000000000000000e+01 6.302148437500000000e+01 -3.369971990585327148e+00 1.671701240539550781e+01 2.614846038818359375e+01 1.285964202880859375e+01 -4.662863254547119141e+00
5.500000000000000000e+01 6.321042251586914062e+01 -3.432597398757934570e+00 1.283394050598144531e+01 2.241894721984863281e+01 1.057586574554443359e+01 -4.012605667114257812e+00
5.600000000000000000e+01 6.339935684204101562e+01 -3.495222568511962891e+00 1.092325305938720703e+01 2.010363388061523438e+01 9.308066368103027344e+00 -3.638605117797851562e+00
5.700000000000000000e+01 6.284540939331054688e+01 -3.250437974929809570e+00 2.462429046630859375e+01 3.097642517089843750e+01 1.668021392822265625e+01 -3.379560708999633789e+00
5.800000000000000000e+01 6.304291534423828125e+01 -3.275124311447143555e+00 1.842644309997558594e+01 2.435891151428222656e+01 1.283560657501220703e+01 -2.841483831405639648e+00
5.900000000000000000e+01 6.324042129516601562e+01 -3.299810409545898438e+00 1.480126762390136719e+01 2.166507720947265625e+01 1.093990325927734375e+01 -2.097015857696533203e+00
6.000000000000000000e+01 6.343792724609375000e+01 -3.324496269226074219e+00 1.154776954650878906e+01 1.882372474670410156e+01 9.111448287963867188e+00 -1.981016039848327637e+00
6.100000000000000000e+01 6.284695434570312500e+01 -3.192115306854248047e+00 2.505234336853027344e+01 3.050799179077148438e+01 1.666810035705566406e+01 -7.943700551986694336e-01
6.200000000000000000e+01 6.304549026489257812e+01 -3.177919626235961914e+00 1.902025222778320312e+01 2.431236076354980469e+01 1.299978351593017578e+01 -6.637229919433593750e-01
6.300000000000000000e+01 6.324402618408203125e+01 -3.163723945617675781e+00 1.539786338806152344e+01 2.076408386230468750e+01 1.084858417510986328e+01 -4.026840627193450928e-02
6.400000000000000000e+01 6.344256210327148438e+01 -3.149528264999389648e+00 1.299192142486572266e+01 1.907438468933105469e+01 9.619892120361328125e+00 3.165873289108276367e-01
6.500000000000000000e+01 6.283712768554687500e+01 -3.134605646133422852e+00 2.418663787841796875e+01 3.089815711975097656e+01 1.652543830871582031e+01 1.394628524780273438e+00
6.600000000000000000e+01 6.302911376953125000e+01 -3.082070350646972656e+00 1.827242851257324219e+01 2.533563423156738281e+01 1.308241939544677734e+01 1.512389063835144043e+00
6.700000000000000000e+01 6.322109603881835938e+01 -3.029534816741943359e+00 1.491526699066162109e+01 2.082855987548828125e+01 1.072314834594726562e+01 1.614278316497802734e+00
6.800000000000000000e+01 6.341308212280273438e+01 -2.976999282836914062e+00 1.287629890441894531e+01 1.943278312683105469e+01 9.692725181579589844e+00 1.938165783882141113e+00
6.900000000000000000e+01 6.281630325317382812e+01 -3.080105304718017578e+00 2.246247673034667969e+01 3.308686065673828125e+01 1.666480064392089844e+01 2.812072753906250000e+00
7.000000000000000000e+01 6.299440765380859375e+01 -2.991236209869384766e+00 1.634513854980468750e+01 2.605828857421875000e+01 1.272102832794189453e+01 3.285762786865234375e+00
7.100000000000000000e+01 6.317250823974609375e+01 -2.902367115020751953e+00 1.331523895263671875e+01 2.308915328979492188e+01 1.092131710052490234e+01 2.447018384933471680e+00
7.200000000000000000e+01 6.335061264038085938e+01 -2.813498020172119141e+00 1.070966529846191406e+01 1.903294563293457031e+01 8.922783851623535156e+00 2.994671106338500977e+00
7.300000000000000000e+01 6.278527832031250000e+01 -3.030695199966430664e+00 1.913861846923828125e+01 3.515105438232421875e+01 1.628690147399902344e+01 3.826060771942138672e+00
7.400000000000000000e+01 6.294269561767578125e+01 -2.908885955810546875e+00 1.411730957031250000e+01 2.804294013977050781e+01 1.264807510375976562e+01 3.224376678466796875e+00
7.500000000000000000e+01 6.310011672973632812e+01 -2.787076711654663086e+00 1.059715938568115234e+01 2.449250984191894531e+01 1.052690029144287109e+01 3.399628162384033203e+00
7.600000000000000000e+01 6.325753402709960938e+01 -2.665267705917358398e+00 9.189924240112304688e+00 2.146537590026855469e+01 9.196589469909667969e+00 2.718953371047973633e+00
7.700000000000000000e+01 6.274523544311523438e+01 -2.988262176513671875e+00 1.595804023742675781e+01 3.687936401367187500e+01 1.585122108459472656e+01 3.366153240203857422e+00
7.800000000000000000e+01 6.287596130371093750e+01 -2.838164329528808594e+00 1.097688484191894531e+01 3.049785041809082031e+01 1.244242095947265625e+01 2.267629861831665039e+00
7.900000000000000000e+01 6.300668334960937500e+01 -2.688066482543945312e+00 8.504990577697753906e+00 2.509930610656738281e+01 1.008128929138183594e+01 2.659877061843872070e+00
8.000000000000000000e+01 6.313740921020507812e+01 -2.537968635559082031e+00 7.191780090332031250e+00 2.371241378784179688e+01 9.271258354187011719e+00 2.388498783111572266e+00
8.100000000000000000e+01 6.269770812988281250e+01 -2.954426527023315430e+00 1.290273189544677734e+01 3.938348388671875000e+01 1.568586444854736328e+01 1.087652564048767090e+00
8.200000000000000000e+01 6.279674530029296875e+01 -2.781771659851074219e+00 8.012258529663085938e+00 3.118481254577636719e+01 1.175912094116210938e+01 7.351722121238708496e-01
8.300000000000000000e+01 6.289578247070312500e+01 -2.609116792678833008e+00 6.785552978515625000e+00 2.671163749694824219e+01 1.004915714263916016e+01 1.242835000157356262e-01
8.400000000000000000e+01 6.299481964111328125e+01 -2.436461925506591797e+00 4.757549762725830078e+00 2.248435974121093750e+01 8.172573089599609375e+00 9.508630633354187012e-01
8.500000000000000000e+01 6.264450454711914062e+01 -2.930480480194091797e+00 9.669614791870117188e+00 4.005642700195312500e+01 1.491781330108642578e+01 -1.944381952285766602e+00
8.600000000000000000e+01 6.270807266235351562e+01 -2.741861581802368164e+00 6.630961894989013672e+00 3.144255447387695312e+01 1.142205524444580078e+01 -2.430963277816772461e+00
8.700000000000000000e+01 6.277164077758789062e+01 -2.553242683410644531e+00 4.688342571258544922e+00 2.658888053894042969e+01 9.383167266845703125e+00 -2.192392587661743164e+00
8.800000000000000000e+01 6.283521270751953125e+01 -2.364623785018920898e+00 3.770664453506469727e+00 2.297508239746093750e+01 8.023724555969238281e+00 -2.270171165466308594e+00
8.900000000000000000e+01 6.258765792846679688e+01 -2.917338371276855469e+00 8.057938575744628906e+00 3.936426925659179688e+01 1.422666263580322266e+01 -6.042267322540283203e+00
9.000000000000000000e+01 6.261333465576171875e+01 -2.719958066940307617e+00 5.912201404571533203e+00 3.009175300598144531e+01 1.080118656158447266e+01 -5.744563102722167969e+00
9.100000000000000000e+01 6.263900756835937500e+01 -2.522577524185180664e+00 3.951203584671020508e+00 2.519018936157226562e+01 8.742418289184570312e+00 -5.060538768768310547e+00
9.200000000000000000e+01 6.266468048095703125e+01 -2.325197219848632812e+00 3.555322408676147461e+00 2.275694656372070312e+01 7.893680572509765625e+00 -4.363992691040039062e+00
9.300000000000000000e+01 6.252934646606445312e+01 -2.915501832962036133e+00 8.296907424926757812e+00 3.670440673828125000e+01 1.350039386749267578e+01 -1.033418750762939453e+01
9.400000000000000000e+01 6.251614379882812500e+01 -2.716897249221801758e+00 5.984691143035888672e+00 2.714615058898925781e+01 9.939252853393554688e+00 -8.916275978088378906e+00
9.500000000000000000e+01 6.250294113159179688e+01 -2.518292427062988281e+00 4.798218250274658203e+00 2.273654747009277344e+01 8.260429382324218750e+00 -7.456838607788085938e+00
9.600000000000000000e+01 6.248973846435546875e+01 -2.319687843322753906e+00 3.727480173110961914e+00 1.936168289184570312e+01 6.926748752593994141e+00 -6.622433185577392578e+00
9.700000000000000000e+01 6.247178649902343750e+01 -2.925041198730468750e+00 9.718265533447265625e+00 3.182592201232910156e+01 1.246325588226318359e+01 -1.411153602600097656e+01
9.800000000000000000e+01 6.242021179199218750e+01 -2.732796192169189453e+00 7.458911895751953125e+00 2.296550178527832031e+01 9.127324104309082031e+00 -1.111459541320800781e+01
9.900000000000000000e+01 6.236863708496093750e+01 -2.540551185607910156e+00 6.094019412994384766e+00 1.864488410949707031e+01 7.421671390533447266e+00 -9.302089691162109375e+00
1.000000000000000000e+02 6.231706237792968750e+01 -2.348306179046630859e+00 4.708662033081054688e+00 1.621980476379394531e+01 6.278540134429931641e+00 -8.336667060852050781e+00
1.010000000000000000e+02 6.241718292236328125e+01 -2.945592403411865234e+00 1.220626354217529297e+01 2.531797027587890625e+01 1.125727081298828125e+01 -1.632430458068847656e+01
1.020000000000000000e+02 6.232920837402343750e+01 -2.767047882080078125e+00 9.589469909667968750e+00 1.768812561035156250e+01 8.183279037475585938e+00 -1.201946830749511719e+01
1.030000000000000000e+02 6.224123001098632812e+01 -2.588503599166870117e+00 7.500388145446777344e+00 1.408350181579589844e+01 6.475166797637939453e+00 -1.015927791595458984e+01
1.040000000000000000e+02 6.215325164794921875e+01 -2.409959077835083008e+00 6.403140544891357422e+00 1.243236923217773438e+01 5.650652885437011719e+00 -8.399034500122070312e+00
1.050000000000000000e+02 6.236762237548828125e+01 -2.976370096206665039e+00 1.548438072204589844e+01 1.813030052185058594e+01 1.008440494537353516e+01 -1.630022048950195312e+01
1.060000000000000000e+02 6.224660110473632812e+01 -2.818344354629516602e+00 1.117193126678466797e+01 1.183538627624511719e+01 6.902194976806640625e+00 -1.163637065887451172e+01
1.070000000000000000e+02 6.212557601928710938e+01 -2.660318613052368164e+00 9.047944068908691406e+00 9.723688125610351562e+00 5.631489753723144531e+00 -9.221693992614746094e+00
1.080000000000000000e+02 6.200455856323242188e+01 -2.502292633056640625e+00 7.595520496368408203e+00 7.877689838409423828e+00 4.641963005065917969e+00 -7.972340583801269531e+00
1.090000000000000000e+02 6.232498550415039062e+01 -3.016199588775634766e+00 1.741365623474121094e+01 1.047156715393066406e+01 8.365567207336425781e+00 -1.427473735809326172e+01
1.100000000000000000e+02 6.217554473876953125e+01 -2.884726762771606445e+00 1.235752487182617188e+01 6.932158470153808594e+00 5.786904811859130859e+00 -9.444586753845214844e+00
1.110000000000000000e+02 6.202610015869140625e+01 -2.753253698348999023e+00 9.474248886108398438e+00 5.157570362091064453e+00 4.389545917510986328e+00 -7.377051353454589844e+00
1.120000000000000000e+02 6.187665939331054688e+01 -2.621781110763549805e+00 7.901012897491455078e+00 4.828530788421630859e+00 3.818863153457641602e+00 -6.274034976959228516e+00
1.130000000000000000e+02 6.229091262817382812e+01 -3.063559770584106445e+00 1.796614646911621094e+01 4.568162441253662109e+00 6.760292530059814453e+00 -1.008907222747802734e+01
1.140000000000000000e+02 6.211875534057617188e+01 -2.963660001754760742e+00 1.139612865447998047e+01 2.424155473709106445e+00 4.146085262298583984e+00 -6.305292606353759766e+00
1.150000000000000000e+02 6.194659805297851562e+01 -2.863760471343994141e+00 8.929504394531250000e+00 2.475075006484985352e+00 3.421373844146728516e+00 -4.737341403961181641e+00
1.160000000000000000e+02 6.177444076538085938e+01 -2.763861179351806641e+00 6.943338871002197266e+00 1.834672689437866211e+00 2.633403539657592773e+00 -3.916835784912109375e+00
1.170000000000000000e+02 6.226670074462890625e+01 -3.116641759872436523e+00 1.487714958190917969e+01 -1.449060142040252686e-01 4.419672966003417969e+00 -4.994119167327880859e+00
1.180000000000000000e+02 6.207840347290039062e+01 -3.052130460739135742e+00 8.860859870910644531e+00 2.530401647090911865e-01 2.734170198440551758e+00 -2.697001218795776367e+00
1.190000000000000000e+02 6.189010620117187500e+01 -2.987619161605834961e+00 6.107365608215332031e+00 6.070303916931152344e-01 2.014318704605102539e+00 -2.142232656478881836e+00
1.200000000000000000e+02 6.170180511474609375e+01 -2.923107624053955078e+00 5.463252544403076172e+00 8.148709535598754883e-01 1.883437037467956543e+00 -2.136255502700805664e+00
1.210000000000000000e+02 6.225327682495117188e+01 -3.173419237136840820e+00 8.485768318176269531e+00 -2.222209930419921875e+00 1.879067659378051758e+00 5.110596418380737305e-01
1.220000000000000000e+02 6.205602645874023438e+01 -3.146759271621704102e+00 2.843518018722534180e+00 -6.912732124328613281e-02 8.323172330856323242e-01 -2.687884867191314697e-01
1.230000000000000000e+02 6.185877609252929688e+01 -3.120099544525146484e+00 3.337521076202392578e+00 3.007474243640899658e-01 1.091480493545532227e+00 -1.050661206245422363e+00
1.240000000000000000e+02 6.166152954101562500e+01 -3.093439579010009766e+00 2.335628747940063477e+00 -8.780588954687118530e-02 6.743468046188354492e-01 -4.028809964656829834e-01
1.250000000000000000e+02 6.225114822387695312e+01 -3.231723546981811523e+00 -5.917748928070068359e+00 -1.619699835777282715e+00 -2.261234521865844727e+00 2.012694358825683594e+00
1.260000000000000000e+02 6.205248260498046875e+01 -3.243933439254760742e+00 -3.963086903095245361e-01 7.335167527198791504e-01 1.011624187231063843e-01 -7.574103474617004395e-01
1.270000000000000000e+02 6.185381317138671875e+01 -3.256143093109130859e+00 -1.307937264442443848e+00 -4.384645819664001465e-01 -5.239205360412597656e-01 -1.695061847567558289e-02
1.280000000000000000e+02 6.165514373779296875e+01 -3.268352746963500977e+00 -1.191143393516540527e+00 2.186505347490310669e-01 -2.917478680610656738e-01 -2.711024880409240723e-01
1.290000000000000000e+02 6.155221939086914062e+01 -3.714715242385864258e+00 1.072475194931030273e+00 7.646920680999755859e-01 5.511502027511596680e-01 6.816884279251098633e-01
1.300000000000000000e+02 6.075820922851562500e+01 -4.011713981628417969e+00 2.222939133644104004e-01 -9.084446430206298828e-01 -2.058452218770980835e-01 -9.091820567846298218e-02
1.310000000000000000e+02 6.305381393432617188e+01 -4.260614395141601562e+00 2.455834150314331055e-01 2.344665718078613281e+01 7.107672214508056641e+00 -1.039392828941345215e+00
1.320000000000000000e+02 6.332992935180664062e+01 -3.960080385208129883e+00 4.069474220275878906e+00 2.179410171508789062e+01 7.759072780609130859e+00 -2.995022058486938477e+00
1.330000000000000000e+02 6.371468734741210938e+01 -3.151646375656127930e+00 1.007578563690185547e+01 1.586498165130615234e+01 7.782230377197265625e+00 4.159449040889739990e-01
1.340000000000000000e+02 6.349576568603515625e+01 -2.510497570037841797e+00 7.585682392120361328e+00 1.756957054138183594e+01 7.546575546264648438e+00 2.577736854553222656e+00
1.350000000000000000e+02 6.312698745727539062e+01 -2.264425039291381836e+00 4.016119480133056641e+00 2.238817024230957031e+01 7.921286582946777344e+00 1.560324549674987793e+00
1.360000000000000000e+02 6.206879043579101562e+01 -2.198600769042968750e+00 5.393394470214843750e+00 1.029046630859375000e+01 4.705158233642578125e+00 -7.596493721008300781e+00
1.370000000000000000e+02 6.276547622680664062e+01 -2.065357446670532227e+00 2.426391363143920898e+00 1.850094223022460938e+01 6.278200149536132812e+00 -3.366016149520874023e+00
1.380000000000000000e+02 6.212451934814453125e+01 -4.674126148223876953e+00 3.879121840000152588e-01 1.196557712554931641e+01 3.706046581268310547e+00 4.377797603607177734e+00
1.390000000000000000e+02 6.281214523315429688e+01 -4.350615024566650391e+00 1.117376014590263367e-01 2.119830131530761719e+01 6.393012046813964844e+00 1.252506136894226074e+00
1.400000000000000000e+02 6.251393508911132812e+01 -4.602880477905273438e+00 -5.175203680992126465e-01 1.729007720947265625e+01 5.031766891479492188e+00 3.413936138153076172e+00
1.410000000000000000e+02 6.102732467651367188e+01 -2.071225643157958984e+00 3.997556924819946289e+00 2.473038673400878906e+00 1.941178679466247559e+00 -3.672562360763549805e+00
1.420000000000000000e+02 6.000726699829101562e+01 -2.191017389297485352e+00 5.746482610702514648e-01 1.298147201538085938e+00 5.618386268615722656e-01 -1.439217329025268555e+00
1.430000000000000000e+02 6.024080657958984375e+01 -2.404731988906860352e+00 7.086520195007324219e-01 4.945075511932373047e-01 3.609478771686553955e-01 -1.028333306312561035e+00
1.440000000000000000e+02 6.068999862670898438e+01 -3.418583154678344727e+00 -1.500480324029922485e-01 -6.166663765907287598e-02 -6.351440399885177612e-02 9.642318636178970337e-02
1.450000000000000000e+02 6.087987899780273438e+01 -3.380238771438598633e+00 -4.711912572383880615e-01 4.787489771842956543e-02 -1.269949078559875488e-01 1.234745606780052185e-01
1.460000000000000000e+02 6.105766296386718750e+01 -2.299722194671630859e+00 3.902104616165161133e+00 1.672300338745117188e+00 1.672321438789367676e+00 -2.938652753829956055e+00
1.470000000000000000e+02 6.145886230468750000e+01 -3.282263755798339844e+00 -1.169177889823913574e+00 -5.800381302833557129e-02 -3.681545257568359375e-01 -4.532830789685249329e-02
1.480000000000000000e+02 6.368683242797851562e+01 -2.912646055221557617e+00 9.381461143493652344e+00 1.642463874816894531e+01 7.741829872131347656e+00 2.118547201156616211e+00
1.490000000000000000e+02 6.149337768554687500e+01 -3.512246847152709961e+00 -1.508257508277893066e+00 -9.631630778312683105e-02 -4.813721477985382080e-01 -4.543268680572509766e-01
1.500000000000000000e+02 6.129487609863281250e+01 -3.556482315063476562e+00 -1.210541486740112305e+00 -1.041607931256294250e-01 -3.944106996059417725e-01 -4.294300675392150879e-01
1.510000000000000000e+02 6.164434432983398438e+01 -3.902886390686035156e+00 2.281553506851196289e+00 2.171498775482177734e+00 1.335915565490722656e+00 2.110607624053955078e+00
1.520000000000000000e+02 6.196357727050781250e+01 -4.190567016601562500e+00 2.004559993743896484e+00 8.317232131958007812e+00 3.096537590026855469e+00 4.953172206878662109e+00
1.530000000000000000e+02 6.312204360961914062e+01 -4.418021202087402344e+00 -1.111502498388290405e-01 2.147166633605957031e+01 6.408154487609863281e+00 -6.406687498092651367e-01
1.540000000000000000e+02 6.354771041870117188e+01 -3.549813032150268555e+00 9.924777984619140625e+00 1.892047309875488281e+01 8.653574943542480469e+00 -3.394313335418701172e+00
1.550000000000000000e+02 6.072397994995117188e+01 -3.639690876007080078e+00 -7.369196414947509766e-02 -1.346604228019714355e-01 -6.250571459531784058e-02 -9.985029697418212891e-02
1.560000000000000000e+02 6.125444793701171875e+01 -4.705135345458984375e+00 5.856989622116088867e-01 3.726360321044921875e+00 1.293617844581604004e+00 2.197429656982421875e+00
1.570000000000000000e+02 6.072154617309570312e+01 -4.956347942352294922e+00 -3.588241040706634521e-01 6.752941608428955078e-01 9.494101256132125854e-02 1.989060491323471069e-01
1.580000000000000000e+02 6.092589950561523438e+01 -4.928125381469726562e+00 -1.541601121425628662e-01 2.307610988616943359e+00 6.460352540016174316e-01 1.122182965278625488e+00
1.590000000000000000e+02 6.060121917724609375e+01 -2.167184352874755859e+00 2.836614608764648438e+00 1.211043953895568848e+00 1.214297533035278320e+00 -2.286137342453002930e+00
1.600000000000000000e+02 6.035927963256835938e+01 -2.551493644714355469e+00 8.875430822372436523e-01 1.183320507407188416e-01 3.017625510692596436e-01 -6.439373493194580078e-01
1.610000000000000000e+02 6.010223770141601562e+01 -2.299720525741577148e+00 1.386317968368530273e+00 1.158365964889526367e+00 7.634052038192749023e-01 -9.273515939712524414e-01
1.620000000000000000e+02 6.110034942626953125e+01 -3.796884775161743164e+00 1.346226185560226440e-01 4.129189252853393555e-02 5.277435109019279480e-02 -3.594876229763031006e-01
1.630000000000000000e+02 6.091287994384765625e+01 -3.606890678405761719e+00 -3.789980113506317139e-01 -1.524632871150970459e-01 -1.594383865594863892e-01 -3.103747665882110596e-01
1.640000000000000000e+02 6.092987823486328125e+01 -4.754305362701416016e+00 1.448288559913635254e-02 1.569233179092407227e+00 4.751148223876953125e-01 9.589977264404296875e-01
1.650000000000000000e+02 6.096303558349609375e+01 -4.571552276611328125e+00 4.586575031280517578e-01 1.343202710151672363e+00 5.405580401420593262e-01 1.017715811729431152e+00
1.660000000000000000e+02 6.077084350585937500e+01 -4.196868419647216797e+00 -4.999691992998123169e-02 -9.477857947349548340e-01 -2.993348240852355957e-01 -1.049981452524662018e-02
1.670000000000000000e+02 6.123786163330078125e+01 -3.079832315444946289e+00 1.091820716857910156e+00 1.916651129722595215e-01 3.850457668304443359e-01 -7.263121753931045532e-02
1.680000000000000000e+02 6.149700546264648438e+01 -2.832368612289428711e+00 4.466966152191162109e+00 5.789309144020080566e-01 1.513769149780273438e+00 -1.700149774551391602e+00
1.690000000000000000e+02 6.083700942993164062e+01 -3.188023567199707031e+00 -1.027429550886154175e-01 1.400421112775802612e-01 1.118974946439266205e-02 3.070781230926513672e-01
1.700000000000000000e+02 6.107158279418945312e+01 -3.342740297317504883e+00 -7.784644365310668945e-01 6.763859838247299194e-02 -2.132477611303329468e-01 3.444490581750869751e-02
1.710000000000000000e+02 6.145371627807617188e+01 -3.063524484634399414e+00 1.889903306961059570e+00 3.250080347061157227e-01 6.644734144210815430e-01 -4.871328175067901611e-01
1.720000000000000000e+02 6.110131835937500000e+01 -3.582495450973510742e+00 -8.417574167251586914e-01 -8.031542599201202393e-02 -2.766218483448028564e-01 -4.090303182601928711e-01
1.730000000000000000e+02 6.360929107666015625e+01 -3.377030134201049805e+00 9.966459274291992188e+00 1.777178955078125000e+01 8.321475028991699219e+00 -1.615965008735656738e+00
1.740000000000000000e+02 6.375994110107421875e+01 -2.645596265792846680e+00 8.819563865661621094e+00 1.610839462280273438e+01 7.478387832641601562e+00 3.050951480865478516e+00
1.750000000000000000e+02 6.249161911010742188e+01 -2.104935646057128906e+00 2.577978610992431641e+00 1.820543670654296875e+01 6.235024452209472656e+00 -6.251236438751220703e+00
1.760000000000000000e+02 6.201454925537109375e+01 -1.930942773818969727e+00 4.058592319488525391e+00 1.045517063140869141e+01 4.354128837585449219e+00 -6.713862895965576172e+00
1.770000000000000000e+02 6.369360351562500000e+01 -3.945364713668823242e+00 4.424135208129882812e+00 1.906949043273925781e+01 7.048087596893310547e+00 -3.222872734069824219e+00
1.780000000000000000e+02 6.367380905151367188e+01 -3.551438093185424805e+00 9.160700798034667969e+00 1.838876342773437500e+01 8.264839172363281250e+00 -2.433165788650512695e+00
1.790000000000000000e+02 6.300799942016601562e+01 -4.158321857452392578e+00 6.226944923400878906e-01 2.420179557800292969e+01 7.447346687316894531e+00 -1.054236531257629395e+00
1.800000000000000000e+02 6.259158325195312500e+01 -1.880103945732116699e+00 1.922296285629272461e+00 1.719957923889160156e+01 5.736562728881835938e+00 -4.317959785461425781e+00
1.810000000000000000e+02 6.335234069824218750e+01 -2.357213735580444336e+00 5.009325027465820312e+00 1.911578559875488281e+01 7.237533092498779297e+00 1.867318749427795410e+00
1.820000000000000000e+02 6.329804992675781250e+01 -2.104838848114013672e+00 3.829811573028564453e+00 1.905814552307128906e+01 6.866387367248535156e+00 1.664476394653320312e+00
1.830000000000000000e+02 6.298059082031250000e+01 -2.114242076873779297e+00 3.408499717712402344e+00 1.921309471130371094e+01 6.786478519439697266e+00 -6.044431328773498535e-01
1.840000000000000000e+02 6.189286041259765625e+01 -2.323187589645385742e+00 6.256319999694824219e+00 7.745345592498779297e+00 4.200499534606933594e+00 -7.156553745269775391e+00
1.850000000000000000e+02 6.386892700195312500e+01 -3.438553810119628906e+00 8.678959846496582031e+00 1.547243118286132812e+01 7.245417118072509766e+00 -6.243745684623718262e-01
1.860000000000000000e+02 6.136283111572265625e+01 -4.038531780242919922e+00 1.512491464614868164e+00 1.586896419525146484e+00 9.298163652420043945e-01 1.022562861442565918e+00
1.870000000000000000e+02 6.180718231201171875e+01 -1.954991102218627930e+00 4.641507625579833984e+00 7.662196636199951172e+00 3.691111326217651367e+00 -6.611682415008544922e+00
1.880000000000000000e+02 6.160842895507812500e+01 -1.963732719421386719e+00 4.650816917419433594e+00 5.972275257110595703e+00 3.186927556991577148e+00 -5.758752822875976562e+00
1.890000000000000000e+02 6.164658355712890625e+01 -2.333907365798950195e+00 6.167072296142578125e+00 4.714097499847412109e+00 3.264350891113281250e+00 -5.572905063629150391e+00
1.900000000000000000e+02 6.247621917724609375e+01 -4.332398891448974609e+00 -3.264665603637695312e-01 1.780385017395019531e+01 5.243215084075927734e+00 4.975331306457519531e+00
1.910000000000000000e+02 6.354701614379882812e+01 -2.726109266281127930e+00 1.068843269348144531e+01 1.802994155883789062e+01 8.615511894226074219e+00 3.645829916000366211e+00
1.920000000000000000e+02 6.222483062744140625e+01 -1.879401326179504395e+00 3.573893070220947266e+00 1.179564571380615234e+01 4.610861778259277344e+00 -6.126237392425537109e+00
1.930000000000000000e+02 6.282909774780273438e+01 -4.225315093994140625e+00 -2.312471717596054077e-01 2.361428070068359375e+01 7.014910221099853516e+00 9.209588766098022461e-01
1.940000000000000000e+02 6.044268417358398438e+01 -2.727434873580932617e+00 5.911114811897277832e-01 -2.480223476886749268e-01 1.029267385601997375e-01 -2.498868703842163086e-01
1.950000000000000000e+02 6.082287597656250000e+01 -2.114879131317138672e+00 3.370783090591430664e+00 1.553942680358886719e+00 1.477417707443237305e+00 -2.874456405639648438e+00
1.960000000000000000e+02 6.231009292602539062e+01 -4.656273841857910156e+00 -9.512050449848175049e-02 1.485460472106933594e+01 4.427845478057861328e+00 4.103888511657714844e+00
1.970000000000000000e+02 6.169742202758789062e+01 -4.742605686187744141e+00 5.871033668518066406e-01 7.559418201446533203e+00 2.443956613540649414e+00 3.356073379516601562e+00
1.980000000000000000e+02 6.191957855224609375e+01 -4.687082767486572266e+00 5.962795615196228027e-01 9.221438407897949219e+00 2.945315361022949219e+00 4.067458152770996094e+00
1.990000000000000000e+02 6.141618347167968750e+01 -1.994779229164123535e+00 4.534313678741455078e+00 4.556417942047119141e+00 2.727219581604003906e+00 -5.058386802673339844e+00
2.000000000000000000e+02 6.072569656372070312e+01 -4.771540641784667969e+00 1.831822693347930908e-01 1.528871804475784302e-01 1.008208319544792175e-01 4.279928207397460938e-01
2.010000000000000000e+02 6.110622406005859375e+01 -4.748973369598388672e+00 3.931469917297363281e-01 2.711548566818237305e+00 9.314087033271789551e-01 1.507593989372253418e+00
2.020000000000000000e+02 6.227150726318359375e+01 -2.129651308059692383e+00 3.915681838989257812e+00 1.485326290130615234e+01 5.630683422088623047e+00 -6.499650478363037109e+00
2.030000000000000000e+02 6.225330352783203125e+01 -4.439519405364990234e+00 6.411029696464538574e-01 1.382414817810058594e+01 4.339575290679931641e+00 4.651890277862548828e+00
2.040000000000000000e+02 6.064531707763671875e+01 -3.240451335906982422e+00 -1.420028805732727051e-01 -2.619447708129882812e-01 -1.211842894554138184e-01 2.678699493408203125e-01
2.050000000000000000e+02 6.061007690429687500e+01 -2.421161651611328125e+00 1.879574537277221680e+00 6.515464186668395996e-01 7.593362927436828613e-01 -1.604737401008605957e+00
2.060000000000000000e+02 6.058742141723632812e+01 -3.067207813262939453e+00 -1.307811681181192398e-02 -4.858326315879821777e-01 -1.496732234954833984e-01 2.762537002563476562e-01
2.070000000000000000e+02 6.109236145019531250e+01 -2.517400979995727539e+00 3.510288000106811523e+00 1.277248382568359375e+00 1.436260819435119629e+00 -2.234688997268676758e+00
2.080000000000000000e+02 6.074036788940429688e+01 -3.827277183532714844e+00 -7.302599400281906128e-02 -5.753590464591979980e-01 -1.945155262947082520e-01 -2.682552635669708252e-01
2.090000000000000000e+02 6.105242919921875000e+01 -4.137671470642089844e+00 6.769940257072448730e-01 6.208411455154418945e-01 3.893505632877349854e-01 2.780115604400634766e-01
2.100000000000000000e+02 6.150267791748046875e+01 -4.258078098297119141e+00 1.657778501510620117e+00 3.454005002975463867e+00 1.533535003662109375e+00 2.344263076782226562e+00
2.110000000000000000e+02 6.174633026123046875e+01 -2.480713367462158203e+00 6.854844093322753906e+00 4.088499069213867188e+00 3.283002853393554688e+00 -5.692197799682617188e+00
2.120000000000000000e+02 6.189451217651367188e+01 -4.415069103240966797e+00 1.749840855598449707e+00 8.424175262451171875e+00 3.052204847335815430e+00 4.163705825805664062e+00
2.130000000000000000e+02 6.111800384521484375e+01 -4.900606155395507812e+00 3.343072235584259033e-01 3.391532182693481445e+00 1.117751836776733398e+00 2.116262197494506836e+00
2.140000000000000000e+02 6.097917938232421875e+01 -2.946465969085693359e+00 1.186316609382629395e+00 3.717069923877716064e-01 4.674070775508880615e-01 -1.662317216396331787e-01
2.150000000000000000e+02 6.160654830932617188e+01 -2.634988546371459961e+00 6.088436603546142578e+00 2.434239864349365234e+00 2.556802988052368164e+00 -3.855926513671875000e+00
2.160000000000000000e+02 6.148715591430664062e+01 -2.438424110412597656e+00 5.660193443298339844e+00 2.637102603912353516e+00 2.489188909530639648e+00 -4.220502853393554688e+00
2.170000000000000000e+02 6.088439941406250000e+01 -2.560594558715820312e+00 2.403207540512084961e+00 9.138875007629394531e-01 9.951285123825073242e-01 -1.640154719352722168e+00
2.180000000000000000e+02 6.178089141845703125e+01 -4.074621677398681641e+00 2.787422180175781250e+00 5.290951728820800781e+00 2.423512220382690430e+00 3.796817064285278320e+00
2.190000000000000000e+02 6.076156234741210938e+01 -4.389003753662109375e+00 1.824625879526138306e-01 -8.085463047027587891e-01 -1.878251135349273682e-01 1.168848052620887756e-01
2.200000000000000000e+02 6.122394943237304688e+01 -2.031971693038940430e+00 4.270213603973388672e+00 3.229625701904296875e+00 2.249951839447021484e+00 -4.272732734680175781e+00
2.210000000000000000e+02 6.126869201660156250e+01 -4.435587406158447266e+00 1.081241250038146973e+00 2.872290611267089844e+00 1.186059594154357910e+00 1.636541366577148438e+00
2.220000000000000000e+02 6.114664077758789062e+01 -4.604460239410400391e+00 3.003738522529602051e-01 2.359059333801269531e+00 7.978299856185913086e-01 1.495713472366333008e+00
2.230000000000000000e+02 6.019317626953125000e+01 -2.167567491531372070e+00 1.507753014564514160e+00 1.096508502960205078e+00 7.812784314155578613e-01 -1.541497468948364258e+00
2.240000000000000000e+02 6.038583374023437500e+01 -2.184117317199707031e+00 2.322801828384399414e+00 6.880247592926025391e-01 9.032480120658874512e-01 -1.809093475341796875e+00
2.250000000000000000e+02 6.074037933349609375e+01 -4.582239627838134766e+00 2.450413815677165985e-02 -4.678345024585723877e-01 -1.329991072416305542e-01 2.508712112903594971e-01
2.260000000000000000e+02 6.130480194091796875e+01 -4.860218048095703125e+00 7.393868565559387207e-01 4.006172180175781250e+00 1.423667669296264648e+00 2.238922357559204102e+00
2.270000000000000000e+02 6.149397659301757812e+01 -4.803397178649902344e+00 7.257245182991027832e-01 5.678433418273925781e+00 1.921247482299804688e+00 2.930651903152465820e+00
2.280000000000000000e+02 6.092626953125000000e+01 -3.789736986160278320e+00 -1.523188799619674683e-01 -2.394281476736068726e-01 -1.175241097807884216e-01 -5.470336079597473145e-01
2.290000000000000000e+02 6.163781356811523438e+01 -4.482432842254638672e+00 1.494277358055114746e+00 5.902919769287109375e+00 2.219159126281738281e+00 3.376117944717407227e+00
2.300000000000000000e+02 6.141527175903320312e+01 -4.601677894592285156e+00 1.021735310554504395e+00 4.146351814270019531e+00 1.550426125526428223e+00 2.405045986175537109e+00
2.310000000000000000e+02 6.131336975097656250e+01 -3.793857812881469727e+00 6.245693564414978027e-01 3.224681019783020020e-01 2.841112315654754639e-01 3.906029090285301208e-02
2.320000000000000000e+02 6.213054656982421875e+01 -4.283297061920166016e+00 1.339882850646972656e+00 1.250924777984619141e+01 4.154739379882812500e+00 5.595807552337646484e+00
2.330000000000000000e+02 6.274297714233398438e+01 -4.565714359283447266e+00 -7.198516726493835449e-01 1.818039894104003906e+01 5.238163948059082031e+00 2.461495399475097656e+00
2.340000000000000000e+02 6.344692611694335938e+01 -4.115688323974609375e+00 2.991050958633422852e+00 2.040699005126953125e+01 7.019412517547607422e+00 -2.840860843658447266e+00
2.350000000000000000e+02 6.078406906127929688e+01 -3.002250671386718750e+00 4.993661642074584961e-01 1.712412983179092407e-01 2.011822313070297241e-01 4.803373664617538452e-02
2.360000000000000000e+02 6.126493835449218750e+01 -3.307089567184448242e+00 -9.802793264389038086e-01 3.823144361376762390e-02 -2.826143801212310791e-01 -5.616183578968048096e-02
2.370000000000000000e+02 6.072632598876953125e+01 -2.817082166671752930e+00 1.026244759559631348e+00 2.214935123920440674e-01 3.743214607238769531e-01 -4.522373676300048828e-01
2.380000000000000000e+02 6.051911544799804688e+01 -2.897113561630249023e+00 2.259964942932128906e-01 -4.928245842456817627e-01 -8.004842698574066162e-02 7.913152128458023071e-02
2.390000000000000000e+02 6.066778945922851562e+01 -2.626453876495361328e+00 1.672783374786376953e+00 3.347081542015075684e-01 6.022474765777587891e-01 -9.783758521080017090e-01
2.400000000000000000e+02 6.129773712158203125e+01 -2.496364355087280273e+00 4.605893611907958984e+00 1.698051214218139648e+00 1.891183495521545410e+00 -2.895246267318725586e+00
2.410000000000000000e+02 6.129530334472656250e+01 -2.736083984375000000e+00 3.790748596191406250e+00 1.116441845893859863e+00 1.472157120704650879e+00 -1.849975347518920898e+00
2.420000000000000000e+02 6.176486206054687500e+01 -2.186905145645141602e+00 5.649597167968750000e+00 6.669583320617675781e+00 3.695754289627075195e+00 -6.390357494354248047e+00
2.430000000000000000e+02 6.346957397460937500e+01 -3.748158454895019531e+00 7.762419700622558594e+00 1.997680473327636719e+01 8.321766853332519531e+00 -3.729626655578613281e+00
2.440000000000000000e+02 6.358993530273437500e+01 -3.816023826599121094e+00 6.884734153747558594e+00 1.961798858642578125e+01 7.950817108154296875e+00 -3.625756025314331055e+00
2.450000000000000000e+02 6.160640335083007812e+01 -2.168576478958129883e+00 5.207775115966796875e+00 5.092999458312988281e+00 3.090232372283935547e+00 -5.726092338562011719e+00
2.460000000000000000e+02 6.143629455566406250e+01 -2.211954355239868164e+00 5.006864547729492188e+00 3.761873722076416016e+00 2.630621433258056641e+00 -4.709511756896972656e+00
2.470000000000000000e+02 6.125382614135742188e+01 -2.257558584213256836e+00 4.713202953338623047e+00 2.665409088134765625e+00 2.213583707809448242e+00 -3.973271608352661133e+00
2.480000000000000000e+02 6.084600830078125000e+01 -2.350713014602661133e+00 3.143918991088867188e+00 1.275681018829345703e+00 1.325879931449890137e+00 -2.355294227600097656e+00
2.490000000000000000e+02 6.317091751098632812e+01 -4.090782642364501953e+00 1.567372083663940430e+00 2.328278350830078125e+01 7.455046653747558594e+00 -1.689942002296447754e+00
2.500000000000000000e+02 6.266073226928710938e+01 -4.284920692443847656e+00 2.642157971858978271e-01 1.990229606628417969e+01 6.049953460693359375e+00 2.811797857284545898e+00
2.510000000000000000e+02 6.098040008544921875e+01 -3.948789119720458984e+00 5.311372876167297363e-01 1.505346782505512238e-02 1.638572365045547485e-01 -3.326632082462310791e-01
2.520000000000000000e+02 6.117154693603515625e+01 -2.885364770889282227e+00 2.563181877136230469e+00 3.709501326084136963e-01 8.802396059036254883e-01 -6.253243088722229004e-01
2.530000000000000000e+02 6.103234100341796875e+01 -3.137930154800415039e+00 3.156658709049224854e-01 2.687527537345886230e-01 1.753255873918533325e-01 1.351773887872695923e-01
2.540000000000000000e+02 6.103178405761718750e+01 -4.366881847381591797e+00 4.933373630046844482e-01 1.008306980133056641e+00 4.504933059215545654e-01 7.483627200126647949e-01
2.550000000000000000e+02 6.092678070068359375e+01 -2.758242845535278320e+00 2.193528175354003906e+00 5.108132958412170410e-01 8.113024830818176270e-01 -9.067271947860717773e-01
2.560000000000000000e+02 6.111438369750976562e+01 -2.715799093246459961e+00 2.908890485763549805e+00 9.159849882125854492e-01 1.147462606430053711e+00 -1.496802926063537598e+00
2.570000000000000000e+02 6.093625259399414062e+01 -5.962297916412353516e+00 7.440115790814161301e-03 5.366211414337158203e+00 1.612095475196838379e+00 8.794618844985961914e-01
2.580000000000000000e+02 6.272704696655273438e+01 -4.965093135833740234e+00 -9.492037892341613770e-01 1.693977737426757812e+01 4.797172069549560547e+00 2.338278770446777344e+00
2.590000000000000000e+02 6.313311004638671875e+01 -4.842076301574707031e+00 -4.855921268463134766e-01 1.878417968750000000e+01 5.489576339721679688e+00 -7.263655960559844971e-02
2.600000000000000000e+02 6.501634216308593750e+01 -4.137440681457519531e+00 2.501938819885253906e+00 1.237562942504882812e+01 4.463270664215087891e+00 1.278900951147079468e-01
2.610000000000000000e+02 6.421174621582031250e+01 -1.612388849258422852e+00 3.731302499771118164e+00 1.275811862945556641e+01 4.946826457977294922e+00 2.839800119400024414e+00
2.620000000000000000e+02 6.407613372802734375e+01 -4.552074432373046875e+00 2.167945146560668945e+00 1.779689788818359375e+01 5.989452838897705078e+00 -2.620226144790649414e+00
2.630000000000000000e+02 6.532093811035156250e+01 -7.954695224761962891e+00 2.262401342391967773e+00 1.722204971313476562e+01 5.845335006713867188e+00 -3.084370851516723633e+00
2.640000000000000000e+02 6.462010955810546875e+01 -1.082104110717773438e+01 -1.562844067811965942e-01 8.996312141418457031e+00 2.652008533477783203e+00 2.380264699459075928e-01
2.650000000000000000e+02 6.433808898925781250e+01 -1.667541885375976562e+01 -2.717564105987548828e+00 7.136651992797851562e+00 1.325726270675659180e+00 2.054496407508850098e-01
2.660000000000000000e+02 6.674607086181640625e+01 -1.626381874084472656e+01 -4.207074642181396484e+00 1.408532142639160156e+00 -8.395627737045288086e-01 -2.059029638767242432e-01
2.670000000000000000e+02 6.592382812500000000e+01 -1.487946128845214844e+01 -2.607917308807373047e+00 4.367903232574462891e+00 5.279957056045532227e-01 1.052100896835327148e+00
2.680000000000000000e+02 6.962482452392578125e+01 -1.523133373260498047e+01 -1.511966943740844727e+00 1.325197517871856689e-01 -4.138341546058654785e-01 -1.817297101020812988e+00
2.690000000000000000e+02 7.034616851806640625e+01 -1.643642616271972656e+01 -1.464987039566040039e+00 1.774221211671829224e-01 -3.862695097923278809e-01 -9.151374101638793945e-01
2.700000000000000000e+02 7.228112030029296875e+01 -1.766259384155273438e+01 1.282154321670532227e+00 4.019630908966064453e+00 1.590535521507263184e+00 -2.058317899703979492e+00
2.710000000000000000e+02 7.349293518066406250e+01 -1.952766227722167969e+01 1.512564897537231445e+00 1.024315357208251953e+01 3.526715517044067383e+00 -2.270912170410156250e+00
2.720000000000000000e+02 7.382118988037109375e+01 -2.208734130859375000e+01 7.046634554862976074e-01 1.332762718200683594e+01 4.209687232971191406e+00 3.605528771877288818e-01
2.730000000000000000e+02 7.842902374267578125e+01 -1.782118415832519531e+01 5.498771555721759796e-03 8.666407585144042969e+00 2.601572036743164062e+00 9.063925743103027344e-01
2.740000000000000000e+02 7.471900939941406250e+01 -2.075788688659667969e+01 1.330714464187622070e+00 1.043484592437744141e+01 3.529668331146240234e+00 -8.773057907819747925e-02
2.750000000000000000e+02 7.935218811035156250e+01 -1.262552833557128906e+01 -2.163629233837127686e-01 1.076718997955322266e+01 3.165248155593872070e+00 -1.485423445701599121e-01
2.760000000000000000e+02 7.310042572021484375e+01 -1.154371833801269531e+01 -3.317268133163452148e+00 2.536091506481170654e-01 -9.190976619720458984e-01 -6.992118358612060547e-01
2.770000000000000000e+02 7.345114135742187500e+01 -1.329888534545898438e+01 -1.050451517105102539e+00 2.953350067138671875e+00 5.708695650100708008e-01 4.303365349769592285e-01
2.780000000000000000e+02 6.946383666992187500e+01 -1.354104709625244141e+01 -6.773495078086853027e-01 8.012914657592773438e-01 3.718259930610656738e-02 -2.783980846405029297e+00
2.790000000000000000e+02 6.817821502685546875e+01 -1.575085258483886719e+01 -3.407083511352539062e+00 2.750493586063385010e-01 -9.396102428436279297e-01 -1.282938718795776367e+00
2.800000000000000000e+02 6.321804046630859375e+01 -9.042276382446289062e+00 1.653320312500000000e+00 1.008527278900146484e+01 3.521577835083007812e+00 1.232053160667419434e+00
2.810000000000000000e+02 6.520760345458984375e+01 -9.390581130981445312e+00 2.198195457458496094e+00 1.257950687408447266e+01 4.433310508728027344e+00 -2.434251308441162109e+00
2.820000000000000000e+02 5.935589981079101562e+01 -9.847185134887695312e+00 1.147944450378417969e+00 2.774411201477050781e+00 1.176706671714782715e+00 2.500061035156250000e+00
2.830000000000000000e+02 5.556278991699218750e+01 -1.435128784179687500e+01 -1.790075600147247314e-01 7.706593275070190430e-01 1.774955391883850098e-01 5.536177158355712891e-01
2.840000000000000000e+02 5.713169479370117188e+01 -1.063116073608398438e+01 -1.596263766288757324e+00 -9.681227058172225952e-02 -5.079228281974792480e-01 1.105920314788818359e+00
2.850000000000000000e+02 5.675897598266601562e+01 -1.246217155456542969e+01 -1.834172159433364868e-01 5.303020477294921875e-01 1.040654480457305908e-01 1.364357709884643555e+00
2.860000000000000000e+02 5.465084457397460938e+01 -9.108782768249511719e+00 -1.645045757293701172e+00 -1.153505802154541016e+00 -8.395654559135437012e-01 1.324183702468872070e+00
2.870000000000000000e+02 5.031487274169921875e+01 -8.133255004882812500e+00 -5.402966141700744629e-01 2.145079076290130615e-01 -9.773661941289901733e-02 4.240765273571014404e-01
2.880000000000000000e+02 4.783627700805664062e+01 -9.218713760375976562e+00 7.877321541309356689e-02 2.169284582138061523e+00 6.744173169136047363e-01 1.528125070035457611e-02
2.890000000000000000e+02 4.825014495849609375e+01 -1.033000373840332031e+01 8.417797833681106567e-02 1.538670659065246582e+00 4.868545830249786377e-01 -4.082975536584854126e-02
2.900000000000000000e+02 5.042012786865234375e+01 -1.248703765869140625e+01 -4.510544836521148682e-01 3.745630085468292236e-01 -2.294745109975337982e-02 -1.281811594963073730e-01
2.910000000000000000e+02 4.730612564086914062e+01 -1.115579509735107422e+01 -5.714872386306524277e-03 1.642718434333801270e+00 4.911010563373565674e-01 1.653564125299453735e-01
2.920000000000000000e+02 5.030837249755859375e+01 -1.425727367401123047e+01 -3.163195252418518066e-01 2.733656167984008789e-01 -1.288617216050624847e-02 1.548162996768951416e-01
2.930000000000000000e+02 5.332880783081054688e+01 -1.496868228912353516e+01 -6.076579540967941284e-02 -1.059606298804283142e-01 -5.001792684197425842e-02 8.300459384918212891e-02
2.940000000000000000e+02 5.436204910278320312e+01 -1.620711708068847656e+01 -4.107784330844879150e-01 2.513584196567535400e-01 -4.782600328326225281e-02 2.243918031454086304e-01
2.950000000000000000e+02 5.467438888549804688e+01 -1.753557777404785156e+01 -3.374937772750854492e-01 5.348840355873107910e-01 5.921708419919013977e-02 2.083206027746200562e-01
2.960000000000000000e+02 5.650567245483398438e+01 -1.767630767822265625e+01 -3.766599893569946289e-01 2.686979055404663086e+00 6.930957436561584473e-01 8.467652797698974609e-01
2.970000000000000000e+02 6.474237823486328125e+01 -1.990816879272460938e+01 -6.859518587589263916e-02 1.063278865814208984e+01 3.169257879257202148e+00 8.098909258842468262e-01
2.980000000000000000e+02 6.502042388916015625e+01 -1.852773666381835938e+01 1.222942590713500977e+00 9.353606224060058594e+00 3.172964811325073242e+00 1.354621767997741699e+00
2.990000000000000000e+02 6.262825775146484375e+01 -1.778474617004394531e+01 -8.687556982040405273e-01 6.821925640106201172e+00 1.785950899124145508e+00 -2.241422832012176514e-01
3.000000000000000000e+02 5.021052932739257812e+01 -2.465838193893432617e+00 -3.921084403991699219e-01 -2.016662061214447021e-02 -1.236825138330459595e-01 3.119047284126281738e-01
3.010000000000000000e+02 4.691320037841796875e+01 -3.805465221405029297e+00 -8.723921775817871094e-01 3.758567273616790771e-01 -1.489606350660324097e-01 2.145458906888961792e-01
3.020000000000000000e+02 4.779549407958984375e+01 -2.907804727554321289e+00 -8.031790256500244141e-01 1.966664046049118042e-01 -1.819537878036499023e-01 2.643273770809173584e-01
3.030000000000000000e+02 5.104871368408203125e+01 -3.264693975448608398e+00 -2.679925560951232910e-01 -1.791587918996810913e-01 -1.341453939676284790e-01 3.961447179317474365e-01
3.040000000000000000e+02 5.166350555419921875e+01 -2.115911722183227539e+00 -1.390301436185836792e-01 -1.031914800405502319e-01 -7.266648858785629272e-02 1.488030701875686646e-01
3.050000000000000000e+02 5.343974304199218750e+01 -1.963508248329162598e+00 1.555171050131320953e-02 6.084382906556129456e-02 2.291866205632686615e-02 -1.910678925924003124e-03
3.060000000000000000e+02 5.287770462036132812e+01 -1.837766408920288086e+00 -2.867726841941475868e-03 -9.440897405147552490e-02 -2.918301150202751160e-02 -1.512236148118972778e-02
3.070000000000000000e+02 4.696562194824218750e+01 -2.950817346572875977e+00 -8.449320793151855469e-01 1.245809867978096008e-01 -2.161053270101547241e-01 1.237892434000968933e-01
3.080000000000000000e+02 4.523897171020507812e+01 -2.782448053359985352e+00 -1.026419043540954590e+00 1.267551034688949585e-01 -2.698991596698760986e-01 -1.070518642663955688e-01
3.090000000000000000e+02 4.361538314819335938e+01 -2.501719236373901367e+00 -1.266710400581359863e+00 -5.155325308442115784e-02 -3.954791128635406494e-01 -1.033271253108978271e-01
3.100000000000000000e+02 4.063922500610351562e+01 -1.182187318801879883e+00 -5.059403181076049805e-01 -1.411621868610382080e-01 -1.941307485103607178e-01 1.884045153856277466e-01
3.110000000000000000e+02 3.911352157592773438e+01 -2.421595335006713867e+00 -1.093334674835205078e+00 5.622545629739761353e-02 -3.111327588558197021e-01 1.916180998086929321e-01
3.120000000000000000e+02 3.938519287109375000e+01 -7.822109460830688477e-01 -4.337592422962188721e-01 -8.207577466964721680e-02 -1.547505110502243042e-01 2.124346196651458740e-01
3.130000000000000000e+02 3.645462799072265625e+01 -1.358868479728698730e+00 -6.477120518684387207e-01 2.322362065315246582e-01 -1.246427521109580994e-01 -3.151578456163406372e-02
3.140000000000000000e+02 3.427208709716796875e+01 -2.179955005645751953e+00 -6.327625513076782227e-01 -3.286914527416229248e-02 -1.996895074844360352e-01 -1.728153377771377563e-01
3.150000000000000000e+02 2.995001411437988281e+01 -5.480125427246093750e+00 -2.066683582961559296e-02 -5.275435447692871094e-01 -1.644631177186965942e-01 -2.521223127841949463e-01
3.160000000000000000e+02 2.979729080200195312e+01 -7.388962745666503906e+00 -2.619004435837268829e-02 -1.091968417167663574e+00 -3.354475200176239014e-01 -1.519297063350677490e-01
3.170000000000000000e+02 3.051953887939453125e+01 -6.558223247528076172e+00 1.115526705980300903e-01 -6.494779586791992188e-01 -1.613775938749313354e-01 -3.006140589714050293e-01
3.180000000000000000e+02 3.464369201660156250e+01 -8.417294502258300781e+00 1.201373711228370667e-01 2.142990529537200928e-01 1.003309264779090881e-01 -3.979120850563049316e-01
3.190000000000000000e+02 2.858129119873046875e+01 -1.100345802307128906e+01 -8.439623713493347168e-01 -1.114444255828857422e+00 -5.875219702720642090e-01 -8.471605777740478516e-01
3.200000000000000000e+02 2.866525650024414062e+01 -1.481115913391113281e+01 -5.746082067489624023e-01 -4.660091698169708252e-01 -3.121851980686187744e-01 -2.855874598026275635e-01
3.210000000000000000e+02 2.730828475952148438e+01 -1.318901538848876953e+01 -1.037303447723388672e+00 -6.195843815803527832e-01 -4.970663487911224365e-01 -5.957195758819580078e-01
3.220000000000000000e+02 2.479690742492675781e+01 -1.356357383728027344e+01 -1.295534253120422363e+00 -2.687101960182189941e-01 -4.692733287811279297e-01 -5.049540996551513672e-01
3.230000000000000000e+02 2.249045944213867188e+01 -1.467933750152587891e+01 -8.439038395881652832e-01 -1.733660846948623657e-01 -3.051809668540954590e-01 -2.623480558395385742e-01
3.240000000000000000e+02 2.139809226989746094e+01 -1.384410953521728516e+01 -7.161655426025390625e-01 -6.327572464942932129e-02 -2.338323742151260376e-01 -6.004258245229721069e-02
3.250000000000000000e+02 2.018861007690429688e+01 -1.308140277862548828e+01 -2.223680615425109863e-01 -1.167139038443565369e-03 -6.706055998802185059e-02 4.632921516895294189e-02
3.260000000000000000e+02 1.830129241943359375e+01 -1.092307186126708984e+01 1.359499408863484859e-03 8.721563965082168579e-02 2.657254226505756378e-02 -9.258623234927654266e-03
3.270000000000000000e+02 1.920599746704101562e+01 -1.200057888031005859e+01 -6.019508466124534607e-02 1.355690602213144302e-02 -1.399145368486642838e-02 5.112830083817243576e-03
3.280000000000000000e+02 1.653515625000000000e+01 -1.325403022766113281e+01 -8.528424799442291260e-02 2.631017267704010010e-01 5.334524437785148621e-02 -2.109814621508121490e-02
3.290000000000000000e+02 1.749612617492675781e+01 -1.756689834594726562e+01 -1.017812788486480713e-01 7.351480424404144287e-03 -2.832893840968608856e-02 -5.005847215652465820e-01
3.300000000000000000e+02 2.189229965209960938e+01 -2.616292381286621094e+01 5.369206666946411133e-01 1.527090072631835938e-01 2.068889141082763672e-01 -2.067109346389770508e-01
3.310000000000000000e+02 2.243325805664062500e+01 -2.806590652465820312e+01 4.965589344501495361e-01 2.549884915351867676e-01 2.254642248153686523e-01 -3.534298241138458252e-01
3.320000000000000000e+02 2.312510108947753906e+01 -2.705063629150390625e+01 5.335198044776916504e-01 6.897620111703872681e-02 1.807488054037094116e-01 -2.290067523717880249e-01
3.330000000000000000e+02 2.342381858825683594e+01 -2.903282356262207031e+01 3.255484700202941895e-01 1.701886355876922607e-01 1.487211287021636963e-01 -2.351642251014709473e-01
3.340000000000000000e+02 2.514346313476562500e+01 -2.885870933532714844e+01 4.217605292797088623e-01 -1.210153251886367798e-01 9.022355824708938599e-02 -2.499193102121353149e-01
3.350000000000000000e+02 3.023327064514160156e+01 -3.114060783386230469e+01 2.937497794628143311e-01 1.387259066104888916e-01 1.297427117824554443e-01 -1.940591037273406982e-01
3.360000000000000000e+02 2.503509140014648438e+01 -3.346911621093750000e+01 2.910869009792804718e-02 -4.833211898803710938e-01 -1.362637430429458618e-01 -2.880316227674484253e-02
3.370000000000000000e+02 2.354607772827148438e+01 -3.893936920166015625e+01 3.069689571857452393e-01 -9.201702475547790527e-02 6.448557972908020020e-02 5.370594933629035950e-02
3.380000000000000000e+02 2.453426170349121094e+01 -3.769861602783203125e+01 8.808855712413787842e-02 -3.491477668285369873e-01 -7.831776887178421021e-02 1.736302115023136139e-02
3.390000000000000000e+02 2.216197204589843750e+01 -3.978421783447265625e+01 4.892674982547760010e-01 -3.901896066963672638e-03 1.456096768379211426e-01 1.330125331878662109e-01
3.400000000000000000e+02 2.254993438720703125e+01 -4.150979995727539062e+01 6.481934785842895508e-01 -5.344027280807495117e-02 1.784259527921676636e-01 1.524173771031200886e-03
3.410000000000000000e+02 1.741990852355957031e+01 -4.037150955200195312e+01 8.837969303131103516e-01 6.780643016099929810e-02 2.854810059070587158e-01 -2.491668909788131714e-01
3.420000000000000000e+02 1.627715492248535156e+01 -3.987297058105468750e+01 7.670849561691284180e-01 2.393724620342254639e-01 3.019372224807739258e-01 -2.958309352397918701e-01
3.430000000000000000e+02 1.507486438751220703e+01 -3.903362655639648438e+01 3.476879000663757324e-01 2.024038285017013550e-01 1.650275141000747681e-01 -2.730928957462310791e-01
3.440000000000000000e+02 1.337742710113525391e+01 -3.688241958618164062e+01 1.123946011066436768e-01 -2.083291858434677124e-02 2.746850438416004181e-02 -1.273794919252395630e-01
3.450000000000000000e+02 1.239736938476562500e+01 -3.616938018798828125e+01 8.035027980804443359e-02 -1.725236773490905762e-01 -2.765202149748802185e-02 -1.252908855676651001e-01
3.460000000000000000e+02 1.272100448608398438e+01 -3.507044601440429688e+01 8.746261708438396454e-03 -3.151128888130187988e-01 -9.190998971462249756e-02 -8.446711301803588867e-02
3.470000000000000000e+02 4.033369541168212891e+00 -2.386679267883300781e+01 7.754034548997879028e-02 -1.977551132440567017e-01 -3.606443107128143311e-02 -9.598649106919765472e-03
3.480000000000000000e+02 6.889334917068481445e-01 -3.049469566345214844e+01 9.269259171560406685e-04 -3.268446624279022217e-01 -9.777531772851943970e-02 -8.504170924425125122e-03
3.490000000000000000e+02 6.852982640266418457e-01 -3.191033554077148438e+01 -8.368306793272495270e-03 -3.519903719425201416e-01 -1.081076040863990784e-01 -1.582329720258712769e-02
3.500000000000000000e+02 7.508313655853271484e-01 -3.737492752075195312e+01 -6.051889155060052872e-03 -5.334323048591613770e-01 -1.618452668190002441e-01 -2.398102171719074249e-02
3.510000000000000000e+02 8.198057174682617188e+00 -3.658723831176757812e+01 7.551661878824234009e-02 -3.251509070396423340e-01 -7.489028573036193848e-02 -2.284332364797592163e-01
3.520000000000000000e+02 2.917335700988769531e+01 -3.939769268035888672e+00 2.344003766775131226e-01 4.550546109676361084e-01 2.068364918231964111e-01 -1.308934241533279419e-01
3.530000000000000000e+02 1.823508071899414062e+01 -1.588574790954589844e+01 -1.432835161685943604e-01 6.001992896199226379e-02 -2.497907727956771851e-02 -3.068578243255615234e-01
3.540000000000000000e+02 1.644471168518066406e+01 -1.035485553741455078e+01 -3.304184228181838989e-02 2.026262730360031128e-01 5.087533220648765564e-02 -1.173569471575319767e-04
3.550000000000000000e+02 1.275464820861816406e+01 -1.213527679443359375e+01 1.125444751232862473e-02 1.052109375596046448e-01 3.493961319327354431e-02 -7.502475380897521973e-02
3.560000000000000000e+02 1.700604629516601562e+01 -8.384523391723632812e+00 5.512179061770439148e-02 3.471130132675170898e-01 1.206704452633857727e-01 -2.824064530432224274e-02
3.570000000000000000e+02 1.709112358093261719e+01 -5.559448242187500000e+00 7.478754222393035889e-02 3.008551895618438721e-01 1.126928180456161499e-01 3.933550417423248291e-02
3.580000000000000000e+02 1.505837059020996094e+01 -9.033530354499816895e-01 -2.374148368835449219e-01 1.697808653116226196e-01 -2.029019035398960114e-02 -9.546542912721633911e-02
3.590000000000000000e+02 1.789098739624023438e+01 -2.970887899398803711e+00 1.151793450117111206e-01 2.222957760095596313e-01 1.012425348162651062e-01 8.871472626924514771e-02
3.600000000000000000e+02 1.216494750976562500e+01 -1.468139171600341797e+00 -1.529581248760223389e-01 4.566377401351928711e-02 -3.218830749392509460e-02 -8.760052919387817383e-02
3.610000000000000000e+02 9.932408332824707031e+00 -2.584145307540893555e+00 -7.220067083835601807e-02 1.131610386073589325e-02 -1.826537027955055237e-02 -9.011249244213104248e-02
3.620000000000000000e+02 1.145897483825683594e+01 -1.257411575317382812e+01 -2.942997263744473457e-03 2.700686827301979065e-02 7.219161372631788254e-03 -4.184371978044509888e-02
3.630000000000000000e+02 8.954920768737792969e+00 -1.300887870788574219e+01 -2.039871811866760254e-01 -1.433324366807937622e-01 -1.041958853602409363e-01 -1.372275352478027344e-01
3.640000000000000000e+02 1.698447990417480469e+01 -1.888369321823120117e+00 -9.690690785646438599e-03 -4.693752899765968323e-02 -1.698846556246280670e-02 -7.301832735538482666e-02
3.650000000000000000e+02 1.740547752380371094e+01 -4.564529359340667725e-01 -3.295586705207824707e-01 -8.691142499446868896e-02 -1.249410286545753479e-01 -7.654835470020771027e-03
3.660000000000000000e+02 2.011623001098632812e+01 -9.010628461837768555e-01 1.150121614336967468e-01 2.341304272413253784e-01 1.047427803277969360e-01 -1.217949613928794861e-01
3.670000000000000000e+02 9.837079048156738281e+00 -1.857926368713378906e+00 -1.024895533919334412e-01 -9.589182585477828979e-02 -5.951441451907157898e-02 -8.756447583436965942e-02
3.680000000000000000e+02 3.940684795379638672e+00 -1.907029628753662109e+00 -1.040413230657577515e-02 -2.745834738016128540e-02 -1.135874353349208832e-02 -2.149855904281139374e-02
3.690000000000000000e+02 1.853072643280029297e+00 -1.435442733764648438e+01 -9.986549615859985352e-03 -5.723263323307037354e-02 -2.016575448215007782e-02 -7.014968432486057281e-03
3.700000000000000000e+02 3.396440267562866211e+00 -1.830323410034179688e+01 -5.989053100347518921e-02 -2.425735741853713989e-01 -9.073923528194427490e-02 -1.400154680013656616e-01
3.710000000000000000e+02 4.649755001068115234e+00 -1.589519309997558594e+01 -9.444505721330642700e-02 -2.756733894348144531e-01 -1.110355332493782043e-01 -9.075100719928741455e-02
3.720000000000000000e+02 6.690399169921875000e+00 -1.488783168792724609e+01 -1.692412644624710083e-01 -2.898338139057159424e-01 -1.377225220203399658e-01 -1.815391331911087036e-01
3.730000000000000000e+02 1.590387225151062012e+00 -1.034668445587158203e+01 -3.757045371457934380e-03 -3.359225764870643616e-02 -1.120479125529527664e-02 7.319499272853136063e-03
3.740000000000000000e+02 5.289577841758728027e-01 -1.057695102691650391e+01 6.465740501880645752e-03 4.802764859050512314e-03 3.380551701411604881e-03 5.385337863117456436e-03
3.750000000000000000e+02 3.208732843399047852e+00 -1.954924464225769043e+00 -7.812889292836189270e-03 7.414607796818017960e-03 -1.194844080600887537e-04 -2.739390125498175621e-03
3.760000000000000000e+02 2.127087116241455078e+00 -1.845289421081542969e+01 -4.872944205999374390e-02 -1.594126075506210327e-01 -6.244261562824249268e-02 -1.083801239728927612e-01
3.770000000000000000e+02 4.344096660614013672e+00 -1.867850303649902344e+01 -3.998458012938499451e-02 -3.128837347030639648e-01 -1.058604940772056580e-01 -1.314085423946380615e-01
3.780000000000000000e+02 3.530919313430786133e+00 -2.068511772155761719e+01 6.822603195905685425e-02 -1.994896233081817627e-01 -3.937907889485359192e-02 -1.336738616228103638e-01
3.790000000000000000e+02 4.807770729064941406e+00 -1.960182762145996094e+01 3.352906554937362671e-03 -3.197332918643951416e-01 -9.491411596536636353e-02 -9.206376969814300537e-02
3.800000000000000000e+02 6.023934841156005859e+00 -2.183457756042480469e+01 2.074258774518966675e-01 6.718970090150833130e-02 8.238467574119567871e-02 -1.129203513264656067e-01
3.810000000000000000e+02 7.763046264648437500e+00 -2.299397087097167969e+01 3.430689871311187744e-01 9.005915373563766479e-02 1.299384385347366333e-01 -1.194322705268859863e-01
3.820000000000000000e+02 2.762084722518920898e+00 -3.790793991088867188e+01 1.508864574134349823e-02 -4.941871464252471924e-01 -1.437295526266098022e-01 -8.294793963432312012e-02
3.830000000000000000e+02 2.632402801513671875e+01 -3.848192596435546875e+01 2.814999222755432129e-01 -2.389247566461563110e-01 1.277254801243543625e-02 1.187045648694038391e-01
3.840000000000000000e+02 3.289871597290039062e+01 -2.806808090209960938e+01 6.375898122787475586e-01 3.189138472080230713e-01 2.869510948657989502e-01 -3.691639304161071777e-01
3.850000000000000000e+02 3.107542419433593750e+01 -2.623101997375488281e+01 3.903097510337829590e-01 2.990289330482482910e-01 2.068016082048416138e-01 -3.365198373794555664e-01
3.860000000000000000e+02 3.671841812133789062e+01 -3.096691703796386719e+01 4.764469861984252930e-01 4.379376769065856934e-01 2.743153870105743408e-01 -2.929855138063430786e-02
3.870000000000000000e+02 3.015223693847656250e+01 -2.527257728576660156e+01 3.299731314182281494e-01 2.687935531139373779e-01 1.796300113201141357e-01 -2.936796247959136963e-01
3.880000000000000000e+02 2.932860946655273438e+01 -2.427188301086425781e+01 2.098128646612167358e-01 1.513141393661499023e-01 1.083381026983261108e-01 -1.966039240360260010e-01
3.890000000000000000e+02 2.872861099243164062e+01 -2.226255989074707031e+01 2.293987013399600983e-02 -4.357113689184188843e-02 -6.189380772411823273e-03 -7.077350467443466187e-02
3.900000000000000000e+02 2.922159767150878906e+01 -1.971101188659667969e+01 -3.740946575999259949e-02 -1.950722634792327881e-01 -6.974451988935470581e-02 -5.405501648783683777e-02
3.910000000000000000e+02 2.967406845092773438e+01 -1.846660614013671875e+01 -4.669911414384841919e-02 -1.731276959180831909e-01 -6.594803929328918457e-02 -8.455874025821685791e-02
3.920000000000000000e+02 2.358948898315429688e+01 -1.393159008026123047e+01 -1.182564973831176758e+00 -1.680921018123626709e-01 -4.051971137523651123e-01 -3.245723545551300049e-01
3.930000000000000000e+02 4.149308395385742188e+01 -3.776232528686523438e+01 5.467343926429748535e-01 4.350121319293975830e-01 2.945239543914794922e-01 -3.147999048233032227e-01
3.940000000000000000e+02 4.607635879516601562e+01 -3.756215286254882812e+01 7.078242301940917969e-01 3.673512339591979980e-01 3.225526511669158936e-01 3.824846446514129639e-01
3.950000000000000000e+02 4.305937957763671875e+01 -3.847288894653320312e+01 7.492886185646057129e-01 3.408438563346862793e-01 3.270397484302520752e-01 -1.228834763169288635e-01
3.960000000000000000e+02 4.476486587524414062e+01 -3.828068923950195312e+01 7.578648328781127930e-01 1.928298175334930420e-01 2.852084040641784668e-01 1.613111793994903564e-01
3.970000000000000000e+02 4.874818801879882812e+01 -3.858750534057617188e+01 1.361054927110671997e-01 2.348400592803955078e+00 7.453518509864807129e-01 8.463366031646728516e-01
3.980000000000000000e+02 5.821514511108398438e+01 -3.727917861938476562e+01 -3.810635209083557129e-01 8.048375248908996582e-01 1.271322071552276611e-01 -2.796179652214050293e-01
3.990000000000000000e+02 5.534225463867187500e+01 -3.455918884277343750e+01 9.865251183509826660e-01 5.373023033142089844e+00 1.907864451408386230e+00 2.466975152492523193e-01
4.000000000000000000e+02 5.594317245483398438e+01 -3.321246719360351562e+01 6.624909043312072754e-01 7.382293224334716797e+00 2.413435220718383789e+00 3.974599242210388184e-01
4.010000000000000000e+02 5.556038284301757812e+01 -2.975356674194335938e+01 9.978637695312500000e-01 5.106932640075683594e+00 1.831438899040222168e+00 1.251257538795471191e+00
4.020000000000000000e+02 5.738240051269531250e+01 -2.924639511108398438e+01 1.449467301368713379e+00 5.191341400146484375e+00 1.992242693901062012e+00 2.647102355957031250e+00
4.030000000000000000e+02 5.821663665771484375e+01 -2.814291763305664062e+01 1.519399404525756836e+00 3.677116394042968750e+00 1.558954715728759766e+00 2.090091943740844727e+00
4.040000000000000000e+02 5.582445907592773438e+01 -2.619128990173339844e+01 -3.463759124279022217e-01 4.667130947113037109e+00 1.296226501464843750e+00 1.569898128509521484e+00
4.050000000000000000e+02 5.469040679931640625e+01 -2.565299034118652344e+01 -4.795396029949188232e-01 4.001835823059082031e+00 1.056688904762268066e+00 1.374187231063842773e+00
4.060000000000000000e+02 5.661535644531250000e+01 -2.246929931640625000e+01 1.519293189048767090e+00 3.593583583831787109e+00 1.533863067626953125e+00 1.848671197891235352e+00
4.070000000000000000e+02 5.972726821899414062e+01 -2.614685821533203125e+01 -1.243932485580444336e+00 1.528210997581481934e+00 8.528356254100799561e-02 1.424099445343017578e+00
4.080000000000000000e+02 6.526489257812500000e+01 -2.318031120300292969e+01 2.586993932723999023e+00 1.028259563446044922e+01 3.860877037048339844e+00 -4.011870861053466797e+00
4.090000000000000000e+02 6.360716629028320312e+01 -2.756737136840820312e+01 -6.114161014556884766e-01 3.143707513809204102e+00 7.596874237060546875e-01 -1.207912087440490723e+00
4.100000000000000000e+02 6.575438690185546875e+01 -2.903764533996582031e+01 1.279325962066650391e+00 7.138364791870117188e+00 2.525307178497314453e+00 -2.559544324874877930e+00
4.110000000000000000e+02 6.569065093994140625e+01 -3.034041976928710938e+01 2.152166843414306641e+00 9.158164978027343750e+00 3.393099546432495117e+00 -2.988469362258911133e+00
4.120000000000000000e+02 6.826165008544921875e+01 -2.906950759887695312e+01 1.066901803016662598e+00 2.973988056182861328e+00 1.212266921997070312e+00 -8.281069397926330566e-01
4.130000000000000000e+02 6.602066802978515625e+01 -3.301308059692382812e+01 2.856644093990325928e-01 6.977244377136230469e+00 2.178872585296630859e+00 -5.469586849212646484e-01
4.140000000000000000e+02 6.616004943847656250e+01 -3.435162734985351562e+01 3.912833631038665771e-01 6.083212852478027344e+00 1.942348957061767578e+00 2.390326000750064850e-02
4.150000000000000000e+02 6.535824584960937500e+01 -3.645958328247070312e+01 1.326823979616165161e-01 3.580465555191040039e+00 1.113944411277770996e+00 5.959838032722473145e-01
4.160000000000000000e+02 6.425704956054687500e+01 -3.738898086547851562e+01 -5.360320210456848145e-01 1.149698853492736816e+00 1.841000616550445557e-01 3.366396427154541016e-01
4.170000000000000000e+02 7.012291717529296875e+01 -3.465322494506835938e+01 8.442041873931884766e-01 4.730862617492675781e+00 1.672520041465759277e+00 -6.228113174438476562e-01
4.180000000000000000e+02 7.797311401367187500e+01 -4.167909240722656250e+01 1.106047779321670532e-01 7.571951866149902344e+00 2.304767131805419922e+00 3.136499971151351929e-02
4.190000000000000000e+02 7.723661041259765625e+01 -3.706272506713867188e+01 3.796990588307380676e-02 7.358919143676757812e+00 2.219066619873046875e+00 8.819375932216644287e-02
4.200000000000000000e+02 7.932872009277343750e+01 -3.335423278808593750e+01 1.710815727710723877e-02 8.181011199951171875e+00 2.459435939788818359e+00 7.137030363082885742e-02
4.210000000000000000e+02 6.839837646484375000e+01 -2.782425498962402344e+01 -4.522102773189544678e-01 2.131669282913208008e+00 5.038377046585083008e-01 -1.408114790916442871e+00
4.220000000000000000e+02 6.724393463134765625e+01 -2.644818687438964844e+01 -2.275255680084228516e+00 3.315946578979492188e+00 3.122072517871856689e-01 -1.339252471923828125e+00
4.230000000000000000e+02 6.680971527099609375e+01 -2.523293685913085938e+01 -4.455080628395080566e-01 3.480574607849121094e+00 9.105199575424194336e-01 -1.803883194923400879e+00
4.240000000000000000e+02 5.652930831909179688e+01 -3.533095169067382812e+01 7.231888175010681152e-01 5.039995193481445312e+00 1.728955149650573730e+00 -1.133278727531433105e+00
4.250000000000000000e+02 5.881276702880859375e+01 -4.041758346557617188e+01 -4.889655113220214844e-01 9.159187078475952148e-01 1.280859559774398804e-01 -2.541831731796264648e-01
4.260000000000000000e+02 5.878702545166015625e+01 -3.864267730712890625e+01 -4.971296489238739014e-01 5.077540278434753418e-01 3.187315072864294052e-03 -3.716180920600891113e-01
4.270000000000000000e+02 6.140500259399414062e+01 -3.870566558837890625e+01 -1.416787862777709961e+00 -4.125379323959350586e-01 -5.487977266311645508e-01 5.867777392268180847e-03
4.280000000000000000e+02 7.823947143554687500e+01 -3.056261253356933594e+01 -7.349447160959243774e-02 8.021394729614257812e+00 2.384370088577270508e+00 1.625761240720748901e-01
4.290000000000000000e+02 7.933521270751953125e+01 -2.357288169860839844e+01 7.484865933656692505e-02 7.142351627349853516e+00 2.165160179138183594e+00 -1.753514409065246582e-01
4.300000000000000000e+02 7.813569641113281250e+01 -2.641938209533691406e+01 -1.954184472560882568e-01 8.121765136718750000e+00 2.377903938293457031e+00 -4.858820736408233643e-01
4.310000000000000000e+02 7.936619567871093750e+01 -2.644527626037597656e+01 -7.562313228845596313e-02 8.134073257446289062e+00 2.417535066604614258e+00 -2.387653738260269165e-01
4.320000000000000000e+02 7.182778930664062500e+01 -2.594460868835449219e+01 -2.174013853073120117e+00 1.294781327247619629e+00 -2.637697756290435791e-01 8.433539271354675293e-01
4.330000000000000000e+02 7.112864685058593750e+01 -2.701451683044433594e+01 -2.239828109741210938e+00 1.252359747886657715e+00 -2.962404787540435791e-01 1.014981031417846680e+00
4.340000000000000000e+02 6.853083801269531250e+01 -2.640269851684570312e+01 -3.608018875122070312e+00 9.058413505554199219e-01 -8.106532096862792969e-01 -2.168192863464355469e-01
4.350000000000000000e+02 7.785250854492187500e+01 -1.152246189117431641e+01 -8.403050303459167480e-01 9.361220359802246094e+00 2.556274652481079102e+00 -9.315963387489318848e-01
4.360000000000000000e+02 7.605406188964843750e+01 -1.113244342803955078e+01 -1.831068634986877441e+00 8.514584541320800781e+00 2.005054712295532227e+00 -7.041888236999511719e-01
4.370000000000000000e+02 7.656352233886718750e+01 -7.914776802062988281e+00 8.303663134574890137e-01 1.042383670806884766e+01 3.376260995864868164e+00 -1.063744664192199707e+00
4.380000000000000000e+02 7.739118957519531250e+01 -4.874177932739257812e+00 5.602251291275024414e-01 8.716454505920410156e+00 2.783004045486450195e+00 7.820481434464454651e-03
4.390000000000000000e+02 7.943865203857421875e+01 2.763494491577148438e+00 -3.198883682489395142e-02 7.781964778900146484e+00 2.324992656707763672e+00 -4.056735709309577942e-02
4.400000000000000000e+02 6.643695831298828125e+01 2.827573537826538086e+00 1.039012372493743896e-01 3.636704683303833008e+00 1.122181773185729980e+00 1.597357392311096191e+00
4.410000000000000000e+02 6.700245666503906250e+01 6.088560104370117188e+00 -4.301898479461669922e+00 2.179370224475860596e-01 -1.225188493728637695e+00 6.861556768417358398e-01
4.420000000000000000e+02 6.258306884765625000e+01 7.790572643280029297e+00 -1.910896778106689453e+00 4.479031562805175781e+00 7.704405188560485840e-01 -1.512601137161254883e+00
4.430000000000000000e+02 6.259270477294921875e+01 -1.491237044334411621e+00 1.498750448226928711e+00 1.452831268310546875e+01 4.808118820190429688e+00 -3.482496023178100586e+00
4.440000000000000000e+02 6.353584289550781250e+01 -1.498963475227355957e+00 2.473525762557983398e+00 1.499297142028808594e+01 5.239949226379394531e+00 1.230649590492248535e+00
4.450000000000000000e+02 6.508409118652343750e+01 -2.105618953704833984e+00 4.963422298431396484e+00 9.292756080627441406e+00 4.276853561401367188e+00 3.417289495468139648e+00
4.460000000000000000e+02 6.685164642333984375e+01 -2.618145942687988281e+00 3.896874666213989258e+00 3.958176612854003906e+00 2.356515407562255859e+00 3.668193817138671875e+00
4.470000000000000000e+02 6.810698699951171875e+01 -1.330870389938354492e+00 5.489073276519775391e+00 3.067915201187133789e+00 2.567096471786499023e+00 3.354940652847290039e+00
4.480000000000000000e+02 6.930298614501953125e+01 -9.092435240745544434e-01 4.227793693542480469e+00 1.082559585571289062e+00 1.593105912208557129e+00 1.923154234886169434e+00
4.490000000000000000e+02 7.250783538818359375e+01 -1.101202487945556641e+00 1.283758282661437988e+00 2.297077894210815430e+00 1.074250817298889160e+00 -1.171130537986755371e+00
4.500000000000000000e+02 7.456562042236328125e+01 -2.477219343185424805e+00 6.804652810096740723e-01 7.472235679626464844e+00 2.445810317993164062e+00 -1.909481048583984375e+00
4.510000000000000000e+02 7.684568023681640625e+01 5.516471266746520996e-01 -2.528230547904968262e-01 7.315385818481445312e+00 2.118768930435180664e+00 -4.575672000646591187e-02
4.520000000000000000e+02 7.702349853515625000e+01 -2.845129728317260742e+00 4.543267190456390381e-02 8.449458122253417969e+00 2.548467159271240234e+00 2.889399826526641846e-01
4.530000000000000000e+02 7.821752929687500000e+01 4.051704406738281250e+00 -1.448721736669540405e-01 7.370921134948730469e+00 2.167814731597900391e+00 -2.565698623657226562e-01
4.540000000000000000e+02 7.939794158935546875e+01 8.368647575378417969e+00 1.158624235540628433e-02 6.148860931396484375e+00 1.848134160041809082e+00 -2.537001073360443115e-01
4.550000000000000000e+02 7.198374176025390625e+01 1.382837104797363281e+01 4.539014101028442383e-01 1.432901573181152344e+01 4.434875011444091797e+00 -1.194163918495178223e+00
4.560000000000000000e+02 7.197814178466796875e+01 1.046228885650634766e+01 1.784767389297485352e+00 1.340910434722900391e+01 4.558161735534667969e+00 2.471643686294555664e+00
4.570000000000000000e+02 7.134148406982421875e+01 9.366574287414550781e+00 1.925832867622375488e+00 8.887652397155761719e+00 3.244045495986938477e+00 3.309697389602661133e+00
4.580000000000000000e+02 7.214556884765625000e+01 8.482191085815429688e+00 -3.203749656677246094e-01 9.770224571228027344e+00 2.834954738616943359e+00 1.179981112480163574e+00
4.590000000000000000e+02 7.006555175781250000e+01 7.951657295227050781e+00 4.100242853164672852e-01 3.662000179290771484e+00 1.221607327461242676e+00 1.902432203292846680e+00
4.600000000000000000e+02 7.943548583984375000e+01 1.247369861602783203e+01 8.299200236797332764e-02 5.160031795501708984e+00 1.572907090187072754e+00 4.222739115357398987e-02
4.610000000000000000e+02 7.930849456787109375e+01 1.664916229248046875e+01 -1.711105555295944214e-02 6.749784469604492188e+00 2.019801855087280273e+00 3.708784282207489014e-01
4.620000000000000000e+02 7.013801574707031250e+01 1.757872962951660156e+01 2.771938741207122803e-01 2.895279645919799805e+00 9.517420530319213867e-01 -1.435092329978942871e+00
4.630000000000000000e+02 7.174242401123046875e+01 1.520677185058593750e+01 1.370350599288940430e+00 1.228073787689208984e+01 4.095326423645019531e+00 -2.260410547256469727e+00
4.640000000000000000e+02 7.796710205078125000e+01 1.805554389953613281e+01 -1.061249673366546631e-01 7.567952156066894531e+00 2.238548278808593750e+00 8.230312466621398926e-01
4.650000000000000000e+02 7.940492248535156250e+01 2.368235206604003906e+01 -3.171842917799949646e-02 8.667751312255859375e+00 2.590809822082519531e+00 -1.488059200346469879e-02
4.660000000000000000e+02 7.102182769775390625e+01 3.022484588623046875e+01 5.165416598320007324e-01 4.847524642944335938e+00 1.609219908714294434e+00 -1.485971361398696899e-01
4.670000000000000000e+02 6.342428207397460938e+01 3.059350776672363281e+01 2.817987501621246338e-01 4.993788719177246094e+00 1.582676172256469727e+00 -1.021473482251167297e-01
4.680000000000000000e+02 6.439057922363281250e+01 3.025131416320800781e+01 3.333569169044494629e-01 4.848767757415771484e+00 1.554637312889099121e+00 -8.668055385351181030e-02
4.690000000000000000e+02 6.369995880126953125e+01 2.822845458984375000e+01 4.633114933967590332e-01 5.922349452972412109e+00 1.915698289871215820e+00 7.050154209136962891e-01
4.700000000000000000e+02 6.422109222412109375e+01 2.707982063293457031e+01 1.546658396720886230e+00 5.514891147613525391e+00 2.118464708328247070e+00 1.289740562438964844e+00
4.710000000000000000e+02 6.321153259277343750e+01 2.619018745422363281e+01 1.768386721611022949e+00 6.584884166717529297e+00 2.505981206893920898e+00 2.438294172286987305e+00
4.720000000000000000e+02 6.486573791503906250e+01 2.136001014709472656e+01 -2.062396764755249023e+00 1.005569934844970703e+00 -3.170480132102966309e-01 1.792218685150146484e+00
4.730000000000000000e+02 6.222739028930664062e+01 2.391379165649414062e+01 3.312096372246742249e-02 3.714082002639770508e+00 1.124160885810852051e+00 2.178753614425659180e+00
4.740000000000000000e+02 5.841109085083007812e+01 2.330236053466796875e+01 -5.278240680694580078e+00 -1.118928417563438416e-01 -1.617040038108825684e+00 -2.314134836196899414e-01
4.750000000000000000e+02 5.715882873535156250e+01 2.335499763488769531e+01 -3.490931034088134766e+00 1.942289322614669800e-01 -9.890106320381164551e-01 -2.407008707523345947e-01
4.760000000000000000e+02 5.543197250366210938e+01 2.441815567016601562e+01 -2.376722693443298340e-01 2.071421146392822266e+00 5.501247048377990723e-01 -1.050330877304077148e+00
4.770000000000000000e+02 5.464741134643554688e+01 2.542823600769042969e+01 1.169086694717407227e+00 3.875541925430297852e+00 1.513388633728027344e+00 -2.000854253768920898e+00
4.780000000000000000e+02 4.908143234252929688e+01 2.269725036621093750e+01 1.821769475936889648e-01 1.951252460479736328e+00 6.400288343429565430e-01 -5.288228988647460938e-01
4.790000000000000000e+02 4.595705413818359375e+01 2.497120857238769531e+01 3.976444602012634277e-01 1.636058211326599121e+00 6.101108193397521973e-01 4.472136199474334717e-01
4.800000000000000000e+02 4.932545471191406250e+01 2.170481300354003906e+01 9.963068366050720215e-02 1.847500801086425781e+00 5.841394066810607910e-01 -7.494203448295593262e-01
4.810000000000000000e+02 4.606720352172851562e+01 2.368144226074218750e+01 4.702726900577545166e-01 1.260017395019531250e+00 5.190870165824890137e-01 3.810176849365234375e-01
4.820000000000000000e+02 4.653314208984375000e+01 2.239007759094238281e+01 4.604807496070861816e-01 1.050073146820068359e+00 4.531661868095397949e-01 1.688908040523529053e-01
4.830000000000000000e+02 4.392044830322265625e+01 2.027638626098632812e+01 2.264033257961273193e-01 6.000931262969970703e-01 2.479489445686340332e-01 2.879775464534759521e-01
4.840000000000000000e+02 4.094231796264648438e+01 2.015018272399902344e+01 3.377591669559478760e-01 1.466316133737564087e-01 1.453172266483306885e-01 1.889467388391494751e-01
4.850000000000000000e+02 4.077402496337890625e+01 2.160630798339843750e+01 4.996020495891571045e-01 4.989646747708320618e-02 1.648495495319366455e-01 8.139744400978088379e-02
4.860000000000000000e+02 3.941444778442382812e+01 2.179510879516601562e+01 2.423502355813980103e-01 -3.579802438616752625e-02 6.196566671133041382e-02 4.679323732852935791e-02
4.870000000000000000e+02 3.953905105590820312e+01 2.023263168334960938e+01 3.644300103187561035e-01 -7.846155762672424316e-02 8.579053729772567749e-02 1.752476990222930908e-01
4.880000000000000000e+02 3.758620834350585938e+01 1.114337253570556641e+01 -1.067879676818847656e+00 -1.095423936843872070e+00 -6.489911079406738281e-01 8.961090445518493652e-01
4.890000000000000000e+02 3.566124343872070312e+01 1.236459541320800781e+01 -1.273774027824401855e+00 -5.473046898841857910e-01 -5.463235974311828613e-01 5.285190939903259277e-01
4.900000000000000000e+02 3.910835266113281250e+01 8.745182037353515625e+00 -5.816703438758850098e-01 -1.758332252502441406e+00 -7.020007371902465820e-01 8.319775462150573730e-01
4.910000000000000000e+02 3.947245407104492188e+01 7.318635940551757812e+00 -1.975128054618835449e-01 -1.354765772819519043e+00 -4.656835794448852539e-01 4.213625192642211914e-01
4.920000000000000000e+02 3.961248779296875000e+01 5.887858390808105469e+00 4.251702874898910522e-02 -5.860467553138732910e-01 -1.630589216947555542e-01 3.093353509902954102e-01
4.930000000000000000e+02 4.021086883544921875e+01 3.012802124023437500e+00 -1.159187197685241699e+00 -7.936644554138183594e-01 -5.858554840087890625e-01 -8.851518630981445312e-01
4.940000000000000000e+02 4.322401428222656250e+01 1.849353790283203125e+00 -1.223917722702026367e+00 2.493566460907459259e-02 -3.596946299076080322e-01 2.723297178745269775e-01
4.950000000000000000e+02 4.605530166625976562e+01 9.986962676048278809e-01 -1.186134099960327148e+00 1.563389450311660767e-01 -3.089385628700256348e-01 1.541155278682708740e-01
4.960000000000000000e+02 4.758074569702148438e+01 7.261704444885253906e+00 1.120299547910690308e-01 3.445410132408142090e-01 1.369712948799133301e-01 -1.879109144210815430e-01
4.970000000000000000e+02 5.105215835571289062e+01 1.751041531562805176e+00 -1.460131883621215820e+00 -1.073652692139148712e-02 -4.412605166435241699e-01 1.108219474554061890e-01
4.980000000000000000e+02 4.606989669799804688e+01 1.726837158203125000e+00 -1.161258459091186523e+00 1.776704043149948120e-01 -2.950764298439025879e-01 1.466802507638931274e-01
4.990000000000000000e+02 4.686098861694335938e+01 9.330220818519592285e-01 -1.211894154548645020e+00 1.658693850040435791e-01 -3.138074278831481934e-01 9.264445304870605469e-02
5.000000000000000000e+02 4.650226593017578125e+01 8.211876869201660156e+00 1.901725381612777710e-01 4.979643523693084717e-01 2.064410597085952759e-01 -3.411065042018890381e-01
5.010000000000000000e+02 4.443648529052734375e+01 5.401575565338134766e+00 -5.819987058639526367e-01 1.754923760890960693e-01 -1.219519078731536865e-01 2.215907573699951172e-01
5.020000000000000000e+02 4.438236236572265625e+01 9.957262992858886719e+00 2.031188458204269409e-01 1.082852125167846680e+00 3.857912719249725342e-01 -1.834568381309509277e-01
5.030000000000000000e+02 3.963066864013671875e+01 1.050213241577148438e+01 -5.567760467529296875e-01 -8.099260926246643066e-01 -4.100106358528137207e-01 4.405384659767150879e-01
5.040000000000000000e+02 7.700596618652343750e+01 2.356882858276367188e+01 -2.621320486068725586e-01 7.631073951721191406e+00 2.210682630538940430e+00 -1.337875574827194214e-01
5.050000000000000000e+02 7.931766510009765625e+01 2.921543884277343750e+01 -1.237664651125669479e-02 7.992053031921386719e+00 2.393902778625488281e+00 -7.962960004806518555e-02
5.060000000000000000e+02 6.897709655761718750e+01 3.652467346191406250e+01 -6.756068672984838486e-03 4.712539196014404297e+00 1.411734938621520996e+00 4.407452046871185303e-02
5.070000000000000000e+02 6.136532974243164062e+01 3.612530517578125000e+01 -3.193965852260589600e-01 1.375116348266601562e+00 3.167159259319305420e-01 -7.528031468391418457e-01
5.080000000000000000e+02 5.824683380126953125e+01 3.576134109497070312e+01 -9.576081037521362305e-01 5.425304546952247620e-02 -2.710065245628356934e-01 2.645670473575592041e-01
5.090000000000000000e+02 5.762040710449218750e+01 3.718136978149414062e+01 1.504008769989013672e-01 5.265136957168579102e-01 2.030743658542633057e-01 5.507578849792480469e-01
5.100000000000000000e+02 5.712578582763671875e+01 3.532167053222656250e+01 -2.310745269060134888e-01 2.598455846309661865e-01 8.631316944956779480e-03 2.580919265747070312e-01
5.110000000000000000e+02 5.592728805541992188e+01 3.552232742309570312e+01 -2.651951014995574951e-01 1.416650176048278809e+00 3.454365432262420654e-01 6.841838359832763672e-01
5.120000000000000000e+02 5.930520248413085938e+01 3.651227188110351562e+01 -4.849781095981597900e-01 -5.371505022048950195e-02 -1.616079509258270264e-01 8.716133236885070801e-02
5.130000000000000000e+02 6.295605850219726562e+01 3.613277816772460938e+01 -4.350644052028656006e-01 2.567966938018798828e+00 6.398707032203674316e-01 -6.228460669517517090e-01
5.140000000000000000e+02 6.136118698120117188e+01 3.469516754150390625e+01 -2.625293433666229248e-01 5.735312104225158691e-01 9.330055117607116699e-02 -1.666392385959625244e-01
5.150000000000000000e+02 6.395894241333007812e+01 3.350493621826171875e+01 2.132476717233657837e-01 3.614375829696655273e+00 1.148287057876586914e+00 -3.459387719631195068e-01
5.160000000000000000e+02 6.351622390747070312e+01 3.185173797607421875e+01 3.257314860820770264e-01 4.526725769042968750e+00 1.455737233161926270e+00 -5.799466371536254883e-01
5.170000000000000000e+02 7.923435211181640625e+01 3.201447677612304688e+01 -1.477182377129793167e-03 7.710421085357666016e+00 2.312683105468750000e+00 -4.802006855607032776e-02
5.180000000000000000e+02 7.922456359863281250e+01 3.758607482910156250e+01 -3.310264088213443756e-03 7.545083522796630859e+00 2.262531995773315430e+00 -2.659708261489868164e-02
5.190000000000000000e+02 7.223580169677734375e+01 4.108446121215820312e+01 -2.235475368797779083e-02 5.665947437286376953e+00 1.693077802658081055e+00 3.963171318173408508e-02
5.200000000000000000e+02 5.219797897338867188e+01 3.789673995971679688e+01 -2.384486347436904907e-01 2.210947990417480469e+00 5.917497873306274414e-01 1.382607370615005493e-01
5.210000000000000000e+02 4.912483596801757812e+01 3.762721633911132812e+01 -3.744986280798912048e-02 2.133855581283569336e+00 6.289217472076416016e-01 -2.551185786724090576e-01
5.220000000000000000e+02 5.364262008666992188e+01 3.090657997131347656e+01 5.801261067390441895e-01 5.289109230041503906e+00 1.760770559310913086e+00 5.094826221466064453e-01
5.230000000000000000e+02 5.433509445190429688e+01 3.295078659057617188e+01 7.093102931976318359e-01 3.405310869216918945e+00 1.234386324882507324e+00 1.188052415847778320e+00
5.240000000000000000e+02 4.831686019897460938e+01 3.143482971191406250e+01 6.500471830368041992e-01 2.366338253021240234e+00 9.049155712127685547e-01 -6.171793937683105469e-01
5.250000000000000000e+02 5.365020751953125000e+01 2.963144302368164062e+01 -4.366319626569747925e-02 5.534865379333496094e+00 1.647360682487487793e+00 -6.029607728123664856e-03
5.260000000000000000e+02 5.359982299804687500e+01 2.840033721923828125e+01 4.032672047615051270e-01 6.185682296752929688e+00 1.976684808731079102e+00 -4.963513314723968506e-01
5.270000000000000000e+02 5.312677383422851562e+01 2.732151603698730469e+01 9.693470597267150879e-01 5.519526481628417969e+00 1.946662068367004395e+00 -8.839083313941955566e-01
5.280000000000000000e+02 4.250699234008789062e+01 4.100038528442382812e+01 3.336020112037658691e-01 1.082900762557983398e+00 4.249508380889892578e-01 -8.029172569513320923e-02
5.290000000000000000e+02 4.446485137939453125e+01 3.718675613403320312e+01 3.216845095157623291e-01 1.357446193695068359e+00 5.037392377853393555e-01 -3.784378767013549805e-01
5.300000000000000000e+02 4.310914230346679688e+01 3.304632949829101562e+01 6.753345131874084473e-01 7.378095984458923340e-01 4.239432513713836670e-01 -6.539323329925537109e-01
5.310000000000000000e+02 4.179972457885742188e+01 3.422782135009765625e+01 7.065560221672058105e-01 5.348763465881347656e-01 3.724297285079956055e-01 -4.207742810249328613e-01
5.320000000000000000e+02 4.508172225952148438e+01 3.102815246582031250e+01 6.673534512519836426e-01 1.553070545196533203e+00 6.661272048950195312e-01 -8.771880269050598145e-01
5.330000000000000000e+02 4.602788162231445312e+01 2.901075553894042969e+01 4.131162762641906738e-01 2.155594825744628906e+00 7.706133127212524414e-01 -6.165215969085693359e-01
5.340000000000000000e+02 4.612292861938476562e+01 2.766292572021484375e+01 1.625925153493881226e-01 2.025837182998657227e+00 6.565289497375488281e-01 -2.188352346420288086e-01
5.350000000000000000e+02 3.853564834594726562e+01 3.446088027954101562e+01 6.052677035331726074e-01 1.662495583295822144e-01 2.314551770687103271e-01 1.817939430475234985e-01
5.360000000000000000e+02 3.588433456420898438e+01 3.323762893676757812e+01 3.820357918739318848e-01 4.291914999485015869e-01 2.433681935071945190e-01 2.386643290519714355e-01
5.370000000000000000e+02 3.741785812377929688e+01 3.369045639038085938e+01 4.662168920040130615e-01 3.259621858596801758e-01 2.376537173986434937e-01 3.084259629249572754e-01
5.380000000000000000e+02 4.004172897338867188e+01 3.490171432495117188e+01 7.537323236465454102e-01 3.651863336563110352e-01 3.356755971908569336e-01 -1.663072556257247925e-01
5.390000000000000000e+02 3.490640640258789062e+01 3.973499298095703125e+01 4.670009613037109375e-01 2.847100496292114258e-01 2.255133092403411865e-01 3.166597336530685425e-02
5.400000000000000000e+02 3.064522933959960938e+01 3.454989242553710938e+01 3.298518061637878418e-01 4.172006621956825256e-02 1.114715561270713806e-01 1.577115356922149658e-01
5.410000000000000000e+02 2.783525276184082031e+01 2.867742919921875000e+01 -5.005604028701782227e-02 -2.843949198722839355e-01 -1.003352850675582886e-01 3.100366592407226562e-01
5.420000000000000000e+02 2.901203536987304688e+01 2.965936851501464844e+01 2.337318062782287598e-01 -2.794916331768035889e-01 -1.372795272618532181e-02 2.918041348457336426e-01
5.430000000000000000e+02 2.877677917480468750e+01 2.781524467468261719e+01 -3.719650506973266602e-01 -3.693463206291198730e-01 -2.223934084177017212e-01 3.867078423500061035e-01
5.440000000000000000e+02 2.974052619934082031e+01 2.690726470947265625e+01 -4.812524616718292236e-01 -5.124852657318115234e-01 -2.981213331222534180e-01 4.632368683815002441e-01
5.450000000000000000e+02 3.064875221252441406e+01 2.589808845520019531e+01 -4.586811363697052002e-01 -6.813380718231201172e-01 -3.420057594776153564e-01 5.140817165374755859e-01
5.460000000000000000e+02 3.338141632080078125e+01 2.428211975097656250e+01 -2.573831975460052490e-01 4.752909764647483826e-02 -6.295622885227203369e-02 2.942578792572021484e-01
5.470000000000000000e+02 3.404158020019531250e+01 2.530328750610351562e+01 -2.043094784021377563e-01 2.383826375007629395e-01 1.022194977849721909e-02 2.028288096189498901e-01
5.480000000000000000e+02 3.525840759277343750e+01 2.656614303588867188e+01 8.237003348767757416e-03 6.411377787590026855e-01 1.948124319314956665e-01 -5.301079899072647095e-02
5.490000000000000000e+02 3.382362747192382812e+01 2.802648925781250000e+01 6.188608333468437195e-02 3.174849748611450195e-01 1.138113141059875488e-01 2.899055555462837219e-02
5.500000000000000000e+02 3.595954132080078125e+01 3.189708518981933594e+01 2.290991544723510742e-01 5.619110465049743652e-01 2.373030632734298706e-01 2.894457280635833740e-01
5.510000000000000000e+02 3.531244659423828125e+01 2.953307914733886719e+01 7.087232917547225952e-02 6.891875267028808594e-01 2.280179560184478760e-01 1.198440119624137878e-01
5.520000000000000000e+02 2.086273193359375000e+01 3.739982223510742188e+01 1.931801885366439819e-01 -1.824140399694442749e-01 3.229843918234109879e-03 3.774848207831382751e-02
5.530000000000000000e+02 2.581200981140136719e+01 2.938530158996582031e+01 5.344580411911010742e-01 3.749067187309265137e-01 2.728094458580017090e-01 5.252223610877990723e-01
5.540000000000000000e+02 2.401529502868652344e+01 3.074594688415527344e+01 4.149626940488815308e-03 3.570915162563323975e-01 1.083723381161689758e-01 1.771165281534194946e-01
5.550000000000000000e+02 2.440656280517578125e+01 2.914369583129882812e+01 5.396224856376647949e-01 6.397049427032470703e-01 3.537982404232025146e-01 4.558956027030944824e-01
5.560000000000000000e+02 2.837548828125000000e+01 3.079023551940917969e+01 2.498362064361572266e-01 -1.752587854862213135e-01 2.237322553992271423e-02 3.634076118469238281e-01
5.570000000000000000e+02 1.717206764221191406e+01 3.641250991821289062e+01 1.635688990354537964e-01 -2.281310558319091797e-01 -1.936864852905273438e-02 1.090578734874725342e-01
5.580000000000000000e+02 1.276254367828369141e+01 3.516972732543945312e+01 2.188804298639297485e-01 5.014138761907815933e-03 6.716836988925933838e-02 5.926010757684707642e-02
5.590000000000000000e+02 1.633064651489257812e+01 3.353980255126953125e+01 -1.413679569959640503e-01 -1.276877224445343018e-01 -8.071670681238174438e-02 1.191236674785614014e-01
5.600000000000000000e+02 1.843086814880371094e+01 3.210711288452148438e+01 -2.988469302654266357e-01 -5.034396052360534668e-01 -2.406859695911407471e-01 3.279799818992614746e-01
5.610000000000000000e+02 1.985121154785156250e+01 2.799194335937500000e+01 7.570952922105789185e-02 -4.834486544132232666e-01 -1.223217397928237915e-01 1.749198883771896362e-01
5.620000000000000000e+02 2.423285865783691406e+01 2.782807540893554688e+01 7.580856084823608398e-01 9.303768873214721680e-01 5.065387487411499023e-01 7.399209737777709961e-01
5.630000000000000000e+02 2.126198196411132812e+01 2.635774421691894531e+01 4.982772171497344971e-01 -5.712766572833061218e-02 1.323448717594146729e-01 5.875589251518249512e-01
5.640000000000000000e+02 1.984591293334960938e+01 2.405210685729980469e+01 5.852332115173339844e-01 -7.533164229243993759e-03 1.733100265264511108e-01 2.823376357555389404e-01
5.650000000000000000e+02 1.753314781188964844e+01 2.404029846191406250e+01 1.038139343261718750e+00 4.104437232017517090e-01 4.345749318599700928e-01 5.491347908973693848e-01
5.660000000000000000e+02 1.779358482360839844e+01 1.903182029724121094e+01 -3.314745128154754639e-01 -1.080236732959747314e-01 -1.318494528532028198e-01 1.492656022310256958e-01
5.670000000000000000e+02 1.482198238372802734e+01 1.852445411682128906e+01 -2.522216439247131348e-01 3.237724676728248596e-02 -6.595332175493240356e-02 2.338817566633224487e-01
5.680000000000000000e+02 1.635700416564941406e+01 1.940930175781250000e+01 -2.067435830831527710e-01 -8.466266095638275146e-02 -8.742187172174453735e-02 2.780305147171020508e-01
5.690000000000000000e+02 1.696088409423828125e+01 2.201162147521972656e+01 3.784284591674804688e-01 2.491296678781509399e-01 1.882674396038055420e-01 3.366212248802185059e-01
5.700000000000000000e+02 1.980382156372070312e+01 1.699374008178710938e+01 -3.521229326725006104e-01 -2.338438034057617188e-01 -1.757900267839431763e-01 2.072886824607849121e-01
5.710000000000000000e+02 2.271493721008300781e+01 1.839019584655761719e+01 -1.630003452301025391e-01 -2.716855704784393311e-01 -1.304057687520980835e-01 1.297772377729415894e-01
5.720000000000000000e+02 2.481212997436523438e+01 1.481324481964111328e+01 -3.158312141895294189e-01 -1.300102919340133667e-01 -1.337524503469467163e-01 7.597037404775619507e-02
5.730000000000000000e+02 2.019131469726562500e+01 1.002493286132812500e+01 1.658157259225845337e-01 6.054006889462471008e-02 6.790673732757568359e-02 1.583914458751678467e-01
5.740000000000000000e+02 2.022550392150878906e+01 8.745814323425292969e+00 3.368777930736541748e-01 6.011735275387763977e-02 1.190985441207885742e-01 2.125733196735382080e-01
5.750000000000000000e+02 1.909795570373535156e+01 8.288160324096679688e+00 4.275863170623779297e-01 2.596580982208251953e-01 2.061733305454254150e-01 3.257587552070617676e-01
5.760000000000000000e+02 1.797458839416503906e+01 7.486697196960449219e+00 4.968810975551605225e-01 2.699211537837982178e-01 2.300406694412231445e-01 3.543309569358825684e-01
5.770000000000000000e+02 1.941515159606933594e+01 3.288289070129394531e+00 -7.178548574447631836e-01 -1.083471328020095825e-01 -2.478605955839157104e-01 2.228773832321166992e-01
5.780000000000000000e+02 2.175607109069824219e+01 2.676202058792114258e+00 -8.429478406906127930e-01 -1.237702816724777222e-01 -2.900154292583465576e-01 2.548096179962158203e-01
5.790000000000000000e+02 2.554167556762695312e+01 1.674138188362121582e+00 -9.538920521736145020e-01 -3.976796194911003113e-02 -2.980979979038238525e-01 3.023352324962615967e-01
5.800000000000000000e+02 2.704659652709960938e+01 1.292096972465515137e+00 -1.021275758743286133e+00 7.142405211925506592e-02 -2.849555313587188721e-01 2.222729474306106567e-01
5.810000000000000000e+02 3.111959838867187500e+01 2.547474145889282227e+00 -7.388679981231689453e-01 2.310206890106201172e-01 -1.523541957139968872e-01 1.068337485194206238e-01
5.820000000000000000e+02 3.350459289550781250e+01 1.462938070297241211e+00 -2.662499904632568359e+00 -1.845087558031082153e-01 -8.541026115417480469e-01 -1.694951057434082031e-01
5.830000000000000000e+02 3.288870620727539062e+01 1.223480463027954102e+00 -2.053307294845581055e+00 5.016604810953140259e-02 -6.009423136711120605e-01 -1.436550021171569824e-01
5.840000000000000000e+02 1.006520557403564453e+01 3.598251724243164062e+01 3.478199243545532227e-01 9.860590100288391113e-02 1.339277476072311401e-01 1.428568065166473389e-01
5.850000000000000000e+02 4.432781696319580078e+00 4.049201965332031250e+01 -4.538424685597419739e-02 -5.733587741851806641e-01 -1.856229156255722046e-01 2.296285517513751984e-02
5.860000000000000000e+02 8.799873352050781250e+00 3.461132431030273438e+01 5.823133587837219238e-01 1.846726387739181519e-01 2.300957888364791870e-01 2.338473796844482422e-01
5.870000000000000000e+02 1.036706829071044922e+01 3.890402984619140625e+01 2.716606855392456055e-02 2.944967150688171387e-02 1.698472164571285248e-02 1.007146462798118591e-01
5.880000000000000000e+02 1.932594776153564453e+00 4.162337875366210938e+01 -7.946953922510147095e-02 -8.689225316047668457e-01 -2.845176160335540771e-01 -2.253517322242259979e-02
5.890000000000000000e+02 3.478512525558471680e+00 3.765095901489257812e+01 4.954573884606361389e-02 -6.962860822677612305e-01 -1.940221041440963745e-01 -3.468449926003813744e-03
5.900000000000000000e+02 7.888281941413879395e-01 3.349917602539062500e+01 2.438573352992534637e-02 -1.026992082595825195e+00 -3.007819056510925293e-01 4.062119126319885254e-02
5.910000000000000000e+02 2.368791341781616211e+00 3.385834884643554688e+01 5.196022614836692810e-02 -8.050806522369384766e-01 -2.259361296892166138e-01 8.434268832206726074e-02
5.920000000000000000e+02 7.768724441528320312e+00 3.363530349731445312e+01 3.747819662094116211e-01 2.494668811559677124e-01 1.872746646404266357e-01 2.865093946456909180e-01
5.930000000000000000e+02 7.005658149719238281e+00 3.247401428222656250e+01 1.553793549537658691e-01 1.651812046766281128e-01 9.616816788911819458e-02 1.529781371355056763e-01
5.940000000000000000e+02 5.997435569763183594e+00 3.001915168762207031e+01 1.431514415889978409e-02 -5.012082457542419434e-01 -1.460679322481155396e-01 -9.553339332342147827e-03
5.950000000000000000e+02 5.659245491027832031e+00 2.880394935607910156e+01 -4.165109246969223022e-02 -8.313353657722473145e-01 -2.618959546089172363e-01 7.742635160684585571e-02
5.960000000000000000e+02 3.578523159027099609e+00 2.610780906677246094e+01 -1.503929197788238525e-01 -5.861972570419311523e-01 -2.209770530462265015e-01 1.164909675717353821e-01
5.970000000000000000e+02 5.771442055702209473e-01 2.470853233337402344e+01 -1.007921993732452393e-03 -3.256118297576904297e-01 -9.798593074083328247e-02 -4.774225410073995590e-03
5.980000000000000000e+02 1.655225634574890137e+00 2.317041778564453125e+01 -1.309257745742797852e-02 -4.119263291358947754e-01 -1.275056749582290649e-01 -3.905133903026580811e-02
5.990000000000000000e+02 2.195517063140869141e+00 1.750448608398437500e+01 4.495102912187576294e-02 -4.001947641372680664e-01 -1.065731197595596313e-01 3.809441998600959778e-02
6.000000000000000000e+02 1.682430982589721680e+00 1.171065998077392578e+01 -9.067580103874206543e-03 -1.517926454544067383e-01 -4.825806617736816406e-02 1.199988350272178650e-01
6.010000000000000000e+02 1.752581477165222168e+00 3.801531553268432617e+00 -4.745720420032739639e-03 3.670875728130340576e-02 9.588910266757011414e-03 -3.201726078987121582e-02
6.020000000000000000e+02 1.010047912597656250e+01 1.940089225769042969e+00 4.064082726836204529e-02 -3.712048381567001343e-02 1.056102104485034943e-03 2.512889914214611053e-02
6.030000000000000000e+02 1.252686977386474609e+01 7.428658485412597656e+00 -8.034346103668212891e-01 -5.003311634063720703e-01 -3.911297321319580078e-01 5.396657586097717285e-01
6.040000000000000000e+02 1.078846645355224609e+01 2.071207523345947266e+00 8.214393630623817444e-03 -3.491538390517234802e-02 -8.010297082364559174e-03 4.972715675830841064e-02
6.050000000000000000e+02 1.148160076141357422e+01 2.232911825180053711e+00 -3.048674203455448151e-02 -3.974299877882003784e-02 -2.106892131268978119e-02 7.527049630880355835e-02
6.060000000000000000e+02 1.368200016021728516e+01 2.813321113586425781e+00 -2.469569444656372070e-01 -1.344780530780553818e-02 -7.812142372131347656e-02 2.418770045042037964e-01
6.070000000000000000e+02 1.691777229309082031e+01 3.223073959350585938e+00 -6.253852844238281250e-01 2.885147184133529663e-02 -1.789601445198059082e-01 3.429968357086181641e-01
6.080000000000000000e+02 1.773972511291503906e+01 3.288686990737915039e+00 -6.674801707267761230e-01 -1.142951194196939468e-02 -2.036729156970977783e-01 3.154643774032592773e-01
6.090000000000000000e+02 3.396645355224609375e+01 1.733963847160339355e+00 -4.062355041503906250e+00 -4.621082246303558350e-01 -1.357338905334472656e+00 8.122501969337463379e-01
6.100000000000000000e+02 2.899235916137695312e+01 6.644956588745117188e+00 1.747266948223114014e-01 1.158189773559570312e+00 3.998749256134033203e-01 -7.380336523056030273e-02
6.110000000000000000e+02 2.861709976196289062e+01 9.256508827209472656e+00 3.318032920360565186e-01 8.970174193382263184e-01 3.686462044715881348e-01 2.938961386680603027e-01
6.120000000000000000e+02 3.031494522094726562e+01 1.087131309509277344e+01 3.861626684665679932e-01 9.409347176551818848e-01 3.981292247772216797e-01 5.660083293914794922e-01
6.130000000000000000e+02 2.945719909667968750e+01 1.186723327636718750e+01 -2.249477431178092957e-02 7.609885334968566895e-01 2.215481400489807129e-01 3.200214505195617676e-01
6.140000000000000000e+02 3.008388900756835938e+01 1.542000007629394531e+01 3.517275452613830566e-01 5.590679645538330078e-01 2.732386589050292969e-01 6.020147800445556641e-01
6.150000000000000000e+02 3.101817321777343750e+01 1.446291828155517578e+01 -2.700622677803039551e-01 9.014154672622680664e-01 1.894059628248214722e-01 5.324758887290954590e-01
6.160000000000000000e+02 2.888120079040527344e+01 1.493010997772216797e+01 -1.857520341873168945e-01 2.477998435497283936e-01 1.861434429883956909e-02 3.233635425567626953e-01
6.170000000000000000e+02 2.669600105285644531e+01 1.513323783874511719e+01 -5.673578977584838867e-01 -1.244048029184341431e-01 -2.075288146734237671e-01 1.787839829921722412e-01
6.180000000000000000e+02 2.455543708801269531e+01 1.660556983947753906e+01 -3.441563546657562256e-01 -2.336814403533935547e-01 -1.733513325452804565e-01 2.354857772588729858e-01
6.190000000000000000e+02 2.204217529296875000e+01 1.703736686706542969e+01 -2.677880823612213135e-01 -1.554097235202789307e-01 -1.269593536853790283e-01 1.321580111980438232e-01
6.200000000000000000e+02 2.361192321777343750e+01 1.748652076721191406e+01 -2.189753204584121704e-01 -1.790619194507598877e-01 -1.194111704826354980e-01 2.167575806379318237e-01
6.210000000000000000e+02 1.868075370788574219e+01 1.720832252502441406e+01 -4.752120971679687500e-01 -2.445576637983322144e-01 -2.159309238195419312e-01 2.951026260852813721e-01
6.220000000000000000e+02 2.205682373046875000e+01 2.050101470947265625e+01 -2.291422337293624878e-02 -3.606018126010894775e-01 -1.150548085570335388e-01 1.084446348249912262e-02
6.230000000000000000e+02 2.367161369323730469e+01 2.676555824279785156e+01 4.310185015201568604e-01 9.017806649208068848e-01 3.998397588729858398e-01 6.457908153533935547e-01
6.240000000000000000e+02 2.313598251342773438e+01 2.559444808959960938e+01 2.769680321216583252e-01 4.504386484622955322e-01 2.182220071554183960e-01 3.782203495502471924e-01
6.250000000000000000e+02 3.298032760620117188e+01 1.245143413543701172e+01 -5.552989244461059570e-01 3.026860207319259644e-02 -1.575090885162353516e-01 1.874076426029205322e-01
6.260000000000000000e+02 3.823800277709960938e+01 3.273839712142944336e+00 1.780726552009582520e+00 1.696006894111633301e+00 1.043020009994506836e+00 1.633302807807922363e+00
6.270000000000000000e+02 6.070046615600585938e+01 1.199579620361328125e+01 1.261993646621704102e+00 1.092503356933593750e+01 3.656108140945434570e+00 -1.969297766685485840e+00
6.280000000000000000e+02 5.675131607055664062e+01 1.275682163238525391e+01 1.581034421920776367e+00 4.668056964874267578e+00 1.874727487564086914e+00 -1.188650727272033691e+00
6.290000000000000000e+02 6.067822265625000000e+01 1.331133460998535156e+01 2.635155320167541504e-01 1.013036918640136719e+01 3.118165493011474609e+00 -5.150840282440185547e-01
6.300000000000000000e+02 6.098521804809570312e+01 1.603613090515136719e+01 8.634083271026611328e-01 8.670449256896972656e+00 2.860157251358032227e+00 1.732394576072692871e+00
6.310000000000000000e+02 5.280786895751953125e+01 1.603792762756347656e+01 2.031513929367065430e+00 2.963557958602905273e+00 1.498521566390991211e+00 -2.326503753662109375e+00
6.320000000000000000e+02 5.374460220336914062e+01 1.501776313781738281e+01 1.854003071784973145e+00 3.811693906784057617e+00 1.699709177017211914e+00 -2.373461008071899414e+00
6.330000000000000000e+02 5.741585159301757812e+01 2.201005220413208008e+00 -7.224543690681457520e-01 2.176239728927612305e+00 4.361355900764465332e-01 -1.844270110130310059e+00
6.340000000000000000e+02 5.850807952880859375e+01 9.922904968261718750e-01 -2.615298843011260033e-03 2.765682935714721680e+00 8.289202451705932617e-01 -2.301846504211425781e+00
6.350000000000000000e+02 6.019683837890625000e+01 -1.897841453552246094e+00 2.319337844848632812e+00 1.179406404495239258e+00 1.049623250961303711e+00 -2.015711545944213867e+00
6.360000000000000000e+02 6.360193634033203125e+01 -5.081350326538085938e+00 -6.189639493823051453e-02 1.840004348754882812e+01 5.501444339752197266e+00 -1.274946928024291992e+00
6.370000000000000000e+02 5.558386993408203125e+01 -2.077835845947265625e+01 1.766117364168167114e-01 3.940592288970947266e+00 1.235161185264587402e+00 6.578770875930786133e-01
6.380000000000000000e+02 5.723206329345703125e+01 -2.520412445068359375e+01 1.672799140214920044e-02 4.000520706176757812e+00 1.205174684524536133e+00 1.592477440834045410e+00
6.390000000000000000e+02 5.307318878173828125e+01 -2.583094978332519531e+01 6.679891794919967651e-02 1.619374394416809082e+00 5.058519840240478516e-01 1.055443763732910156e+00
6.400000000000000000e+02 4.681433105468750000e+01 -2.852384376525878906e+01 7.132250070571899414e-01 4.927643537521362305e-01 3.617967963218688965e-01 -5.699020624160766602e-01
6.410000000000000000e+02 4.937163543701171875e+01 -2.539365196228027344e+01 -2.205687761306762695e-01 5.390264391899108887e-01 9.553730487823486328e-02 -4.487043917179107666e-01
6.420000000000000000e+02 4.879342269897460938e+01 -2.430852127075195312e+01 4.392401874065399170e-02 5.074858665466308594e-01 1.654229611158370972e-01 -3.283286392688751221e-01
6.430000000000000000e+02 4.373427581787109375e+01 -2.281354904174804688e+01 3.924458026885986328e-01 8.049746751785278320e-01 3.592261672019958496e-01 2.377624623477458954e-02
6.440000000000000000e+02 4.695971679687500000e+01 -2.211690139770507812e+01 4.731044173240661621e-01 1.679152250289916992e+00 6.456770300865173340e-01 -4.768216609954833984e-01
6.450000000000000000e+02 4.491052246093750000e+01 -2.782663345336914062e+01 4.857662320137023926e-01 1.985396444797515869e-01 2.052917629480361938e-01 -2.525508999824523926e-01
6.460000000000000000e+02 4.603360748291015625e+01 -2.748368835449218750e+01 4.964750409126281738e-01 4.956835210323333740e-01 2.976475656032562256e-01 -4.746348261833190918e-01
6.470000000000000000e+02 4.788927459716796875e+01 -2.936303520202636719e+01 8.031820654869079590e-01 6.983225345611572266e-01 4.504513740539550781e-01 -6.895022988319396973e-01
6.480000000000000000e+02 4.882969665527343750e+01 -3.041727828979492188e+01 7.283870577812194824e-01 1.256229519844055176e+00 5.953849554061889648e-01 -6.228067874908447266e-01
6.490000000000000000e+02 4.939689254760742188e+01 -3.167912101745605469e+01 2.871611714363098145e-01 2.143372297286987305e+00 7.291600704193115234e-01 -2.976846694946289062e-01
6.500000000000000000e+02 4.969451522827148438e+01 -3.301549911499023438e+01 4.944444596767425537e-01 3.121042490005493164e+00 1.084646105766296387e+00 5.537039041519165039e-01
6.510000000000000000e+02 5.052371978759765625e+01 -3.470629119873046875e+01 1.002130508422851562e+00 3.115279912948608398e+00 1.235223174095153809e+00 1.067021846771240234e+00
6.520000000000000000e+02 4.827128982543945312e+01 -3.639886856079101562e+01 1.036444664001464844e+00 2.006808996200561523e+00 9.129761457443237305e-01 1.333580493927001953e+00
6.530000000000000000e+02 4.661611557006835938e+01 -2.068246269226074219e+01 3.184680938720703125e-01 2.117172956466674805e+00 7.306923270225524902e-01 -1.617338508367538452e-02
6.540000000000000000e+02 4.605360412597656250e+01 -1.668570709228515625e+01 -5.083357915282249451e-02 9.594801068305969238e-01 2.725939452648162842e-01 1.579149514436721802e-01
6.550000000000000000e+02 3.979119491577148438e+01 -1.620748329162597656e+01 -2.665912806987762451e-01 5.622898340225219727e-01 8.870956301689147949e-02 -4.476189613342285156e-01
6.560000000000000000e+02 4.744432067871093750e+01 -1.669845962524414062e+01 2.299787253141403198e-01 1.245414495468139648e+00 4.426179826259613037e-01 5.543702244758605957e-01
6.570000000000000000e+02 4.882586669921875000e+01 -1.660402488708496094e+01 2.692093849182128906e-01 6.419922709465026855e-01 2.733604907989501953e-01 4.498487412929534912e-01
6.580000000000000000e+02 4.999198532104492188e+01 -1.619575500488281250e+01 -2.394987046718597412e-01 5.771637707948684692e-02 -5.453469976782798767e-02 1.602330058813095093e-01
6.590000000000000000e+02 6.108649063110351562e+01 -2.644982528686523438e+01 -3.628432750701904297e+00 -4.905250668525695801e-02 -1.103245615959167480e+00 6.461988091468811035e-01
6.600000000000000000e+02 6.427081298828125000e+01 -2.233031845092773438e+01 2.410527944564819336e+00 9.459786415100097656e+00 3.561094284057617188e+00 -1.942303419113159180e+00
6.610000000000000000e+02 4.535665893554687500e+01 -1.299602031707763672e+01 -1.542388081550598145e+00 3.114219382405281067e-02 -4.533737599849700928e-01 -3.625586032867431641e-01
6.620000000000000000e+02 4.280313110351562500e+01 -1.374107646942138672e+01 -2.275532722473144531e+00 -1.955833286046981812e-01 -7.413348555564880371e-01 -1.929727643728256226e-01
6.630000000000000000e+02 4.059566879272460938e+01 -1.962246513366699219e+01 4.367905557155609131e-01 4.371162652969360352e-01 2.621720433235168457e-01 -4.308994710445404053e-01
6.640000000000000000e+02 4.166336441040039062e+01 -1.428478050231933594e+01 -1.467689275741577148e+00 -1.133719682693481445e-01 -4.743183553218841553e-01 -2.301585227251052856e-01
6.650000000000000000e+02 4.078010559082031250e+01 -1.337829303741455078e+01 -1.336565494537353516e+00 6.158903986215591431e-02 -3.824929594993591309e-01 6.547851115465164185e-02
6.660000000000000000e+02 3.750038146972656250e+01 -1.197632884979248047e+01 -4.332971274852752686e-01 1.046614527702331543e+00 1.839952319860458374e-01 -1.727810502052307129e-01
6.670000000000000000e+02 3.710435104370117188e+01 -7.839884281158447266e+00 1.438721418380737305e-01 1.618029475212097168e+00 5.285704731941223145e-01 -1.196927726268768311e-01
6.680000000000000000e+02 3.835210037231445312e+01 -5.141323566436767578e+00 -3.882830739021301270e-01 7.784944027662277222e-02 -9.313008934259414673e-02 -1.213109791278839111e-01
6.690000000000000000e+02 3.522654342651367188e+01 -2.757081985473632812e+00 -6.876103281974792480e-01 1.587588787078857422e-01 -1.586554348468780518e-01 -1.631116867065429688e-01
6.700000000000000000e+02 1.678363609313964844e+01 -1.936406517028808594e+01 -2.866166234016418457e-01 -2.306551784276962280e-01 -1.551815420389175415e-01 -4.659889042377471924e-01
6.710000000000000000e+02 1.612379837036132812e+01 -1.815286064147949219e+01 -1.002554595470428467e-01 -9.635434299707412720e-02 -5.898294225335121155e-02 -2.825945019721984863e-01
6.720000000000000000e+02 1.677760696411132812e+01 -2.134014511108398438e+01 -3.862907886505126953e-01 -1.624555736780166626e-01 -1.646239161491394043e-01 -3.603717088699340820e-01
6.730000000000000000e+02 1.860769081115722656e+01 -2.661595153808593750e+01 6.325947046279907227e-01 1.045220065861940384e-02 1.929140686988830566e-01 -3.382903337478637695e-02
6.740000000000000000e+02 1.494675827026367188e+01 -2.859377479553222656e+01 -2.548193633556365967e-01 -5.548934340476989746e-01 -2.429138273000717163e-01 -3.647833466529846191e-01
6.750000000000000000e+02 1.412153148651123047e+01 -2.983129501342773438e+01 -2.620802223682403564e-01 -6.878986954689025879e-01 -2.849936783313751221e-01 -3.971866369247436523e-01
6.760000000000000000e+02 1.170098495483398438e+01 -2.292511558532714844e+01 -1.245580613613128662e-01 -1.647253185510635376e-01 -8.678501844406127930e-02 -1.942525058984756470e-01
6.770000000000000000e+02 1.039214134216308594e+01 -2.307332992553710938e+01 1.267339438199996948e-01 -2.175848744809627533e-02 3.149263560771942139e-02 -7.028026878833770752e-02
6.780000000000000000e+02 1.147801685333251953e+01 -2.443710327148437500e+01 1.908673904836177826e-02 -2.607371509075164795e-01 -7.249512523412704468e-02 -2.943796813488006592e-01
6.790000000000000000e+02 1.027513504028320312e+01 -3.310209655761718750e+01 -1.273272186517715454e-01 -3.076761662960052490e-01 -1.305010169744491577e-01 -2.454934567213058472e-01
6.800000000000000000e+02 1.242711925506591797e+01 -3.066988754272460938e+01 -2.184887975454330444e-01 -5.191926956176757812e-01 -2.213044464588165283e-01 -2.502672374248504639e-01
6.810000000000000000e+02 4.755509567260742188e+01 1.877581787109375000e+01 -5.939109325408935547e-01 -1.370162330567836761e-02 -1.822837591171264648e-01 -2.092329710721969604e-01
6.820000000000000000e+02 5.074682617187500000e+01 1.793409729003906250e+01 1.442773580551147461e+00 1.765497922897338867e+00 9.624814391136169434e-01 -1.498806118965148926e+00
6.830000000000000000e+02 5.512124633789062500e+01 1.880238151550292969e+01 4.183212816715240479e-01 3.056747436523437500e+00 1.042520642280578613e+00 -1.799223065376281738e+00
6.840000000000000000e+02 5.555128860473632812e+01 1.535685825347900391e+01 1.825513124465942383e+00 3.656033277511596680e+00 1.644463896751403809e+00 -1.562180876731872559e+00
6.850000000000000000e+02 5.499677658081054688e+01 1.046112155914306641e+01 1.468568444252014160e-01 3.481442451477050781e+00 1.088489770889282227e+00 -8.817525953054428101e-02
6.860000000000000000e+02 5.443677139282226562e+01 7.745371818542480469e+00 5.522956140339374542e-03 2.024671792984008789e+00 6.090584397315979004e-01 3.294382095336914062e-01
6.870000000000000000e+02 5.676916503906250000e+01 1.834810495376586914e+00 -7.876921296119689941e-01 1.390350222587585449e+00 1.807974278926849365e-01 -1.455753803253173828e+00
6.880000000000000000e+02 5.481189727783203125e+01 1.919436335563659668e+00 -1.252531409263610840e+00 3.269551396369934082e-01 -2.776728868484497070e-01 -4.816288650035858154e-01
6.890000000000000000e+02 5.412946319580078125e+01 1.975328207015991211e+00 -1.282842636108398438e+00 1.169021725654602051e-01 -3.497821390628814697e-01 -2.366273999214172363e-01
6.900000000000000000e+02 5.185771942138671875e+01 1.878381490707397461e+00 -1.406954407691955566e+00 -8.074080199003219604e-02 -4.463085532188415527e-01 1.275996267795562744e-01
6.910000000000000000e+02 4.455577850341796875e+01 1.245866775512695312e+01 9.592532366514205933e-02 1.746418118476867676e+00 5.527030229568481445e-01 -1.314563602209091187e-01
6.920000000000000000e+02 4.451639556884765625e+01 1.633441352844238281e+01 5.142669659107923508e-03 8.056172132492065430e-01 2.432279586791992188e-01 5.430229753255844116e-02
6.930000000000000000e+02 4.226591110229492188e+01 2.173535537719726562e+01 6.853613257408142090e-01 2.411724030971527100e-01 2.779601216316223145e-01 2.746818363666534424e-01
6.940000000000000000e+02 4.562587738037109375e+01 2.050353240966796875e+01 1.232285052537918091e-01 7.193697690963745117e-01 2.527794837951660156e-01 2.268366664648056030e-01
6.950000000000000000e+02 1.662959671020507812e+01 6.932249069213867188e+00 2.990726530551910400e-01 1.527863889932632446e-01 1.355577111244201660e-01 2.499028146266937256e-01
6.960000000000000000e+02 1.051459980010986328e+01 9.115921974182128906e+00 -4.376406073570251465e-01 -5.658497810363769531e-01 -3.010471165180206299e-01 4.328085184097290039e-01
6.970000000000000000e+02 9.534669876098632812e+00 1.094435501098632812e+01 -1.799089610576629639e-01 -5.278635621070861816e-01 -2.123317569494247437e-01 2.634329497814178467e-01
6.980000000000000000e+02 9.469562530517578125e+00 1.351986312866210938e+01 9.267406910657882690e-02 1.117063090205192566e-01 6.131411343812942505e-02 1.790929287672042847e-01
6.990000000000000000e+02 9.462070465087890625e+00 1.224805259704589844e+01 -1.721060834825038910e-02 -2.265227437019348145e-01 -7.312000542879104614e-02 1.109761595726013184e-01
7.000000000000000000e+02 7.660341739654541016e+00 1.408980369567871094e+01 1.712274998426437378e-01 -1.807444691658020020e-01 -2.855090890079736710e-03 3.073098063468933105e-01
7.010000000000000000e+02 5.456818580627441406e+00 1.711697578430175781e+01 1.940409094095230103e-01 -3.238114416599273682e-01 -3.893115743994712830e-02 1.237309202551841736e-01
7.020000000000000000e+02 1.095107746124267578e+01 1.663716125488281250e+01 5.376113653182983398e-01 5.323281884193420410e-01 3.209818601608276367e-01 4.869701266288757324e-01
7.030000000000000000e+02 1.204327297210693359e+01 1.760396766662597656e+01 5.815469622611999512e-01 4.259663522243499756e-01 3.022539913654327393e-01 4.752605855464935303e-01
7.040000000000000000e+02 3.159497451782226562e+01 -1.581360816955566406e+01 -3.431755006313323975e-01 -6.260818243026733398e-02 -1.217351034283638000e-01 -1.408843845129013062e-01
7.050000000000000000e+02 3.273594284057617188e+01 -1.521171665191650391e+01 -7.611467242240905762e-01 -1.148836091160774231e-01 -2.628090977668762207e-01 -1.157152429223060608e-01
7.060000000000000000e+02 2.485671424865722656e+01 -1.596762561798095703e+01 -5.208819508552551270e-01 -3.888244330883026123e-01 -2.729119062423706055e-01 -4.228468835353851318e-01
7.070000000000000000e+02 3.393178558349609375e+01 -1.480376911163330078e+01 -1.096960544586181641e+00 -6.545531004667282104e-02 -3.487247526645660400e-01 3.018464427441358566e-03
7.080000000000000000e+02 3.806389999389648438e+01 -1.083929538726806641e+01 3.945268094539642334e-01 1.346160769462585449e+00 5.222063064575195312e-01 -6.158041954040527344e-01
7.090000000000000000e+02 3.790252304077148438e+01 -1.476892948150634766e+01 -8.021243810653686523e-01 1.014880418777465820e+00 6.382682919502258301e-02 -3.384821116924285889e-01
7.100000000000000000e+02 3.791984939575195312e+01 -1.684180068969726562e+01 1.829131841659545898e-01 9.612338542938232422e-01 3.432441353797912598e-01 -5.294155478477478027e-01
7.110000000000000000e+02 4.209867095947265625e+01 -2.444104957580566406e+01 2.415361106395721436e-01 6.416649222373962402e-01 2.649603188037872314e-01 1.059980392456054688e-01
7.120000000000000000e+02 4.594027328491210938e+01 -1.784157752990722656e+01 3.410993218421936035e-01 9.769962430000305176e-01 3.954286575317382812e-01 2.082648575305938721e-01
7.130000000000000000e+02 3.905811691284179688e+01 -1.741640281677246094e+01 1.900889575481414795e-01 7.457414269447326660e-01 2.807491123676300049e-01 -5.000975728034973145e-01
7.140000000000000000e+02 3.984062194824218750e+01 -2.232514953613281250e+01 5.534228682518005371e-02 4.508146941661834717e-01 1.518470942974090576e-01 -6.841668486595153809e-02
7.150000000000000000e+02 4.123620605468750000e+01 -2.776923751831054688e+01 5.117420554161071777e-01 6.360661983489990234e-01 3.443424701690673828e-01 4.376994669437408447e-01
7.160000000000000000e+02 3.991654205322265625e+01 -2.773608207702636719e+01 3.002100884914398193e-01 6.357564330101013184e-01 2.807899713516235352e-01 3.332934975624084473e-01
7.170000000000000000e+02 3.730973434448242188e+01 -2.838011550903320312e+01 2.473861873149871826e-01 1.780945956707000732e-01 1.276442408561706543e-01 1.119453161954879761e-01
7.180000000000000000e+02 3.356085586547851562e+01 -2.912728118896484375e+01 5.418723225593566895e-01 2.869949638843536377e-01 2.486601769924163818e-01 -2.747964560985565186e-01
7.190000000000000000e+02 1.476401519775390625e+01 -2.123183059692382812e+01 -6.550599336624145508e-01 -6.403837203979492188e-01 -3.886330723762512207e-01 -5.742009878158569336e-01
7.200000000000000000e+02 1.995506477355957031e+01 -2.663445663452148438e+01 9.724868535995483398e-01 2.178711146116256714e-01 3.571074008941650391e-01 -3.151915073394775391e-01
7.210000000000000000e+02 1.572250175476074219e+01 2.320857238769531250e+01 9.456066489219665527e-01 2.279477715492248535e-01 3.520663082599639893e-01 4.418210089206695557e-01
7.220000000000000000e+02 1.168864345550537109e+01 2.263681221008300781e+01 -1.041788086295127869e-01 3.843686729669570923e-02 -1.972258277237415314e-02 1.289165019989013672e-01
7.230000000000000000e+02 8.971254348754882812e+00 2.226867103576660156e+01 -2.948991060256958008e-01 -2.410352230072021484e-01 -1.607802957296371460e-01 1.893775314092636108e-01
7.240000000000000000e+02 7.400596618652343750e+00 2.445729637145996094e+01 -3.530585765838623047e-01 -4.928907752037048340e-01 -2.537848055362701416e-01 3.980068266391754150e-01
7.250000000000000000e+02 1.937586069107055664e+00 2.569290351867675781e+01 -5.098523944616317749e-02 -4.705438911914825439e-01 -1.564587354660034180e-01 4.701366275548934937e-02
7.260000000000000000e+02 6.501715850830078125e+01 2.015657997131347656e+01 -4.863786220550537109e+00 7.540921121835708618e-02 -1.436513185501098633e+00 9.294096380472183228e-02
7.270000000000000000e+02 6.365445709228515625e+01 2.473111915588378906e+01 3.409583568572998047e-01 4.306900978088378906e+00 1.394357800483703613e+00 1.051032066345214844e+00
7.280000000000000000e+02 6.369769668579101562e+01 1.988713645935058594e+01 -1.792015671730041504e+00 1.625104188919067383e+00 -5.007344856858253479e-02 1.247653722763061523e+00
7.290000000000000000e+02 6.077964019775390625e+01 1.981480407714843750e+01 -6.445820331573486328e-01 4.339579105377197266e+00 1.108499050140380859e+00 1.376285910606384277e+00
7.300000000000000000e+02 5.456299209594726562e+01 1.608981132507324219e+01 1.571550011634826660e+00 3.393227338790893555e+00 1.489433288574218750e+00 -1.749750375747680664e+00
7.310000000000000000e+02 6.632436370849609375e+01 2.027001762390136719e+01 -5.851416587829589844e+00 -4.431027472019195557e-01 -1.888355731964111328e+00 5.270346999168395996e-01
7.320000000000000000e+02 6.829124450683593750e+01 1.952883529663085938e+01 -2.999845027923583984e+00 2.080623656511306763e-01 -8.375347852706909180e-01 5.375106930732727051e-01
7.330000000000000000e+02 6.919483947753906250e+01 1.856650161743164062e+01 -6.578121781349182129e-01 1.232663750648498535e+00 1.724554896354675293e-01 -1.717877089977264404e-01
7.340000000000000000e+02 6.952037811279296875e+01 2.041910552978515625e+01 -2.225107669830322266e+00 3.455764055252075195e+00 3.691968917846679688e-01 -1.345738172531127930e+00
7.350000000000000000e+02 6.888775634765625000e+01 2.153636741638183594e+01 -1.419864296913146973e+00 2.589996576309204102e+00 3.510396778583526611e-01 -1.427183151245117188e+00
7.360000000000000000e+02 5.979687500000000000e+01 5.126792192459106445e-01 9.720011353492736816e-01 3.802721023559570312e+00 1.432416677474975586e+00 -2.945527076721191406e+00
7.370000000000000000e+02 6.329536056518554688e+01 8.339920997619628906e+00 8.806303739547729492e-01 2.388325929641723633e+00 9.806869029998779297e-01 -1.290297985076904297e+00
7.380000000000000000e+02 6.145824432373046875e+01 1.007619667053222656e+01 2.445536136627197266e+00 8.503809928894042969e+00 3.284803867340087891e+00 -3.559092998504638672e+00
7.390000000000000000e+02 3.175275802612304688e+01 2.326753997802734375e+01 -9.850721061229705811e-02 -3.996397256851196289e-01 -1.494440734386444092e-01 2.054301947355270386e-01
7.400000000000000000e+02 3.171299171447753906e+01 2.061924934387207031e+01 3.550637513399124146e-02 1.588794589042663574e-01 5.831575021147727966e-02 8.828274905681610107e-02
7.410000000000000000e+02 3.810307312011718750e+01 2.170133209228515625e+01 1.482102572917938232e-01 -1.237232908606529236e-01 7.346088066697120667e-03 1.139873191714286804e-01
7.420000000000000000e+02 3.669789505004882812e+01 2.405654907226562500e+01 -9.899844229221343994e-02 -7.631502579897642136e-03 -3.198898211121559143e-02 7.749760150909423828e-02
7.430000000000000000e+02 5.320292663574218750e+01 3.241284942626953125e+01 6.146573424339294434e-01 4.194093227386474609e+00 1.442625164985656738e+00 3.904790580272674561e-01
7.440000000000000000e+02 6.247408676147460938e+01 -4.974599361419677734e+00 -7.923300862312316895e-01 1.513355350494384766e+01 4.302367210388183594e+00 2.939450263977050781e+00
7.450000000000000000e+02 3.788843154907226562e+01 -3.604909896850585938e+01 3.064932525157928467e-01 6.776975989341735840e-01 2.952572703361511230e-01 -1.129323691129684448e-01
7.460000000000000000e+02 2.889834213256835938e+01 -3.895317840576171875e+01 3.202943205833435059e-01 -4.331965371966362000e-02 8.309239894151687622e-02 8.970512449741363525e-02
7.470000000000000000e+02 3.913902282714843750e+01 -3.416062927246093750e+01 2.677115499973297119e-01 1.242880821228027344e+00 4.531777203083038330e-01 -2.386475205421447754e-01
7.480000000000000000e+02 3.907334136962890625e+01 -3.218467712402343750e+01 1.940926015377044678e-01 1.199358701705932617e+00 4.180353879928588867e-01 1.903369873762130737e-01
7.490000000000000000e+02 3.606769561767578125e+01 -2.951069068908691406e+01 5.387360453605651855e-01 1.815354079008102417e-01 2.160814404487609863e-01 -1.033650115132331848e-01
7.500000000000000000e+02 3.959417343139648438e+01 -3.100735282897949219e+01 2.869703173637390137e-01 1.095967888832092285e+00 4.148814678192138672e-01 4.666422903537750244e-01
7.510000000000000000e+02 3.781592559814453125e+01 -2.732233047485351562e+01 1.472972333431243896e-01 1.550107300281524658e-01 9.069238603115081787e-02 1.433190703392028809e-01
7.520000000000000000e+02 4.022874832153320312e+01 -2.989676666259765625e+01 4.697118401527404785e-01 9.944583773612976074e-01 4.392510652542114258e-01 6.160907745361328125e-01
7.530000000000000000e+02 4.121117401123046875e+01 -2.518311500549316406e+01 2.103024870157241821e-01 5.732197761535644531e-01 2.350566685199737549e-01 1.936475932598114014e-01
7.540000000000000000e+02 4.037381362915039062e+01 -2.449788284301757812e+01 1.417253166437149048e-01 5.544634461402893066e-01 2.088566273450851440e-01 1.307137608528137207e-01
7.550000000000000000e+02 5.127838897705078125e+01 -2.789287757873535156e+01 6.503702998161315918e-01 1.599971294403076172e+00 6.751024723052978516e-01 6.140163540840148926e-02
7.560000000000000000e+02 5.054477310180664062e+01 -2.655093193054199219e+01 4.604528844356536865e-01 6.413345932960510254e-01 3.305362462997436523e-01 -3.504696786403656006e-01
7.570000000000000000e+02 7.052323150634765625e+01 -6.206821799278259277e-01 2.270901441574096680e+00 4.126849770545959473e-01 8.050758838653564453e-01 8.595718741416931152e-01
7.580000000000000000e+02 6.780705261230468750e+01 6.924455165863037109e+00 -4.866413593292236328e+00 9.466728568077087402e-02 -1.431523799896240234e+00 3.561409935355186462e-02
7.590000000000000000e+02 3.049357795715332031e+01 -1.123073482513427734e+01 -5.927378535270690918e-01 -7.246363162994384766e-01 -3.952122628688812256e-01 -2.419564574956893921e-01
7.600000000000000000e+02 3.175937843322753906e+01 -1.109379673004150391e+01 -5.019710659980773926e-01 -3.952203094959259033e-01 -2.691574096679687500e-01 -1.451298147439956665e-01
7.610000000000000000e+02 3.892724990844726562e+01 -1.168784809112548828e+01 9.793357551097869873e-02 6.118746995925903320e-01 2.129424959421157837e-01 -4.433071017265319824e-01
7.620000000000000000e+02 5.253934860229492188e+01 -7.720425605773925781e+00 -1.055763125419616699e+00 -1.317528486251831055e+00 -7.119874954223632812e-01 8.763084411621093750e-01
7.630000000000000000e+02 2.824019432067871094e+01 -2.342714309692382812e+01 1.704145669937133789e-01 2.331192605197429657e-02 5.811794847249984741e-02 -1.617812365293502808e-01
7.640000000000000000e+02 4.038762283325195312e+01 -3.656398391723632812e+01 3.742433190345764160e-01 5.499703884124755859e-01 2.772641181945800781e-01 -3.732940554618835449e-01
7.650000000000000000e+02 6.589674377441406250e+01 -3.165175056457519531e+01 6.426256895065307617e-01 8.612591743469238281e+00 2.776565313339233398e+00 -1.406996965408325195e+00
7.660000000000000000e+02 6.895227813720703125e+01 7.383505344390869141e+00 -2.053138256072998047e+00 7.849310040473937988e-01 -3.804621398448944092e-01 4.475299417972564697e-01
7.670000000000000000e+02 4.961557388305664062e+01 1.870968246459960938e+01 3.694590926170349121e-01 8.684793710708618164e-01 3.713815510272979736e-01 -9.302492141723632812e-01
7.680000000000000000e+02 4.484172439575195312e+01 1.505879211425781250e+01 3.362372145056724548e-02 1.068580389022827148e+00 3.306612372398376465e-01 1.398798376321792603e-01
7.690000000000000000e+02 3.357397079467773438e+01 1.744785690307617188e+01 4.358232617378234863e-01 5.775675643235445023e-03 1.324796825647354126e-01 4.495540857315063477e-01
7.700000000000000000e+02 2.144019317626953125e+01 8.832345008850097656e+00 3.058234751224517822e-01 -1.885173022747039795e-01 3.519185259938240051e-02 1.679473072290420532e-01
7.710000000000000000e+02 3.188931465148925781e+01 1.811399459838867188e+01 2.662613093852996826e-01 9.481273889541625977e-01 3.643166124820709229e-01 4.048452377319335938e-01
7.720000000000000000e+02 6.718067932128906250e+01 3.204573440551757812e+01 5.631570219993591309e-01 4.266102790832519531e+00 1.448777914047241211e+00 3.115421831607818604e-01
7.730000000000000000e+02 4.630574798583984375e+01 3.048459243774414062e+01 6.830557584762573242e-01 2.010329246520996094e+00 8.080154657363891602e-01 -7.122208476066589355e-01
7.740000000000000000e+02 1.011605739593505859e+01 1.953039932250976562e+01 1.362311989068984985e-01 3.821320086717605591e-02 5.233331769704818726e-02 2.281130403280258179e-01
7.750000000000000000e+02 2.235217285156250000e+01 2.307895088195800781e+01 6.539261341094970703e-02 -2.922449111938476562e-01 -6.805568933486938477e-02 3.739898279309272766e-02
7.760000000000000000e+02 2.177890539169311523e+00 1.592638301849365234e+01 4.293492436408996582e-02 -3.579638898372650146e-01 -9.450869262218475342e-02 8.706955611705780029e-02
7.770000000000000000e+02 8.986121177673339844e+00 1.471608543395996094e+01 2.387588769197463989e-01 1.071059182286262512e-01 1.037594377994537354e-01 2.750874459743499756e-01
7.780000000000000000e+02 2.047349166870117188e+01 1.962976646423339844e+01 -1.373403668403625488e-01 -1.639982908964157104e-01 -9.040159732103347778e-02 -3.441748674958944321e-03
7.790000000000000000e+02 1.652155518531799316e+00 8.999259948730468750e+00 -2.111553959548473358e-02 -1.943092048168182373e-02 -1.216393802314996719e-02 6.947955489158630371e-02
7.800000000000000000e+02 4.411056518554687500e+01 2.404050111770629883e+00 -1.109946012496948242e+00 9.632457047700881958e-02 -3.040864467620849609e-01 2.289702892303466797e-01
7.810000000000000000e+02 2.639122009277343750e+01 1.125079822540283203e+01 1.698563098907470703e-01 8.936830610036849976e-02 7.776737958192825317e-02 1.349040567874908447e-01
7.820000000000000000e+02 2.502287673950195312e+01 -3.213497161865234375e+01 1.109704095870256424e-02 -3.657048344612121582e-01 -1.063823327422142029e-01 -5.436821654438972473e-02
7.830000000000000000e+02 2.735407257080078125e+01 -3.017028236389160156e+01 2.816167473793029785e-01 -8.747202157974243164e-02 5.824341252446174622e-02 -2.380553632974624634e-01
7.840000000000000000e+02 5.253675079345703125e+01 -3.087097358703613281e+01 1.162392616271972656e+00 3.029722929000854492e+00 1.257634639739990234e+00 6.255173683166503906e-01
7.850000000000000000e+02 5.248996353149414062e+01 -2.537300825119018555e+00 -2.030456066131591797e-02 -1.970294117927551270e-01 -6.520018726587295532e-02 1.274566650390625000e-01
7.860000000000000000e+02 5.230715560913085938e+01 -1.911059379577636719e+00 -7.000129669904708862e-02 -7.585425674915313721e-02 -4.375666752457618713e-02 1.006108745932579041e-01
7.870000000000000000e+02 4.859502792358398438e+01 -2.765205621719360352e+00 -6.860643625259399414e-01 8.110739290714263916e-02 -1.814870834350585938e-01 3.813792765140533447e-01
7.880000000000000000e+02 4.939971923828125000e+01 -2.627105712890625000e+00 -5.562267303466796875e-01 7.071208953857421875e-02 -1.456543952226638794e-01 3.746843934059143066e-01
7.890000000000000000e+02 4.611016845703125000e+01 -2.886053800582885742e+00 -9.635296463966369629e-01 1.737866848707199097e-01 -2.369228750467300415e-01 1.964269578456878662e-02
7.900000000000000000e+02 4.439877319335937500e+01 -2.590408325195312500e+00 -1.029941082000732422e+00 1.458703130483627319e-01 -2.652212083339691162e-01 -7.632751762866973877e-02
7.910000000000000000e+02 4.229883956909179688e+01 -3.494837999343872070e+00 -2.262765884399414062e+00 -2.660349309444427490e-01 -7.586402297019958496e-01 3.410877287387847900e-01
7.920000000000000000e+02 4.118872451782226562e+01 -1.444269776344299316e+00 -6.307263970375061035e-01 -1.769799143075942993e-01 -2.423118799924850464e-01 1.797486990690231323e-01
7.930000000000000000e+02 4.179677963256835938e+01 -1.906485795974731445e+00 -8.497958779335021973e-01 -2.811609208583831787e-01 -3.392870426177978516e-01 2.341999299824237823e-02
7.940000000000000000e+02 4.267821121215820312e+01 -2.352083683013916016e+00 -1.169772863388061523e+00 -1.314878463745117188e-01 -3.903782069683074951e-01 -8.960670977830886841e-02
7.950000000000000000e+02 3.912761306762695312e+01 -1.622840762138366699e+00 -7.708995938301086426e-01 9.450691193342208862e-02 -2.029178142547607422e-01 2.572625577449798584e-01
7.960000000000000000e+02 3.874025344848632812e+01 -3.854613900184631348e-01 -3.947496414184570312e-01 3.159215673804283142e-02 -1.089472472667694092e-01 1.755277365446090698e-01
7.970000000000000000e+02 3.350589370727539062e+01 -2.462655544281005859e+00 -5.388292074203491211e-01 5.576654523611068726e-02 -1.449187994003295898e-01 -3.191864192485809326e-01
7.980000000000000000e+02 3.598585891723632812e+01 -2.484430074691772461e+00 -6.847102642059326172e-01 3.047916591167449951e-01 -1.139755770564079285e-01 -1.364490240812301636e-01
7.990000000000000000e+02 3.500178527832031250e+01 -1.918087363243103027e+00 -6.166716217994689941e-01 1.782079488039016724e-01 -1.315390914678573608e-01 -1.917806565761566162e-01
8.000000000000000000e+02 3.672935104370117188e+01 -2.157343864440917969e+00 -7.730549573898315430e-01 2.438667714595794678e-01 -1.587564498186111450e-01 1.076005026698112488e-02
8.010000000000000000e+02 3.719340515136718750e+01 -1.078627467155456543e+00 -6.686874032020568848e-01 1.399542987346649170e-01 -1.586199253797531128e-01 9.683881700038909912e-02
8.020000000000000000e+02 3.923718261718750000e+01 -4.309388637542724609e+00 -9.416176080703735352e-01 -1.522959917783737183e-01 -3.281740844249725342e-01 -4.079859256744384766e-01
8.030000000000000000e+02 3.187318611145019531e+01 -3.089680671691894531e+00 -3.796179294586181641e-01 -1.502966731786727905e-01 -1.589743793010711670e-01 -2.055647522211074829e-01
8.040000000000000000e+02 3.100659179687500000e+01 -3.370624065399169922e+00 -1.192054823040962219e-01 -5.649760961532592773e-01 -2.052544653415679932e-01 -1.106932610273361206e-01
8.050000000000000000e+02 3.013144683837890625e+01 -3.415327548980712891e+00 1.973010152578353882e-01 -1.548916101455688477e-01 1.272282376885414124e-02 -1.574434041976928711e-01
8.060000000000000000e+02 2.869704437255859375e+01 -3.056529760360717773e+00 3.656539022922515869e-01 7.554422020912170410e-01 3.363288342952728271e-01 -6.689721941947937012e-01
8.070000000000000000e+02 2.934242057800292969e+01 -3.194220304489135742e+00 2.298345714807510376e-01 -4.891091883182525635e-01 -7.778237760066986084e-02 9.948161989450454712e-02
8.080000000000000000e+02 3.170668601989746094e+01 -6.070741176605224609e+00 -4.830136150121688843e-02 -5.143900513648986816e-01 -1.688074320554733276e-01 -4.722670614719390869e-01
8.090000000000000000e+02 2.599350166320800781e+01 -1.316908168792724609e+01 -1.294355154037475586e+00 -4.364771842956542969e-01 -5.192496776580810547e-01 -6.440494060516357422e-01
8.100000000000000000e+02 1.743472480773925781e+01 -9.757306098937988281e+00 5.100017879158258438e-04 2.440322786569595337e-01 7.336268573999404907e-02 -6.307464092969894409e-02
8.110000000000000000e+02 1.737623214721679688e+01 -4.193746089935302734e+00 -1.049539167433977127e-02 2.840093970298767090e-01 8.205420523881912231e-02 8.327449858188629150e-02
8.120000000000000000e+02 1.593189430236816406e+01 -1.787268042564392090e+00 -1.040408313274383545e-01 1.536367237567901611e-01 1.487876754254102707e-02 -9.411646984517574310e-03
8.130000000000000000e+02 1.920701789855957031e+01 -1.621731758117675781e+00 -6.176788732409477234e-02 -1.321616023778915405e-01 -5.817884579300880432e-02 2.235745191574096680e-01
8.140000000000000000e+02 1.898637008666992188e+01 -4.500110745429992676e-01 -2.406799197196960449e-01 4.587458074092864990e-02 -5.844160541892051697e-02 -3.127800300717353821e-02
8.150000000000000000e+02 1.958812332153320312e+01 -6.202039122581481934e-01 -4.048334434628486633e-02 1.186233758926391602e-02 -8.586302399635314941e-03 1.407738476991653442e-01
8.160000000000000000e+02 1.814380264282226562e+01 -1.174236416816711426e+00 -2.453254312276840210e-01 2.058541029691696167e-02 -6.742201000452041626e-02 8.009019494056701660e-02
8.170000000000000000e+02 1.664788627624511719e+01 -6.014814376831054688e-01 -2.080806642770767212e-01 2.467634230852127075e-01 1.160482782870531082e-02 -1.380687206983566284e-01
8.180000000000000000e+02 1.364318943023681641e+01 -1.120640993118286133e+00 -2.106005698442459106e-01 1.069860011339187622e-01 -3.108436800539493561e-02 -7.263793796300888062e-02
8.190000000000000000e+02 1.575489807128906250e+01 -2.710689783096313477e+00 -2.232575975358486176e-02 5.415518581867218018e-02 9.548827074468135834e-03 -1.141643300652503967e-01
8.200000000000000000e+02 1.433548641204833984e+01 -9.921274781227111816e-01 -1.691548824310302734e-01 -1.710348129272460938e-01 -1.020569056272506714e-01 -1.194053888320922852e-01
8.210000000000000000e+02 1.139100170135498047e+01 -1.628038406372070312e+00 -1.459622830152511597e-01 -1.145472526550292969e-01 -7.815286517143249512e-02 -9.962693601846694946e-02
8.220000000000000000e+02 1.060713863372802734e+01 -1.774150609970092773e+00 -1.159346997737884521e-01 2.440776117146015167e-02 -2.745808288455009460e-02 -9.268000721931457520e-02
8.230000000000000000e+02 9.090363502502441406e+00 -1.878399014472961426e+00 -8.662230521440505981e-02 1.934141293168067932e-02 -2.018426731228828430e-02 -7.548148930072784424e-02
8.240000000000000000e+02 7.614602565765380859e+00 -1.889568686485290527e+00 -5.985763669013977051e-02 2.024259604513645172e-02 -1.188451237976551056e-02 -4.959255084395408630e-02
8.250000000000000000e+02 8.350967407226562500e+00 -1.887194752693176270e+00 -8.000013232231140137e-02 -6.572513282299041748e-02 -4.371758177876472473e-02 -7.201637327671051025e-02
8.260000000000000000e+02 6.878629684448242188e+00 -1.889331698417663574e+00 -5.024374648928642273e-02 -4.777429997920989990e-02 -2.940541319549083710e-02 -4.911782592535018921e-02
8.270000000000000000e+02 5.397253990173339844e+00 -1.891562700271606445e+00 -2.698464505374431610e-02 -3.626528754830360413e-02 -1.897497847676277161e-02 -3.136739879846572876e-02
8.280000000000000000e+02 4.667016506195068359e+00 -1.884402513504028320e+00 -2.196931652724742889e-02 1.436870358884334564e-02 -2.280183834955096245e-03 -1.386965438723564148e-02
8.290000000000000000e+02 3.905158519744873047e+00 -2.685524940490722656e+00 -1.446339301764965057e-02 4.743460100144147873e-03 -2.915980061516165733e-03 -1.124711800366640091e-02
8.300000000000000000e+02 1.874911189079284668e+00 -1.956517338752746582e+00 -4.350887145847082138e-03 5.794105120003223419e-03 4.329654329922050238e-04 2.337502548471093178e-03
8.310000000000000000e+02 2.067101001739501953e+00 -4.164400100708007812e+01 1.077275071293115616e-02 -5.958293676376342773e-01 -1.755169928073883057e-01 -3.096844069659709930e-03
8.320000000000000000e+02 5.313254356384277344e+00 -3.757777404785156250e+01 4.730340838432312012e-02 -4.182903468608856201e-01 -1.112960800528526306e-01 -1.640486121177673340e-01
8.330000000000000000e+02 1.008002161979675293e+00 -3.869522476196289062e+01 3.986592870205640793e-03 -5.723621845245361328e-01 -1.705126911401748657e-01 -2.319975197315216064e-02
8.340000000000000000e+02 6.421868205070495605e-01 -3.468889617919921875e+01 -6.933260243386030197e-03 -4.340193271636962891e-01 -1.322857737541198730e-01 -2.192450314760208130e-02
8.350000000000000000e+02 6.676601171493530273e-01 -3.331012344360351562e+01 4.960104823112487793e-03 -3.886729180812835693e-01 -1.151138469576835632e-01 -1.970436982810497284e-02
8.360000000000000000e+02 6.836957335472106934e-01 -2.906793022155761719e+01 -9.175982326269149780e-03 -3.186149299144744873e-01 -9.833727777004241943e-02 1.695959799690172076e-04
8.370000000000000000e+02 6.776328086853027344e-01 -2.763184738159179688e+01 3.329179715365171432e-03 -3.248457908630371094e-01 -9.645497798919677734e-02 6.376365665346384048e-03
8.380000000000000000e+02 2.010622739791870117e+00 -2.758822059631347656e+01 -1.487283781170845032e-02 -2.858414053916931152e-01 -9.021427482366561890e-02 1.322108227759599686e-02
8.390000000000000000e+02 2.093309640884399414e+00 -2.298216629028320312e+01 4.865108057856559753e-02 -2.783780694007873535e-01 -6.891809403896331787e-02 -2.659833058714866638e-02
8.400000000000000000e+02 7.204555869102478027e-01 -2.179191589355468750e+01 1.424650475382804871e-02 -3.174480795860290527e-01 -9.096047282218933105e-02 -2.952184528112411499e-02
8.410000000000000000e+02 7.056086063385009766e-01 -2.035210037231445312e+01 2.128135645762085915e-03 -2.452695369720458984e-01 -7.294242084026336670e-02 -4.960366711020469666e-02
8.420000000000000000e+02 2.122042655944824219e+00 -1.702340507507324219e+01 -2.813723869621753693e-02 -1.339931339025497437e-01 -4.863911122083663940e-02 -6.990735977888107300e-02
8.430000000000000000e+02 6.160818338394165039e-01 -1.474865055084228516e+01 -8.852741681039333344e-03 2.041468396782875061e-02 3.468582406640052795e-03 -6.771230138838291168e-03
8.440000000000000000e+02 5.804560780525207520e-01 -1.336041450500488281e+01 2.720893127843737602e-03 2.800109796226024628e-02 9.216597303748130798e-03 3.775166347622871399e-03
8.450000000000000000e+02 1.746127486228942871e+00 -1.302546977996826172e+01 -1.294108666479587555e-02 -5.095317214727401733e-02 -1.916827820241451263e-02 3.875480964779853821e-03
8.460000000000000000e+02 5.182646512985229492e-01 -9.185206413269042969e+00 -5.129886791110038757e-03 -6.453675217926502228e-03 -3.475068602710962296e-03 1.277942559681832790e-03
8.470000000000000000e+02 5.188727974891662598e-01 -7.789819240570068359e+00 5.729292985051870346e-03 -9.526857174932956696e-03 -1.139269326813519001e-03 2.176299458369612694e-03
8.480000000000000000e+02 4.573758125305175781e+00 -2.632570981979370117e+00 -1.004019752144813538e-02 -3.885251283645629883e-02 -1.466781273484230042e-02 -3.451201692223548889e-02
8.490000000000000000e+02 5.337249040603637695e-01 -6.382313251495361328e+00 -2.257582265883684158e-03 -9.939627721905708313e-03 -3.659162903204560280e-03 -3.561561228707432747e-03
8.500000000000000000e+02 7.171707153320312500e+01 -4.136426162719726562e+01 -2.862892150878906250e-01 5.641909599304199219e+00 1.606685996055603027e+00 -1.184880807995796204e-01
8.510000000000000000e+02 5.245579147338867188e+01 -4.120526123046875000e+01 -6.663666963577270508e-01 3.086838483810424805e+00 7.261415719985961914e-01 1.913525015115737915e-01
8.520000000000000000e+02 3.245016479492187500e+01 -4.132668685913085938e+01 3.507206439971923828e-01 1.929993033409118652e-01 1.631159931421279907e-01 4.912929143756628036e-03
8.530000000000000000e+02 7.865084838867187500e+01 4.020354461669921875e+01 -5.842390656471252441e-02 7.317369461059570312e+00 2.177683591842651367e+00 -1.305458396673202515e-01
8.540000000000000000e+02 7.807632446289062500e+01 4.172577667236328125e+01 1.688936352729797363e-01 7.229513645172119141e+00 2.219522237777709961e+00 -4.736300930380821228e-02
8.550000000000000000e+02 7.895761108398437500e+01 3.883806610107421875e+01 -4.221793264150619507e-02 7.436298847198486328e+00 2.218224287033081055e+00 -7.544000446796417236e-02
8.560000000000000000e+02 7.775031280517578125e+01 3.789598846435546875e+01 -9.019500017166137695e-02 7.177058696746826172e+00 2.126059055328369141e+00 -1.802977756597101688e-03
8.570000000000000000e+02 7.918137359619140625e+01 3.483512496948242188e+01 8.237242698669433594e-03 7.597138881683349609e+00 2.281612873077392578e+00 -1.805963576771318913e-03
8.580000000000000000e+02 7.761144256591796875e+01 3.336999511718750000e+01 3.815016150474548340e-02 7.172252178192138672e+00 2.163120746612548828e+00 -7.868380844593048096e-02
8.590000000000000000e+02 7.920384216308593750e+01 3.342001342773437500e+01 2.253121696412563324e-02 7.632420063018798828e+00 2.296485424041748047e+00 -2.858454920351505280e-02
8.600000000000000000e+02 7.927638244628906250e+01 3.061410331726074219e+01 2.276579104363918304e-02 7.831003665924072266e+00 2.356130838394165039e+00 -6.713880598545074463e-02
8.610000000000000000e+02 7.660939025878906250e+01 2.891164588928222656e+01 5.417435243725776672e-02 7.008924484252929688e+00 2.118929624557495117e+00 -3.304430246353149414e-01
8.620000000000000000e+02 7.937307739257812500e+01 2.644027519226074219e+01 -2.232733555138111115e-02 8.380487442016601562e+00 2.507447957992553711e+00 -7.709736377000808716e-02
8.630000000000000000e+02 7.679576873779296875e+01 2.623181533813476562e+01 -9.147822856903076172e-02 7.320294380187988281e+00 2.168644905090332031e+00 -3.564258515834808350e-01
8.640000000000000000e+02 7.938980102539062500e+01 2.506164360046386719e+01 -6.373209907906129956e-05 8.556674957275390625e+00 2.566983222961425781e+00 -5.110746249556541443e-02
8.650000000000000000e+02 7.940161132812500000e+01 2.091135215759277344e+01 -4.574088379740715027e-02 8.456709861755371094e+00 2.523290634155273438e+00 1.480428576469421387e-01
8.660000000000000000e+02 7.936621093750000000e+01 1.950607109069824219e+01 -5.829681083559989929e-02 8.025154113769531250e+00 2.390057325363159180e+00 2.688280642032623291e-01
8.670000000000000000e+02 7.824034881591796875e+01 2.094755363464355469e+01 -1.701222509145736694e-01 8.057897567749023438e+00 2.366332769393920898e+00 3.317297697067260742e-01
8.680000000000000000e+02 7.931864166259765625e+01 1.808173179626464844e+01 -9.415733627974987030e-03 7.417810440063476562e+00 2.222518444061279297e+00 3.434124290943145752e-01
8.690000000000000000e+02 7.938999938964843750e+01 1.384122180938720703e+01 5.737138167023658752e-02 5.464503765106201172e+00 1.656562566757202148e+00 2.078980207443237305e-01
8.700000000000000000e+02 7.832328033447265625e+01 1.232388687133789062e+01 2.434241026639938354e-01 6.213417530059814453e+00 1.937052607536315918e+00 5.498818680644035339e-02
8.710000000000000000e+02 7.944218444824218750e+01 1.111226558685302734e+01 2.912390045821666718e-02 5.240167617797851562e+00 1.580787420272827148e+00 -1.047544330358505249e-01
8.720000000000000000e+02 7.935665893554687500e+01 6.966705799102783203e+00 -1.213784702122211456e-02 6.722080230712890625e+00 2.012982606887817383e+00 -2.524738013744354248e-01
8.730000000000000000e+02 7.935266876220703125e+01 5.556722640991210938e+00 -3.405110910534858704e-02 7.200799942016601562e+00 2.150024652481079102e+00 -2.047354429960250854e-01
8.740000000000000000e+02 7.802091979980468750e+01 5.495329856872558594e+00 -1.571048200130462646e-01 7.246243476867675781e+00 2.126741647720336914e+00 -4.711959660053253174e-01
8.750000000000000000e+02 7.939997100830078125e+01 4.154710769653320312e+00 -3.728497028350830078e-02 7.573537826538085938e+00 2.260875701904296875e+00 -1.249714046716690063e-01
8.760000000000000000e+02 7.943060302734375000e+01 -3.601957857608795166e-02 -3.696460649371147156e-02 7.618422031402587891e+00 2.274437189102172852e+00 1.190128028392791748e-01
8.770000000000000000e+02 7.942749023437500000e+01 -1.436472177505493164e+00 -3.004227951169013977e-02 7.241147041320800781e+00 2.163331508636474609e+00 2.028229534626007080e-01
8.780000000000000000e+02 7.942079162597656250e+01 -2.829294681549072266e+00 2.214770950376987457e-02 6.743586540222167969e+00 2.029720306396484375e+00 2.163876295089721680e-01
8.790000000000000000e+02 7.943975830078125000e+01 -4.204392910003662109e+00 -1.173285488039255142e-02 6.245604038238525391e+00 1.870161294937133789e+00 2.018088549375534058e-01
8.800000000000000000e+02 7.831977081298828125e+01 -4.276067733764648438e+00 1.452219933271408081e-01 7.528057575225830078e+00 2.301983833312988281e+00 3.317661285400390625e-01
8.810000000000000000e+02 7.585691070556640625e+01 -8.693261146545410156e+00 7.503384947776794434e-01 1.013107967376708984e+01 3.264425516128540039e+00 -1.423173904418945312e+00
8.820000000000000000e+02 7.938108062744140625e+01 -8.318087577819824219e+00 2.335289865732192993e-01 7.346347808837890625e+00 2.273962974548339844e+00 -5.931110978126525879e-01
8.830000000000000000e+02 7.924827575683593750e+01 -1.119461631774902344e+01 -2.026945352554321289e-01 1.000095844268798828e+01 2.939479351043701172e+00 -5.832294225692749023e-01
8.840000000000000000e+02 7.947341918945312500e+01 -1.535504341125488281e+01 -7.381680607795715332e-02 1.031266880035400391e+01 3.071655511856079102e+00 2.333507984876632690e-01
8.850000000000000000e+02 7.372547912597656250e+01 -1.640333557128906250e+01 -3.799991905689239502e-01 5.346578121185302734e+00 1.489973664283752441e+00 -1.628343015909194946e-01
8.860000000000000000e+02 7.948661041259765625e+01 -1.803335952758789062e+01 1.050673425197601318e-02 8.571284294128417969e+00 2.574537515640258789e+00 3.039281964302062988e-01
8.870000000000000000e+02 7.831148529052734375e+01 -1.911200904846191406e+01 1.118924543261528015e-01 8.167801856994628906e+00 2.483908176422119141e+00 8.264767527580261230e-01
8.880000000000000000e+02 7.436642456054687500e+01 -2.327455520629882812e+01 1.213751196861267090e+00 1.163880157470703125e+01 3.855765819549560547e+00 6.254479289054870605e-01
8.890000000000000000e+02 7.802070617675781250e+01 -2.335126686096191406e+01 4.157295823097229004e-01 7.876503944396972656e+00 2.487669944763183594e+00 -3.834271430969238281e-01
8.900000000000000000e+02 7.933380889892578125e+01 -2.501007843017578125e+01 3.945456817746162415e-02 7.603792190551757812e+00 2.292973995208740234e+00 -2.860820293426513672e-01
8.910000000000000000e+02 7.941362762451171875e+01 -2.925118446350097656e+01 -5.661912262439727783e-02 8.612065315246582031e+00 2.566633701324462891e+00 -9.557913988828659058e-03
8.920000000000000000e+02 7.819048309326171875e+01 -3.184930610656738281e+01 4.216782748699188232e-03 7.854906558990478516e+00 2.357737064361572266e+00 2.129549384117126465e-01
8.930000000000000000e+02 7.939255523681640625e+01 -3.199123954772949219e+01 -2.022440172731876373e-02 8.359814643859863281e+00 2.501877069473266602e+00 7.109572738409042358e-02
8.940000000000000000e+02 7.914069366455078125e+01 -3.607508087158203125e+01 2.502910047769546509e-02 7.900202274322509766e+00 2.377569437026977539e+00 6.244787201285362244e-02
8.950000000000000000e+02 7.906056976318359375e+01 -3.744218063354492188e+01 -1.769965887069702148e-02 7.797436237335205078e+00 2.333920955657958984e+00 6.356175243854522705e-02
8.960000000000000000e+02 7.894390869140625000e+01 -3.880842971801757812e+01 2.378151006996631622e-02 7.710075378417968750e+00 2.320157051086425781e+00 5.196879059076309204e-02
8.970000000000000000e+02 7.865623474121093750e+01 -4.017525100708007812e+01 -5.155385658144950867e-02 7.619798183441162109e+00 2.270473241806030273e+00 8.258642256259918213e-02
8.980000000000000000e+02 2.392565727233886719e+01 3.811605072021484375e+01 2.330082952976226807e-01 -7.776405662298202515e-02 4.657327011227607727e-02 4.693617299199104309e-02
8.990000000000000000e+02 4.661828994750976562e+01 3.805646133422851562e+01 1.293300539255142212e-01 1.726576328277587891e+00 5.567719340324401855e-01 -3.446338474750518799e-01
9.000000000000000000e+02 3.805383145809173584e-01 2.165211677551269531e+00 9.197152685374021530e-04 2.576580829918384552e-02 8.005657233297824860e-03 -7.328642532229423523e-03
9.010000000000000000e+02 2.625038146972656250e+00 2.901913642883300781e+00 2.877577906474471092e-03 1.658477075397968292e-02 5.838704761117696762e-03 -4.250418767333030701e-02
9.020000000000000000e+02 4.865582942962646484e+00 4.929492473602294922e+00 -8.524349331855773926e-02 -1.321038324385881424e-02 -2.953616343438625336e-02 -1.276371534913778305e-02
9.030000000000000000e+02 1.544823288917541504e+00 4.924565792083740234e+00 -1.237744744867086411e-02 4.808276146650314331e-02 1.071159448474645615e-02 -1.869291812181472778e-02
9.040000000000000000e+02 5.411002039909362793e-01 9.185940742492675781e+00 -3.961283247917890549e-03 2.354127913713455200e-02 5.873999092727899551e-03 2.517980523407459259e-02
9.050000000000000000e+02 5.636630058288574219e-01 1.197188663482666016e+01 -1.290434738621115685e-03 -1.610025018453598022e-01 -4.868788272142410278e-02 4.307138547301292419e-02
9.060000000000000000e+02 7.169171571731567383e-01 1.621247482299804688e+01 9.343838319182395935e-03 -4.330407977104187012e-01 -1.271090805530548096e-01 2.410586364567279816e-02
9.070000000000000000e+02 7.262227535247802734e-01 1.765948677062988281e+01 6.269424222409725189e-03 -4.632036089897155762e-01 -1.370802521705627441e-01 9.901832789182662964e-03
9.080000000000000000e+02 5.725455284118652344e-01 2.194486999511718750e+01 2.411240711808204651e-03 -3.916587233543395996e-01 -1.167742460966110229e-01 -2.144490927457809448e-02
9.090000000000000000e+02 4.252786159515380859e+00 2.436835479736328125e+01 -1.405739039182662964e-01 -5.586089491844177246e-01 -2.097548544406890869e-01 5.685660615563392639e-02
9.100000000000000000e+02 4.686750888824462891e+00 2.531919860839843750e+01 -1.896780729293823242e-01 -6.187033653259277344e-01 -2.425144314765930176e-01 1.319261938333511353e-01
9.110000000000000000e+02 2.254877090454101562e+00 2.933646392822265625e+01 -3.525637555867433548e-03 -6.254176497459411621e-01 -1.886829882860183716e-01 2.156481593847274780e-01
9.120000000000000000e+02 7.365097999572753906e-01 3.058935928344726562e+01 2.409018576145172119e-02 -7.840301394462585449e-01 -2.279819846153259277e-01 8.825954049825668335e-02
9.130000000000000000e+02 3.903721809387207031e+00 3.055820465087890625e+01 3.459182381629943848e-02 -6.178690195083618164e-01 -1.749831587076187134e-01 2.230822741985321045e-01
9.140000000000000000e+02 6.822420358657836914e-01 3.632823181152343750e+01 3.752266056835651398e-04 -1.099676251411437988e+00 -3.297902941703796387e-01 7.049659267067909241e-03
9.150000000000000000e+02 1.558550953865051270e+00 3.807664871215820312e+01 9.768170304596424103e-03 -8.896523118019104004e-01 -2.639652490615844727e-01 -5.683149769902229309e-02
9.160000000000000000e+02 6.290957331657409668e-01 3.879213714599609375e+01 -2.215521410107612610e-02 -1.012213110923767090e+00 -3.103104829788208008e-01 -3.031554818153381348e-02
9.170000000000000000e+02 1.080432057380676270e+00 4.005839157104492188e+01 4.173829033970832825e-02 -9.066513180732727051e-01 -2.594738900661468506e-01 -7.197556644678115845e-02
9.180000000000000000e+02 9.391788482666015625e+00 1.877361297607421875e+00 5.210440605878829956e-02 -3.097980096936225891e-02 6.337381899356842041e-03 8.567594923079013824e-03
9.190000000000000000e+02 8.651988029479980469e+00 1.874904036521911621e+00 5.849560350179672241e-02 -2.780803106725215912e-02 9.206271730363368988e-03 -4.608754999935626984e-03
9.200000000000000000e+02 7.904012203216552734e+00 1.880158066749572754e+00 5.477893352508544922e-02 -1.769018918275833130e-02 1.112662348896265030e-02 -1.866083964705467224e-02
9.210000000000000000e+02 7.156271934509277344e+00 1.884015917778015137e+00 5.392912402749061584e-02 -1.347617432475090027e-02 1.213588472455739975e-02 -2.889580652117729187e-02
9.220000000000000000e+02 6.408978462219238281e+00 1.886080622673034668e+00 5.068721994757652283e-02 -8.028375916182994843e-03 1.279765367507934570e-02 -3.683574125170707703e-02
9.230000000000000000e+02 5.657107830047607422e+00 1.891091346740722656e+00 4.577787965536117554e-02 -5.474681500345468521e-03 1.209095958620309830e-02 -4.165657982230186462e-02
9.240000000000000000e+02 4.900373935699462891e+00 1.902696967124938965e+00 3.970974683761596680e-02 -1.102606416679918766e-03 1.158214267343282700e-02 -4.402438923716545105e-02
9.250000000000000000e+02 4.143905162811279297e+00 1.921082019805908203e+00 3.369853645563125610e-02 8.359543862752616405e-04 1.036034710705280304e-02 -4.480177909135818481e-02
9.260000000000000000e+02 3.390356779098510742e+00 1.942628741264343262e+00 2.606282941997051239e-02 5.754295270889997482e-03 9.545137174427509308e-03 -4.280650988221168518e-02
9.270000000000000000e+02 1.889756917953491211e+00 1.992354750633239746e+00 1.326854247599840164e-02 1.448731310665607452e-02 8.326756767928600311e-03 -3.263257816433906555e-02
9.280000000000000000e+02 1.137098193168640137e+00 2.067642211914062500e+00 5.813060328364372253e-03 2.356244996190071106e-02 8.812652900815010071e-03 -2.313422970473766327e-02
9.290000000000000000e+02 1.147661590576171875e+01 8.282509803771972656e+00 -5.141434669494628906e-01 -4.551261067390441895e-01 -2.907808721065521240e-01 4.987197816371917725e-01
9.300000000000000000e+02 1.218044185638427734e+01 2.422540426254272461e+00 -8.715058118104934692e-02 -4.143365845084190369e-02 -3.857527300715446472e-02 1.272980868816375732e-01
9.310000000000000000e+02 1.441105270385742188e+01 3.871831178665161133e+00 -3.585664331912994385e-01 -4.207842424511909485e-02 -1.201934516429901123e-01 3.977677524089813232e-01
9.320000000000000000e+02 1.447272777557373047e+01 2.964550018310546875e+00 -3.397404849529266357e-01 9.939492680132389069e-03 -9.894029796123504639e-02 2.922354042530059814e-01
9.330000000000000000e+02 1.526952362060546875e+01 3.103471755981445312e+00 -4.457559287548065186e-01 2.168296277523040771e-02 -1.272218823432922363e-01 3.340021073818206787e-01
9.340000000000000000e+02 1.853108978271484375e+01 4.226579666137695312e+00 -4.562271833419799805e-01 5.278837867081165314e-03 -1.352844983339309692e-01 2.654811143875122070e-01
9.350000000000000000e+02 1.857848167419433594e+01 3.351593732833862305e+00 -6.949953436851501465e-01 -7.254707068204879761e-02 -2.302627265453338623e-01 2.565217316150665283e-01
9.360000000000000000e+02 2.021185111999511719e+01 3.096990585327148438e+00 -7.624307870864868164e-01 -1.380850523710250854e-01 -2.701547443866729736e-01 1.899530440568923950e-01
9.370000000000000000e+02 2.117206954956054688e+01 3.638665676116943359e+00 -5.771639943122863770e-01 -1.535643339157104492e-01 -2.192184925079345703e-01 1.972594708204269409e-01
9.380000000000000000e+02 2.251764869689941406e+01 2.487182378768920898e+00 -8.757972121238708496e-01 -1.061946600675582886e-01 -2.945975661277770996e-01 2.843241095542907715e-01
9.390000000000000000e+02 2.403679466247558594e+01 2.098259687423706055e+00 -9.084647297859191895e-01 -9.230743348598480225e-02 -3.002316355705261230e-01 3.145000636577606201e-01
9.400000000000000000e+02 2.479173088073730469e+01 1.887761473655700684e+00 -9.421305060386657715e-01 -7.626485824584960938e-02 -3.055185973644256592e-01 3.114204406738281250e-01
9.410000000000000000e+02 2.629125213623046875e+01 1.470757961273193359e+00 -9.950308799743652344e-01 1.857394934631884098e-03 -2.979520559310913086e-01 2.707526981830596924e-01
9.420000000000000000e+02 2.791105651855468750e+01 2.008816719055175781e+00 -8.705053329467773438e-01 2.154624462127685547e-01 -1.965128779411315918e-01 1.493263244628906250e-01
9.430000000000000000e+02 2.789028167724609375e+01 2.899366140365600586e+00 -6.355479359626770020e-01 2.647976279258728027e-01 -1.112250834703445435e-01 1.543678790330886841e-01
9.440000000000000000e+02 2.858267974853515625e+01 9.928183555603027344e-01 -1.063936829566955566e+00 2.026732563972473145e-01 -2.583790719509124756e-01 9.749455004930496216e-02
9.450000000000000000e+02 2.937380409240722656e+01 8.374356627464294434e-01 -1.105570793151855469e+00 2.607195079326629639e-01 -2.534554004669189453e-01 -1.660354621708393097e-02
9.460000000000000000e+02 3.084235382080078125e+01 5.364655256271362305e-01 -1.150830388069152832e+00 3.151632547378540039e-01 -2.507001459598541260e-01 -1.310277581214904785e-01
9.470000000000000000e+02 3.149684143066406250e+01 7.050917148590087891e-01 -1.161474466323852539e+00 1.645083129405975342e-01 -2.990898489952087402e-01 -2.176328003406524658e-01
9.480000000000000000e+02 3.315980148315429688e+01 1.850616574287414551e+00 -2.519767999649047852e+00 -1.730250120162963867e-01 -8.078379034996032715e-01 7.751007676124572754e-01
9.490000000000000000e+02 2.716356086730957031e+01 2.063613176345825195e+00 -8.337485790252685547e-01 1.321279406547546387e-01 -2.104861885309219360e-01 2.037299126386642456e-01
9.500000000000000000e+02 3.882007980346679688e+01 3.456832170486450195e+00 6.607013940811157227e-01 -1.416440606117248535e-01 1.557172089815139771e-01 1.636855751276016235e-01
9.510000000000000000e+02 4.098832321166992188e+01 2.754729986190795898e+00 -1.692243099212646484e+00 -1.505442112684249878e-01 -5.528361797332763672e-01 -2.469892799854278564e-01
9.520000000000000000e+02 4.179597854614257812e+01 2.430507421493530273e+00 -1.349027037620544434e+00 -8.915396779775619507e-02 -4.314543008804321289e-01 1.281539648771286011e-01
9.530000000000000000e+02 4.254533767700195312e+01 2.121417999267578125e+00 -1.346183300018310547e+00 -5.057852342724800110e-02 -4.190285503864288330e-01 1.820476353168487549e-01
9.540000000000000000e+02 4.388418579101562500e+01 1.578109383583068848e+00 -1.230904459953308105e+00 4.527376964688301086e-02 -3.556892275810241699e-01 2.399073094129562378e-01
9.550000000000000000e+02 4.453586196899414062e+01 1.319020032882690430e+00 -1.182473540306091309e+00 9.787739813327789307e-02 -3.253788352012634277e-01 2.519802153110504150e-01
9.560000000000000000e+02 4.677362823486328125e+01 1.760552167892456055e+00 -1.181842923164367676e+00 2.105749696493148804e-01 -2.913803756237030029e-01 1.457032114267349243e-01
9.570000000000000000e+02 4.768154907226562500e+01 9.999774098396301270e-01 -1.267960667610168457e+00 1.732628345489501953e-01 -3.284093439579010010e-01 7.861396670341491699e-02
9.580000000000000000e+02 4.939650726318359375e+01 1.410588741302490234e+00 -1.358566403388977051e+00 7.883984595537185669e-02 -3.839179575443267822e-01 6.190607696771621704e-02
9.590000000000000000e+02 5.474498748779296875e+01 2.705096960067749023e+00 -9.215722084045410156e-01 5.904889106750488281e-01 -9.932500123977661133e-02 -5.153474807739257812e-01
9.600000000000000000e+02 5.265850448608398438e+01 2.000335216522216797e+00 -1.388923168182373047e+00 -7.817540317773818970e-02 -4.401295781135559082e-01 6.644621491432189941e-02
9.610000000000000000e+02 5.548311614990234375e+01 1.859531879425048828e+00 -1.157058954238891602e+00 5.770677328109741211e-01 -1.739973872900009155e-01 -6.568659543991088867e-01
9.620000000000000000e+02 5.602199935913085938e+01 2.553075313568115234e+00 -8.029940724372863770e-01 1.198130726814270020e+00 1.185409948229789734e-01 -1.091017484664916992e+00
9.630000000000000000e+02 5.608224105834960938e+01 3.166050910949707031e+00 -8.082709312438964844e-01 1.607014536857604980e+00 2.396230697631835938e-01 -1.165635585784912109e+00
9.640000000000000000e+02 5.614068984985351562e+01 1.815140962600708008e+00 -9.568013548851013184e-01 8.148179650306701660e-01 -4.259502142667770386e-02 -9.709501862525939941e-01
9.650000000000000000e+02 6.040154647827148438e+01 -1.877136349678039551e+00 2.659241914749145508e+00 1.456858634948730469e+00 1.234830260276794434e+00 -2.531751394271850586e+00
9.660000000000000000e+02 6.219087982177734375e+01 -1.548535585403442383e+00 2.320291757583618164e+00 1.160017108917236328e+01 4.176138877868652344e+00 -5.877095699310302734e+00
9.670000000000000000e+02 6.117921447753906250e+01 -5.046783924102783203e+00 5.085645318031311035e-01 3.357875585556030273e+00 1.159932017326354980e+00 2.222107648849487305e+00
9.680000000000000000e+02 6.105891799926757812e+01 -5.123582839965820312e+00 6.335765719413757324e-01 3.525345325469970703e+00 1.247676610946655273e+00 1.829474449157714844e+00
9.690000000000000000e+02 6.172082901000976562e+01 -4.956524372100830078e+00 2.269583940505981445e-01 8.533628463745117188e+00 2.628175973892211914e+00 3.592152833938598633e+00
9.700000000000000000e+02 6.207520294189453125e+01 -4.920956134796142578e+00 -2.729701399803161621e-01 1.124091529846191406e+01 3.290383577346801758e+00 3.811469316482543945e+00
9.710000000000000000e+02 5.505012130737304688e+01 -2.336676025390625000e+01 1.702893853187561035e+00 5.596982955932617188e+00 2.189963102340698242e+00 2.386682033538818359e+00
9.720000000000000000e+02 7.346745300292968750e+01 -1.804263114929199219e+01 7.433630824089050293e-01 7.045165061950683594e+00 2.336558341979980469e+00 -1.376102924346923828e+00
9.730000000000000000e+02 6.601275634765625000e+01 -2.423012542724609375e+01 2.049942493438720703e+00 5.846806049346923828e+00 2.369024515151977539e+00 -3.500226974487304688e+00
9.740000000000000000e+02 3.981104278564453125e+01 -1.259053325653076172e+01 -3.388340473175048828e-01 4.371517598628997803e-01 2.949531562626361847e-02 -7.405266165733337402e-02
9.750000000000000000e+02 3.698400497436523438e+01 -1.038861942291259766e+01 2.771398425102233887e-01 1.345148682594299316e+00 4.866865575313568115e-01 -4.085528552532196045e-01
9.760000000000000000e+02 6.435558319091796875e+01 -3.971675872802734375e+01 -5.356920361518859863e-01 1.532393693923950195e+00 2.990104854106903076e-01 5.555649995803833008e-01
9.770000000000000000e+02 5.619413757324218750e+01 -3.183661079406738281e+01 8.718403577804565430e-01 7.763377666473388672e+00 2.590565443038940430e+00 1.695042729377746582e+00
9.780000000000000000e+02 1.707283973693847656e+01 -1.644810104370117188e+01 4.457606375217437744e-02 2.435799501836299896e-02 2.068021707236766815e-02 -3.145079314708709717e-01
9.790000000000000000e+02 1.391143417358398438e+01 -2.802855873107910156e+01 -1.203735023736953735e-01 -5.243571996688842773e-01 -1.934192031621932983e-01 -2.758259475231170654e-01
9.800000000000000000e+02 7.816019058227539062e+00 -1.388063335418701172e+01 -1.646310389041900635e-01 -1.718984246253967285e-01 -1.009588390588760376e-01 -1.743887513875961304e-01
9.810000000000000000e+02 5.454191207885742188e+01 1.398898601531982422e+01 1.317353129386901855e+00 4.254544258117675781e+00 1.671569228172302246e+00 -1.840273976325988770e+00
9.820000000000000000e+02 4.294960021972656250e+01 4.057554721832275391e+00 -8.404240608215332031e-01 -9.146392345428466797e-02 -2.795664072036743164e-01 1.518898308277130127e-01
9.830000000000000000e+02 4.465727233886718750e+01 1.378394889831542969e+01 8.507513999938964844e-02 1.505584716796875000e+00 4.771979451179504395e-01 6.664846092462539673e-02
9.840000000000000000e+02 1.756442451477050781e+01 1.787051582336425781e+01 -6.651068329811096191e-01 -1.946224123239517212e-01 -2.579187750816345215e-01 3.300485610961914062e-01
9.850000000000000000e+02 1.949778556823730469e+01 4.156108379364013672e+00 -4.603381454944610596e-01 -9.476429969072341919e-02 -1.665307432413101196e-01 2.034220099449157715e-01
9.860000000000000000e+02 9.462072372436523438e+00 9.586088180541992188e+00 -3.571809530258178711e-01 -4.670858979225158691e-01 -2.472800612449645996e-01 3.081545829772949219e-01
9.870000000000000000e+02 1.008719062805175781e+01 1.558232879638671875e+01 3.203834295272827148e-01 4.182505607604980469e-01 2.215902060270309448e-01 3.517955243587493896e-01
9.880000000000000000e+02 3.892319488525390625e+01 -1.864292907714843750e+01 3.931541442871093750e-01 9.370850324630737305e-01 3.990717530250549316e-01 -5.642829537391662598e-01
9.890000000000000000e+02 3.969074630737304688e+01 -2.104908752441406250e+01 1.644337624311447144e-01 6.292234063148498535e-01 2.380971610546112061e-01 -2.428099513053894043e-01
9.900000000000000000e+02 3.485342025756835938e+01 -2.856934356689453125e+01 5.488489866256713867e-01 1.198234111070632935e-01 2.006017267704010010e-01 -1.580506712198257446e-01
9.910000000000000000e+02 3.019851112365722656e+01 -1.732163619995117188e+01 -1.015298441052436829e-01 -1.557364016771316528e-01 -7.717987149953842163e-02 -1.008571609854698181e-01
9.920000000000000000e+02 2.426141929626464844e+01 -3.005250930786132812e+01 1.612553149461746216e-01 -9.675945341587066650e-02 1.934876106679439545e-02 -1.356224417686462402e-01
9.930000000000000000e+02 2.498314666748046875e+01 -3.630145263671875000e+01 1.991724036633968353e-02 -5.308611392974853516e-01 -1.532831639051437378e-01 -3.102721460163593292e-02
9.940000000000000000e+02 1.891428947448730469e+01 -4.086423492431640625e+01 8.583092093467712402e-01 1.295954585075378418e-01 2.963714003562927246e-01 4.379419609904289246e-02
9.950000000000000000e+02 1.280200290679931641e+01 -3.376338195800781250e+01 -3.774205595254898071e-02 -5.382276177406311035e-01 -1.727908998727798462e-01 -1.100399196147918701e-01
9.960000000000000000e+02 1.302534770965576172e+01 -3.241153335571289062e+01 -1.013100221753120422e-01 -7.155190110206604004e-01 -2.450487166643142700e-01 -2.097706645727157593e-01
9.970000000000000000e+02 1.600818061828613281e+01 -2.752307319641113281e+01 -1.598895192146301270e-01 -3.902772068977355957e-01 -1.650500148534774780e-01 -2.726017236709594727e-01
9.980000000000000000e+02 1.397299003601074219e+01 3.465116500854492188e+01 1.058506742119789124e-01 -2.880305796861648560e-02 2.311428450047969818e-02 4.186591878533363342e-02
9.990000000000000000e+02 1.517554378509521484e+01 3.414189529418945312e+01 -8.476765826344490051e-03 -4.376478493213653564e-02 -1.567246578633785248e-02 7.692061364650726318e-02
1.000000000000000000e+03 1.955693054199218750e+01 3.181837272644042969e+01 -2.109382599592208862e-01 -5.897336006164550781e-01 -2.402015626430511475e-01 1.860615462064743042e-01
1.001000000000000000e+03 2.268897628784179688e+01 2.435746383666992188e+01 1.014585494995117188e-01 -8.544845506548881531e-03 2.787411212921142578e-02 1.731712371110916138e-01
1.002000000000000000e+03 1.458638381958007812e+01 2.173658561706542969e+01 2.982271313667297363e-01 2.035489976406097412e-01 1.505328416824340820e-01 4.874756932258605957e-01
1.003000000000000000e+03 1.306397247314453125e+01 2.272387313842773438e+01 2.925323247909545898e-01 5.226982384920120239e-02 1.034406423568725586e-01 2.198876440525054932e-01
1.004000000000000000e+03 6.585343360900878906e+00 2.553348541259765625e+01 -3.603739142417907715e-01 -8.091498017311096191e-01 -3.508571088314056396e-01 4.553582370281219482e-01
1.005000000000000000e+03 7.108837127685546875e+01 1.650329780578613281e+01 1.330401897430419922e+00 7.243596076965332031e+00 2.572199344635009766e+00 -2.512862682342529297e+00
1.006000000000000000e+03 7.284963989257812500e+01 1.157845497131347656e+01 1.647156119346618652e+00 1.295236396789550781e+01 4.379856109619140625e+00 9.568951725959777832e-01
1.007000000000000000e+03 6.451386260986328125e+01 6.458375930786132812e+00 -4.535543441772460938e+00 1.225613832473754883e+00 -9.929789304733276367e-01 -8.093428611755371094e-01
1.008000000000000000e+03 6.074643707275390625e+01 1.467075634002685547e+01 5.987093448638916016e-01 9.664594650268554688e+00 3.078991174697875977e+00 4.737801253795623779e-01
1.009000000000000000e+03 6.195875930786132812e+01 1.854801559448242188e+01 1.325322628021240234e+00 5.014627933502197266e+00 1.901985168457031250e+00 2.415785551071166992e+00
1.010000000000000000e+03 3.141883850097656250e+01 2.467301177978515625e+01 -2.940931916236877441e-01 -6.600927710533142090e-01 -2.862557768821716309e-01 3.855208158493041992e-01
1.011000000000000000e+03 3.229480361938476562e+01 1.689149665832519531e+01 6.149300932884216309e-01 7.458896040916442871e-01 4.082458913326263428e-01 5.325559973716735840e-01
1.012000000000000000e+03 2.779356002807617188e+01 1.424488449096679688e+01 -2.375656068325042725e-01 1.042833626270294189e-01 -3.998466953635215759e-02 2.561801671981811523e-01
1.013000000000000000e+03 2.213419342041015625e+01 2.178118324279785156e+01 3.239993704482913017e-03 -3.764232099056243896e-01 -1.119549646973609924e-01 -1.341550610959529877e-02
1.014000000000000000e+03 4.764264297485351562e+01 3.020888328552246094e+01 6.681188941001892090e-01 2.117261171340942383e+00 8.356140255928039551e-01 -5.552687644958496094e-01
1.015000000000000000e+03 4.612100982666015625e+01 2.627435302734375000e+01 1.539347022771835327e-01 1.919837832450866699e+00 6.221317648887634277e-01 1.276928931474685669e-01
1.016000000000000000e+03 4.363680648803710938e+01 2.234124374389648438e+01 7.059116959571838379e-01 4.731725454330444336e-01 3.537252843379974365e-01 4.775097668170928955e-01
1.017000000000000000e+03 3.584521865844726562e+01 2.520015907287597656e+01 -5.563811212778091431e-02 3.135703504085540771e-01 7.737967371940612793e-02 -5.196282174438238144e-03
1.018000000000000000e+03 6.554888153076171875e+01 2.771520614624023438e+01 1.224254488945007324e+00 3.776579856872558594e+00 1.500250339508056641e+00 7.664527893066406250e-01
1.019000000000000000e+03 5.972410583496093750e+01 2.352983856201171875e+01 -3.049977302551269531e+00 3.678170442581176758e-01 -8.046481013298034668e-01 7.462608069181442261e-02
1.020000000000000000e+03 5.521456146240234375e+01 3.382112503051757812e+01 7.491520047187805176e-01 1.794260740280151367e+00 7.630238533020019531e-01 1.053660631179809570e+00
1.021000000000000000e+03 7.927751159667968750e+01 -9.732995033264160156e+00 -3.866181522607803345e-02 8.883108139038085938e+00 2.653333902359008789e+00 -7.883864641189575195e-01
1.022000000000000000e+03 7.107189178466796875e+01 -1.215921497344970703e+01 -2.448357582092285156e+00 -3.751174211502075195e-01 -8.470425009727478027e-01 -1.387356996536254883e+00
1.023000000000000000e+03 6.725808715820312500e+01 -1.079530620574951172e+01 2.673523426055908203e+00 3.668081998825073242e+00 1.902481675148010254e+00 -3.097587585449218750e+00
1.024000000000000000e+03 6.537020874023437500e+01 -5.324548721313476562e+00 1.426130253821611404e-02 1.440439128875732422e+01 4.325595855712890625e+00 5.795985460281372070e-01
1.025000000000000000e+03 4.712833786010742188e+01 -3.696124649047851562e+01 8.311427831649780273e-01 1.118988275527954102e+00 5.850393176078796387e-01 8.492155075073242188e-01
1.026000000000000000e+03 4.088809204101562500e+01 -2.886404228210449219e+01 5.888037085533142090e-01 7.884795665740966797e-01 4.131849706172943115e-01 6.230077147483825684e-01
1.027000000000000000e+03 6.100181579589843750e+01 -1.762288212776184082e+00 3.758352041244506836e+00 3.155069351196289062e+00 2.074026346206665039e+00 -4.097690582275390625e+00
1.028000000000000000e+03 6.223485565185546875e+01 -8.053576469421386719e+00 1.970557570457458496e+00 9.727820396423339844e+00 3.509513378143310547e+00 2.186805725097656250e+00
1.029000000000000000e+03 6.128492736816406250e+01 -5.174894809722900391e+00 4.242142438888549805e-01 4.761990547180175781e+00 1.555861473083496094e+00 2.319895029067993164e+00
1.030000000000000000e+03 6.139153671264648438e+01 -1.737495660781860352e+00 4.150190353393554688e+00 5.109941482543945312e+00 2.778039455413818359e+00 -5.214191913604736328e+00
1.031000000000000000e+03 6.199110031127929688e+01 -1.623656034469604492e+00 2.941472291946411133e+00 9.552758216857910156e+00 3.748269081115722656e+00 -5.867309093475341797e+00
1.032000000000000000e+03 6.098462677001953125e+01 -7.180859565734863281e+00 1.185272336006164551e+00 9.529886245727539062e+00 3.214547634124755859e+00 2.500164747238159180e+00
1.033000000000000000e+03 6.168548965454101562e+01 -5.125500679016113281e+00 9.383213520050048828e-02 8.346213340759277344e+00 2.532013654708862305e+00 3.136839151382446289e+00
1.034000000000000000e+03 6.192621612548828125e+01 -5.098701477050781250e+00 -2.713223695755004883e-01 1.020955467224121094e+01 2.981469631195068359e+00 3.403810977935791016e+00
1.035000000000000000e+03 6.178987884521484375e+01 -1.645146727561950684e+00 3.470831632614135742e+00 8.548239707946777344e+00 3.605721235275268555e+00 -5.957634449005126953e+00
1.036000000000000000e+03 6.120190811157226562e+01 -1.743087053298950195e+00 3.984039306640625000e+00 4.071392059326171875e+00 2.416629314422607422e+00 -4.616425514221191406e+00
1.037000000000000000e+03 6.059233856201171875e+01 -1.823603987693786621e+00 3.091305971145629883e+00 1.921784281730651855e+00 1.503927111625671387e+00 -3.059485673904418945e+00
1.038000000000000000e+03 5.940272903442382812e+01 -1.224953532218933105e+00 2.193681001663208008e+00 2.205864191055297852e+00 1.319863557815551758e+00 -2.116217851638793945e+00
1.039000000000000000e+03 4.005730438232421875e+01 -1.010998487472534180e+00 -4.533421099185943604e-01 -4.608015343546867371e-02 -1.498266756534576416e-01 2.209194153547286987e-01
1.040000000000000000e+03 3.769848632812500000e+01 -2.656062364578247070e+00 -9.305212497711181641e-01 2.699964046478271484e-01 -1.981574594974517822e-01 7.930243760347366333e-02
1.041000000000000000e+03 4.065464401245117188e+01 -1.770467281341552734e+00 -7.137821316719055176e-01 -1.424575895071029663e-01 -2.568719089031219482e-01 1.695263385772705078e-01
1.042000000000000000e+03 5.299993896484375000e+01 6.300464153289794922e+00 -1.011693254113197327e-01 3.905649483203887939e-01 8.681868761777877808e-02 7.441139966249465942e-02
1.043000000000000000e+03 5.248078918457031250e+01 2.854900360107421875e+00 -9.318546056747436523e-01 -6.036795210093259811e-03 -2.813674211502075195e-01 8.863265067338943481e-02
1.044000000000000000e+03 5.792705154418945312e+01 1.518507242202758789e+00 -4.686150252819061279e-01 2.330554723739624023e+00 5.585819482803344727e-01 -2.108194828033447266e+00
1.045000000000000000e+03 5.463743209838867188e+01 4.411196231842041016e+00 -5.515851974487304688e-01 1.194143176078796387e+00 1.927673965692520142e-01 -4.018525481224060059e-01
1.046000000000000000e+03 5.331275177001953125e+01 2.778350591659545898e+00 -9.549013376235961914e-01 1.574470251798629761e-01 -2.392362952232360840e-01 -5.804450809955596924e-02
1.047000000000000000e+03 5.342394638061523438e+01 2.025295972824096680e+00 -1.340371370315551758e+00 7.048976607620716095e-03 -3.999967277050018311e-01 -5.669238418340682983e-02
1.048000000000000000e+03 5.096816635131835938e+01 -2.298614740371704102e+00 -2.428834885358810425e-01 -4.944119974970817566e-02 -8.769740909337997437e-02 2.519126832485198975e-01
1.049000000000000000e+03 5.295474624633789062e+01 -3.104875326156616211e+00 -1.335222739726305008e-02 -1.990281939506530762e-01 -6.371412426233291626e-02 5.130513757467269897e-02
1.050000000000000000e+03 4.525587463378906250e+01 1.118706941604614258e+00 -1.182971477508544922e+00 1.068976372480392456e-01 -3.228221535682678223e-01 1.890360713005065918e-01
1.051000000000000000e+03 4.473919677734375000e+01 2.076266527175903320e+00 -1.163538217544555664e+00 1.363368183374404907e-01 -3.081603944301605225e-01 1.900523006916046143e-01
1.052000000000000000e+03 4.500205993652343750e+01 4.406619071960449219e+00 -7.834215164184570312e-01 2.123674452304840088e-01 -1.713162213563919067e-01 1.910692900419235229e-01
1.053000000000000000e+03 1.291069602966308594e+01 2.629856348037719727e+00 -1.542701125144958496e-01 -2.707306668162345886e-02 -5.440295487642288208e-02 1.776086539030075073e-01
1.054000000000000000e+03 1.194679260253906250e+01 3.213435411453247070e+00 -1.492841094732284546e-01 -9.399697184562683105e-02 -7.298432290554046631e-02 1.400861293077468872e-01
1.055000000000000000e+03 1.059760951995849609e+01 2.750989198684692383e+00 -5.405043810606002808e-02 -6.349179893732070923e-02 -3.526267036795616150e-02 5.787641927599906921e-02
1.056000000000000000e+03 1.138954925537109375e+01 4.986652374267578125e+00 -2.896016240119934082e-01 -1.969082504510879517e-01 -1.459529697895050049e-01 1.686098575592041016e-01
1.057000000000000000e+03 9.934351921081542969e+00 2.651745080947875977e+00 -3.478716686367988586e-02 -5.276076495647430420e-02 -2.626437880098819733e-02 3.378609940409660339e-02
1.058000000000000000e+03 1.585934829711914062e+01 -8.073465824127197266e-01 -2.251517027616500854e-01 -1.668180674314498901e-01 -1.175909265875816345e-01 -5.856261774897575378e-02
1.059000000000000000e+03 1.292493820190429688e+01 -1.293335437774658203e+00 -1.766306012868881226e-01 -1.386554241180419922e-01 -9.458580613136291504e-02 -1.273122578859329224e-01
1.060000000000000000e+03 1.465210151672363281e+01 -3.454396009445190430e+00 -5.719834193587303162e-02 3.165045753121376038e-03 -1.620998978614807129e-02 -1.108925491571426392e-01
1.061000000000000000e+03 1.676035308837890625e+01 -2.859954595565795898e+00 -3.029979020357131958e-02 1.401929408311843872e-01 3.296794742345809937e-02 6.281094253063201904e-02
1.062000000000000000e+03 6.857047557830810547e+00 -2.658794879913330078e+00 -3.534544631838798523e-02 5.526965018361806870e-03 -8.945544250309467316e-03 -4.904696345329284668e-02
1.063000000000000000e+03 2.518834590911865234e+00 -1.917562961578369141e+00 -2.153306035324931145e-03 -1.796692423522472382e-02 -6.036069244146347046e-03 -1.002702768892049789e-02
1.064000000000000000e+03 1.555630683898925781e+00 -7.666621685028076172e+00 -8.067831513471901417e-04 -2.841057255864143372e-02 -8.765206672251224518e-03 -3.885048208758234978e-03
1.065000000000000000e+03 9.218421936035156250e+00 -3.380370140075683594e+00 -3.817583248019218445e-02 -2.423690864816308022e-03 -1.217985618859529495e-02 -8.055950701236724854e-02
1.066000000000000000e+03 8.375270843505859375e+00 -2.659140586853027344e+00 -5.097797140479087830e-02 6.156136281788349152e-03 -1.344654988497495651e-02 -7.074293494224548340e-02
1.067000000000000000e+03 6.139214038848876953e+00 -1.890776038169860840e+00 -3.561655431985855103e-02 1.580492220818996429e-02 -5.943489726632833481e-03 -2.991587482392787933e-02
1.068000000000000000e+03 7.613851070404052734e+00 -2.665179967880249023e+00 -4.959856346249580383e-02 -6.545674055814743042e-02 -3.451659157872200012e-02 -7.367441803216934204e-02
1.069000000000000000e+03 5.302728176116943359e+00 -2.680135726928710938e+00 -2.166443318128585815e-02 4.538840614259243011e-03 -5.137677770107984543e-03 -2.935188077390193939e-02
1.070000000000000000e+03 2.590242624282836914e+00 -7.596854209899902344e+00 1.096323039382696152e-02 -4.362422227859497070e-02 -9.798297658562660217e-03 -1.715639606118202209e-03
1.071000000000000000e+03 3.948720991611480713e-01 -2.186911821365356445e+00 -3.151659155264496803e-03 1.917358487844467163e-03 -3.702901885844767094e-04 -4.274448438081890345e-04
1.072000000000000000e+03 4.835849702358245850e-01 -3.562772512435913086e+00 2.178068272769451141e-03 -3.771171206608414650e-03 -4.779308801516890526e-04 -1.576308626681566238e-03
1.073000000000000000e+03 1.172812104225158691e+00 -2.109383583068847656e+00 -4.023042507469654083e-03 -4.347641021013259888e-03 -2.511205151677131653e-03 -2.178487135097384453e-03
1.074000000000000000e+03 5.424155592918395996e-01 -4.962998867034912109e+00 -4.996308125555515289e-04 -3.645543474704027176e-03 -1.243552309460937977e-03 2.825258125085383654e-04
1.075000000000000000e+03 9.259777069091796875e+00 2.620465278625488281e+00 -1.505704689770936966e-02 -5.117154121398925781e-02 -1.986857689917087555e-02 1.341328583657741547e-02
1.076000000000000000e+03 7.814641475677490234e+00 2.653852701187133789e+00 -6.033461540937423706e-03 -3.231446817517280579e-02 -1.150437910109758377e-02 -1.747750304639339447e-02
1.077000000000000000e+03 7.080719470977783203e+00 2.666428804397583008e+00 -3.919363487511873245e-03 -2.126889117062091827e-02 -7.556476164609193802e-03 -2.979493886232376099e-02
1.078000000000000000e+03 6.354946136474609375e+00 2.665947437286376953e+00 -1.214760355651378632e-03 -1.536853518337011337e-02 -4.974988754838705063e-03 -3.729121014475822449e-02
1.079000000000000000e+03 5.620119094848632812e+00 2.674060821533203125e+00 1.835767761804163456e-03 -8.054676465690135956e-03 -1.865672529675066471e-03 -4.225577041506767273e-02
1.080000000000000000e+03 1.598147988319396973e+00 7.644522666931152344e+00 -2.298710122704505920e-02 2.251101285219192505e-02 -1.428263931302353740e-04 3.651838377118110657e-02
1.081000000000000000e+03 4.873992443084716797e+00 3.500578880310058594e+00 -3.069207072257995605e-02 -5.733683239668607712e-03 -1.092772651463747025e-02 -3.722693771123886108e-02
1.082000000000000000e+03 1.238080620765686035e+00 3.175218820571899414e+00 -6.095473072491586208e-04 3.792764618992805481e-02 1.119542960077524185e-02 -2.822761423885822296e-02
1.083000000000000000e+03 2.640327215194702148e+00 1.963208556175231934e+00 1.926180161535739899e-02 8.397295139729976654e-03 8.297729305922985077e-03 -3.842556104063987732e-02
1.084000000000000000e+03 1.915142059326171875e+00 2.927776813507080078e+00 4.333271936047822237e-04 2.176359109580516815e-02 6.659075617790222168e-03 -3.700534999370574951e-02
1.085000000000000000e+03 1.897490882873535156e+01 -1.029367208480834961e+00 8.044034987688064575e-02 1.559822261333465576e-01 7.092677056789398193e-02 6.072651222348213196e-02
1.086000000000000000e+03 3.572726821899414062e+01 -1.645094513893127441e+00 -6.914674639701843262e-01 1.059666275978088379e-01 -1.756502538919448853e-01 -6.041030958294868469e-02
1.087000000000000000e+03 3.701570510864257812e+01 -2.876703739166259766e+00 -8.040713071823120117e-01 4.123564660549163818e-01 -1.175144463777542114e-01 -7.784480601549148560e-02
1.088000000000000000e+03 3.446847152709960938e+01 -2.969491958618164062e+00 -5.245572328567504883e-01 1.637472212314605713e-01 -1.082430034875869751e-01 -3.172622919082641602e-01
1.089000000000000000e+03 3.980726623535156250e+01 -3.450934648513793945e+00 -1.513428449630737305e+00 -8.879096060991287231e-02 -4.806658327579498291e-01 -2.053590714931488037e-01
1.090000000000000000e+03 3.798067092895507812e+01 -8.022385835647583008e-01 -5.212942957878112793e-01 1.295323073863983154e-01 -1.175286024808883667e-01 1.383424103260040283e-01
1.091000000000000000e+03 3.828046417236328125e+01 -1.650306463241577148e+00 -7.819353342056274414e-01 1.079807505011558533e-01 -2.021863758563995361e-01 1.941597014665603638e-01
1.092000000000000000e+03 3.270039749145507812e+01 -2.775032043457031250e+00 -4.925560355186462402e-01 -2.394021898508071899e-01 -2.195874750614166260e-01 -1.867478042840957642e-01
1.093000000000000000e+03 3.684277725219726562e+01 -6.879797458648681641e+00 -9.685895405709743500e-03 1.108077645301818848e+00 3.295175433158874512e-01 -1.263287365436553955e-01
1.094000000000000000e+03 1.608633041381835938e+01 3.186415910720825195e+00 -5.360314846038818359e-01 4.087950289249420166e-02 -1.485455930233001709e-01 3.338278234004974365e-01
1.095000000000000000e+03 1.273077106475830078e+01 5.192214965820312500e+00 -3.514735996723175049e-01 -2.250796258449554443e-01 -1.729659736156463623e-01 2.870030999183654785e-01
1.096000000000000000e+03 1.352846908569335938e+01 3.796952247619628906e+00 -2.768262326717376709e-01 -9.644106775522232056e-02 -1.119801923632621765e-01 3.078701496124267578e-01
1.097000000000000000e+03 1.614997100830078125e+01 4.026992321014404297e+00 -4.773535132408142090e-01 4.113958775997161865e-02 -1.308641731739044189e-01 4.065440297126770020e-01
1.098000000000000000e+03 1.126798152923583984e+01 2.934412479400634766e+00 -1.019619703292846680e-01 -6.354571133852005005e-02 -4.965230450034141541e-02 9.695941209793090820e-02
1.099000000000000000e+03 6.583485412597656250e+01 6.583950042724609375e+00 -6.257259845733642578e+00 -2.329538613557815552e-01 -1.947064161300659180e+00 8.395809680223464966e-02
1.100000000000000000e+03 6.152082824707031250e+01 2.646548748016357422e-01 7.494994997978210449e-01 6.899879455566406250e+00 2.294813632965087891e+00 -3.715960502624511719e+00
1.101000000000000000e+03 6.430426788330078125e+01 -2.454323530197143555e+00 6.700682640075683594e+00 1.259173583984375000e+01 5.787725448608398438e+00 3.140183210372924805e+00
1.102000000000000000e+03 6.301077270507812500e+01 -1.112525820732116699e+00 9.463506340980529785e-01 1.415841197967529297e+01 4.531428813934326172e+00 -1.695839405059814453e+00
1.103000000000000000e+03 6.548939514160156250e+01 -2.723839759826660156e+00 4.931218147277832031e+00 8.666172981262207031e+00 4.079217433929443359e+00 3.568261623382568359e+00
1.104000000000000000e+03 6.702357482910156250e+01 -1.645201683044433594e+00 4.704215049743652344e+00 4.131096363067626953e+00 2.650593280792236328e+00 3.742281436920166016e+00
1.105000000000000000e+03 6.453897857666015625e+01 -3.187943458557128906e+00 7.126460552215576172e+00 1.220193099975585938e+01 5.798517704010009766e+00 1.039112806320190430e+00
1.106000000000000000e+03 6.607106018066406250e+01 -3.503109455108642578e+00 2.446505784988403320e+00 6.024198055267333984e+00 2.541211128234863281e+00 2.905252695083618164e+00
1.107000000000000000e+03 6.212360000610351562e+01 -5.878957271575927734e+00 1.307905279099941254e-02 1.152638626098632812e+01 3.461839437484741211e+00 3.485178947448730469e+00
1.108000000000000000e+03 6.525374603271484375e+01 -6.616637706756591797e+00 8.357899188995361328e-01 1.878473663330078125e+01 5.886157989501953125e+00 -4.669926166534423828e-01
1.109000000000000000e+03 2.780861663818359375e+01 1.138242006301879883e+00 -1.030446648597717285e+00 1.209176853299140930e-01 -2.728587090969085693e-01 1.493163853883743286e-01
1.110000000000000000e+03 2.098849487304687500e+01 2.878449440002441406e+00 -8.368657231330871582e-01 -1.091921851038932800e-01 -2.838173806667327881e-01 2.194739133119583130e-01
1.111000000000000000e+03 2.038087272644042969e+01 3.938421487808227539e+00 -5.112757086753845215e-01 -1.217651665210723877e-01 -1.899122595787048340e-01 1.982984393835067749e-01
1.112000000000000000e+03 2.661479377746582031e+01 2.877198934555053711e+00 -6.374084949493408203e-01 8.569394052028656006e-02 -1.655143797397613525e-01 2.386588454246520996e-01
1.113000000000000000e+03 2.500528144836425781e+01 2.683771371841430664e+00 -7.074522376060485840e-01 -4.718632251024246216e-02 -2.263915687799453735e-01 2.818827033042907715e-01
1.114000000000000000e+03 2.878328704833984375e+01 5.321982383728027344e+00 8.152572810649871826e-02 7.308740019798278809e-01 2.437199056148529053e-01 -1.762121170759201050e-02
1.115000000000000000e+03 2.193751907348632812e+01 3.449898481369018555e+00 -6.346738934516906738e-01 -1.276390254497528076e-01 -2.286938726902008057e-01 2.277043312788009644e-01
1.116000000000000000e+03 2.270204925537109375e+01 3.296574592590332031e+00 -6.322743296623229980e-01 -1.345679759979248047e-01 -2.300526797771453857e-01 2.467776685953140259e-01
1.117000000000000000e+03 2.327819442749023438e+01 2.297558784484863281e+00 -8.962582945823669434e-01 -1.158303543925285339e-01 -3.036265969276428223e-01 2.989214658737182617e-01
1.118000000000000000e+03 2.424828720092773438e+01 2.926910638809204102e+00 -6.830453872680664062e-01 -8.878027647733688354e-02 -2.315476983785629272e-01 2.733847200870513916e-01
1.119000000000000000e+03 2.528367233276367188e+01 3.494818687438964844e+00 -5.072204470634460449e-01 -1.697635091841220856e-02 -1.572590470314025879e-01 2.562241256237030029e-01
1.120000000000000000e+03 2.990211486816406250e+01 4.871331691741943359e+00 1.445645838975906372e-01 6.653336286544799805e-01 2.429694682359695435e-01 -2.646773159503936768e-01
1.121000000000000000e+03 2.870603179931640625e+01 1.964663863182067871e+00 -8.694829344749450684e-01 2.772656083106994629e-01 -1.776651889085769653e-01 7.663080841302871704e-02
1.122000000000000000e+03 2.074045753479003906e+01 4.623039245605468750e+00 -3.476292788982391357e-01 -1.342781931161880493e-01 -1.445722430944442749e-01 1.757354885339736938e-01
1.123000000000000000e+03 3.189944839477539062e+01 1.496351838111877441e+00 -1.368143677711486816e+00 2.506976425647735596e-01 -3.352338075637817383e-01 1.790019497275352478e-02
1.124000000000000000e+03 1.770641136169433594e+01 5.606216430664062500e+00 -1.738898605108261108e-01 1.764721721410751343e-01 7.746929768472909927e-04 2.917575538158416748e-01
1.125000000000000000e+03 1.433810329437255859e+01 -1.706382989883422852e+00 -1.737779676914215088e-01 1.075829043984413147e-01 -1.985852047801017761e-02 -3.774859756231307983e-02
1.126000000000000000e+03 1.073745346069335938e+01 -2.501479864120483398e+00 -8.219014853239059448e-02 -1.080941632390022278e-01 -5.708529427647590637e-02 -1.059647798538208008e-01
1.127000000000000000e+03 1.309752082824707031e+01 -2.028957366943359375e+00 -1.048566624522209167e-01 4.788072407245635986e-02 -1.709278114140033722e-02 -7.814887911081314087e-02
1.128000000000000000e+03 1.561582851409912109e+01 -4.865882396697998047e+00 -5.537558346986770630e-02 1.025916263461112976e-01 1.416481379419565201e-02 1.832399144768714905e-02
1.129000000000000000e+03 4.091639709472656250e+01 -2.490288019180297852e+00 -1.280859827995300293e+00 -3.632391691207885742e-01 -4.932297170162200928e-01 2.689518034458160400e-01
1.130000000000000000e+03 4.356101989746093750e+01 -4.061522006988525391e+00 -1.383905172348022461e+00 -1.692713946104049683e-01 -4.659529924392700195e-01 4.742871224880218506e-01
1.131000000000000000e+03 4.405296325683593750e+01 -3.298303365707397461e+00 -1.297594308853149414e+00 6.011711061000823975e-02 -3.712431490421295166e-01 6.850018352270126343e-02
1.132000000000000000e+03 5.166331481933593750e+01 2.776462078094482422e+00 -9.868796467781066895e-01 -5.383411049842834473e-02 -3.122141063213348389e-01 1.260063052177429199e-01
1.133000000000000000e+03 5.085407257080078125e+01 2.717389822006225586e+00 -1.011919736862182617e+00 -3.567903861403465271e-02 -3.142796158790588379e-01 1.214640513062477112e-01
1.134000000000000000e+03 5.023762512207031250e+01 1.609632492065429688e+00 -1.395992636680603027e+00 1.940581761300563812e-02 -4.129760563373565674e-01 5.567689612507820129e-02
1.135000000000000000e+03 5.112820816040039062e+01 3.537314891815185547e+00 -7.214053273200988770e-01 -4.644129052758216858e-02 -2.303539812564849854e-01 1.123329252004623413e-01
1.136000000000000000e+03 4.769779586791992188e+01 -6.808665752410888672e+00 -2.160023152828216553e-01 1.130110263824462891e+00 2.742323875427246094e-01 1.398023366928100586e-01
1.137000000000000000e+03 4.933979797363281250e+01 -4.384613990783691406e+00 -6.442376375198364258e-01 2.430861890316009521e-01 -1.203454285860061646e-01 5.876692533493041992e-01
1.138000000000000000e+03 5.220386886596679688e+01 -3.900154113769531250e+00 -9.502840787172317505e-02 -4.542188644409179688e-01 -1.647741794586181641e-01 2.900297641754150391e-01
1.139000000000000000e+03 4.932999801635742188e+01 -3.568051338195800781e+00 -6.260936260223388672e-01 8.300094306468963623e-02 -1.629278212785720825e-01 5.592049956321716309e-01
1.140000000000000000e+03 4.891523361206054688e+01 -5.852779865264892578e+00 -5.560694932937622070e-01 5.899005532264709473e-01 1.014930382370948792e-02 6.174230575561523438e-01
1.141000000000000000e+03 3.254707336425781250e+01 1.641794085502624512e+00 -1.522688388824462891e+00 2.687440216541290283e-01 -3.761833012104034424e-01 -1.324033550918102264e-02
1.142000000000000000e+03 3.081191444396972656e+01 4.062104701995849609e+00 1.042918581515550613e-02 1.636185795068740845e-01 5.221432819962501526e-02 -1.146790459752082825e-01
1.143000000000000000e+03 3.029994583129882812e+01 3.303200721740722656e+00 -5.165377855300903320e-01 4.361752867698669434e-01 -2.410874515771865845e-02 -3.422039747238159180e-02
1.144000000000000000e+03 3.120705986022949219e+01 1.198034286499023438e+00 -1.121058225631713867e+00 3.042709827423095703e-01 -2.450361698865890503e-01 -1.671071499586105347e-01
1.145000000000000000e+03 1.767792129516601562e+01 4.106899261474609375e+00 -4.975985586643218994e-01 6.185572966933250427e-02 -1.307228505611419678e-01 3.279287219047546387e-01
1.146000000000000000e+03 1.721329498291015625e+01 4.704458713531494141e+00 -4.285424947738647461e-01 9.966868162155151367e-02 -9.866214543581008911e-02 3.716368973255157471e-01
1.147000000000000000e+03 1.517329216003417969e+01 6.671593666076660156e+00 -2.871323823928833008e-01 1.174343656748533249e-02 -8.261667937040328979e-02 1.725471615791320801e-01
1.148000000000000000e+03 4.853088378906250000e+01 1.193448781967163086e+00 -1.303788661956787109e+00 1.323252171277999878e-01 -3.514390587806701660e-01 5.373207107186317444e-02
1.149000000000000000e+03 4.508038330078125000e+01 -3.771893739700317383e+00 -1.017878770828247070e+00 9.837642312049865723e-02 -2.758506834506988525e-01 1.188552007079124451e-01
1.150000000000000000e+03 4.582366561889648438e+01 -5.516636371612548828e+00 -3.967493474483489990e-01 6.386329233646392822e-02 -9.986580908298492432e-02 1.364374458789825439e-01
1.151000000000000000e+03 4.474397659301757812e+01 -4.737611293792724609e+00 -8.169308304786682129e-01 -1.258704364299774170e-01 -2.828403711318969727e-01 2.986888587474822998e-01
1.152000000000000000e+03 4.806592941284179688e+01 -4.364519596099853516e+00 -7.101680636405944824e-01 3.356607854366302490e-01 -1.123521775007247925e-01 4.019111990928649902e-01
1.153000000000000000e+03 3.534106445312500000e+01 -4.563570976257324219e+00 -5.468800067901611328e-01 2.832681536674499512e-01 -7.908355444669723511e-02 -4.141151010990142822e-01
1.154000000000000000e+03 3.294483947753906250e+01 -3.574837923049926758e+00 -3.696368634700775146e-01 -9.211961925029754639e-02 -1.385269463062286377e-01 -3.544355034828186035e-01
1.155000000000000000e+03 3.208895111083984375e+01 -3.929216384887695312e+00 -1.800687760114669800e-01 -3.907589018344879150e-01 -1.712483018636703491e-01 -2.443287372589111328e-01
1.156000000000000000e+03 3.110445022583007812e+01 -4.227383613586425781e+00 -7.400894165039062500e-02 -3.423537313938140869e-01 -1.249088048934936523e-01 -3.236789703369140625e-01
1.157000000000000000e+03 1.814287376403808594e+01 -1.980619907379150391e+00 1.178848072886466980e-01 3.787211179733276367e-01 1.489817798137664795e-01 2.092848159372806549e-02
1.158000000000000000e+03 1.503756427764892578e+01 -1.768168807029724121e+00 -1.050014942884445190e-01 -1.134983822703361511e-01 -6.554996222257614136e-02 -1.461393535137176514e-01
1.159000000000000000e+03 5.651811218261718750e+01 2.658800601959228516e+00 -7.840337157249450684e-01 1.724026799201965332e+00 2.819979488849639893e-01 -1.377838730812072754e+00
1.160000000000000000e+03 5.894860839843750000e+01 -2.153477966785430908e-01 1.593438625335693359e+00 2.548840761184692383e+00 1.242683768272399902e+00 -2.205753326416015625e+00
1.161000000000000000e+03 6.319110107421875000e+01 -3.109991252422332764e-01 4.205875098705291748e-01 1.108070564270019531e+01 3.450387954711914062e+00 -9.265921115875244141e-01
1.162000000000000000e+03 6.059866714477539062e+01 -1.215350031852722168e+00 2.933100223541259766e+00 3.126950502395629883e+00 1.818015217781066895e+00 -3.614805459976196289e+00
1.163000000000000000e+03 3.981372451782226562e+01 4.623088836669921875e+00 9.698958694934844971e-02 -5.191349983215332031e-01 -1.266436278820037842e-01 2.113420814275741577e-01
1.164000000000000000e+03 4.573619461059570312e+01 3.653809070587158203e+00 -8.925886750221252441e-01 2.230086177587509155e-01 -2.008740007877349854e-01 1.639821976423263550e-01
1.165000000000000000e+03 4.269986724853515625e+01 3.104328155517578125e+00 -1.011168479919433594e+00 -8.865704387426376343e-02 -3.299476504325866699e-01 1.466584056615829468e-01
1.166000000000000000e+03 3.891585540771484375e+01 4.083545207977294922e+00 3.868383765220642090e-01 5.040026903152465820e-01 2.672523260116577148e-01 5.237372517585754395e-01
1.167000000000000000e+03 3.950916290283203125e+01 3.363216161727905273e+00 2.623915076255798340e-01 -8.593062162399291992e-01 -1.790744215250015259e-01 -2.795725762844085693e-01
1.168000000000000000e+03 4.871688461303710938e+01 6.433946609497070312e+00 -4.528541117906570435e-02 1.244928091764450073e-01 2.376222051680088043e-02 -7.267956435680389404e-02
1.169000000000000000e+03 4.996395492553710938e+01 2.642550945281982422e+00 -1.065814256668090820e+00 3.563268482685089111e-02 -3.090544641017913818e-01 1.317144185304641724e-01
1.170000000000000000e+03 4.908876037597656250e+01 2.351136207580566406e+00 -1.117886304855346680e+00 1.164772287011146545e-01 -3.004227280616760254e-01 1.009001061320304871e-01
1.171000000000000000e+03 3.990483093261718750e+01 -2.354143333435058594e+01 4.902409017086029053e-02 4.608942568302154541e-01 1.529754996299743652e-01 4.388794302940368652e-02
1.172000000000000000e+03 4.813916015625000000e+01 -2.598792266845703125e+01 2.035761326551437378e-01 7.909578680992126465e-01 2.983601987361907959e-01 -6.440187692642211914e-01
1.173000000000000000e+03 4.747882843017578125e+01 2.499855804443359375e+01 4.183689057826995850e-01 1.820492148399353027e+00 6.716583371162414551e-01 1.107393298298120499e-02
1.174000000000000000e+03 4.746833038330078125e+01 2.890449142456054688e+01 6.497842073440551758e-01 2.154705762863159180e+00 8.413469791412353516e-01 -5.106020569801330566e-01
1.175000000000000000e+03 1.783519554138183594e+01 -2.223906326293945312e+01 -1.855643093585968018e-01 -1.335356533527374268e-01 -9.572999179363250732e-02 -4.001331925392150879e-01
1.176000000000000000e+03 4.741709899902343750e+01 -1.293719387054443359e+01 -1.110125899314880371e+00 1.155313849449157715e+00 1.355637889355421066e-02 -1.581057347357273102e-02
1.177000000000000000e+03 5.293048095703125000e+01 -9.547331809997558594e+00 -8.820464015007019043e-01 -6.869828701019287109e-01 -4.707087874412536621e-01 4.439781904220581055e-01
1.178000000000000000e+03 3.304248428344726562e+01 1.567361354827880859e+01 2.930386066436767578e-01 1.793209612369537354e-01 1.417078673839569092e-01 3.862475454807281494e-01
1.179000000000000000e+03 3.111747741699218750e+01 1.619644355773925781e+01 7.222920656204223633e-01 1.095916271209716797e+00 5.454624891281127930e-01 7.525374889373779297e-01
1.180000000000000000e+03 6.041505050659179688e+01 3.539939498901367188e+01 -8.523387312889099121e-01 5.742736160755157471e-02 -2.384734004735946655e-01 2.417012453079223633e-01
1.181000000000000000e+03 6.245446777343750000e+01 3.407683944702148438e+01 1.097696721553802490e-01 2.264178037643432617e+00 7.121843099594116211e-01 -6.820816993713378906e-01
1.182000000000000000e+03 4.932540893554687500e+01 -3.549900817871093750e+01 9.980843067169189453e-01 3.110697269439697266e+00 1.232634425163269043e+00 1.305290102958679199e+00
1.183000000000000000e+03 4.266168212890625000e+01 -4.103810882568359375e+01 6.458754539489746094e-01 5.377350449562072754e-01 3.550831377506256104e-01 -2.807779610157012939e-02
1.184000000000000000e+03 3.679299926757812500e+01 -4.112784576416015625e+01 4.009833633899688721e-01 4.197795093059539795e-01 2.462288588285446167e-01 -2.602184377610683441e-02
1.185000000000000000e+03 5.333639907836914062e+01 -3.615550613403320312e+01 4.539854526519775391e-01 3.616212368011474609e+00 1.221059322357177734e+00 9.116959571838378906e-01
1.186000000000000000e+03 5.003197479248046875e+01 -3.012594604492187500e+01 7.107703685760498047e-01 1.678920984268188477e+00 7.169074416160583496e-01 -2.680547833442687988e-01
1.187000000000000000e+03 4.863618469238281250e+01 -4.795484066009521484e+00 -7.392981648445129395e-01 4.348990023136138916e-01 -9.131974726915359497e-02 5.575085878372192383e-01
1.188000000000000000e+03 4.763695907592773438e+01 -8.043441772460937500e+00 1.166297644376754761e-01 1.818009376525878906e+00 5.803917646408081055e-01 -1.420571058988571167e-01
1.189000000000000000e+03 5.782168197631835938e+01 4.125720977783203125e+01 3.980115950107574463e-01 1.060127735137939453e+00 4.374417960643768311e-01 9.974592924118041992e-02
1.190000000000000000e+03 1.977986145019531250e+01 2.924001121520996094e+01 -7.730634510517120361e-02 -9.237117171287536621e-01 -3.003054261207580566e-01 1.298865526914596558e-01
1.191000000000000000e+03 1.595769786834716797e+01 -2.316831779479980469e+01 -8.245945721864700317e-02 -3.514187335968017578e-01 -1.301634609699249268e-01 -3.295773863792419434e-01
1.192000000000000000e+03 1.728528976440429688e+01 -2.688584709167480469e+01 1.427603513002395630e-01 -1.212408691644668579e-01 6.455843336880207062e-03 -1.113199815154075623e-01
1.193000000000000000e+03 1.852450561523437500e+01 -2.582758903503417969e+01 4.308907389640808105e-01 4.547641798853874207e-02 1.429101377725601196e-01 -2.913677394390106201e-01
1.194000000000000000e+03 4.374828720092773438e+01 -2.766902923583984375e+01 5.224175453186035156e-01 5.583379045128822327e-02 1.734753996133804321e-01 -3.218470606952905655e-03
1.195000000000000000e+03 3.993133544921875000e+01 -1.763869524002075195e+00 -7.683025598526000977e-01 -2.175207883119583130e-01 -2.957470118999481201e-01 3.106639683246612549e-01
1.196000000000000000e+03 4.098836898803710938e+01 -3.447254419326782227e+00 -2.258704423904418945e+00 -3.525473177433013916e-01 -7.833755016326904297e-01 -2.045834809541702271e-01
1.197000000000000000e+03 3.578892517089843750e+01 -9.185804367065429688e+00 3.089098930358886719e-01 5.884050130844116211e-01 2.691944837570190430e-01 -2.536582052707672119e-01
1.198000000000000000e+03 3.709127807617187500e+01 -9.051020622253417969e+00 3.628344237804412842e-01 1.884565472602844238e+00 6.742199659347534180e-01 -4.945242106914520264e-01
1.199000000000000000e+03 2.170298385620117188e+01 1.924988365173339844e+01 -1.331233382225036621e-01 -2.403291910886764526e-01 -1.120357587933540344e-01 4.043281823396682739e-02
1.200000000000000000e+03 2.128138732910156250e+01 1.608039093017578125e+01 -3.045154809951782227e-01 -1.747364699840545654e-01 -1.437755823135375977e-01 1.383027136325836182e-01
1.201000000000000000e+03 3.291482925415039062e+01 2.303412246704101562e+01 -1.794839501380920410e-01 -5.432449653744697571e-02 -7.014252990484237671e-02 2.941384613513946533e-01
1.202000000000000000e+03 4.256366729736328125e+01 -2.774302291870117188e+01 7.601166963577270508e-01 3.939845860004425049e-01 3.462303876876831055e-01 4.102388918399810791e-01
1.203000000000000000e+03 2.084169769287109375e+01 3.200047302246093750e+01 -6.801657378673553467e-02 -2.691190242767333984e-01 -1.011406779289245605e-01 8.456950075924396515e-03
1.204000000000000000e+03 3.210366058349609375e+01 1.402028179168701172e+01 -2.101069241762161255e-01 3.761688470840454102e-01 4.981857538223266602e-02 4.578384160995483398e-01
1.205000000000000000e+03 2.788980484008789062e+01 1.226065731048583984e+01 3.895879164338111877e-02 3.049114346504211426e-01 1.031610667705535889e-01 2.533015310764312744e-01
1.206000000000000000e+03 2.959910774230957031e+01 9.889966011047363281e+00 3.203691542148590088e-01 1.109841227531433105e+00 4.290631115436553955e-01 4.896962344646453857e-01
1.207000000000000000e+03 3.741143035888671875e+01 1.673010063171386719e+01 3.665135204792022705e-01 -3.905262947082519531e-01 -7.203832734376192093e-03 1.858077496290206909e-01
1.208000000000000000e+03 3.761683654785156250e+01 -6.113076686859130859e+00 -1.773377694189548492e-02 7.713821530342102051e-01 2.260945141315460205e-01 2.078976109623908997e-02
1.209000000000000000e+03 3.611516571044921875e+01 -7.550228595733642578e+00 1.875050961971282959e-01 9.652261137962341309e-01 3.458193540573120117e-01 -5.462168455123901367e-01
1.210000000000000000e+03 1.977251052856445312e+01 1.828034019470214844e+01 -3.362285196781158447e-01 -1.588336676359176636e-01 -1.485186517238616943e-01 9.362506121397018433e-02
1.211000000000000000e+03 3.638536834716796875e+01 -1.270289707183837891e+01 -6.033245921134948730e-01 8.370725512504577637e-01 7.012437283992767334e-02 -2.006150931119918823e-01
1.212000000000000000e+03 3.684572219848632812e+01 -4.056988239288330078e+00 -7.820196151733398438e-01 4.796523749828338623e-01 -9.071017056703567505e-02 -1.872021853923797607e-01
1.213000000000000000e+03 3.686993408203125000e+01 -5.434525012969970703e+00 -4.682873189449310303e-01 6.316215991973876953e-01 4.900028929114341736e-02 -2.879272699356079102e-01
1.214000000000000000e+03 4.448347473144531250e+01 -1.452218532562255859e+01 -1.144614577293395996e+00 3.131401166319847107e-02 -3.339901864528656006e-01 1.204069238156080246e-02
1.215000000000000000e+03 4.405622863769531250e+01 -1.346564960479736328e+01 -2.220567703247070312e+00 -1.714134365320205688e-01 -7.175943255424499512e-01 -4.939066767692565918e-01
1.216000000000000000e+03 2.979796028137207031e+01 2.868041419982910156e+01 2.393361739814281464e-02 -3.469470143318176270e-01 -9.690402448177337646e-02 2.063197493553161621e-01
1.217000000000000000e+03 3.171260643005371094e+01 2.189297103881835938e+01 -2.102192677557468414e-02 -7.469755411148071289e-02 -2.871584519743919373e-02 6.303793191909790039e-02
1.218000000000000000e+03 3.753443145751953125e+01 2.301692008972167969e+01 -2.431127242743968964e-02 -7.143930345773696899e-02 -2.872517332434654236e-02 8.435603976249694824e-02
1.219000000000000000e+03 3.068089866638183594e+01 2.768965721130371094e+01 -1.595332324504852295e-01 -3.608802855014801025e-01 -1.561240553855895996e-01 2.401915937662124634e-01
1.220000000000000000e+03 3.353546524047851562e+01 2.964701461791992188e+01 1.520248353481292725e-01 2.492731064558029175e-01 1.203893795609474182e-01 4.152154549956321716e-02
1.221000000000000000e+03 4.650536346435546875e+01 -1.219761753082275391e+01 -7.517073750495910645e-01 4.040099084377288818e-01 -1.043092459440231323e-01 -1.655212230980396271e-02
1.222000000000000000e+03 4.708623123168945312e+01 -1.414166641235351562e+01 -1.023640036582946777e+00 9.571766853332519531e-01 -1.993900164961814880e-02 3.080288469791412354e-01
1.223000000000000000e+03 3.198593330383300781e+01 -2.718624305725097656e+01 4.734822809696197510e-01 3.374736011028289795e-01 2.432867586612701416e-01 -3.928109109401702881e-01
1.224000000000000000e+03 2.655212593078613281e+01 -3.370117950439453125e+01 2.572242356836795807e-02 -1.866926401853561401e-01 -4.829106479883193970e-02 -8.526968955993652344e-02
1.225000000000000000e+03 2.055858612060546875e+01 1.277814102172851562e+01 -5.949419923126697540e-03 -2.113313525915145874e-01 -6.518422812223434448e-02 2.451418153941631317e-02
1.226000000000000000e+03 4.578390121459960938e+01 -1.420590019226074219e+01 -1.160091757774353027e+00 5.027909874916076660e-01 -1.971902102231979370e-01 1.236037537455558777e-01
1.227000000000000000e+03 2.053793334960937500e+01 2.087889099121093750e+01 -2.132525295019149780e-02 -1.108918339014053345e-01 -3.966512531042098999e-02 -1.317931804805994034e-02
1.228000000000000000e+03 2.053023910522460938e+01 2.524852371215820312e+01 6.140449047088623047e-01 -9.572818875312805176e-02 1.554950177669525146e-01 5.128775835037231445e-01
1.229000000000000000e+03 4.672447204589843750e+01 -6.370275020599365234e+00 -1.128304675221443176e-01 6.864070892333984375e-01 1.720729917287826538e-01 -1.114737242460250854e-01
1.230000000000000000e+03 4.606002044677734375e+01 -3.840423345565795898e+00 -8.733870983123779297e-01 1.825144141912460327e-01 -2.072618007659912109e-01 3.826895356178283691e-02
1.231000000000000000e+03 4.774478149414062500e+01 -3.728300571441650391e+00 -7.690054178237915039e-01 2.191459834575653076e-01 -1.649578362703323364e-01 3.289295434951782227e-01
1.232000000000000000e+03 2.141778945922851562e+01 2.789610481262207031e+01 2.739575803279876709e-01 -1.350155621767044067e-01 4.168260842561721802e-02 4.334455728530883789e-01
1.233000000000000000e+03 2.096147918701171875e+01 2.856258201599121094e+01 5.669245868921279907e-02 -2.467038035392761230e-01 -5.700340494513511658e-02 3.584768772125244141e-01
1.234000000000000000e+03 2.039163970947265625e+01 1.134247016906738281e+01 1.039431151002645493e-02 -1.430021375417709351e-01 -3.978234902024269104e-02 2.676445245742797852e-02
1.235000000000000000e+03 2.555944442749023438e+01 1.574406623840332031e+01 -5.469750165939331055e-01 -1.817302405834197998e-01 -2.186115831136703491e-01 2.756885588169097900e-01
1.236000000000000000e+03 4.735210418701171875e+01 -5.225957870483398438e+00 -7.463695406913757324e-01 6.003927588462829590e-01 -4.379304125905036926e-02 3.618274331092834473e-01
1.237000000000000000e+03 2.080905342102050781e+01 2.219950103759765625e+01 1.525196582078933716e-01 -1.269050687551498413e-01 7.684377022087574005e-03 7.296812534332275391e-02
1.238000000000000000e+03 3.868074035644531250e+01 -3.052883529663085938e+01 3.929418325424194336e-01 7.512071728706359863e-01 3.432447016239166260e-01 2.911682724952697754e-01
1.239000000000000000e+03 3.288864517211914062e+01 1.971663093566894531e+01 9.249746799468994141e-02 3.468218445777893066e-01 1.317957937717437744e-01 3.784103393554687500e-01
1.240000000000000000e+03 3.180186462402343750e+01 1.935956954956054688e+01 -1.606727950274944305e-02 4.244855344295501709e-01 1.225254759192466736e-01 1.048223078250885010e-01
1.241000000000000000e+03 3.263539123535156250e+01 2.181073379516601562e+01 -7.112565916031599045e-03 -4.858569055795669556e-02 -1.670947670936584473e-02 2.252744138240814209e-01
1.242000000000000000e+03 3.262785339355468750e+01 2.079297447204589844e+01 2.116725035011768341e-02 1.079679727554321289e-01 3.874056786298751831e-02 1.955036967992782593e-01
1.243000000000000000e+03 5.319005203247070312e+01 -1.398676681518554688e+01 -3.211475908756256104e-02 -1.129334568977355957e-01 -4.351446405053138733e-02 -4.314169660210609436e-02
1.244000000000000000e+03 5.201192855834960938e+01 -9.028745651245117188e+00 -7.855017781257629395e-01 -5.133352875709533691e-01 -3.896511197090148926e-01 3.245304822921752930e-01
1.245000000000000000e+03 3.992881011962890625e+01 -2.555711507797241211e+00 -1.344471812248229980e+00 -5.376993864774703979e-02 -4.194725453853607178e-01 2.214450687170028687e-01
1.246000000000000000e+03 3.747651290893554688e+01 -1.878503799438476562e+00 -7.384989857673645020e-01 3.002119958400726318e-01 -1.314860880374908447e-01 6.849145144224166870e-02
1.247000000000000000e+03 3.553627777099609375e+01 -1.265940856933593750e+01 -5.249387025833129883e-01 3.916700184345245361e-01 -3.998060896992683411e-02 -8.330422639846801758e-02
1.248000000000000000e+03 3.726459884643554688e+01 -1.299414443969726562e+01 -6.143270730972290039e-01 8.813912272453308105e-01 8.011923730373382568e-02 -1.552065908908843994e-01
1.249000000000000000e+03 3.984584426879882812e+01 -3.986735153198242188e+01 5.202972292900085449e-01 4.823257625102996826e-01 3.007868826389312744e-01 -1.501284688711166382e-01
1.250000000000000000e+03 3.958496475219726562e+01 -3.535028457641601562e+01 3.472032248973846436e-01 8.446568846702575684e-01 3.575580120086669922e-01 -4.029899239540100098e-01
1.251000000000000000e+03 4.865121841430664062e+01 -2.688443565368652344e+01 2.547397315502166748e-01 7.420023083686828613e-01 2.990226149559020996e-01 -7.241350412368774414e-01
1.252000000000000000e+03 3.844559478759765625e+01 -3.781711578369140625e+01 3.449174761772155762e-01 5.967851877212524414e-01 2.825107872486114502e-01 -1.976452916860580444e-01
1.253000000000000000e+03 4.555580902099609375e+01 -4.015853500366210938e+01 6.830271482467651367e-01 8.284814357757568359e-01 4.534525871276855469e-01 2.254164069890975952e-01
1.254000000000000000e+03 5.433123397827148438e+01 1.984400367736816406e+01 -2.151829898357391357e-01 3.107573270797729492e+00 8.677170872688293457e-01 -1.901056408882141113e+00
1.255000000000000000e+03 5.792469024658203125e+01 2.044742202758789062e+01 -1.766075044870376587e-01 2.369073390960693359e+00 6.577397584915161133e-01 -5.517955422401428223e-01
1.256000000000000000e+03 3.887221527099609375e+01 -2.770088958740234375e+01 2.360018044710159302e-01 4.766834974288940430e-01 2.138056010007858276e-01 2.505431473255157471e-01
1.257000000000000000e+03 3.710525512695312500e+01 -3.283121490478515625e+01 4.279778599739074707e-01 6.248932480812072754e-01 3.158613443374633789e-01 -3.638751804828643799e-02
1.258000000000000000e+03 3.838589859008789062e+01 -3.333639144897460938e+01 2.949429750442504883e-01 1.047905445098876953e+00 4.028545320034027100e-01 -7.808455824851989746e-02
1.259000000000000000e+03 5.312119293212890625e+01 -3.327695465087890625e+01 1.289095640182495117e+00 3.682511568069458008e+00 1.491482138633728027e+00 1.122748136520385742e+00
1.260000000000000000e+03 3.112987136840820312e+01 1.179765796661376953e+01 9.661860764026641846e-02 6.488988399505615234e-01 2.236552387475967407e-01 4.331573843955993652e-01
1.261000000000000000e+03 3.174878120422363281e+01 1.283935546875000000e+01 -3.474880754947662354e-01 4.919011890888214111e-01 4.332393035292625427e-02 4.205155968666076660e-01
1.262000000000000000e+03 4.751762771606445312e+01 -2.498999023437500000e+01 5.557860061526298523e-02 9.370954036712646484e-01 2.978021800518035889e-01 -5.740584731101989746e-01
1.263000000000000000e+03 4.785901641845703125e+01 -2.331113815307617188e+01 3.858506679534912109e-01 8.355360031127929688e-01 3.664160072803497314e-01 -5.663723349571228027e-01
1.264000000000000000e+03 6.707897186279296875e+01 3.002863883972167969e+01 8.939141035079956055e-01 4.126883506774902344e+00 1.506239175796508789e+00 4.502481818199157715e-01
1.265000000000000000e+03 3.944812393188476562e+01 -2.543427276611328125e+01 1.074374616146087646e-01 4.728862643241882324e-01 1.740971207618713379e-01 1.907987445592880249e-01
1.266000000000000000e+03 3.955540084838867188e+01 -2.695863151550292969e+01 1.890466660261154175e-01 5.340664982795715332e-01 2.169339358806610107e-01 2.646990418434143066e-01
1.267000000000000000e+03 3.221871185302734375e+01 -2.993815231323242188e+01 3.693084120750427246e-01 2.710289955139160156e-01 1.921012252569198608e-01 -2.316240817308425903e-01
1.268000000000000000e+03 2.900096702575683594e+01 7.913941860198974609e+00 1.567833125591278076e-01 1.209399580955505371e+00 4.098548591136932373e-01 2.267784476280212402e-01
1.269000000000000000e+03 2.600020980834960938e+01 3.172888755798339844e+00 -5.548806786537170410e-01 5.120874941349029541e-02 -1.511015743017196655e-01 2.462296485900878906e-01
1.270000000000000000e+03 2.739017295837402344e+01 -2.175119972229003906e+01 5.742710083723068237e-02 -8.155402541160583496e-02 -7.238077465444803238e-03 -1.631351709365844727e-01
1.271000000000000000e+03 2.927524375915527344e+01 -2.611363220214843750e+01 3.830036818981170654e-01 8.529776334762573242e-02 1.404904276132583618e-01 -2.293601930141448975e-01
1.272000000000000000e+03 3.830811309814453125e+01 -2.966371345520019531e+01 3.925619125366210938e-01 5.237810611724853516e-01 2.749028801918029785e-01 2.090093344449996948e-01
1.273000000000000000e+03 3.606872177124023438e+01 -2.834207153320312500e+01 2.649001479148864746e-01 4.219021648168563843e-02 9.212710708379745483e-02 3.155680000782012939e-02
1.274000000000000000e+03 3.595037841796875000e+01 -1.524713420867919922e+01 -7.412895560264587402e-01 2.017636150121688843e-01 -1.618577837944030762e-01 -5.718774348497390747e-02
1.275000000000000000e+03 3.699247741699218750e+01 -1.597879409790039062e+01 -1.040500551462173462e-01 6.390873193740844727e-01 1.605111807584762573e-01 -2.606686353683471680e-01
1.276000000000000000e+03 2.743400382995605469e+01 -2.448888969421386719e+01 3.073189556598663330e-01 -4.895594343543052673e-02 7.750890403985977173e-02 -2.041568309068679810e-01
1.277000000000000000e+03 4.841199111938476562e+01 -1.531860733032226562e+01 -7.021408081054687500e-01 1.043234705924987793e+00 1.023281887173652649e-01 4.528747498989105225e-01
1.278000000000000000e+03 5.098841094970703125e+01 -1.527927303314208984e+01 -3.814893066883087158e-01 3.833925351500511169e-02 -1.029450148344039917e-01 6.179864332079887390e-02
1.279000000000000000e+03 3.555477142333984375e+01 -1.154678344726562500e+01 -1.472992599010467529e-01 5.645333528518676758e-01 1.251702308654785156e-01 -7.136029005050659180e-02
1.280000000000000000e+03 3.121005630493164062e+01 -1.451232528686523438e+01 -7.017051577568054199e-01 -1.774880439043045044e-01 -2.637579441070556641e-01 -7.760337740182876587e-02
1.281000000000000000e+03 3.867784881591796875e+01 -2.643420410156250000e+01 1.646953076124191284e-01 3.143638968467712402e-01 1.437177658081054688e-01 1.805719435214996338e-01
1.282000000000000000e+03 3.816262817382812500e+01 -1.266841888427734375e+01 -5.609535574913024902e-01 1.095982789993286133e+00 1.605087816715240479e-01 -2.390237897634506226e-01
1.283000000000000000e+03 3.002164840698242188e+01 -1.473442745208740234e+01 -5.501241683959960938e-01 -2.694222331047058105e-01 -2.458639293909072876e-01 -1.740196943283081055e-01
1.284000000000000000e+03 3.030311775207519531e+01 -1.606814765930175781e+01 -3.234822154045104980e-01 -2.150231599807739258e-01 -1.615516096353530884e-01 -1.409950405359268188e-01
1.285000000000000000e+03 4.370471572875976562e+01 -2.689159202575683594e+01 6.018930077552795410e-01 2.763485312461853027e-01 2.634724676609039307e-01 1.046629548072814941e-01
1.286000000000000000e+03 3.852754974365234375e+01 -2.860539436340332031e+01 3.194149732589721680e-01 4.541037380695343018e-01 2.320556044578552246e-01 2.701381444931030273e-01
1.287000000000000000e+03 2.782576370239257812e+01 -2.061924362182617188e+01 -3.683081269264221191e-02 -1.406045854091644287e-01 -5.323062092065811157e-02 -1.024414151906967163e-01
1.288000000000000000e+03 2.890187072753906250e+01 -2.100563621520996094e+01 -3.081524919252842665e-04 -1.669938862323760986e-01 -5.019061267375946045e-02 -4.310416057705879211e-02
1.289000000000000000e+03 3.013927841186523438e+01 -2.706330299377441406e+01 4.187848865985870361e-01 1.627367883920669556e-01 1.744564920663833618e-01 -2.939410507678985596e-01
1.290000000000000000e+03 3.933546447753906250e+01 -1.980451202392578125e+01 2.501344680786132812e-01 8.094764351844787598e-01 3.178832828998565674e-01 -4.277030527591705322e-01
1.291000000000000000e+03 4.034648132324218750e+01 -1.856291961669921875e+01 3.227056562900543213e-01 3.540949225425720215e-01 2.030401676893234253e-01 -4.199378490447998047e-01
1.292000000000000000e+03 2.892354202270507812e+01 -1.708390045166015625e+01 -2.066537737846374512e-01 -3.063873946666717529e-01 -1.539123505353927612e-01 -1.845137625932693481e-01
1.293000000000000000e+03 2.858241081237792969e+01 -1.816576194763183594e+01 -1.050547957420349121e-01 -2.804314792156219482e-01 -1.156458780169487000e-01 -1.136654913425445557e-01
1.294000000000000000e+03 5.397382736206054688e+01 2.648348045349121094e+01 1.164498209953308105e+00 6.184355735778808594e+00 2.204656124114990234e+00 -1.726351499557495117e+00
1.295000000000000000e+03 5.142151260375976562e+01 2.854056358337402344e+01 7.918338179588317871e-01 3.893691539764404297e+00 1.405657649040222168e+00 -4.374093413352966309e-01
1.296000000000000000e+03 4.474712753295898438e+01 -1.776119995117187500e+01 2.694344222545623779e-01 6.741437911987304688e-01 2.830734550952911377e-01 1.647407934069633484e-02
1.297000000000000000e+03 4.726950836181640625e+01 -1.791338920593261719e+01 6.565685272216796875e-01 1.791321754455566406e+00 7.343670725822448730e-01 8.092603683471679688e-01
1.298000000000000000e+03 3.096304702758789062e+01 -2.803905677795410156e+01 4.800565838813781738e-01 1.883522868156433105e-01 2.005226612091064453e-01 -2.818242907524108887e-01
1.299000000000000000e+03 6.257776260375976562e+01 2.516364669799804688e+01 1.935014843940734863e+00 4.800806999206542969e+00 2.020746469497680664e+00 2.825284242630004883e+00
1.300000000000000000e+03 6.506000518798828125e+01 2.611439323425292969e+01 1.588870525360107422e+00 3.565936088562011719e+00 1.546442031860351562e+00 8.985822796821594238e-01
1.301000000000000000e+03 2.785824394226074219e+01 1.055008411407470703e+01 2.611756622791290283e-01 4.004971385002136230e-01 1.985018402338027954e-01 2.283898442983627319e-01
1.302000000000000000e+03 9.769626617431640625e+00 -1.162753295898437500e+01 -4.521987959742546082e-02 -1.096997335553169250e-01 -4.647588357329368591e-02 -9.895644336938858032e-02
1.303000000000000000e+03 1.017257118225097656e+01 -1.258484554290771484e+01 -1.418812572956085205e-01 -3.343083709478378296e-02 -5.259362980723381042e-02 -5.193585902452468872e-02
1.304000000000000000e+03 1.375235557556152344e+01 6.782045364379882812e+00 -8.853526711463928223e-01 -2.213676869869232178e-01 -3.320161104202270508e-01 3.712190687656402588e-01
1.305000000000000000e+03 2.866614532470703125e+01 1.298459243774414062e+01 -4.467738792300224304e-02 4.378830194473266602e-01 1.179616898298263550e-01 3.866104483604431152e-01
1.306000000000000000e+03 2.868969345092773438e+01 1.114105224609375000e+01 1.972171962261199951e-01 5.750246047973632812e-01 2.316725254058837891e-01 2.434908002614974976e-01
1.307000000000000000e+03 6.223689270019531250e+01 2.111718559265136719e+01 -2.322419643402099609e+00 3.748516798019409180e+00 4.278291761875152588e-01 2.236515045166015625e+00
1.308000000000000000e+03 6.090756225585937500e+01 2.109155845642089844e+01 -1.665598988533020020e+00 3.650252342224121094e+00 5.953960418701171875e-01 1.783178925514221191e+00
1.309000000000000000e+03 2.960367774963378906e+01 1.910828471183776855e+00 -9.413574337959289551e-01 3.522604107856750488e-01 -1.767291128635406494e-01 6.670153886079788208e-02
1.310000000000000000e+03 3.172903823852539062e+01 3.210267543792724609e+00 -3.268229365348815918e-01 5.771484225988388062e-02 -8.073242753744125366e-02 8.974014222621917725e-02
1.311000000000000000e+03 2.396751785278320312e+01 -1.680614662170410156e+01 -4.002150893211364746e-01 -3.068678081035614014e-01 -2.121248692274093628e-01 -3.849818408489227295e-01
1.312000000000000000e+03 1.407742118835449219e+01 -3.795996475219726562e+01 2.581070959568023682e-01 1.516393274068832397e-01 1.229239329695701599e-01 -1.873849928379058838e-01
1.313000000000000000e+03 6.096458053588867188e+01 2.386761093139648438e+01 -4.005858004093170166e-01 2.104162693023681641e+00 5.110731124877929688e-01 1.519315719604492188e+00
1.314000000000000000e+03 5.376374435424804688e+01 3.439900970458984375e+01 -7.963455468416213989e-02 3.102370023727416992e+00 9.068205952644348145e-01 3.136326670646667480e-01
1.315000000000000000e+03 4.704567337036132812e+01 3.209600067138671875e+01 5.474864244461059570e-01 1.941532850265502930e+00 7.467057704925537109e-01 -6.496408581733703613e-01
1.316000000000000000e+03 5.182793807983398438e+01 3.200061416625976562e+01 5.754731893539428711e-01 3.388920545578002930e+00 1.189318180084228516e+00 -2.816738188266754150e-01
1.317000000000000000e+03 5.974694061279296875e+01 2.235612487792968750e+01 -2.045739650726318359e+00 1.695625066757202148e+00 -1.050344109535217285e-01 1.592888712882995605e+00
1.318000000000000000e+03 5.429970169067382812e+01 2.384482192993164062e+01 -1.088878273963928223e+00 3.914516925811767578e+00 8.476915955543518066e-01 -1.295788526535034180e+00
1.319000000000000000e+03 1.404557418823242188e+01 -3.986647796630859375e+01 4.895628094673156738e-01 2.172500267624855042e-02 1.533863395452499390e-01 -1.616743057966232300e-01
1.320000000000000000e+03 6.390749359130859375e+01 -1.812649726867675781e+01 -3.922399878501892090e-01 7.330347061157226562e+00 2.081432104110717773e+00 -1.562342643737792969e-01
1.321000000000000000e+03 6.560134124755859375e+01 -1.715923309326171875e+01 -2.084472179412841797e+00 5.068722248077392578e+00 8.952750563621520996e-01 1.057705402374267578e+00
1.322000000000000000e+03 5.620416259765625000e+01 3.463006210327148438e+01 5.409699678421020508e-01 8.910083770751953125e-01 4.295935034751892090e-01 6.889870166778564453e-01
1.323000000000000000e+03 2.541417312622070312e+01 -3.082052421569824219e+01 1.554507017135620117e-01 -1.975122690200805664e-01 -1.261847000569105148e-02 -1.534381806850433350e-01
1.324000000000000000e+03 1.439572620391845703e+01 -1.415174293518066406e+01 1.620531082153320312e-01 3.734740316867828369e-01 1.606581509113311768e-01 -1.970496475696563721e-01
1.325000000000000000e+03 2.931644821166992188e+01 -9.853652000427246094e+00 -6.111060380935668945e-01 -1.640761017799377441e+00 -6.755601167678833008e-01 -7.031808495521545410e-01
1.326000000000000000e+03 2.768899726867675781e+01 -1.196098136901855469e+01 -1.139939069747924805e+00 -7.582721114158630371e-01 -5.694633722305297852e-01 -7.899989485740661621e-01
1.327000000000000000e+03 6.098547363281250000e+01 2.243142318725585938e+01 -2.393986940383911133e+00 3.237865924835205078e+00 2.531636655330657959e-01 2.252830266952514648e+00
1.328000000000000000e+03 5.473174667358398438e+01 3.488127136230468750e+01 7.124005351215600967e-03 2.375861167907714844e+00 7.148955464363098145e-01 7.822702527046203613e-01
1.329000000000000000e+03 6.510316467285156250e+01 2.868912696838378906e+01 8.569460511207580566e-01 4.296704769134521484e+00 1.546095371246337891e+00 8.826221227645874023e-01
1.330000000000000000e+03 6.481424713134765625e+01 3.547240829467773438e+01 -1.852483004331588745e-01 3.213254690170288086e+00 9.084019064903259277e-01 -1.081191599369049072e-01
1.331000000000000000e+03 6.348334503173828125e+01 2.943369865417480469e+01 -9.303323924541473389e-02 4.873498916625976562e+00 1.434139609336853027e+00 1.343728750944137573e-01
1.332000000000000000e+03 6.533464813232421875e+01 2.975119590759277344e+01 7.689463496208190918e-01 4.563076496124267578e+00 1.599606752395629883e+00 6.612404584884643555e-01
1.333000000000000000e+03 2.669194412231445312e+01 -3.512049102783203125e+01 4.581980407238006592e-02 -2.091383934020996094e-01 -4.899557679891586304e-02 -2.674106322228908539e-02
1.334000000000000000e+03 5.593731307983398438e+01 2.323157119750976562e+01 -1.713945984840393066e+00 2.053369045257568359e+00 1.018269136548042297e-01 -1.076158046722412109e+00
1.335000000000000000e+03 1.346743774414062500e+01 -3.108938217163085938e+01 -2.020150125026702881e-01 -7.624562382698059082e-01 -2.893413901329040527e-01 -3.304584920406341553e-01
1.336000000000000000e+03 1.089803791046142578e+01 -3.569082260131835938e+01 4.258552193641662598e-02 -3.112184405326843262e-01 -8.058987557888031006e-02 -2.380601763725280762e-01
1.337000000000000000e+03 2.758133125305175781e+01 -2.614117050170898438e+01 4.088498055934906006e-01 -5.738646537065505981e-02 1.054389998316764832e-01 -2.111905813217163086e-01
1.338000000000000000e+03 2.065243721008300781e+01 -4.061325454711914062e+01 7.512459158897399902e-01 8.814867585897445679e-02 2.518183887004852295e-01 1.303845643997192383e-01
1.339000000000000000e+03 2.512482452392578125e+01 -4.040422821044921875e+01 5.138972401618957520e-01 -2.629925608634948730e-01 7.527140527963638306e-02 9.391751140356063843e-02
1.340000000000000000e+03 6.413362121582031250e+01 7.486734867095947266e+00 -3.058440923690795898e+00 8.285274505615234375e-01 -6.689740419387817383e-01 -9.127506613731384277e-02
1.341000000000000000e+03 6.100885772705078125e+01 6.455469608306884766e+00 -2.027298688888549805e+00 6.014334201812744141e+00 1.196110606193542480e+00 -2.198910474777221680e+00
1.342000000000000000e+03 5.565351486206054688e+01 1.330911731719970703e+01 1.318352580070495605e+00 4.314472198486328125e+00 1.689847350120544434e+00 -1.303598880767822266e+00
1.343000000000000000e+03 6.078529357910156250e+01 8.959507942199707031e+00 -4.821781218051910400e-01 7.009617328643798828e+00 1.958231687545776367e+00 -1.203859686851501465e+00
1.344000000000000000e+03 1.313153839111328125e+01 -2.936204528808593750e+01 -2.182538211345672607e-01 -5.363431572914123535e-01 -2.263790965080261230e-01 -2.702956795692443848e-01
1.345000000000000000e+03 1.568606662750244141e+01 -2.028583335876464844e+01 -4.715941250324249268e-01 -6.343429088592529297e-01 -3.317810893058776855e-01 -5.110087394714355469e-01
1.346000000000000000e+03 1.371132850646972656e+01 -2.203702735900878906e+01 -4.218207895755767822e-01 -3.563046753406524658e-01 -2.334376424551010132e-01 -4.192978441715240479e-01
1.347000000000000000e+03 1.723381233215332031e+01 -1.099224328994750977e+00 -1.411319971084594727e-01 1.264600753784179688e-01 -4.401576705276966095e-03 -9.462689608335494995e-02
1.348000000000000000e+03 7.236212921142578125e+01 -1.251988029479980469e+01 -2.294827222824096680e+00 3.508872985839843750e-01 -5.831819772720336914e-01 -1.138311505317687988e+00
1.349000000000000000e+03 7.206592559814453125e+01 -1.376160240173339844e+01 -6.222467422485351562e-01 1.286509394645690918e+00 1.992788165807723999e-01 -1.067804336547851562e+00
1.350000000000000000e+03 2.127586364746093750e+01 -2.716927719116210938e+01 7.496899962425231934e-01 3.005891144275665283e-01 3.150837421417236328e-01 -4.089896082878112793e-01
1.351000000000000000e+03 1.157674312591552734e+01 -3.340700912475585938e+01 -9.958684444427490234e-02 -3.904814124107360840e-01 -1.470204740762710571e-01 -2.263080477714538574e-01
1.352000000000000000e+03 1.562531280517578125e+01 -2.645255279541015625e+01 6.181754171848297119e-02 -4.742972552776336670e-01 -1.237439140677452087e-01 -2.751398384571075439e-01
1.353000000000000000e+03 1.263001823425292969e+01 -2.467777633666992188e+01 3.531121835112571716e-02 -3.939158320426940918e-01 -1.075813844799995422e-01 -3.008065521717071533e-01
1.354000000000000000e+03 2.390226364135742188e+01 -2.593067359924316406e+01 4.490289390087127686e-01 -4.485447332262992859e-02 1.212523430585861206e-01 -1.604927927255630493e-01
1.355000000000000000e+03 2.504230117797851562e+01 -3.486537170410156250e+01 -2.629141695797443390e-02 -5.212096571922302246e-01 -1.642503291368484497e-01 -1.554038003087043762e-02
1.356000000000000000e+03 2.689521980285644531e+01 -3.127608489990234375e+01 1.802590489387512207e-01 -1.415553539991378784e-01 1.161111146211624146e-02 -2.097068428993225098e-01
1.357000000000000000e+03 1.701882934570312500e+01 -6.949754714965820312e+00 -3.614090755581855774e-02 3.236939907073974609e-01 8.626592904329299927e-02 -9.067820385098457336e-03
1.358000000000000000e+03 1.540997982025146484e+01 -9.631791114807128906e+00 3.812673687934875488e-02 2.303921729326248169e-01 8.055566996335983276e-02 -9.716067143017426133e-05
1.359000000000000000e+03 2.962364959716796875e+01 -8.575347900390625000e+00 -1.324168294668197632e-01 -1.670138359069824219e+00 -5.407665371894836426e-01 -3.262840807437896729e-01
1.360000000000000000e+03 2.575940322875976562e+01 -1.676975440979003906e+01 -3.558473587036132812e-01 -3.777241408824920654e-01 -2.200714498758316040e-01 -3.000324368476867676e-01
1.361000000000000000e+03 6.243106079101562500e+01 -2.672469711303710938e+01 -3.322461843490600586e+00 9.878331422805786133e-01 -7.003886103630065918e-01 4.178085830062627792e-03
1.362000000000000000e+03 6.457750701904296875e+01 -2.855280113220214844e+01 1.217325568199157715e+00 6.040636062622070312e+00 2.177388429641723633e+00 -3.115433216094970703e+00
1.363000000000000000e+03 2.889249420166015625e+01 -1.604998397827148438e+01 -3.716951012611389160e-01 -3.326342999935150146e-01 -2.112988233566284180e-01 -1.976616978645324707e-01
1.364000000000000000e+03 3.238707733154296875e+01 -4.776277542114257812e+00 -1.712216883897781372e-01 -2.849214076995849609e-01 -1.368429362773895264e-01 -4.395641982555389404e-01
1.365000000000000000e+03 2.620864295959472656e+01 -1.468028068542480469e+01 -7.022045850753784180e-01 -5.019041895866394043e-01 -3.612326383590698242e-01 -4.074950516223907471e-01
1.366000000000000000e+03 7.355751800537109375e+01 -2.410204124450683594e+01 1.481752276420593262e+00 1.191706657409667969e+01 4.019645690917968750e+00 2.278676033020019531e+00
1.367000000000000000e+03 7.281109619140625000e+01 -2.511792755126953125e+01 9.794881343841552734e-01 5.590492725372314453e+00 1.970994353294372559e+00 2.327205657958984375e+00
1.368000000000000000e+03 1.606881904602050781e+01 -5.713840961456298828e+00 3.963386639952659607e-02 2.421580702066421509e-01 8.453758060932159424e-02 2.846211940050125122e-02
1.369000000000000000e+03 5.309799575805664062e+01 2.573975944519042969e+01 6.501221060752868652e-01 4.107321262359619141e+00 1.427233099937438965e+00 -4.594709277153015137e-01
1.370000000000000000e+03 4.849900436401367188e+01 1.953828811645507812e+01 -1.006836071610450745e-01 4.134588241577148438e-01 9.383256733417510986e-02 -5.572359561920166016e-01
1.371000000000000000e+03 1.967184829711914062e+01 3.306488418579101562e+01 8.495554327964782715e-03 -3.435061573982238770e-01 -1.005031764507293701e-01 5.710163339972496033e-02
1.372000000000000000e+03 1.959492492675781250e+01 3.051008987426757812e+01 -1.882311403751373291e-01 -9.066567420959472656e-01 -3.284663856029510498e-01 2.823814749717712402e-01
1.373000000000000000e+03 6.971260070800781250e+01 -1.213372898101806641e+01 -6.228062137961387634e-02 2.736674547195434570e-01 6.341604888439178467e-02 -1.442166805267333984e+00
1.374000000000000000e+03 6.839463806152343750e+01 -1.165804958343505859e+01 2.122424364089965820e+00 2.514801502227783203e+00 1.391167759895324707e+00 -2.133423328399658203e+00
1.375000000000000000e+03 1.881892204284667969e+01 -1.402427101135253906e+01 -2.504487037658691406e-01 9.506139159202575684e-02 -4.661619290709495544e-02 -9.397413581609725952e-02
1.376000000000000000e+03 3.069612312316894531e+01 -8.066585540771484375e+00 -1.714421361684799194e-01 -8.358979225158691406e-01 -3.022020161151885986e-01 -4.946482479572296143e-01
1.377000000000000000e+03 3.134065055847167969e+01 -7.493875980377197266e+00 -1.602349281311035156e-01 -7.743401527404785156e-01 -2.803725302219390869e-01 -5.396950244903564453e-01
1.378000000000000000e+03 7.709507751464843750e+01 1.314881324768066406e+01 5.390447378158569336e-01 7.154345512390136719e+00 2.308017015457153320e+00 4.641479849815368652e-01
1.379000000000000000e+03 1.942438125610351562e+01 2.596205329895019531e+01 4.298069477081298828e-01 1.694292575120925903e-01 1.797708570957183838e-01 4.421256184577941895e-01
1.380000000000000000e+03 1.860478782653808594e+01 2.483454132080078125e+01 8.192263841629028320e-01 5.038679838180541992e-01 3.969283103942871094e-01 5.645012855529785156e-01
1.381000000000000000e+03 1.195398902893066406e+01 1.949509048461914062e+01 1.235921904444694519e-01 3.018864095211029053e-01 1.276435852050781250e-01 3.968675434589385986e-01
1.382000000000000000e+03 8.298631668090820312e+00 2.347215652465820312e+01 -4.358532428741455078e-01 -3.339913785457611084e-01 -2.309533953666687012e-01 3.061718344688415527e-01
1.383000000000000000e+03 7.793148803710937500e+01 1.650835227966308594e+01 1.526284310966730118e-02 7.211347103118896484e+00 2.167983055114746094e+00 8.814449310302734375e-01
1.384000000000000000e+03 7.572492980957031250e+01 1.452598953247070312e+01 7.716777920722961426e-01 8.116000175476074219e+00 2.666303396224975586e+00 8.197207450866699219e-01
1.385000000000000000e+03 4.562064743041992188e+01 1.700315093994140625e+01 -1.378711126744747162e-02 6.216077804565429688e-01 1.823462098836898804e-01 1.102983206510543823e-01
1.386000000000000000e+03 6.225131607055664062e+01 1.978243827819824219e+01 -7.300592660903930664e-01 3.992897748947143555e+00 9.788514971733093262e-01 1.897802710533142090e+00
1.387000000000000000e+03 9.031184196472167969e+00 -2.314838218688964844e+01 3.227782547473907471e-01 1.513475831598043442e-02 1.013739034533500671e-01 -7.645867019891738892e-02
1.388000000000000000e+03 6.825546622276306152e-01 -2.472844696044921875e+01 1.177954301238059998e-02 -3.575189709663391113e-01 -1.037218347191810608e-01 6.075702141970396042e-03
1.389000000000000000e+03 5.244421005249023438e+00 -2.077610206604003906e+01 9.289085119962692261e-02 -6.020155549049377441e-02 9.806789457798004150e-03 -6.938824057579040527e-02
1.390000000000000000e+03 7.502198791503906250e+01 -9.160841941833496094e+00 1.933176815509796143e-01 1.140114307403564453e+01 3.478338241577148438e+00 1.571644783020019531e+00
1.391000000000000000e+03 7.503632354736328125e+01 -1.192646408081054688e+01 -2.469053506851196289e+00 6.929468631744384766e+00 1.338124513626098633e+00 4.456854462623596191e-01
1.392000000000000000e+03 7.727790832519531250e+00 3.536449432373046875e+01 2.734435796737670898e-01 2.573658898472785950e-02 8.975405246019363403e-02 4.162975028157234192e-02
1.393000000000000000e+03 1.133035087585449219e+01 3.542877197265625000e+01 3.874133527278900146e-01 3.024802543222904205e-02 1.252984106540679932e-01 1.082065850496292114e-01
1.394000000000000000e+03 7.820147705078125000e+01 -2.785984039306640625e+01 -2.424033582210540771e-01 8.177673339843750000e+00 2.380580902099609375e+00 -2.026678323745727539e-01
1.395000000000000000e+03 5.723820877075195312e+01 -3.782798767089843750e+01 -5.346070528030395508e-01 2.248783826828002930e+00 5.142530798912048340e-01 -8.100942969322204590e-01
1.396000000000000000e+03 7.051421356201171875e+01 6.674633026123046875e+00 -1.657932639122009277e+00 5.389260768890380859e+00 1.119398474693298340e+00 2.267107725143432617e+00
1.397000000000000000e+03 7.114666748046875000e+01 8.239946365356445312e+00 6.162445545196533203e-01 6.819273948669433594e+00 2.230655670166015625e+00 2.530649900436401367e+00
1.398000000000000000e+03 7.308001708984375000e+01 8.812424659729003906e+00 1.876576542854309082e-01 9.334303855895996094e+00 2.856588363647460938e+00 -8.532460778951644897e-02
1.399000000000000000e+03 6.460903930664062500e+01 -2.121769905090332031e+01 1.471179246902465820e+00 1.171889019012451172e+01 3.957020759582519531e+00 -1.176397442817687988e+00
1.400000000000000000e+03 6.142802810668945312e+01 -2.392744445800781250e+01 1.166303396224975586e+00 2.838623046875000000e+00 1.201478004455566406e+00 6.770730018615722656e-01
1.401000000000000000e+03 5.939814567565917969e+00 2.668231391906738281e+01 -2.012245953083038330e-01 -1.103383541107177734e+00 -3.913824558258056641e-01 3.181836605072021484e-01
1.402000000000000000e+03 7.103597259521484375e+01 1.837676620483398438e+01 -1.030384540557861328e+00 5.709010124206542969e+00 1.403587579727172852e+00 -1.184092283248901367e+00
1.403000000000000000e+03 1.454681491851806641e+01 3.836315917968750000e+01 1.278803646564483643e-01 -8.335673809051513672e-02 1.335708517581224442e-02 1.393576711416244507e-01
1.404000000000000000e+03 6.140612792968750000e+01 1.734669494628906250e+01 1.533550381660461426e+00 7.062219619750976562e+00 2.578731060028076172e+00 2.578619241714477539e+00
1.405000000000000000e+03 2.009977531433105469e+01 1.564755535125732422e+01 -2.467041611671447754e-01 -3.337398171424865723e-01 -1.741331964731216431e-01 2.070579677820205688e-01
1.406000000000000000e+03 5.911095428466796875e+01 -2.721782112121582031e+01 -5.170227885246276855e-01 1.820985198020935059e+00 3.911887407302856445e-01 1.238484978675842285e+00
1.407000000000000000e+03 6.804194641113281250e+01 5.254706382751464844e+00 -1.206005215644836426e+00 1.625752806663513184e+00 1.259242594242095947e-01 2.233878850936889648e+00
1.408000000000000000e+03 6.872425079345703125e+01 1.852540075778961182e-01 2.695914506912231445e+00 2.832611083984375000e+00 1.658557653427124023e+00 2.994298219680786133e+00
1.409000000000000000e+03 2.881641387939453125e+00 2.187531280517578125e+01 -6.484040524810552597e-03 -4.426483511924743652e-01 -1.347397118806838989e-01 -4.119056090712547302e-02
1.410000000000000000e+03 6.979723358154296875e+01 -2.656686782836914062e+01 -4.393565654754638672e+00 -2.304490059614181519e-01 -1.387204408645629883e+00 1.803711354732513428e-01
1.411000000000000000e+03 7.023527526855468750e+01 1.938429069519042969e+01 -2.027397871017456055e+00 4.043556690216064453e+00 6.048476696014404297e-01 -8.140232563018798828e-01
1.412000000000000000e+03 6.500226974487304688e+00 1.346345996856689453e+01 8.039890974760055542e-02 -1.876451075077056885e-01 -3.217386081814765930e-02 3.222218751907348633e-01
1.413000000000000000e+03 7.326805114746093750e+01 1.328700733184814453e+01 1.297756791114807129e+00 1.142134571075439453e+01 3.815730810165405273e+00 2.425638586282730103e-01
1.414000000000000000e+03 7.216148376464843750e+01 1.258623218536376953e+01 6.836584210395812988e-01 1.472045993804931641e+01 4.621235370635986328e+00 3.108205795288085938e-01
1.415000000000000000e+03 7.370610809326171875e+01 -2.080726814270019531e+01 4.941169321537017822e-01 1.313197517395019531e+01 4.087827682495117188e+00 -1.295844316482543945e+00
1.416000000000000000e+03 7.951377868652343750e+01 -1.668642997741699219e+01 6.768693681806325912e-03 9.474982261657714844e+00 2.844525098800659180e+00 3.305283486843109131e-01
1.417000000000000000e+03 6.236292648315429688e+01 9.207985877990722656e+00 1.710168242454528809e+00 4.300817012786865234e+00 1.803295493125915527e+00 -3.004986763000488281e+00
1.418000000000000000e+03 6.438645362854003906e+00 3.125152778625488281e+01 2.376129664480686188e-02 -1.832618415355682373e-01 -4.785016179084777832e-02 4.012480750679969788e-02
1.419000000000000000e+03 6.003018951416015625e+01 -3.855229568481445312e+01 -1.131263971328735352e+00 3.628026545047760010e-01 -2.305383980274200439e-01 -3.705476224422454834e-02
1.420000000000000000e+03 4.988054656982421875e+01 5.812115192413330078e+00 -2.833499312400817871e-01 1.629879884421825409e-02 -8.011534065008163452e-02 7.401565555483102798e-03
1.421000000000000000e+03 4.542689895629882812e+01 -2.630414009094238281e+01 3.400782048702239990e-01 6.093441247940063477e-01 2.848266959190368652e-01 -2.763929367065429688e-01
1.422000000000000000e+03 4.684797286987304688e+01 -1.920154190063476562e+01 2.744139730930328369e-01 2.131550073623657227e+00 7.217892408370971680e-01 5.578924417495727539e-01
1.423000000000000000e+03 6.044356918334960938e+01 -2.249739074707031250e+01 1.790583848953247070e+00 3.084087610244750977e+00 1.462401390075683594e+00 1.020032286643981934e+00
1.424000000000000000e+03 2.738889884948730469e+01 8.998006820678710938e+00 3.070800304412841797e-01 4.022292792797088623e-01 2.127927839756011963e-01 1.514742523431777954e-01
1.425000000000000000e+03 6.127409362792968750e+01 -2.518165779113769531e+01 3.446730971336364746e-01 8.681713938713073730e-01 3.638533353805541992e-01 9.752275347709655762e-01
1.426000000000000000e+03 4.782520294189453125e+01 2.250657463073730469e+01 3.338007032871246338e-01 1.372841715812683105e+00 5.119927525520324707e-01 -1.189286336302757263e-01
1.427000000000000000e+03 7.935869598388671875e+01 -2.215454483032226562e+01 1.021520867943763733e-01 6.946763992309570312e+00 2.114674806594848633e+00 1.055398024618625641e-02
1.428000000000000000e+03 6.493180084228515625e+01 -1.481621384620666504e+00 4.126084804534912109e+00 9.455738067626953125e+00 4.074546813964843750e+00 3.393536806106567383e+00
1.429000000000000000e+03 1.336765384674072266e+01 1.829072189331054688e+01 3.810560703277587891e-01 2.748858034610748291e-01 1.967825591564178467e-01 3.699346780776977539e-01
1.430000000000000000e+03 1.189977741241455078e+01 2.151477241516113281e+01 -1.541895233094692230e-02 1.003398746252059937e-01 2.547627687454223633e-02 3.736407160758972168e-01
1.431000000000000000e+03 6.029672622680664062e+01 -8.982106208801269531e+00 3.080932140350341797e+00 7.123402118682861328e+00 3.061300277709960938e+00 3.797752380371093750e+00
1.432000000000000000e+03 6.357058715820312500e+01 -1.947823524475097656e+01 1.283649563789367676e+00 7.975049972534179688e+00 2.777609825134277344e+00 -1.365868151187896729e-01
1.433000000000000000e+03 5.621342086791992188e+01 8.621552467346191406e+00 4.083968326449394226e-02 3.666501045227050781e+00 1.112202167510986328e+00 -2.083431333303451538e-01
1.434000000000000000e+03 7.416899871826171875e+01 -1.085823345184326172e+01 -1.695489883422851562e+00 3.660319566726684570e+00 5.894488692283630371e-01 4.798776507377624512e-01
1.435000000000000000e+03 7.815605163574218750e+01 -1.423530578613281250e+01 -3.310081958770751953e-01 9.375762939453125000e+00 2.713426589965820312e+00 4.089855253696441650e-01
1.436000000000000000e+03 6.069883346557617188e+01 -4.032339477539062500e+01 -2.262549102306365967e-01 -1.004493013024330139e-01 -9.801126271486282349e-02 -3.022973835468292236e-01
1.437000000000000000e+03 2.035294342041015625e+01 2.702016830444335938e+01 2.592307329177856445e-01 -1.831479072570800781e-01 2.282484993338584900e-02 3.805184066295623779e-01
1.438000000000000000e+03 7.585948109626770020e-01 3.204431533813476562e+01 1.786155626177787781e-03 -9.321156740188598633e-01 -2.790988385677337646e-01 5.937239527702331543e-02
1.439000000000000000e+03 1.693247795104980469e+01 2.316200828552246094e+01 8.541221022605895996e-01 3.375508785247802734e-01 3.575018942356109619e-01 4.830172359943389893e-01
1.440000000000000000e+03 1.034612274169921875e+01 2.261697006225585938e+01 -3.777165412902832031e-01 -9.256879240274429321e-02 -1.410855948925018311e-01 1.731196194887161255e-01
1.441000000000000000e+03 7.615521430969238281e+00 2.169707298278808594e+01 -8.214236795902252197e-02 -3.344099223613739014e-01 -1.249656900763511658e-01 1.211763247847557068e-01
1.442000000000000000e+03 1.809933280944824219e+01 2.298768234252929688e+01 4.986780881881713867e-01 3.052338659763336182e-01 2.411735951900482178e-01 2.969604134559631348e-01
1.443000000000000000e+03 7.240367126464843750e+01 -2.782162666320800781e+01 -6.713866591453552246e-01 4.183488368988037109e+00 1.053630590438842773e+00 2.118628263473510742e+00
1.444000000000000000e+03 5.192934036254882812e+01 -1.596308135986328125e+01 -4.664412438869476318e-01 -1.364930160343647003e-02 -1.440271586179733276e-01 1.485232263803482056e-01
1.445000000000000000e+03 5.114487075805664062e+01 -1.333701419830322266e+01 -3.210505843162536621e-01 1.176321282982826233e-01 -6.102553382515907288e-02 -1.099434494972229004e-01
1.446000000000000000e+03 1.880830001831054688e+01 3.318826675415039062e+01 2.435490489006042480e-03 -4.342229962348937988e-01 -1.295362561941146851e-01 1.288516670465469360e-01
1.447000000000000000e+03 6.853834629058837891e+00 3.403113174438476562e+01 3.557806611061096191e-01 -4.581580311059951782e-02 9.298945963382720947e-02 1.152830719947814941e-01
1.448000000000000000e+03 3.938432216644287109e+00 3.602806472778320312e+01 1.072015687823295593e-01 -5.737424492835998535e-01 -1.399622708559036255e-01 1.556857489049434662e-03
1.449000000000000000e+03 7.127542114257812500e+01 -1.703771400451660156e+01 1.397685170173645020e+00 1.363504886627197266e+00 8.283570408821105957e-01 -8.827277421951293945e-01
1.450000000000000000e+03 2.055352020263671875e+01 7.558784008026123047e+00 3.062095046043395996e-01 -1.000774577260017395e-01 6.183961406350135803e-02 1.667039245367050171e-01
1.451000000000000000e+03 1.795139312744140625e+01 3.368778610229492188e+01 -6.094344332814216614e-02 -3.510428667068481445e-01 -1.235958859324455261e-01 1.843594610691070557e-01
1.452000000000000000e+03 1.741011810302734375e+01 3.283756637573242188e+01 -2.386632263660430908e-01 -2.162503451108932495e-01 -1.364740729331970215e-01 2.379305511713027954e-01
1.453000000000000000e+03 6.606670379638671875e+01 -2.682753562927246094e+01 -1.895048260688781738e+00 5.933803558349609375e+00 1.211626529693603516e+00 -2.205771923065185547e+00
1.454000000000000000e+03 3.420209121704101562e+01 2.648197555541992188e+01 -5.488023161888122559e-02 3.320335447788238525e-01 8.314599096775054932e-02 1.023708283901214600e-01
1.455000000000000000e+03 1.834910964965820312e+01 3.462365722656250000e+01 1.016205996274948120e-01 -3.229852318763732910e-01 -6.640938669443130493e-02 9.640485793352127075e-02
1.456000000000000000e+03 4.500670242309570312e+01 5.967638492584228516e+00 -5.003111958503723145e-01 3.521759212017059326e-01 -4.444057866930961609e-02 1.684270054101943970e-01
1.457000000000000000e+03 4.683562088012695312e+01 4.212229728698730469e+00 -7.724626064300537109e-01 2.369281351566314697e-01 -1.606603413820266724e-01 1.310817897319793701e-01
1.458000000000000000e+03 1.468225860595703125e+01 3.677263641357421875e+01 1.633681803941726685e-01 -9.638508409261703491e-02 2.009492740035057068e-02 1.568937301635742188e-01
1.459000000000000000e+03 1.626056098937988281e+01 1.835898208618164062e+01 -7.131482362747192383e-01 -1.447720676660537720e-01 -2.573761045932769775e-01 2.658800184726715088e-01
1.460000000000000000e+03 3.413276290893554688e+01 2.234248352050781250e+01 -7.826244831085205078e-02 1.000565886497497559e-01 6.538242101669311523e-03 3.123592138290405273e-01
1.461000000000000000e+03 2.281200599670410156e+01 3.015904617309570312e+01 1.086328327655792236e-01 2.547605931758880615e-01 1.090180277824401855e-01 1.711002439260482788e-01
1.462000000000000000e+03 2.083451080322265625e+01 2.957254791259765625e+01 -7.172305136919021606e-02 -2.742969095706939697e-01 -1.038059890270233154e-01 2.464697659015655518e-01
1.463000000000000000e+03 1.442987346649169922e+01 2.292324256896972656e+01 6.968593001365661621e-01 1.369314342737197876e-01 2.501372396945953369e-01 3.160189986228942871e-01
1.464000000000000000e+03 8.264611959457397461e-01 2.906739044189453125e+01 -1.149450987577438354e-02 -6.057929396629333496e-01 -1.851862370967864990e-01 9.624120593070983887e-02
1.465000000000000000e+03 3.963923692703247070e+00 2.885967063903808594e+01 -5.664415284991264343e-02 -6.206178665161132812e-01 -2.031786143779754639e-01 2.457401901483535767e-01
1.466000000000000000e+03 5.047852516174316406e+00 2.782441520690917969e+01 -1.418131291866302490e-01 -8.759032487869262695e-01 -3.053148984909057617e-01 2.046015113592147827e-01
1.467000000000000000e+03 7.839559173583984375e+01 -1.550105381011962891e+01 -2.024389207363128662e-01 9.383360862731933594e+00 2.754276514053344727e+00 7.129847407341003418e-01
1.468000000000000000e+03 5.570083618164062500e+00 4.171934127807617188e+00 -6.384734809398651123e-02 -1.369059365242719650e-02 -2.326138317584991455e-02 -2.609713561832904816e-02
1.469000000000000000e+03 1.321982955932617188e+01 2.162208747863769531e+01 1.596348136663436890e-01 1.616120189428329468e-01 9.637404978275299072e-02 4.369490444660186768e-01
1.470000000000000000e+03 7.028050899505615234e+00 2.284813117980957031e+01 -1.816756278276443481e-01 -3.986964225769042969e-01 -1.741116195917129517e-01 1.543854326009750366e-01
1.471000000000000000e+03 1.472680950164794922e+01 2.054458618164062500e+01 6.309731304645538330e-02 1.797425895929336548e-01 7.285197079181671143e-02 5.173623561859130859e-01
1.472000000000000000e+03 7.101858520507812500e+01 -1.495978736877441406e+01 -2.648968994617462158e-01 1.635740041732788086e+00 4.112529158592224121e-01 -2.305373668670654297e+00
1.473000000000000000e+03 3.074581336975097656e+01 2.949674224853515625e+01 1.806546598672866821e-01 -2.230519205331802368e-01 -1.271917577832937241e-02 1.648832559585571289e-01
1.474000000000000000e+03 6.501161193847656250e+01 -2.485142135620117188e+01 -1.029934525489807129e+00 7.450357913970947266e+00 1.926127076148986816e+00 -1.660375833511352539e+00
1.475000000000000000e+03 6.524094390869140625e+01 -2.745360755920410156e+01 -1.979938983917236328e+00 6.423312664031982422e+00 1.333012104034423828e+00 -1.481159090995788574e+00
1.476000000000000000e+03 6.327670288085937500e+01 -2.069795227050781250e+01 1.657051205635070801e+00 6.777605056762695312e+00 2.530396938323974609e+00 -6.172224283218383789e-01
1.477000000000000000e+03 3.686279296875000000e+01 2.123117256164550781e+01 1.810478121042251587e-01 -9.630350768566131592e-02 2.542329207062721252e-02 1.807719171047210693e-01
1.478000000000000000e+03 7.800983428955078125e+01 -2.488955688476562500e+01 6.105631589889526367e-02 8.035615921020507812e+00 2.429001569747924805e+00 -5.977793931961059570e-01
1.479000000000000000e+03 7.521240234375000000e+01 -2.432651710510253906e+01 8.862931132316589355e-01 8.896840095520019531e+00 2.934939861297607422e+00 -1.818976700305938721e-01
1.480000000000000000e+03 5.377678680419921875e+01 -2.476078605651855469e+01 7.150679826736450195e-01 2.402928590774536133e+00 9.353989958763122559e-01 1.668284773826599121e+00
1.481000000000000000e+03 4.557222747802734375e+01 9.233215332031250000e+00 2.944166362285614014e-01 1.074386239051818848e+00 4.106408655643463135e-01 -4.177815914154052734e-01
1.482000000000000000e+03 4.463632202148437500e+01 1.116068363189697266e+01 1.685726791620254517e-01 1.604025244712829590e+00 5.317793488502502441e-01 -3.092619180679321289e-01
1.483000000000000000e+03 5.186597442626953125e+01 5.782537937164306641e+00 -2.596514821052551270e-01 -4.477988928556442261e-02 -9.132941067218780518e-02 -3.826348856091499329e-02
1.484000000000000000e+03 5.093887329101562500e+01 5.120510101318359375e+00 -3.654074668884277344e-01 -3.563389927148818970e-02 -1.203124076128005981e-01 9.329272434115409851e-03
1.485000000000000000e+03 6.626106262207031250e+01 -9.909552574157714844e+00 2.913296461105346680e+00 8.916796684265136719e+00 3.549027919769287109e+00 -3.989722013473510742e+00
1.486000000000000000e+03 6.969741058349609375e+01 6.765102148056030273e-01 2.704708576202392578e+00 2.348748922348022461e+00 1.516037344932556152e+00 2.701825857162475586e+00
1.487000000000000000e+03 3.538151550292968750e+01 3.476122665405273438e+01 4.121135473251342773e-01 3.127884268760681152e-01 2.174705862998962402e-01 1.507295668125152588e-01
1.488000000000000000e+03 7.318719482421875000e+01 9.886766225099563599e-02 7.143831849098205566e-01 4.565287113189697266e+00 1.583901166915893555e+00 -7.668389081954956055e-01
1.489000000000000000e+03 7.148728179931640625e+01 5.709432065486907959e-02 1.723864674568176270e+00 1.719884753227233887e+00 1.033124804496765137e+00 4.037150442600250244e-01
1.490000000000000000e+03 6.291194534301757812e+01 -3.835092163085937500e+01 -1.073371410369873047e+00 3.589973449707031250e-01 -2.143122404813766479e-01 -1.850974261760711670e-01
1.491000000000000000e+03 5.541453933715820312e+01 2.630986928939819336e+00 -8.692942261695861816e-01 8.502296805381774902e-01 -5.719353444874286652e-03 -8.162277936935424805e-01
1.492000000000000000e+03 5.429263687133789062e+01 6.544598102569580078e+00 -1.942729949951171875e-01 1.422876000404357910e+00 3.685808777809143066e-01 3.159992396831512451e-02
1.493000000000000000e+03 7.939200592041015625e+01 -2.076356124877929688e+01 7.337295264005661011e-02 7.158116817474365234e+00 2.169446945190429688e+00 2.096478343009948730e-01
1.494000000000000000e+03 7.709244537353515625e+01 -3.833542633056640625e+01 -8.384886197745800018e-03 7.301935195922851562e+00 2.188065052032470703e+00 9.168987721204757690e-02
1.495000000000000000e+03 7.923303985595703125e+01 -3.471258163452148438e+01 -1.736779883503913879e-02 8.026680946350097656e+00 2.402794122695922852e+00 7.541375607252120972e-02
1.496000000000000000e+03 7.594277191162109375e+01 -2.803952598571777344e+01 -6.459634304046630859e-01 7.714545249938964844e+00 2.120574474334716797e+00 2.240199148654937744e-01
1.497000000000000000e+03 7.939585113525390625e+01 -2.785997390747070312e+01 -3.288129717111587524e-02 8.496342658996582031e+00 2.539038419723510742e+00 -1.147358715534210205e-01
1.498000000000000000e+03 7.917617034912109375e+01 3.624816513061523438e+01 -1.697191037237644196e-02 7.581053256988525391e+00 2.269224405288696289e+00 -9.085239842534065247e-03
1.499000000000000000e+03 7.455046081542968750e+01 -2.658995819091796875e+01 -1.058893918991088867e+00 7.914107322692871094e+00 2.056563854217529297e+00 6.109091639518737793e-01
1.500000000000000000e+03 7.706012725830078125e+01 -2.924213790893554688e+01 -2.932783961296081543e-01 7.714384078979492188e+00 2.226331710815429688e+00 1.649310886859893799e-01
1.501000000000000000e+03 7.941526794433593750e+01 -3.062541961669921875e+01 4.744275007396936417e-03 8.528496742248535156e+00 2.559972524642944336e+00 5.229828134179115295e-02
1.502000000000000000e+03 7.800593566894531250e+01 -3.311143875122070312e+01 1.844888553023338318e-02 7.631000518798828125e+00 2.294834852218627930e+00 2.021573632955551147e-01
1.503000000000000000e+03 7.553740692138671875e+01 -3.822729110717773438e+01 3.899189829826354980e-02 6.916944980621337891e+00 2.086781024932861328e+00 -1.235266849398612976e-01
1.504000000000000000e+03 7.650887298583984375e+01 -3.943232727050781250e+01 1.695275679230690002e-02 7.273877143859863281e+00 2.187248945236206055e+00 -3.821041807532310486e-02
1.505000000000000000e+03 7.802112579345703125e+01 1.500193595886230469e+01 1.845101416110992432e-01 6.833158969879150391e+00 2.105300664901733398e+00 7.405846714973449707e-01
1.506000000000000000e+03 7.933896636962890625e+01 1.523024940490722656e+01 6.196656078100204468e-02 6.048326969146728516e+00 1.833088040351867676e+00 3.370396494865417480e-01
1.507000000000000000e+03 7.941266632080078125e+01 2.230089569091796875e+01 -2.922593988478183746e-02 8.658873558044433594e+00 2.588894367218017578e+00 5.775082483887672424e-02
1.508000000000000000e+03 7.768146514892578125e+01 3.192851066589355469e+01 7.281091809272766113e-02 7.246383190155029297e+00 2.195758104324340820e+00 -1.329031884670257568e-01
1.509000000000000000e+03 7.804628753662109375e+01 2.770985221862792969e+01 -1.638724841177463531e-02 7.684083938598632812e+00 2.300309181213378906e+00 -2.420832365751266479e-01
1.510000000000000000e+03 7.935042572021484375e+01 2.782342529296875000e+01 1.584822311997413635e-02 8.182343482971191406e+00 2.459457635879516602e+00 -8.165544271469116211e-02
1.511000000000000000e+03 7.815409088134765625e+01 2.500419425964355469e+01 -7.623341679573059082e-02 7.987391471862792969e+00 2.373347520828247070e+00 -1.714974641799926758e-01
1.512000000000000000e+03 7.821131134033203125e+01 2.365390205383300781e+01 -8.279122412204742432e-02 8.099510192871093750e+00 2.405015468597412109e+00 -6.241172924637794495e-02
1.513000000000000000e+03 7.302072906494140625e+01 1.680494689941406250e+01 -1.381745636463165283e-01 8.879918098449707031e+00 2.622523069381713867e+00 3.774387538433074951e-01
1.514000000000000000e+03 7.703255462646484375e+01 9.791123390197753906e+00 3.290786743164062500e-01 7.184950351715087891e+00 2.254208803176879883e+00 -5.896468162536621094e-01
1.515000000000000000e+03 7.597626495361328125e+01 1.124266910552978516e+01 1.020660400390625000e+00 7.779694080352783203e+00 2.640106439590454102e+00 -1.659805774688720703e-01
1.516000000000000000e+03 7.826263427734375000e+01 9.756210327148437500e+00 1.274852901697158813e-01 6.401140213012695312e+00 1.958587646484375000e+00 -4.942798316478729248e-01
1.517000000000000000e+03 7.942604064941406250e+01 9.748762130737304688e+00 4.078905656933784485e-02 5.613592147827148438e+00 1.696314334869384766e+00 -1.910379379987716675e-01
1.518000000000000000e+03 7.944207000732421875e+01 -1.939173507690429688e+01 -8.990679867565631866e-03 7.766541004180908203e+00 2.327265024185180664e+00 3.068379163742065430e-01
1.519000000000000000e+03 7.688330841064453125e+01 -2.294584083557128906e+01 6.903394460678100586e-01 8.370589256286621094e+00 2.718278646469116211e+00 -1.952686458826065063e-01
1.520000000000000000e+03 7.498941040039062500e+01 -1.676043701171875000e+01 -2.884955108165740967e-01 7.410204887390136719e+00 2.136512756347656250e+00 4.993947744369506836e-01
1.521000000000000000e+03 7.940312957763671875e+01 -1.400919818878173828e+01 -1.127171516418457031e-02 1.077917480468750000e+01 3.230370759963989258e+00 1.379463970661163330e-01
1.522000000000000000e+03 7.938517761230468750e+01 -6.939448356628417969e+00 3.194397315382957458e-02 6.375937461853027344e+00 1.922364473342895508e+00 -2.872149944305419922e-01
1.523000000000000000e+03 7.942557525634765625e+01 -5.566243648529052734e+00 1.955456882715225220e-01 6.015216350555419922e+00 1.863228559494018555e+00 -3.230760991573333740e-02
1.524000000000000000e+03 7.829936981201171875e+01 -1.047841608524322510e-01 -1.716297417879104614e-01 7.557249069213867188e+00 2.215685844421386719e+00 2.230726182460784912e-01
1.525000000000000000e+03 7.943899536132812500e+01 1.368095397949218750e+00 -2.961004152894020081e-02 7.797028541564941406e+00 2.330225467681884766e+00 3.828458115458488464e-02
1.526000000000000000e+03 7.820721435546875000e+01 8.417262077331542969e+00 6.277655810117721558e-02 6.716347694396972656e+00 2.033737421035766602e+00 -6.192929744720458984e-01
1.527000000000000000e+03 7.795394134521484375e+01 2.909307861328125000e+01 4.715113341808319092e-02 7.509367942810058594e+00 2.266955852508544922e+00 -2.248087674379348755e-01
1.528000000000000000e+03 7.579669952392578125e+01 3.829918289184570312e+01 -7.186201959848403931e-02 6.627001762390136719e+00 1.966541886329650879e+00 1.254034601151943207e-02
1.529000000000000000e+03 7.578269958496093750e+01 3.647587585449218750e+01 3.245143964886665344e-02 6.597877025604248047e+00 1.989098429679870605e+00 -6.856181472539901733e-02
1.530000000000000000e+03 7.831627655029296875e+01 1.105132579803466797e+01 2.265413105487823486e-01 6.214672088623046875e+00 1.932363986968994141e+00 -2.388019710779190063e-01
1.531000000000000000e+03 7.734307098388671875e+01 2.572745084762573242e+00 -1.933244764804840088e-01 7.233395576477050781e+00 2.112021446228027344e+00 -1.274983882904052734e-01
1.532000000000000000e+03 7.833483886718750000e+01 1.325982451438903809e+00 -1.131758317351341248e-01 7.508239269256591797e+00 2.218518972396850586e+00 4.116046056151390076e-02
1.533000000000000000e+03 7.583543395996093750e+01 -2.612975835800170898e+00 1.483633834868669510e-02 8.921195030212402344e+00 2.680809259414672852e+00 -6.149631142616271973e-01
1.534000000000000000e+03 7.604280090332031250e+01 1.046423673629760742e+00 -1.994216740131378174e-01 6.866328716278076172e+00 2.000072002410888672e+00 -1.146449670195579529e-01
1.535000000000000000e+03 7.528519439697265625e+01 -6.234887123107910156e+00 1.125537514686584473e+00 1.492884731292724609e+01 4.816315650939941406e+00 -1.666875600814819336e+00
1.536000000000000000e+03 7.827796936035156250e+01 -5.500241279602050781e+00 4.852879047393798828e-01 7.805577278137207031e+00 2.487259626388549805e+00 -5.719940364360809326e-02
1.537000000000000000e+03 7.809391784667968750e+01 -1.284584331512451172e+01 -5.417860150337219238e-01 9.439820289611816406e+00 2.669410228729248047e+00 -5.760014057159423828e-02
1.538000000000000000e+03 7.600639343261718750e+01 -1.842420768737792969e+01 3.203157782554626465e-01 8.352946281433105469e+00 2.601978540420532227e+00 9.762271642684936523e-01
1.539000000000000000e+03 7.815194702148437500e+01 -2.045185279846191406e+01 2.782523632049560547e-01 7.991122245788574219e+00 2.480812549591064453e+00 5.498794913291931152e-01
1.540000000000000000e+03 7.805023193359375000e+01 -9.427987098693847656e+00 -7.842993736267089844e-02 9.048175811767578125e+00 2.690923929214477539e+00 -1.501819252967834473e+00
1.541000000000000000e+03 7.720215606689453125e+01 -1.039353847503662109e+01 -5.690894722938537598e-01 9.415467262268066406e+00 2.653913497924804688e+00 -1.402272462844848633e+00
1.542000000000000000e+03 1.954329490661621094e+01 7.182285785675048828e+00 2.776783406734466553e-01 3.800834715366363525e-02 9.470601379871368408e-02 1.424784064292907715e-01
1.543000000000000000e+03 5.410123825073242188e+01 -3.385509490966796875e+01 1.087368726730346680e+00 4.295719146728515625e+00 1.614926338195800781e+00 1.022100925445556641e+00
1.544000000000000000e+03 5.666185760498046875e+01 -3.048329544067382812e+01 1.503841876983642578e+00 7.153654575347900391e+00 2.597248792648315430e+00 2.556441545486450195e+00
1.545000000000000000e+03 4.546573257446289062e+01 2.208719062805175781e+01 4.423583745956420898e-01 8.589078187942504883e-01 3.903798460960388184e-01 3.424093723297119141e-01
1.546000000000000000e+03 2.144038772583007812e+01 1.116489124298095703e+01 1.072322800755500793e-01 -1.086093038320541382e-01 -4.131075111217796803e-04 1.345460116863250732e-01
1.547000000000000000e+03 1.618404579162597656e+01 2.063084602355957031e+01 6.515912711620330811e-02 9.128674864768981934e-02 4.693376272916793823e-02 3.704578578472137451e-01
1.548000000000000000e+03 3.931365966796875000e+01 3.777283859252929688e+01 5.291498899459838867e-01 5.492503046989440918e-01 3.235200643539428711e-01 -6.264193356037139893e-02
1.549000000000000000e+03 3.659895706176757812e+01 3.722806167602539062e+01 5.187042355537414551e-01 3.564684987068176270e-01 2.625518143177032471e-01 6.683641672134399414e-02
1.550000000000000000e+03 7.450276947021484375e+01 -3.816083669662475586e+00 1.390234589576721191e+00 9.169859886169433594e+00 3.168028354644775391e+00 -3.146511077880859375e+00
1.551000000000000000e+03 7.492543029785156250e+01 -5.014155387878417969e+00 1.373958706855773926e+00 1.329729366302490234e+01 4.401375770568847656e+00 -3.291846275329589844e+00
1.552000000000000000e+03 5.938974380493164062e+01 1.214508914947509766e+01 1.769868850708007812e+00 7.118266582489013672e+00 2.666440725326538086e+00 -1.440868735313415527e+00
1.553000000000000000e+03 5.487710189819335938e+01 9.033456802368164062e+00 2.615497708320617676e-01 3.171935319900512695e+00 1.030045509338378906e+00 2.296710759401321411e-01
1.554000000000000000e+03 5.737021636962890625e+01 -3.630793380737304688e+01 5.015660524368286133e-01 1.849784493446350098e+00 7.054051756858825684e-01 -1.028093099594116211e+00
1.555000000000000000e+03 6.568237304687500000e+01 -1.130297756195068359e+01 -4.011622369289398193e-01 8.141238212585449219e+00 2.322022676467895508e+00 -9.463120698928833008e-01
1.556000000000000000e+03 3.520862960815429688e+01 2.161674880981445312e+01 3.012365102767944336e-02 3.476534038782119751e-02 1.946669816970825195e-02 2.599407434463500977e-01
1.557000000000000000e+03 8.180567741394042969e+00 1.312082576751708984e+01 1.071855947375297546e-01 -1.699942648410797119e-01 -1.884260028600692749e-02 3.395154476165771484e-01
1.558000000000000000e+03 4.651295852661132812e+01 1.796220588684082031e+01 -3.182679414749145508e-01 1.837534904479980469e-01 -4.035433381795883179e-02 -2.435413375496864319e-02
1.559000000000000000e+03 9.110646247863769531e+00 1.662928009033203125e+01 4.047989547252655029e-01 -6.383279338479042053e-03 1.195247024297714233e-01 2.388667762279510498e-01
1.560000000000000000e+03 2.259535598754882812e+01 1.343605613708496094e+01 -6.420935690402984619e-02 -1.729496866464614868e-01 -7.114771753549575806e-02 8.252444863319396973e-02
1.561000000000000000e+03 4.994825744628906250e+01 3.013222503662109375e+01 7.545547485351562500e-01 2.765642642974853516e+00 1.056059241294860840e+00 -5.384818911552429199e-01
1.562000000000000000e+03 1.439072799682617188e+01 4.711770057678222656e+00 -3.450988829135894775e-01 -4.799194633960723877e-02 -1.179272532463073730e-01 4.423345327377319336e-01
1.563000000000000000e+03 1.694633865356445312e+01 3.984074354171752930e+00 -5.109182596206665039e-01 3.572347015142440796e-02 -1.425584256649017334e-01 3.922144472599029541e-01
1.564000000000000000e+03 1.008719158172607422e+01 7.922923088073730469e+00 -3.850527107715606689e-01 -3.276200890541076660e-01 -2.138018310070037842e-01 2.664916515350341797e-01
1.565000000000000000e+03 7.742771148681640625e+00 3.456736326217651367e+00 -6.785620748996734619e-02 -4.379832744598388672e-02 -3.349636122584342957e-02 -1.186715904623270035e-02
1.566000000000000000e+03 4.474691772460937500e+01 2.320792198181152344e+01 6.119937300682067871e-01 8.806441426277160645e-01 4.477913677692413330e-01 6.018031835556030273e-01
1.567000000000000000e+03 4.413337707519531250e+01 3.197263526916503906e+01 6.949152946472167969e-01 1.033413290977478027e+00 5.184985995292663574e-01 -7.727380990982055664e-01
1.568000000000000000e+03 3.568071365356445312e+01 3.073193740844726562e+01 9.186588972806930542e-02 6.345773935317993164e-01 2.179329842329025269e-01 2.262152582406997681e-01
1.569000000000000000e+03 5.497044754028320312e+01 1.185792350769042969e+01 5.466414690017700195e-01 4.101272106170654297e+00 1.394374012947082520e+00 -7.602124214172363281e-01
1.570000000000000000e+03 4.496028137207031250e+01 3.311268997192382812e+01 5.250763297080993652e-01 1.421657443046569824e+00 5.840201377868652344e-01 -7.392429709434509277e-01
1.571000000000000000e+03 5.731809234619140625e+01 -2.742237472534179688e+01 -3.666571974754333496e-01 4.510304450988769531e+00 1.243094205856323242e+00 1.447202563285827637e+00
1.572000000000000000e+03 4.745257568359375000e+01 2.055879211425781250e+01 2.160487473011016846e-01 6.705034375190734863e-01 2.659656703472137451e-01 -1.074872761964797974e-01
1.573000000000000000e+03 4.571205520629882812e+01 1.884942817687988281e+01 -2.864654958248138428e-01 6.487029194831848145e-01 1.086712330579757690e-01 2.205384522676467896e-01
1.574000000000000000e+03 5.818136215209960938e+01 1.118486118316650391e+01 1.381908655166625977e+00 5.874686241149902344e+00 2.176978588104248047e+00 -1.071896910667419434e+00
1.575000000000000000e+03 5.180495071411132812e+01 1.701618385314941406e+01 1.738279461860656738e+00 2.298637390136718750e+00 1.211075067520141602e+00 -2.037712812423706055e+00
1.576000000000000000e+03 6.733620452880859375e+01 -4.157046127319335938e+01 -5.613941550254821777e-01 3.846107244491577148e+00 9.854139089584350586e-01 3.725644201040267944e-02
1.577000000000000000e+03 6.748092651367187500e+01 -3.275928878784179688e+01 1.099354624748229980e+00 5.699771881103515625e+00 2.039737939834594727e+00 -1.131407737731933594e+00
1.578000000000000000e+03 6.705060577392578125e+01 -3.028419685363769531e+01 1.889934539794921875e+00 4.713402748107910156e+00 1.981001257896423340e+00 -1.389797687530517578e+00
1.579000000000000000e+03 6.317975997924804688e+01 -5.420274734497070312e+00 -1.977175623178482056e-01 1.580116653442382812e+01 4.681034564971923828e+00 5.676161646842956543e-01
1.580000000000000000e+03 4.166629028320312500e+01 1.053302669525146484e+01 -2.443986982107162476e-01 -1.810708828270435333e-02 -7.875173538923263550e-02 1.747555732727050781e-01
1.581000000000000000e+03 3.426132583618164062e+01 3.282340240478515625e+01 2.885981798171997070e-01 2.923813462257385254e-01 1.742938607931137085e-01 1.455557793378829956e-01
1.582000000000000000e+03 2.927849006652832031e+01 3.151750564575195312e+01 2.994100153446197510e-01 -1.318981647491455078e-01 5.025355517864227295e-02 2.605705261230468750e-01
1.583000000000000000e+03 1.353947734832763672e+01 -1.328920650482177734e+01 8.723563700914382935e-02 1.453986912965774536e-01 6.979029625654220581e-02 -1.253640353679656982e-01
1.584000000000000000e+03 1.538217163085937500e+01 -1.453210353851318359e+01 9.460527449846267700e-02 3.665732443332672119e-01 1.383535563945770264e-01 -1.704714596271514893e-01
1.585000000000000000e+03 7.822412872314453125e+01 -2.934290885925292969e+00 1.863237470388412476e-02 7.580493927001953125e+00 2.279737949371337891e+00 4.635364413261413574e-01
1.586000000000000000e+03 4.350487518310546875e+01 1.387679290771484375e+01 1.155788823962211609e-01 8.510175943374633789e-01 2.899789512157440186e-01 -1.622221618890762329e-01
1.587000000000000000e+03 3.842003250122070312e+01 1.002951908111572266e+01 -7.742158174514770508e-01 -1.514496445655822754e+00 -6.866136789321899414e-01 9.900670051574707031e-01
1.588000000000000000e+03 6.561341094970703125e+01 -1.535022139549255371e+00 4.129804611206054688e+00 7.441668510437011719e+00 3.471441984176635742e+00 3.841018438339233398e+00
1.589000000000000000e+03 3.507164001464843750e+01 2.812029266357421875e+01 5.344852060079574585e-02 7.476519346237182617e-01 2.403301298618316650e-01 1.615499332547187805e-02
1.590000000000000000e+03 5.639997482299804688e+01 -2.841552925109863281e+01 4.822887480258941650e-01 5.099614143371582031e+00 1.674570918083190918e+00 1.579724431037902832e+00
1.591000000000000000e+03 7.642918395996093750e+01 -9.487922668457031250e+00 -2.024005800485610962e-01 1.022779464721679688e+01 3.007618188858032227e+00 -1.440033793449401855e+00
1.592000000000000000e+03 7.809781646728515625e+01 -6.867869377136230469e+00 6.474953293800354004e-01 8.312553405761718750e+00 2.688014507293701172e+00 -7.607325315475463867e-01
1.593000000000000000e+03 7.411039733886718750e+01 -6.199814677238464355e-01 -5.418254062533378601e-02 5.998579978942871094e+00 1.783319234848022461e+00 -9.395536780357360840e-01
1.594000000000000000e+03 7.345518493652343750e+01 -1.984426856040954590e+00 1.187929391860961914e+00 5.065051555633544922e+00 1.875894308090209961e+00 -2.179476976394653320e+00
1.595000000000000000e+03 6.791871643066406250e+01 -3.398939514160156250e+01 9.925283193588256836e-01 4.910238742828369141e+00 1.770830035209655762e+00 -9.379270076751708984e-01
1.596000000000000000e+03 7.075881195068359375e+01 -2.833836936950683594e+01 -1.458475142717361450e-01 1.816524624824523926e+00 5.012031197547912598e-01 1.255508780479431152e+00
1.597000000000000000e+03 6.447344207763671875e+01 -2.656369018554687500e+01 -2.268553256988525391e+00 6.250373363494873047e+00 1.194546103477478027e+00 -1.819966673851013184e+00
1.598000000000000000e+03 3.520935440063476562e+01 1.943873977661132812e+01 2.948582172393798828e-01 -1.187046617269515991e-01 5.284606292843818665e-02 3.896270394325256348e-01
1.599000000000000000e+03 3.624009323120117188e+01 2.238779449462890625e+01 7.705349009484052658e-03 1.345589850097894669e-02 6.348374299705028534e-03 1.593771427869796753e-01
1.600000000000000000e+03 4.583131408691406250e+01 3.240864562988281250e+01 5.381576418876647949e-01 1.726509571075439453e+00 6.794001460075378418e-01 -6.873380541801452637e-01
1.601000000000000000e+03 6.674588775634765625e+01 -1.201324748992919922e+01 4.914515912532806396e-01 5.609748363494873047e+00 1.830359935760498047e+00 -1.721197962760925293e+00
1.602000000000000000e+03 7.089651489257812500e+01 -1.361670303344726562e+01 -5.323588252067565918e-01 1.717907935380935669e-01 -1.081704124808311462e-01 -2.271117925643920898e+00
1.603000000000000000e+03 4.324605941772460938e+01 1.594102001190185547e+01 -1.898581744171679020e-03 6.802275180816650391e-01 2.034986764192581177e-01 -1.270437538623809814e-01
1.604000000000000000e+03 5.143676757812500000e+01 1.880630302429199219e+01 4.115405678749084473e-01 2.398299217224121094e+00 8.429518938064575195e-01 -1.548331141471862793e+00
1.605000000000000000e+03 5.253718185424804688e+01 1.793528366088867188e+01 9.979641437530517578e-01 2.733714818954467773e+00 1.119503736495971680e+00 -1.812912702560424805e+00
1.606000000000000000e+03 5.356258010864257812e+01 1.698819732666015625e+01 1.265454173088073730e+00 3.127657413482666016e+00 1.317933440208435059e+00 -1.961501955986022949e+00
1.607000000000000000e+03 5.630937194824218750e+01 1.062153816223144531e+01 6.742428541183471680e-01 4.387907505035400391e+00 1.518645167350769043e+00 -5.796316266059875488e-01
1.608000000000000000e+03 5.918700790405273438e+01 1.098700046539306641e+01 1.560623526573181152e+00 6.584734916687011719e+00 2.443607568740844727e+00 -1.012594223022460938e+00
1.609000000000000000e+03 5.147995471954345703e+00 -1.745605278015136719e+01 -1.033566966652870178e-01 -4.395551979541778564e-01 -1.628735661506652832e-01 -1.507218629121780396e-01
1.610000000000000000e+03 5.785613536834716797e+00 -1.613708305358886719e+01 -1.212193965911865234e-01 -3.630280792713165283e-01 -1.452742367982864380e-01 -2.000602334737777710e-01
1.611000000000000000e+03 1.550758743286132812e+01 -1.562894630432128906e+01 1.220328956842422485e-01 5.114710927009582520e-01 1.900511980056762695e-01 -2.418273389339447021e-01
1.612000000000000000e+03 1.588494777679443359e+01 -1.686533164978027344e+01 8.386039733886718750e-02 3.948211967945098877e-01 1.436044722795486450e-01 -1.822558790445327759e-01
1.613000000000000000e+03 4.485472488403320312e+01 -1.669712829589843750e+01 -1.727310754358768463e-02 4.888015985488891602e-01 1.414585411548614502e-01 8.468749374151229858e-02
1.614000000000000000e+03 1.718114089965820312e+01 -1.154513740539550781e+01 -6.187881156802177429e-02 2.189291268587112427e-01 4.711509495973587036e-02 -6.762996781617403030e-03
1.615000000000000000e+03 5.527874755859375000e+01 -1.864085578918457031e+01 -6.285397708415985107e-02 1.986675977706909180e+00 5.771465897560119629e-01 2.122198343276977539e-01
1.616000000000000000e+03 5.590600585937500000e+01 -1.687903785705566406e+01 -5.247983932495117188e-01 2.073849201202392578e+00 4.647152125835418701e-01 4.331384003162384033e-01
1.617000000000000000e+03 5.067903518676757812e+01 -2.525459671020507812e+01 -7.316302061080932617e-01 5.982524156570434570e-02 -2.015414983034133911e-01 -1.274673044681549072e-01
1.618000000000000000e+03 9.542514801025390625e+00 -2.810770034790039062e+01 -1.446505486965179443e-01 -1.971489638090133667e-01 -1.025398522615432739e-01 -1.714014410972595215e-01
1.619000000000000000e+03 5.191497039794921875e+01 -2.537022018432617188e+01 -5.274460911750793457e-01 4.067089855670928955e-01 -3.622112795710563660e-02 3.372816741466522217e-01
1.620000000000000000e+03 5.251554870605468750e+01 -1.475931835174560547e+01 -1.623491197824478149e-01 -2.402505576610565186e-01 -1.207799017429351807e-01 7.298005372285842896e-02
1.621000000000000000e+03 5.308303833007812500e+01 -1.628978919982910156e+01 -5.106812119483947754e-01 -2.260547131299972534e-01 -2.210207730531692505e-01 2.024470418691635132e-01
1.622000000000000000e+03 1.568552684783935547e+01 -2.210778045654296875e+01 -2.134943902492523193e-01 -4.658800661563873291e-01 -2.038123309612274170e-01 -3.269406557083129883e-01
1.623000000000000000e+03 1.331517505645751953e+01 -2.635028266906738281e+01 1.850702613592147827e-02 -4.738371074199676514e-01 -1.365990191698074341e-01 -2.721930146217346191e-01
1.624000000000000000e+03 6.745859980583190918e-01 -2.618716430664062500e+01 -6.731408648192882538e-03 -3.415194451808929443e-01 -1.044752523303031921e-01 9.422149509191513062e-03
1.625000000000000000e+03 6.581840991973876953e+00 -2.312822723388671875e+01 2.276961505413055420e-01 4.256623610854148865e-02 8.107871562242507935e-02 -7.107226550579071045e-02
1.626000000000000000e+03 1.431328201293945312e+01 -2.387893867492675781e+01 -2.233376167714595795e-02 -5.185744762420654297e-01 -1.622724682092666626e-01 -3.842653930187225342e-01
1.627000000000000000e+03 1.301224708557128906e+01 -2.321563339233398438e+01 -1.560589373111724854e-01 -3.523792624473571777e-01 -1.525314599275588989e-01 -3.252474069595336914e-01
1.628000000000000000e+03 1.971548438072204590e+00 -1.567761707305908203e+01 -2.865931391716003418e-02 -9.623993188142776489e-02 -3.746977448463439941e-02 -4.163764789700508118e-02
1.629000000000000000e+03 6.572256088256835938e-01 -1.613393592834472656e+01 1.837523304857313633e-03 -1.306108315475285053e-04 5.120737478137016296e-04 -1.126069482415914536e-02
1.630000000000000000e+03 1.809654426574707031e+01 -1.864350509643554688e+01 -2.607284486293792725e-01 2.306962572038173676e-02 -7.129764556884765625e-02 -5.322118997573852539e-01
1.631000000000000000e+03 4.097597503662109375e+01 -2.081082153320312500e+01 3.511068522930145264e-01 5.003299713134765625e-01 2.554310560226440430e-01 -2.707313895225524902e-01
1.632000000000000000e+03 4.709592819213867188e+01 -2.670142173767089844e+01 3.062552511692047119e-01 7.492032647132873535e-01 3.166375458240509033e-01 -6.064804792404174805e-01
1.633000000000000000e+03 5.621604919433593750e+01 -1.955161857604980469e+01 2.011223435401916504e-01 3.054550647735595703e+00 9.767019152641296387e-01 7.583464384078979492e-01
1.634000000000000000e+03 5.541851425170898438e+01 -2.209755897521972656e+01 8.481304049491882324e-01 5.861330032348632812e+00 2.012838125228881836e+00 1.510435700416564941e+00
1.635000000000000000e+03 5.530563354492187500e+01 -2.753443527221679688e+01 -1.105780228972434998e-01 4.420254230499267578e+00 1.292902827262878418e+00 1.131287097930908203e+00
1.636000000000000000e+03 1.400823116302490234e+00 -4.007350158691406250e+01 1.080819033086299896e-02 -5.911529660224914551e-01 -1.741034388542175293e-01 -1.228518970310688019e-02
1.637000000000000000e+03 5.426248311996459961e-01 3.761131668090820312e+01 3.161802887916564941e-02 -1.092534184455871582e+00 -3.182748556137084961e-01 -2.116093225777149200e-02
1.638000000000000000e+03 2.043083906173706055e+00 3.685410308837890625e+01 4.881086945533752441e-02 -8.832501769065856934e-01 -2.503317892551422119e-01 -5.939915403723716736e-02
1.639000000000000000e+03 7.689945101737976074e-01 3.493944168090820312e+01 2.778566442430019379e-03 -1.081685781478881836e+00 -3.236721456050872803e-01 1.057273522019386292e-02
1.640000000000000000e+03 8.149110078811645508e-01 2.753411293029785156e+01 -2.041105926036834717e-02 -4.727934300899505615e-01 -1.479613482952117920e-01 7.238125801086425781e-02
1.641000000000000000e+03 6.585734486579895020e-01 2.609619331359863281e+01 -2.374949306249618530e-02 -3.622917234897613525e-01 -1.158123686909675598e-01 2.927799895405769348e-02
1.642000000000000000e+03 6.411103010177612305e-01 -3.604545211791992188e+01 6.083632819354534149e-03 -4.830353558063507080e-01 -1.430855095386505127e-01 -2.183667384088039398e-02
1.643000000000000000e+03 2.035373687744140625e+00 -3.335007095336914062e+01 -1.177754346281290054e-02 -3.782642781734466553e-01 -1.170125529170036316e-01 -6.128080189228057861e-02
1.644000000000000000e+03 5.538285970687866211e-01 2.332862854003906250e+01 -7.252807728946208954e-03 -3.476800918579101562e-01 -1.064798682928085327e-01 -1.414525788277387619e-02
1.645000000000000000e+03 2.316689014434814453e+00 2.697079086303710938e+01 -7.881783694028854370e-02 -5.258963108062744141e-01 -1.814142465591430664e-01 1.317620128393173218e-01
1.646000000000000000e+03 5.556128025054931641e+00 3.422352981567382812e+01 2.460521757602691650e-01 -3.498611152172088623e-01 -3.114267811179161072e-02 6.008026376366615295e-02
1.647000000000000000e+03 3.380022048950195312e+00 -2.906662940979003906e+01 -4.816507548093795776e-02 -2.528668045997619629e-01 -9.030956029891967773e-02 -2.356407418847084045e-02
1.648000000000000000e+03 5.518089771270751953e+00 -2.373130416870117188e+01 1.031014025211334229e-01 -7.774675637483596802e-02 7.606394123286008835e-03 5.350346327759325504e-04
1.649000000000000000e+03 2.074827909469604492e+00 -3.690583038330078125e+01 1.156433206051588058e-02 -4.878032207489013672e-01 -1.428716629743576050e-01 -7.154981791973114014e-02
1.650000000000000000e+03 6.967595219612121582e-01 -1.751926231384277344e+01 -1.762272231280803680e-02 -5.582886189222335815e-02 -2.203547582030296326e-02 -3.417566046118736267e-02
1.651000000000000000e+03 7.116510272026062012e-01 -2.325243568420410156e+01 5.521556362509727478e-03 -3.544846177101135254e-01 -1.046889126300811768e-01 -1.278222538530826569e-02
1.652000000000000000e+03 6.139346957206726074e-01 2.054123687744140625e+01 7.316321134567260742e-04 -4.382706582546234131e-01 -1.312617063522338867e-01 -1.748400926589965820e-02
1.653000000000000000e+03 6.724496483802795410e-01 1.911312294006347656e+01 9.747802279889583588e-03 -4.652596116065979004e-01 -1.366535425186157227e-01 -6.564205978065729141e-03
1.654000000000000000e+03 6.536656618118286133e-01 1.479063892364501953e+01 5.520642269402742386e-03 -3.697580695152282715e-01 -1.092712283134460449e-01 4.021129012107849121e-02
1.655000000000000000e+03 5.973107218742370605e-01 1.337840938568115234e+01 -1.375744701363146305e-03 -2.721087634563446045e-01 -8.204535394906997681e-02 4.638322442770004272e-02
1.656000000000000000e+03 5.264774560928344727e-01 7.792257785797119141e+00 -5.088899284601211548e-03 7.615309953689575195e-02 2.131925895810127258e-02 1.331340614706277847e-02
1.657000000000000000e+03 5.128657221794128418e-01 6.390860557556152344e+00 -3.819691017270088196e-03 9.700935333967208862e-02 2.795689925551414490e-02 1.032820553518831730e-03
1.658000000000000000e+03 3.748413801193237305e+00 -3.908538818359375000e+01 5.213062465190887451e-02 -5.105187892913818359e-01 -1.375164538621902466e-01 -9.358282387256622314e-02
1.659000000000000000e+03 3.264758348464965820e+00 -3.485631179809570312e+01 -5.240881349891424179e-03 -3.995598554611206055e-01 -1.214402168989181519e-01 -1.077249497175216675e-01
1.660000000000000000e+03 1.942121982574462891e+00 -3.467440414428710938e+01 1.670632977038621902e-03 -4.184233844280242920e-01 -1.250258237123489380e-01 -6.560157239437103271e-02
1.661000000000000000e+03 2.077974796295166016e+00 -3.195890235900878906e+01 -1.024474110454320908e-02 -3.402049541473388672e-01 -1.051349118351936340e-01 -4.908220469951629639e-02
1.662000000000000000e+03 1.986706495285034180e+00 -2.608916091918945312e+01 3.284831997007131577e-03 -2.866586446762084961e-01 -8.501214534044265747e-02 1.933042146265506744e-02
1.663000000000000000e+03 1.969802975654602051e+00 -2.458000183105468750e+01 1.425340585410594940e-02 -2.879022657871246338e-01 -8.209465444087982178e-02 1.137354597449302673e-02
1.664000000000000000e+03 2.145884752273559570e+00 -2.139099884033203125e+01 5.085208639502525330e-02 -2.620256245136260986e-01 -6.335206329822540283e-02 -8.616781234741210938e-02
1.665000000000000000e+03 7.083727121353149414e-01 -1.892177200317382812e+01 -3.520012833178043365e-03 -1.442758291959762573e-01 -4.433875530958175659e-02 -5.015883967280387878e-02
1.666000000000000000e+03 7.974339008331298828e+00 -1.118286323547363281e+01 -2.518976293504238129e-02 -1.704598814249038696e-01 -5.869489535689353943e-02 -8.318407833576202393e-02
1.667000000000000000e+03 5.501810908317565918e-01 -1.196901226043701172e+01 -5.013332702219486237e-03 1.648788526654243469e-02 3.442365908995270729e-03 4.633872304111719131e-03
1.668000000000000000e+03 2.652866125106811523e+00 -1.011418533325195312e+01 1.228919997811317444e-02 -6.363400071859359741e-02 -1.540343929082155228e-02 6.252722349017858505e-03
1.669000000000000000e+03 5.321081161499023438e+00 -3.389181375503540039e+00 -2.218173630535602570e-02 -4.996645823121070862e-02 -2.164445817470550537e-02 -3.432602062821388245e-02
1.670000000000000000e+03 3.080866813659667969e+00 -2.975626230239868164e+00 -1.002886239439249039e-02 -2.489772625267505646e-02 -1.047797687351703644e-02 -1.888852380216121674e-02
1.671000000000000000e+03 1.505299925804138184e+00 -3.362215757369995117e+00 7.434459985233843327e-04 -5.780328647233545780e-04 4.962394086760468781e-05 -3.753464901819825172e-03
1.672000000000000000e+03 5.130558013916015625e-01 4.947812557220458984e+00 -2.841527806594967842e-03 8.774904161691665649e-02 2.547225542366504669e-02 -8.391374722123146057e-03
1.673000000000000000e+03 3.527891397476196289e+00 4.819907188415527344e+00 -4.884836077690124512e-02 5.614962428808212280e-03 -1.297001913189888000e-02 -1.976670324802398682e-02
1.674000000000000000e+03 1.667727231979370117e+00 1.034921646118164062e+01 -1.936891488730907440e-02 -7.579062879085540771e-02 -2.854786440730094910e-02 9.807208180427551270e-02
1.675000000000000000e+03 5.500403642654418945e-01 1.057586956024169922e+01 -4.529797472059726715e-03 -5.784156173467636108e-02 -1.871140860021114349e-02 3.625648096203804016e-02
1.676000000000000000e+03 1.772050976753234863e+00 1.308588504791259766e+01 4.108228255063295364e-03 -2.323149144649505615e-01 -6.846200674772262573e-02 1.258075982332229614e-01
1.677000000000000000e+03 1.979627847671508789e+00 1.906475257873535156e+01 3.099670261144638062e-02 -4.286526739597320557e-01 -1.192967966198921204e-01 -1.360874343663454056e-02
1.678000000000000000e+03 1.711607456207275391e+00 2.443804931640625000e+01 -3.089531138539314270e-02 -4.288600087165832520e-01 -1.379265934228897095e-01 -5.838209835928864777e-05
1.679000000000000000e+03 4.398417282104492188e+01 -2.001322746276855469e+01 6.036687493324279785e-01 6.030399203300476074e-01 3.620125949382781982e-01 -9.422527626156806946e-03
1.680000000000000000e+03 5.695196533203125000e+01 -2.129512596130371094e+01 1.131054401397705078e+00 3.660790681838989258e+00 1.437553524971008301e+00 1.899077892303466797e+00
1.681000000000000000e+03 5.746189498901367188e+01 -2.022394561767578125e+01 6.704742908477783203e-01 3.520824193954467773e+00 1.257389545440673828e+00 1.418157100677490234e+00
1.682000000000000000e+03 4.672500610351562500e+01 -2.393261909484863281e+01 1.188238933682441711e-01 1.168830037117004395e+00 3.862961828708648682e-01 -3.229301273822784424e-01
1.683000000000000000e+03 3.429702377319335938e+01 1.361976146697998047e+01 -4.291202723979949951e-01 -2.538883388042449951e-01 -2.049025744199752808e-01 4.424737691879272461e-01
1.684000000000000000e+03 5.262962722778320312e+01 -6.339310646057128906e+00 -7.185789942741394043e-01 -1.798487544059753418e+00 -7.551199793815612793e-01 9.035963416099548340e-01
1.685000000000000000e+03 5.246265029907226562e+01 -5.040272712707519531e+00 -1.268939375877380371e-01 -1.058427453041076660e+00 -3.555964231491088867e-01 3.977780342102050781e-01
1.686000000000000000e+03 3.431671142578125000e+01 1.242122173309326172e+01 -9.972302317619323730e-01 -5.251716356724500656e-03 -3.007445931434631348e-01 1.573913097381591797e-01
1.687000000000000000e+03 3.319681167602539062e+01 1.372593307495117188e+01 -3.591693937778472900e-01 2.535397410392761230e-01 -3.168889507651329041e-02 4.065611958503723145e-01
1.688000000000000000e+03 5.852749633789062500e+01 -1.106569957733154297e+01 -4.721267223358154297e-01 2.085678577423095703e+00 4.840655624866485596e-01 1.980151653289794922e+00
1.689000000000000000e+03 6.375330734252929688e+01 -1.030591392517089844e+01 4.441994726657867432e-01 1.000937652587890625e+01 3.136072874069213867e+00 6.504844427108764648e-01
1.690000000000000000e+03 4.060247039794921875e+01 7.516741275787353516e+00 -3.962456583976745605e-01 -6.101565361022949219e-01 -3.019206523895263672e-01 6.822327971458435059e-01
1.691000000000000000e+03 5.577801513671875000e+01 -1.010163402557373047e+01 -2.322048664093017578e+00 -1.072495460510253906e+00 -1.018363237380981445e+00 1.085407137870788574e+00
1.692000000000000000e+03 5.364896774291992188e+01 -8.185616493225097656e+00 -1.334802389144897461e+00 -1.565635442733764648e+00 -8.701313138008117676e-01 1.201380372047424316e+00
1.693000000000000000e+03 3.892707061767578125e+01 1.167530536651611328e+01 -4.538455307483673096e-01 -7.924307584762573242e-01 -3.738828897476196289e-01 2.934771776199340820e-01
1.694000000000000000e+03 3.849420547485351562e+01 1.287132549285888672e+01 -2.329345941543579102e-01 -7.127141952514648438e-01 -2.836946249008178711e-01 1.983615458011627197e-01
1.695000000000000000e+03 3.708917236328125000e+01 1.248858737945556641e+01 -8.077689409255981445e-01 -7.953670024871826172e-01 -4.809407889842987061e-01 5.136148333549499512e-01
1.696000000000000000e+03 4.099861145019531250e+01 3.669734001159667969e+00 -5.157069563865661621e-01 -6.104670166969299316e-01 -3.378522098064422607e-01 -2.619142830371856689e-01
1.697000000000000000e+03 6.120925521850585938e+01 -8.327836036682128906e+00 2.705045938491821289e+00 9.407441139221191406e+00 3.633745908737182617e+00 3.059909820556640625e+00
1.698000000000000000e+03 5.978598022460937500e+01 -1.180184555053710938e+01 -5.621999502182006836e-01 5.040491580963134766e+00 1.343487501144409180e+00 2.822525739669799805e+00
1.699000000000000000e+03 6.039069747924804688e+01 -1.072297477722167969e+01 -5.721008777618408203e-01 6.647120952606201172e+00 1.822505950927734375e+00 2.775449514389038086e+00
1.700000000000000000e+03 5.183325576782226562e+01 -2.984792470932006836e+00 -1.287963837385177612e-01 -1.822211146354675293e-01 -9.330525249242782593e-02 2.793422639369964600e-01
1.701000000000000000e+03 5.021506500244140625e+01 -3.429428577423095703e+00 -4.219045937061309814e-01 -6.615120172500610352e-02 -1.464167386293411255e-01 5.289407372474670410e-01
1.702000000000000000e+03 5.133444595336914062e+01 -5.389371395111083984e+00 -5.786442160606384277e-01 -5.459040403366088867e-01 -3.373644948005676270e-01 9.251795411109924316e-01
1.703000000000000000e+03 4.949381637573242188e+01 -9.852248191833496094e+00 -2.242293655872344971e-01 6.328947544097900391e-01 1.225996166467666626e-01 -9.175690263509750366e-02
1.704000000000000000e+03 6.095223617553710938e+01 -5.272719860076904297e+00 -6.762748956680297852e-02 2.652135848999023438e+00 7.753524780273437500e-01 1.478941440582275391e+00
1.705000000000000000e+03 6.661891937255859375e+01 -3.782284164428710938e+01 -8.428066372871398926e-01 3.980154275894165039e+00 9.412043094635009766e-01 -2.199233770370483398e-01
1.706000000000000000e+03 6.684433746337890625e+01 -3.579876708984375000e+01 4.384790956974029541e-01 4.871729850769042969e+00 1.593062639236450195e+00 -2.082054615020751953e-01
1.707000000000000000e+03 4.164997863769531250e+01 1.647582817077636719e+01 1.104695126414299011e-01 2.560252845287322998e-01 1.099484413862228394e-01 -9.979646652936935425e-02
1.708000000000000000e+03 2.301876258850097656e+01 1.643282127380371094e+01 -2.944439053535461426e-01 -1.754341721534729004e-01 -1.409634202718734741e-01 1.681025326251983643e-01
1.709000000000000000e+03 5.981826019287109375e+01 1.603395271301269531e+01 1.347426176071166992e+00 6.767290115356445312e+00 2.434414863586425781e+00 3.410499393939971924e-01
1.710000000000000000e+03 6.618697357177734375e+01 2.675107765197753906e+01 1.532310485839843750e+00 3.536260366439819336e+00 1.520571231842041016e+00 4.795713424682617188e-01
1.711000000000000000e+03 6.763594818115234375e+01 2.065027618408203125e+01 -3.649752140045166016e+00 1.502212285995483398e-01 -1.049859285354614258e+00 -1.372781097888946533e-01
1.712000000000000000e+03 6.235748672485351562e+01 -5.424940586090087891e+00 -5.125327706336975098e-01 1.325705909729003906e+01 3.823357820510864258e+00 3.119544267654418945e+00
1.713000000000000000e+03 6.180909729003906250e+01 -5.523539066314697266e+00 -6.918710470199584961e-01 1.057698917388916016e+01 2.965535402297973633e+00 3.335712909698486328e+00
1.714000000000000000e+03 6.087373733520507812e+01 -1.459894895553588867e+00 3.466493844985961914e+00 3.260905265808105469e+00 2.018219709396362305e+00 -4.062471389770507812e+00
1.715000000000000000e+03 6.142624282836914062e+01 -5.568341255187988281e+00 -6.614378094673156738e-01 7.229541778564453125e+00 1.970431208610534668e+00 2.273694038391113281e+00
1.716000000000000000e+03 6.225335311889648438e+01 -4.950677394866943359e+00 -5.204706192016601562e-01 1.351213073730468750e+01 3.897497892379760742e+00 3.674533128738403320e+00
1.717000000000000000e+03 6.289026260375976562e+01 -6.662300109863281250e+00 5.181431770324707031e-01 1.296379566192626953e+01 4.044581890106201172e+00 1.437242507934570312e+00
1.718000000000000000e+03 1.077880573272705078e+01 4.041808128356933594e+00 -1.776086688041687012e-01 -1.176576688885688782e-01 -8.857990056276321411e-02 1.030237302184104919e-01
1.719000000000000000e+03 6.117110443115234375e+01 8.272805809974670410e-01 2.516550719738006592e-01 6.018743991851806641e+00 1.881119728088378906e+00 -3.412796735763549805e+00
1.720000000000000000e+03 6.434087371826171875e+01 -6.450767517089843750e+00 9.231109023094177246e-01 1.544287395477294922e+01 4.909795284271240234e+00 -1.510280728340148926e+00
1.721000000000000000e+03 4.514046478271484375e+01 5.231686592102050781e+00 -6.470404863357543945e-01 2.936753928661346436e-01 -1.060095354914665222e-01 1.218667924404144287e-01
1.722000000000000000e+03 4.538330459594726562e+01 1.831039071083068848e+00 -1.146424174308776855e+00 1.671801060438156128e-01 -2.937732338905334473e-01 1.960147023200988770e-01
1.723000000000000000e+03 3.840840530395507812e+01 -2.492255926132202148e+00 -9.158705472946166992e-01 2.646628022193908691e-01 -1.953623145818710327e-01 1.309850066900253296e-01
1.724000000000000000e+03 6.435560607910156250e+01 -7.476057410240173340e-01 1.673272132873535156e+00 1.085803604125976562e+01 3.759392499923706055e+00 1.843563199043273926e+00
1.725000000000000000e+03 6.625853729248046875e+01 5.558933615684509277e-01 1.874967813491821289e+00 5.489172458648681641e+00 2.209242105484008789e+00 2.643230199813842773e+00
1.726000000000000000e+03 5.556639480590820312e+01 4.273621559143066406e+00 -7.168997526168823242e-01 1.827798366546630859e+00 3.332695662975311279e-01 -7.947683930397033691e-01
1.727000000000000000e+03 5.405071258544921875e+01 2.746422529220581055e+00 -9.605187177658081055e-01 3.589150905609130859e-01 -1.804810911417007446e-01 -2.857755720615386963e-01
1.728000000000000000e+03 5.326071929931640625e+01 3.489423274993896484e+00 -7.312881350517272949e-01 2.848701477050781250e-01 -1.339253932237625122e-01 -9.345623105764389038e-02
1.729000000000000000e+03 5.700511550903320312e+01 3.053144693374633789e+00 -8.906723856925964355e-01 2.347289800643920898e+00 4.369852542877197266e-01 -1.666231870651245117e+00
1.730000000000000000e+03 5.783739852905273438e+01 7.095074653625488281e+00 -8.490162491798400879e-01 4.867484092712402344e+00 1.205540299415588379e+00 -9.903187155723571777e-01
1.731000000000000000e+03 4.378197860717773438e+01 3.652310609817504883e+00 -8.888010382652282715e-01 3.554229438304901123e-02 -2.559776306152343750e-01 1.940308064222335815e-01
1.732000000000000000e+03 4.343963241577148438e+01 2.757442712783813477e+00 -1.147476315498352051e+00 2.963135391473770142e-02 -3.353534936904907227e-01 1.691090613603591919e-01
1.733000000000000000e+03 4.552149581909179688e+01 2.421587944030761719e+00 -1.125778913497924805e+00 1.835707724094390869e-01 -2.826624512672424316e-01 1.658123731613159180e-01
1.734000000000000000e+03 1.022664737701416016e+01 5.646634101867675781e+00 -3.173089027404785156e-01 -1.997536122798919678e-01 -1.551187634468078613e-01 1.355370134115219116e-01
1.735000000000000000e+03 1.159488773345947266e+01 3.886939525604248047e+00 -1.987821757793426514e-01 -1.134223118424415588e-01 -9.366134554147720337e-02 1.466152071952819824e-01
1.736000000000000000e+03 1.375184726715087891e+01 -1.787368535995483398e+00 -1.143887639045715332e-01 -1.514706909656524658e-01 -7.975783944129943848e-02 -1.383059471845626831e-01
1.737000000000000000e+03 6.008990764617919922e+00 -4.117797851562500000e+00 -2.163151837885379791e-02 -5.016504973173141479e-02 -2.153897099196910858e-02 -5.717851966619491577e-02
1.738000000000000000e+03 2.840343952178955078e+00 -4.937514781951904297e+00 1.172279589809477329e-03 -2.923232130706310272e-02 -8.418012410402297974e-03 -8.001812733709812164e-03
1.739000000000000000e+03 9.145938873291015625e+00 -2.633039236068725586e+00 -6.312160193920135498e-02 -8.987359702587127686e-02 -4.589856043457984924e-02 -9.552127122879028320e-02
1.740000000000000000e+03 1.086489582061767578e+01 -3.251208782196044922e+00 -4.938953369855880737e-02 1.322886068373918533e-02 -1.084820274263620377e-02 -9.641481935977935791e-02
1.741000000000000000e+03 8.474185943603515625e+00 -4.220543861389160156e+00 -9.202233515679836273e-03 -1.951026730239391327e-02 -8.613750338554382324e-03 -6.715087592601776123e-02
1.742000000000000000e+03 7.616765499114990234e+00 -3.442682743072509766e+00 -2.453876659274101257e-02 -1.193061843514442444e-02 -1.094081532210111618e-02 -6.390012055635452271e-02
1.743000000000000000e+03 6.095716476440429688e+00 -2.655403375625610352e+00 -3.087831288576126099e-02 -5.007197335362434387e-02 -2.428508549928665161e-02 -4.874978587031364441e-02
1.744000000000000000e+03 6.834239482879638672e+00 -3.417769432067871094e+00 -2.955938316881656647e-02 -6.270836293697357178e-02 -2.768032439053058624e-02 -6.866519153118133545e-02
1.745000000000000000e+03 6.070438861846923828e+00 -3.387927055358886719e+00 -1.601229049265384674e-02 -9.486505761742591858e-03 -7.649638690054416656e-03 -4.565304517745971680e-02
1.746000000000000000e+03 2.271136522293090820e+00 -2.777350902557373047e+00 -4.536733496934175491e-03 -1.463244948536157608e-02 -5.750754848122596741e-03 -2.543765353038907051e-03
1.747000000000000000e+03 5.056781291961669922e+00 -4.737621307373046875e+00 -1.075929030776023865e-02 -4.214757308363914490e-02 -1.587205938994884491e-02 -4.736732691526412964e-02
1.748000000000000000e+03 1.692917823791503906e+00 -4.792940616607666016e+00 -3.419057931751012802e-03 -1.929671689867973328e-02 -6.814732681959867477e-03 -1.161817554384469986e-02
1.749000000000000000e+03 1.233647537231445312e+01 -2.232624053955078125e+00 -1.214088872075080872e-01 -1.093406453728675842e-01 -6.922486424446105957e-02 -1.131013706326484680e-01
1.750000000000000000e+03 4.187503433227539062e+01 3.436366081237792969e+00 -9.990090727806091309e-01 -2.522594630718231201e-01 -3.753805458545684814e-01 -5.080271884799003601e-02
1.751000000000000000e+03 1.268305301666259766e+01 3.581394672393798828e+00 -2.258760184049606323e-01 -1.101333126425743103e-01 -1.008028015494346619e-01 2.322504669427871704e-01
1.752000000000000000e+03 1.218285846710205078e+01 4.416858673095703125e+00 -2.632909119129180908e-01 -1.927160918712615967e-01 -1.368020921945571899e-01 2.216390818357467651e-01
1.753000000000000000e+03 6.449548339843750000e+01 -5.514371395111083984e+00 4.940961003303527832e-01 1.670815849304199219e+01 5.160676479339599609e+00 -2.132347345352172852e+00
1.754000000000000000e+03 6.295619487762451172e+00 3.461668252944946289e+00 -4.767681285738945007e-02 -2.054337598383426666e-02 -2.046605758368968964e-02 -3.102288767695426941e-02
1.755000000000000000e+03 7.000907897949218750e+00 3.485752820968627930e+00 -5.870454758405685425e-02 -3.281214088201522827e-02 -2.745500765740871429e-02 -2.227175235748291016e-02
1.756000000000000000e+03 8.549369812011718750e+00 2.631563663482666016e+00 -1.204698998481035233e-02 -3.833550959825515747e-02 -1.511474978178739548e-02 -4.976624157279729843e-03
1.757000000000000000e+03 9.177918434143066406e+00 3.359252452850341797e+00 -8.781236410140991211e-02 -6.357999891042709351e-02 -4.541770741343498230e-02 2.116288244724273682e-02
1.758000000000000000e+03 4.146444320678710938e+00 3.633099794387817383e+00 -2.311532571911811829e-02 -1.405496615916490555e-03 -7.356246933341026306e-03 -4.051305353641510010e-02
1.759000000000000000e+03 3.370569467544555664e+00 2.845921277999877930e+00 3.892308101058006287e-03 7.630625274032354355e-03 3.456879872828722000e-03 -4.586653783917427063e-02
1.760000000000000000e+03 4.119681835174560547e+00 2.772204160690307617e+00 3.068206133320927620e-03 2.769001526758074760e-03 1.751162228174507618e-03 -4.649937897920608521e-02
1.761000000000000000e+03 4.870471000671386719e+00 2.708859682083129883e+00 3.469605930149555206e-03 -4.230631049722433090e-03 -2.283075300510972738e-04 -4.599991440773010254e-02
1.762000000000000000e+03 5.596454143524169922e+00 3.445637702941894531e+00 -3.908405452966690063e-02 -1.276068016886711121e-02 -1.555342040956020355e-02 -3.622621670365333557e-02
1.763000000000000000e+03 4.503780901432037354e-01 3.519224405288696289e+00 1.270034699700772762e-03 6.126290559768676758e-02 1.875988207757472992e-02 -1.143969688564538956e-02
1.764000000000000000e+03 5.690074920654296875e+00 4.825046539306640625e+00 -1.019775643944740295e-01 -2.749559655785560608e-02 -3.884194791316986084e-02 -6.854996085166931152e-03
1.765000000000000000e+03 1.490908145904541016e+01 -4.245992660522460938e+00 9.552170336246490479e-02 1.115173175930976868e-01 6.211170554161071777e-02 -4.935051500797271729e-02
1.766000000000000000e+03 3.629119873046875000e+01 -3.332435607910156250e+00 -7.147834897041320801e-01 3.351685106754302979e-01 -1.138845011591911316e-01 -1.578008681535720825e-01
1.767000000000000000e+03 3.371963882446289062e+01 -3.231870889663696289e+00 -4.900855123996734619e-01 -5.047830566763877869e-02 -1.621691435575485229e-01 -2.370336055755615234e-01
1.768000000000000000e+03 3.752441024780273438e+01 -3.375451326370239258e+00 -8.212268352508544922e-01 4.058060348033905029e-01 -1.246262341737747192e-01 -3.631987795233726501e-02
1.769000000000000000e+03 3.542480087280273438e+01 -3.639276266098022461e+00 -5.573998093605041504e-01 3.231864571571350098e-01 -7.026401162147521973e-02 -2.720018625259399414e-01
1.770000000000000000e+03 1.528076457977294922e+01 3.983605623245239258e+00 -4.244471192359924316e-01 3.711904212832450867e-02 -1.161984205245971680e-01 4.106988012790679932e-01
1.771000000000000000e+03 1.529977607727050781e+01 4.881731510162353516e+00 -3.634995818138122559e-01 2.168342098593711853e-02 -1.025448441505432129e-01 4.557937383651733398e-01
1.772000000000000000e+03 1.330567741394042969e+01 6.046277523040771484e+00 -4.997102022171020508e-01 -3.213441669940948486e-01 -2.463163137435913086e-01 3.553700149059295654e-01
1.773000000000000000e+03 2.644417762756347656e+01 2.201607465744018555e+00 -7.954425811767578125e-01 6.518421322107315063e-02 -2.190775126218795776e-01 2.497393786907196045e-01
1.774000000000000000e+03 2.869115638732910156e+01 2.952182054519653320e+00 -6.803874373435974121e-01 3.384876251220703125e-01 -1.025699451565742493e-01 1.282678097486495972e-01
1.775000000000000000e+03 2.135708427429199219e+01 4.309210300445556641e+00 -4.253310263156890869e-01 -1.428579539060592651e-01 -1.704566925764083862e-01 1.896140426397323608e-01
1.776000000000000000e+03 2.206661796569824219e+01 4.215573310852050781e+00 -4.009035527706146240e-01 -1.579075306653976440e-01 -1.676433235406875610e-01 1.917970329523086548e-01
1.777000000000000000e+03 2.578423500061035156e+01 6.838901996612548828e+00 2.067795544862747192e-01 2.266499213874340057e-02 6.883336603641510010e-02 1.786019653081893921e-01
1.778000000000000000e+03 2.448930931091308594e+01 3.790926933288574219e+00 -4.298313856124877930e-01 -7.564776390790939331e-02 -1.516437530517578125e-01 2.575454711914062500e-01
1.779000000000000000e+03 2.347587394714355469e+01 3.130841493606567383e+00 -6.490104794502258301e-01 -1.093745902180671692e-01 -2.275155186653137207e-01 2.701109647750854492e-01
1.780000000000000000e+03 2.573451423645019531e+01 2.428066968917846680e+00 -7.694094777107238770e-01 -7.520226761698722839e-03 -2.330789119005203247e-01 2.711163759231567383e-01
1.781000000000000000e+03 2.754858779907226562e+01 5.578280448913574219e+00 3.806006535887718201e-02 3.897303044795989990e-01 1.283371150493621826e-01 1.693709343671798706e-01
1.782000000000000000e+03 2.954649734497070312e+01 3.863093376159667969e+00 -3.460835218429565430e-01 5.090491175651550293e-01 4.888967797160148621e-02 5.600152909755706787e-02
1.783000000000000000e+03 2.030741691589355469e+01 5.331808567047119141e+00 -1.875800043344497681e-01 -9.791638702154159546e-02 -8.564891666173934937e-02 1.656059622764587402e-01
1.784000000000000000e+03 1.154409122467041016e+01 -2.383997917175292969e+00 -8.352498710155487061e-02 2.352005429565906525e-02 -1.800148002803325653e-02 -1.002559214830398560e-01
1.785000000000000000e+03 1.481240940093994141e+01 -2.608095169067382812e+00 -2.433072403073310852e-02 6.133278020570287481e-06 -7.297377102077007294e-03 -2.433921769261360168e-02
1.786000000000000000e+03 1.254590892791748047e+01 -3.025092124938964844e+00 -3.459432721138000488e-02 3.459936380386352539e-02 1.510325432718673255e-06 -9.909836202859878540e-02
1.787000000000000000e+03 5.025784301757812500e+01 4.279870986938476562e+00 -5.807275772094726562e-01 -4.764618352055549622e-03 -1.756476610898971558e-01 6.201116740703582764e-02
1.788000000000000000e+03 5.178671646118164062e+01 4.238327503204345703e+00 -4.823255240917205811e-01 -4.011798277497291565e-02 -1.567330509424209595e-01 5.563275888562202454e-02
1.789000000000000000e+03 4.851250457763671875e+01 -3.607107400894165039e+00 -7.451688051223754883e-01 2.932533621788024902e-01 -1.355746388435363770e-01 4.407529234886169434e-01
1.790000000000000000e+03 4.812110900878906250e+01 -5.661742687225341797e+00 -6.089889407157897949e-01 5.435821413993835449e-01 -1.962203904986381531e-02 4.698625802993774414e-01
1.791000000000000000e+03 5.117687606811523438e+01 -4.282821655273437500e+00 -2.918610274791717529e-01 -3.960289657115936279e-01 -2.063670009374618530e-01 6.411372423171997070e-01
1.792000000000000000e+03 3.328682708740234375e+01 -4.357788562774658203e+00 -2.604677081108093262e-01 -1.164676547050476074e-01 -1.130806058645248413e-01 -3.420855700969696045e-01
1.793000000000000000e+03 1.849926376342773438e+01 6.547237396240234375e+00 8.824652433395385742e-02 1.564699113368988037e-01 7.341492921113967896e-02 2.124302089214324951e-01
1.794000000000000000e+03 1.630473709106445312e+01 4.913265228271484375e+00 -3.901981413364410400e-01 8.559419214725494385e-02 -9.138118475675582886e-02 4.432542324066162109e-01
1.795000000000000000e+03 5.896953201293945312e+01 1.686492204666137695e+00 -4.071098268032073975e-01 3.695061206817626953e+00 9.863854646682739258e-01 -2.718782424926757812e+00
1.796000000000000000e+03 4.749958038330078125e+01 1.887344598770141602e+00 -1.169762969017028809e+00 1.929293423891067505e-01 -2.930500805377960205e-01 1.126543805003166199e-01
1.797000000000000000e+03 4.597743225097656250e+01 6.296933650970458984e+00 -3.732010722160339355e-01 3.903616070747375488e-01 5.148165859282016754e-03 1.467011519707739353e-03
1.798000000000000000e+03 4.651455307006835938e+01 -4.638772964477539062e+00 -7.521482706069946289e-01 4.008226394653320312e-01 -1.053976863622665405e-01 1.360484361648559570e-01
1.799000000000000000e+03 3.398613357543945312e+01 -3.933116674423217773e+00 -4.030447900295257568e-01 2.196976356208324432e-02 -1.143225133419036865e-01 -4.268498420715332031e-01
1.800000000000000000e+03 4.950352096557617188e+01 3.642834663391113281e+00 -7.714420557022094727e-01 6.088352575898170471e-02 -2.131675630807876587e-01 8.793513476848602295e-02
1.801000000000000000e+03 1.003595447540283203e+01 -3.318801403045654297e+00 -3.925675153732299805e-02 -1.062429472804069519e-01 -4.364990815520286560e-02 -1.123567074537277222e-01
1.802000000000000000e+03 5.910728836059570312e+01 6.067613959312438965e-01 5.670159459114074707e-01 3.198377609252929688e+00 1.129618048667907715e+00 -2.456148624420166016e+00
1.803000000000000000e+03 4.413027954101562500e+01 4.562376499176025391e+00 -7.782694697380065918e-01 1.281872242689132690e-01 -1.950246840715408325e-01 1.955980807542800903e-01
1.804000000000000000e+03 4.374807739257812500e+01 8.902448654174804688e+00 -1.310282796621322632e-01 4.565086364746093750e-01 9.764410555362701416e-02 2.089227735996246338e-01
1.805000000000000000e+03 4.592213821411132812e+01 4.354287624359130859e+00 -8.025626540184020996e-01 2.749995887279510498e-01 -1.582689136266708374e-01 1.173912361264228821e-01
1.806000000000000000e+03 4.827024841308593750e+01 2.091345548629760742e+00 -1.176063299179077148e+00 1.728854477405548096e-01 -3.009533584117889404e-01 1.206920146942138672e-01
1.807000000000000000e+03 5.395862960815429688e+01 3.535395860671997070e+00 -6.984794735908508301e-01 5.591780543327331543e-01 -4.179041460156440735e-02 -2.431774586439132690e-01
1.808000000000000000e+03 5.255356597900390625e+01 3.647313117980957031e+00 -6.601422429084777832e-01 1.159530580043792725e-01 -1.632567644119262695e-01 8.933964371681213379e-02
1.809000000000000000e+03 3.053932189941406250e+01 1.660269618034362793e+00 -1.107319712638854980e+00 4.035083949565887451e-01 -2.111434042453765869e-01 -4.837815091013908386e-02
1.810000000000000000e+03 5.852377319335937500e+01 2.200709104537963867e+00 -7.543438673019409180e-01 3.405246019363403320e+00 7.952706217765808105e-01 -2.443539857864379883e+00
1.811000000000000000e+03 5.563054275512695312e+01 5.291005134582519531e+00 -6.526206731796264648e-01 2.241088867187500000e+00 4.765404760837554932e-01 -5.879485011100769043e-01
1.812000000000000000e+03 1.861738014221191406e+01 5.129835128784179688e+00 -2.805683612823486328e-01 3.885821625590324402e-02 -7.251304388046264648e-02 2.361061871051788330e-01
1.813000000000000000e+03 2.207362556457519531e+01 4.992283821105957031e+00 -2.148049473762512207e-01 -1.666448265314102173e-01 -1.144349351525306702e-01 1.687907576560974121e-01
1.814000000000000000e+03 6.386767578125000000e+01 -5.838515281677246094e+00 5.056073665618896484e-01 1.616635894775390625e+01 5.001589775085449219e+00 -8.659738898277282715e-01
1.815000000000000000e+03 3.967500305175781250e+01 -2.869361877441406250e+01 3.900593221187591553e-01 6.869235038757324219e-01 3.230948448181152344e-01 3.574903905391693115e-01
1.816000000000000000e+03 4.408615493774414062e+01 1.918679618835449219e+01 -2.884123474359512329e-02 6.210097670555114746e-01 1.776505559682846069e-01 2.249487340450286865e-01
1.817000000000000000e+03 4.252187347412109375e+01 2.027077674865722656e+01 2.850964963436126709e-01 3.986288607120513916e-01 2.051176130771636963e-01 2.399677336215972900e-01
1.818000000000000000e+03 6.379558563232421875e+01 -5.406805872917175293e-01 7.566136121749877930e-01 1.103350830078125000e+01 3.537036657333374023e+00 5.996521711349487305e-01
1.819000000000000000e+03 3.344613647460937500e+01 2.129705619812011719e+01 -1.209028344601392746e-02 8.955979347229003906e-02 2.324085123836994171e-02 3.259196877479553223e-01
1.820000000000000000e+03 3.232294464111328125e+01 -1.408256530761718750e+01 -7.231965065002441406e-01 -8.694124966859817505e-02 -2.430413216352462769e-01 9.877995401620864868e-02
1.821000000000000000e+03 3.306103515625000000e+01 -1.132549858093261719e+01 -3.560491204261779785e-01 -1.412542313337326050e-01 -1.491910070180892944e-01 -3.240756690502166748e-02
1.822000000000000000e+03 4.550357437133789062e+01 7.355431079864501953e+00 -2.094936519861221313e-01 5.931099057197570801e-01 1.150848865509033203e-01 -2.061452344059944153e-02
1.823000000000000000e+03 4.469434356689453125e+01 8.246302604675292969e+00 -1.796343326568603516e-01 6.294595003128051758e-01 1.349475532770156860e-01 1.077221781015396118e-01
1.824000000000000000e+03 3.169568061828613281e+01 2.856213188171386719e+01 6.745941191911697388e-02 -1.462840288877487183e-01 -2.364738285541534424e-02 7.986538857221603394e-02
1.825000000000000000e+03 1.559403705596923828e+01 -2.441013526916503906e+01 7.859488576650619507e-02 -4.728150963783264160e-01 -1.182660683989524841e-01 -3.487223386764526367e-01
1.826000000000000000e+03 1.122481155395507812e+01 -2.571680450439453125e+01 -2.435790933668613434e-02 -2.687943875789642334e-01 -8.794569224119186401e-02 -2.465860694646835327e-01
1.827000000000000000e+03 1.190521049499511719e+01 -3.203475952148437500e+01 -1.919461637735366821e-01 -4.608916342258453369e-01 -1.958513408899307251e-01 -2.335983663797378540e-01
1.828000000000000000e+03 4.793698120117187500e+01 2.949012041091918945e+00 -9.985247850418090820e-01 1.928766518831253052e-01 -2.416944354772567749e-01 1.132337003946304321e-01
1.829000000000000000e+03 6.196459960937500000e+01 -7.027000904083251953e+00 1.471975088119506836e+00 9.933422088623046875e+00 3.421619176864624023e+00 2.738544464111328125e+00
1.830000000000000000e+03 4.741046142578125000e+01 2.759883880615234375e+01 4.740803241729736328e-01 2.235748529434204102e+00 8.129486441612243652e-01 -3.215629458427429199e-01
1.831000000000000000e+03 5.240715408325195312e+01 3.077335739135742188e+01 6.409553885459899902e-01 4.096433639526367188e+00 1.421216726303100586e+00 4.455719888210296631e-02
1.832000000000000000e+03 3.955059814453125000e+01 1.877525711059570312e+01 3.311571180820465088e-01 -6.137237697839736938e-02 8.093542605638504028e-02 1.299412846565246582e-01
1.833000000000000000e+03 3.060000228881835938e+01 1.347100734710693359e+01 -2.215247899293899536e-01 8.485777974128723145e-01 1.881159096956253052e-01 5.889958143234252930e-01
1.834000000000000000e+03 5.239238357543945312e+01 2.872543525695800781e+01 7.326838374137878418e-01 4.309896945953369141e+00 1.512774229049682617e+00 -6.192008852958679199e-01
1.835000000000000000e+03 4.114673614501953125e+01 -2.204201507568359375e+01 2.668127417564392090e-01 5.924177765846252441e-01 2.577691674232482910e-01 -1.324968487024307251e-01
1.836000000000000000e+03 4.109930801391601562e+01 -2.309941673278808594e+01 1.719265431165695190e-01 6.107901334762573242e-01 2.348150014877319336e-01 3.495219722390174866e-02
1.837000000000000000e+03 2.999601173400878906e+01 -4.354424953460693359e+00 6.343908607959747314e-03 -5.093368887901306152e-01 -1.508978903293609619e-01 -2.428019642829895020e-01
1.838000000000000000e+03 2.995162582397460938e+01 -2.890531349182128906e+01 3.775874972343444824e-01 1.002086475491523743e-01 1.433388441801071167e-01 -2.383062988519668579e-01
1.839000000000000000e+03 3.174363708496093750e+01 -2.892152976989746094e+01 4.257472455501556396e-01 2.290538549423217773e-01 1.964403390884399414e-01 -2.303698509931564331e-01
1.840000000000000000e+03 3.980367660522460938e+01 -1.442159366607666016e+01 -9.193333387374877930e-01 7.037000656127929688e-01 -6.468998640775680542e-02 -4.822595715522766113e-01
1.841000000000000000e+03 3.316930770874023438e+01 1.857061004638671875e+01 3.520493805408477783e-01 1.796018332242965698e-01 1.594953685998916626e-01 5.410780906677246094e-01
1.842000000000000000e+03 4.457735443115234375e+01 -2.677890777587890625e+01 5.395346879959106445e-01 3.618321120738983154e-01 2.704100310802459717e-01 -2.015973776578903198e-01
1.843000000000000000e+03 4.150392913818359375e+01 -2.664141273498535156e+01 3.184920251369476318e-01 5.904567241668701172e-01 2.726846337318420410e-01 2.809323668479919434e-01
1.844000000000000000e+03 4.079618453979492188e+01 6.050272941589355469e+00 -1.051727607846260071e-01 -7.033797502517700195e-01 -2.425657510757446289e-01 5.055221319198608398e-01
1.845000000000000000e+03 4.095102310180664062e+01 4.751703262329101562e+00 -1.964135915040969849e-01 -6.257380843162536621e-01 -2.466454952955245972e-01 2.153052687644958496e-01
1.846000000000000000e+03 3.506595993041992188e+01 -1.428444862365722656e+01 -9.329480528831481934e-01 7.422508299350738525e-02 -2.576168775558471680e-01 1.784052932634949684e-03
1.847000000000000000e+03 6.967130279541015625e+01 2.354016065597534180e+00 1.173472762107849121e+00 3.106705427169799805e+00 1.284053444862365723e+00 2.691868782043457031e+00
1.848000000000000000e+03 6.616106414794921875e+01 3.086281394958496094e+01 5.977076292037963867e-01 4.179038047790527344e+00 1.433023810386657715e+00 2.910161614418029785e-01
1.849000000000000000e+03 9.450833320617675781e+00 -4.799989223480224609e+00 -5.702789872884750366e-03 -1.421427726745605469e-02 -5.975120235234498978e-03 -7.836183160543441772e-02
1.850000000000000000e+03 1.096756935119628906e+01 -1.126357841491699219e+01 -4.201000928878784180e-02 1.369195431470870972e-02 -8.495416492223739624e-03 -1.150670871138572693e-01
1.851000000000000000e+03 6.619620513916015625e+01 -2.039747714996337891e+00 4.567156314849853516e+00 5.215095996856689453e+00 2.934675693511962891e+00 3.996737241744995117e+00
1.852000000000000000e+03 6.612807464599609375e+01 2.919142532348632812e+01 9.651789069175720215e-01 3.948407173156738281e+00 1.474075794219970703e+00 3.972665369510650635e-01
1.853000000000000000e+03 2.772603607177734375e+01 6.726686000823974609e+00 2.570953965187072754e-01 4.661911725997924805e-01 2.169859707355499268e-01 1.642845273017883301e-01
1.854000000000000000e+03 2.641714859008789062e+01 3.888313055038452148e+00 -4.048884809017181396e-01 1.034218892455101013e-01 -9.043998271226882935e-02 2.356440573930740356e-01
1.855000000000000000e+03 1.792686080932617188e+01 -1.277772235870361328e+01 -7.216379046440124512e-02 1.314801871776580811e-01 1.779492199420928955e-02 5.745477043092250824e-03
1.856000000000000000e+03 5.984922790527343750e+01 1.861732602119445801e+00 -6.136415600776672363e-01 4.606537818908691406e+00 1.197868943214416504e+00 -2.998734235763549805e+00
1.857000000000000000e+03 6.218741607666015625e+01 7.114690303802490234e+00 -2.002334833145141602e+00 5.698705673217773438e+00 1.108911275863647461e+00 -2.560672760009765625e+00
1.858000000000000000e+03 5.232977676391601562e+01 2.645325660705566406e+01 1.032269477844238281e+00 3.925241231918334961e+00 1.487253189086914062e+00 -6.228748559951782227e-01
1.859000000000000000e+03 5.029850769042968750e+01 2.372903060913085938e+01 2.884189225733280182e-02 2.744549751281738281e+00 8.320174813270568848e-01 -5.449540019035339355e-01
1.860000000000000000e+03 4.141636276245117188e+01 -2.383450698852539062e+01 1.638166755437850952e-01 5.954846143722534180e-01 2.277903854846954346e-01 1.042228266596794128e-01
1.861000000000000000e+03 1.106568050384521484e+01 7.355205535888671875e+00 -5.334932208061218262e-01 -3.669332563877105713e-01 -2.701279520988464355e-01 3.520099222660064697e-01
1.862000000000000000e+03 6.526650238037109375e+01 -1.247851085662841797e+01 -8.777734041213989258e-01 6.938516616821289062e+00 1.818222880363464355e+00 7.033288478851318359e-02
1.863000000000000000e+03 6.039374160766601562e+01 1.068917083740234375e+01 2.115492105484008789e+00 9.076454162597656250e+00 3.357583761215209961e+00 -2.045028209686279297e+00
1.864000000000000000e+03 5.666971206665039062e+01 1.483226203918457031e+01 1.915387630462646484e+00 4.230974197387695312e+00 1.843908548355102539e+00 -1.436734318733215332e+00
1.865000000000000000e+03 6.321121978759765625e+01 6.227961063385009766e+00 -2.682583808898925781e+00 4.573606014251708984e+00 5.673066973686218262e-01 -2.479918956756591797e+00
1.866000000000000000e+03 6.445330810546875000e+01 5.228087425231933594e+00 -2.639550447463989258e+00 2.730625391006469727e+00 2.732243761420249939e-02 -1.896680474281311035e+00
1.867000000000000000e+03 4.782393264770507812e+01 -2.763573837280273438e+01 5.020223259925842285e-01 6.811599135398864746e-01 3.549546599388122559e-01 -6.887137889862060547e-01
1.868000000000000000e+03 4.877614593505859375e+01 -2.843926239013671875e+01 6.863172650337219238e-01 8.614141345024108887e-01 4.643194079399108887e-01 -5.883131027221679688e-01
1.869000000000000000e+03 6.950765228271484375e+01 6.310010910034179688e+00 -1.931488990783691406e+00 3.350501775741577148e+00 4.257038533687591553e-01 2.653283834457397461e+00
1.870000000000000000e+03 5.030955123901367188e+01 1.955284690856933594e+01 6.606207042932510376e-02 1.923321485519409180e+00 5.968150496482849121e-01 -1.359577178955078125e+00
1.871000000000000000e+03 6.388803863525390625e+01 -2.537229728698730469e+01 -1.448683142662048340e+00 5.100834369659423828e+00 1.095645427703857422e+00 -1.528727650642395020e+00
1.872000000000000000e+03 6.298864364624023438e+01 -2.181835365295410156e+01 2.547798156738281250e+00 5.976455211639404297e+00 2.557276010513305664e+00 -2.098915576934814453e-01
1.873000000000000000e+03 1.973928070068359375e+01 -2.578635025024414062e+01 5.101715326309204102e-01 2.452782690525054932e-01 2.266349494457244873e-01 -2.614937126636505127e-01
1.874000000000000000e+03 2.054018211364746094e+01 1.428218936920166016e+01 -5.646912753582000732e-02 -2.907126247882843018e-01 -1.041545271873474121e-01 7.574644684791564941e-02
1.875000000000000000e+03 7.527177429199218750e+01 1.552261948585510254e+00 -2.534618675708770752e-01 6.630517005920410156e+00 1.913116574287414551e+00 -1.034555137157440186e-01
1.876000000000000000e+03 4.715930938720703125e+01 6.203750133514404297e+00 -2.754311859607696533e-01 3.239366412162780762e-01 1.455163117498159409e-02 -3.899223729968070984e-02
1.877000000000000000e+03 6.767108154296875000e+01 -2.142359763383865356e-01 3.198049068450927734e+00 3.658347845077514648e+00 2.056919097900390625e+00 2.835193634033203125e+00
1.878000000000000000e+03 7.358209228515625000e+01 -3.857849884033203125e+01 1.416176371276378632e-02 6.037915229797363281e+00 1.815623164176940918e+00 -3.064093887805938721e-01
1.879000000000000000e+03 7.493560791015625000e+01 -3.269625091552734375e+01 2.766350507736206055e-01 6.234592914581298828e+00 1.953368425369262695e+00 4.015823006629943848e-01
1.880000000000000000e+03 7.563832092285156250e+01 -3.524421691894531250e+01 1.859350651502609253e-01 6.600001335144042969e+00 2.035780906677246094e+00 5.507052689790725708e-02
1.881000000000000000e+03 7.365802001953125000e+01 -2.587724113464355469e+01 -1.960640072822570801e+00 8.252079010009765625e+00 1.887431502342224121e+00 8.046523928642272949e-01
1.882000000000000000e+03 7.814607238769531250e+01 1.954614639282226562e+01 -1.953430175781250000e-01 7.865553855895996094e+00 2.301063299179077148e+00 5.659817457199096680e-01
1.883000000000000000e+03 7.193802642822265625e+01 1.739541435241699219e+01 -6.921097636222839355e-01 8.097858428955078125e+00 2.221724510192871094e+00 -6.209362745285034180e-01
1.884000000000000000e+03 7.754985046386718750e+01 3.484801101684570312e+01 4.906488209962844849e-02 7.084716796875000000e+00 2.140134334564208984e+00 -5.804945528507232666e-02
1.885000000000000000e+03 7.456585693359375000e+01 3.404399108886718750e+01 1.448666900396347046e-01 6.269532203674316406e+00 1.924319744110107422e+00 -4.845571890473365784e-02
1.886000000000000000e+03 7.679792022705078125e+01 -2.501368331909179688e+01 6.589195877313613892e-02 8.298445701599121094e+00 2.509301185607910156e+00 -6.940763592720031738e-01
1.887000000000000000e+03 7.823824310302734375e+01 -2.923745155334472656e+01 -1.376916617155075073e-01 8.124380111694335938e+00 2.396006584167480469e+00 4.557586833834648132e-02
1.888000000000000000e+03 7.703585052490234375e+01 -3.052005386352539062e+01 -1.327491849660873413e-01 7.549378871917724609e+00 2.224988937377929688e+00 2.847745418548583984e-01
1.889000000000000000e+03 7.440559387207031250e+01 -2.500535964965820312e+01 -2.722805179655551910e-02 8.740713119506835938e+00 2.614045619964599609e+00 -4.086561501026153564e-01
1.890000000000000000e+03 7.808537292480468750e+01 -2.187058448791503906e+01 4.024832248687744141e-01 7.850257873535156250e+00 2.475822210311889648e+00 2.081261724233627319e-01
1.891000000000000000e+03 7.615862274169921875e+01 -2.376701545715332031e+01 8.433915376663208008e-01 8.925591468811035156e+00 2.930694818496704102e+00 -4.360306859016418457e-01
1.892000000000000000e+03 7.769467163085937500e+01 -3.437860870361328125e+01 6.503266096115112305e-02 7.465764045715332031e+00 2.259238958358764648e+00 1.398297697305679321e-01
1.893000000000000000e+03 7.615245056152343750e+01 -3.380454254150390625e+01 1.787653714418411255e-01 6.775885105133056641e+00 2.086395263671875000e+00 2.182545065879821777e-01
1.894000000000000000e+03 7.679660034179687500e+01 -3.270807647705078125e+01 1.098925471305847168e-01 7.113466262817382812e+00 2.167007684707641602e+00 3.329840600490570068e-01
1.895000000000000000e+03 7.497207641601562500e+01 -4.058818054199218750e+01 -1.003615558147430420e-02 6.788537025451660156e+00 2.033550262451171875e+00 -1.690022796392440796e-01
1.896000000000000000e+03 7.825426483154296875e+01 2.230788993835449219e+01 -1.693848371505737305e-01 8.140494346618652344e+00 2.391332864761352539e+00 8.928921818733215332e-02
1.897000000000000000e+03 7.714865112304687500e+01 2.101037597656250000e+01 -4.356597065925598145e-01 7.851628303527832031e+00 2.224790573120117188e+00 3.395065367221832275e-01
1.898000000000000000e+03 7.577639007568359375e+01 2.334857177734375000e+01 -3.986091613769531250e-01 7.247180461883544922e+00 2.054571390151977539e+00 -2.242520600557327271e-01
1.899000000000000000e+03 7.713127136230468750e+01 2.228345489501953125e+01 -3.068752586841583252e-01 7.765057563781738281e+00 2.237454652786254883e+00 7.450789958238601685e-02
1.900000000000000000e+03 7.681150054931640625e+01 1.486388492584228516e+01 3.588515818119049072e-01 7.403435707092285156e+00 2.328686237335205078e+00 9.402882456779479980e-01
1.901000000000000000e+03 7.816970062255859375e+01 1.361122703552246094e+01 3.259014785289764404e-01 6.491400718688964844e+00 2.045190572738647461e+00 4.552264213562011719e-01
1.902000000000000000e+03 7.479833221435546875e+01 1.361956310272216797e+01 1.156757473945617676e+00 8.975069999694824219e+00 3.039548397064208984e+00 6.038496494293212891e-01
1.903000000000000000e+03 7.538830566406250000e+01 8.997809410095214844e+00 2.490998953580856323e-01 7.942647933959960938e+00 2.457524299621582031e+00 -6.245070099830627441e-01
1.904000000000000000e+03 7.687779998779296875e+01 2.490265846252441406e+01 -1.254085600376129150e-01 7.482510089874267578e+00 2.207130432128906250e+00 -2.668153643608093262e-01
1.905000000000000000e+03 7.810479736328125000e+01 2.635243034362792969e+01 -9.502609260380268097e-03 7.848680496215820312e+00 2.351753473281860352e+00 -2.175116688013076782e-01
1.906000000000000000e+03 7.782051086425781250e+01 3.050328826904296875e+01 3.206260502338409424e-02 7.358074665069580078e+00 2.217041254043579102e+00 -1.819296181201934814e-01
1.907000000000000000e+03 7.673611450195312500e+01 2.755649375915527344e+01 3.404781967401504517e-02 7.158827304840087891e+00 2.157862663269042969e+00 -3.638873100280761719e-01
1.908000000000000000e+03 7.855477905273437500e+01 -1.661343193054199219e+01 -3.434110432863235474e-02 9.143977165222167969e+00 2.732890844345092773e+00 7.727764844894409180e-01
1.909000000000000000e+03 7.593174743652343750e+01 -1.964656639099121094e+01 7.498391866683959961e-01 8.899986267089843750e+00 2.894947767257690430e+00 7.756596803665161133e-01
1.910000000000000000e+03 7.671160888671875000e+01 -1.204396820068359375e+01 -1.538944005966186523e+00 8.772229194641113281e+00 2.169985532760620117e+00 -2.480883449316024780e-01
1.911000000000000000e+03 7.829977416992187500e+01 -1.511801838874816895e+00 -8.397905528545379639e-02 7.592738628387451172e+00 2.252627849578857422e+00 3.933354616165161133e-01
1.912000000000000000e+03 7.705702209472656250e+01 3.777680635452270508e+00 -2.532120347023010254e-01 7.207828521728515625e+00 2.086385011672973633e+00 -2.194969207048416138e-01
1.913000000000000000e+03 7.754092407226562500e+01 3.636542510986328125e+01 7.370490580797195435e-03 7.055976390838623047e+00 2.119004011154174805e+00 6.278328131884336472e-03
1.914000000000000000e+03 7.804485321044921875e+01 6.991144657135009766e+00 -9.587386250495910645e-02 7.050922393798828125e+00 2.086514711380004883e+00 -6.157737374305725098e-01
1.915000000000000000e+03 7.602962493896484375e+01 6.330559730529785156e+00 -3.486447036266326904e-01 7.486764430999755859e+00 2.141435861587524414e+00 -5.864611268043518066e-01
1.916000000000000000e+03 7.556072235107421875e+01 -2.125089454650878906e+01 1.356259942054748535e+00 9.071183204650878906e+00 3.128232717514038086e+00 2.247476875782012939e-01
1.917000000000000000e+03 7.685572052001953125e+01 -1.428247261047363281e+01 -7.812929153442382812e-01 8.414585113525390625e+00 2.289987564086914062e+00 5.936632752418518066e-01
1.918000000000000000e+03 7.586915588378906250e+01 3.484061050415039062e+01 5.825451761484146118e-02 6.632759571075439453e+00 2.007304191589355469e+00 -4.993385821580886841e-02
1.919000000000000000e+03 7.446114349365234375e+01 3.134734725952148438e+01 2.461317479610443115e-01 6.173398494720458984e+00 1.925859093666076660e+00 -1.966501474380493164e-01
1.920000000000000000e+03 7.603433227539062500e+01 3.181646156311035156e+01 1.266288608312606812e-01 6.693010330200195312e+00 2.045891761779785156e+00 -1.878596544265747070e-01
1.921000000000000000e+03 7.339252471923828125e+01 1.793114089965820312e+01 -9.672740101814270020e-01 8.111268043518066406e+00 2.143198251724243164e+00 3.279546499252319336e-01
1.922000000000000000e+03 7.614468383789062500e+01 2.109238433837890625e+01 -5.878121852874755859e-01 7.674561500549316406e+00 2.126024723052978516e+00 2.887174785137176514e-01
1.923000000000000000e+03 7.705740356445312500e+01 8.512598037719726562e+00 1.500284969806671143e-01 7.204986095428466797e+00 2.206504344940185547e+00 -7.683448195457458496e-01
1.924000000000000000e+03 7.520746612548828125e+01 7.328000068664550781e+00 -3.247701227664947510e-01 7.851633548736572266e+00 2.258059024810791016e+00 -5.642666816711425781e-01
1.925000000000000000e+03 7.505924987792968750e+01 -1.105804562568664551e+00 -1.923492848873138428e-01 6.953825950622558594e+00 2.028443098068237305e+00 -6.496506929397583008e-01
1.926000000000000000e+03 7.686845397949218750e+01 7.315290451049804688e+00 -1.771836280822753906e-01 7.325478076934814453e+00 2.144488334655761719e+00 -7.232233881950378418e-01
1.927000000000000000e+03 7.835236358642578125e+01 2.700664043426513672e+00 -1.052616685628890991e-01 7.450447559356689453e+00 2.203555822372436523e+00 -9.426952153444290161e-02
1.928000000000000000e+03 7.671382141113281250e+01 5.143286228179931641e+00 -3.735533654689788818e-01 7.288116931915283203e+00 2.074369192123413086e+00 -4.438428282737731934e-01
1.929000000000000000e+03 7.663368988037109375e+01 -4.009684085845947266e+00 5.077558755874633789e-01 9.145687103271484375e+00 2.896033048629760742e+00 -2.956411428749561310e-02
1.930000000000000000e+03 7.558262634277343750e+01 -1.395468616485595703e+01 -1.183166980743408203e+00 7.012232780456542969e+00 1.748719692230224609e+00 4.964552521705627441e-01
1.931000000000000000e+03 7.820494842529296875e+01 -8.235992431640625000e+00 4.437476098537445068e-01 8.695136070251464844e+00 2.741665124893188477e+00 -1.354051470756530762e+00
1.932000000000000000e+03 7.610875701904296875e+01 -1.398871302604675293e+00 -2.419988960027694702e-01 7.837636470794677734e+00 2.278691291809082031e+00 -2.874235212802886963e-01
1.933000000000000000e+03 7.727163696289062500e+01 -8.652374267578125000e+00 3.724537193775177002e-01 9.471045494079589844e+00 2.953049898147583008e+00 -1.599192619323730469e+00
1.934000000000000000e+03 4.597159194946289062e+01 -1.549616336822509766e+01 -5.430719852447509766e-01 8.001118898391723633e-01 7.711198925971984863e-02 2.600933611392974854e-01
1.935000000000000000e+03 2.116705131530761719e+01 2.348360252380371094e+01 2.424312531948089600e-01 -1.043953374028205872e-01 4.141077399253845215e-02 2.259433716535568237e-01
1.936000000000000000e+03 2.164679145812988281e+01 2.471892547607421875e+01 4.047678112983703613e-01 -5.772343277931213379e-02 1.041133105754852295e-01 3.985993862152099609e-01
1.937000000000000000e+03 6.558701324462890625e+01 -2.587168312072753906e+01 -2.128035068511962891e+00 6.567442893981933594e+00 1.331822276115417480e+00 -2.035854816436767578e+00
1.938000000000000000e+03 4.410449600219726562e+01 3.435189056396484375e+01 5.571962594985961914e-01 1.098838329315185547e+00 4.968103766441345215e-01 -5.983382463455200195e-01
1.939000000000000000e+03 3.042555236816406250e+01 -8.882165908813476562e+00 -4.048688411712646484e-01 -9.839785695075988770e-01 -4.166542291641235352e-01 -4.455989003181457520e-01
1.940000000000000000e+03 6.611057281494140625e+01 -2.783025360107421875e+01 -1.344485282897949219e+00 5.410948276519775391e+00 1.219938993453979492e+00 -1.702841401100158691e+00
1.941000000000000000e+03 3.885405349731445312e+01 -1.554868698120117188e+01 -5.154789686203002930e-01 7.224015593528747559e-01 6.207678467035293579e-02 -2.808130383491516113e-01
1.942000000000000000e+03 3.888832473754882812e+01 -1.359952163696289062e+01 -9.096240401268005371e-01 8.537315726280212402e-01 -1.676774024963378906e-02 -2.623629570007324219e-01
1.943000000000000000e+03 2.840753364562988281e+01 -2.524191665649414062e+01 3.571754992008209229e-01 1.382945571094751358e-02 1.113014891743659973e-01 -2.242360562086105347e-01
1.944000000000000000e+03 2.757637214660644531e+01 -2.772963142395019531e+01 4.373582899570465088e-01 -7.333813607692718506e-02 1.092060431838035583e-01 -2.324018180370330811e-01
1.945000000000000000e+03 2.224162101745605469e+00 3.227917861938476562e+01 7.256796211004257202e-02 -7.694327235221862793e-01 -2.090594321489334106e-01 1.522085070610046387e-01
1.946000000000000000e+03 5.433119773864746094e+00 3.265411376953125000e+01 1.891725212335586548e-01 -3.782376945018768311e-01 -5.671955272555351257e-02 1.474732905626296997e-01
1.947000000000000000e+03 3.055928468704223633e+00 2.805032157897949219e+01 -1.016989126801490784e-01 -6.238139271736145020e-01 -2.176538407802581787e-01 2.011098712682723999e-01
1.948000000000000000e+03 3.262785911560058594e+00 2.983224868774414062e+01 -5.439306609332561493e-03 -6.774780750274658203e-01 -2.048752158880233765e-01 2.427189350128173828e-01
1.949000000000000000e+03 4.524663448333740234e+00 3.173961067199707031e+01 1.457212865352630615e-01 -5.456013083457946777e-01 -1.199640035629272461e-01 2.101455479860305786e-01
1.950000000000000000e+03 2.085327863693237305e+00 3.080074882507324219e+01 2.212530374526977539e-02 -7.139110565185546875e-01 -2.075357139110565186e-01 1.907328665256500244e-01
1.951000000000000000e+03 2.315877914428710938e+00 3.542596054077148438e+01 6.172921136021614075e-02 -8.454421758651733398e-01 -2.351138889789581299e-01 3.329805284738540649e-02
1.952000000000000000e+03 5.146351814270019531e+00 2.611397552490234375e+01 -2.557337880134582520e-01 -7.428610920906066895e-01 -2.995784580707550049e-01 1.776119023561477661e-01
1.953000000000000000e+03 6.343008995056152344e+00 3.275973129272460938e+01 1.880768090486526489e-01 -1.107515245676040649e-01 2.319758757948875427e-02 1.375335305929183960e-01
1.954000000000000000e+03 2.680881023406982422e+00 3.908003997802734375e+01 2.511090971529483795e-02 -8.629789948463439941e-01 -2.513604462146759033e-01 -6.813998520374298096e-02
1.955000000000000000e+03 2.886119127273559570e+00 -3.606404113769531250e+01 3.304997691884636879e-03 -4.384735226631164551e-01 -1.305505484342575073e-01 -1.017352342605590820e-01
1.956000000000000000e+03 2.041570663452148438e+00 -2.906898880004882812e+01 -1.455650199204683304e-02 -2.912964224815368652e-01 -9.175587445497512817e-02 -6.826705764979124069e-03
1.957000000000000000e+03 3.469647884368896484e+00 -3.056368255615234375e+01 -4.173723608255386353e-02 -2.779144644737243652e-01 -9.589551389217376709e-02 -5.884125083684921265e-02
1.958000000000000000e+03 2.073213815689086914e+00 -3.052647972106933594e+01 -2.362026460468769073e-02 -3.119662702083587646e-01 -1.006759628653526306e-01 -2.934960462152957916e-02
1.959000000000000000e+03 1.717071533203125000e+00 2.186752319335937500e+01 1.888157916255295277e-03 -4.254183471202850342e-01 -1.270590573549270630e-01 -4.287759214639663696e-02
1.960000000000000000e+03 3.269838333129882812e+00 -1.514431095123291016e+01 -4.342447966337203979e-02 -1.490917354822158813e-01 -5.775486305356025696e-02 -3.896770253777503967e-02
1.961000000000000000e+03 6.039230823516845703e+00 -1.390541839599609375e+01 -8.641742169857025146e-02 -2.178259938955307007e-01 -9.127302467823028564e-02 -1.097160577774047852e-01
1.962000000000000000e+03 1.556540727615356445e+00 -9.012307167053222656e+00 8.835100568830966949e-03 -2.844597771763801575e-02 -5.883262958377599716e-03 6.493197754025459290e-03
1.963000000000000000e+03 1.655076742172241211e+00 -1.168523120880126953e+01 6.979971192777156830e-03 -3.532518818974494934e-02 -8.503565564751625061e-03 1.075961068272590637e-02
1.964000000000000000e+03 2.057542800903320312e+00 -1.991958999633789062e+01 1.097142137587070465e-02 -2.088350802659988403e-01 -5.935909599065780640e-02 -1.295200139284133911e-01
1.965000000000000000e+03 1.820443868637084961e+00 2.049986457824707031e+01 1.131030917167663574e-02 -4.295573532581329346e-01 -1.254741102457046509e-01 -3.761714324355125427e-02
1.966000000000000000e+03 3.590365648269653320e+00 2.349820518493652344e+01 -5.861122161149978638e-02 -4.980465471744537354e-01 -1.669973284006118774e-01 -1.464066794142127037e-03
1.967000000000000000e+03 4.935431003570556641e+00 1.179260158538818359e+01 -4.793546348810195923e-02 -1.496534347534179688e-01 -5.927667021751403809e-02 2.659432590007781982e-01
1.968000000000000000e+03 3.124862432479858398e+00 -2.448897743225097656e+01 3.659833967685699463e-02 -2.323367595672607422e-01 -5.872152745723724365e-02 1.179193984717130661e-02
1.969000000000000000e+03 4.907957077026367188e+00 -2.278731536865234375e+01 1.617899835109710693e-01 -1.455615460872650146e-01 4.868531133979558945e-03 -1.219717785716056824e-03
1.970000000000000000e+03 3.440298795700073242e+00 -1.635322570800781250e+01 -7.407525181770324707e-02 -1.907213032245635986e-01 -7.943896949291229248e-02 -9.311204403638839722e-02
1.971000000000000000e+03 3.096126079559326172e+00 -1.390657901763916016e+01 -3.535165637731552124e-02 -1.419095546007156372e-01 -5.317836254835128784e-02 -2.171818725764751434e-02
1.972000000000000000e+03 2.841931581497192383e+00 8.805107116699218750e+00 -5.959422141313552856e-02 -4.282818734645843506e-02 -3.072672151029109955e-02 1.058771014213562012e-01
1.973000000000000000e+03 1.548382282257080078e+00 6.291007518768310547e+00 -1.752026751637458801e-02 4.643660038709640503e-02 8.674900047481060028e-03 5.518024321645498276e-03
1.974000000000000000e+03 1.939100861549377441e+00 1.447260189056396484e+01 2.048811875283718109e-02 -2.995097935199737549e-01 -8.370650559663772583e-02 1.164212226867675781e-01
1.975000000000000000e+03 3.572484731674194336e+00 1.533554553985595703e+01 8.141970634460449219e-02 -3.103902339935302734e-01 -6.869115680456161499e-02 1.559213399887084961e-01
1.976000000000000000e+03 5.281749725341796875e+00 -4.023537635803222656e+00 1.530182431451976299e-03 -4.033749550580978394e-02 -1.164219435304403305e-02 -3.768151625990867615e-02
1.977000000000000000e+03 4.193272113800048828e+00 -3.267280101776123047e+00 -1.648485474288463593e-02 -2.907819673418998718e-02 -1.366891525685787201e-02 -1.872828230261802673e-02
1.978000000000000000e+03 1.598124861717224121e+00 -6.285249710083007812e+00 5.848647560924291611e-03 -2.158204279839992523e-02 -4.720018245279788971e-03 -9.470254881307482719e-04
1.979000000000000000e+03 2.822999715805053711e+00 1.016610431671142578e+01 -4.640212655067443848e-02 -8.700457960367202759e-02 -4.002201184630393982e-02 1.449286192655563354e-01
1.980000000000000000e+03 1.844180822372436523e+00 -3.587905120849609375e+01 -3.070664359256625175e-03 -4.587283432483673096e-01 -1.385397017002105713e-01 -6.419069319963455200e-02
1.981000000000000000e+03 2.599984884262084961e+00 -8.861135482788085938e+00 2.936738310381770134e-03 -5.643039941787719727e-02 -1.604809798300266266e-02 -4.138512536883354187e-03
1.982000000000000000e+03 3.464113235473632812e+00 -3.349180984497070312e+01 -1.722496934235095978e-02 -3.548460900783538818e-01 -1.116213127970695496e-01 -1.062704473733901978e-01
1.983000000000000000e+03 5.010014533996582031e+00 -3.214679336547851562e+01 -5.930877476930618286e-02 -2.802758216857910156e-01 -1.018753722310066223e-01 -1.320206522941589355e-01
1.984000000000000000e+03 6.769563198089599609e+00 -2.460776710510253906e+01 5.762872099876403809e-02 -1.494411099702119827e-02 1.280538272112607956e-02 -1.663025654852390289e-02
1.985000000000000000e+03 3.267845392227172852e+00 -1.949704360961914062e+01 -1.801063865423202515e-02 -2.191198766231536865e-01 -7.113915681838989258e-02 -1.347447633743286133e-01
1.986000000000000000e+03 2.753624916076660156e+00 1.148572063446044922e+01 -2.479431778192520142e-02 -1.443668305873870850e-01 -5.074834451079368591e-02 1.731341183185577393e-01
1.987000000000000000e+03 5.147572994232177734e+00 1.038321304321289062e+01 -1.182402968406677246e-01 -1.020348891615867615e-01 -6.608255207538604736e-02 2.282028347253799438e-01
1.988000000000000000e+03 2.907662630081176758e+00 1.275875473022460938e+01 6.535486783832311630e-03 -2.032905369997024536e-01 -5.902651697397232056e-02 1.852808296680450439e-01
1.989000000000000000e+03 3.190968275070190430e+00 1.402733612060546875e+01 3.637953475117683411e-02 -2.621380686759948730e-01 -6.772756576538085938e-02 1.816092729568481445e-01
1.990000000000000000e+03 4.352048397064208984e+00 1.640127182006835938e+01 1.327085942029953003e-01 -3.342336714267730713e-01 -6.045752391219139099e-02 1.365408152341842651e-01
1.991000000000000000e+03 2.985403776168823242e+00 2.054760551452636719e+01 2.879625558853149414e-02 -4.325688779354095459e-01 -1.211317852139472961e-01 -3.310295939445495605e-02
1.992000000000000000e+03 3.583120822906494141e+00 1.771896553039550781e+01 9.579931944608688354e-02 -3.768748044967651367e-01 -8.432264626026153564e-02 5.640233680605888367e-02
1.993000000000000000e+03 5.933518886566162109e+00 1.873990440368652344e+01 1.551579087972640991e-01 -3.395338654518127441e-01 -5.531278252601623535e-02 6.378716975450515747e-02
1.994000000000000000e+03 2.538602066040039062e+01 3.134880828857421875e+01 -8.591730147600173950e-03 2.868528068065643311e-01 8.347832411527633667e-02 3.536928296089172363e-01
1.995000000000000000e+03 7.194839477539062500e+01 1.917890930175781250e+01 -1.846885323524475098e+00 6.964924335479736328e+00 1.535411715507507324e+00 -4.108995795249938965e-01
1.996000000000000000e+03 2.301370811462402344e+01 2.787250900268554688e+01 4.637852609157562256e-01 2.827941179275512695e-01 2.239738106727600098e-01 4.002265632152557373e-01
1.997000000000000000e+03 2.184826660156250000e+01 2.977352905273437500e+01 2.465694397687911987e-02 4.090046882629394531e-02 1.966722309589385986e-02 1.764489859342575073e-01
1.998000000000000000e+03 4.217745208740234375e+01 8.482511520385742188e+00 -3.787140548229217529e-01 -5.354140698909759521e-02 -1.296766400337219238e-01 4.896573126316070557e-01
1.999000000000000000e+03 4.063643646240234375e+01 1.299865245819091797e+01 -3.413175418972969055e-02 -2.386229932308197021e-01 -8.182642608880996704e-02 -4.727316647768020630e-02
2.000000000000000000e+03 5.665654373168945312e+01 -4.129352569580078125e+01 -6.419689059257507324e-01 2.031076431274414062e+00 4.167322218418121338e-01 -1.562324911355972290e-01
2.001000000000000000e+03 6.037450790405273438e+01 3.785324859619140625e+01 1.915651857852935791e-01 9.409586787223815918e-01 3.397571742534637451e-01 -2.424169778823852539e-01
2.002000000000000000e+03 5.788470077514648438e+01 3.898439788818359375e+01 3.074488341808319092e-01 8.027264475822448730e-01 3.330525755882263184e-01 3.500959873199462891e-01
2.003000000000000000e+03 2.277127265930175781e+01 2.694518470764160156e+01 5.903444886207580566e-01 2.857375144958496094e-01 2.628245949745178223e-01 5.856949687004089355e-01
2.004000000000000000e+03 3.393805313110351562e+01 2.024004364013671875e+01 1.659942716360092163e-01 2.344190329313278198e-02 5.683085322380065918e-02 4.135342836380004883e-01
2.005000000000000000e+03 5.431150817871093750e+01 1.795647621154785156e+01 8.491207361221313477e-01 3.086872339248657227e+00 1.180797934532165527e+00 -1.817056775093078613e+00
2.006000000000000000e+03 5.332264709472656250e+01 1.897077178955078125e+01 1.896728575229644775e-01 3.074630498886108398e+00 9.792910218238830566e-01 -1.803243279457092285e+00
2.007000000000000000e+03 5.423162460327148438e+01 -3.813131332397460938e+01 -4.513001441955566406e-01 3.199373245239257812e+00 8.244218826293945312e-01 2.625423371791839600e-01
2.008000000000000000e+03 2.135930633544921875e+01 9.969912528991699219e+00 2.543200552463531494e-01 -1.449457257986068726e-01 3.281230106949806213e-02 1.840096414089202881e-01
2.009000000000000000e+03 2.433496856689453125e+01 1.295114231109619141e+01 -6.625601090490818024e-03 -1.142279058694839478e-01 -3.625605255365371704e-02 9.336698800325393677e-02
2.010000000000000000e+03 3.695963287353515625e+01 1.410866260528564453e+01 -8.426736295223236084e-02 -6.166662573814392090e-01 -2.102800905704498291e-01 1.848915219306945801e-01
2.011000000000000000e+03 3.518291473388671875e+01 1.702404403686523438e+01 4.070822894573211670e-01 -2.839457690715789795e-01 3.694096207618713379e-02 3.845866620540618896e-01
2.012000000000000000e+03 2.419165992736816406e+01 -2.797101593017578125e+01 4.678922295570373535e-01 -6.898181885480880737e-02 1.196731254458427429e-01 -2.061482667922973633e-01
2.013000000000000000e+03 2.385589027404785156e+01 -2.288699531555175781e+01 1.208553016185760498e-01 -3.246101737022399902e-02 2.651828527450561523e-02 -2.283606827259063721e-01
2.014000000000000000e+03 7.482450103759765625e+01 -2.176017570495605469e+01 1.289476990699768066e+00 1.076466846466064453e+01 3.616243600845336914e+00 -2.150686457753181458e-02
2.015000000000000000e+03 7.535939788818359375e+01 -2.274288368225097656e+01 1.253010749816894531e+00 9.676576614379882812e+00 3.278876304626464844e+00 -4.408572334796190262e-03
2.016000000000000000e+03 3.368969345092773438e+01 -7.536507129669189453e+00 1.187899615615606308e-02 -3.766799718141555786e-02 -7.736700586974620819e-03 -5.114546418190002441e-01
2.017000000000000000e+03 5.471597671508789062e+01 2.274349784851074219e+01 -1.256027460098266602e+00 3.298327684402465820e+00 6.126900911331176758e-01 -1.647890806198120117e+00
2.018000000000000000e+03 5.373912429809570312e+01 2.484542465209960938e+01 -2.710279226303100586e-01 4.336377620697021484e+00 1.219604969024658203e+00 -6.840407252311706543e-01
2.019000000000000000e+03 1.535708427429199219e+01 -1.084167385101318359e+01 -6.654005497694015503e-02 2.406807541847229004e-01 5.224221199750900269e-02 -1.621416769921779633e-02
2.020000000000000000e+03 4.454847812652587891e+00 1.345892810821533203e+01 4.578658565878868103e-02 -2.217635810375213623e-01 -5.279309675097465515e-02 2.463871240615844727e-01
2.021000000000000000e+03 8.274586677551269531e+00 1.209815502166748047e+01 -6.463468819856643677e-02 -1.647405177354812622e-01 -6.881256401538848877e-02 3.560986816883087158e-01
2.022000000000000000e+03 5.620832443237304688e+01 1.176170635223388672e+01 9.909306168556213379e-01 4.307154178619384766e+00 1.589425444602966309e+00 -8.977470993995666504e-01
2.023000000000000000e+03 2.220636367797851562e+01 2.589414405822753906e+01 4.669335484504699707e-01 9.691853821277618408e-02 1.691556274890899658e-01 5.455250144004821777e-01
2.024000000000000000e+03 5.213050460815429688e+01 1.983176040649414062e+01 -1.340879946947097778e-01 2.879886150360107422e+00 8.237394094467163086e-01 -1.656525850296020508e+00
2.025000000000000000e+03 4.642750740051269531e+00 2.974451637268066406e+01 8.392247371375560760e-03 -6.335963606834411621e-01 -1.875612288713455200e-01 2.501983046531677246e-01
2.026000000000000000e+03 6.278822708129882812e+01 -1.188050174713134766e+01 -1.327758908271789551e+00 8.160679817199707031e+00 2.049876451492309570e+00 1.648842215538024902e+00
2.027000000000000000e+03 4.593979644775390625e+01 3.370810699462890625e+01 4.590988159179687500e-01 1.637586116790771484e+00 6.290054321289062500e-01 -6.429510712623596191e-01
2.028000000000000000e+03 6.281229496002197266e+00 2.398713684082031250e+01 -2.370793819427490234e-01 -5.770981907844543457e-01 -2.442532777786254883e-01 2.178530991077423096e-01
2.029000000000000000e+03 5.706277847290039062e+00 2.513267135620117188e+01 -1.961794495582580566e-01 -7.450335025787353516e-01 -2.823638916015625000e-01 1.942961961030960083e-01
2.030000000000000000e+03 4.881307220458984375e+01 3.020256614685058594e+01 7.434317469596862793e-01 2.536260604858398438e+00 9.839076995849609375e-01 -5.558716058731079102e-01
2.031000000000000000e+03 1.586914539337158203e+01 2.188303375244140625e+01 3.525377810001373291e-01 2.729555964469909668e-01 1.876480132341384888e-01 4.327854216098785400e-01
2.032000000000000000e+03 5.060396957397460938e+01 -9.715819358825683594e+00 -2.981893718242645264e-01 7.495944201946258545e-02 -6.696898490190505981e-02 1.961757428944110870e-02
2.033000000000000000e+03 4.976229476928710938e+01 -1.092862224578857422e+01 -2.038906812667846680e-01 5.983811020851135254e-01 1.183471232652664185e-01 -2.925662696361541748e-01
2.034000000000000000e+03 2.699559402465820312e+01 1.321679973602294922e+01 -8.278247714042663574e-02 5.562281608581542969e-02 -8.147899061441421509e-03 2.174272090196609497e-01
2.035000000000000000e+03 7.288796997070312500e+01 1.547093963623046875e+01 1.014419317245483398e+00 9.848514556884765625e+00 3.258880138397216797e+00 -1.111456155776977539e-01
2.036000000000000000e+03 7.529032135009765625e+01 1.767601585388183594e+01 -4.437864124774932861e-01 8.124028205871582031e+00 2.304072618484497070e+00 9.725827574729919434e-01
2.037000000000000000e+03 1.634642410278320312e+01 -3.945916891098022461e+00 1.034765690565109253e-01 1.843893975019454956e-01 8.635979145765304565e-02 -1.795553974807262421e-02
2.038000000000000000e+03 1.510569095611572266e+01 -5.735770225524902344e+00 9.810135513544082642e-02 9.717637300491333008e-02 5.858331918716430664e-02 -6.682159006595611572e-02
2.039000000000000000e+03 1.028745174407958984e+01 -2.437306594848632812e+01 4.165037069469690323e-03 -9.991339594125747681e-02 -2.872450836002826691e-02 -2.251972407102584839e-01
2.040000000000000000e+03 2.513168525695800781e+01 -1.487844467163085938e+01 -8.031083345413208008e-01 -3.859210312366485596e-01 -3.567087948322296143e-01 -3.983158767223358154e-01
2.041000000000000000e+03 1.221321392059326172e+01 -3.721229553222656250e+01 2.243800908327102661e-01 -1.697640717029571533e-01 1.638480462133884430e-02 -1.883073002099990845e-01
2.042000000000000000e+03 1.137811946868896484e+01 -3.464978408813476562e+01 -2.504360862076282501e-02 -3.329542577266693115e-01 -1.073993593454360962e-01 -2.358594387769699097e-01
2.043000000000000000e+03 2.976454734802246094e+01 -1.253452014923095703e+01 -6.210198402404785156e-01 -6.083207130432128906e-01 -3.688021600246429443e-01 -1.719559878110885620e-01
2.044000000000000000e+03 2.721023178100585938e+01 -1.905493736267089844e+01 -9.643018990755081177e-02 -2.462480366230010986e-01 -1.028034687042236328e-01 -1.608108282089233398e-01
2.045000000000000000e+03 2.632514953613281250e+01 -1.781631278991699219e+01 -2.566878199577331543e-01 -3.009723722934722900e-01 -1.672980487346649170e-01 -2.624367177486419678e-01
2.046000000000000000e+03 3.154563331604003906e+01 2.659434700012207031e+01 -2.647014856338500977e-01 -3.475444614887237549e-01 -1.836737841367721558e-01 2.170406728982925415e-01
2.047000000000000000e+03 3.088805198669433594e+01 3.127056503295898438e+01 2.999276518821716309e-01 -9.141454845666885376e-02 6.255393475294113159e-02 1.601364463567733765e-01
2.048000000000000000e+03 9.146619796752929688e+00 8.304161071777343750e+00 -3.757667243480682373e-01 -2.620721459388732910e-01 -1.913516670465469360e-01 2.243770062923431396e-01
2.049000000000000000e+03 9.194893836975097656e+00 4.140484333038330078e+00 -1.467048376798629761e-01 -9.092684835195541382e-02 -7.128950208425521851e-02 3.871509805321693420e-02
2.050000000000000000e+03 5.972296524047851562e+01 -1.919034004211425781e+01 7.002542018890380859e-01 4.112236022949218750e+00 1.443747043609619141e+00 8.767427206039428711e-01
2.051000000000000000e+03 6.196763992309570312e+01 -2.024495124816894531e+01 1.816213488578796387e+00 5.300036430358886719e+00 2.134875059127807617e+00 2.498940676450729370e-01
2.052000000000000000e+03 9.406375885009765625e+00 2.080783271789550781e+01 2.721379697322845459e-02 -1.391947418451309204e-01 -3.359428420662879944e-02 1.631206423044204712e-01
2.053000000000000000e+03 3.831599426269531250e+01 -3.799041986465454102e+00 -1.011623263359069824e+00 2.767652571201324463e-01 -2.204574048519134521e-01 -1.830280013382434845e-02
2.054000000000000000e+03 3.887030410766601562e+01 -3.089494943618774414e+00 -9.917514324188232422e-01 1.682151854038238525e-01 -2.470608651638031006e-01 3.052054531872272491e-02
2.055000000000000000e+03 1.483789730072021484e+01 -2.283782386779785156e+01 -9.184470772743225098e-02 -6.267294883728027344e-01 -2.155722677707672119e-01 -3.948121070861816406e-01
2.056000000000000000e+03 7.248061370849609375e+01 -1.617548370361328125e+01 -2.359721958637237549e-01 4.142829895019531250e+00 1.172057271003723145e+00 -1.098570585250854492e+00
2.057000000000000000e+03 4.145074081420898438e+01 -1.602559661865234375e+01 -3.598979413509368896e-01 8.083719760179519653e-03 -1.055442690849304199e-01 -4.151292741298675537e-01
2.058000000000000000e+03 7.147907257080078125e+01 -3.592179870605468750e+01 4.886958003044128418e-01 5.093269348144531250e+00 1.674589514732360840e+00 -4.656955897808074951e-01
2.059000000000000000e+03 6.791237640380859375e+01 -3.733686828613281250e+01 -3.452068567276000977e-01 4.562675476074218750e+00 1.265240550041198730e+00 -5.800857543945312500e-01
2.060000000000000000e+03 5.035455703735351562e+01 2.495577049255371094e+01 2.752723097801208496e-01 2.902168035507202148e+00 9.532321095466613770e-01 -3.433021605014801025e-01
2.061000000000000000e+03 5.209861755371093750e+01 2.785635185241699219e+01 9.201964139938354492e-01 4.029432773590087891e+00 1.484888672828674316e+00 -5.977709889411926270e-01
2.062000000000000000e+03 2.164333915710449219e+01 -1.566702556610107422e+01 -4.591985642910003662e-01 -1.380230486392974854e-01 -1.791664808988571167e-01 -3.803063333034515381e-01
2.063000000000000000e+03 1.061058521270751953e+01 -3.158834075927734375e+01 -1.946116089820861816e-01 -3.187762498855590820e-01 -1.540163606405258179e-01 -2.239203900098800659e-01
2.064000000000000000e+03 4.324852371215820312e+01 1.267692470550537109e+01 1.980063468217849731e-01 7.609050273895263672e-01 2.876734137535095215e-01 -1.789214164018630981e-01
2.065000000000000000e+03 4.360486221313476562e+01 1.490278625488281250e+01 7.383736968040466309e-02 8.536548018455505371e-01 2.782476544380187988e-01 -1.483615338802337646e-01
2.066000000000000000e+03 5.870920944213867188e+01 9.885785102844238281e+00 1.012854218482971191e+00 6.225215911865234375e+00 2.171421051025390625e+00 -7.360635995864868164e-01
2.067000000000000000e+03 1.979143905639648438e+01 -1.654113388061523438e+01 -2.831180095672607422e-01 -3.014444187283515930e-02 -9.397873282432556152e-02 -4.341338276863098145e-01
2.068000000000000000e+03 5.089906311035156250e+01 -3.275093460083007812e+01 9.955772757530212402e-01 2.758661508560180664e+00 1.126271605491638184e+00 7.841578722000122070e-01
2.069000000000000000e+03 5.160698318481445312e+01 -3.394555282592773438e+01 1.096607923507690430e+00 3.114727735519409180e+00 1.263400673866271973e+00 1.028976440429687500e+00
2.070000000000000000e+03 4.332984161376953125e+01 -1.485569858551025391e+01 -8.513935804367065430e-01 -2.283001989126205444e-01 -3.239081501960754395e-01 -2.054978758096694946e-01
2.071000000000000000e+03 2.822307205200195312e+01 -1.938673782348632812e+01 -5.401899665594100952e-02 -2.367330938577651978e-01 -8.722563087940216064e-02 -1.020896211266517639e-01
2.072000000000000000e+03 6.018874359130859375e+01 1.735933876037597656e+01 1.245608448982238770e+00 5.701082229614257812e+00 2.084007263183593750e+00 7.824549078941345215e-01
2.073000000000000000e+03 4.446661376953125000e+01 -1.887477111816406250e+01 5.117963552474975586e-01 6.554521322250366211e-01 3.501745462417602539e-01 -5.385207012295722961e-02
2.074000000000000000e+03 2.882802772521972656e+01 -1.246310520172119141e+01 -7.977392077445983887e-01 -7.429475784301757812e-01 -4.622060358524322510e-01 -4.803679883480072021e-01
2.075000000000000000e+03 7.302683258056640625e+01 -1.432320117950439453e+01 -9.125137925148010254e-01 2.842731714248657227e+00 5.790653824806213379e-01 -4.641868770122528076e-01
2.076000000000000000e+03 4.641222381591796875e+01 -2.566366577148437500e+01 2.380734682083129883e-01 8.382018804550170898e-01 3.228826224803924561e-01 -4.296526908874511719e-01
2.077000000000000000e+03 4.820906829833984375e+01 -4.113691329956054688e+01 1.696124672889709473e-01 1.906517624855041504e+00 6.228390336036682129e-01 2.543417215347290039e-01
2.078000000000000000e+03 7.567028808593750000e+01 -3.723773479461669922e+00 3.592039942741394043e-01 9.996290206909179688e+00 3.106648206710815430e+00 -7.056764364242553711e-01
2.079000000000000000e+03 7.720195007324218750e+01 -1.525799036026000977e+00 -2.366202175617218018e-01 7.898643970489501953e+00 2.298607110977172852e+00 2.764360904693603516e-01
2.080000000000000000e+03 3.570544815063476562e+01 -3.047228240966796875e+01 4.506165981292724609e-01 3.091852664947509766e-01 2.279405593872070312e-01 -1.067270413041114807e-01
2.081000000000000000e+03 3.787037658691406250e+01 -3.155299568176269531e+01 4.063811004161834717e-01 7.045767307281494141e-01 3.332873284816741943e-01 7.114084810018539429e-02
2.082000000000000000e+03 7.126818847656250000e+01 2.011812973022460938e+01 -1.846739888191223145e+00 5.802826881408691406e+00 1.186826109886169434e+00 -1.242588877677917480e+00
2.083000000000000000e+03 6.797849273681640625e+01 -1.296879768371582031e+01 -1.426119171082973480e-02 2.275793552398681641e+00 6.784597039222717285e-01 -1.846967101097106934e+00
2.084000000000000000e+03 3.546332931518554688e+01 -8.206082344055175781e+00 2.379427999258041382e-01 4.892355799674987793e-01 2.181535214185714722e-01 -4.689007699489593506e-01
2.085000000000000000e+03 5.463554382324218750e+01 -3.261656188964843750e+01 1.458785057067871094e+00 4.779773712158203125e+00 1.871567487716674805e+00 9.821742773056030273e-01
2.086000000000000000e+03 5.498314666748046875e+01 -3.121001815795898438e+01 1.411223053932189941e+00 5.295742034912109375e+00 2.012089490890502930e+00 1.074194908142089844e+00
2.087000000000000000e+03 2.590727615356445312e+01 1.397144317626953125e+01 -9.879980981349945068e-02 -8.847774565219879150e-02 -5.618326365947723389e-02 1.209087967872619629e-01
2.088000000000000000e+03 2.392095947265625000e+01 1.578464126586914062e+01 -3.580436408519744873e-01 -1.139581650495529175e-01 -1.416005343198776245e-01 1.739346385002136230e-01
2.089000000000000000e+03 1.723418807983398438e+01 3.442096328735351562e+01 2.212530374526977539e-02 -2.365288287401199341e-01 -6.432105600833892822e-02 1.588157862424850464e-01
2.090000000000000000e+03 2.664882850646972656e+01 6.809906959533691406e+00 2.430817633867263794e-01 1.948045045137405396e-01 1.313658803701400757e-01 1.721708327531814575e-01
2.091000000000000000e+03 2.767453193664550781e+01 7.850996971130371094e+00 3.696888685226440430e-01 5.025345087051391602e-01 2.616670131683349609e-01 1.161732450127601624e-01
2.092000000000000000e+03 1.655614280700683594e+01 5.903497695922851562e+00 -1.799027770757675171e-01 1.838428527116775513e-01 1.182020525448024273e-03 3.498999774456024170e-01
2.093000000000000000e+03 1.841421890258789062e+01 2.016861534118652344e+01 -8.728227764368057251e-02 -1.603875868022441864e-02 -3.099631145596504211e-02 9.236473590135574341e-02
2.094000000000000000e+03 1.888374900817871094e+01 1.844821357727050781e+01 -3.824502825736999512e-01 -9.480875730514526367e-02 -1.431777179241180420e-01 1.119395270943641663e-01
2.095000000000000000e+03 5.903120422363281250e+01 -2.330655670166015625e+01 1.180293917655944824e+00 2.734034538269042969e+00 1.174298524856567383e+00 1.961424231529235840e+00
2.096000000000000000e+03 2.615417480468750000e+01 -2.960112380981445312e+01 3.221367001533508301e-01 -1.179525330662727356e-01 6.125525012612342834e-02 -2.518022954463958740e-01
2.097000000000000000e+03 2.592532730102539062e+01 -2.782708358764648438e+01 4.449104070663452148e-01 -1.206645295023918152e-01 9.727376699447631836e-02 -2.225800007581710815e-01
2.098000000000000000e+03 3.566792678833007812e+01 2.350707054138183594e+01 -1.327439397573471069e-01 1.893891245126724243e-01 1.699355430901050568e-02 1.347428709268569946e-01
2.099000000000000000e+03 3.455486679077148438e+01 2.357126235961914062e+01 -1.752789318561553955e-01 1.437804996967315674e-01 -9.449532255530357361e-03 2.395204156637191772e-01
2.100000000000000000e+03 5.233024597167968750e+00 3.078237152099609375e+01 8.740818500518798828e-02 -5.196877121925354004e-01 -1.296838521957397461e-01 1.501206904649734497e-01
2.101000000000000000e+03 6.388171672821044922e+00 2.126807785034179688e+01 -8.172648027539253235e-03 -3.819068670272827148e-01 -1.170238554477691650e-01 7.206655293703079224e-02
2.102000000000000000e+03 1.418141937255859375e+01 -9.108157157897949219e+00 -2.483909390866756439e-02 1.171455383300781250e-01 2.769193425774574280e-02 -4.436041414737701416e-02
2.103000000000000000e+03 1.527197647094726562e+01 -1.354925060272216797e+01 4.598336294293403625e-03 2.937367856502532959e-01 8.950053155422210693e-02 -6.090657413005828857e-02
2.104000000000000000e+03 4.565674591064453125e+01 -1.910021209716796875e+01 5.483283400535583496e-01 1.252424478530883789e+00 5.402258634567260742e-01 2.215541750192642212e-01
2.105000000000000000e+03 4.215332031250000000e+01 -1.690098762512207031e+01 5.039962753653526306e-02 7.668892294168472290e-02 3.812656551599502563e-02 -3.331570923328399658e-01
2.106000000000000000e+03 5.874580383300781250e+01 -2.445609855651855469e+01 4.390836954116821289e-01 2.733449459075927734e+00 9.517599940299987793e-01 2.013047456741333008e+00
2.107000000000000000e+03 5.931060791015625000e+01 -2.221795082092285156e+01 1.705586314201354980e+00 2.860064029693603516e+00 1.369695067405700684e+00 1.540803313255310059e+00
2.108000000000000000e+03 4.884979248046875000e+01 -7.786221027374267578e+00 -2.383245825767517090e-01 8.484651446342468262e-01 1.830421686172485352e-01 5.038727521896362305e-01
2.109000000000000000e+03 2.072463607788085938e+01 -1.512367343902587891e+01 -4.198509454727172852e-01 -3.276956453919410706e-02 -1.357861459255218506e-01 -3.246844708919525146e-01
2.110000000000000000e+03 1.939870262145996094e+01 2.272713661193847656e+01 3.412282466888427734e-01 8.524410426616668701e-02 1.279416978359222412e-01 1.469972729682922363e-01
2.111000000000000000e+03 4.475719451904296875e+01 -2.365127944946289062e+01 3.173197507858276367e-01 8.646461963653564453e-01 3.545897901058197021e-01 -1.513092778623104095e-02
2.112000000000000000e+03 6.307014465332031250e+01 7.100029945373535156e+00 -2.848282575607299805e+00 4.598749160766601562e+00 5.251399278640747070e-01 -1.728178381919860840e+00
2.113000000000000000e+03 6.860947418212890625e+01 5.901084899902343750e+00 -1.657446146011352539e+00 1.860903978347778320e+00 6.103735044598579407e-02 2.586338281631469727e+00
2.114000000000000000e+03 5.450132369995117188e+01 -2.878194618225097656e+01 6.676881313323974609e-01 4.211852073669433594e+00 1.463862061500549316e+00 1.062898874282836914e+00
2.115000000000000000e+03 3.406605911254882812e+01 -3.037023735046386719e+01 4.060485661029815674e-01 2.823247909545898438e-01 2.065120041370391846e-01 -2.257549762725830078e-01
2.116000000000000000e+03 3.816734695434570312e+01 4.093495559692382812e+01 4.830631613731384277e-01 5.270156264305114746e-01 3.030236363410949707e-01 -1.248200889676809311e-02
2.117000000000000000e+03 4.996816635131835938e+01 -2.888321495056152344e+01 8.095998167991638184e-01 1.349037289619445801e+00 6.475911140441894531e-01 -3.331341445446014404e-01
2.118000000000000000e+03 4.124643325805664062e+00 -2.182358360290527344e+01 1.458933055400848389e-01 -2.253118604421615601e-01 -2.382556535303592682e-02 -8.803831040859222412e-02
2.119000000000000000e+03 5.862805366516113281e+00 3.175266265869140625e+01 1.295914202928543091e-01 -2.948050498962402344e-01 -4.956408590078353882e-02 1.307298094034194946e-01
2.120000000000000000e+03 6.557366943359375000e+01 5.180415630340576172e+00 -1.433593273162841797e+00 1.374127507209777832e+00 -1.783973164856433868e-02 -4.345157444477081299e-01
2.121000000000000000e+03 6.895005798339843750e+01 1.684561729431152344e+00 1.495766043663024902e+00 2.949549674987792969e+00 1.333594799041748047e+00 2.786426782608032227e+00
2.122000000000000000e+03 9.035750389099121094e+00 -2.440113258361816406e+01 4.599453881382942200e-02 2.377678453922271729e-02 2.093139663338661194e-02 -1.437380462884902954e-01
2.123000000000000000e+03 1.180039215087890625e+01 -2.719082069396972656e+01 -6.851194053888320923e-02 -3.608305156230926514e-01 -1.288027316331863403e-01 -2.268004566431045532e-01
2.124000000000000000e+03 2.942387962341308594e+01 -1.166717815399169922e+01 -7.659131288528442383e-01 -9.091238975524902344e-01 -5.025111436843872070e-01 -4.436311125755310059e-01
2.125000000000000000e+03 6.054570007324218750e+01 1.859778976440429688e+01 3.363212645053863525e-01 4.864148139953613281e+00 1.560140848159790039e+00 7.620173692703247070e-01
2.126000000000000000e+03 5.850015258789062500e+01 2.229829025268554688e+01 -1.767568230628967285e+00 3.089140057563781738e-01 -4.375962615013122559e-01 1.445168405771255493e-01
2.127000000000000000e+03 2.190149497985839844e+01 2.879812622070312500e+01 1.558896750211715698e-01 -1.240285811945796013e-03 4.639481753110885620e-02 2.977096140384674072e-01
2.128000000000000000e+03 4.372839355468750000e+01 1.757930946350097656e+01 -8.584327250719070435e-02 6.188941001892089844e-01 1.599152386188507080e-01 -1.524036936461925507e-02
2.129000000000000000e+03 4.266444396972656250e+01 1.703945541381835938e+01 4.668080806732177734e-02 5.044675469398498535e-01 1.653445065021514893e-01 -5.181640386581420898e-02
2.130000000000000000e+03 3.686203384399414062e+01 -1.411356830596923828e+01 -8.313282728195190430e-01 8.576440215110778809e-01 7.894724607467651367e-03 -3.111544549465179443e-01
2.131000000000000000e+03 4.233921813964843750e+01 -1.534822559356689453e+01 -6.637836694717407227e-01 -8.750642091035842896e-02 -2.253870218992233276e-01 -3.647255599498748779e-01
2.132000000000000000e+03 2.078864288330078125e+01 1.849872398376464844e+01 -2.762970030307769775e-01 -1.794449687004089355e-01 -1.367225795984268188e-01 8.634718507528305054e-02
2.133000000000000000e+03 4.316027832031250000e+01 1.142800045013427734e+01 1.141515001654624939e-01 5.804049372673034668e-01 2.083669453859329224e-01 -3.971852362155914307e-02
2.134000000000000000e+03 5.103202438354492188e+01 3.355024337768554688e+01 2.995278537273406982e-01 2.997055292129516602e+00 9.889749288558959961e-01 -3.426521122455596924e-01
2.135000000000000000e+03 6.010483932495117188e+01 -1.486282634735107422e+01 -1.259253859519958496e+00 5.142059326171875000e+00 1.164841651916503906e+00 1.467413902282714844e+00
2.136000000000000000e+03 5.819779586791992188e+01 -1.927312469482421875e+01 5.125401020050048828e-01 3.533514738082885742e+00 1.213816523551940918e+00 1.157335281372070312e+00
2.137000000000000000e+03 6.350888061523437500e+01 2.370591354370117188e+01 -4.637851417064666748e-01 3.938336849212646484e+00 1.042365550994873047e+00 1.683304667472839355e+00
2.138000000000000000e+03 6.356486892700195312e+01 2.120619392395019531e+01 -2.678946733474731445e+00 3.051342487335205078e+00 1.117187738418579102e-01 2.325478076934814453e+00
2.139000000000000000e+03 2.674675559997558594e+01 -2.696340942382812500e+01 4.544511139392852783e-01 -9.482749551534652710e-02 1.078870818018913269e-01 -2.349005788564682007e-01
2.140000000000000000e+03 4.689035797119140625e+01 3.465803146362304688e+00 -9.304420351982116699e-01 2.282668352127075195e-01 -2.106525450944900513e-01 1.147330105304718018e-01
2.141000000000000000e+03 2.719634056091308594e+01 1.159809494018554688e+01 1.582572907209396362e-01 2.283252477645874023e-01 1.159747615456581116e-01 1.590443998575210571e-01
2.142000000000000000e+03 2.689650154113769531e+01 1.014652824401855469e+01 3.511558175086975098e-01 2.618951499462127686e-01 1.839152872562408447e-01 1.438405215740203857e-01
2.143000000000000000e+03 5.381086349487304688e+01 2.111315536499023438e+01 -7.845235466957092285e-01 3.307896375656127930e+00 7.570118308067321777e-01 -1.770658612251281738e+00
2.144000000000000000e+03 5.976296997070312500e+01 9.441505432128906250e+00 4.482609331607818604e-01 6.392469882965087891e+00 2.052219152450561523e+00 -9.208305478096008301e-01
2.145000000000000000e+03 6.029156875610351562e+01 7.869178295135498047e+00 -1.038394808769226074e+00 6.161358833312988281e+00 1.536889314651489258e+00 -1.469010591506958008e+00
2.146000000000000000e+03 1.669009208679199219e+01 -1.539681053161621094e+01 5.186592414975166321e-02 2.005421370267868042e-01 7.572241872549057007e-02 -1.295963227748870850e-01
2.147000000000000000e+03 5.243213653564453125e+01 2.224259567260742188e+01 -7.085132002830505371e-01 3.430195808410644531e+00 8.165047764778137207e-01 -1.206326246261596680e+00
2.148000000000000000e+03 3.459617996215820312e+01 3.635663604736328125e+01 4.252004623413085938e-01 2.482682615518569946e-01 2.020406126976013184e-01 1.178926974534988403e-01
2.149000000000000000e+03 3.714111709594726562e+01 3.518630599975585938e+01 5.119707584381103516e-01 3.506003916263580322e-01 2.587713599205017090e-01 1.588482111692428589e-01
2.150000000000000000e+03 1.442513179779052734e+01 -2.671608352661132812e+01 -1.180342398583889008e-02 -5.239326953887939453e-01 -1.607208400964736938e-01 -2.707923948764801025e-01
2.151000000000000000e+03 5.782519531250000000e+01 -2.289140892028808594e+01 1.188410758972167969e+00 3.188275337219238281e+00 1.313005805015563965e+00 1.774564504623413086e+00
2.152000000000000000e+03 1.040448284149169922e+01 -3.710514068603515625e+01 1.479329466819763184e-01 -2.730785012245178223e-01 -3.754366561770439148e-02 -2.009207904338836670e-01
2.153000000000000000e+03 1.100602722167968750e+01 -3.882599258422851562e+01 2.670390605926513672e-01 -2.301884144544601440e-01 1.105519384145736694e-02 -1.700754761695861816e-01
2.154000000000000000e+03 1.669056320190429688e+01 3.784825134277343750e+01 1.416744887828826904e-01 -1.761046499013900757e-01 -1.032904442399740219e-02 1.044400557875633240e-01
2.155000000000000000e+03 1.541592121124267578e+01 3.586544418334960938e+01 1.302245408296585083e-01 -1.146111860871315002e-01 4.684004466980695724e-03 1.288404017686843872e-01
2.156000000000000000e+03 7.132278442382812500e+01 -1.610827827453613281e+01 -7.942257523536682129e-01 2.174489974975585938e+00 4.140792787075042725e-01 -1.958984971046447754e+00
2.157000000000000000e+03 1.008354663848876953e+01 1.757097625732421875e+01 3.810761272907257080e-01 1.891975700855255127e-01 1.710821092128753662e-01 2.323705703020095825e-01
2.158000000000000000e+03 3.832477569580078125e+01 2.019071388244628906e+01 3.591999709606170654e-01 -1.466455757617950439e-01 6.376632302999496460e-02 1.591401100158691406e-01
2.159000000000000000e+03 4.579312896728515625e+01 -2.276733207702636719e+01 3.628312349319458008e-01 1.223275303840637207e+00 4.758319556713104248e-01 -4.639901965856552124e-02
2.160000000000000000e+03 4.040864181518554688e+01 -2.611814498901367188e+01 2.226234078407287598e-01 5.790135264396667480e-01 2.404910773038864136e-01 2.280897349119186401e-01
2.161000000000000000e+03 4.177479934692382812e+01 1.400402927398681641e+01 1.207028031349182129e-01 2.318777143955230713e-01 1.057741567492485046e-01 -1.810619980096817017e-01
2.162000000000000000e+03 4.183305358886718750e+01 1.158792591094970703e+01 -3.509886562824249268e-02 1.301338225603103638e-01 2.851048856973648071e-02 2.928623184561729431e-02
2.163000000000000000e+03 4.759010314941406250e+01 2.377709007263183594e+01 4.182477295398712158e-01 1.708028674125671387e+00 6.378829479217529297e-01 7.061993703246116638e-03
2.164000000000000000e+03 4.476021575927734375e+01 1.813470077514648438e+01 -2.320469617843627930e-01 7.178894877433776855e-01 1.457527577877044678e-01 6.246300041675567627e-02
2.165000000000000000e+03 5.231325912475585938e+01 -3.879931640625000000e+01 -3.596538901329040527e-01 3.145686388015747070e+00 8.358097672462463379e-01 5.136669278144836426e-01
2.166000000000000000e+03 5.045135498046875000e+01 -3.774279403686523438e+01 1.788976937532424927e-01 2.608930587768554688e+00 8.363484740257263184e-01 6.855860948562622070e-01
2.167000000000000000e+03 6.722518157958984375e+01 2.176991271972656250e+01 -1.615550041198730469e+00 8.301497101783752441e-01 -2.356201261281967163e-01 -7.288259863853454590e-01
2.168000000000000000e+03 1.940994644165039062e+01 1.931257820129394531e+01 -2.312518060207366943e-01 -9.558546543121337891e-02 -9.805118292570114136e-02 2.916892804205417633e-02
2.169000000000000000e+03 7.476382446289062500e+01 -1.957166671752929688e+01 9.479081630706787109e-01 9.021653175354003906e+00 2.990868330001831055e+00 3.213748335838317871e-01
2.170000000000000000e+03 7.716786193847656250e+01 -1.874868965148925781e+01 2.365480363368988037e-01 8.433769226074218750e+00 2.601095199584960938e+00 1.095335245132446289e+00
2.171000000000000000e+03 5.371389007568359375e+01 -3.087977409362792969e+01 1.290250778198242188e+00 3.709926843643188477e+00 1.500053286552429199e+00 8.580272793769836426e-01
2.172000000000000000e+03 6.565964508056640625e+01 3.290606689453125000e+01 3.028150200843811035e-01 4.053585529327392578e+00 1.306920170783996582e+00 1.986918002367019653e-01
2.173000000000000000e+03 6.496882629394531250e+01 3.150722885131835938e+01 5.816404819488525391e-01 4.081932544708251953e+00 1.399071812629699707e+00 2.434368133544921875e-01
2.174000000000000000e+03 9.117568969726562500e+00 1.856953811645507812e+01 2.492641359567642212e-01 -6.105356290936470032e-02 5.646317452192306519e-02 1.654638051986694336e-01
2.175000000000000000e+03 4.445483016967773438e+01 6.686532974243164062e+00 -4.290213286876678467e-01 2.969523668289184570e-01 -3.962069004774093628e-02 2.457398474216461182e-01
2.176000000000000000e+03 4.454078674316406250e+01 2.130475807189941406e+01 3.628409504890441895e-01 6.964596509933471680e-01 3.177901804447174072e-01 3.613047897815704346e-01
2.177000000000000000e+03 5.745532989501953125e+01 1.909892463684082031e+01 4.795766472816467285e-01 3.091078519821166992e+00 1.071196556091308594e+00 -1.022948622703552246e+00
2.178000000000000000e+03 3.277833557128906250e+01 -3.123565864562988281e+01 3.751370906829833984e-01 2.728712558746337891e-01 1.944025009870529175e-01 -2.060006111860275269e-01
2.179000000000000000e+03 7.499607086181640625e+01 -2.798072242736816406e+01 -9.514339566230773926e-01 7.399441242218017578e+00 1.934402108192443848e+00 6.759799718856811523e-01
2.180000000000000000e+03 7.296057128906250000e+01 -2.681145095825195312e+01 -1.620512485504150391e+00 6.224614143371582031e+00 1.381230473518371582e+00 2.305630445480346680e+00
2.181000000000000000e+03 4.837106704711914062e+01 2.129209136962890625e+01 2.351624518632888794e-01 1.135534882545471191e+00 4.112091958522796631e-01 -4.397272467613220215e-01
2.182000000000000000e+03 5.416779327392578125e+01 -1.342297935485839844e+01 -2.023182660341262817e-01 -1.425592750310897827e-01 -1.034632623195648193e-01 1.178789287805557251e-01
2.183000000000000000e+03 5.383889007568359375e+01 -1.032610893249511719e+01 -1.362056493759155273e+00 -7.483114600181579590e-01 -6.331103444099426270e-01 4.319408237934112549e-01
2.184000000000000000e+03 4.813251495361328125e+01 -1.198004627227783203e+01 -6.991230249404907227e-01 1.071954965591430664e+00 1.118495836853981018e-01 -3.399714529514312744e-01
2.185000000000000000e+03 5.101265716552734375e+01 -8.720418930053710938e+00 -6.605114936828613281e-01 -1.655340343713760376e-01 -2.478136718273162842e-01 3.304887413978576660e-01
2.186000000000000000e+03 3.448418426513671875e+01 3.153557586669921875e+01 2.408659011125564575e-01 3.504222631454467773e-01 1.773864477872848511e-01 1.344986557960510254e-01
2.187000000000000000e+03 2.913059616088867188e+01 3.373957443237304688e+01 3.164156377315521240e-01 -7.952337153255939484e-03 9.253898262977600098e-02 2.484854906797409058e-01
2.188000000000000000e+03 6.423200130462646484e+00 3.587007522583007812e+01 1.589194685220718384e-01 -1.927680671215057373e-01 -1.015457790344953537e-02 5.006682593375444412e-03
2.189000000000000000e+03 6.222583770751953125e+01 2.247281837463378906e+01 -2.180460691452026367e+00 3.726941585540771484e+00 4.639442563056945801e-01 2.230326175689697266e+00
2.190000000000000000e+03 6.421150207519531250e+01 -8.086962699890136719e+00 2.246776342391967773e+00 1.282730293273925781e+01 4.522223472595214844e+00 -7.129316031932830811e-02
2.191000000000000000e+03 6.367559432983398438e+01 -7.264372825622558594e+00 1.981520891189575195e+00 1.301134109497070312e+01 4.497858524322509766e+00 3.124921917915344238e-01
2.192000000000000000e+03 1.187613105773925781e+01 4.124427413940429688e+01 1.289504487067461014e-02 6.407989189028739929e-03 5.790910217911005020e-03 3.876768425107002258e-02
2.193000000000000000e+03 5.819147872924804688e+01 1.216909503936767578e+01 1.566590905189514160e+00 5.939682960510253906e+00 2.251882076263427734e+00 -1.008239626884460449e+00
2.194000000000000000e+03 5.808742523193359375e+01 1.463705539703369141e+01 1.689349293708801270e+00 5.543399810791015625e+00 2.169824838638305664e+00 -1.075511932373046875e+00
2.195000000000000000e+03 7.314956665039062500e+01 9.845606803894042969e+00 1.169264197349548340e+00 9.409080505371093750e+00 3.173503398895263672e+00 -9.301536530256271362e-02
2.196000000000000000e+03 6.375768661499023438e+01 -2.324901199340820312e+01 2.247680425643920898e+00 5.976118087768554688e+00 2.467139482498168945e+00 -9.145654439926147461e-01
2.197000000000000000e+03 7.411094665527343750e+01 -1.258677673339843750e+01 -1.361072659492492676e+00 4.558644294738769531e+00 9.592714905738830566e-01 1.054034471511840820e+00
2.198000000000000000e+03 7.406967163085937500e+01 -1.496532821655273438e+01 -6.574550867080688477e-01 5.323253154754638672e+00 1.399739384651184082e+00 2.933444976806640625e-01
2.199000000000000000e+03 3.636370468139648438e+01 -3.429928588867187500e+01 3.718984723091125488e-01 5.734975337982177734e-01 2.836188077926635742e-01 -6.280764192342758179e-02
2.200000000000000000e+03 4.028813171386718750e+01 -1.760746192932128906e+01 1.751364916563034058e-01 4.674172997474670410e-01 1.927661299705505371e-01 -4.478645324707031250e-01
2.201000000000000000e+03 4.322345733642578125e+01 -2.110122680664062500e+01 5.178847908973693848e-01 6.463159918785095215e-01 3.492602109909057617e-01 -6.281450390815734863e-02
2.202000000000000000e+03 1.479612827301025391e+01 1.944424438476562500e+01 -6.159763783216476440e-02 9.765832126140594482e-02 1.081820484250783920e-02 4.861567020416259766e-01
2.203000000000000000e+03 5.250541687011718750e+01 3.419217681884765625e+01 5.565495789051055908e-02 2.854008674621582031e+00 8.728991150856018066e-01 -7.292159646749496460e-02
2.204000000000000000e+03 4.958006668090820312e+01 3.251585388183593750e+01 5.333744883537292480e-01 2.508478164672851562e+00 9.125558137893676758e-01 -5.401830673217773438e-01
2.205000000000000000e+03 7.608597564697265625e+01 8.135903358459472656e+00 1.367997005581855774e-02 7.713273048400878906e+00 2.318085908889770508e+00 -7.818265557289123535e-01
2.206000000000000000e+03 6.956893157958984375e+01 -2.797231483459472656e+01 4.261347949504852295e-01 9.971448779106140137e-01 4.269838929176330566e-01 2.826556749641895294e-02
2.207000000000000000e+03 7.261948394775390625e+01 1.835995101928710938e+01 -1.179076552391052246e+00 7.487786769866943359e+00 1.892613053321838379e+00 -3.197603672742843628e-02
2.208000000000000000e+03 2.687888526916503906e+01 -2.281889152526855469e+01 1.325990259647369385e-01 -1.036943718791007996e-01 8.671394549310207367e-03 -1.750153750181198120e-01
2.209000000000000000e+03 2.560155677795410156e+01 -2.223900032043457031e+01 9.398759901523590088e-02 -8.339693397283554077e-02 3.177199047058820724e-03 -2.125995308160781860e-01
2.210000000000000000e+03 4.568352699279785156e+00 -2.752529907226562500e+01 -5.508711934089660645e-02 -1.843191385269165039e-01 -7.182187587022781372e-02 -1.009710226207971573e-02
2.211000000000000000e+03 1.212318992614746094e+01 -1.079312992095947266e+01 -3.041635639965534210e-02 5.276327207684516907e-02 6.704074796289205551e-03 -7.293827086687088013e-02
2.212000000000000000e+03 1.471204471588134766e+01 -1.254492759704589844e+01 -5.339872837066650391e-02 3.014564216136932373e-01 7.441730797290802002e-02 -6.097295135259628296e-02
2.213000000000000000e+03 8.095922470092773438e+00 1.580932617187500000e+01 3.238533437252044678e-01 -9.727709740400314331e-02 6.797287613153457642e-02 2.718658745288848877e-01
2.214000000000000000e+03 3.248526382446289062e+01 -9.374888420104980469e+00 -2.529493868350982666e-01 -3.670902252197265625e-01 -1.860118806362152100e-01 -3.333092331886291504e-01
2.215000000000000000e+03 2.658748626708984375e+01 -3.244184875488281250e+01 1.032762527465820312e-01 -1.367125660181045532e-01 -1.003089360892772675e-02 -1.547483503818511963e-01
2.216000000000000000e+03 6.413936614990234375e+01 2.549090003967285156e+01 1.495855212211608887e+00 3.841733455657958984e+00 1.601276636123657227e+00 7.755642533302307129e-01
2.217000000000000000e+03 3.340168380737304688e+01 -1.346965122222900391e+01 -5.654106736183166504e-01 -1.026578918099403381e-01 -2.004205584526062012e-01 1.390717774629592896e-01
2.218000000000000000e+03 3.660706329345703125e+01 -1.165731048583984375e+01 -2.414966672658920288e-01 8.350146412849426270e-01 1.780553907155990601e-01 -9.704597294330596924e-02
2.219000000000000000e+03 8.247497558593750000e+00 1.089831066131591797e+01 -2.335392981767654419e-01 -1.796060055494308472e-01 -1.239435896277427673e-01 3.071685135364532471e-01
2.220000000000000000e+03 2.477449989318847656e+01 7.345923423767089844e+00 2.327092438936233521e-01 -1.233910098671913147e-01 3.279547020792961121e-02 1.583878099918365479e-01
2.221000000000000000e+03 6.936048889160156250e+01 -2.916267967224121094e+01 7.368653416633605957e-01 2.554942131042480469e+00 9.875422120094299316e-01 -3.087995052337646484e-01
2.222000000000000000e+03 2.186509132385253906e+01 1.474957466125488281e+01 -1.938802152872085571e-01 -1.687303930521011353e-01 -1.087831780314445496e-01 1.134388297796249390e-01
2.223000000000000000e+03 2.377412986755371094e+01 1.406988620758056641e+01 -1.479356437921524048e-01 -1.283836513757705688e-01 -8.289578557014465332e-02 7.600498199462890625e-02
2.224000000000000000e+03 4.996171188354492188e+01 -5.196461200714111328e+00 -6.613435149192810059e-01 1.752349138259887695e-01 -1.458325833082199097e-01 7.941889166831970215e-01
2.225000000000000000e+03 5.521776199340820312e+01 -3.714710235595703125e+01 -3.811587989330291748e-01 3.604398250579833984e+00 9.669718742370605469e-01 1.430224031209945679e-01
2.226000000000000000e+03 1.011650085449218750e+01 -3.460746002197265625e+01 -1.924850419163703918e-02 -3.118162453174591064e-01 -9.931942075490951538e-02 -2.491352558135986328e-01
2.227000000000000000e+03 7.295772075653076172e+00 -1.300376319885253906e+01 -1.131011247634887695e-01 -2.090430408716201782e-01 -9.664324671030044556e-02 -1.200288385152816772e-01
2.228000000000000000e+03 4.742029190063476562e+01 2.626865386962890625e+01 4.477603733539581299e-01 2.068056106567382812e+00 7.547449469566345215e-01 3.192333097103983164e-04
2.229000000000000000e+03 4.296135711669921875e+01 1.032618904113769531e+01 -5.121058598160743713e-02 4.608538150787353516e-01 1.228929683566093445e-01 1.714436560869216919e-01
2.230000000000000000e+03 3.386461639404296875e+01 3.414600372314453125e+01 3.768484294414520264e-01 2.368203252553939819e-01 1.841006278991699219e-01 1.403901576995849609e-01
2.231000000000000000e+03 5.345544433593750000e+01 5.252039909362792969e+00 -3.170714974403381348e-01 7.513175606727600098e-01 1.302738189697265625e-01 6.337873172014951706e-03
2.232000000000000000e+03 5.252996444702148438e+01 4.860749721527099609e+00 -2.830925583839416504e-01 1.697599887847900391e-01 -3.399977087974548340e-02 8.375103026628494263e-02
2.233000000000000000e+03 6.319924926757812500e+01 -4.144305038452148438e+01 -7.609164714813232422e-02 8.245550394058227539e-01 2.245390117168426514e-01 1.188444942235946655e-01
2.234000000000000000e+03 7.011452484130859375e+01 2.228242874145507812e+01 -1.319844245910644531e+00 3.902350902557373047e+00 7.747520208358764648e-01 -1.353134274482727051e+00
2.235000000000000000e+03 5.173107147216796875e+01 -3.670521163940429688e+01 4.410857558250427246e-01 3.203755617141723633e+00 1.093452453613281250e+00 8.733090758323669434e-01
2.236000000000000000e+03 5.297623443603515625e+01 -3.448193359375000000e+01 1.054013252258300781e+00 3.681932449340820312e+00 1.420783758163452148e+00 1.040311336517333984e+00
2.237000000000000000e+03 1.522018432617187500e+01 5.793672084808349609e+00 -3.305908441543579102e-01 1.640527695417404175e-02 -9.425567090511322021e-02 4.245914518833160400e-01
2.238000000000000000e+03 5.157364654541015625e+01 -2.673210144042968750e+01 5.847541689872741699e-01 9.980630874633789062e-01 4.748451709747314453e-01 3.290647566318511963e-01
2.239000000000000000e+03 5.416880416870117188e+01 -2.671724128723144531e+01 4.187422245740890503e-02 3.790575027465820312e+00 1.149734735488891602e+00 1.455280542373657227e+00
2.240000000000000000e+03 1.897456741333007812e+01 -1.962531280517578125e+01 -3.017502427101135254e-01 -1.114954147487878799e-02 -9.386993199586868286e-02 -5.217847824096679688e-01
2.241000000000000000e+03 7.222557067871093750e+01 -1.488832759857177734e+01 -5.715916752815246582e-01 2.511259794235229492e+00 5.819004178047180176e-01 -1.297140240669250488e+00
2.242000000000000000e+03 7.133541870117187500e+01 2.272901344299316406e+01 -9.153486490249633789e-01 5.084083557128906250e+00 1.250620484352111816e+00 -1.243774890899658203e+00
2.243000000000000000e+03 4.895434188842773438e+01 -1.400787353515625000e+01 -7.068598270416259766e-01 8.229759931564331055e-01 3.483485430479049683e-02 1.266265213489532471e-01
2.244000000000000000e+03 5.953739929199218750e+01 1.466499423980712891e+01 1.193730115890502930e+00 7.396431446075439453e+00 2.577048540115356445e+00 -2.392280995845794678e-01
2.245000000000000000e+03 1.496512889862060547e+01 -2.557242965698242188e+01 1.179495826363563538e-01 -5.049906969070434570e-01 -1.161123365163803101e-01 -3.161944150924682617e-01
2.246000000000000000e+03 1.707519912719726562e+01 -2.588130760192871094e+01 2.133879363536834717e-01 -2.717677950859069824e-01 -1.751396059989929199e-02 -3.044895827770233154e-01
2.247000000000000000e+03 6.259081268310546875e+01 -2.413482856750488281e+01 1.059868216514587402e+00 3.715708017349243164e+00 1.432672858238220215e+00 -3.249286441132426262e-03
2.248000000000000000e+03 5.787344360351562500e+01 -1.401553916931152344e+01 -4.016187787055969238e-01 2.407528400421142578e+00 6.017729043960571289e-01 1.513703823089599609e+00
2.249000000000000000e+03 1.765101623535156250e+01 -1.483050727844238281e+01 -4.899870231747627258e-02 8.238025009632110596e-02 1.001446414738893509e-02 -1.716291755437850952e-01
2.250000000000000000e+03 5.335244369506835938e+01 4.117578506469726562e+01 -8.792304992675781250e-02 1.791430830955505371e+00 5.110523700714111328e-01 1.202962175011634827e-01
2.251000000000000000e+03 5.547879028320312500e+01 3.685664749145507812e+01 -1.971937566995620728e-01 1.666326403617858887e+00 4.407398104667663574e-01 6.963323950767517090e-01
2.252000000000000000e+03 4.661745834350585938e+01 1.967635154724121094e+01 2.641851454973220825e-02 5.203152894973754883e-01 1.640201359987258911e-01 2.002635896205902100e-01
2.253000000000000000e+03 2.145857429504394531e+01 -2.431765365600585938e+01 1.903580278158187866e-01 1.266103237867355347e-01 9.509050101041793823e-02 -2.306593656539916992e-01
2.254000000000000000e+03 1.870128440856933594e+01 -2.285639381408691406e+01 -1.202816367149353027e-01 5.010096938349306583e-04 -3.593418747186660767e-02 -3.904502987861633301e-01
2.255000000000000000e+03 6.650083923339843750e+01 3.444498443603515625e+01 1.480043381452560425e-01 4.137150764465332031e+00 1.285546541213989258e+00 2.308332175016403198e-01
2.256000000000000000e+03 5.051884841918945312e+01 -3.144687461853027344e+01 6.871916055679321289e-01 2.561457395553588867e+00 9.745947122573852539e-01 2.082750052213668823e-01
2.257000000000000000e+03 5.211539840698242188e+01 -2.893741226196289062e+01 8.927190899848937988e-01 2.441933393478393555e+00 1.000395774841308594e+00 3.327703773975372314e-01
2.258000000000000000e+03 3.573398971557617188e+01 -3.848691558837890625e+01 3.481982648372650146e-01 4.307822585105895996e-01 2.336941659450531006e-01 -6.828660517930984497e-02
2.259000000000000000e+03 6.722233581542968750e+01 -2.781266212463378906e+01 -1.140542864799499512e+00 4.347580909729003906e+00 9.621114730834960938e-01 -1.552894711494445801e+00
2.260000000000000000e+03 2.999502563476562500e+01 3.048880004882812500e+01 2.449447065591812134e-01 -2.148875147104263306e-01 9.017161093652248383e-03 2.207937687635421753e-01
2.261000000000000000e+03 3.468487167358398438e+01 3.027375030517578125e+01 1.156442761421203613e-01 5.265570878982543945e-01 1.926604062318801880e-01 9.789825975894927979e-02
2.262000000000000000e+03 6.236681747436523438e+01 -8.966517448425292969e+00 1.995696187019348145e+00 9.571331024169921875e+00 3.470108270645141602e+00 1.678654789924621582e+00
2.263000000000000000e+03 8.042701721191406250e+00 2.042461204528808594e+01 4.051174968481063843e-02 -2.529369890689849854e-01 -6.372757256031036377e-02 1.206368356943130493e-01
2.264000000000000000e+03 2.081261444091796875e+01 3.073785972595214844e+01 -1.704955697059631348e-01 -2.621412575244903564e-01 -1.297910511493682861e-01 4.008973389863967896e-02
2.265000000000000000e+03 2.300222587585449219e+01 2.894042396545410156e+01 2.460612505674362183e-01 3.280889689922332764e-01 1.722450554370880127e-01 2.840616703033447266e-01
2.266000000000000000e+03 8.176730155944824219e+00 8.508491516113281250e+00 -3.373213112354278564e-01 -2.085222601890563965e-01 -1.637530773878097534e-01 1.940267384052276611e-01
2.267000000000000000e+03 5.562110900878906250e+01 6.393442630767822266e+00 -5.444355010986328125e-01 2.765650033950805664e+00 6.663643717765808105e-01 -3.477355241775512695e-01
2.268000000000000000e+03 5.805758285522460938e+01 8.840661048889160156e+00 -8.517894893884658813e-02 5.160244941711425781e+00 1.522519826889038086e+00 -5.924357175827026367e-01
2.269000000000000000e+03 2.955606842041015625e+01 1.356925392150878906e+01 -9.227187931537628174e-02 6.162497997283935547e-01 1.571933776140213013e-01 5.419289469718933105e-01
2.270000000000000000e+03 4.205312252044677734e+00 2.702620506286621094e+01 -1.838863193988800049e-01 -6.582819819450378418e-01 -2.526504993438720703e-01 2.140262871980667114e-01
2.271000000000000000e+03 5.842656326293945312e+01 -2.558583259582519531e+01 -2.088861167430877686e-01 3.473213911056518555e+00 9.792983531951904297e-01 2.222971916198730469e+00
2.272000000000000000e+03 5.631591415405273438e+01 -2.368394279479980469e+01 9.554331898689270020e-01 3.977012634277343750e+00 1.479733705520629883e+00 1.218013644218444824e+00
2.273000000000000000e+03 2.456787681579589844e+01 -2.467549705505371094e+01 3.230992853641510010e-01 -4.901648685336112976e-02 8.222484588623046875e-02 -1.883708834648132324e-01
2.274000000000000000e+03 2.324533462524414062e+01 -1.582833957672119141e+01 -5.896688699722290039e-01 -2.683917582035064697e-01 -2.574181854724884033e-01 -4.280880093574523926e-01
2.275000000000000000e+03 6.110552215576171875e+01 -1.865631103515625000e+01 2.771699428558349609e-01 5.289462089538574219e+00 1.669989585876464844e+00 2.562677562236785889e-01
2.276000000000000000e+03 5.139593887329101562e+01 -6.565834999084472656e+00 -8.359194993972778320e-01 -3.442484140396118164e-01 -3.540503978729248047e-01 7.887491583824157715e-01
2.277000000000000000e+03 5.113526535034179688e+01 -2.895824432373046875e+01 8.183605074882507324e-01 1.848417997360229492e+00 8.000335097312927246e-01 2.519274502992630005e-02
2.278000000000000000e+03 3.383174896240234375e+01 1.462751483917236328e+01 -1.090933941304683685e-02 -5.515879020094871521e-02 -1.982043869793415070e-02 4.254682958126068115e-01
2.279000000000000000e+03 3.073043441772460938e+01 -1.232125759124755859e+01 -6.377703547477722168e-01 -4.733381867408752441e-01 -3.333325684070587158e-01 -1.325330436229705811e-01
2.280000000000000000e+03 6.708199310302734375e+01 -2.907043647766113281e+01 9.987984299659729004e-01 4.658475399017333984e+00 1.697182178497314453e+00 -1.406409144401550293e+00
2.281000000000000000e+03 3.092141342163085938e+01 -2.989031791687011719e+01 3.728255927562713623e-01 1.715769469738006592e-01 1.633207648992538452e-01 -2.363049983978271484e-01
2.282000000000000000e+03 3.590668869018554688e+01 -3.222045898437500000e+01 4.208975136280059814e-01 4.653846323490142822e-01 2.658846378326416016e-01 -7.643286138772964478e-02
2.283000000000000000e+03 5.479097747802734375e+01 -1.136233043670654297e+01 -8.235393762588500977e-01 -5.091763734817504883e-01 -3.998147249221801758e-01 1.996913552284240723e-01
2.284000000000000000e+03 1.584860229492187500e+01 -8.323274612426757812e+00 -7.848778739571571350e-03 1.942378878593444824e-01 5.591673031449317932e-02 -1.690445840358734131e-02
2.285000000000000000e+03 2.200907897949218750e+01 3.079496765136718750e+01 4.831099417060613632e-03 5.347641557455062866e-02 1.749225519597530365e-02 6.783052533864974976e-02
2.286000000000000000e+03 6.103326034545898438e+01 -9.853607177734375000e+00 4.347495138645172119e-01 7.367766857147216797e+00 2.340754985809326172e+00 1.970692038536071777e+00
2.287000000000000000e+03 6.171350479125976562e+01 -1.394433975219726562e+01 -1.988025665283203125e+00 6.823033809661865234e+00 1.450502395629882812e+00 1.540229201316833496e+00
2.288000000000000000e+03 5.436820983886718750e+01 -1.474256134033203125e+01 5.699350312352180481e-02 1.175400987267494202e-01 5.236008018255233765e-02 1.511621326208114624e-01
2.289000000000000000e+03 5.606922912597656250e+01 -2.488593864440917969e+01 1.017741858959197998e-02 4.802437782287597656e+00 1.443784475326538086e+00 1.466759562492370605e+00
2.290000000000000000e+03 5.216156959533691406e+00 -4.053925704956054688e+01 8.799094706773757935e-02 -4.677599966526031494e-01 -1.139307171106338501e-01 -7.313291728496551514e-02
2.291000000000000000e+03 7.108364582061767578e+00 -3.862738037109375000e+01 1.481678038835525513e-01 -3.759760856628417969e-01 -6.834248453378677368e-02 -1.596108376979827881e-01
2.292000000000000000e+03 3.741678237915039062e+01 1.767114067077636719e+01 3.816016912460327148e-01 -2.973124682903289795e-01 2.528676018118858337e-02 2.190996557474136353e-01
2.293000000000000000e+03 8.521311759948730469e+00 -1.219667434692382812e+01 -1.041253432631492615e-01 -1.262077093124389648e-01 -6.909991800785064697e-02 -9.804634749889373779e-02
2.294000000000000000e+03 2.756872177124023438e+00 -1.137977600097656250e+01 -6.893017794936895370e-03 -8.358461409807205200e-02 -2.714328840374946594e-02 2.012812998145818710e-03
2.295000000000000000e+03 6.298866271972656250e+01 3.845190811157226562e+01 4.230877012014389038e-02 2.193757057189941406e+00 6.708197593688964844e-01 -4.481626152992248535e-01
2.296000000000000000e+03 3.228619766235351562e+01 -3.883991241455078125e+01 3.419958949089050293e-01 1.876847147941589355e-01 1.589041799306869507e-01 1.359123177826404572e-02
2.297000000000000000e+03 6.324935150146484375e+01 -8.085657119750976562e+00 1.614085078239440918e+00 1.119642353057861328e+01 3.843152761459350586e+00 1.473680377006530762e+00
2.298000000000000000e+03 6.165929412841796875e+01 -9.211822509765625000e+00 1.858064174652099609e+00 8.179623603820800781e+00 3.011306285858154297e+00 2.020312309265136719e+00
2.299000000000000000e+03 5.847784042358398438e+01 2.122640228271484375e+01 -8.854478001594543457e-01 1.857242822647094727e+00 2.915385067462921143e-01 -8.949235081672668457e-02
2.300000000000000000e+03 5.777561187744140625e+01 1.750275611877441406e+01 1.102942585945129395e+00 4.013538360595703125e+00 1.534944295883178711e+00 -8.208632469177246094e-01
2.301000000000000000e+03 5.619662475585937500e+01 2.196497917175292969e+01 -1.802038669586181641e+00 2.065229654312133789e+00 7.895731925964355469e-02 -1.811186790466308594e+00
2.302000000000000000e+03 7.594882965087890625e+01 -1.276870536804199219e+01 -1.477841973304748535e+00 7.563643455505371094e+00 1.825740456581115723e+00 4.004203081130981445e-01
2.303000000000000000e+03 6.869238281250000000e+01 -3.533127593994140625e+01 5.100436210632324219e-01 4.938594818115234375e+00 1.634591579437255859e+00 -8.579635024070739746e-01
2.304000000000000000e+03 7.044509887695312500e+01 -3.290242767333984375e+01 1.345758318901062012e+00 4.166137218475341797e+00 1.653568744659423828e+00 -4.745638370513916016e-01
2.305000000000000000e+03 4.941550064086914062e+01 -1.495326614379882812e+01 -3.842429220676422119e-01 6.994721889495849609e-01 9.456878155469894409e-02 3.886085748672485352e-01
2.306000000000000000e+03 5.182519149780273438e+01 -1.413906383514404297e+01 -1.806665211915969849e-01 -7.005452364683151245e-02 -7.521631568670272827e-02 4.553298279643058777e-02
2.307000000000000000e+03 5.997438049316406250e+01 -1.869785428047180176e+00 1.850092649459838867e+00 1.482614040374755859e+00 9.998120069503784180e-01 -1.812535643577575684e+00
2.308000000000000000e+03 6.204206085205078125e+01 -1.312205433845520020e+00 2.223552465438842773e+00 1.078335571289062500e+01 3.902072429656982422e+00 -5.437242984771728516e+00
2.309000000000000000e+03 5.974906158447265625e+01 -1.846123933792114258e-01 1.589369297027587891e+00 3.277680635452270508e+00 1.460114955902099609e+00 -2.831204652786254883e+00
2.310000000000000000e+03 6.176894378662109375e+01 -1.300366044044494629e+00 2.570828676223754883e+00 8.288909912109375000e+00 3.257921457290649414e+00 -5.073348999023437500e+00
2.311000000000000000e+03 6.111850738525390625e+01 -1.158529400825500488e+00 2.866537809371948242e+00 4.876823425292968750e+00 2.323008298873901367e+00 -4.507688999176025391e+00
2.312000000000000000e+03 6.253490066528320312e+01 -8.804511427879333496e-01 1.172008395195007324e+00 1.091606616973876953e+01 3.626422405242919922e+00 -3.334779739379882812e+00
2.313000000000000000e+03 6.273496246337890625e+01 -5.484823703765869141e+00 -6.674111485481262207e-01 1.515859508514404297e+01 4.347355365753173828e+00 2.079239130020141602e+00
2.314000000000000000e+03 6.339098358154296875e+01 1.985932946205139160e+00 -8.638024330139160156e-01 6.754092693328857422e+00 1.767087101936340332e+00 -1.516035914421081543e+00
2.315000000000000000e+03 9.814932823181152344e+00 3.324644088745117188e+00 -8.683319389820098877e-02 -8.163832873106002808e-02 -5.054145678877830505e-02 4.000620916485786438e-02
2.316000000000000000e+03 4.446504592895507812e+01 3.178897619247436523e+00 -1.043544888496398926e+00 1.606733947992324829e-01 -2.648614645004272461e-01 1.875066161155700684e-01
2.317000000000000000e+03 5.696929550170898438e+01 4.365404605865478516e+00 -9.714325070381164551e-01 2.945074081420898438e+00 5.920925140380859375e-01 -1.407432198524475098e+00
2.318000000000000000e+03 5.377907562255859375e+01 4.352665424346923828e+00 -5.032923221588134766e-01 6.762445569038391113e-01 5.188566073775291443e-02 -1.963108479976654053e-01
2.319000000000000000e+03 5.542870712280273438e+01 3.418226003646850586e+00 -7.582107186317443848e-01 1.283289074897766113e+00 1.575235128402709961e-01 -8.484314680099487305e-01
2.320000000000000000e+03 1.102363109588623047e+01 3.545903205871582031e+00 -1.427590698003768921e-01 -1.008135303854942322e-01 -7.307177782058715820e-02 1.037309169769287109e-01
2.321000000000000000e+03 5.917547988891601562e+01 2.737993240356445312e+00 -1.054049849510192871e+00 4.349698066711425781e+00 9.886945486068725586e-01 -2.738818883895874023e+00
2.322000000000000000e+03 6.185017776489257812e+01 9.148069620132446289e-01 -2.087034285068511963e-01 7.325406551361083984e+00 2.135010957717895508e+00 -3.220523834228515625e+00
2.323000000000000000e+03 1.171237087249755859e+01 5.822916030883789062e+00 -3.893373310565948486e-01 -2.947261929512023926e-01 -2.052190601825714111e-01 2.253503650426864624e-01
2.324000000000000000e+03 1.408672428131103516e+01 -2.338823080062866211e+00 -8.886697143316268921e-02 6.747628003358840942e-02 -6.417206488549709320e-03 -1.234436929225921631e-01
2.325000000000000000e+03 8.690495491027832031e+00 -4.993348598480224609e+00 -2.934056799858808517e-03 -1.088683530688285828e-01 -3.354072198271751404e-02 -1.052730977535247803e-01
2.326000000000000000e+03 6.345785903930664062e+01 1.245558619499206543e+00 -3.069520592689514160e-01 7.935875415802001953e+00 2.288676977157592773e+00 -9.554687142372131348e-01
2.327000000000000000e+03 5.944037246704101562e+01 1.318399071693420410e+00 -1.449285745620727539e-01 3.958550453186035156e+00 1.144086599349975586e+00 -2.909379720687866211e+00
2.328000000000000000e+03 7.615532875061035156e+00 -4.240261077880859375e+00 -2.136615291237831116e-02 -7.355380058288574219e-02 -2.847598493099212646e-02 -9.184043854475021362e-02
2.329000000000000000e+03 8.413228034973144531e+00 -3.431854724884033203e+00 -3.844354674220085144e-02 -8.441524952650070190e-02 -3.685763850808143616e-02 -9.640640765428543091e-02
2.330000000000000000e+03 4.701839447021484375e+00 -3.720576524734497070e+00 -8.445984683930873871e-03 -1.549629867076873779e-02 -7.182685192674398422e-03 -3.940878435969352722e-02
2.331000000000000000e+03 5.897426128387451172e+00 -4.882844924926757812e+00 1.111565623432397842e-02 -5.397868528962135315e-02 -1.285890862345695496e-02 -4.484121128916740417e-02
2.332000000000000000e+03 4.860784053802490234e+00 -5.589436531066894531e+00 1.139077637344598770e-02 -5.594132840633392334e-02 -1.336516626179218292e-02 -2.949151210486888885e-02
2.333000000000000000e+03 3.876621007919311523e+00 -5.338142395019531250e+00 -2.354541094973683357e-03 -4.064334183931350708e-02 -1.289936434477567673e-02 -3.237134218215942383e-02
2.334000000000000000e+03 3.419882297515869141e+00 -3.881684064865112305e+00 -1.305363257415592670e-03 -1.192252151668071747e-02 -3.968365490436553955e-03 -2.055794000625610352e-02
2.335000000000000000e+03 3.636655569076538086e+00 -7.580054283142089844e+00 7.788020651787519455e-03 -6.691618263721466064e-02 -1.773844845592975616e-02 -2.072156220674514771e-02
2.336000000000000000e+03 2.647951126098632812e+00 -6.305874347686767578e+00 2.273166552186012268e-03 -3.786361590027809143e-02 -1.067713461816310883e-02 -1.555659994482994080e-02
2.337000000000000000e+03 4.659512710571289062e+01 2.508512020111083984e+00 -1.079844832420349121e+00 2.060329914093017578e-01 -2.621435523033142090e-01 1.360099464654922485e-01
2.338000000000000000e+03 3.462585830688476562e+01 -3.714998722076416016e+00 -5.883697867393493652e-01 1.517818272113800049e-01 -1.309763938188552856e-01 -2.802720665931701660e-01
2.339000000000000000e+03 6.887907981872558594e+00 4.378536224365234375e+00 -1.109619513154029846e-01 -3.812345117330551147e-02 -4.472561925649642944e-02 -4.952752962708473206e-03
2.340000000000000000e+03 6.933561325073242188e+00 5.323844909667968750e+00 -1.650894731283187866e-01 -5.835765972733497620e-02 -6.703414022922515869e-02 2.264640852808952332e-02
2.341000000000000000e+03 2.554255723953247070e+00 4.956977844238281250e+00 -3.097206354141235352e-02 2.255099639296531677e-02 -2.526320051401853561e-03 -1.954864710569381714e-02
2.342000000000000000e+03 3.388691902160644531e+00 3.789998531341552734e+00 -1.982391625642776489e-02 1.031141728162765503e-02 -2.853749785572290421e-03 -3.975948691368103027e-02
2.343000000000000000e+03 2.606876134872436523e+00 6.176708698272705078e+00 -4.238907992839813232e-02 1.358943618834018707e-02 -8.639893494546413422e-03 1.089226454496383667e-02
2.344000000000000000e+03 2.580271720886230469e+00 3.873155355453491211e+00 -1.312303729355335236e-02 2.112715318799018860e-02 2.401234814897179604e-03 -3.691744804382324219e-02
2.345000000000000000e+03 1.414497947692871094e+01 5.431198120117187500e+00 -3.901505768299102783e-01 -1.822782009840011597e-01 -1.717286407947540283e-01 4.278065860271453857e-01
2.346000000000000000e+03 1.995630836486816406e+01 6.233054161071777344e+00 1.935184933245182037e-02 -3.726299107074737549e-02 -5.373342428356409073e-03 1.509336382150650024e-01
2.347000000000000000e+03 3.617486953735351562e+01 -4.804007530212402344e+00 -5.145410895347595215e-01 5.491166114807128906e-01 1.037264987826347351e-02 -3.708150088787078857e-01
2.348000000000000000e+03 2.565543365478515625e+01 4.298806190490722656e+00 -2.547352015972137451e-01 4.128834605216979980e-02 -6.403405964374542236e-02 2.547633349895477295e-01
2.349000000000000000e+03 2.365913009643554688e+01 4.003593921661376953e+00 -4.034297466278076172e-01 -1.239830702543258667e-01 -1.582238376140594482e-01 2.314111292362213135e-01
2.350000000000000000e+03 2.084800910949707031e+01 6.548884868621826172e+00 1.173389106988906860e-01 -1.176392063498497009e-01 -9.008706547319889069e-05 1.217053085565567017e-01
2.351000000000000000e+03 2.567157363891601562e+01 6.168593406677246094e+00 1.295876353979110718e-01 1.326614525169134140e-02 4.285613447427749634e-02 1.882519423961639404e-01
2.352000000000000000e+03 2.134428405761718750e+01 4.934877395629882812e+00 -2.284720987081527710e-01 -1.412447243928909302e-01 -1.109150499105453491e-01 1.606525927782058716e-01
2.353000000000000000e+03 2.284013748168945312e+01 4.128891468048095703e+00 -4.055776298046112061e-01 -1.396527737379074097e-01 -1.635691225528717041e-01 2.167354375123977661e-01
2.354000000000000000e+03 2.476751899719238281e+01 4.696323394775390625e+00 -1.868521422147750854e-01 -7.342560589313507080e-02 -7.808332145214080811e-02 2.244772464036941528e-01
2.355000000000000000e+03 2.698108482360839844e+01 3.405075073242187500e+00 -4.764114618301391602e-01 1.853351593017578125e-01 -8.732289075851440430e-02 2.224442213773727417e-01
2.356000000000000000e+03 2.720384597778320312e+01 2.791103124618530273e+00 -6.626445651054382324e-01 2.084167897701263428e-01 -1.362683326005935669e-01 2.120643407106399536e-01
2.357000000000000000e+03 2.766856193542480469e+01 3.851314544677734375e+00 -3.783895969390869141e-01 3.148629665374755859e-01 -1.905799470841884613e-02 1.813189536333084106e-01
2.358000000000000000e+03 2.860124778747558594e+01 4.047836303710937500e+00 -2.954253256320953369e-01 3.949593305587768555e-01 2.986020222306251526e-02 1.155901104211807251e-01
2.359000000000000000e+03 1.287992954254150391e+01 -4.781793117523193359e+00 2.346807345747947693e-02 3.731785714626312256e-02 1.823578029870986938e-02 -6.984890997409820557e-02
2.360000000000000000e+03 1.169925594329833984e+01 -3.162924766540527344e+00 -5.531039834022521973e-02 -1.099809855222702026e-01 -4.958741366863250732e-02 -1.092309877276420593e-01
2.361000000000000000e+03 1.393900585174560547e+01 -4.613185882568359375e+00 -5.425272975116968155e-03 -1.129171624779701233e-02 -5.015096627175807953e-03 -6.115626916289329529e-02
2.362000000000000000e+03 1.341540336608886719e+01 -2.785498619079589844e+00 -9.410154074430465698e-02 -1.005846187472343445e-01 -5.840584635734558105e-02 -1.079573482275009155e-01
2.363000000000000000e+03 4.922312545776367188e+01 -5.067545890808105469e+00 -7.087095975875854492e-01 3.358324468135833740e-01 -1.118631437420845032e-01 6.572002172470092773e-01
2.364000000000000000e+03 5.021327972412109375e+01 -4.385318756103515625e+00 -5.588788986206054688e-01 -7.440706342458724976e-02 -1.899857968091964722e-01 7.627231478691101074e-01
2.365000000000000000e+03 4.200921630859375000e+01 4.506652355194091797e+00 -4.590816199779510498e-01 -4.277983009815216064e-01 -2.660639882087707520e-01 1.300321072340011597e-01
2.366000000000000000e+03 9.311969757080078125e+00 -4.107673645019531250e+00 -1.547806896269321442e-02 -1.064665541052818298e-01 -3.658338636159896851e-02 -1.153763011097908020e-01
2.367000000000000000e+03 1.013772201538085938e+01 -4.041071414947509766e+00 -2.645333111286163330e-02 -3.052216197829693556e-04 -8.027565665543079376e-03 -8.534996211528778076e-02
2.368000000000000000e+03 3.544114685058593750e+01 -5.403305530548095703e+00 -3.084822595119476318e-01 3.576696813106536865e-01 1.475622598081827164e-02 -4.376041591167449951e-01
2.369000000000000000e+03 3.382561874389648438e+01 -5.115269660949707031e+00 -3.006636202335357666e-01 -1.720166392624378204e-02 -9.535958617925643921e-02 -4.652203917503356934e-01
2.370000000000000000e+03 5.760136795043945312e+01 3.618210554122924805e+00 -1.035434246063232422e+00 3.061161756515502930e+00 6.077182292938232422e-01 -1.864579558372497559e+00
2.371000000000000000e+03 3.282278060913085938e+01 -5.637007236480712891e+00 -7.942572236061096191e-02 -1.861114799976348877e-01 -7.966116070747375488e-02 -5.122476816177368164e-01
2.372000000000000000e+03 5.303911209106445312e+01 4.130586147308349609e+00 -5.271557569503784180e-01 3.696227967739105225e-01 -4.725989326834678650e-02 -1.461873762309551239e-02
2.373000000000000000e+03 1.097346878051757812e+01 -4.010244846343994141e+00 -1.265723817050457001e-02 -1.064138635993003845e-01 -3.572133183479309082e-02 -1.176496893167495728e-01
2.374000000000000000e+03 4.883358001708984375e+01 4.436148166656494141e+00 -6.114073991775512695e-01 1.543628573417663574e-01 -1.371133476495742798e-01 3.717384487390518188e-02
2.375000000000000000e+03 4.868744659423828125e+01 3.249728918075561523e+00 -9.533254504203796387e-01 1.587588191032409668e-01 -2.383699864149093628e-01 1.186045557260513306e-01
2.376000000000000000e+03 5.809503936767578125e+01 2.857829570770263672e+00 -9.072605371475219727e-01 3.303793191909790039e+00 7.189597487449645996e-01 -2.253566503524780273e+00
2.377000000000000000e+03 5.888534927368164062e+01 7.076563358306884766e+00 -1.177281260490417480e+00 5.284425735473632812e+00 1.232143282890319824e+00 -1.195962786674499512e+00
2.378000000000000000e+03 4.240464782714843750e+01 5.423546791076660156e+00 -4.117083549499511719e-01 -3.143348097801208496e-01 -2.178129553794860840e-01 3.700011372566223145e-01
2.379000000000000000e+03 4.723822784423828125e+01 2.706577777862548828e+00 -1.073232889175415039e+00 2.279428839683532715e-01 -2.535870075225830078e-01 1.467059850692749023e-01
2.380000000000000000e+03 3.129557037353515625e+01 -5.146595954895019531e+00 7.893983274698257446e-03 -4.665260612964630127e-01 -1.375896185636520386e-01 -3.610183596611022949e-01
2.381000000000000000e+03 1.913459777832031250e+01 5.801669597625732422e+00 -8.399562537670135498e-02 1.653582602739334106e-02 -2.023794129490852356e-02 1.883223056793212891e-01
2.382000000000000000e+03 1.947905921936035156e+01 5.040341854095458984e+00 -2.774529457092285156e-01 -5.723435804247856140e-02 -1.004061847925186157e-01 2.045254260301589966e-01
2.383000000000000000e+03 1.214388370513916016e+01 6.685138225555419922e+00 -6.185005903244018555e-01 -3.385715484619140625e-01 -2.871216237545013428e-01 3.083953559398651123e-01
2.384000000000000000e+03 9.738269805908203125e+00 6.896686553955078125e+00 -4.077661037445068359e-01 -2.184448093175888062e-01 -1.878632754087448120e-01 1.960801780223846436e-01
2.385000000000000000e+03 6.207164382934570312e+01 6.237401485443115234e+00 -2.803087472915649414e+00 5.601840019226074219e+00 8.396257758140563965e-01 -1.991161584854125977e+00
2.386000000000000000e+03 4.834787368774414062e+01 -1.340162467956542969e+01 -8.082392811775207520e-01 9.550696611404418945e-01 4.404911398887634277e-02 3.384744003415107727e-02
2.387000000000000000e+03 4.816024780273437500e+01 -1.425312995910644531e+01 -7.867211699485778809e-01 1.021859526634216309e+00 7.054149359464645386e-02 1.212765201926231384e-01
2.388000000000000000e+03 4.802718734741210938e+01 4.875098228454589844e+00 -5.677874088287353516e-01 2.229028791189193726e-01 -1.034653633832931519e-01 4.063002392649650574e-02
2.389000000000000000e+03 6.830415344238281250e+01 2.503717422485351562e+00 1.114212632179260254e+00 2.962303400039672852e+00 1.222954869270324707e+00 2.853267192840576172e+00
2.390000000000000000e+03 5.155089950561523438e+01 3.023711967468261719e+01 7.948962450027465820e-01 3.581610441207885742e+00 1.312952041625976562e+00 -5.481144785881042480e-01
2.391000000000000000e+03 4.251593399047851562e+01 -2.218336486816406250e+01 3.911785483360290527e-01 6.067859530448913574e-01 2.993893623352050781e-01 -3.318895027041435242e-02
2.392000000000000000e+03 3.450178909301757812e+01 -1.294639015197753906e+01 -4.755841195583343506e-01 1.440909355878829956e-01 -9.944795817136764526e-02 1.526205614209175110e-02
2.393000000000000000e+03 5.052647781372070312e+01 2.786461067199707031e+01 8.889582753181457520e-01 3.048638105392456055e+00 1.181278944015502930e+00 -4.315740764141082764e-01
2.394000000000000000e+03 4.028436279296875000e+01 9.080261230468750000e+00 -5.031985640525817871e-01 -7.222255468368530273e-01 -3.676272332668304443e-01 5.019386410713195801e-01
2.395000000000000000e+03 4.066650772094726562e+01 -1.520358180999755859e+01 -6.155005693435668945e-01 3.060199022293090820e-01 -9.284420311450958252e-02 -4.350700974464416504e-01
2.396000000000000000e+03 4.266870117187500000e+01 -2.681823539733886719e+01 4.356933534145355225e-01 4.926016926765441895e-01 2.784885168075561523e-01 2.756226360797882080e-01
2.397000000000000000e+03 4.463282012939453125e+01 -2.535816955566406250e+01 3.664385378360748291e-01 6.534148454666137695e-01 3.059560060501098633e-01 -6.778474152088165283e-02
2.398000000000000000e+03 4.279536819458007812e+01 -2.511286735534667969e+01 3.129459917545318604e-01 5.965552330017089844e-01 2.728503644466400146e-01 1.073056086897850037e-01
2.399000000000000000e+03 4.831941986083984375e+01 5.682050704956054688e+00 -3.261490464210510254e-01 2.339367866516113281e-01 -2.766367793083190918e-02 -4.559493064880371094e-02
2.400000000000000000e+03 4.601777267456054688e+01 5.255358219146728516e+00 -5.945233702659606934e-01 2.823781073093414307e-01 -9.364358335733413696e-02 1.114193946123123169e-01
2.401000000000000000e+03 4.500948715209960938e+01 2.721197843551635742e+00 -1.056658744812011719e+00 1.636842489242553711e-01 -2.678923606872558594e-01 1.906080245971679688e-01
2.402000000000000000e+03 6.326812362670898438e+01 -6.045049190521240234e+00 -6.443958729505538940e-02 1.517733764648437500e+01 4.533869266510009766e+00 6.836357712745666504e-01
2.403000000000000000e+03 6.260477447509765625e+01 -2.545263099670410156e+01 -8.738462328910827637e-01 2.747716903686523438e+00 5.621612071990966797e-01 -1.030765056610107422e+00
2.404000000000000000e+03 5.090518188476562500e+01 2.042119407653808594e+01 -1.222830787301063538e-01 2.422225236892700195e+00 6.899826526641845703e-01 -1.307155728340148926e+00
2.405000000000000000e+03 2.111517143249511719e+01 5.663897037506103516e+00 -9.027614444494247437e-02 -1.410326659679412842e-01 -6.939264386892318726e-02 1.486004143953323364e-01
2.406000000000000000e+03 3.237099838256835938e+01 2.533086204528808594e+01 -2.939489185810089111e-01 -1.512048691511154175e-01 -1.335461288690567017e-01 2.778227925300598145e-01
2.407000000000000000e+03 3.192136001586914062e+01 -8.400052070617675781e+00 -1.938195824623107910e-01 -4.570984840393066406e-01 -1.952754110097885132e-01 -4.093402028083801270e-01
2.408000000000000000e+03 4.004363250732421875e+01 1.677491188049316406e+01 2.206438779830932617e-01 -8.120647072792053223e-02 4.183122515678405762e-02 -2.093785628676414490e-02
2.409000000000000000e+03 3.423976135253906250e+01 1.905103492736816406e+01 2.943059206008911133e-01 4.769255872815847397e-03 8.972255140542984009e-02 3.970688581466674805e-01
2.410000000000000000e+03 2.680325508117675781e+01 -2.016996574401855469e+01 -4.486915841698646545e-02 -1.834221184253692627e-01 -6.848738342523574829e-02 -1.877832710742950439e-01
2.411000000000000000e+03 2.471702384948730469e+01 -1.772106742858886719e+01 -2.843583822250366211e-01 -2.765408456325531006e-01 -1.682697683572769165e-01 -3.609500825405120850e-01
2.412000000000000000e+03 3.608319473266601562e+01 -6.137280464172363281e+00 -1.602708995342254639e-01 6.320919394493103027e-01 1.415463089942932129e-01 -5.142902135848999023e-01
2.413000000000000000e+03 2.655154800415039062e+01 7.774679660797119141e+00 3.106599748134613037e-01 1.580552458763122559e-01 1.406145691871643066e-01 1.591989994049072266e-01
2.414000000000000000e+03 3.190625953674316406e+01 1.511339569091796875e+01 1.240463927388191223e-02 5.841476321220397949e-01 1.789656877517700195e-01 3.375464081764221191e-01
2.415000000000000000e+03 7.537782287597656250e+01 1.562177181243896484e+01 4.705421030521392822e-01 8.213634490966796875e+00 2.605252981185913086e+00 1.070900797843933105e+00
2.416000000000000000e+03 7.673341369628906250e+01 1.832212257385253906e+01 -3.130182623863220215e-01 7.782934665679931641e+00 2.240974903106689453e+00 9.549326300621032715e-01
2.417000000000000000e+03 3.092565155029296875e+01 -1.338433933258056641e+01 -6.060183644294738770e-01 -2.986155748367309570e-01 -2.713901996612548828e-01 -6.088017020374536514e-03
2.418000000000000000e+03 4.294990158081054688e+01 1.882498931884765625e+01 4.396978765726089478e-02 5.180446505546569824e-01 1.686043292284011841e-01 1.256528049707412720e-01
2.419000000000000000e+03 7.218531799316406250e+01 3.026976585388183594e+00 1.995997875928878784e-01 4.656522274017333984e+00 1.456836581230163574e+00 1.282925367355346680e+00
2.420000000000000000e+03 7.053308105468750000e+01 1.348984479904174805e+00 1.890739321708679199e+00 2.331598043441772461e+00 1.266701221466064453e+00 2.154129028320312500e+00
2.421000000000000000e+03 8.857767105102539062e+00 7.245810985565185547e+00 -3.291435837745666504e-01 -2.001436352729797363e-01 -1.587861627340316772e-01 1.651543527841567993e-01
2.422000000000000000e+03 2.836534118652343750e+01 -2.847681999206542969e+01 4.109428822994232178e-01 -1.355861313641071320e-02 1.192152798175811768e-01 -2.455282956361770630e-01
2.423000000000000000e+03 4.267082214355468750e+01 9.330313682556152344e+00 -8.413334190845489502e-02 3.236594796180725098e-01 7.185784727334976196e-02 2.396928220987319946e-01
2.424000000000000000e+03 3.418848037719726562e+01 1.634597587585449219e+01 4.668664038181304932e-01 -7.843305170536041260e-02 1.165300011634826660e-01 4.088783562183380127e-01
2.425000000000000000e+03 3.761540985107421875e+01 -4.624465465545654297e+00 -6.619951725006103516e-01 4.946191012859344482e-01 -5.021281167864799500e-02 -2.024780660867691040e-01
2.426000000000000000e+03 2.177334403991699219e+01 1.242576694488525391e+01 8.687172085046768188e-03 -1.560507416725158691e-01 -4.420907050371170044e-02 4.982585087418556213e-02
2.427000000000000000e+03 2.266837882995605469e+01 1.180520343780517578e+01 1.067660897970199585e-01 -1.503842622041702271e-01 -1.308545004576444626e-02 1.194421872496604919e-01
2.428000000000000000e+03 4.723365020751953125e+01 -1.543682765960693359e+01 -6.827694177627563477e-01 9.906573891639709473e-01 9.236637502908706665e-02 2.826628983020782471e-01
2.429000000000000000e+03 4.179232788085937500e+01 7.467589378356933594e+00 -3.265150785446166992e-01 -2.851122915744781494e-01 -1.834882050752639771e-01 5.185858011245727539e-01
2.430000000000000000e+03 7.733805847167968750e+01 -1.748876571655273438e+01 -4.293085262179374695e-02 8.469816207885742188e+00 2.528065681457519531e+00 1.153931975364685059e+00
2.431000000000000000e+03 7.699155426025390625e+01 -1.995610427856445312e+01 5.535899400711059570e-01 8.245182991027832031e+00 2.639631748199462891e+00 8.382853269577026367e-01
2.432000000000000000e+03 7.716743469238281250e+01 1.105389308929443359e+01 4.803017377853393555e-01 7.021373271942138672e+00 2.250502347946166992e+00 -3.648067116737365723e-01
2.433000000000000000e+03 7.473647308349609375e+01 9.856279373168945312e+00 6.618460416793823242e-01 8.695378303527832031e+00 2.807167291641235352e+00 -5.315390825271606445e-01
2.434000000000000000e+03 7.641398620605468750e+01 1.382718753814697266e+01 7.756068110466003418e-01 7.666751861572265625e+00 2.532707691192626953e+00 6.215476989746093750e-01
2.435000000000000000e+03 7.729335021972656250e+01 1.217686653137207031e+01 6.512562632560729980e-01 6.882845878601074219e+00 2.260230541229248047e+00 8.407261222600936890e-02
2.436000000000000000e+03 7.764148712158203125e+01 -1.623586845397949219e+01 -2.220550328493118286e-01 8.736475944519042969e+00 2.554326295852661133e+00 1.040488719940185547e+00
2.437000000000000000e+03 7.620301818847656250e+01 -1.710822868347167969e+01 -1.583370566368103027e-01 8.171163558959960938e+00 2.403848171234130859e+00 1.115474104881286621e+00
2.438000000000000000e+03 7.640864562988281250e+01 1.233549213409423828e+01 9.818184971809387207e-01 7.753948211669921875e+00 2.620729923248291016e+00 2.013091742992401123e-01
2.439000000000000000e+03 7.530493164062500000e+01 -1.534947204589843750e+01 -8.724533915519714355e-01 6.932985305786132812e+00 1.818159580230712891e+00 6.723940372467041016e-01
2.440000000000000000e+03 7.490828704833984375e+01 5.565186977386474609e+00 -7.192008495330810547e-01 7.445267677307128906e+00 2.017820119857788086e+00 -1.419253647327423096e-01
2.441000000000000000e+03 7.695438385009765625e+01 -1.302432250976562500e+01 -1.002212166786193848e+00 8.565878868103027344e+00 2.269100189208984375e+00 -1.332933921366930008e-02
2.442000000000000000e+03 7.479514312744140625e+01 2.026704025268554688e+01 -9.715140461921691895e-01 7.558530330657958984e+00 1.976104855537414551e+00 2.185029685497283936e-01
2.443000000000000000e+03 7.662892913818359375e+01 1.615257263183593750e+01 1.015025228261947632e-01 7.631074905395507812e+00 2.319773197174072266e+00 1.061736583709716797e+00
2.444000000000000000e+03 7.412866210937500000e+01 1.542646884918212891e+01 6.157491207122802734e-01 9.155841827392578125e+00 2.931477308273315430e+00 8.695651292800903320e-01
2.445000000000000000e+03 7.195716857910156250e+01 4.220215797424316406e+00 -4.893670082092285156e-01 5.323826789855957031e+00 1.450337886810302734e+00 1.587952613830566406e+00
2.446000000000000000e+03 7.658917236328125000e+01 1.994210243225097656e+00 -2.882546186447143555e-01 7.102783203125000000e+00 2.044358491897583008e+00 -8.880200237035751343e-02
2.447000000000000000e+03 7.375736999511718750e+01 2.958560705184936523e+00 -2.594926655292510986e-01 6.017671108245849609e+00 1.727453470230102539e+00 4.434280693531036377e-01
2.448000000000000000e+03 7.432907104492187500e+01 1.781900405883789062e+01 -6.458774805068969727e-01 8.281230926513671875e+00 2.290606260299682617e+00 8.520136475563049316e-01
2.449000000000000000e+03 7.700725555419921875e+01 1.969482231140136719e+01 -3.717775642871856689e-01 7.828114509582519531e+00 2.236901044845581055e+00 6.738092303276062012e-01
2.450000000000000000e+03 7.614034271240234375e+01 -2.218255424499511719e+01 1.093162417411804199e+00 9.119382858276367188e+00 3.063763618469238281e+00 5.682874843478202820e-02
2.451000000000000000e+03 7.637795257568359375e+01 -3.007922172546386719e-01 -3.731079697608947754e-01 7.348699092864990234e+00 2.092677354812622070e+00 -5.731806904077529907e-02
2.452000000000000000e+03 7.351815795898437500e+01 3.266753005981445312e+01 2.509880959987640381e-01 5.780885696411132812e+00 1.809562206268310547e+00 -1.051219180226325989e-01
2.453000000000000000e+03 7.599282073974609375e+01 3.333501815795898438e+01 1.248179823160171509e-01 6.630150318145751953e+00 2.026490449905395508e+00 -1.323945075273513794e-01
2.454000000000000000e+03 7.727011108398437500e+01 -2.903944253921508789e-01 -2.699746787548065186e-01 7.554823398590087891e+00 2.185454607009887695e+00 1.021155044436454773e-01
2.455000000000000000e+03 7.696794891357421875e+01 -2.646430397033691406e+01 -5.110408067703247070e-01 8.224335670471191406e+00 2.313988447189331055e+00 -4.280959665775299072e-01
2.456000000000000000e+03 7.589627075195312500e+01 -2.923713493347167969e+01 -4.914698302745819092e-01 7.305981636047363281e+00 2.044353485107421875e+00 4.298030734062194824e-01
2.457000000000000000e+03 7.582353973388671875e+01 -2.531849670410156250e+01 -3.549805581569671631e-01 8.789382934570312500e+00 2.530320644378662109e+00 -7.244367003440856934e-01
2.458000000000000000e+03 7.701717376708984375e+01 -2.788778877258300781e+01 -4.833486378192901611e-01 7.950455188751220703e+00 2.240132093429565430e+00 -5.297542363405227661e-02
2.459000000000000000e+03 7.605126953125000000e+01 2.214688491821289062e+01 -5.968354940414428711e-01 7.489104747772216797e+00 2.067680835723876953e+00 -3.938067704439163208e-02
2.460000000000000000e+03 7.271173858642578125e+01 2.878016662597656250e+01 3.626546561717987061e-01 5.302587985992431641e+00 1.699572801589965820e+00 -4.406665265560150146e-01
2.461000000000000000e+03 7.347129821777343750e+01 2.219751739501953125e+01 -1.042291522026062012e+00 6.586666584014892578e+00 1.663312554359436035e+00 -5.256764292716979980e-01
2.462000000000000000e+03 7.543186187744140625e+01 2.740286445617675781e+01 -3.343975986354053020e-04 6.634496688842773438e+00 1.990248799324035645e+00 -4.759320616722106934e-01
2.463000000000000000e+03 7.225822448730468750e+01 -3.455893325805664062e+01 7.728836536407470703e-01 5.070265769958496094e+00 1.752944827079772949e+00 -2.229361236095428467e-01
2.464000000000000000e+03 7.340840911865234375e+01 -3.665073013305664062e+01 2.443890571594238281e-01 5.784840583801269531e+00 1.808768868446350098e+00 -2.764206528663635254e-01
2.465000000000000000e+03 7.543087005615234375e+01 -3.679268264770507812e+01 6.287790834903717041e-02 6.664174556732177734e+00 2.018115758895874023e+00 -7.722586393356323242e-02
2.466000000000000000e+03 7.418701171875000000e+01 2.841030120849609375e+01 1.757728457450866699e-01 6.063346385955810547e+00 1.871735811233520508e+00 -4.363872408866882324e-01
2.467000000000000000e+03 7.637004089355468750e+01 3.031491470336914062e+01 1.355684101581573486e-01 6.837825298309326172e+00 2.092018127441406250e+00 -2.719748318195343018e-01
2.468000000000000000e+03 7.499546813964843750e+01 2.997237014770507812e+01 1.759092658758163452e-01 6.351325035095214844e+00 1.958170294761657715e+00 -3.066157400608062744e-01
2.469000000000000000e+03 7.704834747314453125e+01 -3.169161415100097656e+01 -4.514344036579132080e-02 7.415634155273437500e+00 2.211147308349609375e+00 3.449664115905761719e-01
2.470000000000000000e+03 7.575885772705078125e+01 -3.056033134460449219e+01 -1.414506137371063232e-01 6.907453060150146484e+00 2.029800891876220703e+00 5.257058739662170410e-01
2.471000000000000000e+03 7.381605529785156250e+01 -3.345303726196289062e+01 5.172242522239685059e-01 5.615029811859130859e+00 1.839676260948181152e+00 2.672474384307861328e-01
2.472000000000000000e+03 7.305204010009765625e+01 3.532806777954101562e+01 1.124949455261230469e-01 5.686642646789550781e+00 1.739741325378417969e+00 4.192353785037994385e-02
2.473000000000000000e+03 2.288997459411621094e+01 4.980417728424072266e+00 -1.761664897203445435e-01 -1.617918014526367188e-01 -1.013874858617782593e-01 1.794815957546234131e-01
2.474000000000000000e+03 3.524526214599609375e+01 -6.818126678466796875e+00 -2.642325870692729950e-02 3.618098199367523193e-01 1.006159633398056030e-01 -5.099393129348754883e-01
2.475000000000000000e+03 3.314340972900390625e+01 -8.715187072753906250e+00 -4.236656799912452698e-02 -1.346956342458724976e-01 -5.311866104602813721e-02 -3.562786579132080078e-01
2.476000000000000000e+03 4.563860321044921875e+01 -2.462885475158691406e+01 2.243515998125076294e-01 9.495424032211303711e-01 3.521682024002075195e-01 -1.738092899322509766e-01
2.477000000000000000e+03 4.265509796142578125e+01 -1.784965705871582031e+01 2.748324573040008545e-01 1.657977700233459473e-01 1.321890652179718018e-01 -2.562656998634338379e-01
2.478000000000000000e+03 5.919337081909179688e+01 8.275986671447753906e+00 -7.028222680091857910e-01 6.097901821136474609e+00 1.618523836135864258e+00 -9.698247909545898438e-01
2.479000000000000000e+03 5.697561645507812500e+01 9.607151031494140625e+00 5.606930851936340332e-01 4.603946208953857422e+00 1.549391865730285645e+00 -3.494336009025573730e-01
2.480000000000000000e+03 2.683818626403808594e+01 -1.582329368591308594e+01 -5.003315806388854980e-01 -4.151262938976287842e-01 -2.746373713016510010e-01 -3.201173841953277588e-01
2.481000000000000000e+03 2.414838218688964844e+01 -1.514927291870117188e+01 -7.211182713508605957e-01 -3.283088505268096924e-01 -3.148281276226043701e-01 -3.875007629394531250e-01
2.482000000000000000e+03 2.230395889282226562e+01 -1.662555694580078125e+01 -4.330453276634216309e-01 -1.999356895685195923e-01 -1.898943036794662476e-01 -4.206100702285766602e-01
2.483000000000000000e+03 3.127752304077148438e+00 2.510033416748046875e+01 -9.455015510320663452e-02 -5.239447951316833496e-01 -1.855484843254089355e-01 5.678844824433326721e-02
2.484000000000000000e+03 2.757745027542114258e+00 2.411308670043945312e+01 -6.576970219612121582e-02 -4.839260876178741455e-01 -1.649087369441986084e-01 -3.429516800679266453e-04
2.485000000000000000e+03 4.932562828063964844e+00 2.192192649841308594e+01 -2.317040972411632538e-02 -4.633560180664062500e-01 -1.459579318761825562e-01 1.108113396912813187e-02
2.486000000000000000e+03 2.728170156478881836e+00 2.308587837219238281e+01 -2.484870329499244690e-02 -4.641985595226287842e-01 -1.467141807079315186e-01 -2.565134875476360321e-02
2.487000000000000000e+03 5.216700553894042969e+00 2.343510818481445312e+01 -1.085883080959320068e-01 -5.464094877243041992e-01 -1.964993327856063843e-01 6.662829220294952393e-02
2.488000000000000000e+03 4.073024749755859375e+00 -1.709407043457031250e+01 -9.043882042169570923e-02 -2.395068556070327759e-01 -9.898369759321212769e-02 -1.109860464930534363e-01
2.489000000000000000e+03 4.646291255950927734e+00 -1.461787509918212891e+01 -7.586517930030822754e-02 -2.451265454292297363e-01 -9.629751741886138916e-02 -7.700541615486145020e-02
2.490000000000000000e+03 4.354789733886718750e+00 2.273095703125000000e+01 -5.975272879004478455e-02 -4.902612864971160889e-01 -1.650042086839675903e-01 8.145415224134922028e-03
2.491000000000000000e+03 7.004117012023925781e+00 1.511418056488037109e+01 2.307497560977935791e-01 -1.813292652368545532e-01 1.482614688575267792e-02 2.752426862716674805e-01
2.492000000000000000e+03 3.210827827453613281e+00 1.918775749206542969e+01 5.189616233110427856e-02 -4.101241528987884521e-01 -1.074683964252471924e-01 -5.282796919345855713e-03
2.493000000000000000e+03 3.272691011428833008e+00 -2.596806907653808594e+01 4.294115642551332712e-04 -2.285813242197036743e-01 -6.844557076692581177e-02 1.850529946386814117e-02
2.494000000000000000e+03 3.304807901382446289e+00 -2.754907608032226562e+01 -2.461189776659011841e-02 -2.339109778404235840e-01 -7.755686342716217041e-02 7.184410467743873596e-03
2.495000000000000000e+03 4.800088405609130859e+00 -2.462215232849121094e+01 6.228254735469818115e-02 -1.465221196413040161e-01 -2.527187205851078033e-02 1.580017991364002228e-02
2.496000000000000000e+03 5.729527473449707031e+00 -2.606172943115234375e+01 -2.513766102492809296e-02 -9.887292236089706421e-02 -3.720317408442497253e-02 -6.330694071948528290e-03
2.497000000000000000e+03 6.257250308990478516e+00 1.611156082153320312e+01 2.289478778839111328e-01 -2.652691006660461426e-01 -1.089636888355016708e-02 2.015543580055236816e-01
2.498000000000000000e+03 4.813632011413574219e+00 1.457778263092041016e+01 1.036096438765525818e-01 -2.582192718982696533e-01 -4.638289287686347961e-02 2.428262680768966675e-01
2.499000000000000000e+03 3.987782001495361328e+00 3.414271545410156250e+01 1.403779983520507812e-01 -5.767923593521118164e-01 -1.309243142604827881e-01 8.457426726818084717e-02
2.500000000000000000e+03 3.704950332641601562e+00 -9.901248931884765625e+00 3.506422974169254303e-03 -9.372464567422866821e-02 -2.706546708941459656e-02 -1.086899917572736740e-02
2.501000000000000000e+03 3.516818284988403320e+00 -3.204733276367187500e+01 -3.812276944518089294e-02 -3.153400123119354248e-01 -1.060388386249542236e-01 -8.670909702777862549e-02
2.502000000000000000e+03 4.697916507720947266e+00 -2.903886604309082031e+01 -7.146899402141571045e-02 -2.094478160142898560e-01 -8.427504450082778931e-02 -4.838369414210319519e-02
2.503000000000000000e+03 5.488448619842529297e+00 8.921577453613281250e+00 -1.701662093400955200e-01 -6.262864172458648682e-02 -6.983845680952072144e-02 1.776298582553863525e-01
2.504000000000000000e+03 4.078010082244873047e+00 -1.222723674774169922e+01 -2.151194028556346893e-02 -1.473177373409271240e-01 -5.064890161156654358e-02 -2.059417776763439178e-02
2.505000000000000000e+03 6.020594120025634766e+00 1.030514049530029297e+01 -1.543891876935958862e-01 -1.053684949874877930e-01 -7.792730629444122314e-02 2.608249485492706299e-01
2.506000000000000000e+03 2.914079427719116211e+00 -1.265257167816162109e+01 -3.491731360554695129e-03 -9.724808484315872192e-02 -3.022194653749465942e-02 -2.884324174374341965e-03
2.507000000000000000e+03 6.244898796081542969e+00 -1.103756427764892578e+01 -9.675811976194381714e-03 -1.741020381450653076e-01 -5.513335764408111572e-02 -4.856247082352638245e-02
2.508000000000000000e+03 4.364633560180664062e+00 -1.339466953277587891e+01 -3.227231651544570923e-02 -1.641981750726699829e-01 -5.894114449620246887e-02 -3.945632651448249817e-02
2.509000000000000000e+03 8.512395858764648438e+00 -3.446474838256835938e+01 -4.164297878742218018e-02 -2.882594168186187744e-01 -9.897071868181228638e-02 -2.406534105539321899e-01
2.510000000000000000e+03 4.869847774505615234e+00 -3.057125854492187500e+01 -8.250088244676589966e-02 -2.427832484245300293e-01 -9.758523851633071899e-02 -9.059730917215347290e-02
2.511000000000000000e+03 3.656694650650024414e+00 -8.745960235595703125e+00 1.734172739088535309e-02 -7.532182335853576660e-02 -1.739402860403060913e-02 -5.842472892254590988e-03
2.512000000000000000e+03 2.702210903167724609e+00 7.465027332305908203e+00 -5.407834425568580627e-02 -3.371044062077999115e-03 -1.723481714725494385e-02 5.245866626501083374e-02
2.513000000000000000e+03 3.821011543273925781e+00 1.032224941253662109e+01 -7.300739735364913940e-02 -9.406647831201553345e-02 -5.012216418981552124e-02 1.818103343248367310e-01
2.514000000000000000e+03 5.807818412780761719e+00 -6.664765357971191406e+00 2.082657441496849060e-02 -7.535840570926666260e-02 -1.635954901576042175e-02 -4.156525060534477234e-02
2.515000000000000000e+03 5.779859924316406250e+01 1.036622619628906250e+01 9.757148027420043945e-01 5.204830169677734375e+00 1.854163408279418945e+00 -8.085846900939941406e-01
2.516000000000000000e+03 3.964542388916015625e+00 -3.670784378051757812e+01 2.492650598287582397e-02 -4.381188452243804932e-01 -1.239577084779739380e-01 -1.270827651023864746e-01
2.517000000000000000e+03 5.223677635192871094e+00 3.862062835693359375e+01 5.805096123367547989e-03 -3.693118095397949219e-01 -1.090520173311233521e-01 -1.598081365227699280e-02
2.518000000000000000e+03 4.875103378295898438e+01 -6.802723407745361328e+00 -3.806362152099609375e-01 8.132860660552978516e-01 1.297949403524398804e-01 5.529039502143859863e-01
2.519000000000000000e+03 4.989315032958984375e+01 -7.355451107025146484e+00 -4.110116064548492432e-01 2.214136570692062378e-01 -5.687938258051872253e-02 5.642796754837036133e-01
2.520000000000000000e+03 6.811592102050781250e+01 1.195207834243774414e+00 2.174694776535034180e+00 3.166382789611816406e+00 1.602323293685913086e+00 2.825951337814331055e+00
2.521000000000000000e+03 6.660080718994140625e+01 4.915340900421142578e+00 -1.598987698554992676e+00 1.069065690040588379e+00 -1.589766144752502441e-01 1.193799495697021484e+00
2.522000000000000000e+03 2.099807167053222656e+01 1.728618812561035156e+01 -2.725045382976531982e-01 -1.992147862911224365e-01 -1.415157914161682129e-01 1.176178753376007080e-01
2.523000000000000000e+03 2.866045761108398438e+01 -1.351729297637939453e+01 -7.150035500526428223e-01 -5.570212602615356445e-01 -3.816074430942535400e-01 -3.454804122447967529e-01
2.524000000000000000e+03 2.734363937377929688e+01 -1.465250587463378906e+01 -6.546934247016906738e-01 -4.538893699645996094e-01 -3.325748443603515625e-01 -3.389959037303924561e-01
2.525000000000000000e+03 7.559452056884765625e+01 1.288240051269531250e+01 9.870879054069519043e-01 8.139879226684570312e+00 2.738090038299560547e+00 3.886637091636657715e-01
2.526000000000000000e+03 6.236422538757324219e+00 -3.586494827270507812e+01 2.064913883805274963e-02 -3.508151173591613770e-01 -9.904979169368743896e-02 -1.942062675952911377e-01
2.527000000000000000e+03 3.572783279418945312e+01 -1.035447502136230469e+01 7.605950534343719482e-02 7.014155983924865723e-01 2.332425415515899658e-01 -8.511170744895935059e-02
2.528000000000000000e+03 3.377689361572265625e+01 -9.186952590942382812e+00 -5.558190494775772095e-02 -2.570392377674579620e-02 -2.438574843108654022e-02 -3.311176598072052002e-01
2.529000000000000000e+03 8.867568969726562500e+00 3.691176986694335938e+01 1.178668215870857239e-01 6.398601830005645752e-02 5.455585196614265442e-02 6.988259404897689819e-02
2.530000000000000000e+03 6.670890045166015625e+01 2.834306716918945312e+01 1.118573069572448730e+00 3.918694734573364258e+00 1.511180400848388672e+00 4.672333896160125732e-01
2.531000000000000000e+03 1.210335826873779297e+01 2.046938323974609375e+01 5.267874151468276978e-02 1.985852420330047607e-01 7.537920027971267700e-02 4.307527542114257812e-01
2.532000000000000000e+03 1.115328502655029297e+01 1.853878211975097656e+01 2.691239714622497559e-01 2.997665405273437500e-01 1.706671565771102905e-01 3.088831901550292969e-01
2.533000000000000000e+03 4.887442016601562500e+01 -1.125330162048339844e+01 -3.108548820018768311e-01 8.515372872352600098e-01 1.622047126293182373e-01 -3.184519708156585693e-01
2.534000000000000000e+03 5.961122894287109375e+01 2.108932495117187500e+01 -1.128701329231262207e+00 2.584791183471679688e+00 4.368269741535186768e-01 9.895079731941223145e-01
2.535000000000000000e+03 2.160191154479980469e+01 7.742100238800048828e+00 2.940343320369720459e-01 -1.603695303201675415e-01 4.009943455457687378e-02 1.499564051628112793e-01
2.536000000000000000e+03 2.627869796752929688e+01 8.781865119934082031e+00 3.692077398300170898e-01 1.471026986837387085e-01 1.548931300640106201e-01 1.239399686455726624e-01
2.537000000000000000e+03 4.459987258911132812e+01 -2.178686714172363281e+01 5.002433657646179199e-01 9.344746470451354980e-01 4.304154217243194580e-01 2.998313680291175842e-02
2.538000000000000000e+03 4.528122329711914062e+01 -2.050626564025878906e+01 5.601718425750732422e-01 1.206686139106750488e+00 5.300573706626892090e-01 3.988679125905036926e-02
2.539000000000000000e+03 5.450834274291992188e+01 5.398064613342285156e+00 -4.386062622070312500e-01 1.357282519340515137e+00 2.756028771400451660e-01 -2.599548697471618652e-01
2.540000000000000000e+03 2.508947563171386719e+01 -2.341981506347656250e+01 1.855397224426269531e-01 -7.614478468894958496e-02 3.281848505139350891e-02 -1.981102377176284790e-01
2.541000000000000000e+03 6.610404968261718750e+01 2.152065467834472656e+01 -1.603705406188964844e+00 8.050230890512466431e-02 -4.569609463214874268e-01 2.913395762443542480e-01
2.542000000000000000e+03 5.999947357177734375e+01 -2.486375427246093750e+01 -3.823476284742355347e-02 1.927404403686523438e+00 5.667508840560913086e-01 2.128660678863525391e+00
2.543000000000000000e+03 4.294653701782226562e+01 -2.370699310302734375e+01 2.912655472755432129e-01 6.747740507125854492e-01 2.898118793964385986e-01 5.343705415725708008e-02
2.544000000000000000e+03 1.664654541015625000e+01 -1.439545345306396484e+01 -2.789230644702911377e-02 2.856747508049011230e-01 7.733473181724548340e-02 -7.285767048597335815e-02
2.545000000000000000e+03 8.298275947570800781e+00 9.655585289001464844e+00 -3.003618121147155762e-01 -2.081144005060195923e-01 -1.525428593158721924e-01 2.348207682371139526e-01
2.546000000000000000e+03 6.498182773590087891e+00 1.172975349426269531e+01 -7.356933504343032837e-02 -1.403187513351440430e-01 -6.416642665863037109e-02 3.191310763359069824e-01
2.547000000000000000e+03 7.478330230712890625e+01 -1.819355392456054688e+01 2.443128526210784912e-01 8.415034294128417969e+00 2.597804307937622070e+00 4.242435991764068604e-01
2.548000000000000000e+03 7.637425994873046875e+01 -2.071350860595703125e+01 8.114411830902099609e-01 8.729767799377441406e+00 2.862362623214721680e+00 5.967960953712463379e-01
2.549000000000000000e+03 2.264881134033203125e+01 -2.511833953857421875e+01 3.299857378005981445e-01 7.656218856573104858e-02 1.219643801450729370e-01 -1.777356117963790894e-01
2.550000000000000000e+03 1.899582099914550781e+01 -2.393755340576171875e+01 4.509394615888595581e-02 7.775513827800750732e-02 3.685472533106803894e-02 -3.625759184360504150e-01
2.551000000000000000e+03 1.406460857391357422e+01 -1.132321834564208984e+01 -3.209805116057395935e-02 1.905992329120635986e-01 4.755035415291786194e-02 -6.045002862811088562e-02
2.552000000000000000e+03 4.491167831420898438e+01 1.970962905883789062e+01 4.357779398560523987e-02 6.920175552368164062e-01 2.206785976886749268e-01 2.702966034412384033e-01
2.553000000000000000e+03 7.392807006835937500e+01 9.194814682006835938e+00 5.230674743652343750e-01 8.878540039062500000e+00 2.820482254028320312e+00 -2.233684360980987549e-01
2.554000000000000000e+03 6.448027038574218750e+01 -2.386990165710449219e+01 1.015360593795776367e+00 6.610963344573974609e+00 2.287897348403930664e+00 -1.385786175727844238e+00
2.555000000000000000e+03 6.461777496337890625e+01 2.471523284912109375e+01 6.108016371726989746e-01 3.259928464889526367e+00 1.161219000816345215e+00 9.594087004661560059e-01
2.556000000000000000e+03 7.401661682128906250e+01 -2.748775100708007812e+01 -1.243370652198791504e+00 6.971407413482666016e+00 1.718410968780517578e+00 1.007451057434082031e+00
2.557000000000000000e+03 3.715562438964843750e+01 -2.967713356018066406e+01 4.512698352336883545e-01 3.176156878471374512e-01 2.306656539440155029e-01 8.900971710681915283e-02
2.558000000000000000e+03 3.378135681152343750e+01 -3.251850891113281250e+01 3.671192526817321777e-01 3.137997090816497803e-01 2.042756825685501099e-01 -1.525575518608093262e-01
2.559000000000000000e+03 7.042024993896484375e+01 -2.947943305969238281e+01 1.065159916877746582e+00 2.489058017730712891e+00 1.066265344619750977e+00 2.706880867481231689e-01
2.560000000000000000e+03 5.233258819580078125e+01 -3.182406234741210938e+01 1.192296147346496582e+00 3.047401666641235352e+00 1.271909356117248535e+00 7.507963180541992188e-01
2.561000000000000000e+03 5.124037551879882812e+01 -3.001593971252441406e+01 8.500736355781555176e-01 2.334846496582031250e+00 9.554759860038757324e-01 1.695183962583541870e-01
2.562000000000000000e+03 1.278250789642333984e+01 -2.762486839294433594e+01 -9.328576922416687012e-02 -4.454059302806854248e-01 -1.616075038909912109e-01 -2.466670870780944824e-01
2.563000000000000000e+03 6.349888610839843750e+01 2.249183654785156250e+01 -1.444410681724548340e+00 3.204831838607788086e+00 5.281262993812561035e-01 2.046788692474365234e+00
2.564000000000000000e+03 6.473003387451171875e+01 2.372135353088378906e+01 -3.870749473571777344e-02 2.809424161911010742e+00 8.312150239944458008e-01 9.515853524208068848e-01
2.565000000000000000e+03 3.633021926879882812e+01 1.866841506958007812e+01 3.730453550815582275e-01 -2.646970450878143311e-01 3.250449150800704956e-02 2.927258908748626709e-01
2.566000000000000000e+03 3.462145614624023438e+01 1.798994827270507812e+01 3.982393145561218262e-01 -8.409071713685989380e-02 9.424457699060440063e-02 4.433113932609558105e-01
2.567000000000000000e+03 3.036614036560058594e+01 -1.002867984771728516e+01 -5.827746987342834473e-01 -9.335581660270690918e-01 -4.548998475074768066e-01 -3.766517341136932373e-01
2.568000000000000000e+03 1.471416473388671875e+01 -7.961205005645751953e+00 5.072322860360145569e-02 1.699524223804473877e-01 6.620269268751144409e-02 -2.648320421576499939e-02
2.569000000000000000e+03 1.317469978332519531e+01 -8.292524337768554688e+00 3.678029403090476990e-02 1.031648218631744385e-01 4.198353365063667297e-02 -4.804195836186408997e-02
2.570000000000000000e+03 5.579121780395507812e+01 7.480914115905761719e+00 -3.374881744384765625e-01 3.192847013473510742e+00 8.566076755523681641e-01 -3.730124235153198242e-01
2.571000000000000000e+03 7.064965820312500000e+01 2.114170265197753906e+01 -1.520930647850036621e+00 4.553032875061035156e+00 9.096305966377258301e-01 -1.286360144615173340e+00
2.572000000000000000e+03 7.170084381103515625e+01 2.170002746582031250e+01 -1.516608715057373047e+00 5.658348083496093750e+00 1.242521762847900391e+00 -1.131293773651123047e+00
2.573000000000000000e+03 1.894120216369628906e+01 -2.143145751953125000e+01 -2.537602782249450684e-01 1.976912841200828552e-02 -7.019734382629394531e-02 -4.138526022434234619e-01
2.574000000000000000e+03 1.787576484680175781e+01 -2.043909072875976562e+01 -3.994224667549133301e-01 -6.446574628353118896e-02 -1.391664594411849976e-01 -5.202742218971252441e-01
2.575000000000000000e+03 1.146933174133300781e+01 -9.704201698303222656e+00 1.047722715884447098e-02 2.573792450129985809e-02 1.086454559117555618e-02 -1.031640917062759399e-01
2.576000000000000000e+03 1.012867259979248047e+01 -2.670355033874511719e+01 -9.565573185682296753e-02 -1.897803395986557007e-01 -8.563081920146942139e-02 -1.919536590576171875e-01
2.577000000000000000e+03 1.207848262786865234e+01 -2.887098503112792969e+01 -1.663847714662551880e-01 -4.138722121715545654e-01 -1.740770936012268066e-01 -2.163071334362030029e-01
2.578000000000000000e+03 5.942615127563476562e+01 1.335395336151123047e+01 1.345590233802795410e+00 7.981986045837402344e+00 2.798272848129272461e+00 -1.172349929809570312e+00
2.579000000000000000e+03 2.785202026367187500e+01 -3.270643615722656250e+01 1.342196464538574219e-01 -6.946431845426559448e-02 1.942659914493560791e-02 -1.563405245542526245e-01
2.580000000000000000e+03 5.258452606201171875e+01 -2.710841560363769531e+01 3.582917451858520508e-01 1.970920324325561523e+00 6.987636089324951172e-01 8.329870104789733887e-01
2.581000000000000000e+03 4.970753097534179688e+01 2.694716644287109375e+01 7.286868691444396973e-01 2.757833003997802734e+00 1.045956015586853027e+00 -3.285540342330932617e-01
2.582000000000000000e+03 1.596207046508789062e+01 -1.204914283752441406e+01 -4.529039189219474792e-02 2.213008254766464233e-01 5.280312895774841309e-02 -1.917526591569185257e-03
2.583000000000000000e+03 5.600573062896728516e+00 -1.015780258178710938e+01 1.045227143913507462e-02 -1.224663183093070984e-01 -3.360421210527420044e-02 -3.966376185417175293e-02
2.584000000000000000e+03 6.294725036621093750e+01 -1.520130252838134766e+01 -2.481295585632324219e+00 7.260083675384521484e+00 1.433636426925659180e+00 8.280311226844787598e-01
2.585000000000000000e+03 6.414891815185546875e+01 -9.208010673522949219e+00 1.404560565948486328e+00 1.175367355346679688e+01 3.947470426559448242e+00 4.685446321964263916e-01
2.586000000000000000e+03 5.803054046630859375e+01 -2.660639572143554688e+01 -6.465221643447875977e-01 4.063469409942626953e+00 1.025084137916564941e+00 1.785152077674865723e+00
2.587000000000000000e+03 5.752241516113281250e+01 -2.404743385314941406e+01 6.041501164436340332e-01 3.724037885665893555e+00 1.298456430435180664e+00 1.938903093338012695e+00
2.588000000000000000e+03 6.150957489013671875e+01 -1.138319396972656250e+01 -6.581712365150451660e-01 7.316889286041259766e+00 1.997615456581115723e+00 2.237542390823364258e+00
2.589000000000000000e+03 4.933814239501953125e+01 -2.745952224731445312e+01 6.195030808448791504e-01 7.979363799095153809e-01 4.252318441867828369e-01 -5.550900101661682129e-01
2.590000000000000000e+03 5.028688812255859375e+01 -2.772500610351562500e+01 6.436535120010375977e-01 1.056371688842773438e+00 5.100075602531433105e-01 -2.291519343852996826e-01
2.591000000000000000e+03 7.155774688720703125e+01 6.934573650360107422e+00 -1.483966708183288574e+00 7.070347785949707031e+00 1.675914287567138672e+00 1.491342902183532715e+00
2.592000000000000000e+03 6.888660430908203125e+01 3.048731088638305664e+00 4.977766871452331543e-01 3.117779493331909180e+00 1.084666848182678223e+00 2.788941621780395508e+00
2.593000000000000000e+03 1.380205821990966797e+01 -2.508746337890625000e+01 4.236932843923568726e-02 -4.934768974781036377e-01 -1.353322714567184448e-01 -3.268710374832153320e-01
2.594000000000000000e+03 5.135515213012695312e+01 -7.699226379394531250e+00 -7.110103368759155273e-01 -4.041326344013214111e-01 -3.345429003238677979e-01 5.216701626777648926e-01
2.595000000000000000e+03 5.041619873046875000e+01 -5.717451095581054688e+00 -6.574797034263610840e-01 3.942270949482917786e-02 -1.854171007871627808e-01 7.801008820533752441e-01
2.596000000000000000e+03 5.355908203125000000e+01 -2.779796218872070312e+01 2.904562950134277344e-01 2.944101095199584961e+00 9.703672528266906738e-01 9.526780247688293457e-01
2.597000000000000000e+03 2.680922508239746094e+01 3.213614654541015625e+01 2.328263074159622192e-01 1.434632837772369385e-01 1.128868758678436279e-01 4.283056259155273438e-01
2.598000000000000000e+03 2.358249092102050781e+01 3.372117614746093750e+01 1.769536733627319336e-02 4.201358929276466370e-02 1.791268773376941681e-02 7.310075312852859497e-02
2.599000000000000000e+03 4.994864273071289062e+01 2.892038345336914062e+01 8.394307494163513184e-01 2.903383016586303711e+00 1.122844099998474121e+00 -4.649980366230010986e-01
2.600000000000000000e+03 4.540479278564453125e+01 3.527064132690429688e+01 3.865506947040557861e-01 1.541270375251770020e+00 5.783463120460510254e-01 -5.651327371597290039e-01
2.601000000000000000e+03 7.851932048797607422e+00 -2.446903038024902344e+01 3.266430273652076721e-02 2.668846957385540009e-02 1.780583150684833527e-02 -6.243051216006278992e-02
2.602000000000000000e+03 1.719865608215332031e+01 -2.335149765014648438e+01 -8.539653569459915161e-02 -2.151263505220413208e-01 -9.015686810016632080e-02 -3.824468255043029785e-01
2.603000000000000000e+03 5.686954879760742188e+01 -1.542151832580566406e+01 -3.564435243606567383e-01 2.257977962493896484e+00 5.704603195190429688e-01 8.742643594741821289e-01
2.604000000000000000e+03 5.807764434814453125e+01 -1.264540386199951172e+01 -7.192896008491516113e-01 2.160509347915649414e+00 4.323659539222717285e-01 2.069022655487060547e+00
2.605000000000000000e+03 6.618538665771484375e+01 -1.304545497894287109e+01 -1.220834016799926758e+00 5.631899833679199219e+00 1.323319792747497559e+00 -1.342579163610935211e-02
2.606000000000000000e+03 6.718384552001953125e+01 -1.414354991912841797e+01 -1.165273547172546387e+00 2.658563137054443359e+00 4.479868710041046143e-01 -8.609263300895690918e-01
2.607000000000000000e+03 6.219469833374023438e+01 -1.297699928283691406e+01 -1.818309426307678223e+00 7.329394817352294922e+00 1.653325557708740234e+00 1.800235390663146973e+00
2.608000000000000000e+03 7.589117431640625000e+01 4.045437622070312500e+01 2.550303703173995018e-03 6.840111255645751953e+00 2.052798509597778320e+00 1.002767607569694519e-01
2.609000000000000000e+03 3.139184951782226562e+00 3.090706253051757812e+01 5.241544544696807861e-02 -6.538057327270507812e-01 -1.804170906543731689e-01 2.463016510009765625e-01
2.610000000000000000e+03 3.235602188110351562e+01 2.963240242004394531e+01 1.601839065551757812e-01 3.153230622410774231e-02 5.751486495137214661e-02 6.483571976423263550e-02
2.611000000000000000e+03 2.777333641052246094e+01 -2.919716644287109375e+01 3.670861721038818359e-01 -6.985056400299072266e-02 8.917068690061569214e-02 -2.515055239200592041e-01
2.612000000000000000e+03 5.997459030151367188e+01 6.778969287872314453e+00 -1.965359210968017578e+00 6.113193511962890625e+00 1.244350194931030273e+00 -1.603009223937988281e+00
2.613000000000000000e+03 3.595870971679687500e+01 -1.352870464324951172e+01 -5.475866198539733887e-01 4.913087189197540283e-01 -1.688336767256259918e-02 -2.051394134759902954e-01
2.614000000000000000e+03 4.207299804687500000e+01 -2.315703582763671875e+01 2.707561254501342773e-01 6.758163571357727051e-01 2.839717566967010498e-01 -6.147928070276975632e-03
2.615000000000000000e+03 2.074521255493164062e+01 3.337226104736328125e+01 -9.632897563278675079e-03 -2.592868804931640625e-01 -8.067592978477478027e-02 1.241837162524461746e-02
2.616000000000000000e+03 1.929628753662109375e+01 3.399883270263671875e+01 2.628665603697299957e-02 -3.045795261859893799e-01 -8.348786085844039917e-02 7.519875466823577881e-02
2.617000000000000000e+03 5.084846878051757812e+01 2.944661903381347656e+01 8.664545416831970215e-01 3.300467252731323242e+00 1.250076532363891602e+00 -3.647254109382629395e-01
2.618000000000000000e+03 5.064628982543945312e+01 3.123199653625488281e+01 6.784808039665222168e-01 3.107379913330078125e+00 1.135758280754089355e+00 -4.370290637016296387e-01
2.619000000000000000e+03 5.090640640258789062e+01 3.654526901245117188e+01 -1.139018461108207703e-01 2.479915618896484375e+00 7.098041176795959473e-01 -2.291269451379776001e-01
2.620000000000000000e+03 5.253401184082031250e+01 3.606256866455078125e+01 -1.760228872299194336e-01 2.600099563598632812e+00 7.272230386734008789e-01 1.489599645137786865e-01
2.621000000000000000e+03 1.377728748321533203e+01 -7.498756408691406250e+00 7.125365547835826874e-03 5.993692576885223389e-02 2.011868730187416077e-02 -5.840191245079040527e-02
2.622000000000000000e+03 1.499195957183837891e+01 -6.828612804412841797e+00 1.477312389761209488e-02 1.366848945617675781e-01 4.543740674853324890e-02 -4.174392670392990112e-03
2.623000000000000000e+03 7.224501037597656250e+01 2.077088737487792969e+01 -1.558914542198181152e+00 6.350841999053955078e+00 1.437578320503234863e+00 -6.317622065544128418e-01
2.624000000000000000e+03 5.526042938232421875e+01 1.713364410400390625e+01 1.243943214416503906e+00 3.265797138214111328e+00 1.352922081947326660e+00 -1.703008413314819336e+00
2.625000000000000000e+03 5.672184753417968750e+01 1.764504432678222656e+01 1.086544513702392578e+00 3.533096790313720703e+00 1.385892391204833984e+00 -1.339225649833679199e+00
2.626000000000000000e+03 5.733781433105468750e+01 7.973018646240234375e+00 -4.452286362648010254e-01 4.700478553771972656e+00 1.276574969291687012e+00 -5.924769639968872070e-01
2.627000000000000000e+03 2.500606918334960938e+01 -2.687657737731933594e+01 4.760182201862335205e-01 -9.099560230970382690e-02 1.155067831277847290e-01 -2.157393246889114380e-01
2.628000000000000000e+03 6.826464080810546875e+01 3.861647796630859375e+01 -2.703256031963974237e-04 4.339927673339843750e+00 1.301897168159484863e+00 -3.489648550748825073e-02
2.629000000000000000e+03 6.270914077758789062e+01 4.112311553955078125e+01 3.059505224227905273e-01 2.062109708786010742e+00 7.104181051254272461e-01 -1.683375239372253418e-01
2.630000000000000000e+03 7.588545989990234375e+01 -4.678242683410644531e+00 9.843186736106872559e-01 1.052763652801513672e+01 3.453586578369140625e+00 -6.356263160705566406e-01
2.631000000000000000e+03 7.644287872314453125e+01 -5.687606334686279297e+00 1.357560753822326660e+00 1.021539878845214844e+01 3.471888065338134766e+00 -7.336840033531188965e-01
2.632000000000000000e+03 1.240118122100830078e+01 -9.068709373474121094e+00 -1.258098799735307693e-02 2.720938622951507568e-02 4.388519562780857086e-03 -7.772213220596313477e-02
2.633000000000000000e+03 3.839846420288085938e+01 1.886909294128417969e+01 3.592344224452972412e-01 -2.046871930360794067e-01 4.636417329311370850e-02 1.893582195043563843e-01
2.634000000000000000e+03 3.719669723510742188e+01 1.998614501953125000e+01 2.967708408832550049e-01 -1.979602873325347900e-01 2.964316681027412415e-02 2.100707292556762695e-01
2.635000000000000000e+03 6.778337860107421875e+01 2.906443405151367188e+01 9.498038291931152344e-01 3.846741199493408203e+00 1.438963532447814941e+00 1.685458719730377197e-01
2.636000000000000000e+03 6.965921020507812500e+01 3.140631484985351562e+01 5.815709233283996582e-01 4.566275596618652344e+00 1.544354081153869629e+00 5.982076004147529602e-02
2.637000000000000000e+03 6.822270202636718750e+01 -3.020559310913085938e+01 1.532340764999389648e+00 3.899602413177490234e+00 1.629583001136779785e+00 -1.142768502235412598e+00
2.638000000000000000e+03 1.370681476593017578e+01 -3.644403696060180664e+00 2.497105859220027924e-02 4.605477303266525269e-02 2.130774967372417450e-02 -5.973210930824279785e-02
2.639000000000000000e+03 6.412178039550781250e+01 -1.222940158843994141e+01 -1.216630220413208008e+00 8.165793418884277344e+00 2.084748744964599609e+00 6.626062393188476562e-01
2.640000000000000000e+03 5.619800567626953125e+00 -1.276430416107177734e+01 -5.076389387249946594e-02 -2.021381258964538574e-01 -7.587060332298278809e-02 -6.349698454141616821e-02
2.641000000000000000e+03 5.210808277130126953e+00 -1.170338153839111328e+01 -1.434032805263996124e-02 -1.450881659984588623e-01 -4.782854765653610229e-02 -3.498513624072074890e-02
2.642000000000000000e+03 3.498692321777343750e+01 1.523786735534667969e+01 1.997635960578918457e-01 -3.283038735389709473e-01 -3.856207802891731262e-02 2.944777607917785645e-01
2.643000000000000000e+03 4.159761428833007812e+01 -1.834513092041015625e+01 3.465506136417388916e-01 2.499378621578216553e-01 1.789465397596359253e-01 -3.778115212917327881e-01
2.644000000000000000e+03 4.282575988769531250e+01 6.267210960388183594e+00 -4.383276402950286865e-01 -5.876409262418746948e-02 -1.491275131702423096e-01 3.815728724002838135e-01
2.645000000000000000e+03 2.743728065490722656e+01 -1.782427215576171875e+01 -1.976109743118286133e-01 -3.481231927871704102e-01 -1.637202501296997070e-01 -2.165326029062271118e-01
2.646000000000000000e+03 2.786487388610839844e+01 -1.663059806823730469e+01 -3.076191842555999756e-01 -3.846579194068908691e-01 -2.076831310987472534e-01 -2.078432142734527588e-01
2.647000000000000000e+03 1.736556625366210938e+01 2.100950241088867188e+01 9.878627955913543701e-02 9.815120697021484375e-02 5.908124521374702454e-02 2.288344949483871460e-01
2.648000000000000000e+03 5.906315803527832031e+00 2.235841369628906250e+01 -7.467293739318847656e-02 -4.787757098674774170e-01 -1.660345941781997681e-01 8.188943564891815186e-02
2.649000000000000000e+03 7.532935333251953125e+01 -1.016519737243652344e+01 -6.859075427055358887e-01 8.609346389770507812e+00 2.377031564712524414e+00 7.022625207901000977e-02
2.650000000000000000e+03 1.617097663879394531e+01 4.098602676391601562e+01 1.552185267210006714e-01 -1.194036230444908142e-01 1.074446830898523331e-02 4.242918640375137329e-02
2.651000000000000000e+03 2.840939521789550781e+01 -2.693806076049804688e+01 4.301339685916900635e-01 -3.567608771845698357e-03 1.279699057340621948e-01 -2.486510872840881348e-01
2.652000000000000000e+03 7.957705497741699219e+00 -3.177915382385253906e+01 -1.323919892311096191e-01 -2.329687029123306274e-01 -1.096082031726837158e-01 -1.916061043739318848e-01
2.653000000000000000e+03 6.056800842285156250e+01 -2.138470458984375000e+01 1.938277602195739746e+00 3.686474800109863281e+00 1.687425732612609863e+00 9.415761828422546387e-01
2.654000000000000000e+03 6.233185958862304688e+01 -1.904677963256835938e+01 7.525998353958129883e-01 5.733119964599609375e+00 1.945715904235839844e+00 -2.794312536716461182e-01
2.655000000000000000e+03 1.225484657287597656e+01 -2.598924446105957031e+01 -1.298512425273656845e-02 -3.791703581809997559e-01 -1.176466420292854309e-01 -2.817708849906921387e-01
2.656000000000000000e+03 1.016921520233154297e+01 -2.560976600646972656e+01 -3.190700709819793701e-02 -1.532842367887496948e-01 -5.555737018585205078e-02 -2.226546555757522583e-01
2.657000000000000000e+03 5.247595214843750000e+01 2.104426574707031250e+01 -5.205613374710083008e-01 3.221894979476928711e+00 8.104001283645629883e-01 -1.529253602027893066e+00
2.658000000000000000e+03 2.292005729675292969e+01 -1.931677246093750000e+01 -1.909425556659698486e-01 -1.226362362504005432e-01 -9.407363831996917725e-02 -4.092806875705718994e-01
2.659000000000000000e+03 5.293395233154296875e+01 -1.139866542816162109e+01 -4.461932778358459473e-01 -3.459140956401824951e-01 -2.376322150230407715e-01 -1.876213252544403076e-01
2.660000000000000000e+03 5.145232772827148438e+01 -1.003240108489990234e+01 -5.407580137252807617e-01 -2.316250503063201904e-01 -2.317149192094802856e-01 9.865194559097290039e-02
2.661000000000000000e+03 6.758767700195312500e+01 2.098364353179931641e+00 1.081208586692810059e+00 3.285289287567138672e+00 1.309949398040771484e+00 2.614811182022094727e+00
2.662000000000000000e+03 6.719791412353515625e+01 -3.151295089721679688e+01 1.896412849426269531e+00 5.529134273529052734e+00 2.227663993835449219e+00 -1.919637560844421387e+00
2.663000000000000000e+03 6.839253234863281250e+01 -3.129763793945312500e+01 1.728142738342285156e+00 4.073977947235107422e+00 1.740636110305786133e+00 -8.064044713973999023e-01
2.664000000000000000e+03 5.282682037353515625e+01 2.436294937133789062e+01 -3.260608017444610596e-01 3.864430427551269531e+00 1.061510920524597168e+00 -6.511873602867126465e-01
2.665000000000000000e+03 4.878678894042968750e+01 2.880067062377929688e+01 7.239241003990173340e-01 2.491686105728149414e+00 9.646830558776855469e-01 -4.538627564907073975e-01
2.666000000000000000e+03 4.220080947875976562e+01 1.547051906585693359e+01 1.067758351564407349e-01 3.683503866195678711e-01 1.425378769636154175e-01 -1.688956916332244873e-01
2.667000000000000000e+03 5.801293945312500000e+01 1.329813194274902344e+01 1.691059350967407227e+00 5.462203502655029297e+00 2.145978927612304688e+00 -1.095485329627990723e+00
2.668000000000000000e+03 5.730724716186523438e+01 1.104303836822509766e+01 1.206474661827087402e+00 5.040765762329101562e+00 1.874172091484069824e+00 -6.877176761627197266e-01
2.669000000000000000e+03 2.317796516418457031e+01 1.108592796325683594e+01 1.811586767435073853e-01 -1.584805697202682495e-01 6.803430151194334030e-03 1.069613993167877197e-01
2.670000000000000000e+03 2.244275283813476562e+01 9.974397659301757812e+00 2.494401484727859497e-01 -1.853207945823669434e-01 1.923580653965473175e-02 1.468202769756317139e-01
2.671000000000000000e+03 1.122905254364013672e+01 -3.013788795471191406e+01 -2.149601876735687256e-01 -3.501781523227691650e-01 -1.695415079593658447e-01 -2.138410955667495728e-01
2.672000000000000000e+03 2.620204353332519531e+01 -2.117268180847167969e+01 8.068944327533245087e-03 -1.539252549409866333e-01 -4.375689476728439331e-02 -1.903378367424011230e-01
2.673000000000000000e+03 1.910489845275878906e+01 2.134690856933593750e+01 1.184239909052848816e-01 3.570737689733505249e-02 4.623940959572792053e-02 8.164265006780624390e-02
2.674000000000000000e+03 2.587911224365234375e+01 9.835037231445312500e+00 3.032968044281005859e-01 5.175036936998367310e-02 1.065141484141349792e-01 1.202875301241874695e-01
2.675000000000000000e+03 6.443775939941406250e+01 -1.519228076934814453e+01 -3.160680294036865234e+00 7.011064529418945312e+00 1.155115246772766113e+00 1.057163715362548828e+00
2.676000000000000000e+03 6.534261322021484375e+01 -1.358941841125488281e+01 -1.838680386543273926e+00 6.556916713714599609e+00 1.415470957756042480e+00 2.401326447725296021e-01
2.677000000000000000e+03 5.567359542846679688e+01 -1.573304748535156250e+01 -2.094606906175613403e-01 1.357930898666381836e+00 3.445410728454589844e-01 3.373720049858093262e-01
2.678000000000000000e+03 7.297270774841308594e+00 1.249073791503906250e+01 -2.656655386090278625e-02 -1.762827932834625244e-01 -6.085480377078056335e-02 3.472183644771575928e-01
2.679000000000000000e+03 5.331227779388427734e+00 1.545704364776611328e+01 1.739121675491333008e-01 -2.792678177356719971e-01 -3.160669654607772827e-02 2.168983519077301025e-01
2.680000000000000000e+03 3.554329681396484375e+01 1.391132354736328125e+01 -1.427763402462005615e-01 -5.191037058830261230e-01 -1.985640078783035278e-01 3.698292970657348633e-01
2.681000000000000000e+03 3.835980224609375000e+01 1.420668601989746094e+01 -5.144894123077392578e-02 -5.773450732231140137e-01 -1.886382102966308594e-01 1.161854863166809082e-01
2.682000000000000000e+03 2.985109138488769531e+01 -1.355648803710937500e+01 -6.775135993957519531e-01 -4.577704370021820068e-01 -3.405852019786834717e-01 -1.883291602134704590e-01
2.683000000000000000e+03 2.338664817810058594e+01 1.244527530670166016e+01 3.232922777533531189e-02 -1.295625716447830200e-01 -2.917000278830528259e-02 6.925389170646667480e-02
2.684000000000000000e+03 5.857987213134765625e+01 -2.079716873168945312e+01 1.435022115707397461e+00 3.273916482925415039e+00 1.412681579589843750e+00 1.522777915000915527e+00
2.685000000000000000e+03 5.959086990356445312e+01 -2.125713920593261719e+01 1.648500084877014160e+00 3.184113740921020508e+00 1.449784159660339355e+00 1.184195160865783691e+00
2.686000000000000000e+03 3.493986892700195312e+01 2.053883934020996094e+01 1.377181112766265869e-01 1.768520660698413849e-02 4.662099480628967285e-02 3.362001776695251465e-01
2.687000000000000000e+03 6.906465148925781250e+01 4.891310214996337891e+00 -9.787679314613342285e-01 3.061416149139404297e+00 6.247944235801696777e-01 2.865906238555908203e+00
2.688000000000000000e+03 4.377811813354492188e+01 -2.449130249023437500e+01 3.027284443378448486e-01 7.428969144821166992e-01 3.136875927448272705e-01 3.652360662817955017e-02
2.689000000000000000e+03 5.700930404663085938e+01 -1.662450218200683594e+01 -2.800045609474182129e-01 2.565573692321777344e+00 6.856707334518432617e-01 8.090663552284240723e-01
2.690000000000000000e+03 4.235413360595703125e+01 3.809694290161132812e+01 4.279502928256988525e-01 9.867488145828247070e-01 4.244097173213958740e-01 -2.714856863021850586e-01
2.691000000000000000e+03 5.347928237915039062e+01 -3.216505050659179688e+01 1.465152025222778320e+00 3.889119625091552734e+00 1.606281399726867676e+00 1.020674228668212891e+00
2.692000000000000000e+03 5.234917449951171875e+01 -2.986125564575195312e+01 1.044881463050842285e+00 2.696092367172241211e+00 1.122292160987854004e+00 5.447807908058166504e-01
2.693000000000000000e+03 1.702261543273925781e+01 -2.463718032836914062e+01 1.228460669517517090e-01 -2.599474787712097168e-01 -4.113042354583740234e-02 -3.619084358215332031e-01
2.694000000000000000e+03 1.825091171264648438e+01 -2.362050819396972656e+01 -1.511281263083219528e-02 -7.053126394748687744e-02 -2.569322288036346436e-02 -3.913152515888214111e-01
2.695000000000000000e+03 3.502025604248046875e+01 2.456834220886230469e+01 -2.059099227190017700e-01 2.766616344451904297e-01 2.122551389038562775e-02 1.530165225267410278e-01
2.696000000000000000e+03 5.593604660034179688e+01 -3.922557067871093750e+01 -8.120194077491760254e-01 2.899885654449462891e+00 6.263598799705505371e-01 -2.964959740638732910e-01
2.697000000000000000e+03 5.218859100341796875e+01 -2.809140396118164062e+01 6.156377792358398438e-01 2.080503940582275391e+00 8.088425397872924805e-01 3.542930781841278076e-01
2.698000000000000000e+03 7.449766540527343750e+01 1.901398468017578125e+01 -1.102445721626281738e+00 7.849411964416503906e+00 2.024089813232421875e+00 4.291496872901916504e-01
2.699000000000000000e+03 4.193270111083984375e+01 1.815424156188964844e+01 1.083244606852531433e-01 3.488763272762298584e-01 1.371602416038513184e-01 5.249845236539840698e-02
2.700000000000000000e+03 4.269378662109375000e+01 1.447043418884277344e+01 9.670834988355636597e-02 5.086880326271057129e-01 1.816189289093017578e-01 -2.153239697217941284e-01
2.701000000000000000e+03 1.895509719848632812e+01 -2.510172271728515625e+01 1.982546746730804443e-01 9.029991924762725830e-02 8.656638115644454956e-02 -3.381147086620330811e-01
2.702000000000000000e+03 1.944083786010742188e+01 -2.324186325073242188e+01 -2.213231474161148071e-02 6.297617405652999878e-02 1.225315872579813004e-02 -3.744276762008666992e-01
2.703000000000000000e+03 2.969537353515625000e+01 -3.422991180419921875e+01 1.923673748970031738e-01 8.881354331970214844e-02 8.435427397489547729e-02 -7.707943767309188843e-02
2.704000000000000000e+03 4.876294326782226562e+01 3.406872177124023438e+01 3.613092899322509766e-01 2.318191766738891602e+00 8.038502931594848633e-01 -5.832768678665161133e-01
2.705000000000000000e+03 4.477494049072265625e+01 -1.562289524078369141e+01 -4.385029375553131104e-01 2.753314375877380371e-01 -4.895144701004028320e-02 3.238041326403617859e-02
2.706000000000000000e+03 4.294719696044921875e+01 -1.625039863586425781e+01 -1.686294078826904297e-01 -2.878384292125701904e-02 -5.922397226095199585e-02 -2.440534681081771851e-01
2.707000000000000000e+03 1.332011604309082031e+01 2.048522758483886719e+01 3.939731791615486145e-02 2.272979468107223511e-01 8.000858128070831299e-02 5.303997993469238281e-01
2.708000000000000000e+03 5.929969406127929688e+01 1.858272933959960938e+01 4.892199635505676270e-01 4.354790210723876953e+00 1.453202962875366211e+00 1.686486601829528809e-01
2.709000000000000000e+03 5.947647094726562500e+01 1.980093002319335938e+01 -2.388066500425338745e-01 3.431252241134643555e+00 9.577336907386779785e-01 2.964170575141906738e-01
2.710000000000000000e+03 6.504503250122070312e+00 1.774048042297363281e+01 2.290329486131668091e-01 -2.914070487022399902e-01 -1.871222630143165588e-02 1.204130724072456360e-01
2.711000000000000000e+03 8.230303764343261719e+00 1.757678222656250000e+01 3.066394031047821045e-01 -1.286163926124572754e-01 5.340690165758132935e-02 1.629270017147064209e-01
2.712000000000000000e+03 3.174082756042480469e+01 4.111251831054687500e+01 4.243359565734863281e-01 1.675609797239303589e-01 1.775690764188766479e-01 2.877316251397132874e-02
2.713000000000000000e+03 1.947074508666992188e+01 -1.529597759246826172e+01 -3.115005195140838623e-01 3.160247206687927246e-02 -8.396941423416137695e-02 -2.901320159435272217e-01
2.714000000000000000e+03 1.914422607421875000e+01 -1.800767707824707031e+01 -2.224038690328598022e-01 -2.881947532296180725e-02 -7.536700367927551270e-02 -5.178317427635192871e-01
2.715000000000000000e+03 9.232159614562988281e+00 -3.138129997253417969e+01 -1.752621829509735107e-01 -2.584661245346069336e-01 -1.301184892654418945e-01 -2.105347812175750732e-01
2.716000000000000000e+03 4.072977828979492188e+01 1.117983722686767578e+01 -2.308924198150634766e-01 -3.667796552181243896e-01 -1.793016344308853149e-01 1.391665786504745483e-01
2.717000000000000000e+03 7.436232089996337891e+00 1.835961532592773438e+01 2.403626888990402222e-01 -2.296450734138488770e-01 3.215280827134847641e-03 1.173455864191055298e-01
2.718000000000000000e+03 3.963503265380859375e+01 1.312083244323730469e+01 -1.207452043890953064e-01 -4.805566072463989258e-01 -1.803905367851257324e-01 5.664711818099021912e-02
2.719000000000000000e+03 3.963581848144531250e+01 1.429296302795410156e+01 6.819020956754684448e-02 -3.753894567489624023e-01 -9.215977787971496582e-02 -3.565258160233497620e-02
2.720000000000000000e+03 6.129510879516601562e+01 -1.477786540985107422e+00 3.538386821746826172e+00 5.122269630432128906e+00 2.598196983337402344e+00 -4.963084697723388672e+00
2.721000000000000000e+03 6.046328735351562500e+01 -1.293610185384750366e-01 1.694133996963500977e+00 4.387573719024658203e+00 1.824512362480163574e+00 -3.480010747909545898e+00
2.722000000000000000e+03 5.990442276000976562e+01 -9.440615773200988770e-01 2.555746078491210938e+00 2.661218643188476562e+00 1.565089344978332520e+00 -2.684973716735839844e+00
2.723000000000000000e+03 6.012488555908203125e+01 -1.523170113563537598e+00 2.873823165893554688e+00 2.022262334823608398e+00 1.468825697898864746e+00 -2.846877098083496094e+00
2.724000000000000000e+03 5.991293334960937500e+01 1.103439927101135254e+00 1.060684844851493835e-01 4.384727478027343750e+00 1.347238779067993164e+00 -3.034566164016723633e+00
2.725000000000000000e+03 6.207990264892578125e+01 -8.655428290367126465e-01 1.300090789794921875e+00 1.008667469024658203e+01 3.416029691696166992e+00 -4.303456783294677734e+00
2.726000000000000000e+03 6.469812774658203125e+01 -1.124611869454383850e-01 1.098160266876220703e+00 8.805447578430175781e+00 2.971082448959350586e+00 1.700105428695678711e+00
2.727000000000000000e+03 6.407611083984375000e+01 2.825595438480377197e-01 5.670462250709533691e-01 9.068985939025878906e+00 2.890809535980224609e+00 5.359449982643127441e-01
2.728000000000000000e+03 9.805315971374511719e+00 3.975327730178833008e+00 -1.598858535289764404e-01 -1.059178113937377930e-01 -7.974109798669815063e-02 5.732377991080284119e-02
2.729000000000000000e+03 1.067562294006347656e+01 6.410016059875488281e+00 -4.146327078342437744e-01 -2.434666305780410767e-01 -1.974297910928726196e-01 1.755094230175018311e-01
2.730000000000000000e+03 6.083438873291015625e+01 -8.352465033531188965e-01 2.625577926635742188e+00 4.497282505035400391e+00 2.136858224868774414e+00 -4.151161670684814453e+00
2.731000000000000000e+03 9.222719192504882812e+00 -1.054282188415527344e+01 -1.151012163609266281e-02 -8.663391321897506714e-02 -2.944320999085903168e-02 -1.009708568453788757e-01
2.732000000000000000e+03 8.059329032897949219e+00 -5.350465774536132812e+00 -8.798806811682879925e-04 -2.454627491533756256e-02 -7.627846673130989075e-03 -8.081420511007308960e-02
2.733000000000000000e+03 3.692467689514160156e+00 -6.427569389343261719e+00 1.119217369705438614e-02 -5.100344493985176086e-02 -1.194338127970695496e-02 -1.415698882192373276e-02
2.734000000000000000e+03 7.493894577026367188e+00 -4.973034858703613281e+00 1.649723574519157410e-02 -7.326676696538925171e-02 -1.703085936605930328e-02 -6.597649306058883667e-02
2.735000000000000000e+03 6.786488056182861328e+00 -4.173015117645263672e+00 -1.623634947463870049e-03 -3.546133264899253845e-02 -1.112549100071191788e-02 -5.217418819665908813e-02
2.736000000000000000e+03 5.815486431121826172e+00 -5.721037864685058594e+00 -8.154072565957903862e-04 -6.929037719964981079e-02 -2.103173546493053436e-02 -5.749539658427238464e-02
2.737000000000000000e+03 4.308144092559814453e+00 4.486884117126464844e+00 -6.064957380294799805e-02 -5.155614577233791351e-03 -1.974155753850936890e-02 -2.448480762541294098e-02
2.738000000000000000e+03 4.929506778717041016e+00 4.232979774475097656e+00 -5.975605547428131104e-02 -1.019675657153129578e-02 -2.098584361374378204e-02 -2.881117351353168488e-02
2.739000000000000000e+03 6.175693988800048828e+00 4.282261848449707031e+00 -9.002725034952163696e-02 -3.285222500562667847e-02 -3.686384111642837524e-02 -1.344936527311801910e-02
2.740000000000000000e+03 4.807489871978759766e+00 5.837211132049560547e+00 -1.125751212239265442e-01 -2.080349624156951904e-02 -4.001358523964881897e-02 1.895283162593841553e-02
2.741000000000000000e+03 8.090450286865234375e+00 5.620750904083251953e+00 -2.161395549774169922e-01 -9.702345728874206543e-02 -9.394890815019607544e-02 5.008528009057044983e-02
2.742000000000000000e+03 8.471649169921875000e+00 4.203567981719970703e+00 -1.442846357822418213e-01 -7.560822367668151855e-02 -6.596785783767700195e-02 2.030752226710319519e-02
2.743000000000000000e+03 9.226286888122558594e+00 5.035700798034667969e+00 -2.286695092916488647e-01 -1.174694597721099854e-01 -1.038416922092437744e-01 6.685287505388259888e-02
2.744000000000000000e+03 9.977035522460937500e+00 4.972672939300537109e+00 -2.358773648738861084e-01 -1.526731252670288086e-01 -1.165651455521583557e-01 8.773418515920639038e-02
2.745000000000000000e+03 2.703132820129394531e+01 4.616570472717285156e+00 -1.348222792148590088e-01 2.603254616260528564e-01 3.765095397830009460e-02 2.193016260862350464e-01
2.746000000000000000e+03 2.350216865539550781e+01 6.757749557495117188e+00 1.682130098342895508e-01 -1.959797292947769165e-01 -8.330018259584903717e-03 1.646121889352798462e-01
2.747000000000000000e+03 2.520609664916992188e+01 5.509728908538818359e+00 3.929756581783294678e-03 -1.989723183214664459e-02 -4.790242295712232590e-03 2.135139256715774536e-01
2.748000000000000000e+03 2.380724334716796875e+01 4.931294441223144531e+00 -1.669693440198898315e-01 -1.335938125848770142e-01 -9.016894549131393433e-02 2.050962150096893311e-01
2.749000000000000000e+03 2.195047187805175781e+01 5.813639163970947266e+00 -1.873375661671161652e-02 -1.634454727172851562e-01 -5.465376749634742737e-02 1.423591673374176025e-01
2.750000000000000000e+03 2.268794059753417969e+01 6.778683662414550781e+00 1.692352294921875000e-01 -1.886419504880905151e-01 -5.822017323225736618e-03 1.427450925111770630e-01
2.751000000000000000e+03 1.183396911621093750e+01 -3.970089435577392578e+00 -1.699791848659515381e-02 2.265108004212379456e-02 1.695948303677141666e-03 -9.104036539793014526e-02
2.752000000000000000e+03 1.274116611480712891e+01 -3.864491939544677734e+00 -2.749036252498626709e-02 -8.484414219856262207e-02 -3.370035067200660706e-02 -1.016876623034477234e-01
2.753000000000000000e+03 4.580883026123046875e+01 2.833138942718505859e+00 -1.035622358322143555e+00 1.978117376565933228e-01 -2.513431906700134277e-01 1.585674732923507690e-01
2.754000000000000000e+03 4.627598571777343750e+01 3.195560693740844727e+00 -1.014032006263732910e+00 2.491097152233123779e-01 -2.294767051935195923e-01 1.539394110441207886e-01
2.755000000000000000e+03 3.448950958251953125e+01 -4.444738864898681641e+00 -3.231773674488067627e-01 2.116726338863372803e-01 -3.345142304897308350e-02 -4.049237668514251709e-01
2.756000000000000000e+03 4.751749420166015625e+01 3.756424665451049805e+00 -8.646954894065856934e-01 2.377340644598007202e-01 -1.880884319543838501e-01 1.147358044981956482e-01
2.757000000000000000e+03 4.703091812133789062e+01 5.112378120422363281e+00 -6.019735336303710938e-01 2.962605059146881104e-01 -9.171391278505325317e-02 5.029213801026344299e-02
2.758000000000000000e+03 4.935203170776367188e+01 5.058951854705810547e+00 -4.331797659397125244e-01 6.478849798440933228e-02 -1.105173751711845398e-01 6.094083655625581741e-03
2.759000000000000000e+03 3.446464157104492188e+01 -5.978534698486328125e+00 -1.351998895406723022e-01 2.084393054246902466e-01 2.197182737290859222e-02 -5.529648661613464355e-01
2.760000000000000000e+03 5.945447921752929688e+01 2.224476814270019531e+00 -7.950769066810607910e-01 4.335799217224121094e+00 1.062216639518737793e+00 -2.858040571212768555e+00
2.761000000000000000e+03 5.778983688354492188e+01 5.975832939147949219e+00 -1.198043823242187500e+00 4.379320144653320312e+00 9.543828368186950684e-01 -1.269144177436828613e+00
2.762000000000000000e+03 4.818272018432617188e+01 4.074656486511230469e+00 -7.501477003097534180e-01 1.912604719400405884e-01 -1.676661819219589233e-01 8.459576964378356934e-02
2.763000000000000000e+03 4.329803085327148438e+01 4.963192939758300781e+00 -5.953078269958496094e-01 -1.031484678387641907e-01 -2.095368802547454834e-01 2.168703228235244751e-01
2.764000000000000000e+03 1.191072750091552734e+01 -4.829651355743408203e+00 9.987440891563892365e-03 -7.340386509895324707e-02 -1.902492716908454895e-02 -1.118593811988830566e-01
2.765000000000000000e+03 6.496383666992187500e+01 1.269502878189086914e+00 2.858413457870483398e-01 6.631386280059814453e+00 2.075168371200561523e+00 1.004896163940429688e+00
2.766000000000000000e+03 1.548302555084228516e+01 -3.571097850799560547e+00 -1.047651376575231552e-02 3.581632673740386963e-02 7.601944264024496078e-03 1.801919937133789062e-02
2.767000000000000000e+03 6.039904785156250000e+01 1.121784806251525879e+00 1.290017068386077881e-01 4.996015071868896484e+00 1.537505030632019043e+00 -3.202048301696777344e+00
2.768000000000000000e+03 6.041658020019531250e+01 -7.805225253105163574e-01 2.559748172760009766e+00 3.594798326492309570e+00 1.846363902091979980e+00 -3.528171539306640625e+00
2.769000000000000000e+03 5.696900177001953125e+01 1.995610618591308594e+01 -1.451178789138793945e-01 2.643437147140502930e+00 7.494958043098449707e-01 -1.316464185714721680e+00
2.770000000000000000e+03 8.430354118347167969e+00 -6.057731628417968750e+00 1.159342657774686813e-02 -1.111281514167785645e-01 -2.986041642725467682e-02 -9.764847904443740845e-02
2.771000000000000000e+03 3.272042083740234375e+01 -7.904080390930175781e+00 -1.231483146548271179e-01 -3.340273797512054443e-01 -1.371527165174484253e-01 -5.095984935760498047e-01
2.772000000000000000e+03 3.154265403747558594e+01 -9.881839752197265625e+00 -3.816575407981872559e-01 -4.798744320869445801e-01 -2.584595978260040283e-01 -2.500103414058685303e-01
2.773000000000000000e+03 2.360341262817382812e+01 7.552026271820068359e+00 2.475486248731613159e-01 -1.849923133850097656e-01 1.876689493656158447e-02 1.609642207622528076e-01
2.774000000000000000e+03 7.760444164276123047e+00 6.674449920654296875e+00 -2.672106623649597168e-01 -1.174442917108535767e-01 -1.153964921832084656e-01 1.009760648012161255e-01
2.775000000000000000e+03 5.687936401367187500e+01 7.156946182250976562e+00 -5.605211257934570312e-01 3.830704689025878906e+00 9.810550808906555176e-01 -5.881041288375854492e-01
2.776000000000000000e+03 5.673716354370117188e+01 6.192308425903320312e+00 -7.369391322135925293e-01 3.467697381973266602e+00 8.192275166511535645e-01 -8.279565572738647461e-01
2.777000000000000000e+03 4.181192016601562500e+01 -1.935821723937988281e+01 4.354008436203002930e-01 2.893592417240142822e-01 2.174280285835266113e-01 -2.844333052635192871e-01
2.778000000000000000e+03 3.224975967407226562e+01 -7.000414848327636719e+00 -1.390464324504137039e-02 -3.929151892662048340e-01 -1.220459491014480591e-01 -5.127429366111755371e-01
2.779000000000000000e+03 4.316292953491210938e+01 8.052087783813476562e+00 -2.789256572723388672e-01 2.345454841852188110e-01 -1.331405341625213623e-02 3.230184912681579590e-01
2.780000000000000000e+03 4.373664093017578125e+01 -1.580468368530273438e+01 -4.260861277580261230e-01 5.024289712309837341e-02 -1.127529740333557129e-01 -9.651478379964828491e-02
2.781000000000000000e+03 2.126663780212402344e+01 -1.735383415222167969e+01 -3.132447302341461182e-01 -9.161292016506195068e-02 -1.214572936296463013e-01 -4.791339635848999023e-01
2.782000000000000000e+03 1.991341400146484375e+01 -1.874739837646484375e+01 -2.730681896209716797e-01 -1.353606116026639938e-02 -8.598127216100692749e-02 -5.263935923576354980e-01
2.783000000000000000e+03 6.982957458496093750e+01 2.484720802307128906e+01 7.938224077224731445e-02 3.677735567092895508e+00 1.127135396003723145e+00 -1.021745681762695312e+00
2.784000000000000000e+03 6.664626312255859375e+01 -5.250294208526611328e-01 3.818509817123413086e+00 4.755220890045166016e+00 2.572119235992431641e+00 3.123654365539550781e+00
2.785000000000000000e+03 6.571521759033203125e+01 2.508738327026367188e+01 9.238171577453613281e-01 2.945299386978149414e+00 1.160735011100769043e+00 3.337844312191009521e-01
2.786000000000000000e+03 6.812284851074218750e+01 2.243663978576660156e+01 -1.133952140808105469e+00 1.708088517189025879e+00 1.722409129142761230e-01 -1.096832513809204102e+00
2.787000000000000000e+03 6.822740173339843750e+01 3.093042373657226562e+01 6.730109453201293945e-01 4.273228168487548828e+00 1.483871698379516602e+00 1.795760542154312134e-01
2.788000000000000000e+03 1.042458248138427734e+01 3.369230985641479492e+00 -1.165866479277610779e-01 -8.258970826864242554e-02 -5.975290760397911072e-02 7.153697311878204346e-02
2.789000000000000000e+03 1.114813232421875000e+01 4.360642433166503906e+00 -2.269401103258132935e-01 -1.510089188814163208e-01 -1.133847087621688843e-01 1.480503678321838379e-01
2.790000000000000000e+03 5.815885925292968750e+01 -2.179578208923339844e+01 1.467406153678894043e+00 3.038264989852905273e+00 1.351701378822326660e+00 1.720344543457031250e+00
2.791000000000000000e+03 6.171777725219726562e+01 -2.146191406250000000e+01 1.987060070037841797e+00 4.423005580902099609e+00 1.923019766807556152e+00 1.015507131814956665e-01
2.792000000000000000e+03 6.158456420898437500e+01 -2.269990348815917969e+01 2.312434434890747070e+00 3.457821130752563477e+00 1.731076598167419434e+00 6.178986430168151855e-01
2.793000000000000000e+03 3.435536956787109375e+01 -1.157485294342041016e+01 -2.437889575958251953e-01 1.639269143342971802e-01 -2.395861037075519562e-02 2.348057739436626434e-02
2.794000000000000000e+03 6.599732208251953125e+01 2.270390510559082031e+01 -5.164144635200500488e-01 1.356842279434204102e+00 2.521283626556396484e-01 4.146830141544342041e-01
2.795000000000000000e+03 7.048821449279785156e+00 1.068225479125976562e+01 -1.774350702762603760e-01 -1.326907575130462646e-01 -9.303774684667587280e-02 2.945210933685302734e-01
2.796000000000000000e+03 4.959571838378906250e+01 -1.186149883270263672e+01 -5.278344154357910156e-01 6.594188213348388672e-01 3.947532549500465393e-02 -2.872860133647918701e-01
2.797000000000000000e+03 3.919475173950195312e+01 1.745748519897460938e+01 3.273783922195434570e-01 -1.746604144573211670e-01 4.581539332866668701e-02 9.544470161199569702e-02
2.798000000000000000e+03 2.072529029846191406e+01 -2.523762702941894531e+01 3.469188213348388672e-01 2.266813069581985474e-01 1.720800399780273438e-01 -2.296099960803985596e-01
2.799000000000000000e+03 7.473337554931640625e+01 -2.902310943603515625e+01 -6.082421541213989258e-01 6.792568206787109375e+00 1.855297803878784180e+00 8.539037108421325684e-01
2.800000000000000000e+03 7.357071685791015625e+01 -2.850702667236328125e+01 -9.047493934631347656e-01 6.064089775085449219e+00 1.547802209854125977e+00 1.396318316459655762e+00
2.801000000000000000e+03 5.750712394714355469e+00 -2.478514099121093750e+01 6.243542209267616272e-02 -6.552023440599441528e-02 -9.254431934095919132e-04 6.637039594352245331e-03
2.802000000000000000e+03 5.805757522583007812e+00 -2.748009872436523438e+01 -7.545309513807296753e-02 -1.383898258209228516e-01 -6.415287405252456665e-02 -3.903117403388023376e-02
2.803000000000000000e+03 9.391576766967773438e+00 5.971741199493408203e+00 -2.994913756847381592e-01 -1.677324622869491577e-01 -1.401671469211578369e-01 1.014509722590446472e-01
2.804000000000000000e+03 2.650255966186523438e+01 5.899425506591796875e+00 9.512724727392196655e-02 1.605351865291595459e-01 7.669872790575027466e-02 2.021145075559616089e-01
2.805000000000000000e+03 5.852693557739257812e+01 1.605891036987304688e+01 1.536826372146606445e+00 5.173561573028564453e+00 2.013116359710693359e+00 -5.448449850082397461e-01
2.806000000000000000e+03 5.290529632568359375e+01 -2.860430526733398438e+01 7.783970236778259277e-01 2.787191390991210938e+00 1.069676518440246582e+00 6.785156130790710449e-01
2.807000000000000000e+03 7.194160461425781250e+01 -2.893778038024902344e+01 -1.163187846541404724e-01 3.376044273376464844e+00 9.779176712036132812e-01 1.489119291305541992e+00
2.808000000000000000e+03 2.219602012634277344e+01 3.210332870483398438e+01 -1.195960119366645813e-01 4.322924092411994934e-02 -2.291003242135047913e-02 3.621593117713928223e-02
2.809000000000000000e+03 2.356577491760253906e+01 3.225073242187500000e+01 -3.039322420954704285e-02 1.801143586635589600e-01 4.491633921861648560e-02 1.793285906314849854e-01
2.810000000000000000e+03 4.291179275512695312e+01 7.216511249542236328e+00 -3.826061189174652100e-01 2.917440049350261688e-02 -1.060295179486274719e-01 4.290235340595245361e-01
2.811000000000000000e+03 3.495156860351562500e+01 -3.359820938110351562e+01 4.006568193435668945e-01 4.203422963619232178e-01 2.462997287511825562e-01 -1.035037189722061157e-01
2.812000000000000000e+03 6.120094680786132812e+01 1.954051256179809570e+00 -8.017597794532775879e-01 5.889786720275878906e+00 1.526408076286315918e+00 -3.218548536300659180e+00
2.813000000000000000e+03 6.080057907104492188e+01 5.366878509521484375e+00 -2.401571750640869141e+00 5.863403797149658203e+00 1.038549661636352539e+00 -2.265491247177124023e+00
2.814000000000000000e+03 3.323238754272460938e+01 2.614281654357910156e+01 -1.695999354124069214e-01 1.099563986063003540e-01 -1.789305917918682098e-02 1.791840940713882446e-01
2.815000000000000000e+03 6.052250671386718750e+01 -1.356236171722412109e+01 -1.539308667182922363e+00 5.936078071594238281e+00 1.319030880928039551e+00 2.111260890960693359e+00
2.816000000000000000e+03 6.100126647949218750e+01 -1.241200256347656250e+01 -1.411220192909240723e+00 6.828394889831542969e+00 1.625152349472045898e+00 2.208980083465576172e+00
2.817000000000000000e+03 6.286545181274414062e+01 -1.391302299499511719e+01 -2.315147161483764648e+00 7.599570274353027344e+00 1.585327029228210449e+00 1.446802496910095215e+00
2.818000000000000000e+03 2.177299880981445312e+01 6.728257656097412109e+00 1.454430669546127319e-01 -1.860349923372268677e-01 -1.217757910490036011e-02 1.414583027362823486e-01
2.819000000000000000e+03 4.067322158813476562e+01 -1.676423835754394531e+01 -6.183960940688848495e-03 3.358053863048553467e-01 9.888643026351928711e-02 -4.638119637966156006e-01
2.820000000000000000e+03 4.202838516235351562e+01 -2.572143363952636719e+01 2.887686491012573242e-01 5.829572677612304688e-01 2.615177929401397705e-01 2.137649059295654297e-01
2.821000000000000000e+03 4.392225646972656250e+01 -2.611031150817871094e+01 3.929294049739837646e-01 5.590665936470031738e-01 2.855988144874572754e-01 3.148076683282852173e-02
2.822000000000000000e+03 7.974611759185791016e+00 7.508087635040283203e+00 -2.973091006278991699e-01 -1.408741176128387451e-01 -1.314549744129180908e-01 1.343095302581787109e-01
2.823000000000000000e+03 7.353105545043945312e+00 6.048850059509277344e+00 -2.309296429157257080e-01 -7.811219990253448486e-02 -9.271255135536193848e-02 5.777929350733757019e-02
2.824000000000000000e+03 2.533346748352050781e+01 -2.041213607788085938e+01 -5.152292177081108093e-02 -1.529362499713897705e-01 -6.133775040507316589e-02 -2.513839900493621826e-01
2.825000000000000000e+03 2.444880294799804688e+01 1.051377105712890625e+01 2.490847706794738770e-01 -1.109089478850364685e-01 4.145274683833122253e-02 1.069636046886444092e-01
2.826000000000000000e+03 2.538680839538574219e+01 1.282389640808105469e+01 -9.193657897412776947e-03 -6.870462000370025635e-02 -2.336948364973068237e-02 1.109212934970855713e-01
2.827000000000000000e+03 2.628126525878906250e+01 -1.881039619445800781e+01 -1.316424459218978882e-01 -2.605589032173156738e-01 -1.176604032516479492e-01 -2.413293719291687012e-01
2.828000000000000000e+03 6.322669601440429688e+01 5.191736698150634766e+00 -2.973730087280273438e+00 4.436975955963134766e+00 4.389737546443939209e-01 -2.298390626907348633e+00
2.829000000000000000e+03 4.504273986816406250e+01 3.667575359344482422e+00 -9.140871763229370117e-01 1.842818260192871094e-01 -2.189415991306304932e-01 1.528119295835494995e-01
2.830000000000000000e+03 4.539254379272460938e+01 3.193480014801025391e+00 -1.057132124900817871e+00 2.123805582523345947e-01 -2.534254789352416992e-01 1.750235110521316528e-01
2.831000000000000000e+03 5.698013305664062500e+01 -2.639809989929199219e+01 -3.416189849376678467e-01 4.524483680725097656e+00 1.254859328269958496e+00 1.641606211662292480e+00
2.832000000000000000e+03 1.404005432128906250e+01 -6.656928062438964844e+00 5.846429243683815002e-02 6.180829182267189026e-02 3.608177602291107178e-02 -5.940460413694381714e-02
2.833000000000000000e+03 4.184950256347656250e+01 6.246586322784423828e+00 -3.666735291481018066e-01 -3.771440088748931885e-01 -2.231452614068984985e-01 4.821695089340209961e-01
2.834000000000000000e+03 7.223970031738281250e+01 1.070303320884704590e+00 1.129347681999206543e+00 3.526523828506469727e+00 1.396761417388916016e+00 3.269471228122711182e-01
2.835000000000000000e+03 7.078382873535156250e+01 4.377145290374755859e+00 -4.238835573196411133e-01 4.515584945678710938e+00 1.227510333061218262e+00 2.337397098541259766e+00
2.836000000000000000e+03 5.829315185546875000e+01 4.316924095153808594e+00 -1.299150347709655762e+00 4.123760223388671875e+00 8.473829627037048340e-01 -2.029072761535644531e+00
2.837000000000000000e+03 7.451066589355468750e+01 2.165200710296630859e+00 -1.409299671649932861e-01 6.193317413330078125e+00 1.815716266632080078e+00 2.352749928832054138e-02
2.838000000000000000e+03 2.683067321777343750e+01 -2.858655929565429688e+01 4.194845259189605713e-01 -1.064419820904731750e-01 9.391275793313980103e-02 -2.469751834869384766e-01
2.839000000000000000e+03 4.005315017700195312e+01 1.217337989807128906e+01 -1.901418268680572510e-01 -4.608999490737915039e-01 -1.953125298023223877e-01 9.308547526597976685e-02
2.840000000000000000e+03 1.021956634521484375e+01 -4.736372947692871094e+00 4.410840570926666260e-03 -1.014509871602058411e-01 -2.911204285919666290e-02 -1.232792809605598450e-01
2.841000000000000000e+03 1.041950988769531250e+01 -1.015705394744873047e+01 -2.155718160793185234e-03 -6.712243705987930298e-02 -2.078344672918319702e-02 -9.264212846755981445e-02
2.842000000000000000e+03 7.375355529785156250e+01 2.945105743408203125e+01 3.149213492870330811e-01 5.871872425079345703e+00 1.856038093566894531e+00 -3.727125823497772217e-01
2.843000000000000000e+03 2.611085891723632812e+01 5.078789234161376953e+00 -7.497914135456085205e-02 8.538045734167098999e-02 3.120395122095942497e-03 2.099530249834060669e-01
2.844000000000000000e+03 2.558137512207031250e+01 7.631641864776611328e+00 2.939882874488830566e-01 2.399671263992786407e-02 9.539549797773361206e-02 1.564083993434906006e-01
2.845000000000000000e+03 7.415534210205078125e+01 1.667241477966308594e+01 6.288173026405274868e-04 8.677562713623046875e+00 2.603457450866699219e+00 8.396501541137695312e-01
2.846000000000000000e+03 7.441503906250000000e+01 -3.028644180297851562e+01 -1.543957740068435669e-01 6.141520023345947266e+00 1.796137213706970215e+00 8.410624861717224121e-01
2.847000000000000000e+03 7.545972442626953125e+01 -2.719305229187011719e+01 -1.004830956459045410e+00 7.944935321807861328e+00 2.082031250000000000e+00 1.446379125118255615e-01
2.848000000000000000e+03 2.015546226501464844e+01 -1.769735717773437500e+01 -2.676832079887390137e-01 -3.776597231626510620e-02 -9.163475036621093750e-02 -4.789198637008666992e-01
2.849000000000000000e+03 3.599720382690429688e+01 1.776597023010253906e+01 4.075737297534942627e-01 -2.988048195838928223e-01 3.263067454099655151e-02 3.219648599624633789e-01
2.850000000000000000e+03 7.439588928222656250e+01 2.194353675842285156e+01 -8.483039140701293945e-01 7.058156013488769531e+00 1.862955570220947266e+00 -2.849634885787963867e-01
2.851000000000000000e+03 7.553791046142578125e+01 2.473833084106445312e+01 -3.015333414077758789e-01 6.934174060821533203e+00 1.989792227745056152e+00 -4.308475553989410400e-01
2.852000000000000000e+03 7.351464080810546875e+01 2.315399360656738281e+01 -7.422542572021484375e-01 6.392549037933349609e+00 1.695088505744934082e+00 -6.913211345672607422e-01
2.853000000000000000e+03 7.540042877197265625e+01 2.610192680358886719e+01 -6.879724562168121338e-02 6.743862152099609375e+00 2.002519369125366211e+00 -4.825350940227508545e-01
2.854000000000000000e+03 7.361933135986328125e+01 2.507065773010253906e+01 -2.487178891897201538e-01 6.076727390289306641e+00 1.748402833938598633e+00 -7.346033453941345215e-01
2.855000000000000000e+03 7.294496917724609375e+01 1.990290069580078125e+01 -1.465667366981506348e+00 7.114249706268310547e+00 1.694574713706970215e+00 -3.505953848361968994e-01
2.856000000000000000e+03 7.600312042236328125e+01 3.481808423995971680e+00 -3.757469058036804199e-01 7.029921054840087891e+00 1.996252179145812988e+00 -1.662482470273971558e-01
2.857000000000000000e+03 7.396417236328125000e+01 1.076558303833007812e+01 1.728351831436157227e+00 9.301029205322265625e+00 3.308814287185668945e+00 1.046472489833831787e-01
2.858000000000000000e+03 7.579029083251953125e+01 1.000632953643798828e+01 6.882426142692565918e-01 7.861747741699218750e+00 2.564996957778930664e+00 -6.684365868568420410e-01
2.859000000000000000e+03 7.485368347167968750e+01 1.178868961334228516e+01 1.477518439292907715e+00 9.072369575500488281e+00 3.164966344833374023e+00 9.716795384883880615e-02
2.860000000000000000e+03 7.555638885498046875e+01 4.531531333923339844e+00 -4.924255609512329102e-01 7.155259132385253906e+00 1.998850107192993164e+00 -1.487623304128646851e-01
2.861000000000000000e+03 7.381183624267578125e+01 4.795600414276123047e+00 -6.909660100936889648e-01 6.781929969787597656e+00 1.827289223670959473e+00 4.614932239055633545e-01
2.862000000000000000e+03 7.299865722656250000e+01 2.030660867691040039e+00 3.001344799995422363e-01 4.957810401916503906e+00 1.577383399009704590e+00 4.551880359649658203e-01
2.863000000000000000e+03 7.586698150634765625e+01 2.493330240249633789e+00 -2.446520328521728516e-01 6.817111492156982422e+00 1.971737861633300781e+00 -8.486182987689971924e-02
2.864000000000000000e+03 7.561332702636718750e+01 1.874382400512695312e+01 -6.277506947517395020e-01 7.994423389434814453e+00 2.210001945495605469e+00 8.621470928192138672e-01
2.865000000000000000e+03 7.589865112304687500e+01 1.994067382812500000e+01 -7.239835858345031738e-01 7.804916381835937500e+00 2.124279737472534180e+00 5.307387709617614746e-01
2.866000000000000000e+03 7.452252960205078125e+01 8.288820266723632812e+00 1.804540678858757019e-02 8.345253944396972656e+00 2.508989810943603516e+00 -6.342360973358154297e-01
2.867000000000000000e+03 7.393672180175781250e+01 1.419405651092529297e+01 1.463002562522888184e+00 9.266587257385253906e+00 3.218876838684082031e+00 4.806372225284576416e-01
2.868000000000000000e+03 7.532700347900390625e+01 2.867630767822265625e+01 1.709304600954055786e-01 6.487405776977539062e+00 1.997500896453857422e+00 -4.097225069999694824e-01
2.869000000000000000e+03 7.311479949951171875e+01 5.972770214080810547e+00 -1.100196361541748047e+00 7.284876823425292969e+00 1.855404138565063477e+00 6.902790665626525879e-01
2.870000000000000000e+03 7.421374511718750000e+01 6.618080139160156250e+00 -6.422160267829895020e-01 7.793213844299316406e+00 2.145299434661865234e+00 -2.041324824094772339e-01
2.871000000000000000e+03 7.528397369384765625e+01 2.146208572387695312e+01 -8.159628510475158691e-01 7.391548633575439453e+00 1.972675681114196777e+00 3.769106045365333557e-02
2.872000000000000000e+03 7.312942504882812500e+01 -2.961804008483886719e+01 -1.036053597927093506e-01 5.095113754272460938e+00 1.497452497482299805e+00 1.396308660507202148e+00
2.873000000000000000e+03 7.596386718750000000e+01 -3.185996055603027344e+01 3.742488101124763489e-02 6.791023254394531250e+00 2.048534393310546875e+00 4.507474005222320557e-01
2.874000000000000000e+03 7.211305999755859375e+01 3.370699691772460938e+01 3.093589544296264648e-01 5.371373653411865234e+00 1.704219698905944824e+00 2.335352590307593346e-03
2.875000000000000000e+03 7.592881011962890625e+01 -2.634372901916503906e+01 -6.872490048408508301e-01 8.259119987487792969e+00 2.271561384201049805e+00 -1.571355164051055908e-01
2.876000000000000000e+03 7.384253692626953125e+01 -3.493975067138671875e+01 4.670844972133636475e-01 5.757499694824218750e+00 1.867375254631042480e+00 -2.725000376813113689e-04
2.877000000000000000e+03 4.074837112426757812e+01 1.409596538543701172e+01 1.115542054176330566e-01 -9.622976928949356079e-02 4.597331862896680832e-03 -1.181905418634414673e-01
2.878000000000000000e+03 6.439880371093750000e+01 4.024370670318603516e+00 -1.394205093383789062e+00 3.915132284164428711e+00 7.562781572341918945e-01 -1.009975910186767578e+00
2.879000000000000000e+03 6.718784332275390625e+01 8.333829641342163086e-01 2.160331010818481445e+00 4.068658828735351562e+00 1.868696928024291992e+00 2.874554395675659180e+00
2.880000000000000000e+03 7.236281585693359375e+01 3.161972427368164062e+01 4.090633094310760498e-01 5.400822639465332031e+00 1.742965698242187500e+00 -1.511180251836776733e-01
2.881000000000000000e+03 4.288535308837890625e+01 -1.947648429870605469e+01 4.829513728618621826e-01 4.390155673027038574e-01 2.765900790691375732e-01 -1.831084042787551880e-01
2.882000000000000000e+03 5.987546443939208984e+00 -2.895475006103515625e+01 -1.069008186459541321e-01 -1.784033775329589844e-01 -8.559125661849975586e-02 -7.738228887319564819e-02
2.883000000000000000e+03 3.832676410675048828e+00 -1.106148624420166016e+01 6.828077603131532669e-03 -1.085048019886016846e-01 -3.050301782786846161e-02 -7.400329224765300751e-03
2.884000000000000000e+03 7.259889221191406250e+01 7.252404689788818359e+00 -8.032169342041015625e-01 7.915176391601562500e+00 2.133587837219238281e+00 6.921529173851013184e-01
2.885000000000000000e+03 3.244878053665161133e+00 -2.311301994323730469e+01 7.306493818759918213e-02 -2.221892029047012329e-01 -4.473727941513061523e-02 -2.696079015731811523e-02
2.886000000000000000e+03 4.810603618621826172e+00 1.824459075927734375e+01 1.373909264802932739e-01 -3.677475154399871826e-01 -6.910697370767593384e-02 6.419213861227035522e-02
2.887000000000000000e+03 4.117138385772705078e+00 2.066473770141601562e+01 2.897271141409873962e-02 -4.285496771335601807e-01 -1.198730915784835815e-01 -1.531076338142156601e-02
2.888000000000000000e+03 4.391231536865234375e+00 1.946294593811035156e+01 8.100279420614242554e-02 -4.010050892829895020e-01 -9.600068628787994385e-02 1.101704500615596771e-02
2.889000000000000000e+03 3.990916967391967773e+00 1.235887527465820312e+01 -1.250383164733648300e-02 -1.798652261495590210e-01 -5.771071836352348328e-02 2.368163466453552246e-01
2.890000000000000000e+03 6.974471092224121094e+00 1.916681671142578125e+01 1.420732289552688599e-01 -3.112162947654724121e-01 -5.074292048811912537e-02 8.383920043706893921e-02
2.891000000000000000e+03 5.238458156585693359e+00 2.090174674987792969e+01 3.319723531603813171e-02 -4.358726739883422852e-01 -1.208026334643363953e-01 2.159454300999641418e-02
2.892000000000000000e+03 2.542300033569335938e+01 1.095975208282470703e+01 2.644341289997100830e-01 -4.161337856203317642e-03 7.808183878660202026e-02 1.044192761182785034e-01
2.893000000000000000e+03 4.975584506988525391e+00 -3.373800659179687500e+01 -3.421307727694511414e-02 -3.262969851493835449e-01 -1.081530153751373291e-01 -1.509550064802169800e-01
2.894000000000000000e+03 5.929727077484130859e+00 1.452409839630126953e+01 1.394435614347457886e-01 -2.450744807720184326e-01 -3.168927878141403198e-02 2.739323973655700684e-01
2.895000000000000000e+03 3.692673683166503906e+00 1.132626533508300781e+01 -4.116561263799667358e-02 -1.338430792093276978e-01 -5.250260606408119202e-02 2.053640633821487427e-01
2.896000000000000000e+03 4.585160255432128906e+00 9.505162239074707031e+00 -1.134372875094413757e-01 -8.431163430213928223e-02 -5.932467803359031677e-02 1.815242469310760498e-01
2.897000000000000000e+03 7.047949218750000000e+01 3.442046356201171875e+01 2.192096710205078125e-01 4.986737251281738281e+00 1.561784029006958008e+00 6.471940875053405762e-02
2.898000000000000000e+03 4.757117748260498047e+00 -8.693933486938476562e+00 1.315467432141304016e-02 -1.031180322170257568e-01 -2.698900736868381500e-02 -2.994268201291561127e-02
2.899000000000000000e+03 6.119958400726318359e+00 7.741961479187011719e+00 -2.151540517807006836e-01 -5.935204774141311646e-02 -8.235182613134384155e-02 1.228894293308258057e-01
2.900000000000000000e+03 4.926685810089111328e+00 6.946000099182128906e+00 -1.385569423437118530e-01 -2.885265089571475983e-02 -5.022287741303443909e-02 6.590886414051055908e-02
2.901000000000000000e+03 5.231242370605468750e+01 2.321883010864257812e+01 -5.817028880119323730e-01 3.557965755462646484e+00 8.928788304328918457e-01 -9.361166954040527344e-01
2.902000000000000000e+03 4.691123962402343750e+00 -7.587337970733642578e+00 2.083235047757625580e-02 -7.881151884794235229e-02 -1.739374920725822449e-02 -2.317530289292335510e-02
2.903000000000000000e+03 4.741527080535888672e+00 -6.556849956512451172e+00 6.696583703160285950e-03 -7.013197988271713257e-02 -1.903061941266059875e-02 -4.015993326902389526e-02
2.904000000000000000e+03 7.443170928955078125e+01 -1.369991874694824219e+01 -1.683539867401123047e+00 5.624614715576171875e+00 1.182322502136230469e+00 5.969475507736206055e-01
2.905000000000000000e+03 4.124505615234375000e+01 -1.743753814697265625e+01 1.634644120931625366e-01 1.229035854339599609e-01 8.591039478778839111e-02 -4.416024684906005859e-01
2.906000000000000000e+03 5.365059661865234375e+01 -1.229896831512451172e+01 -1.845493763685226440e-01 -3.532774150371551514e-01 -1.613480299711227417e-01 3.853413462638854980e-02
2.907000000000000000e+03 4.926683044433593750e+01 2.031675910949707031e+01 1.693863421678543091e-01 1.317930340766906738e+00 4.461950063705444336e-01 -9.811941981315612793e-01
2.908000000000000000e+03 5.022412872314453125e+01 2.170923423767089844e+01 -7.293571531772613525e-02 2.350328445434570312e+00 6.832178235054016113e-01 -9.502748847007751465e-01
2.909000000000000000e+03 2.262566184997558594e+01 8.888926506042480469e+00 3.053638935089111328e-01 -1.833466440439224243e-01 3.660517930984497070e-02 1.601969301700592041e-01
2.910000000000000000e+03 6.800631523132324219e+00 -1.201310634613037109e+01 -4.993670433759689331e-02 -1.628845483064651489e-01 -6.384637951850891113e-02 -7.351823896169662476e-02
2.911000000000000000e+03 6.412511444091796875e+01 -1.371584320068359375e+01 -2.302128314971923828e+00 6.920905113220214844e+00 1.385632991790771484e+00 1.254924654960632324e+00
2.912000000000000000e+03 5.931022262573242188e+01 -1.307269859313964844e+01 -1.035598635673522949e+00 4.267661094665527344e+00 9.696187973022460938e-01 2.172600269317626953e+00
2.913000000000000000e+03 5.539868545532226562e+01 -1.278107929229736328e+01 -3.877382725477218628e-02 -1.450649555772542953e-02 -1.598409749567508698e-02 4.858906269073486328e-01
2.914000000000000000e+03 3.710235595703125000e+01 1.557770347595214844e+01 2.670176923274993896e-01 -5.055575370788574219e-01 -7.156194746494293213e-02 2.177752405405044556e-01
2.915000000000000000e+03 6.023481369018554688e+01 -2.365680313110351562e+01 1.590609669685363770e+00 2.125558376312255859e+00 1.114850401878356934e+00 1.500779867172241211e+00
2.916000000000000000e+03 3.454445266723632812e+01 -1.033113670349121094e+01 -1.850794814527034760e-02 1.650907695293426514e-01 4.397484660148620605e-02 -1.670917868614196777e-01
2.917000000000000000e+03 5.356944274902343750e+01 2.237022972106933594e+01 -1.043529629707336426e+00 3.634542226791381836e+00 7.773037552833557129e-01 -1.432486414909362793e+00
2.918000000000000000e+03 5.326388549804687500e+01 2.344129753112792969e+01 -8.180249929428100586e-01 3.824411869049072266e+00 9.019160866737365723e-01 -1.003305077552795410e+00
2.919000000000000000e+03 5.234320449829101562e+01 2.514420700073242188e+01 1.265696585178375244e-01 3.900138854980468750e+00 1.208012580871582031e+00 -4.878777861595153809e-01
2.920000000000000000e+03 5.751513671875000000e+01 2.122112846374511719e+01 -9.179788231849670410e-01 1.497047305107116699e+00 1.737205684185028076e-01 -9.648424386978149414e-01
2.921000000000000000e+03 5.505041885375976562e+01 2.156086540222167969e+01 -1.137771606445312500e+00 2.999596357345581055e+00 5.585473775863647461e-01 -1.852883219718933105e+00
2.922000000000000000e+03 2.594682312011718750e+01 -2.609987068176269531e+01 4.418351054191589355e-01 -1.083368659019470215e-01 1.000494733452796936e-01 -1.924820989370346069e-01
2.923000000000000000e+03 6.285352706909179688e+01 -1.648933410644531250e+01 -1.909732103347778320e+00 7.120567321777343750e+00 1.563250541687011719e+00 4.760767817497253418e-01
2.924000000000000000e+03 6.761257171630859375e+01 4.412706375122070312e+00 -1.055835485458374023e+00 1.776929378509521484e+00 2.163281887769699097e-01 2.219589233398437500e+00
2.925000000000000000e+03 6.545111083984375000e+01 3.956483125686645508e+00 -1.296401858329772949e+00 3.209619045257568359e+00 5.739651322364807129e-01 -1.040764451026916504e-01
2.926000000000000000e+03 1.095272064208984375e+01 -2.679259872436523438e+01 -7.923072576522827148e-02 -2.677834331989288330e-01 -1.041042432188987732e-01 -2.320258319377899170e-01
2.927000000000000000e+03 2.037609291076660156e+01 -2.364404487609863281e+01 5.288631469011306763e-02 1.534611433744430542e-01 6.190423667430877686e-02 -3.101178109645843506e-01
2.928000000000000000e+03 5.128787231445312500e+01 -1.156899356842041016e+01 -2.883377671241760254e-01 4.057998955249786377e-02 -7.432732731103897095e-02 -2.950512170791625977e-01
2.929000000000000000e+03 5.072300720214843750e+01 -1.069387817382812500e+01 -4.467897713184356689e-01 1.989954411983489990e-01 -7.433829456567764282e-02 -1.804185062646865845e-01
2.930000000000000000e+03 4.867876052856445312e+01 2.751904296875000000e+01 7.476387023925781250e-01 2.417729139328002930e+00 9.496102929115295410e-01 -3.084862232208251953e-01
2.931000000000000000e+03 5.675535583496093750e+01 -1.407835674285888672e+01 -3.353689014911651611e-01 1.702004432678222656e+00 4.099906384944915771e-01 9.246393442153930664e-01
2.932000000000000000e+03 3.015961647033691406e+01 3.242016983032226562e+01 3.206112980842590332e-01 -8.996722102165222168e-02 6.919322162866592407e-02 2.016426473855972290e-01
2.933000000000000000e+03 2.473117446899414062e+01 3.293875885009765625e+01 7.873785495758056641e-02 1.735594868659973145e-01 7.568920403718948364e-02 2.255194783210754395e-01
2.934000000000000000e+03 2.210513305664062500e+01 3.369319534301757812e+01 4.271412268280982971e-02 -6.804714351892471313e-02 -7.599906064569950104e-03 4.856190085411071777e-02
2.935000000000000000e+03 4.966804504394531250e+01 -1.336585426330566406e+01 -5.725798606872558594e-01 6.763725280761718750e-01 3.113780729472637177e-02 5.828164052218198776e-03
2.936000000000000000e+03 5.266290664672851562e+01 -1.317633628845214844e+01 -2.283371686935424805e-01 -1.536089777946472168e-01 -1.145838424563407898e-01 -9.777849167585372925e-02
2.937000000000000000e+03 4.376524353027343750e+01 -1.668569946289062500e+01 1.073206216096878052e-02 2.048814743757247925e-01 6.468406319618225098e-02 -1.203958243131637573e-01
2.938000000000000000e+03 5.972494506835937500e+01 4.082431316375732422e+00 -1.691499829292297363e+00 5.106679916381835938e+00 1.024554014205932617e+00 -2.575178146362304688e+00
2.939000000000000000e+03 5.069604492187500000e+01 2.613846397399902344e+01 7.278484106063842773e-01 3.056577920913696289e+00 1.135327935218811035e+00 -2.573972642421722412e-01
2.940000000000000000e+03 4.184369277954101562e+01 1.280189132690429688e+01 6.886279582977294922e-02 1.745894849300384521e-01 7.303568720817565918e-02 -1.010480821132659912e-01
2.941000000000000000e+03 2.885780334472656250e+01 -2.940373611450195312e+01 3.566972613334655762e-01 2.732014656066894531e-02 1.152052208781242371e-01 -2.470403164625167847e-01
2.942000000000000000e+03 1.867788696289062500e+01 -1.698819160461425781e+01 -1.916974782943725586e-01 2.380490303039550781e-03 -5.679509788751602173e-02 -4.328104853630065918e-01
2.943000000000000000e+03 5.200197982788085938e+01 -3.285358810424804688e+01 1.202626109123229980e+00 3.262122869491577148e+00 1.339424729347229004e+00 8.862339854240417480e-01
2.944000000000000000e+03 5.550468921661376953e+00 1.981607818603515625e+01 8.247596770524978638e-02 -3.818853497505187988e-01 -8.982281386852264404e-02 4.310660064220428467e-02
2.945000000000000000e+03 8.042879104614257812e+00 1.921671295166015625e+01 1.668070107698440552e-01 -1.973639428615570068e-01 -9.167077019810676575e-03 1.152826845645904541e-01
2.946000000000000000e+03 6.153531265258789062e+01 -1.510369014739990234e+01 -1.814922451972961426e+00 6.619998931884765625e+00 1.441522955894470215e+00 1.301126480102539062e+00
2.947000000000000000e+03 6.999303436279296875e+01 5.188979148864746094e+00 -9.396486878395080566e-01 4.014338016510009766e+00 9.224067926406860352e-01 2.748269319534301758e+00
2.948000000000000000e+03 1.113670444488525391e+01 -2.826545143127441406e+01 -1.511614471673965454e-01 -3.126900196075439453e-01 -1.391554325819015503e-01 -2.068686932325363159e-01
2.949000000000000000e+03 7.086849975585937500e+01 5.495810508728027344e+00 -1.309951305389404297e+00 5.266837596893310547e+00 1.187065958976745605e+00 2.287614345550537109e+00
2.950000000000000000e+03 7.194815826416015625e+01 5.591456890106201172e+00 -1.139308571815490723e+00 6.293766498565673828e+00 1.546337485313415527e+00 1.585994839668273926e+00
2.951000000000000000e+03 3.730607986450195312e+01 1.874710273742675781e+01 3.826301991939544678e-01 -2.331478595733642578e-01 4.484470188617706299e-02 2.328837364912033081e-01
2.952000000000000000e+03 7.468983459472656250e+01 5.357899665832519531e-01 4.360637068748474121e-02 6.153514385223388672e+00 1.859136223793029785e+00 -4.063799977302551270e-01
2.953000000000000000e+03 7.552983093261718750e+01 5.120199173688888550e-02 -2.956387996673583984e-01 6.992827415466308594e+00 2.009156703948974609e+00 -3.757806122303009033e-01
2.954000000000000000e+03 3.570274734497070312e+01 -3.616752624511718750e+01 3.473440706729888916e-01 4.659499526023864746e-01 2.439882010221481323e-01 -7.318567484617233276e-02
2.955000000000000000e+03 6.877461242675781250e+01 -3.237451553344726562e+01 1.748682618141174316e+00 4.201093673706054688e+00 1.784932851791381836e+00 -1.148177742958068848e+00
2.956000000000000000e+03 5.602951812744140625e+01 1.944327545166015625e+01 2.080152630805969238e-01 2.843733787536621094e+00 9.155247211456298828e-01 -1.628314018249511719e+00
2.957000000000000000e+03 2.874029922485351562e+01 -3.055876159667968750e+01 2.845480740070343018e-01 1.144248805940151215e-02 8.879716694355010986e-02 -2.296232283115386963e-01
2.958000000000000000e+03 5.398535919189453125e+01 3.581181716918945312e+01 -2.550829052925109863e-01 2.404608011245727539e+00 6.448575258255004883e-01 2.962536215782165527e-01
2.959000000000000000e+03 5.001925277709960938e+01 3.499920654296875000e+01 1.081165820360183716e-01 2.443821907043457031e+00 7.655815482139587402e-01 -3.712261617183685303e-01
2.960000000000000000e+03 2.847193908691406250e+01 -3.502119064331054688e+01 1.194311231374740601e-01 2.732864767313003540e-02 4.402793198823928833e-02 -3.700811788439750671e-02
2.961000000000000000e+03 2.482881927490234375e+01 1.197488117218017578e+01 1.242661476135253906e-01 -6.449690461158752441e-02 1.793077215552330017e-02 7.004678249359130859e-02
2.962000000000000000e+03 4.863463973999023438e+01 3.571861648559570312e+01 1.219534724950790405e-01 2.128521442413330078e+00 6.751424670219421387e-01 -4.475305378437042236e-01
2.963000000000000000e+03 5.463151550292968750e+01 3.875171661376953125e+01 -9.541992843151092529e-02 1.799433469772338867e+00 5.112040638923645020e-01 3.703866899013519287e-01
2.964000000000000000e+03 5.169593811035156250e+01 2.568126869201660156e+01 4.470501244068145752e-01 3.596505403518676758e+00 1.213066697120666504e+00 -3.369178175926208496e-01
2.965000000000000000e+03 5.024256515502929688e+01 2.264362335205078125e+01 -8.419844508171081543e-02 2.528817415237426758e+00 7.333856821060180664e-01 -7.583549618721008301e-01
2.966000000000000000e+03 2.180801582336425781e+01 3.544257736206054688e+01 1.366979181766510010e-01 -1.639950722455978394e-01 -8.189146406948566437e-03 2.103240042924880981e-02
2.967000000000000000e+03 4.364007568359375000e+01 -1.761250686645507812e+01 2.587122321128845215e-01 2.601571679115295410e-01 1.556608229875564575e-01 -1.381133496761322021e-01
2.968000000000000000e+03 6.761260986328125000e+01 4.116860198974609375e+01 -5.532661825418472290e-02 4.001007556915283203e+00 1.183704376220703125e+00 -2.364712022244930267e-02
2.969000000000000000e+03 6.293647384643554688e+01 -1.075899314880371094e+01 4.530347138643264771e-02 8.727223396301269531e+00 2.631757974624633789e+00 1.471613049507141113e+00
2.970000000000000000e+03 6.191757583618164062e+01 -1.046404361724853516e+01 -4.421751573681831360e-02 8.204551696777343750e+00 2.448100328445434570e+00 2.236823558807373047e+00
2.971000000000000000e+03 5.587026214599609375e+01 1.801516914367675781e+01 9.117834568023681641e-01 3.222367048263549805e+00 1.240245103836059570e+00 -1.623301506042480469e+00
2.972000000000000000e+03 2.675829315185546875e+01 -2.542913246154785156e+01 3.797882795333862305e-01 -7.425007969141006470e-02 9.166146069765090942e-02 -2.136934548616409302e-01
2.973000000000000000e+03 6.813780212402343750e+01 3.345541763305664062e+01 3.334206342697143555e-01 4.460725307464599609e+00 1.438243746757507324e+00 1.831212937831878662e-01
2.974000000000000000e+03 8.892636299133300781e+00 -3.277856826782226562e+01 -1.289899349212646484e-01 -2.786033153533935547e-01 -1.222779750823974609e-01 -2.319613993167877197e-01
2.975000000000000000e+03 8.941216468811035156e+00 -2.991590499877929688e+01 -1.764739155769348145e-01 -2.179376035928726196e-01 -1.183234602212905884e-01 -1.767284870147705078e-01
2.976000000000000000e+03 4.893726348876953125e+01 2.507947158813476562e+01 4.364714026451110840e-01 2.333507537841796875e+00 8.309936523437500000e-01 -1.618630141019821167e-01
2.977000000000000000e+03 4.897748184204101562e+01 2.383025360107421875e+01 2.836582362651824951e-01 2.114780664443969727e+00 7.195316553115844727e-01 -2.884511053562164307e-01
2.978000000000000000e+03 3.267624664306640625e+01 -1.248578453063964844e+01 -4.833133220672607422e-01 -1.286541372537612915e-01 -1.835902482271194458e-01 4.933902993798255920e-02
2.979000000000000000e+03 7.344241333007812500e+01 1.895122909545898438e+01 -1.308153390884399414e+00 7.694098949432373047e+00 1.915783643722534180e+00 2.497728168964385986e-01
2.980000000000000000e+03 6.477471160888671875e+01 2.257593345642089844e+01 -9.718583226203918457e-01 2.217344999313354492e+00 3.736460208892822266e-01 1.295018553733825684e+00
2.981000000000000000e+03 6.599140930175781250e+01 2.391417312622070312e+01 2.398774027824401855e-01 2.229447841644287109e+00 7.407975196838378906e-01 3.138824105262756348e-01
2.982000000000000000e+03 4.125755691528320312e+01 1.492647552490234375e+01 1.110941618680953979e-01 1.081842035055160522e-01 6.578350812196731567e-02 -1.537669897079467773e-01
2.983000000000000000e+03 6.253860473632812500e+01 -1.461251229047775269e-01 3.243995904922485352e-01 9.779278755187988281e+00 3.031103610992431641e+00 -3.012858867645263672e+00
2.984000000000000000e+03 7.706112861633300781e+00 -6.377216339111328125e+00 2.344623394310474396e-02 -5.954882130026817322e-02 -1.083077583461999893e-02 -7.461196184158325195e-02
2.985000000000000000e+03 6.193572998046875000e+01 -2.473673224449157715e-01 8.769811987876892090e-01 8.221429824829101562e+00 2.729523181915283203e+00 -3.715900659561157227e+00
2.986000000000000000e+03 8.464012145996093750e+00 5.010166168212890625e+00 -1.995629221200942993e-01 -1.036278828978538513e-01 -9.095723927021026611e-02 4.307435825467109680e-02
2.987000000000000000e+03 6.711756229400634766e+00 -4.930492877960205078e+00 -1.757154427468776703e-02 -6.110069900751113892e-02 -2.360167354345321655e-02 -7.380404323339462280e-02
2.988000000000000000e+03 7.464465141296386719e+00 -5.641754150390625000e+00 7.619179668836295605e-04 -8.926000446081161499e-02 -2.654942497611045837e-02 -7.675973325967788696e-02
2.989000000000000000e+03 6.025458335876464844e+00 6.727760314941406250e+00 -1.922971755266189575e-01 -5.541406199336051941e-02 -7.431337237358093262e-02 6.880720704793930054e-02
2.990000000000000000e+03 3.693942308425903320e+00 5.985342979431152344e+00 -7.564975321292877197e-02 -2.233330626040697098e-03 -2.336492575705051422e-02 1.383127458393573761e-02
2.991000000000000000e+03 7.757081508636474609e+00 5.028630256652832031e+00 -1.776221245527267456e-01 -6.774670630693435669e-02 -7.361064851284027100e-02 2.735398150980472565e-02
2.992000000000000000e+03 5.920033454895019531e+00 5.658299446105957031e+00 -1.496778577566146851e-01 -3.722416982054710388e-02 -5.607061088085174561e-02 2.219592407345771790e-02
2.993000000000000000e+03 9.520164489746093750e+00 -6.355839729309082031e+00 1.397353317588567734e-02 -1.002092286944389343e-01 -2.587070874869823456e-02 -1.064835712313652039e-01
2.994000000000000000e+03 9.640021324157714844e+00 -5.420511245727539062e+00 7.878358475863933563e-03 -1.063821166753768921e-01 -2.955112792551517487e-02 -1.190398931503295898e-01
2.995000000000000000e+03 2.281511688232421875e+01 5.852674484252929688e+00 -7.341219112277030945e-03 -1.931467801332473755e-01 -6.014639884233474731e-02 1.638557314872741699e-01
2.996000000000000000e+03 8.541217803955078125e+00 6.313152313232421875e+00 -2.987660169601440430e-01 -1.294812262058258057e-01 -1.284741759300231934e-01 1.018649339675903320e-01
2.997000000000000000e+03 2.426155090332031250e+01 8.160456657409667969e+00 3.063357174396514893e-01 -1.303874254226684570e-01 5.278448760509490967e-02 1.484812647104263306e-01
2.998000000000000000e+03 2.453515434265136719e+01 6.165008544921875000e+00 8.485851436853408813e-02 -1.311478167772293091e-01 -1.388678792864084244e-02 1.801573634147644043e-01
2.999000000000000000e+03 6.107713699340820312e+01 -2.820096015930175781e-01 1.626254439353942871e+00 5.748389244079589844e+00 2.212393045425415039e+00 -4.023153305053710938e+00
3.000000000000000000e+03 6.049247360229492188e+01 5.549416542053222656e-01 7.665991783142089844e-01 4.868258953094482422e+00 1.690457463264465332e+00 -3.418872356414794922e+00
3.001000000000000000e+03 1.293538951873779297e+01 -5.806540489196777344e+00 1.685191877186298370e-02 -1.486488990485668182e-02 5.961087299510836601e-04 -9.995252639055252075e-02
3.002000000000000000e+03 6.151266479492187500e+01 -5.888680815696716309e-01 1.792838692665100098e+00 7.059068679809570312e+00 2.655572175979614258e+00 -4.582329273223876953e+00
3.003000000000000000e+03 6.063920211791992188e+01 1.832545161247253418e+00 -7.388396859169006348e-01 5.282011508941650391e+00 1.362951517105102539e+00 -3.112938642501831055e+00
3.004000000000000000e+03 6.092739486694335938e+01 1.393317222595214844e+00 -2.241905331611633301e-01 5.615554332733154297e+00 1.617409229278564453e+00 -3.262859344482421875e+00
3.005000000000000000e+03 1.102898216247558594e+01 -4.778589725494384766e+00 -6.271559279412031174e-03 -4.093982744961977005e-03 -3.109662560746073723e-03 -7.971468567848205566e-02
3.006000000000000000e+03 1.096287059783935547e+01 -5.552708625793457031e+00 1.585095189511775970e-02 -5.381261184811592102e-02 -1.138849742710590363e-02 -1.191088706254959106e-01
3.007000000000000000e+03 5.753555679321289062e+01 4.993930339813232422e+00 -1.205592989921569824e+00 3.841884851455688477e+00 7.908875346183776855e-01 -1.524704933166503906e+00
3.008000000000000000e+03 5.886154174804687500e+01 3.472703456878662109e+00 -1.302742123603820801e+00 4.256451606750488281e+00 8.861128687858581543e-01 -2.418009042739868164e+00
3.009000000000000000e+03 6.037545776367187500e+01 3.406071901321411133e+00 -1.637798428535461426e+00 5.376097202301025391e+00 1.121489644050598145e+00 -2.844974040985107422e+00
3.010000000000000000e+03 9.058357238769531250e+00 -5.706235408782958984e+00 1.624879240989685059e-02 -3.223701938986778259e-02 -4.796467721462249756e-03 -7.442965358495712280e-02
3.011000000000000000e+03 1.235216045379638672e+01 -7.424914836883544922e+00 1.621401682496070862e-02 -2.690626494586467743e-02 -3.207674715667963028e-03 -8.631968498229980469e-02
3.012000000000000000e+03 6.570955657958984375e+01 -6.673370599746704102e-01 3.303248167037963867e+00 6.841016769409179688e+00 3.043279647827148438e+00 3.611817359924316406e+00
3.013000000000000000e+03 6.072906494140625000e+01 4.261962413787841797e+00 -1.931751847267150879e+00 5.664349079132080078e+00 1.119779109954833984e+00 -2.693404197692871094e+00
3.014000000000000000e+03 5.156073760986328125e+01 -3.109746360778808594e+01 1.009445905685424805e+00 2.633829593658447266e+00 1.092982649803161621e+00 5.260156393051147461e-01
3.015000000000000000e+03 1.162995910644531250e+01 -8.193570137023925781e+00 3.883829712867736816e-02 1.705808192491531372e-02 1.676891371607780457e-02 -8.451310545206069946e-02
3.016000000000000000e+03 6.831955718994140625e+01 3.713567733764648438e+00 3.635974228382110596e-02 2.650847196578979492e+00 8.061621189117431641e-01 2.867856502532958984e+00
3.017000000000000000e+03 1.327705287933349609e+01 -1.009141063690185547e+01 1.197408046573400497e-02 1.317739337682723999e-01 4.312440380454063416e-02 -6.237525120377540588e-02
3.018000000000000000e+03 7.512657928466796875e+01 -2.581179618835449219e+01 -1.039801955223083496e+00 8.680043220520019531e+00 2.292072296142578125e+00 -5.479523097164928913e-04
3.019000000000000000e+03 2.372598648071289062e+01 5.879236221313476562e+00 3.521922975778579712e-02 -1.437626034021377563e-01 -3.256300836801528931e-02 1.742843240499496460e-01
3.020000000000000000e+03 2.524298858642578125e+01 8.529033660888671875e+00 3.142466545104980469e-01 -5.840979143977165222e-02 7.675105333328247070e-02 1.444545984268188477e-01
3.021000000000000000e+03 4.372925567626953125e+01 5.873979568481445312e+00 -4.907998740673065186e-01 6.862100213766098022e-02 -1.266536563634872437e-01 2.973783612251281738e-01
3.022000000000000000e+03 4.385615158081054688e+01 7.459974765777587891e+00 -2.933031022548675537e-01 2.782961130142211914e-01 -4.502096679061651230e-03 2.609146237373352051e-01
3.023000000000000000e+03 2.217653656005859375e+01 -2.037752151489257812e+01 -1.728055924177169800e-01 -5.343621596693992615e-02 -6.787253916263580322e-02 -3.954097926616668701e-01
3.024000000000000000e+03 5.664734649658203125e+01 5.209320545196533203e+00 -9.302738308906555176e-01 3.126976490020751953e+00 6.590107679367065430e-01 -1.001812100410461426e+00
3.025000000000000000e+03 7.147387695312500000e+01 -3.004025650024414062e+01 7.499599456787109375e-01 3.371179819107055664e+00 1.236341953277587891e+00 9.039663076400756836e-01
3.026000000000000000e+03 7.570035934448242188e+00 -3.024892997741699219e+01 -1.425700485706329346e-01 -2.072983086109161377e-01 -1.049605086445808411e-01 -1.498558521270751953e-01
3.027000000000000000e+03 1.019667053222656250e+01 -2.925768852233886719e+01 -1.756344437599182129e-01 -2.737245559692382812e-01 -1.348077058792114258e-01 -1.861132681369781494e-01
3.028000000000000000e+03 6.202836608886718750e+01 2.938308954238891602e+00 -1.513098001480102539e+00 6.029245376586914062e+00 1.354844212532043457e+00 -2.734029531478881836e+00
3.029000000000000000e+03 6.034996032714843750e+01 2.327319383621215820e+00 -9.870440959930419922e-01 5.124562740325927734e+00 1.241255521774291992e+00 -3.013302087783813477e+00
3.030000000000000000e+03 3.818376302719116211e+00 7.216362953186035156e+00 -9.373368322849273682e-02 -2.311057783663272858e-02 -3.505327925086021423e-02 6.367699801921844482e-02
3.031000000000000000e+03 1.314801692962646484e+01 -6.801095485687255859e+00 4.979223385453224182e-02 7.330406457185745239e-02 3.692888841032981873e-02 -5.051403865218162537e-02
3.032000000000000000e+03 7.262460327148437500e+01 2.211949729919433594e+01 -1.100025892257690430e+00 6.132621288299560547e+00 1.509778618812561035e+00 -8.394141197204589844e-01
3.033000000000000000e+03 5.731806945800781250e+01 2.220728492736816406e+01 -1.593894481658935547e+00 9.536836147308349609e-01 -1.920632570981979370e-01 -1.471230387687683105e+00
3.034000000000000000e+03 7.131684112548828125e+01 2.244734764099121094e+00 9.242773652076721191e-01 3.498974084854125977e+00 1.326975464820861816e+00 1.560785412788391113e+00
3.035000000000000000e+03 6.915513610839843750e+01 3.843641281127929688e+00 -7.081660628318786621e-02 3.186213731765747070e+00 9.346191883087158203e-01 2.874285936355590820e+00
3.036000000000000000e+03 4.827261447906494141e+00 -1.073291397094726562e+01 -2.346074674278497696e-03 -1.400034129619598389e-01 -4.270484670996665955e-02 -2.140888944268226624e-02
3.037000000000000000e+03 2.372298812866210938e+01 -1.850196266174316406e+01 -2.376719862222671509e-01 -2.245456576347351074e-01 -1.386652886867523193e-01 -3.755119144916534424e-01
3.038000000000000000e+03 6.272419357299804688e+01 -2.294118881225585938e+01 2.071095705032348633e+00 5.160742759704589844e+00 2.169551610946655273e+00 -1.633310914039611816e-01
3.039000000000000000e+03 2.640275573730468750e+01 1.227171707153320312e+01 1.071315556764602661e-01 6.362673640251159668e-02 5.122748762369155884e-02 1.250175386667251587e-01
3.040000000000000000e+03 2.485046386718750000e+01 9.500060081481933594e+00 3.318768441677093506e-01 -6.286916136741638184e-02 8.070230484008789062e-02 1.217111572623252869e-01
3.041000000000000000e+03 3.469035339355468750e+01 -9.297399520874023438e+00 4.910809546709060669e-02 2.460328042507171631e-01 8.854226768016815186e-02 -2.840984463691711426e-01
3.042000000000000000e+03 3.383182525634765625e+01 -8.417623519897460938e+00 5.651943013072013855e-02 1.268884283490478992e-03 1.733649335801601410e-02 -3.953302502632141113e-01
3.043000000000000000e+03 7.195476531982421875e+01 -3.178218078613281250e+01 9.469417333602905273e-01 4.344275474548339844e+00 1.587365150451660156e+00 3.364858031272888184e-01
3.044000000000000000e+03 7.384609222412109375e+01 1.185488939285278320e+00 1.554803401231765747e-01 5.511123657226562500e+00 1.699981212615966797e+00 -6.129172071814537048e-02
3.045000000000000000e+03 2.629514694213867188e+01 -2.390908050537109375e+01 2.574378252029418945e-01 -6.832552701234817505e-02 5.673369020223617554e-02 -1.962678879499435425e-01
3.046000000000000000e+03 7.384147644042968750e+01 -3.151153945922851562e+01 3.162314891815185547e-01 5.556723117828369141e+00 1.761886358261108398e+00 7.167157530784606934e-01
3.047000000000000000e+03 7.460054779052734375e+01 2.317736434936523438e+01 -6.584389805793762207e-01 6.861143589019775391e+00 1.860811352729797363e+00 -3.692991137504577637e-01
3.048000000000000000e+03 7.439885711669921875e+01 2.438387298583984375e+01 -3.541711270809173584e-01 6.569719314575195312e+00 1.864664435386657715e+00 -5.457383990287780762e-01
3.049000000000000000e+03 7.392498779296875000e+01 2.618630409240722656e+01 -8.678627759218215942e-02 6.078363895416259766e+00 1.797473311424255371e+00 -6.367926001548767090e-01
3.050000000000000000e+03 7.038217926025390625e+01 2.941377449035644531e+01 7.462772727012634277e-01 4.563897132873535156e+00 1.593052387237548828e+00 -2.583764791488647461e-01
3.051000000000000000e+03 7.457549285888671875e+01 3.827548503875732422e+00 -4.981384575366973877e-01 6.701854228973388672e+00 1.861114621162414551e+00 1.418693363666534424e-01
3.052000000000000000e+03 5.547436904907226562e+01 2.043107795715332031e+01 -5.759851932525634766e-01 2.770949840545654297e+00 6.584893465042114258e-01 -1.928680539131164551e+00
3.053000000000000000e+03 5.123996734619140625e+01 2.138037300109863281e+01 -2.910490334033966064e-01 2.772334575653076172e+00 7.443856596946716309e-01 -1.200825214385986328e+00
3.054000000000000000e+03 6.728661346435546875e+01 2.387552452087402344e+01 1.732239276170730591e-01 1.990306258201599121e+00 6.490590572357177734e-01 -3.185993432998657227e-01
3.055000000000000000e+03 2.205724525451660156e+01 -2.328790283203125000e+01 8.093182742595672607e-02 7.326412200927734375e-02 4.625878483057022095e-02 -2.554468512535095215e-01
3.056000000000000000e+03 7.003584384918212891e+00 -2.735715103149414062e+01 -9.482827037572860718e-02 -1.148990690708160400e-01 -6.291820108890533447e-02 -7.454737275838851929e-02
3.057000000000000000e+03 6.863928794860839844e+00 -2.597454643249511719e+01 -4.201440140604972839e-02 -6.027391552925109863e-02 -3.068649396300315857e-02 -4.921519383788108826e-02
3.058000000000000000e+03 5.763592720031738281e+00 -8.524270057678222656e+00 2.066792175173759460e-02 -9.793934971094131470e-02 -2.318142913281917572e-02 -3.770155459642410278e-02
3.059000000000000000e+03 4.742486476898193359e+00 -9.773934364318847656e+00 1.929404772818088531e-02 -1.161816418170928955e-01 -2.906627953052520752e-02 -1.864289306104183197e-02
3.060000000000000000e+03 6.241932392120361328e+00 -3.048833656311035156e+01 -1.120127588510513306e-01 -2.116320133209228516e-01 -9.709343314170837402e-02 -1.224102154374122620e-01
3.061000000000000000e+03 6.573052406311035156e+00 -3.217167663574218750e+01 -1.006772592663764954e-01 -2.533021271228790283e-01 -1.061938181519508362e-01 -1.713672429323196411e-01
3.062000000000000000e+03 3.597877502441406250e+01 1.610811042785644531e+01 3.143981099128723145e-01 -4.167989194393157959e-01 -3.072024136781692505e-02 3.090002536773681641e-01
3.063000000000000000e+03 5.661872482299804688e+01 1.857194709777832031e+01 5.395951867103576660e-01 3.229741096496582031e+00 1.130800843238830566e+00 -1.351931214332580566e+00
3.064000000000000000e+03 7.393967437744140625e+01 1.255158424377441406e+01 1.537177205085754395e+00 1.002209186553955078e+01 3.467780828475952148e+00 2.217643111944198608e-01
3.065000000000000000e+03 7.263154983520507812e+00 1.679554748535156250e+01 2.894614338874816895e-01 -2.117848545312881470e-01 2.330297976732254028e-02 1.826193928718566895e-01
3.066000000000000000e+03 2.402429389953613281e+01 -1.954719924926757812e+01 -1.603665053844451904e-01 -1.697880327701568604e-01 -9.904636442661285400e-02 -3.396617174148559570e-01
3.067000000000000000e+03 2.329809951782226562e+01 -2.400734710693359375e+01 2.176307588815689087e-01 -4.971782211214303970e-03 6.379769742488861084e-02 -1.963676512241363525e-01
3.068000000000000000e+03 7.135968780517578125e+01 3.242766189575195312e+01 3.945767581462860107e-01 5.106441974639892578e+00 1.650305628776550293e+00 -4.851244017481803894e-02
3.069000000000000000e+03 6.213046073913574219e+00 9.441961288452148438e+00 -1.902148276567459106e-01 -9.188499301671981812e-02 -8.462994545698165894e-02 2.160999923944473267e-01
3.070000000000000000e+03 7.028498840332031250e+01 3.286151409149169922e+00 2.473336011171340942e-01 3.680283546447753906e+00 1.178285121917724609e+00 2.591277122497558594e+00
3.071000000000000000e+03 7.067382335662841797e+00 7.639558315277099609e+00 -2.673159241676330566e-01 -1.035550311207771301e-01 -1.112612858414649963e-01 1.228733360767364502e-01
3.072000000000000000e+03 1.001786231994628906e+01 -5.894774436950683594e+00 1.950316131114959717e-02 -3.220881521701812744e-02 -3.811695612967014313e-03 -9.138787537813186646e-02
3.073000000000000000e+03 5.708930015563964844e+00 -7.607782363891601562e+00 1.514077838510274887e-02 -9.242898970842361450e-02 -2.318646386265754700e-02 -4.918440803885459900e-02
3.074000000000000000e+03 5.200831222534179688e+01 -1.237740516662597656e+01 -2.741383910179138184e-01 -1.406646370887756348e-01 -1.244409084320068359e-01 -8.618045598268508911e-02
3.075000000000000000e+03 9.189808845520019531e+00 -2.691753959655761719e+01 -8.918594568967819214e-02 -1.502571851015090942e-01 -7.183293998241424561e-02 -1.623273342847824097e-01
3.076000000000000000e+03 6.828026771545410156e+00 -6.612618923187255859e+00 1.226552482694387436e-02 -1.016530096530914307e-01 -2.681624703109264374e-02 -6.874129176139831543e-02
3.077000000000000000e+03 3.173047065734863281e+01 -1.219091415405273438e+01 -4.931261837482452393e-01 -3.533480167388916016e-01 -2.539422512054443359e-01 -1.256434246897697449e-02
3.078000000000000000e+03 7.381663513183593750e+01 2.078879928588867188e+01 -1.292232632637023926e+00 7.193070411682128906e+00 1.770251393318176270e+00 -1.221156641840934753e-01
3.079000000000000000e+03 6.199795532226562500e+01 5.218860149383544922e+00 -2.469218015670776367e+00 5.741817951202392578e+00 9.817799329757690430e-01 -2.602013587951660156e+00
3.080000000000000000e+03 5.914814758300781250e+01 4.947482585906982422e+00 -1.707185983657836914e+00 4.941304206848144531e+00 9.702355265617370605e-01 -2.054162740707397461e+00
3.081000000000000000e+03 5.806738662719726562e+01 -1.516604995727539062e+01 -6.043118834495544434e-01 3.216986417770385742e+00 7.838023900985717773e-01 1.195325374603271484e+00
3.082000000000000000e+03 6.797872161865234375e+01 2.649046134948730469e+01 1.124796867370605469e+00 3.363656997680664062e+00 1.346536159515380859e+00 -2.859564423561096191e-01
3.083000000000000000e+03 7.208589553833007812e+00 -7.520570278167724609e+00 3.006301634013652802e-02 -8.225269615650177002e-02 -1.565690524876117706e-02 -7.166918367147445679e-02
3.084000000000000000e+03 6.549320983886718750e+01 2.768834352493286133e+00 -1.534148007631301880e-01 4.441984176635742188e+00 1.286570906639099121e+00 6.281970739364624023e-01
3.085000000000000000e+03 6.639345550537109375e+01 3.853477954864501953e+00 -4.419404268264770508e-01 2.627876043319702148e+00 6.557806730270385742e-01 8.861443400382995605e-01
3.086000000000000000e+03 2.299141311645507812e+01 -1.760468482971191406e+01 -3.175163865089416504e-01 -2.186657488346099854e-01 -1.608546376228332520e-01 -4.332993626594543457e-01
3.087000000000000000e+03 5.151365280151367188e+01 2.483441543579101562e+01 1.063875257968902588e-01 3.410843372344970703e+00 1.055169224739074707e+00 -4.042358398437500000e-01
3.088000000000000000e+03 2.825667381286621094e+01 -3.169507598876953125e+01 2.092421054840087891e-01 -2.049456350505352020e-03 6.215779483318328857e-02 -1.847988814115524292e-01
3.089000000000000000e+03 3.842126846313476562e+01 1.559799003601074219e+01 2.344478070735931396e-01 -4.637252986431121826e-01 -6.878324598073959351e-02 4.250974580645561218e-02
3.090000000000000000e+03 6.011511230468750000e+01 -2.052516746520996094e+01 1.736431241035461426e+00 3.672720432281494141e+00 1.622745513916015625e+00 8.223792910575866699e-01
3.091000000000000000e+03 2.435041236877441406e+01 -2.180747413635253906e+01 3.156480193138122559e-02 -9.088693559169769287e-02 -1.779663935303688049e-02 -2.436200231313705444e-01
3.092000000000000000e+03 4.068513488769531250e+01 1.585010147094726562e+01 1.702978461980819702e-01 7.717197760939598083e-03 5.340451374650001526e-02 -1.130769774317741394e-01
3.093000000000000000e+03 6.995630645751953125e+01 -3.187609100341796875e+01 1.426402449607849121e+00 3.902700424194335938e+00 1.598730921745300293e+00 -3.987725079059600830e-01
3.094000000000000000e+03 6.930082702636718750e+01 -3.347687149047851562e+01 1.138434410095214844e+00 4.628585815429687500e+00 1.730106115341186523e+00 -9.254835844039916992e-01
3.095000000000000000e+03 7.244481658935546875e+01 2.303171920776367188e+01 -9.654054045677185059e-01 5.772099971771240234e+00 1.442008256912231445e+00 -9.353082776069641113e-01
3.096000000000000000e+03 2.788209724426269531e+01 -3.372978973388671875e+01 9.394214302301406860e-02 -4.811973124742507935e-02 1.374672446399927139e-02 -1.148779094219207764e-01
3.097000000000000000e+03 3.168000984191894531e+01 -3.641098403930664062e+01 2.770359814167022705e-01 2.172636687755584717e-01 1.482898890972137451e-01 -1.683223433792591095e-02
3.098000000000000000e+03 2.824384689331054688e+01 3.230576324462890625e+01 2.818841934204101562e-01 -7.496315985918045044e-02 6.207631155848503113e-02 3.246236145496368408e-01
3.099000000000000000e+03 3.297599792480468750e+01 3.235805892944335938e+01 3.050456643104553223e-01 1.686635464429855347e-01 1.421127617359161377e-01 1.224611997604370117e-01
3.100000000000000000e+03 6.712234497070312500e+01 2.275522041320800781e+01 -4.768234491348266602e-01 1.438173055648803711e+00 2.884048819541931152e-01 -3.731764256954193115e-01
3.101000000000000000e+03 2.004995727539062500e+01 -2.058344268798828125e+01 -2.636567056179046631e-01 2.718728408217430115e-02 -7.094082236289978027e-02 -4.689406156539916992e-01
3.102000000000000000e+03 2.098680877685546875e+01 -1.948624610900878906e+01 -2.432468980550765991e-01 -2.469476312398910522e-02 -8.038249611854553223e-02 -4.819807708263397217e-01
3.103000000000000000e+03 6.883777618408203125e+01 2.975211524963378906e+01 8.607680797576904297e-01 4.252889156341552734e+00 1.534097194671630859e+00 6.202805787324905396e-02
3.104000000000000000e+03 6.140333938598632812e+01 -1.632522964477539062e+01 -1.387187600135803223e+00 6.204060554504394531e+00 1.445061922073364258e+00 6.549059152603149414e-01
3.105000000000000000e+03 5.880115127563476562e+01 5.904508590698242188e+00 -1.505600214004516602e+00 5.010839939117431641e+00 1.051571846008300781e+00 -1.690685987472534180e+00
3.106000000000000000e+03 5.859091949462890625e+01 -1.766362571716308594e+01 -1.590804606676101685e-01 3.765397787094116211e+00 1.081895232200622559e+00 1.011231422424316406e+00
3.107000000000000000e+03 5.889861679077148438e+01 -1.437073040008544922e+01 -8.296331167221069336e-01 3.713096857070922852e+00 8.650391101837158203e-01 1.753523468971252441e+00
3.108000000000000000e+03 4.893806457519531250e+01 -1.265592765808105469e+01 -7.383165359497070312e-01 8.724322915077209473e-01 4.023472592234611511e-02 -1.217836365103721619e-01
3.109000000000000000e+03 7.218202114105224609e+00 9.602187156677246094e+00 -2.592531740665435791e-01 -1.251360923051834106e-01 -1.153167784214019775e-01 2.473051398992538452e-01
3.110000000000000000e+03 6.073968887329101562e+01 -1.972010040283203125e+01 1.119616270065307617e+00 4.338229179382324219e+00 1.637353658676147461e+00 3.392468690872192383e-01
3.111000000000000000e+03 8.136248588562011719e+00 -2.715889739990234375e+01 -1.101745441555976868e-01 -1.128631755709648132e-01 -6.691131740808486938e-02 -1.223327144980430603e-01
3.112000000000000000e+03 8.452760696411132812e+00 -2.851628303527832031e+01 -1.401673555374145508e-01 -1.780172437429428101e-01 -9.545537829399108887e-02 -1.408914923667907715e-01
3.113000000000000000e+03 4.698470687866210938e+01 3.574471664428710938e+01 2.343093305826187134e-01 1.882406353950500488e+00 6.350147128105163574e-01 -5.391408205032348633e-01
3.114000000000000000e+03 2.023043251037597656e+01 3.474455642700195312e+01 1.146281510591506958e-01 -2.420247942209243774e-01 -3.821898996829986572e-02 3.744088113307952881e-02
3.115000000000000000e+03 5.624080657958984375e+01 1.656850051879882812e+01 1.498584151268005371e+00 3.680584430694580078e+00 1.553750514984130859e+00 -1.468728899955749512e+00
3.116000000000000000e+03 5.035513687133789062e+01 3.984593200683593750e+01 -1.738539487123489380e-01 2.077380180358886719e+00 5.710578560829162598e-01 -5.404346063733100891e-02
3.117000000000000000e+03 5.989958953857421875e+01 -1.620598793029785156e+01 -8.382956981658935547e-01 4.831268787384033203e+00 1.197891950607299805e+00 1.175148367881774902e+00
3.118000000000000000e+03 5.132813644409179688e+01 2.240218544006347656e+01 -3.387651145458221436e-01 3.038829326629638672e+00 8.100192546844482422e-01 -9.968522191047668457e-01
3.119000000000000000e+03 6.733946228027343750e+01 2.741743087768554688e+01 1.117606043815612793e+00 3.358002901077270508e+00 1.342682719230651855e+00 1.948860436677932739e-01
3.120000000000000000e+03 7.199017333984375000e+01 2.963476562500000000e+01 5.243431329727172852e-01 5.152221679687500000e+00 1.702969431877136230e+00 -3.004702031612396240e-01
3.121000000000000000e+03 3.331408309936523438e+01 3.108104324340820312e+01 2.258071005344390869e-01 2.182139456272125244e-01 1.332063078880310059e-01 1.014763563871383667e-01
3.122000000000000000e+03 7.628848552703857422e+00 4.137288284301757812e+01 -7.760498672723770142e-02 -1.235146373510360718e-01 -6.033588573336601257e-02 -5.231926217675209045e-03
3.123000000000000000e+03 2.809871101379394531e+01 -4.128776168823242188e+01 4.551906585693359375e-01 -1.702496558427810669e-01 8.548230677843093872e-02 3.930139541625976562e-02
3.124000000000000000e+03 7.618576526641845703e+00 3.920697021484375000e+01 -3.088563680648803711e-02 -1.209787055850028992e-01 -4.555930197238922119e-02 -1.198371965438127518e-02
3.125000000000000000e+03 4.101377868652343750e+01 1.749980926513671875e+01 2.108196169137954712e-01 1.170759722590446472e-01 9.836867451667785645e-02 -1.877102628350257874e-02
3.126000000000000000e+03 8.873548507690429688e+00 -6.813211441040039062e+00 3.358686715364456177e-02 -5.606119334697723389e-02 -6.742298137396574020e-03 -8.072628080844879150e-02
3.127000000000000000e+03 6.700942993164062500e+00 -5.729179859161376953e+00 2.263462170958518982e-02 -6.657637655735015869e-02 -1.318252645432949066e-02 -5.789351090788841248e-02
3.128000000000000000e+03 6.332633209228515625e+01 4.896730482578277588e-01 -2.155942171812057495e-01 9.142375946044921875e+00 2.678034543991088867e+00 -1.069046616554260254e+00
3.129000000000000000e+03 5.984566879272460938e+01 2.768314599990844727e+00 -1.116974353790283203e+00 4.887720108032226562e+00 1.131223797798156738e+00 -2.925016164779663086e+00
3.130000000000000000e+03 6.194762802124023438e+01 4.098566532135009766e+00 -2.333300828933715820e+00 5.757213115692138672e+00 1.027173638343811035e+00 -2.651962757110595703e+00
3.131000000000000000e+03 1.089499187469482422e+01 -8.817227363586425781e+00 4.767299629747867584e-03 -4.829504713416099548e-02 -1.305832341313362122e-02 -9.444242715835571289e-02
3.132000000000000000e+03 7.202943325042724609e+00 8.591806411743164062e+00 -2.734618782997131348e-01 -1.054205521941184998e-01 -1.136647239327430725e-01 1.754093468189239502e-01
3.133000000000000000e+03 6.288884162902832031e+00 8.627778053283691406e+00 -2.277574986219406128e-01 -8.224837481975555420e-02 -9.300176054239273071e-02 1.707985401153564453e-01
3.134000000000000000e+03 1.066633605957031250e+01 -6.287821769714355469e+00 2.069957926869392395e-02 -7.437249273061752319e-02 -1.610187441110610962e-02 -9.658765047788619995e-02
3.135000000000000000e+03 1.151053619384765625e+01 -6.731912612915039062e+00 3.560367226600646973e-02 2.084443112835288048e-03 1.130643486976623535e-02 -8.752684295177459717e-02
3.136000000000000000e+03 1.023778247833251953e+01 -5.370617389678955078e+00 7.216549944132566452e-03 -3.813680261373519897e-02 -9.276075288653373718e-03 -7.649727910757064819e-02
3.137000000000000000e+03 8.590544700622558594e+00 -8.134428024291992188e+00 3.922181203961372375e-02 -7.946436107158660889e-02 -1.207276526838541031e-02 -8.740361779928207397e-02
3.138000000000000000e+03 5.903847122192382812e+01 -1.858532524108886719e+01 1.721578538417816162e-01 3.916395902633666992e+00 1.226566076278686523e+00 8.796761631965637207e-01
3.139000000000000000e+03 2.132059288024902344e+01 -2.147411727905273438e+01 -1.346109360456466675e-01 4.625338688492774963e-02 -2.650726586580276489e-02 -3.714011907577514648e-01
3.140000000000000000e+03 1.955454444885253906e+01 -2.239963531494140625e+01 -1.400430202484130859e-01 5.974330753087997437e-02 -2.408991381525993347e-02 -4.010546207427978516e-01
3.141000000000000000e+03 6.673873138427734375e+01 1.830375671386718750e+00 1.117740273475646973e+00 4.041166305541992188e+00 1.547671914100646973e+00 2.108325242996215820e+00
3.142000000000000000e+03 2.268494987487792969e+01 7.793274879455566406e+00 2.686046361923217773e-01 -2.164736539125442505e-01 1.563929952681064606e-02 1.538296639919281006e-01
3.143000000000000000e+03 6.980422973632812500e+00 6.725852966308593750e+00 -2.271721065044403076e-01 -7.716060429811477661e-02 -9.129980951547622681e-02 8.036957681179046631e-02
3.144000000000000000e+03 6.768488311767578125e+01 2.495464897155761719e+01 7.631386518478393555e-01 2.672086000442504883e+00 1.030567407608032227e+00 -4.814854264259338379e-01
3.145000000000000000e+03 6.986110687255859375e+01 2.356943321228027344e+01 -4.332153201103210449e-01 3.702758789062500000e+00 9.808630943298339844e-01 -1.304914832115173340e+00
3.146000000000000000e+03 2.377805519104003906e+01 9.119137763977050781e+00 2.970036566257476807e-01 -1.817265748977661133e-01 3.458312526345252991e-02 1.416931897401809692e-01
3.147000000000000000e+03 5.994951248168945312e+01 -1.741448593139648438e+01 -3.756527900695800781e-01 4.709177970886230469e+00 1.300057530403137207e+00 7.033876776695251465e-01
3.148000000000000000e+03 7.962792396545410156e+00 -2.582264137268066406e+01 -4.236984625458717346e-02 -4.782311618328094482e-02 -2.705788798630237579e-02 -9.410994499921798706e-02
3.149000000000000000e+03 1.406326580047607422e+01 -5.649539947509765625e+00 3.170645982027053833e-02 9.275553375482559204e-02 3.733859956264495850e-02 -3.775622323155403137e-02
3.150000000000000000e+03 3.837283706665039062e+01 1.677571678161621094e+01 3.165916502475738525e-01 -3.037968873977661133e-01 3.838429693132638931e-03 1.248763725161552429e-01
3.151000000000000000e+03 6.321436309814453125e+01 4.066214561462402344e+00 -1.943781375885009766e+00 4.987430572509765625e+00 9.130948185920715332e-01 -2.351762056350708008e+00
3.152000000000000000e+03 6.258204269409179688e+01 6.867085099220275879e-01 -1.792794913053512573e-01 8.270525932312011719e+00 2.427374124526977539e+00 -2.365260362625122070e+00
3.153000000000000000e+03 5.974910354614257812e+01 5.710116863250732422e+00 -1.780089378356933594e+00 5.557772159576416016e+00 1.133304834365844727e+00 -2.098551750183105469e+00
3.154000000000000000e+03 7.797069549560546875e+00 -9.315212249755859375e+00 1.589220762252807617e-02 -1.254010796546936035e-01 -3.285266086459159851e-02 -6.668534874916076660e-02
3.155000000000000000e+03 3.153130531311035156e+01 -3.225828552246093750e+01 2.915375232696533203e-01 2.126969397068023682e-01 1.512703448534011841e-01 -1.641215384006500244e-01
3.156000000000000000e+03 7.308843994140625000e+01 3.053287315368652344e+01 3.580644428730010986e-01 5.519518852233886719e+00 1.763274908065795898e+00 -2.477447390556335449e-01
3.157000000000000000e+03 2.577879333496093750e+01 -2.504442214965820312e+01 3.561415970325469971e-01 -8.889801800251007080e-02 8.017307519912719727e-02 -1.869644224643707275e-01
3.158000000000000000e+03 5.652963256835937500e+01 2.088628196716308594e+01 -5.568853020668029785e-01 2.167861700057983398e+00 4.832929372787475586e-01 -1.617375254631042480e+00
3.159000000000000000e+03 7.113999176025390625e+01 2.385378074645996094e+01 -5.971993207931518555e-01 4.675323009490966797e+00 1.223437070846557617e+00 -1.164719104766845703e+00
3.160000000000000000e+03 2.426858329772949219e+01 -2.071721649169921875e+01 -5.590547993779182434e-02 -1.283652186393737793e-01 -5.528121069073677063e-02 -2.911571264266967773e-01
3.161000000000000000e+03 5.914071655273437500e+01 -1.993054199218750000e+01 9.663913846015930176e-01 3.714374065399169922e+00 1.404229640960693359e+00 1.000608563423156738e+00
3.162000000000000000e+03 5.672952175140380859e+00 1.111062240600585938e+01 -1.009821221232414246e-01 -1.389168649911880493e-01 -7.196969538927078247e-02 2.828651666641235352e-01
3.163000000000000000e+03 6.475330829620361328e+00 -8.022286415100097656e+00 2.671236358582973480e-02 -1.303408890962600708e-01 -3.108855709433555603e-02 -4.680289328098297119e-02
3.164000000000000000e+03 7.206568717956542969e+00 -1.024240589141845703e+01 6.367385387420654297e-03 -1.294226050376892090e-01 -3.691656515002250671e-02 -6.965478509664535522e-02
3.165000000000000000e+03 1.001748180389404297e+01 -9.113763809204101562e+00 1.218557357788085938e-02 -4.837569221854209900e-02 -1.085703540593385696e-02 -1.014527454972267151e-01
3.166000000000000000e+03 1.013538837432861328e+01 -6.952191829681396484e+00 4.221052676439285278e-02 -3.845081850886344910e-02 1.127912662923336029e-03 -8.630737662315368652e-02
3.167000000000000000e+03 6.686821746826171875e+01 2.574291038513183594e+01 1.065195918083190918e+00 2.726521492004394531e+00 1.137515187263488770e+00 4.201665148138999939e-02
3.168000000000000000e+03 3.964707183837890625e+01 1.559400653839111328e+01 1.963624805212020874e-01 -2.480495572090148926e-01 -1.550612132996320724e-02 -2.560208737850189209e-02
3.169000000000000000e+03 7.004158782958984375e+01 -3.041542053222656250e+01 1.239285230636596680e+00 3.150366544723510742e+00 1.316895484924316406e+00 -2.838427899405360222e-03
3.170000000000000000e+03 1.187405872344970703e+01 -5.789752960205078125e+00 2.330610528588294983e-02 -1.509484462440013885e-02 2.463378245010972023e-03 -7.015974074602127075e-02
3.171000000000000000e+03 2.082091712951660156e+01 -1.623336601257324219e+01 -3.638606965541839600e-01 -5.864143744111061096e-02 -1.267506331205368042e-01 -4.047101438045501709e-01
3.172000000000000000e+03 6.129397201538085938e+01 -1.752041053771972656e+01 -5.600369572639465332e-01 5.627923488616943359e+00 1.520365953445434570e+00 4.702011942863464355e-01
3.173000000000000000e+03 3.185996246337890625e+01 3.188183593750000000e+01 2.886851727962493896e-01 2.595302276313304901e-02 9.439146518707275391e-02 1.201171502470970154e-01
3.174000000000000000e+03 5.834954071044921875e+01 -1.641463088989257812e+01 -4.459389448165893555e-01 3.506649017333984375e+00 9.182130098342895508e-01 1.002299666404724121e+00
3.175000000000000000e+03 7.234268188476562500e+01 2.730683708190917969e+01 2.334597259759902954e-01 5.184603214263916016e+00 1.625418901443481445e+00 -6.572644114494323730e-01
3.176000000000000000e+03 6.852063751220703125e+01 2.562519073486328125e+01 6.956002712249755859e-01 3.198633670806884766e+00 1.168270111083984375e+00 -4.937448203563690186e-01
3.177000000000000000e+03 6.579916381835937500e+01 1.621697545051574707e+00 6.761899590492248535e-01 5.279819965362548828e+00 1.786803007125854492e+00 1.537528872489929199e+00
3.178000000000000000e+03 6.652584552764892578e+00 -3.402308654785156250e+01 -4.339934140443801880e-02 -2.966902256011962891e-01 -1.020268723368644714e-01 -2.045442461967468262e-01
3.179000000000000000e+03 7.259936523437500000e+01 -3.071917915344238281e+01 5.279694795608520508e-01 4.465013980865478516e+00 1.497895002365112305e+00 9.414194226264953613e-01
3.180000000000000000e+03 2.196215438842773438e+01 -1.845103645324707031e+01 -2.677579522132873535e-01 -1.147136166691780090e-01 -1.147414669394493103e-01 -4.578316509723663330e-01
3.181000000000000000e+03 2.077701187133789062e+01 -2.260638427734375000e+01 -6.859216094017028809e-02 7.880267500877380371e-02 3.063152544200420380e-03 -3.332808911800384521e-01
3.182000000000000000e+03 6.983075714111328125e+01 3.284362792968750000e+01 4.715347886085510254e-01 4.768711090087890625e+00 1.572073698043823242e+00 9.449277818202972412e-02
3.183000000000000000e+03 6.883521270751953125e+01 3.494337463378906250e+01 2.093488126993179321e-01 4.685577392578125000e+00 1.468477845191955566e+00 1.308510303497314453e-01
3.184000000000000000e+03 7.296497344970703125e+01 3.851200342178344727e+00 -5.065625309944152832e-01 5.984425067901611328e+00 1.643358826637268066e+00 8.583592176437377930e-01
3.185000000000000000e+03 3.206968688964843750e+01 3.488828277587890625e+01 3.736847043037414551e-01 1.064557582139968872e-01 1.440421342849731445e-01 1.303755044937133789e-01
3.186000000000000000e+03 6.845758056640625000e+01 2.808877182006835938e+01 1.020721077919006348e+00 3.920196294784545898e+00 1.482275247573852539e+00 -7.877808809280395508e-02
3.187000000000000000e+03 7.245626068115234375e+01 2.626450538635253906e+01 1.173312589526176453e-01 5.312832355499267578e+00 1.629049062728881836e+00 -7.573739886283874512e-01
3.188000000000000000e+03 7.113583374023437500e+01 3.129951095581054688e+01 5.292489528656005859e-01 4.963480949401855469e+00 1.647818922996520996e+00 -1.230399832129478455e-01
3.189000000000000000e+03 7.245975494384765625e+00 -2.878396797180175781e+01 -1.335094720125198364e-01 -1.597544848918914795e-01 -8.797918260097503662e-02 -1.119633838534355164e-01
3.190000000000000000e+03 3.665747451782226562e+01 1.713526725769042969e+01 3.964295983314514160e-01 -3.688087761402130127e-01 8.286245167255401611e-03 2.644649446010589600e-01
3.191000000000000000e+03 3.029521179199218750e+01 3.633738327026367188e+01 3.657241463661193848e-01 5.366952717304229736e-02 1.258181035518646240e-01 1.312455534934997559e-01
3.192000000000000000e+03 4.694906234741210938e+01 4.092502212524414062e+01 8.183336816728115082e-03 1.765713810920715332e+00 5.321691036224365234e-01 -1.197075173258781433e-01
3.193000000000000000e+03 6.779816436767578125e+01 3.205987215042114258e+00 2.443634271621704102e-01 2.450796127319335938e+00 8.085478544235229492e-01 2.528795957565307617e+00
3.194000000000000000e+03 6.722100067138671875e+01 2.911713600158691406e+00 5.379149317741394043e-01 2.978484153747558594e+00 1.054919719696044922e+00 1.959493756294250488e+00
3.195000000000000000e+03 7.153359985351562500e+01 -3.287216949462890625e+01 1.135863184928894043e+00 4.421053409576416016e+00 1.667075037956237793e+00 -8.738258481025695801e-02
3.196000000000000000e+03 3.617110824584960938e+01 1.972643089294433594e+01 2.835095226764678955e-01 -1.465816497802734375e-01 4.107836261391639709e-02 2.707512676715850830e-01
3.197000000000000000e+03 8.094345092773437500e+00 -7.197890758514404297e+00 1.319327391684055328e-02 -1.067915111780166626e-01 -2.807947061955928802e-02 -8.150716871023178101e-02
3.198000000000000000e+03 6.279643630981445312e+01 1.536343336105346680e+00 -7.996508479118347168e-01 7.293884277343750000e+00 1.948270082473754883e+00 -2.118173360824584961e+00
3.199000000000000000e+03 6.421295928955078125e+01 1.106618881225585938e+00 -3.770372644066810608e-02 7.849545001983642578e+00 2.343552350997924805e+00 7.111044973134994507e-02
3.200000000000000000e+03 9.453845024108886719e+00 -7.623186111450195312e+00 1.337905228137969971e-02 -9.471834450960159302e-02 -2.440178766846656799e-02 -9.483353048563003540e-02
3.201000000000000000e+03 6.336843967437744141e+00 -9.423400878906250000e+00 1.730841957032680511e-02 -1.435420364141464233e-01 -3.787008300423622131e-02 -4.743532091379165649e-02
3.202000000000000000e+03 6.200473403930664062e+01 1.849863052368164062e+00 -8.685967326164245605e-01 6.717780590057373047e+00 1.754755139350891113e+00 -2.730084180831909180e+00
3.203000000000000000e+03 1.020921802520751953e+01 -8.235115051269531250e+00 4.054475948214530945e-02 -4.929432272911071777e-02 -2.624868648126721382e-03 -8.796583861112594604e-02
3.204000000000000000e+03 2.414278984069824219e+01 6.949298381805419922e+00 1.933054774999618530e-01 -1.212138682603836060e-01 2.162748388946056366e-02 1.665333509445190430e-01
3.205000000000000000e+03 8.893461227416992188e+00 -9.305771827697753906e+00 1.347433123737573624e-02 -1.147882044315338135e-01 -3.039416112005710602e-02 -9.232164919376373291e-02
3.206000000000000000e+03 7.033251762390136719e+00 -8.789956092834472656e+00 1.603200659155845642e-02 -1.017946675419807434e-01 -2.572879754006862640e-02 -7.046493887901306152e-02
3.207000000000000000e+03 2.327530097961425781e+01 -2.123427581787109375e+01 -5.886787921190261841e-02 -5.356691032648086548e-02 -3.373043611645698547e-02 -3.132305145263671875e-01
3.208000000000000000e+03 2.262568092346191406e+01 -2.223241996765136719e+01 -5.382186500355601311e-04 -9.769977070391178131e-03 -3.092458937317132950e-03 -2.892554700374603271e-01
3.209000000000000000e+03 7.308251190185546875e+01 -3.243735122680664062e+01 7.033417820930480957e-01 5.122938156127929688e+00 1.747884035110473633e+00 4.302219152450561523e-01
3.210000000000000000e+03 7.110548400878906250e+01 2.874456787109375000e+01 5.286827683448791504e-01 4.711035728454589844e+00 1.571915507316589355e+00 -3.212037980556488037e-01
3.211000000000000000e+03 3.252428817749023438e+01 3.361622238159179688e+01 3.259207606315612793e-01 1.247587576508522034e-01 1.352038532495498657e-01 1.302514076232910156e-01
3.212000000000000000e+03 4.655947208404541016e+00 -3.527700424194335938e+01 -2.209214027971029282e-03 -3.775272965431213379e-01 -1.139209568500518799e-01 -1.573271602392196655e-01
3.213000000000000000e+03 6.441460418701171875e+01 2.847095966339111328e+00 -9.098225235939025879e-01 5.260291576385498047e+00 1.305140733718872070e+00 -6.795091032981872559e-01
3.214000000000000000e+03 7.233890533447265625e+01 2.405814933776855469e+01 -5.007681846618652344e-01 5.561872005462646484e+00 1.518331050872802734e+00 -9.751511216163635254e-01
3.215000000000000000e+03 7.107357788085937500e+01 2.503330039978027344e+01 1.454375125467777252e-02 4.508860588073730469e+00 1.357021331787109375e+00 -1.048619747161865234e+00
3.216000000000000000e+03 7.022924804687500000e+01 2.788120841979980469e+01 7.689016461372375488e-01 4.309876918792724609e+00 1.523633599281311035e+00 -4.536734521389007568e-01
3.217000000000000000e+03 6.745542144775390625e+01 3.585226440429687500e+01 -8.485101163387298584e-03 4.361055374145507812e+00 1.305771112442016602e+00 1.173806115984916687e-01
3.218000000000000000e+03 6.947483825683593750e+01 2.876178550720214844e+01 7.730720639228820801e-01 4.122449874877929688e+00 1.468656659126281738e+00 -1.425757110118865967e-01
3.219000000000000000e+03 6.917601013183593750e+01 2.711233139038085938e+01 7.481344938278198242e-01 3.778970003128051758e+00 1.358131408691406250e+00 -3.218298554420471191e-01
3.220000000000000000e+03 5.587289810180664062e+00 1.268649578094482422e+01 1.184708345681428909e-02 -1.913184076547622681e-01 -5.384139716625213623e-02 3.023146092891693115e-01
3.221000000000000000e+03 3.213415145874023438e+01 3.621874237060546875e+01 3.769263923168182373e-01 1.353998631238937378e-01 1.536978781223297119e-01 1.153881624341011047e-01
3.222000000000000000e+03 3.127259826660156250e+01 3.310993194580078125e+01 3.414788544178009033e-01 2.257319726049900055e-02 1.092156171798706055e-01 1.611509174108505249e-01
3.223000000000000000e+03 7.074368286132812500e+01 -3.903609848022460938e+01 -2.329865247011184692e-01 5.183120727539062500e+00 1.485040307044982910e+00 -3.444948792457580566e-01
3.224000000000000000e+03 6.987808990478515625e+01 -3.695161819458007812e+01 1.944080740213394165e-01 5.059930801391601562e+00 1.576301693916320801e+00 -5.144308209419250488e-01
3.225000000000000000e+03 7.106107330322265625e+01 3.622937011718750000e+01 9.946867823600769043e-02 5.158712863922119141e+00 1.577454566955566406e+00 5.429740622639656067e-02
3.226000000000000000e+03 7.163769531250000000e+01 3.844534301757812500e+01 -1.372093684040009975e-03 5.390045166015625000e+00 1.616601943969726562e+00 7.548944652080535889e-02
3.227000000000000000e+03 3.376764678955078125e+01 -3.523283386230468750e+01 3.356262445449829102e-01 3.297315239906311035e-01 1.996073275804519653e-01 -6.156424060463905334e-02
3.228000000000000000e+03 3.107331657409667969e+01 -3.452040863037109375e+01 2.331797331571578979e-01 1.825404316186904907e-01 1.247160509228706360e-01 -7.073716819286346436e-02
3.229000000000000000e+03 2.514277839660644531e+01 6.629401683807373047e+00 1.723410040140151978e-01 -2.118176221847534180e-02 4.534777253866195679e-02 1.835297942161560059e-01
3.230000000000000000e+03 6.323982620239257812e+01 2.928566217422485352e+00 -1.405922174453735352e+00 5.906249046325683594e+00 1.350098133087158203e+00 -1.762716770172119141e+00
3.231000000000000000e+03 7.700158596038818359e+00 -8.386677742004394531e+00 2.486442774534225464e-02 -1.290658712387084961e-01 -3.126043453812599182e-02 -7.128073275089263916e-02
3.232000000000000000e+03 7.102639007568359375e+01 2.621658325195312500e+01 3.199854493141174316e-01 4.433052539825439453e+00 1.425911426544189453e+00 -7.719150781631469727e-01
3.233000000000000000e+03 7.119837951660156250e+01 2.729170227050781250e+01 4.542880952358245850e-01 4.600512504577636719e+00 1.516440153121948242e+00 -6.100056767463684082e-01
3.234000000000000000e+03 7.236059570312500000e+01 2.514404296875000000e+01 -2.087730616331100464e-01 5.357115745544433594e+00 1.544502854347229004e+00 -8.626862764358520508e-01
3.235000000000000000e+03 2.797137641906738281e+01 3.570866012573242188e+01 2.732043564319610596e-01 4.175342619419097900e-02 9.448733180761337280e-02 1.820854097604751587e-01
3.236000000000000000e+03 1.087056636810302734e+01 -7.517360210418701172e+00 7.107668556272983551e-03 -5.727221816778182983e-02 -1.504936534911394119e-02 -1.009747162461280823e-01
3.237000000000000000e+03 6.431000518798828125e+01 1.899264693260192871e+00 -3.175506293773651123e-01 6.202367782592773438e+00 1.765445113182067871e+00 -2.041470408439636230e-01
3.238000000000000000e+03 6.991204071044921875e+01 3.023547172546386719e+01 6.993502378463745117e-01 4.463356494903564453e+00 1.548811912536621094e+00 -5.622551962733268738e-02
3.239000000000000000e+03 3.325548171997070312e+01 3.540723419189453125e+01 3.868941664695739746e-01 1.833506226539611816e-01 1.710734367370605469e-01 1.073155999183654785e-01
3.240000000000000000e+03 3.061564445495605469e+01 3.853252792358398438e+01 3.851279914379119873e-01 1.000749766826629639e-01 1.455608904361724854e-01 8.906077593564987183e-02
3.241000000000000000e+03 2.742139816284179688e+01 4.120068740844726562e+01 3.301230967044830322e-01 -3.470059949904680252e-03 9.799591451883316040e-02 1.720375940203666687e-02
3.242000000000000000e+03 6.586924743652343750e+01 3.743327331542968750e+01 -1.227439492940902710e-01 3.636929273605346680e+00 1.054255604743957520e+00 -4.659606888890266418e-02
3.243000000000000000e+03 8.152252197265625000e+00 -4.158208084106445312e+01 2.064523547887802124e-01 -3.803442716598510742e-01 -5.216757208108901978e-02 -4.574486240744590759e-02
3.244000000000000000e+03 9.342913627624511719e+00 -3.982089614868164062e+01 2.341369241476058960e-01 -3.121062517166137695e-01 -2.339079976081848145e-02 -1.335550099611282349e-01
3.245000000000000000e+03 3.256379699707031250e+01 -3.367729949951171875e+01 3.093731701374053955e-01 2.678360939025878906e-01 1.731627881526947021e-01 -1.139919012784957886e-01
3.246000000000000000e+03 5.588213920593261719e+00 3.689994049072265625e+01 8.887486159801483154e-02 -3.449046611785888672e-01 -7.680893689393997192e-02 -2.549467794597148895e-02
3.247000000000000000e+03 7.258767127990722656e+00 3.735545730590820312e+01 8.290027827024459839e-02 -8.780018240213394165e-02 -1.469971379265189171e-03 -4.450690466910600662e-03
3.248000000000000000e+03 1.923623657226562500e+01 3.967439270019531250e+01 2.309276908636093140e-01 -1.907292157411575317e-01 1.205954141914844513e-02 4.268174991011619568e-02
3.249000000000000000e+03 1.898507499694824219e+01 3.595447158813476562e+01 1.576873064041137695e-01 -2.601996660232543945e-01 -3.075371123850345612e-02 7.505407929420471191e-02
3.250000000000000000e+03 1.190114116668701172e+01 3.756937026977539062e+01 7.000045478343963623e-02 5.169290676712989807e-02 3.650800883769989014e-02 1.321405619382858276e-01
3.251000000000000000e+03 7.404920959472656250e+01 3.728959274291992188e+01 1.752355881035327911e-02 6.200272083282470703e+00 1.865338683128356934e+00 5.964776873588562012e-02
3.252000000000000000e+03 2.738566970825195312e+01 3.843855285644531250e+01 2.956031262874603271e-01 2.125260233879089355e-02 9.505672007799148560e-02 8.678606152534484863e-02
3.253000000000000000e+03 2.898733901977539062e+01 -3.679822921752929688e+01 2.055802643299102783e-01 1.704216818325221539e-03 6.218534335494041443e-02 4.304024577140808105e-02
3.254000000000000000e+03 2.302849388122558594e+01 4.102724456787109375e+01 2.641068100929260254e-01 -1.189648881554603577e-01 4.354257881641387939e-02 1.799310371279716492e-02
3.255000000000000000e+03 2.673275375366210938e+01 -3.671827697753906250e+01 8.079418540000915527e-02 -1.644756197929382324e-01 -2.510442957282066345e-02 7.057314366102218628e-02
3.256000000000000000e+03 3.307247543334960938e+01 3.778789520263671875e+01 4.285033047199249268e-01 1.706052720546722412e-01 1.797325760126113892e-01 8.088219165802001953e-02
3.257000000000000000e+03 3.220264053344726562e+01 9.783218502998352051e-01 -1.422827005386352539e+00 2.971422672271728516e-01 -3.377054333686828613e-01 -4.069445133209228516e-01
3.258000000000000000e+03 1.822240447998046875e+01 -4.412163496017456055e-01 -1.109563782811164856e-01 7.312522828578948975e-02 -1.134934369474649429e-02 -4.145051538944244385e-02
3.259000000000000000e+03 3.014901351928710938e+01 6.374798417091369629e-01 -1.073821544647216797e+00 2.489371746778488159e-01 -2.474652975797653198e-01 -7.211075723171234131e-02
3.260000000000000000e+03 6.079286193847656250e+01 -1.786706209182739258e+00 3.478326797485351562e+00 2.399117231369018555e+00 1.763233184814453125e+00 -3.540532588958740234e+00
3.261000000000000000e+03 6.158407974243164062e+01 -1.685399413108825684e+00 4.049821376800537109e+00 6.438372135162353516e+00 3.146458148956298828e+00 -5.603650569915771484e+00
3.262000000000000000e+03 6.207301330566406250e+01 -5.266804695129394531e+00 -4.884296655654907227e-01 1.136607742309570312e+01 3.263294219970703125e+00 3.402141094207763672e+00
3.263000000000000000e+03 6.190599441528320312e+01 -4.930879592895507812e+00 1.135187447071075439e-01 9.570793151855468750e+00 2.905293703079223633e+00 3.672392845153808594e+00
3.264000000000000000e+03 6.153876113891601562e+01 -4.998286247253417969e+00 2.175007611513137817e-01 6.597716331481933594e+00 2.044565200805664062e+00 2.598683595657348633e+00
3.265000000000000000e+03 6.135210037231445312e+01 -5.029631137847900391e+00 3.913445770740509033e-01 4.843303203582763672e+00 1.570394396781921387e+00 2.430514097213745117e+00
3.266000000000000000e+03 4.011656570434570312e+01 3.686994791030883789e+00 -9.695175290107727051e-02 -7.272793650627136230e-01 -2.472693324089050293e-01 -6.718613207340240479e-02
3.267000000000000000e+03 3.262794494628906250e+01 2.418260097503662109e+00 -8.131150007247924805e-01 -2.357673197984695435e-01 -3.146646916866302490e-01 5.007520318031311035e-01
3.268000000000000000e+03 7.517380523681640625e+01 -8.124175071716308594e+00 6.861895322799682617e-01 1.476140689849853516e+01 4.634278774261474609e+00 7.093373537063598633e-01
3.269000000000000000e+03 7.577394104003906250e+01 -7.256699562072753906e+00 1.156882047653198242e+00 1.337902641296386719e+01 4.360772609710693359e+00 -8.016086816787719727e-01
3.270000000000000000e+03 6.160865020751953125e+01 -6.124051570892333984e+00 1.051604226231575012e-01 9.916482925415039062e+00 3.006492853164672852e+00 2.936473846435546875e+00
3.271000000000000000e+03 3.018749427795410156e+01 1.258907127380371094e+01 -2.402945756912231445e-01 8.222452402114868164e-01 1.745851933956146240e-01 4.379166066646575928e-01
3.272000000000000000e+03 5.485285949707031250e+01 -2.456067276000976562e+01 7.027289867401123047e-01 4.177388191223144531e+00 1.464035153388977051e+00 1.715163469314575195e+00
3.273000000000000000e+03 1.066381740570068359e+01 2.128356170654296875e+01 -1.731405593454837799e-02 -1.998608000576496124e-02 -1.119004003703594208e-02 2.723515033721923828e-01
3.274000000000000000e+03 3.511344146728515625e+01 -2.970778656005859375e+01 4.737159609794616699e-01 2.153593897819519043e-01 2.067226022481918335e-01 -2.233330905437469482e-01
3.275000000000000000e+03 4.918169403076171875e+01 -8.776161193847656250e+00 -1.256999210454523563e-03 5.709199905395507812e-01 1.708988994359970093e-01 1.805674731731414795e-01
3.276000000000000000e+03 5.249020767211914062e+01 2.973404693603515625e+01 6.333780288696289062e-01 4.812914371490478516e+00 1.633887648582458496e+00 -1.061432063579559326e-01
3.277000000000000000e+03 5.141456604003906250e+01 2.707655525207519531e+01 9.382978677749633789e-01 3.720899105072021484e+00 1.397759079933166504e+00 -4.529666900634765625e-01
3.278000000000000000e+03 6.174099349975585938e+01 8.391199111938476562e+00 -4.485931992530822754e-01 6.321768283843994141e+00 1.761952519416809082e+00 -2.178293704986572266e+00
3.279000000000000000e+03 2.714792633056640625e+01 3.006886100769042969e+01 2.809774875640869141e-01 -8.481810986995697021e-02 5.884781479835510254e-02 4.379009902477264404e-01
3.280000000000000000e+03 1.666268539428710938e+01 -4.182277297973632812e+01 6.924990415573120117e-01 1.914247423410415649e-01 2.651771306991577148e-01 -4.945573955774307251e-02
3.281000000000000000e+03 1.242689609527587891e+01 -4.183187103271484375e+01 4.299094676971435547e-01 -1.247304156422615051e-01 9.155371785163879395e-02 -1.354475226253271103e-02
3.282000000000000000e+03 1.589491653442382812e+01 -4.067490386962890625e+01 5.870394706726074219e-01 1.644265949726104736e-01 2.254398316144943237e-01 -1.343273222446441650e-01
3.283000000000000000e+03 1.202099418640136719e+01 -4.038274383544921875e+01 3.777498900890350342e-01 -1.552217900753021240e-01 6.675843149423599243e-02 -6.703584641218185425e-02
3.284000000000000000e+03 5.760483932495117188e+01 -3.904419708251953125e+01 -6.105939745903015137e-01 1.988783717155456543e+00 4.134569168090820312e-01 -3.188733756542205811e-01
3.285000000000000000e+03 5.667904281616210938e+01 -3.699277496337890625e+01 -5.269904136657714844e-01 3.469167709350585938e+00 8.826531767845153809e-01 -5.846859812736511230e-01
3.286000000000000000e+03 1.283386039733886719e+01 -3.846397781372070312e+01 2.439649105072021484e-01 -1.061033755540847778e-01 4.135845974087715149e-02 -1.576810181140899658e-01
3.287000000000000000e+03 6.495034027099609375e+01 -7.609561085700988770e-01 2.752246379852294922e+00 9.327403068542480469e+00 3.623894929885864258e+00 3.097436666488647461e+00
3.288000000000000000e+03 6.265371322631835938e+01 -6.045365333557128906e+00 3.823409602046012878e-02 1.265465927124023438e+01 3.807868242263793945e+00 2.279323816299438477e+00
3.289000000000000000e+03 4.290509414672851562e+01 3.587532806396484375e+01 5.829493999481201172e-01 8.650714755058288574e-01 4.344062507152557373e-01 -4.241532385349273682e-01
3.290000000000000000e+03 5.469318771362304688e+01 3.529410839080810547e+00 -7.263147830963134766e-01 9.243534803390502930e-01 5.941160395741462708e-02 -5.279201865196228027e-01
3.291000000000000000e+03 4.603166580200195312e+01 2.358213186264038086e+00 -1.119779825210571289e+00 2.213075160980224609e-01 -2.695417106151580811e-01 1.743441969156265259e-01
3.292000000000000000e+03 6.732708930969238281e+00 2.017623519897460938e+01 7.359309494495391846e-02 -3.400617241859436035e-01 -7.994058728218078613e-02 6.639216840267181396e-02
3.293000000000000000e+03 4.694562911987304688e+01 -3.843901062011718750e+01 5.624130964279174805e-01 1.303127765655517578e+00 5.596622228622436523e-01 6.973183751106262207e-01
3.294000000000000000e+03 5.714939498901367188e+01 1.192307472229003906e+01 1.365764617919921875e+00 4.920815944671630859e+00 1.885974168777465820e+00 -1.019235372543334961e+00
3.295000000000000000e+03 3.200722885131835938e+01 2.031136035919189453e+00 -1.339012861251831055e+00 2.793635427951812744e-01 -3.178947865962982178e-01 1.009083017706871033e-01
3.296000000000000000e+03 6.814730072021484375e+01 -3.887356185913085938e+01 -3.722708523273468018e-01 4.429584503173828125e+00 1.217194080352783203e+00 -1.903367191553115845e-01
3.297000000000000000e+03 6.549591064453125000e+01 -3.863881683349609375e+01 -7.665467262268066406e-01 3.151052236557006836e+00 7.153516411781311035e-01 4.319997727870941162e-01
3.298000000000000000e+03 5.620737838745117188e+01 -3.785159683227539062e+01 -6.641268134117126465e-01 3.314850807189941406e+00 7.952172160148620605e-01 -1.909884810447692871e-01
3.299000000000000000e+03 1.600906753540039062e+01 -6.953864097595214844e+00 6.185836344957351685e-02 2.409335374832153320e-01 9.083756804466247559e-02 -1.675240881741046906e-02
3.300000000000000000e+03 4.965153121948242188e+01 -6.658573627471923828e+00 -4.515584707260131836e-01 3.873296380043029785e-01 -1.926865242421627045e-02 6.795416474342346191e-01
3.301000000000000000e+03 5.042772293090820312e+01 -6.617595195770263672e+00 -5.991319417953491211e-01 1.394800469279289246e-02 -1.755551844835281372e-01 6.671475172042846680e-01
3.302000000000000000e+03 5.217390441894531250e+01 -1.064750289916992188e+01 -7.848437428474426270e-01 -2.728018164634704590e-01 -3.172936737537384033e-01 1.819434016942977905e-02
3.303000000000000000e+03 6.363372421264648438e+01 -2.419783401489257812e+01 5.097958445549011230e-01 5.224019050598144531e+00 1.720144391059875488e+00 -9.404141306877136230e-01
3.304000000000000000e+03 6.538426971435546875e+01 2.904571592807769775e-01 1.708249092102050781e+00 6.952767848968505859e+00 2.598304986953735352e+00 2.122474908828735352e+00
3.305000000000000000e+03 4.637104797363281250e+01 2.134686279296875000e+01 2.591129839420318604e-01 8.771786093711853027e-01 3.408874869346618652e-01 1.643291562795639038e-01
3.306000000000000000e+03 4.153643035888671875e+01 9.375286102294921875e+00 -3.134712278842926025e-01 -1.575968265533447266e-01 -1.413204073905944824e-01 4.143667519092559814e-01
3.307000000000000000e+03 6.856233215332031250e+01 2.356730842590332031e+01 -2.087440788745880127e-01 2.532473564147949219e+00 6.971188783645629883e-01 -1.157137870788574219e+00
3.308000000000000000e+03 3.485960388183593750e+01 -3.141703796386718750e+01 4.492938220500946045e-01 3.300881981849670410e-01 2.338146120309829712e-01 -1.627926528453826904e-01
3.309000000000000000e+03 6.042031478881835938e+01 -1.532101750373840332e+00 3.212527036666870117e+00 2.121308565139770508e+00 1.600150704383850098e+00 -3.092522144317626953e+00
3.310000000000000000e+03 6.151810073852539062e+01 -1.355613708496093750e+00 3.045140266418457031e+00 6.506329059600830078e+00 2.865440845489501953e+00 -5.193597316741943359e+00
3.311000000000000000e+03 6.172185134887695312e+01 -9.275365471839904785e-01 2.017038583755493164e+00 7.884023666381835938e+00 2.970318555831909180e+00 -4.864449501037597656e+00
3.312000000000000000e+03 6.152550506591796875e+01 -5.309327125549316406e+00 -4.170131087303161621e-01 6.830585956573486328e+00 1.924071907997131348e+00 2.462015390396118164e+00
3.313000000000000000e+03 6.667527770996093750e+01 -3.992398452758789062e+01 -7.188712954521179199e-01 3.758992433547973633e+00 9.120362997055053711e-01 4.396696388721466064e-02
3.314000000000000000e+03 3.469886779785156250e+01 -7.600088596343994141e+00 1.372697353363037109e-01 2.946557104587554932e-01 1.295776367187500000e-01 -5.303021073341369629e-01
3.315000000000000000e+03 7.359689331054687500e+01 7.707890987396240234e+00 -4.911977946758270264e-01 8.476726531982421875e+00 2.395658731460571289e+00 2.348873764276504517e-02
3.316000000000000000e+03 5.481462478637695312e+01 -3.593664932250976562e+01 2.365137338638305664e-01 3.886464357376098633e+00 1.236893415451049805e+00 6.219674944877624512e-01
3.317000000000000000e+03 4.294882965087890625e+01 -2.591447257995605469e+01 3.838625550270080566e-01 5.394172668457031250e-01 2.769839465618133545e-01 1.593747287988662720e-01
3.318000000000000000e+03 1.634382438659667969e+01 3.516273498535156250e+01 7.968904823064804077e-02 -1.967083960771560669e-01 -3.510580211877822876e-02 1.263875365257263184e-01
3.319000000000000000e+03 7.297747039794921875e+01 1.420355033874511719e+01 1.313194274902343750e+00 1.167582511901855469e+01 3.896705627441406250e+00 -1.302473098039627075e-01
3.320000000000000000e+03 7.684329223632812500e+01 -6.868883609771728516e+00 1.271927118301391602e+00 1.020292663574218750e+01 3.442456245422363281e+00 -1.129821538925170898e+00
3.321000000000000000e+03 6.128366088867187500e+01 7.462386608123779297e+00 -2.231981992721557617e+00 6.311714649200439453e+00 1.223919868469238281e+00 -1.440209865570068359e+00
3.322000000000000000e+03 5.585702896118164062e+01 -3.630750656127929688e+01 -2.536395490169525146e-01 4.232660770416259766e+00 1.193706393241882324e+00 1.836367994546890259e-01
3.323000000000000000e+03 4.953294372558593750e+01 -2.651375770568847656e+01 1.433595120906829834e-01 6.224830150604248047e-01 2.297527641057968140e-01 -6.066143512725830078e-01
3.324000000000000000e+03 4.968751525878906250e+01 -5.898576736450195312e+00 -5.778895616531372070e-01 3.525940477848052979e-01 -6.758865714073181152e-02 7.197973728179931641e-01
3.325000000000000000e+03 5.734715652465820312e+01 -1.843600845336914062e+01 -6.474540568888187408e-03 3.019316434860229492e+00 9.038525223731994629e-01 9.885666370391845703e-01
3.326000000000000000e+03 6.921498107910156250e+01 -3.015408515930175781e+01 1.615242004394531250e+00 2.927948951721191406e+00 1.362957358360290527e+00 -4.054098427295684814e-01
3.327000000000000000e+03 7.741563415527343750e+01 -3.570954132080078125e+01 1.545951142907142639e-02 7.394502639770507812e+00 2.222988605499267578e+00 1.119601428508758545e-01
3.328000000000000000e+03 7.696494293212890625e+01 -2.180257606506347656e+01 8.339875340461730957e-01 8.299782752990722656e+00 2.740131139755249023e+00 1.444368511438369751e-01
3.329000000000000000e+03 7.656358337402343750e+01 -1.571448230743408203e+01 -5.490106940269470215e-01 8.189177513122558594e+00 2.292050123214721680e+00 9.331241846084594727e-01
3.330000000000000000e+03 3.931452941894531250e+01 -2.965002822875976562e+01 4.158783257007598877e-01 7.511395812034606934e-01 3.501053750514984131e-01 4.322432875633239746e-01
3.331000000000000000e+03 4.727187347412109375e+01 3.380634307861328125e+01 4.431924223899841309e-01 1.985177397727966309e+00 7.285109162330627441e-01 -6.387504339218139648e-01
3.332000000000000000e+03 4.533945083618164062e+00 -2.598583030700683594e+01 1.238307566381990910e-03 -1.655343174934387207e-01 -4.928880557417869568e-02 1.627399958670139313e-02
3.333000000000000000e+03 3.784200286865234375e+01 -3.454806900024414062e+01 4.003851115703582764e-01 6.798299551010131836e-01 3.240645229816436768e-01 -1.120297834277153015e-01
3.334000000000000000e+03 7.088041687011718750e+01 -3.108351707458496094e+01 1.300815701484680176e+00 3.546600341796875000e+00 1.454224824905395508e+00 9.814699739217758179e-02
3.335000000000000000e+03 5.640800476074218750e+01 3.797871351242065430e+00 -8.736587166786193848e-01 2.224741220474243164e+00 4.053247869014739990e-01 -1.233594655990600586e+00
3.336000000000000000e+03 1.794502639770507812e+01 2.185929107666015625e+01 2.781451344490051270e-01 1.697078943252563477e-01 1.343559175729751587e-01 1.843080967664718628e-01
3.337000000000000000e+03 3.335683441162109375e+01 -6.560788154602050781e+00 -5.837564915418624878e-02 -1.489378064870834351e-01 -6.219403445720672607e-02 -5.397041440010070801e-01
3.338000000000000000e+03 1.326389217376708984e+01 1.934493446350097656e+01 7.752805948257446289e-02 3.123736381530761719e-01 1.169705092906951904e-01 4.771456718444824219e-01
3.339000000000000000e+03 1.112704467773437500e+01 2.020175361633300781e+01 8.358480781316757202e-02 1.383578628301620483e-01 6.658280640840530396e-02 2.989645600318908691e-01
3.340000000000000000e+03 3.189963150024414062e+01 -1.309793472290039062e+01 -6.027440428733825684e-01 -2.590343654155731201e-01 -2.585335075855255127e-01 5.323567241430282593e-02
3.341000000000000000e+03 2.957290077209472656e+01 2.931635379791259766e+00 -6.369680762290954590e-01 3.779710531234741211e-01 -7.769910991191864014e-02 6.044408306479454041e-02
3.342000000000000000e+03 6.225809478759765625e+01 -9.703922271728515625e+00 8.355011343955993652e-01 8.880135536193847656e+00 2.914690971374511719e+00 1.428426742553710938e+00
3.343000000000000000e+03 6.302840805053710938e+01 -9.914998054504394531e+00 8.434910178184509277e-01 9.824526786804199219e+00 3.200405359268188477e+00 1.407118201255798340e+00
3.344000000000000000e+03 4.219649124145507812e+01 -2.032990074157714844e+01 5.049816966056823730e-01 4.309245944023132324e-01 2.807718813419342041e-01 -2.114925384521484375e-01
3.345000000000000000e+03 3.119154930114746094e+01 -8.826766014099121094e+00 -3.700292408466339111e-01 -7.269954681396484375e-01 -3.291074037551879883e-01 -4.944472014904022217e-01
3.346000000000000000e+03 2.598592758178710938e+01 3.432350540161132812e+01 1.428571045398712158e-01 7.087067514657974243e-02 6.411833316087722778e-02 1.923322230577468872e-01
3.347000000000000000e+03 2.402997207641601562e+01 3.557266998291015625e+01 1.453999429941177368e-01 -1.865269616246223450e-03 4.306039959192276001e-02 9.413397312164306641e-02
3.348000000000000000e+03 3.549496459960937500e+01 1.847624015808105469e+01 3.723019361495971680e-01 -2.066878974437713623e-01 4.968421161174774170e-02 3.577063083648681641e-01
3.349000000000000000e+03 4.084080886840820312e+01 1.868985748291015625e+01 2.385158836841583252e-01 1.438503861427307129e-01 1.147098764777183533e-01 1.214536428451538086e-01
3.350000000000000000e+03 9.068123817443847656e+00 -2.567416191101074219e+01 -6.682398170232772827e-02 -7.256466150283813477e-02 -4.181659221649169922e-02 -1.564512997865676880e-01
3.351000000000000000e+03 4.992234039306640625e+01 2.097746276855468750e+01 -3.810949996113777161e-02 1.988027691841125488e+00 5.849754810333251953e-01 -1.018511891365051270e+00
3.352000000000000000e+03 6.019143295288085938e+01 1.519421219825744629e+00 -4.061020612716674805e-01 4.873936653137207031e+00 1.340350389480590820e+00 -3.139537096023559570e+00
3.353000000000000000e+03 6.869534301757812500e+01 2.470903968811035156e+01 3.773755729198455811e-01 2.985105514526367188e+00 1.008744359016418457e+00 -8.645479083061218262e-01
3.354000000000000000e+03 3.049250602722167969e+01 -3.322816848754882812e+01 2.438205331563949585e-01 1.596183329820632935e-01 1.210316568613052368e-01 -1.225525438785552979e-01
3.355000000000000000e+03 5.348936843872070312e+01 -2.958186149597167969e+01 1.040630936622619629e+00 3.456866502761840820e+00 1.349249243736267090e+00 7.262235283851623535e-01
3.356000000000000000e+03 4.872824478149414062e+01 2.633248901367187500e+01 5.849990844726562500e-01 2.370754718780517578e+00 8.867260813713073730e-01 -2.297346144914627075e-01
3.357000000000000000e+03 2.921850967407226562e+01 -2.783674812316894531e+01 4.383949637413024902e-01 3.130098804831504822e-02 1.409087926149368286e-01 -2.409363538026809692e-01
3.358000000000000000e+03 3.557039737701416016e+00 3.230481719970703125e+01 1.288551539182662964e-01 -6.332914829254150391e-01 -1.513309031724929810e-01 1.753205955028533936e-01
3.359000000000000000e+03 1.976712036132812500e+01 -2.446062660217285156e+01 1.327179819345474243e-01 1.463773697614669800e-01 8.372861146926879883e-02 -3.204416036605834961e-01
3.360000000000000000e+03 2.205740737915039062e+01 2.735237693786621094e+01 3.680408000946044922e-01 2.900588139891624451e-02 1.191140040755271912e-01 4.492546916007995605e-01
3.361000000000000000e+03 3.586509323120117188e+01 2.077308845520019531e+01 1.798311173915863037e-01 -8.274638652801513672e-02 2.912541851401329041e-02 2.660772204399108887e-01
3.362000000000000000e+03 1.827157783508300781e+01 -2.444607925415039062e+01 1.094518974423408508e-01 -3.219664841890335083e-02 2.317657507956027985e-02 -3.809189200401306152e-01
3.363000000000000000e+03 3.258516311645507812e+01 2.742079925537109375e+01 -6.730543822050094604e-02 -1.647190935909748077e-02 -2.513320371508598328e-02 1.078908294439315796e-01
3.364000000000000000e+03 2.237512969970703125e+01 1.097410774230957031e+01 1.916321069002151489e-01 -1.724716275930404663e-01 5.748146679252386093e-03 1.251989006996154785e-01
3.365000000000000000e+03 5.833895111083984375e+01 1.962494087219238281e+01 -1.279864907264709473e-01 3.110540390014648438e+00 8.947661519050598145e-01 -3.401343822479248047e-01
3.366000000000000000e+03 1.359370040893554688e+01 4.729888916015625000e+00 -3.290406763553619385e-01 -2.198299765586853027e-01 -1.646611988544464111e-01 3.599199652671813965e-01
3.367000000000000000e+03 6.721705627441406250e+01 3.660306453704833984e+00 -9.877812862396240234e-02 2.329444646835327148e+00 6.692000031471252441e-01 2.015828371047973633e+00
3.368000000000000000e+03 6.101807022094726562e+01 2.763561725616455078e+00 -1.421696305274963379e+00 5.776075839996337891e+00 1.306313872337341309e+00 -3.090286016464233398e+00
3.369000000000000000e+03 5.894820785522460938e+01 1.737084960937500000e+01 1.092914104461669922e+00 4.858857631683349609e+00 1.785531520843505859e+00 -3.151308894157409668e-01
3.370000000000000000e+03 5.820321273803710938e+01 1.862449645996093750e+01 5.940115451812744141e-01 3.635596752166748047e+00 1.268882513046264648e+00 -6.706352829933166504e-01
3.371000000000000000e+03 7.519805145263671875e+01 1.672537422180175781e+01 7.220595143735408783e-04 8.263221740722656250e+00 2.479183197021484375e+00 1.131659507751464844e+00
3.372000000000000000e+03 2.305095863342285156e+01 1.525273132324218750e+01 -2.861907184123992920e-01 -1.247967779636383057e-01 -1.232962533831596375e-01 9.845107048749923706e-02
3.373000000000000000e+03 6.141545104980468750e+01 -9.864385724067687988e-01 2.349012613296508789e+00 6.428509235382080078e+00 2.633256435394287109e+00 -4.712549686431884766e+00
3.374000000000000000e+03 4.231626987457275391e+00 -4.428134441375732422e+00 -1.466429821448400617e-04 -4.363553971052169800e-02 -1.313465461134910583e-02 -2.294466644525527954e-02
3.375000000000000000e+03 7.263621520996093750e+01 -3.337254714965820312e+01 7.956346869468688965e-01 5.001306056976318359e+00 1.739082217216491699e+00 8.132135123014450073e-02
3.376000000000000000e+03 3.231118774414062500e+01 3.076944732666015625e+01 2.593331933021545410e-01 8.229063451290130615e-02 1.024871468544006348e-01 8.069085329771041870e-02
3.377000000000000000e+03 5.140011596679687500e+01 2.338977241516113281e+01 -2.986771762371063232e-01 3.217690467834472656e+00 8.757039904594421387e-01 -7.044034004211425781e-01
3.378000000000000000e+03 7.734806823730468750e+01 1.475087404251098633e+00 -2.012378722429275513e-01 7.270622253417968750e+00 2.120815277099609375e+00 -2.306018490344285965e-03
3.379000000000000000e+03 2.878884696960449219e+01 -3.324777984619140625e+01 1.464940607547760010e-01 5.122920125722885132e-02 5.931697785854339600e-02 -1.229798719286918640e-01
3.380000000000000000e+03 2.946793937683105469e+01 -3.231226348876953125e+01 2.171071022748947144e-01 7.919812947511672974e-02 8.889156579971313477e-02 -1.717413663864135742e-01
3.381000000000000000e+03 7.518587493896484375e+01 3.005912065505981445e+00 -3.783463239669799805e-01 6.719938278198242188e+00 1.902477622032165527e+00 4.079911857843399048e-02
3.382000000000000000e+03 3.832636260986328125e+01 1.774744606018066406e+01 3.781175017356872559e-01 -2.338207662105560303e-01 4.328902438282966614e-02 1.714976131916046143e-01
3.383000000000000000e+03 3.338537216186523438e+01 -1.008771514892578125e+01 -1.579933762550354004e-01 -5.321667715907096863e-02 -6.336301565170288086e-02 -1.721853911876678467e-01
3.384000000000000000e+03 2.593605232238769531e+01 -1.971304702758789062e+01 -7.970327138900756836e-02 -2.322677075862884521e-01 -9.359129518270492554e-02 -2.140146940946578979e-01
3.385000000000000000e+03 2.508904838562011719e+01 -1.944000244140625000e+01 -1.283033490180969238e-01 -2.147733569145202637e-01 -1.029230132699012756e-01 -3.013852536678314209e-01
3.386000000000000000e+03 3.151832008361816406e+01 3.028163909912109375e+01 2.238839864730834961e-01 -1.145718842744827271e-01 3.279362991452217102e-02 1.086984425783157349e-01
3.387000000000000000e+03 7.107588195800781250e+01 -3.383858108520507812e+01 9.702682495117187500e-01 4.667686939239501953e+00 1.691386580467224121e+00 -4.657993316650390625e-01
3.388000000000000000e+03 2.346842765808105469e+01 1.015570163726806641e+01 2.793382704257965088e-01 -1.565259844064712524e-01 3.684368729591369629e-02 1.337670683860778809e-01
3.389000000000000000e+03 2.397458076477050781e+01 1.149899101257324219e+01 1.940786242485046387e-01 -1.232536733150482178e-01 2.124748192727565765e-02 1.054797470569610596e-01
3.390000000000000000e+03 1.042774677276611328e+01 -2.756604385375976562e+01 -1.075712889432907104e-01 -2.573037445545196533e-01 -1.094625145196914673e-01 -1.899437755346298218e-01
3.391000000000000000e+03 5.998939514160156250e+01 -1.839963722229003906e+01 2.038061320781707764e-01 4.358967781066894531e+00 1.368832230567932129e+00 7.001671195030212402e-01
3.392000000000000000e+03 5.191918945312500000e+01 2.401008987426757812e+01 -2.628891766071319580e-01 3.516994714736938477e+00 9.762316942214965820e-01 -6.496859788894653320e-01
3.393000000000000000e+03 6.939112854003906250e+01 -3.099905967712402344e+01 1.668357133865356445e+00 3.503898620605468750e+00 1.551676750183105469e+00 -7.088887095451354980e-01
3.394000000000000000e+03 7.613265991210937500e+01 1.720979499816894531e+01 -8.608278632164001465e-02 7.885531425476074219e+00 2.339834690093994141e+00 1.136947989463806152e+00
3.395000000000000000e+03 3.975569963455200195e+00 2.181481933593750000e+01 4.116565687581896782e-04 -4.660877883434295654e-01 -1.397028416395187378e-01 -2.075315266847610474e-02
3.396000000000000000e+03 8.483144760131835938e+00 3.407799482345581055e+00 -7.450539618730545044e-02 -6.000936031341552734e-02 -4.035442695021629333e-02 6.692698691040277481e-03
3.397000000000000000e+03 4.335748291015625000e+01 -1.853564834594726562e+01 4.549475908279418945e-01 3.488324582576751709e-01 2.411340177059173584e-01 -1.356762796640396118e-01
3.398000000000000000e+03 2.546558761596679688e+01 -1.846012687683105469e+01 -2.060809135437011719e-01 -2.814065814018249512e-01 -1.462462544441223145e-01 -2.875697016716003418e-01
3.399000000000000000e+03 4.436638832092285156e+00 1.095013236999511719e+01 -7.862531393766403198e-02 -1.256656646728515625e-01 -6.128729507327079773e-02 2.300669252872467041e-01
3.400000000000000000e+03 5.730541992187500000e+01 1.622875595092773438e+01 1.534549474716186523e+00 4.384114742279052734e+00 1.775599360466003418e+00 -1.169413089752197266e+00
3.401000000000000000e+03 5.124995708465576172e+00 7.999437808990478516e+00 -1.613141745328903198e-01 -5.444095656275749207e-02 -6.472653895616531372e-02 1.243732944130897522e-01
3.402000000000000000e+03 1.065655803680419922e+01 4.498075485229492188e+00 -2.220144271850585938e-01 -1.631010025739669800e-01 -1.155346259474754333e-01 1.165961697697639465e-01
3.403000000000000000e+03 1.063487815856933594e+01 5.092156887054443359e+00 -2.872550189495086670e-01 -1.932226568460464478e-01 -1.441433131694793701e-01 1.355895996093750000e-01
3.404000000000000000e+03 7.343598175048828125e+01 2.413043975830078125e+01 -5.574240088462829590e-01 6.094388484954833984e+00 1.661089301109313965e+00 -7.232679128646850586e-01
3.405000000000000000e+03 1.012029647827148438e+01 4.377936840057373047e+00 -1.992862969636917114e-01 -1.296288967132568359e-01 -9.867455810308456421e-02 7.714828103780746460e-02
3.406000000000000000e+03 1.030406951904296875e+01 3.907956838607788086e+00 -1.550726741552352905e-01 -1.107641533017158508e-01 -7.975105196237564087e-02 7.871163636445999146e-02
3.407000000000000000e+03 7.417034149169921875e+01 2.737417030334472656e+01 1.302412152290344238e-01 6.050869941711425781e+00 1.854333281517028809e+00 -5.628679990768432617e-01
3.408000000000000000e+03 4.041805267333984375e+00 8.444459915161132812e+00 -1.043832078576087952e-01 -4.337231814861297607e-02 -4.432665556669235229e-02 1.192274093627929688e-01
3.409000000000000000e+03 7.305676269531250000e+01 2.141010475158691406e+01 -1.292532324790954590e+00 6.639077186584472656e+00 1.603963375091552734e+00 -6.404541134834289551e-01
3.410000000000000000e+03 7.707687854766845703e+00 4.274501323699951172e+00 -1.292716264724731445e-01 -6.342437118291854858e-02 -5.780879780650138855e-02 6.968666799366474152e-03
3.411000000000000000e+03 7.182891845703125000e+01 2.809037017822265625e+01 5.454338788986206055e-01 4.955271244049072266e+00 1.650211572647094727e+00 -4.517681896686553955e-01
3.412000000000000000e+03 7.329474639892578125e+01 2.787709236145019531e+01 2.523027062416076660e-01 5.682487010955810547e+00 1.780436873435974121e+00 -5.470029711723327637e-01
3.413000000000000000e+03 6.967485809326171875e+01 2.603129577636718750e+01 6.614106297492980957e-01 3.795426368713378906e+00 1.337051033973693848e+00 -7.270774245262145996e-01
3.414000000000000000e+03 1.777486610412597656e+01 1.073900461196899414e+00 -5.411199927330017090e-01 3.311169743537902832e-01 -6.300090253353118896e-02 -3.454431518912315369e-02
3.415000000000000000e+03 1.792778015136718750e+01 4.714254438877105713e-01 -4.058450162410736084e-01 -2.175174951553344727e-01 -1.870087534189224243e-01 -8.410193026065826416e-03
3.416000000000000000e+03 1.644459342956542969e+01 1.723731011152267456e-01 -3.700972199440002441e-01 -1.716064512729644775e-01 -1.625111103057861328e-01 -6.364268809556961060e-02
3.417000000000000000e+03 1.848871994018554688e+01 6.747622489929199219e-01 -3.832495808601379395e-01 2.585331797599792480e-01 -3.741492331027984619e-02 1.388789433985948563e-02
3.418000000000000000e+03 1.726383209228515625e+01 2.464335858821868896e-01 -3.204336166381835938e-01 2.230106890201568604e-01 -2.922688238322734833e-02 -7.204640656709671021e-02
3.419000000000000000e+03 1.847787094116210938e+01 1.163098692893981934e+00 -5.369005799293518066e-01 -3.682839572429656982e-01 -2.715553641319274902e-01 -3.296243399381637573e-02
3.420000000000000000e+03 1.630637359619140625e+01 9.048026204109191895e-01 -4.408947527408599854e-01 1.673106104135513306e-01 -8.207524567842483521e-02 -9.163562953472137451e-02
3.421000000000000000e+03 1.839068794250488281e+01 1.810296177864074707e-01 -5.503844618797302246e-01 6.450277566909790039e-02 -1.457644999027252197e-01 -6.770516186952590942e-02
3.422000000000000000e+03 1.705963325500488281e+01 9.744657874107360840e-01 -5.290700197219848633e-01 -2.214054614305496216e-01 -2.251426428556442261e-01 -4.720963910222053528e-02
3.423000000000000000e+03 2.069370651245117188e+01 3.904900848865509033e-01 -7.111056447029113770e-01 5.419709086418151855e-01 -5.074040591716766357e-02 4.309120178222656250e-01
3.424000000000000000e+03 2.311314582824707031e+01 -1.502791643142700195e-01 -1.571845293045043945e+00 2.159030437469482422e-01 -4.067826867103576660e-01 8.152840659022331238e-03
3.425000000000000000e+03 2.569888687133789062e+01 -5.156913399696350098e-01 -2.695834875106811523e+00 3.849065899848937988e-01 -6.932784914970397949e-01 6.443583369255065918e-01
3.426000000000000000e+03 2.401404762268066406e+01 3.338841721415519714e-02 -9.075470566749572754e-01 7.363598942756652832e-01 -5.135613307356834412e-02 -3.187768161296844482e-01
3.427000000000000000e+03 2.763137626647949219e+01 -1.746285796165466309e+00 9.815179109573364258e-01 1.257876157760620117e+00 6.718182563781738281e-01 -7.029029726982116699e-01
3.428000000000000000e+03 2.771944427490234375e+01 -1.175511240959167480e+00 -2.160378932952880859e+00 -5.913204550743103027e-01 -8.255097866058349609e-01 9.583317041397094727e-01
3.429000000000000000e+03 2.848646163940429688e+01 -2.198873519897460938e+00 1.479391157627105713e-01 -5.398544669151306152e-01 -1.175746023654937744e-01 -5.075767636299133301e-03
3.430000000000000000e+03 2.930397224426269531e+01 -2.423318624496459961e+00 -4.189059138298034668e-01 1.589346081018447876e-01 -7.799138873815536499e-02 1.143384128808975220e-01
3.431000000000000000e+03 1.982421684265136719e+01 3.275624811649322510e-01 -5.373230576515197754e-01 1.395450234413146973e-01 -1.193334087729454041e-01 -9.720987081527709961e-02
3.432000000000000000e+03 1.909939575195312500e+01 1.000163033604621887e-01 -2.812150418758392334e-01 7.446279376745223999e-02 -6.202566996216773987e-02 -7.829272001981735229e-02
3.433000000000000000e+03 1.978351783752441406e+01 -9.413920342922210693e-02 -4.484717920422554016e-02 -1.437759846448898315e-01 -5.658694729208946228e-02 -2.189768478274345398e-02
3.434000000000000000e+03 2.930961036682128906e+01 -1.660121440887451172e+00 -1.143623948097229004e+00 -3.317358195781707764e-01 -4.426079094409942627e-01 3.884482383728027344e-01
3.435000000000000000e+03 3.012296295166015625e+01 -2.638345956802368164e+00 -3.635008633136749268e-01 -5.843791961669921875e-01 -2.843640148639678955e-01 1.147095561027526855e-01
3.436000000000000000e+03 3.009844779968261719e+01 -1.867299437522888184e+00 -1.151147842407226562e+00 -1.871814206242561340e-02 -3.509597778320312500e-01 1.942174732685089111e-01
3.437000000000000000e+03 2.688036918640136719e+01 -8.299868702888488770e-01 -3.395565032958984375e+00 -1.827367544174194336e-01 -1.073490500450134277e+00 1.352946162223815918e+00
3.438000000000000000e+03 2.669494247436523438e+01 -1.065739393234252930e+00 2.068809270858764648e+00 5.624255537986755371e-01 7.893704771995544434e-01 -1.527442932128906250e+00
3.439000000000000000e+03 2.604942893981933594e+01 -5.149537920951843262e-01 -5.122790336608886719e+00 -7.243145704269409180e-01 -1.754131436347961426e+00 1.175226807594299316e+00
3.440000000000000000e+03 2.534797477722167969e+01 -2.902369797229766846e-01 -2.961592674255371094e+00 1.094084620475769043e+00 -5.602524280548095703e-01 8.112365603446960449e-01
3.441000000000000000e+03 2.502335357666015625e+01 -2.417187690734863281e-01 -1.097014331817626953e+01 -1.519565939903259277e+00 -3.746912717819213867e+00 4.238848209381103516e+00
3.442000000000000000e+03 2.246835899353027344e+01 1.378261744976043701e-01 -8.081515431404113770e-01 1.235781669616699219e+00 1.282890290021896362e-01 -3.589090406894683838e-01
3.443000000000000000e+03 1.996188163757324219e+01 8.227458000183105469e-01 -8.438220024108886719e-01 -4.372495412826538086e-01 -3.843214809894561768e-01 1.466930564492940903e-02
3.444000000000000000e+03 1.914756202697753906e+01 5.841042995452880859e-01 -6.500405073165893555e-01 -8.913904428482055664e-02 -2.217538505792617798e-01 -2.985016629099845886e-02
3.445000000000000000e+03 1.921282958984375000e+01 1.082078099250793457e+00 -5.239681005477905273e-01 3.893799781799316406e-01 -4.037643596529960632e-02 1.301626116037368774e-01
3.446000000000000000e+03 2.035116004943847656e+01 -1.736120879650115967e-01 -2.299110032618045807e-02 8.636795878410339355e-01 2.522065639495849609e-01 -2.695589661598205566e-01
3.447000000000000000e+03 2.161278152465820312e+01 8.425430953502655029e-02 -6.084286570549011230e-01 -7.953444123268127441e-01 -4.211319088935852051e-01 1.616916358470916748e-01
3.448000000000000000e+03 2.852224922180175781e+01 -1.443525433540344238e+00 -1.486195445060729980e+00 -1.575763225555419922e-01 -4.931315183639526367e-01 6.343387365341186523e-01
3.449000000000000000e+03 2.421053886413574219e+01 -1.071830093860626221e-01 -7.463570117950439453e+00 -2.870898842811584473e-01 -2.325197935104370117e+00 5.905770063400268555e-01
3.450000000000000000e+03 2.475981521606445312e+01 -1.221572384238243103e-01 -8.339539527893066406e+00 -2.160169124603271484e+00 -3.149912834167480469e+00 2.532077789306640625e+00
3.451000000000000000e+03 2.316209220886230469e+01 1.658043712377548218e-01 -1.156345009803771973e+00 -9.187626838684082031e-01 -6.225323081016540527e-01 7.680589556694030762e-01
3.452000000000000000e+03 3.171501731872558594e+01 -2.317536830902099609e+00 -6.378903388977050781e-01 -3.471925258636474609e-01 -2.955248653888702393e-01 -1.040544584393501282e-01
3.453000000000000000e+03 3.159167480468750000e+01 -1.573781251907348633e+00 -7.125748991966247559e-01 7.580825686454772949e-02 -1.910299807786941528e-01 -2.804851233959197998e-01
3.454000000000000000e+03 3.092625236511230469e+01 -2.603541374206542969e+00 -4.656917452812194824e-01 -1.268233954906463623e-01 -1.777545362710952759e-01 1.408002618700265884e-02
3.455000000000000000e+03 3.329127502441406250e+01 -1.721204519271850586e+00 -6.330441832542419434e-01 -2.023425847291946411e-01 -2.506160140037536621e-01 -1.940139532089233398e-01
3.456000000000000000e+03 3.305626296997070312e+01 -1.019069790840148926e+00 -6.933053135871887207e-01 5.005150288343429565e-02 -1.929761320352554321e-01 -3.206104040145874023e-01
3.457000000000000000e+03 3.232479095458984375e+01 -1.299670934677124023e+00 -6.995589137077331543e-01 -2.681040167808532715e-01 -2.902988791465759277e-01 -2.226205021142959595e-01
3.458000000000000000e+03 3.250396728515625000e+01 -2.022616147994995117e+00 -5.985038280487060547e-01 4.661644250154495239e-02 -1.655662208795547485e-01 -3.096905946731567383e-01
3.459000000000000000e+03 3.085874366760253906e+01 -1.838975429534912109e+00 -9.818440675735473633e-01 -3.792980313301086426e-01 -4.083426296710968018e-01 -8.195083588361740112e-02
3.460000000000000000e+03 3.381026458740234375e+01 -7.248246073722839355e-01 -7.166783809661865234e-01 -2.204250842332839966e-01 -2.811310291290283203e-01 -2.110487967729568481e-01
3.461000000000000000e+03 3.458703231811523438e+01 -4.199312925338745117e-01 -6.390690803527832031e-01 6.808827072381973267e-02 -1.712942421436309814e-01 -2.608652412891387939e-01
3.462000000000000000e+03 3.405215835571289062e+01 -1.424708485603332520e+00 -6.193217039108276367e-01 8.914726972579956055e-02 -1.590523272752761841e-01 -2.663606703281402588e-01
3.463000000000000000e+03 3.536509704589843750e+01 -1.194015666842460632e-01 -5.779756903648376465e-01 -1.507293581962585449e-01 -2.186115086078643799e-01 -1.322403848171234131e-01
3.464000000000000000e+03 3.614285659790039062e+01 1.828823834657669067e-01 -4.298930168151855469e-01 1.070242673158645630e-01 -9.686062484979629517e-02 -1.188556775450706482e-01
3.465000000000000000e+03 3.691955184936523438e+01 4.870322942733764648e-01 -2.942453622817993164e-01 -1.038556024432182312e-01 -1.194302886724472046e-01 -2.965540252625942230e-02
3.466000000000000000e+03 3.769688415527343750e+01 7.879440784454345703e-01 -1.459446698427200317e-01 1.402235180139541626e-01 -1.716346712782979012e-03 4.454570356756448746e-03
3.467000000000000000e+03 3.846224212646484375e+01 2.872591614723205566e-01 -2.297658622264862061e-01 1.136813685297966003e-01 -3.482534736394882202e-02 7.422409951686859131e-02
3.468000000000000000e+03 3.847284317016601562e+01 1.084994435310363770e+00 -4.098805412650108337e-02 -1.151651367545127869e-01 -4.684595763683319092e-02 2.114883065223693848e-02
3.469000000000000000e+03 3.478684234619140625e+01 -1.136123776435852051e+00 -6.653625965118408203e-01 -7.567606121301651001e-02 -2.223116010427474976e-01 -1.264189630746841431e-01
3.470000000000000000e+03 3.552282333374023438e+01 -8.519025444984436035e-01 -5.991870164871215820e-01 1.584416478872299194e-01 -1.322236061096191406e-01 -1.276236921548843384e-01
3.471000000000000000e+03 3.625850296020507812e+01 -5.659272074699401855e-01 -5.798674225807189941e-01 -1.338924514129757881e-03 -1.743618994951248169e-01 -1.152436807751655579e-02
3.472000000000000000e+03 3.699311447143554688e+01 -2.780858278274536133e-01 -4.548296034336090088e-01 1.749426275491714478e-01 -8.396609127521514893e-02 2.273652330040931702e-02
3.473000000000000000e+03 3.772836685180664062e+01 6.517409812659025192e-03 -3.593425154685974121e-01 -2.086058259010314941e-02 -1.140609234571456909e-01 5.262653157114982605e-02
3.474000000000000000e+03 4.027894592285156250e+01 -2.541387975215911865e-01 -1.415130943059921265e-01 -1.104998514056205750e-01 -7.560388743877410889e-02 1.146716475486755371e-01
3.475000000000000000e+03 4.047003936767578125e+01 4.750773012638092041e-01 9.227658808231353760e-02 7.349851727485656738e-02 4.973253235220909119e-02 1.078334078192710876e-02
3.476000000000000000e+03 3.969956207275390625e+01 2.476016059517860413e-02 -1.113895997405052185e-01 3.074485063552856445e-02 -2.419342473149299622e-02 9.042601287364959717e-02
3.477000000000000000e+03 4.085557556152343750e+01 -5.415500402450561523e-01 -1.994163990020751953e-01 -3.991072997450828552e-02 -7.179813832044601440e-02 1.604238748550415039e-01
3.478000000000000000e+03 4.111045455932617188e+01 1.569967120885848999e-01 1.544060409069061279e-01 -6.869760900735855103e-02 2.571252919733524323e-02 -4.946440458297729492e-02
3.479000000000000000e+03 3.982687759399414062e+01 7.846456766128540039e-01 2.957725338637828827e-02 -1.049407497048377991e-01 -2.260904945433139801e-02 -3.215063596144318581e-03
3.480000000000000000e+03 3.911914825439453125e+01 2.937080264091491699e-01 -1.268168985843658447e-01 -1.419344693422317505e-01 -8.062540739774703979e-02 1.039312928915023804e-01
3.481000000000000000e+03 3.918268203735351562e+01 1.084262847900390625e+00 4.744375590234994888e-03 1.156718656420707703e-01 3.612487390637397766e-02 1.269263215363025665e-02
3.482000000000000000e+03 4.250700378417968750e+01 -3.963981866836547852e-01 1.079515963792800903e-01 -1.760321669280529022e-02 2.710451371967792511e-02 -1.083673983812332153e-01
3.483000000000000000e+03 4.151531600952148438e+01 -8.242236971855163574e-01 -2.826160490512847900e-01 -1.834254860877990723e-01 -1.398124694824218750e-01 7.902517914772033691e-02
3.484000000000000000e+03 4.375409698486328125e+01 -1.632939934730529785e+00 -7.191398739814758301e-01 2.709034457802772522e-02 -2.076148539781570435e-01 -2.166300117969512939e-01
3.485000000000000000e+03 4.300669479370117188e+01 -1.363770723342895508e+00 -4.494746029376983643e-01 6.118882913142442703e-03 -1.330067217350006104e-01 -5.301364883780479431e-02
3.486000000000000000e+03 4.394734954833984375e+01 -9.159503579139709473e-01 -2.812598943710327148e-01 1.806878484785556793e-02 -7.895733416080474854e-02 -4.585956037044525146e-02
3.487000000000000000e+03 4.178872680664062500e+01 -1.361862868070602417e-01 1.844610869884490967e-01 5.173025652766227722e-02 7.085739821195602417e-02 -5.554963275790214539e-02
3.488000000000000000e+03 4.322666549682617188e+01 -6.564318537712097168e-01 -5.225486680865287781e-02 8.015508949756622314e-02 8.370066992938518524e-03 -7.898903638124465942e-02
3.489000000000000000e+03 4.226031494140625000e+01 -1.094086289405822754e+00 -3.974427878856658936e-01 -3.507991135120391846e-02 -1.297568082809448242e-01 -1.543175149708986282e-02
3.490000000000000000e+03 4.469203567504882812e+01 -1.104038357734680176e+00 -5.709262490272521973e-01 -2.476314257364720106e-04 -1.713521629571914673e-01 -5.659625306725502014e-02
3.491000000000000000e+03 4.700760269165039062e+01 -2.182412624359130859e+00 -9.039531350135803223e-01 4.682050645351409912e-02 -2.571398019790649414e-01 6.573155522346496582e-02
3.492000000000000000e+03 4.453843307495117188e+01 -1.829608321189880371e+00 -9.336816668510437012e-01 9.321102499961853027e-02 -2.521412074565887451e-01 -1.651729941368103027e-01
3.493000000000000000e+03 4.618450164794921875e+01 -2.070826292037963867e+00 -9.628659486770629883e-01 4.773398861289024353e-02 -2.745395898818969727e-01 -6.737113744020462036e-02
3.494000000000000000e+03 4.700347900390625000e+01 -1.434312224388122559e+00 -1.145880699157714844e+00 -4.562420770525932312e-02 -3.574514687061309814e-01 6.039761751890182495e-02
3.495000000000000000e+03 4.546185302734375000e+01 -1.219994664192199707e+00 -8.128606677055358887e-01 5.578016862273216248e-02 -2.271241396665573120e-01 -6.845197640359401703e-04
3.496000000000000000e+03 4.536082458496093750e+01 -1.953074812889099121e+00 -9.173084497451782227e-01 1.235882714390754700e-01 -2.381160557270050049e-01 -5.506175011396408081e-02
3.497000000000000000e+03 4.623295593261718750e+01 -1.330235958099365234e+00 -9.828292727470397949e-01 1.418779231607913971e-02 -2.905924320220947266e-01 7.474222779273986816e-02
3.498000000000000000e+03 4.851011657714843750e+01 -1.236653327941894531e+00 -6.665375828742980957e-01 1.827144809067249298e-02 -1.944798380136489868e-01 -1.412144396454095840e-02
3.499000000000000000e+03 4.858726501464843750e+01 -1.977923154830932617e+00 -7.305586934089660645e-01 8.257343620061874390e-02 -1.943955868482589722e-01 2.255564182996749878e-01
3.500000000000000000e+03 4.780811309814453125e+01 -2.150522232055664062e+00 -8.163059353828430176e-01 1.089670415967702866e-02 -2.416227757930755615e-01 2.189130783081054688e-01
3.501000000000000000e+03 4.925864410400390625e+01 -1.067628383636474609e+00 -4.242226183414459229e-01 1.573116332292556763e-02 -1.225474402308464050e-01 1.900026388466358185e-02
3.502000000000000000e+03 5.000643920898437500e+01 -8.943891525268554688e-01 -2.326299250125885010e-01 3.313055494800209999e-03 -6.879506260156631470e-02 2.838424965739250183e-02
3.503000000000000000e+03 5.014590454101562500e+01 -1.621544718742370605e+00 -3.350141048431396484e-01 3.284509852528572083e-02 -9.065070748329162598e-02 1.630212962627410889e-01
3.504000000000000000e+03 4.936695098876953125e+01 -1.801841139793395996e+00 -5.132942795753479004e-01 3.825177997350692749e-02 -1.425127387046813965e-01 1.893751919269561768e-01
3.505000000000000000e+03 4.776212310791015625e+01 -1.402195334434509277e+00 -1.021460413932800293e+00 -2.869482152163982391e-02 -3.150465488433837891e-01 -3.228181507438421249e-03
3.506000000000000000e+03 5.157225418090820312e+01 -1.315138578414916992e+00 -1.097638607025146484e-01 -7.584047969430685043e-03 -3.520437330007553101e-02 8.134405314922332764e-02
3.507000000000000000e+03 5.295627212524414062e+01 -1.038722634315490723e+00 -7.020190823823213577e-03 2.858106046915054321e-02 6.468261126428842545e-03 -2.005156874656677246e-02
3.508000000000000000e+03 5.290069961547851562e+01 -2.949934005737304688e-01 1.112114544957876205e-02 -1.975850574672222137e-02 -2.591208089143037796e-03 1.183631364256143570e-03
3.509000000000000000e+03 5.145984268188476562e+01 -5.828963518142700195e-01 -1.337239891290664673e-02 -2.742746286094188690e-02 -1.223995815962553024e-02 2.226706221699714661e-02
3.510000000000000000e+03 5.088082885742187500e+01 -1.458093881607055664e+00 -2.019194215536117554e-01 -1.962607726454734802e-02 -6.646364927291870117e-02 1.062311157584190369e-01
3.511000000000000000e+03 5.073999786376953125e+01 -7.315950989723205566e-01 -9.606203436851501465e-02 1.927307806909084320e-02 -2.303668670356273651e-02 3.493858873844146729e-02
3.512000000000000000e+03 5.226421737670898438e+01 -1.175352215766906738e+00 -2.452425844967365265e-02 -7.131005823612213135e-02 -2.875029481947422028e-02 2.243439480662345886e-02
3.513000000000000000e+03 5.218022537231445312e+01 -4.373664855957031250e-01 1.386094186455011368e-02 1.703966967761516571e-02 9.270183742046356201e-03 1.464339205995202065e-03
3.514000000000000000e+03 5.362383270263671875e+01 -2.363446354866027832e-01 9.463382884860038757e-03 1.911071501672267914e-02 8.572229184210300446e-03 -1.881107455119490623e-03
3.515000000000000000e+03 5.509365844726562500e+01 -7.023676484823226929e-02 3.649939224123954773e-02 3.633489087224006653e-02 2.185028418898582458e-02 4.200759343802928925e-03
3.516000000000000000e+03 5.574055862426757812e+01 -1.146264672279357910e-01 3.263426013290882111e-03 -5.247451830655336380e-03 -5.952077917754650116e-04 -1.026112027466297150e-02
3.517000000000000000e+03 5.454681777954101562e+01 -6.096401214599609375e-01 -9.421405382454395294e-03 1.017831265926361084e-02 2.270722325192764401e-04 1.336454064585268497e-03
3.518000000000000000e+03 5.366928863525390625e+01 -9.844164252281188965e-01 -2.173695340752601624e-02 -1.378324627876281738e-02 -1.065605971962213516e-02 -4.243417060934007168e-04
3.519000000000000000e+03 5.524822998046875000e+01 -1.898349970579147339e-01 4.614245612174272537e-03 7.456938270479440689e-03 3.621355164796113968e-03 -5.370842292904853821e-03
3.520000000000000000e+03 5.438975906372070312e+01 -1.598483771085739136e-01 9.249811060726642609e-03 -1.915210671722888947e-02 -2.970688510686159134e-03 5.022301338613033295e-04
3.521000000000000000e+03 5.569242858886718750e+01 -1.540369391441345215e-01 -4.686517640948295593e-03 -3.250857815146446228e-02 -1.115852873772382736e-02 8.111055940389633179e-03
3.522000000000000000e+03 5.577302932739257812e+01 -8.065423369407653809e-02 -7.289663422852754593e-03 -2.196922339498996735e-02 -8.777665905654430389e-03 -1.077441312372684479e-02
3.523000000000000000e+03 5.630217361450195312e+01 -1.307823061943054199e-01 -8.804504759609699249e-03 1.260926108807325363e-02 1.141426968388259411e-03 7.092967629432678223e-03
3.524000000000000000e+03 5.551834869384765625e+01 -1.509499549865722656e-01 1.075784116983413696e-02 -2.764754556119441986e-02 -5.066911689937114716e-03 -2.698040753602981567e-02
3.525000000000000000e+03 5.550067520141601562e+01 -8.569282293319702148e-02 -1.653643697500228882e-02 -6.187722459435462952e-02 -2.352409809827804565e-02 -1.044729910790920258e-02
3.526000000000000000e+03 5.613978195190429688e+01 -1.772572547197341919e-01 -2.067197486758232117e-02 -2.003432950004935265e-03 -6.802622228860855103e-03 1.035107485949993134e-02
3.527000000000000000e+03 5.569453811645507812e+01 -2.217940688133239746e-01 -7.826312445104122162e-03 -1.585872471332550049e-02 -7.105511147528886795e-03 -1.278192270547151566e-02
3.528000000000000000e+03 5.589992523193359375e+01 -1.446481943130493164e-01 3.022449391210102476e-06 -4.082681611180305481e-03 -1.223897794261574745e-03 -2.874212898313999176e-02
3.529000000000000000e+03 5.586287307739257812e+01 -1.706803888082504272e-01 2.536286134272813797e-03 4.243446979671716690e-03 2.033919794484972954e-03 -2.931332588195800781e-02
3.530000000000000000e+03 5.595853424072265625e+01 -1.690124869346618652e-01 -1.959053613245487213e-02 8.072328637354075909e-04 -5.634990986436605453e-03 -2.180423028767108917e-02
3.531000000000000000e+03 5.604990386962890625e+01 -1.501243412494659424e-01 -1.938573829829692841e-02 -9.431810118257999420e-03 -8.645264431834220886e-03 6.034471560269594193e-03
3.532000000000000000e+03 5.566451263427734375e+01 -1.948225051164627075e-01 1.595118083059787750e-02 -2.348004095256328583e-02 -2.258658409118652344e-03 -9.236681275069713593e-03
3.533000000000000000e+03 5.615749359130859375e+01 -1.953846663236618042e-01 -5.002161022275686264e-03 1.891591958701610565e-02 4.174127709120512009e-03 6.259532645344734192e-03
3.534000000000000000e+03 5.595515441894531250e+01 -1.942978352308273315e-01 -1.802641898393630981e-02 -3.747666021808981895e-03 -6.532225292176008224e-03 -9.899260476231575012e-03
3.535000000000000000e+03 5.421028137207031250e+01 1.210087537765502930e+00 -1.971854090690612793e+00 1.596433483064174652e-02 -5.867669582366943359e-01 -1.732321530580520630e-01
3.536000000000000000e+03 5.500279617309570312e+01 3.912179172039031982e-01 -2.390686273574829102e+00 4.155405983328819275e-02 -7.047396898269653320e-01 9.006622433662414551e-02
3.537000000000000000e+03 5.722127151489257812e+01 1.402611732482910156e-01 -9.884809851646423340e-01 -4.588587209582328796e-02 -3.103100657463073730e-01 -3.776898682117462158e-01
3.538000000000000000e+03 5.794345855712890625e+01 5.567647218704223633e-01 3.619258105754852295e-02 1.983033061027526855e+00 6.057676672935485840e-01 -1.845448493957519531e+00
3.539000000000000000e+03 5.804219436645507812e+01 -2.509897947311401367e-02 1.271709084510803223e+00 1.576272606849670410e+00 8.543944954872131348e-01 -1.583013892173767090e+00
3.540000000000000000e+03 5.357317352294921875e+01 5.265326499938964844e-01 -2.989748001098632812e+00 -1.310408860445022583e-01 -9.362366795539855957e-01 3.693354502320289612e-02
3.541000000000000000e+03 5.574547576904296875e+01 3.283102214336395264e-01 -2.051543474197387695e+00 3.942202031612396240e-02 -6.036364436149597168e-01 3.924006596207618713e-03
3.542000000000000000e+03 5.352043914794921875e+01 1.275469660758972168e+00 -1.872186660766601562e+00 -1.642531156539916992e-01 -6.109319329261779785e-01 -8.656544238328933716e-02
3.543000000000000000e+03 5.562464141845703125e+01 1.088724851608276367e+00 -1.418453097343444824e+00 3.002664744853973389e-01 -3.354559838771820068e-01 -4.377760589122772217e-01
3.544000000000000000e+03 5.627251815795898438e+01 1.124233365058898926e+00 -1.099499344825744629e+00 4.838256239891052246e-01 -1.847021281719207764e-01 -7.086259722709655762e-01
3.545000000000000000e+03 5.490466308593750000e+01 1.147806644439697266e+00 -1.765176296234130859e+00 1.317229717969894409e-01 -4.900360107421875000e-01 -1.910012960433959961e-01
3.546000000000000000e+03 5.650026321411132812e+01 2.100781798362731934e-01 -1.574804067611694336e+00 1.391368210315704346e-01 -4.307001531124114990e-01 -1.513099223375320435e-01
3.547000000000000000e+03 5.428571701049804688e+01 4.573245644569396973e-01 -2.644246101379394531e+00 -1.099171582609415054e-02 -7.965713739395141602e-01 1.485031694173812866e-01
3.548000000000000000e+03 5.684514236450195312e+01 1.138028025627136230e+00 -4.867154657840728760e-01 8.774874806404113770e-01 1.172316074371337891e-01 -1.293645977973937988e+00
3.549000000000000000e+03 5.747990417480468750e+01 9.627215266227722168e-01 -4.549509286880493164e-01 1.552749872207641602e+00 3.293396830558776855e-01 -1.717662453651428223e+00
3.550000000000000000e+03 5.729281616210937500e+01 5.642969012260437012e-01 -2.225938886404037476e-01 5.834231376647949219e-01 1.082487851381301880e-01 -1.245205163955688477e+00
3.551000000000000000e+03 5.666289138793945312e+01 7.308177947998046875e-01 -9.973036646842956543e-01 3.810402750968933105e-01 -1.848790198564529419e-01 -6.697474122047424316e-01
3.552000000000000000e+03 5.045067596435546875e+01 7.608052492141723633e-01 -1.681925177574157715e+00 -3.887141589075326920e-03 -5.057436823844909668e-01 -6.976528465747833252e-02
3.553000000000000000e+03 5.059151077270507812e+01 3.430651128292083740e-02 -1.887606263160705566e+00 -5.382834002375602722e-02 -5.824303627014160156e-01 -2.912532687187194824e-01
3.554000000000000000e+03 5.284211730957031250e+01 4.887914061546325684e-01 -2.868642568588256836e+00 -1.674249768257141113e-01 -9.108202457427978516e-01 -2.077625989913940430e-01
3.555000000000000000e+03 5.209175872802734375e+01 3.407791554927825928e-01 -2.359509944915771484e+00 -4.026827216148376465e-02 -7.199334502220153809e-01 -3.205296695232391357e-01
3.556000000000000000e+03 5.200776672363281250e+01 1.078764796257019043e+00 -2.017108917236328125e+00 -5.379338562488555908e-02 -6.212707161903381348e-01 2.465153299272060394e-02
3.557000000000000000e+03 5.278653335571289062e+01 1.232732176780700684e+00 -1.896565675735473633e+00 -1.654534637928009033e-01 -6.186057329177856445e-01 6.478976458311080933e-02
3.558000000000000000e+03 5.122899246215820312e+01 9.213988184928894043e-01 -1.820499062538146973e+00 -4.312307573854923248e-03 -5.474434494972229004e-01 -8.192547410726547241e-02
3.559000000000000000e+03 5.134140396118164062e+01 1.891566067934036255e-01 -2.094855785369873047e+00 -5.845188722014427185e-02 -6.459923386573791504e-01 -2.941531836986541748e-01
3.560000000000000000e+03 4.773153305053710938e+01 2.793712317943572998e-01 -1.274523973464965820e+00 1.385339349508285522e-01 -3.407970070838928223e-01 8.627209812402725220e-03
3.561000000000000000e+03 4.898356246948242188e+01 2.312663495540618896e-01 -1.447465658187866211e+00 3.880415111780166626e-02 -4.225984811782836914e-01 -8.739058673381805420e-02
3.562000000000000000e+03 4.772686386108398438e+01 -7.346830368041992188e-01 -9.890313744544982910e-01 1.639501377940177917e-02 -2.917909026145935059e-01 -1.061884462833404541e-01
3.563000000000000000e+03 4.850590896606445312e+01 4.470436275005340576e-01 -1.371791005134582520e+00 1.102185398340225220e-01 -3.784717321395874023e-01 6.774898152798414230e-03
3.564000000000000000e+03 4.965979766845703125e+01 5.728724002838134766e-01 -1.536305189132690430e+00 2.193281427025794983e-02 -4.543116986751556396e-01 -7.712608575820922852e-02
3.565000000000000000e+03 4.985495758056640625e+01 -1.416693180799484253e-01 -1.699784278869628906e+00 -5.190706998109817505e-02 -5.255073904991149902e-01 -2.765811681747436523e-01
3.566000000000000000e+03 4.771175384521484375e+01 -2.315331995487213135e-01 -1.235220551490783691e+00 1.185469925403594971e-01 -3.350020647048950195e-01 -1.906481385231018066e-02
3.567000000000000000e+03 4.844728851318359375e+01 -5.625565052032470703e-01 -1.277655482292175293e+00 -1.829224452376365662e-02 -3.887843191623687744e-01 -2.021979391574859619e-01
3.568000000000000000e+03 4.914781570434570312e+01 -3.561015129089355469e-01 -1.499952912330627441e+00 -4.475833103060722351e-02 -4.634133875370025635e-01 -2.543652951717376709e-01
3.569000000000000000e+03 4.839570236206054688e+01 -7.538548856973648071e-02 -1.311531066894531250e+00 4.792432487010955811e-02 -3.790820240974426270e-01 -9.280698746442794800e-02
3.570000000000000000e+03 4.487638854980468750e+01 -3.404561579227447510e-01 -1.101510047912597656e+00 -1.298897247761487961e-02 -3.343497216701507568e-01 2.142600417137145996e-01
3.571000000000000000e+03 4.561632156372070312e+01 -4.665780663490295410e-01 -1.173859715461730957e+00 8.440785459242761135e-04 -3.519046902656555176e-01 1.725668907165527344e-01
3.572000000000000000e+03 4.631862258911132812e+01 -6.191682815551757812e-01 -1.146560072898864746e+00 -1.446316111832857132e-02 -3.483069837093353271e-01 1.322812438011169434e-01
3.573000000000000000e+03 4.701073455810546875e+01 -7.599012255668640137e-01 -9.702106714248657227e-01 5.633761361241340637e-02 -2.741619348526000977e-01 4.454160481691360474e-02
3.574000000000000000e+03 4.698373413085937500e+01 2.279398143291473389e-01 -1.218489170074462891e+00 1.388109773397445679e-01 -3.239034712314605713e-01 6.762263178825378418e-02
3.575000000000000000e+03 4.508298492431640625e+01 3.775442838668823242e-01 -1.180118799209594727e+00 7.283286750316619873e-02 -3.321857750415802002e-01 2.503112852573394775e-01
3.576000000000000000e+03 4.587632369995117188e+01 2.437933832406997681e-01 -1.157749056816101074e+00 5.939936265349388123e-02 -3.295049071311950684e-01 1.416913568973541260e-01
3.577000000000000000e+03 4.651185607910156250e+01 -2.970636822283267975e-02 -1.151968240737915039e+00 1.043589040637016296e-01 -3.142828047275543213e-01 7.152765244245529175e-02
3.578000000000000000e+03 4.705047988891601562e+01 -2.730993330478668213e-01 -1.170609593391418457e+00 9.914162755012512207e-02 -3.214403986930847168e-01 -7.807436399161815643e-03
3.579000000000000000e+03 4.301383972167968750e+01 1.033388495445251465e+00 -1.311952948570251465e+00 -7.818943262100219727e-02 -4.170427024364471436e-01 3.230743408203125000e-01
3.580000000000000000e+03 4.345863342285156250e+01 8.591742068529129028e-02 -1.231207370758056641e+00 -1.377916336059570312e-01 -4.106996953487396240e-01 3.779884874820709229e-01
3.581000000000000000e+03 4.207683563232421875e+01 5.882251858711242676e-01 -1.364090204238891602e+00 -1.963446140289306641e-01 -4.681304395198822021e-01 4.494751393795013428e-01
3.582000000000000000e+03 4.434420394897460938e+01 5.560463070869445801e-01 -1.227517127990722656e+00 2.864810824394226074e-02 -3.596607148647308350e-01 2.585959136486053467e-01
3.583000000000000000e+03 4.415095138549804688e+01 -1.609432697296142578e-01 -1.098433256149291992e+00 -2.479789033532142639e-02 -3.369693458080291748e-01 3.197538852691650391e-01
3.584000000000000000e+03 4.235024261474609375e+01 1.276262640953063965e+00 -1.361838221549987793e+00 -3.902340680360794067e-02 -4.202584922313690186e-01 4.286024868488311768e-01
3.585000000000000000e+03 4.367860412597656250e+01 7.932562828063964844e-01 -1.220550894737243652e+00 1.271101366728544235e-02 -3.623519539833068848e-01 3.170094490051269531e-01
3.586000000000000000e+03 4.276715087890625000e+01 3.357003033161163330e-01 -1.296677231788635254e+00 -1.023687943816184998e-01 -4.197137951850891113e-01 4.541037082672119141e-01
3.587000000000000000e+03 4.008607864379882812e+01 2.347794055938720703e+00 -2.836793422698974609e+00 -2.039633989334106445e-01 -9.122270345687866211e-01 -4.171094000339508057e-01
3.588000000000000000e+03 3.924859237670898438e+01 1.918622970581054688e+00 -4.963037967681884766e+00 -1.035756111145019531e+00 -1.799638271331787109e+00 9.385126829147338867e-02
3.589000000000000000e+03 4.066986846923828125e+01 1.245835542678833008e+00 -1.925560951232910156e+00 -3.653664886951446533e-01 -6.872782111167907715e-01 5.744119286537170410e-01
3.590000000000000000e+03 4.163364028930664062e+01 1.592744350433349609e+00 -1.671250700950622559e+00 -1.055136471986770630e-01 -5.330293178558349609e-01 3.019110262393951416e-01
3.591000000000000000e+03 4.137876510620117188e+01 8.941976428031921387e-01 -1.482259869575500488e+00 -1.359333842992782593e-01 -4.854579567909240723e-01 5.891726016998291016e-01
3.592000000000000000e+03 3.931212234497070312e+01 2.709177732467651367e+00 -1.435952067375183105e+00 -1.067697405815124512e+00 -7.510948181152343750e-01 -1.124561548233032227e+00
3.593000000000000000e+03 4.086096572875976562e+01 1.975051641464233398e+00 -1.831836462020874023e+00 -5.868506804108619690e-02 -5.671564340591430664e-01 3.218681514263153076e-01
3.594000000000000000e+03 3.995876693725585938e+01 1.587908506393432617e+00 -2.579996824264526367e+00 -1.036973670125007629e-01 -8.051082491874694824e-01 7.948399186134338379e-01
3.595000000000000000e+03 3.316690444946289062e+01 7.908318638801574707e-01 -1.951475143432617188e+00 -1.921737007796764374e-02 -5.912077426910400391e-01 -7.608204483985900879e-01
3.596000000000000000e+03 3.399934387207031250e+01 6.623410582542419434e-01 -2.246668100357055664e+00 -3.734117150306701660e-01 -7.860239744186401367e-01 -1.193364977836608887e+00
3.597000000000000000e+03 3.436914443969726562e+01 1.189764857292175293e+00 -4.081531524658203125e+00 -6.592590212821960449e-01 -1.422237157821655273e+00 -1.177958324551582336e-01
3.598000000000000000e+03 3.783919525146484375e+01 2.484255313873291016e+00 -5.051450729370117188e-01 1.548881053924560547e+00 3.131207823753356934e-01 8.822721242904663086e-01
3.599000000000000000e+03 3.703740692138671875e+01 1.373660683631896973e+00 -4.090199947357177734e+00 3.429071307182312012e-01 -1.124187827110290527e+00 -4.521484076976776123e-01
3.600000000000000000e+03 3.334777450561523438e+01 3.404574692249298096e-01 -6.168007254600524902e-01 -1.491056531667709351e-01 -2.297719120979309082e-01 -7.158067226409912109e-01
3.601000000000000000e+03 3.353592681884765625e+01 -1.197979226708412170e-01 -5.409585237503051758e-01 -9.664680808782577515e-02 -1.912816017866134644e-01 -3.336875140666961670e-01
3.602000000000000000e+03 3.501575469970703125e+01 1.059977054595947266e+00 -4.317761898040771484e+00 -6.933352947235107422e-01 -1.503329157829284668e+00 -8.136037588119506836e-01
3.603000000000000000e+03 3.555833053588867188e+01 6.905598640441894531e-01 -3.249058425426483154e-01 5.275194644927978516e-01 6.078408658504486084e-02 2.974851429462432861e-01
3.604000000000000000e+03 3.575750350952148438e+01 1.575511693954467773e+00 -5.805623531341552734e+00 -3.721701502799987793e-01 -1.853338122367858887e+00 -8.386543393135070801e-01
3.605000000000000000e+03 3.622613906860351562e+01 1.030777692794799805e+00 -2.117679595947265625e+00 6.460171937942504883e-02 -6.159233450889587402e-01 2.041670680046081543e-01
3.606000000000000000e+03 3.782004547119140625e+01 1.683207035064697266e+00 -5.302788257598876953e+00 2.959213554859161377e-01 -1.502060055732727051e+00 -1.702341914176940918e+00
3.607000000000000000e+03 3.853881835937500000e+01 1.949121356010437012e+00 -6.284594058990478516e+00 -1.685622572898864746e+00 -2.391064882278442383e+00 -1.660370469093322754e+00
3.608000000000000000e+03 3.856629180908203125e+01 2.753397226333618164e+00 -8.953619748353958130e-02 -8.529550433158874512e-01 -2.827473580837249756e-01 2.416423261165618896e-01
3.609000000000000000e+03 3.379653930664062500e+01 1.053609251976013184e+00 -2.569230079650878906e+00 -7.635252177715301514e-02 -7.936747670173645020e-01 -1.173927560448646545e-01
3.610000000000000000e+03 3.424254989624023438e+01 2.046553343534469604e-01 3.915807008743286133e-01 -1.400006562471389771e-01 7.547400891780853271e-02 -3.702579438686370850e-01
3.611000000000000000e+03 3.494199752807617188e+01 4.520132541656494141e-01 6.346616148948669434e-01 -4.973656237125396729e-01 4.118880257010459900e-02 3.767738044261932373e-01
3.612000000000000000e+03 3.690625000000000000e+01 2.049182176589965820e+00 -2.109856367111206055e+00 3.239564001560211182e-01 -5.357699990272521973e-01 -3.395010828971862793e-01
3.613000000000000000e+03 3.083432960510253906e+01 -2.170480340719223022e-01 -1.009604334831237793e+00 1.542830020189285278e-01 -2.565964162349700928e-01 -1.451421827077865601e-01
3.614000000000000000e+03 3.085270309448242188e+01 -9.999262094497680664e-01 -7.022541761398315430e-01 6.659162044525146484e-02 -1.906987726688385010e-01 -1.199815571308135986e-01
3.615000000000000000e+03 3.216926574707031250e+01 -6.736713051795959473e-01 -9.048581123352050781e-01 -1.187630593776702881e-01 -3.070863485336303711e-01 -3.856089413166046143e-01
3.616000000000000000e+03 3.193232536315917969e+01 -3.087860345840454102e-01 -8.899795413017272949e-01 -1.574065908789634705e-02 -2.717160582542419434e-01 -3.184126913547515869e-01
3.617000000000000000e+03 3.283817291259765625e+01 -3.977768719196319580e-01 -7.866373658180236816e-01 -1.700243204832077026e-01 -2.869985103607177734e-01 -3.297546207904815674e-01
3.618000000000000000e+03 3.245020675659179688e+01 5.051715970039367676e-01 -1.091007471084594727e+00 -5.409519653767347336e-03 -3.289250731468200684e-01 -5.094215273857116699e-01
3.619000000000000000e+03 3.264751434326171875e+01 4.808262735605239868e-02 -1.029329419136047363e+00 -1.675247699022293091e-01 -3.590562641620635986e-01 -4.424208998680114746e-01
3.620000000000000000e+03 3.166022682189941406e+01 1.470156908035278320e-01 -1.106832385063171387e+00 1.381257772445678711e-01 -2.906119823455810547e-01 -2.572543025016784668e-01
3.621000000000000000e+03 3.155240631103515625e+01 -8.315400481224060059e-01 -8.945661187171936035e-01 -5.534555763006210327e-02 -2.849735021591186523e-01 -2.713212668895721436e-01
3.622000000000000000e+03 1.934750747680664062e+01 2.503316402435302734e+00 -9.875248074531555176e-01 -1.492716372013092041e-01 -3.410389423370361328e-01 1.868570297956466675e-01
3.623000000000000000e+03 2.005070304870605469e+01 1.556338667869567871e+00 -1.311089754104614258e+00 -8.857697248458862305e-02 -4.199000000953674316e-01 3.252428472042083740e-01
3.624000000000000000e+03 1.928076362609863281e+01 1.756027221679687500e+00 -1.445919513702392578e+00 -1.197034195065498352e-01 -4.696868956089019775e-01 2.671253681182861328e-01
3.625000000000000000e+03 2.158648109436035156e+01 1.168682336807250977e+00 -1.286977529525756836e+00 -9.760829061269760132e-02 -4.153757393360137939e-01 3.402254581451416016e-01
3.626000000000000000e+03 2.367008972167968750e+01 1.447997570037841797e+00 -1.124987721443176270e+00 -1.055269092321395874e-01 -3.691543936729431152e-01 3.425866067409515381e-01
3.627000000000000000e+03 2.398398971557617188e+01 4.397454857826232910e-01 -1.395903944969177246e+00 -8.502046018838882446e-02 -4.442773461341857910e-01 3.876287043094635010e-01
3.628000000000000000e+03 2.469887161254882812e+01 3.147436380386352539e-01 -1.428987145423889160e+00 -1.074133515357971191e-01 -4.609201550483703613e-01 3.755342662334442139e-01
3.629000000000000000e+03 2.544874572753906250e+01 1.382237821817398071e-01 -1.435275673866271973e+00 -9.304285049438476562e-02 -4.584955573081970215e-01 3.796938657760620117e-01
3.630000000000000000e+03 2.621586036682128906e+01 -5.536601319909095764e-02 -1.435051202774047852e+00 -9.266237169504165649e-02 -4.583140909671783447e-01 3.691084086894989014e-01
3.631000000000000000e+03 2.698533821105957031e+01 -2.535507977008819580e-01 -1.404551148414611816e+00 -6.976107507944107056e-02 -4.422936737537384033e-01 3.446271121501922607e-01
3.632000000000000000e+03 2.775543594360351562e+01 -4.530771672725677490e-01 -1.328590631484985352e+00 -4.893549904227256775e-02 -4.132578074932098389e-01 2.947798371315002441e-01
3.633000000000000000e+03 2.852570533752441406e+01 -6.533444523811340332e-01 -1.200073122978210449e+00 -3.979722410440444946e-02 -3.719610869884490967e-01 2.423649281263351440e-01
3.634000000000000000e+03 2.929591369628906250e+01 -8.534791469573974609e-01 -1.013792872428894043e+00 2.188131399452686310e-02 -2.975734770298004150e-01 1.536966711282730103e-01
3.635000000000000000e+03 2.926732444763183594e+01 -8.137164264917373657e-02 -1.077480673789978027e+00 1.197717562317848206e-01 -2.873126566410064697e-01 3.805301710963249207e-02
3.636000000000000000e+03 3.006589889526367188e+01 -1.052599668502807617e+00 -7.373175024986267090e-01 4.483940824866294861e-02 -2.077434211969375610e-01 3.591024130582809448e-02
3.637000000000000000e+03 3.002997589111328125e+01 -2.785830497741699219e-01 -1.049515724182128906e+00 2.054831981658935547e-01 -2.532097697257995605e-01 -5.268449708819389343e-02
3.638000000000000000e+03 2.011011505126953125e+01 2.305536985397338867e+00 -1.103536486625671387e+00 -9.746605157852172852e-02 -3.603007495403289795e-01 2.234129905700683594e-01
3.639000000000000000e+03 2.087202262878417969e+01 2.111250400543212891e+00 -1.072233080863952637e+00 -9.633633494377136230e-02 -3.505708277225494385e-01 2.762174606323242188e-01
3.640000000000000000e+03 2.163122558593750000e+01 1.921698689460754395e+00 -1.076955199241638184e+00 -9.968457370996475220e-02 -3.529919385910034180e-01 3.002691864967346191e-01
3.641000000000000000e+03 2.237293434143066406e+01 1.747608900070190430e+00 -1.068860530853271484e+00 -1.103360578417778015e-01 -3.537589609622955322e-01 3.137266337871551514e-01
3.642000000000000000e+03 2.307785034179687500e+01 1.625204563140869141e+00 -1.082896947860717773e+00 -9.767543524503707886e-02 -3.541716933250427246e-01 3.295515775680541992e-01
3.643000000000000000e+03 2.305267715454101562e+01 1.058224320411682129e+00 -1.264354109764099121e+00 -9.665312618017196655e-02 -4.083021879196166992e-01 3.599754273891448975e-01
3.644000000000000000e+03 2.399843406677246094e+01 1.009448885917663574e+00 -1.193114757537841797e+00 -9.293510019779205322e-02 -3.858149647712707520e-01 3.478280305862426758e-01
3.645000000000000000e+03 2.545682334899902344e+01 9.007857441902160645e-01 -1.185285449028015137e+00 -7.732715457677841187e-02 -3.787837922573089600e-01 3.343801796436309814e-01
3.646000000000000000e+03 2.621660423278808594e+01 7.091050744056701660e-01 -1.196854114532470703e+00 -4.493573680520057678e-02 -3.725369572639465332e-01 3.084455430507659912e-01
3.647000000000000000e+03 2.774151420593261719e+01 3.152121007442474365e-01 -1.192832946777343750e+00 3.633816167712211609e-02 -3.469484150409698486e-01 2.105638384819030762e-01
3.648000000000000000e+03 2.850444984436035156e+01 1.168539151549339294e-01 -1.151183366775512695e+00 8.519572019577026367e-02 -3.197962939739227295e-01 1.088449805974960327e-01
3.649000000000000000e+03 2.081994628906250000e+01 1.360142946243286133e+00 -1.287631750106811523e+00 -8.759792894124984741e-02 -4.125688970088958740e-01 3.306842446327209473e-01
3.650000000000000000e+03 2.697874832153320312e+01 5.128293633460998535e-01 -1.199315309524536133e+00 -1.048225630074739456e-02 -3.629392683506011963e-01 2.623033523559570312e-01
3.651000000000000000e+03 2.471428298950195312e+01 1.075396537780761719e+00 -1.154425621032714844e+00 -9.343254566192626953e-02 -3.743574619293212891e-01 3.511514663696289062e-01
3.652000000000000000e+03 2.338191413879394531e+01 6.188696026802062988e-01 -1.356226325035095215e+00 -1.143315285444259644e-01 -4.411673545837402344e-01 3.619067668914794922e-01
3.653000000000000000e+03 2.233552169799804688e+01 9.926834106445312500e-01 -1.304185986518859863e+00 -9.847718477249145508e-02 -4.207989275455474854e-01 3.547107577323913574e-01
3.654000000000000000e+03 1.611225318908691406e+01 2.416136503219604492e+00 -5.777489542961120605e-01 1.223866827785968781e-02 -1.696530729532241821e-01 2.301778197288513184e-01
3.655000000000000000e+03 1.692862129211425781e+01 2.473628282546997070e+00 -7.404918074607849121e-01 3.446418419480323792e-02 -2.118082791566848755e-01 2.094765603542327881e-01
3.656000000000000000e+03 1.619552993774414062e+01 1.680045008659362793e+00 -6.431546211242675781e-01 1.052092481404542923e-02 -1.897900998592376709e-01 4.630089178681373596e-02
3.657000000000000000e+03 1.774459457397460938e+01 2.528052330017089844e+00 -9.025904536247253418e-01 -2.300088480114936829e-02 -2.776774168014526367e-01 2.477922141551971436e-01
3.658000000000000000e+03 1.851055526733398438e+01 1.834378838539123535e+00 -1.364222288131713867e+00 -9.128008037805557251e-02 -4.366506934165954590e-01 1.183107718825340271e-01
3.659000000000000000e+03 1.855901145935058594e+01 2.579250097274780273e+00 -9.125359654426574707e-01 -1.165353059768676758e-01 -3.087213933467864990e-01 2.559495866298675537e-01
3.660000000000000000e+03 1.696798706054687500e+01 1.734610080718994141e+00 -8.366556763648986816e-01 -5.514655727893114090e-03 -2.526510953903198242e-01 4.892434924840927124e-02
3.661000000000000000e+03 1.774004745483398438e+01 1.786107659339904785e+00 -1.050990462303161621e+00 1.917456462979316711e-02 -3.095447421073913574e-01 4.092614725232124329e-02
3.662000000000000000e+03 1.307423973083496094e+01 1.803115367889404297e+00 -6.846071034669876099e-02 8.025202900171279907e-03 -1.813065074384212494e-02 1.179365441203117371e-01
3.663000000000000000e+03 1.322374725341796875e+01 1.078295350074768066e+00 6.639579683542251587e-02 1.640219055116176605e-02 2.483939565718173981e-02 5.826026201248168945e-02
3.664000000000000000e+03 1.396254444122314453e+01 1.243136167526245117e+00 -4.431924968957901001e-02 1.152903214097023010e-02 -9.837064892053604126e-03 5.685840919613838196e-02
3.665000000000000000e+03 1.470126342773437500e+01 1.407449364662170410e+00 -1.940043121576309204e-01 2.255502156913280487e-02 -5.143478512763977051e-02 4.287210851907730103e-02
3.666000000000000000e+03 1.544029712677001953e+01 1.569983482360839844e+00 -4.157287180423736572e-01 -1.056490349583327770e-03 -1.250355541706085205e-01 4.462681338191032410e-02
3.667000000000000000e+03 1.532874107360839844e+01 2.303210496902465820e+00 -4.350351691246032715e-01 3.219997510313987732e-02 -1.208505555987358093e-01 2.125751674175262451e-01
3.668000000000000000e+03 1.382568740844726562e+01 1.970758438110351562e+00 -1.698022186756134033e-01 2.782514691352844238e-02 -4.259312152862548828e-02 1.414595842361450195e-01
3.669000000000000000e+03 1.457705688476562500e+01 2.137874126434326172e+00 -3.090261816978454590e-01 2.827797830104827881e-02 -8.422446250915527344e-02 1.824453175067901611e-01
3.670000000000000000e+03 1.104393005371093750e+01 6.161050796508789062e-01 2.022253274917602539e-01 3.719282569363713264e-03 6.178338453173637390e-02 4.486970975995063782e-02
3.671000000000000000e+03 1.093760776519775391e+01 1.349887132644653320e+00 9.500727057456970215e-02 -1.563592627644538879e-02 2.381140366196632385e-02 3.409973904490470886e-02
3.672000000000000000e+03 1.032133674621582031e+01 4.645727574825286865e-01 1.953279972076416016e-01 -4.959865473210811615e-03 5.711043998599052429e-02 2.914905548095703125e-02
3.673000000000000000e+03 1.176770782470703125e+01 7.675349712371826172e-01 1.854153126478195190e-01 8.574804291129112244e-03 5.819703638553619385e-02 5.195416510105133057e-02
3.674000000000000000e+03 1.234649181365966797e+01 1.644436478614807129e+00 1.082725264132022858e-02 7.409854442812502384e-04 3.470471361652016640e-03 8.529414981603622437e-02
3.675000000000000000e+03 1.249242305755615234e+01 9.189449548721313477e-01 1.403509080410003662e-01 7.832586765289306641e-03 4.445504769682884216e-02 5.912374332547187805e-02
3.676000000000000000e+03 1.023481845855712891e+01 1.202500104904174805e+00 1.237728595733642578e-01 -2.088906988501548767e-02 3.086513653397560120e-02 2.147849090397357941e-02
3.677000000000000000e+03 1.164158153533935547e+01 1.497171759605407715e+00 5.920162051916122437e-02 -9.752784855663776398e-03 1.483464986085891724e-02 6.200615316629409790e-02
3.678000000000000000e+03 8.738976478576660156e+00 3.806764781475067139e-01 2.088722139596939087e-01 -3.054125932976603508e-03 6.174542754888534546e-02 -1.370965386740863323e-03
3.679000000000000000e+03 8.719267845153808594e+00 1.120676517486572266e+00 1.253515779972076416e-01 -1.248447503894567490e-02 3.386012837290763855e-02 -2.327384892851114273e-03
3.680000000000000000e+03 7.164478778839111328e+00 1.118019104003906250e+00 1.165479272603988647e-01 -5.215527489781379700e-03 3.339971974492073059e-02 -2.307853847742080688e-02
3.681000000000000000e+03 6.292463302612304688e+00 3.770545125007629395e-01 1.596533805131912231e-01 -8.579654968343675137e-04 4.763862490653991699e-02 -1.092321891337633133e-02
3.682000000000000000e+03 5.476712703704833984e+00 3.768434822559356689e-01 1.331326961517333984e-01 5.152323865331709385e-05 3.995526582002639771e-02 -1.183707918971776962e-02
3.683000000000000000e+03 4.661345481872558594e+00 3.765997588634490967e-01 1.048310697078704834e-01 -4.850036348216235638e-04 3.130381926894187927e-02 -1.236248947679996490e-02
3.684000000000000000e+03 3.032949686050415039e+00 3.775092065334320068e-01 4.967435076832771301e-02 -3.289213345851749182e-04 1.480362936854362488e-02 -1.153457071632146835e-02
3.685000000000000000e+03 2.221997976303100586e+00 3.784423470497131348e-01 2.623905614018440247e-02 1.689869211986660957e-03 8.378678001463413239e-03 -9.346046485006809235e-03
3.686000000000000000e+03 2.505794763565063477e+00 1.118442296981811523e+00 2.974730916321277618e-02 3.412284655496478081e-03 9.947878308594226837e-03 -2.708304114639759064e-02
3.687000000000000000e+03 6.944742202758789062e-01 4.059952497482299805e-01 2.419323194772005081e-03 1.848317566327750683e-03 1.280292170122265816e-03 -2.280943561345338821e-03
3.688000000000000000e+03 1.054147362709045410e+00 1.145995259284973145e+00 7.507365662604570389e-03 9.653721936047077179e-03 5.148326512426137924e-03 -1.276026573032140732e-02
3.689000000000000000e+03 3.682450950145721436e-01 9.625023007392883301e-01 1.120765227824449539e-03 5.362126976251602173e-03 1.944867661222815514e-03 -3.383643925189971924e-03
3.690000000000000000e+03 3.278808116912841797e+00 1.117509245872497559e+00 4.387578368186950684e-02 2.124299295246601105e-03 1.380002498626708984e-02 -3.057773783802986145e-02
3.691000000000000000e+03 3.846553564071655273e+00 3.765962719917297363e-01 7.683012634515762329e-02 7.787150680087506771e-04 2.328265272080898285e-02 -1.181554794311523438e-02
3.692000000000000000e+03 5.608756542205810547e+00 1.116843461990356445e+00 9.110413491725921631e-02 -2.021194202825427055e-03 2.672488242387771606e-02 -3.132656589150428772e-02
3.693000000000000000e+03 6.386569023132324219e+00 1.117054462432861328e+00 1.052425205707550049e-01 -3.325399709865450859e-03 3.057513572275638580e-02 -2.797443047165870667e-02
3.694000000000000000e+03 7.108311176300048828e+00 3.780190646648406982e-01 1.828267574310302734e-01 -1.030407263897359371e-03 5.453890562057495117e-02 -8.827606216073036194e-03
3.695000000000000000e+03 7.924066066741943359e+00 3.789985179901123047e-01 2.001548111438751221e-01 -1.172857009805738926e-03 5.969458445906639099e-02 -6.173920352011919022e-03
3.696000000000000000e+03 7.942295551300048828e+00 1.118998527526855469e+00 1.245234534144401550e-01 -7.735920138657093048e-03 3.503625839948654175e-02 -1.470803096890449524e-02
3.697000000000000000e+03 9.552846908569335938e+00 3.859910368919372559e-01 1.974768191576004028e-01 -7.053158711642026901e-03 5.712709948420524597e-02 1.056269370019435883e-02
3.698000000000000000e+03 9.495200157165527344e+00 1.125990986824035645e+00 1.335494965314865112e-01 -2.098864130675792694e-02 3.376825898885726929e-02 1.124726608395576477e-02
3.699000000000000000e+03 4.831327438354492188e+00 1.116599798202514648e+00 7.567998766899108887e-02 -3.265369741711765528e-04 2.260603383183479309e-02 -3.275063633918762207e-02
3.700000000000000000e+03 4.054473876953125000e+00 1.116596221923828125e+00 5.907421559095382690e-02 6.176563329063355923e-04 1.790756173431873322e-02 -3.254659846425056458e-02
3.701000000000000000e+03 1.745976328849792480e+00 1.122917532920837402e+00 1.655751653015613556e-02 7.941217161715030670e-03 7.349620107561349869e-03 -2.090188488364219666e-02
3.702000000000000000e+03 1.424241423606872559e+00 3.829175233840942383e-01 9.777304716408252716e-03 1.252590795047581196e-03 3.308968618512153625e-03 -6.016642786562442780e-03
3.703000000000000000e+03 1.338139057159423828e+01 3.142086565494537354e-01 -3.530725538730621338e-01 1.180284246802330017e-01 -7.051324099302291870e-02 -1.138280481100082397e-01
3.704000000000000000e+03 1.410687160491943359e+01 4.760258793830871582e-01 -3.846836388111114502e-01 -1.815534532070159912e-01 -1.698711216449737549e-01 -7.135317474603652954e-02
3.705000000000000000e+03 1.353089809417724609e+01 -4.106113612651824951e-01 -2.523669004440307617e-01 -1.691447049379348755e-01 -1.264534890651702881e-01 -9.981357306241989136e-02
3.706000000000000000e+03 1.483218193054199219e+01 6.374483108520507812e-01 -4.004358649253845215e-01 1.422921568155288696e-01 -7.744311541318893433e-02 -1.303365975618362427e-01
3.707000000000000000e+03 1.495638942718505859e+01 -9.297639876604080200e-02 -3.045120835304260254e-01 -1.856682449579238892e-01 -1.470541059970855713e-01 -6.353136897087097168e-02
3.708000000000000000e+03 1.566942024230957031e+01 6.387124955654144287e-02 -3.237249255180358887e-01 1.997072100639343262e-01 -3.720530867576599121e-02 -1.228309050202369690e-01
3.709000000000000000e+03 1.555786418914794922e+01 7.970982789993286133e-01 -4.199859499931335449e-01 -1.682237982749938965e-01 -1.764629185199737549e-01 -5.755382403731346130e-02
3.710000000000000000e+03 1.424372863769531250e+01 -2.515964508056640625e-01 -2.975138127803802490e-01 1.349125206470489502e-01 -4.878039285540580750e-02 -1.182538941502571106e-01
3.711000000000000000e+03 1.115754413604736328e+01 -1.603091955184936523e-01 -2.535356581211090088e-01 -9.768971800804138184e-02 -1.053676083683967590e-01 -6.118628755211830139e-02
3.712000000000000000e+03 1.126386642456054688e+01 -8.940912485122680664e-01 -1.946476846933364868e-01 4.948327317833900452e-02 -4.354932531714439392e-02 -8.276275545358657837e-02
3.713000000000000000e+03 1.049932956695556641e+01 -1.051980972290039062e+00 -1.654075086116790771e-01 -1.015224829316139221e-01 -8.007899671792984009e-02 -7.298887521028518677e-02
3.714000000000000000e+03 1.279222297668457031e+01 -5.713624954223632812e-01 -2.467277497053146362e-01 8.126432448625564575e-02 -4.963902756571769714e-02 -9.382448345422744751e-02
3.715000000000000000e+03 1.264629268646240234e+01 1.541289687156677246e-01 -3.203803896903991699e-01 -1.381588280200958252e-01 -1.375617682933807373e-01 -7.356372475624084473e-02
3.716000000000000000e+03 1.190196800231933594e+01 -3.807745641097426414e-03 -2.833976149559020996e-01 7.327128201723098755e-02 -6.303790211677551270e-02 -8.633390814065933228e-02
3.717000000000000000e+03 1.202809429168701172e+01 -7.334445118904113770e-01 -2.201003432273864746e-01 -1.285756975412368774e-01 -1.046028137207031250e-01 -9.700819849967956543e-02
3.718000000000000000e+03 1.041281127929687500e+01 -3.140535950660705566e-01 -2.284009009599685669e-01 5.038164556026458740e-02 -5.340578034520149231e-02 -6.388843059539794922e-02
3.719000000000000000e+03 9.660583496093750000e+00 -3.871031999588012695e-01 -1.885042637586593628e-01 -7.923313230276107788e-02 -8.032121509313583374e-02 -2.742395922541618347e-02
3.720000000000000000e+03 8.901437759399414062e+00 -3.833611309528350830e-01 -1.297059506177902222e-01 5.861970037221908569e-02 -2.132587693631649017e-02 -2.764578163623809814e-02
3.721000000000000000e+03 8.142838478088378906e+00 -3.822377920150756836e-01 -9.667982161045074463e-02 -5.691492557525634766e-02 -4.607842490077018738e-02 -7.121595088392496109e-03
3.722000000000000000e+03 7.384317874908447266e+00 -3.816416263580322266e-01 -6.388118863105773926e-02 4.765789210796356201e-02 -4.866987932473421097e-03 -2.084778994321823120e-02
3.723000000000000000e+03 6.625857353210449219e+00 -3.809241652488708496e-01 -4.713708534836769104e-02 -4.506877437233924866e-02 -2.766175754368305206e-02 3.484326589386910200e-04
3.724000000000000000e+03 5.867558479309082031e+00 -3.799938857555389404e-01 -2.515318803489208221e-02 3.821554407477378845e-02 3.918707370758056641e-03 -1.665086112916469574e-02
3.725000000000000000e+03 5.109274387359619141e+00 -3.788675963878631592e-01 -1.817341521382331848e-02 -3.532946854829788208e-02 -1.605086587369441986e-02 4.330334253609180450e-03
3.726000000000000000e+03 4.350872039794921875e+00 -3.776756227016448975e-01 -4.734284710139036179e-03 2.873948775231838226e-02 7.201560772955417633e-03 -1.190241798758506775e-02
3.727000000000000000e+03 3.592402935028076172e+00 -3.764508068561553955e-01 -3.125865012407302856e-03 -2.440128289163112640e-02 -8.258144371211528778e-03 4.867264069616794586e-03
3.728000000000000000e+03 2.834043025970458984e+00 -3.751347661018371582e-01 2.850424498319625854e-03 1.742257550358772278e-02 6.081900093704462051e-03 -6.357116624712944031e-03
3.729000000000000000e+03 2.077167272567749023e+00 -3.747134804725646973e-01 1.625848701223731041e-03 -1.258928608149290085e-02 -3.289031097665429115e-03 3.619658527895808220e-03
3.730000000000000000e+03 1.334073781967163086e+00 -3.800741434097290039e-01 2.290662145242094994e-03 6.958885584026575089e-03 2.774864202365279198e-03 -1.887781545519828796e-03
3.731000000000000000e+03 3.531542122364044189e-01 -9.606399536132812500e-01 3.157444531098008156e-03 1.933148480020463467e-03 1.527177868410944939e-03 -7.508992566727101803e-04
3.732000000000000000e+03 6.561777591705322266e-01 -4.032240808010101318e-01 -2.909790258854627609e-03 -4.116429015994071960e-03 -2.107865875586867332e-03 3.838883712887763977e-03
3.733000000000000000e+03 9.748202323913574219e+00 -1.127103209495544434e+00 -1.368747502565383911e-01 3.157229721546173096e-02 -3.159073367714881897e-02 -7.599696516990661621e-02
3.734000000000000000e+03 9.011062622070312500e+00 -1.123361110687255859e+00 -1.238090470433235168e-01 -6.989979743957519531e-02 -5.811265483498573303e-02 -5.422889813780784607e-02
3.735000000000000000e+03 8.274469375610351562e+00 -1.122237801551818848e+00 -9.025824815034866333e-02 4.014672338962554932e-02 -1.503345835953950882e-02 -4.952663183212280273e-02
3.736000000000000000e+03 7.537953376770019531e+00 -1.121641635894775391e+00 -7.344694435596466064e-02 -5.134927481412887573e-02 -3.743886575102806091e-02 -2.936338633298873901e-02
3.737000000000000000e+03 6.801498889923095703e+00 -1.120924115180969238e+00 -4.933913424611091614e-02 3.329256549477577209e-02 -4.813970066606998444e-03 -3.451397269964218140e-02
3.738000000000000000e+03 6.065205574035644531e+00 -1.119993925094604492e+00 -3.936280682682991028e-02 -3.967484459280967712e-02 -2.371129579842090607e-02 -1.449964288622140884e-02
3.739000000000000000e+03 5.328927040100097656e+00 -1.118867635726928711e+00 -2.380208484828472137e-02 2.675030194222927094e-02 8.844652911648154259e-04 -2.325255237519741058e-02
3.740000000000000000e+03 4.592530727386474609e+00 -1.117675662040710449e+00 -1.629080250859260559e-02 -3.124683164060115814e-02 -1.426129043102264404e-02 -5.650300066918134689e-03
3.741000000000000000e+03 3.856066942214965820e+00 -1.116450786590576172e+00 -1.003237627446651459e-02 2.078594826161861420e-02 3.226071828976273537e-03 -1.238014921545982361e-02
3.742000000000000000e+03 3.119712829589843750e+00 -1.115134716033935547e+00 -4.198898095637559891e-03 -2.236459404230117798e-02 -7.969047874212265015e-03 -1.029104576446115971e-03
3.743000000000000000e+03 2.384842634201049805e+00 -1.114713430404663086e+00 -3.735517850145697594e-03 1.294061914086341858e-02 2.761530224233865738e-03 -3.777542151510715485e-03
3.744000000000000000e+03 1.663754701614379883e+00 -1.120074152946472168e+00 4.284489550627768040e-04 -1.184942759573459625e-02 -3.426293609663844109e-03 9.689329308457672596e-04
3.745000000000000000e+03 1.007864356040954590e+00 -1.143224120140075684e+00 2.643224783241748810e-03 4.677447956055402756e-03 2.196201821789145470e-03 5.038553499616682529e-04
3.746000000000000000e+03 6.245342636108398438e+01 -3.240635395050048828e+00 2.645608520507812500e+01 1.002098464965820312e+01 1.094312095642089844e+01 1.452439689636230469e+01
3.747000000000000000e+03 6.246054840087890625e+01 -3.258731603622436523e+00 2.090231704711914062e+01 2.367439079284667969e+01 1.337301254272460938e+01 2.170092582702636719e+01
3.748000000000000000e+03 6.247105407714843750e+01 -3.275097608566284180e+00 1.772257041931152344e+01 3.544145584106445312e+01 1.594920730590820312e+01 2.290571594238281250e+01
3.749000000000000000e+03 6.248454284667968750e+01 -3.289107799530029297e+00 1.388745498657226562e+01 4.588939666748046875e+01 1.793305587768554688e+01 2.158809852600097656e+01
3.750000000000000000e+03 6.250049591064453125e+01 -3.300227165222167969e+00 1.176568317413330078e+01 5.528719711303710938e+01 2.011586380004882812e+01 1.767129707336425781e+01
3.751000000000000000e+03 6.251831054687500000e+01 -3.308031558990478516e+00 9.879913330078125000e+00 6.170803451538085938e+01 2.147638320922851562e+01 1.234615707397460938e+01
3.752000000000000000e+03 6.253730010986328125e+01 -3.312222480773925781e+00 1.079797840118408203e+01 6.608272552490234375e+01 2.306421089172363281e+01 5.720870018005371094e+00
3.753000000000000000e+03 6.255674362182617188e+01 -3.312640428543090820e+00 1.227855682373046875e+01 6.693345642089843750e+01 2.376360511779785156e+01 -6.664078831672668457e-01
3.754000000000000000e+03 6.257589721679687500e+01 -3.309268951416015625e+00 1.657357406616210938e+01 6.558808135986328125e+01 2.464849662780761719e+01 -6.426097869873046875e+00
3.755000000000000000e+03 6.259402847290039062e+01 -3.302236795425415039e+00 2.119343376159667969e+01 6.199327850341796875e+01 2.495601463317871094e+01 -1.052942943572998047e+01
3.756000000000000000e+03 6.261044692993164062e+01 -3.291812658309936523e+00 2.672021293640136719e+01 5.706834030151367188e+01 2.513656616210937500e+01 -1.280781364440917969e+01
3.757000000000000000e+03 6.262452697753906250e+01 -3.278394937515258789e+00 3.189569282531738281e+01 5.227645111083984375e+01 2.525164413452148438e+01 -1.294790172576904297e+01
3.758000000000000000e+03 6.263572311401367188e+01 -3.262495517730712891e+00 3.615318679809570312e+01 4.736578750610351562e+01 2.505569267272949219e+01 -1.143394088745117188e+01
3.759000000000000000e+03 6.264361572265625000e+01 -3.244721651077270508e+00 3.943954849243164062e+01 4.431849288940429688e+01 2.512741279602050781e+01 -8.499114036560058594e+00
3.760000000000000000e+03 6.264790344238281250e+01 -3.225752115249633789e+00 4.087297058105468750e+01 4.182472991943359375e+01 2.480931091308593750e+01 -4.860598564147949219e+00
3.761000000000000000e+03 6.264841842651367188e+01 -3.206311225891113281e+00 4.108924484252929688e+01 4.168151473999023438e+01 2.483122825622558594e+01 -1.143092393875122070e+00
3.762000000000000000e+03 6.264514160156250000e+01 -3.187141180038452148e+00 3.989434432983398438e+01 4.326059341430664062e+01 2.494648170471191406e+01 2.555948972702026367e+00
3.763000000000000000e+03 6.263820266723632812e+01 -3.168974399566650391e+00 3.698817443847656250e+01 4.534692764282226562e+01 2.470053100585937500e+01 5.586746692657470703e+00
3.764000000000000000e+03 6.262786102294921875e+01 -3.152504444122314453e+00 3.397880554199218750e+01 4.921903610229492188e+01 2.495935249328613281e+01 7.052751064300537109e+00
3.765000000000000000e+03 6.261451339721679688e+01 -3.138360023498535156e+00 2.954842567443847656e+01 5.432020568847656250e+01 2.516058921813964844e+01 7.196576595306396484e+00
3.766000000000000000e+03 6.259866714477539062e+01 -3.127081394195556641e+00 2.478393745422363281e+01 5.822054290771484375e+01 2.490134429931640625e+01 5.887420654296875000e+00
3.767000000000000000e+03 6.258093261718750000e+01 -3.119099378585815430e+00 2.120171356201171875e+01 6.232468032836914062e+01 2.505791854858398438e+01 2.372171640396118164e+00
3.768000000000000000e+03 6.256198501586914062e+01 -3.114718675613403320e+00 1.813027000427246094e+01 6.459039306640625000e+01 2.481619834899902344e+01 -2.631727218627929688e+00
3.769000000000000000e+03 6.254254913330078125e+01 -3.114106655120849609e+00 1.630135917663574219e+01 6.444314575195312500e+01 2.422335052490234375e+01 -8.648273468017578125e+00
3.770000000000000000e+03 6.252336120605468750e+01 -3.117286443710327148e+00 1.657815170288085938e+01 6.178144073486328125e+01 2.350787734985351562e+01 -1.472676181793212891e+01
3.771000000000000000e+03 6.250516128540039062e+01 -3.124136686325073242e+00 1.856727218627929688e+01 5.634085845947265625e+01 2.247243881225585938e+01 -2.020438575744628906e+01
3.772000000000000000e+03 6.248863983154296875e+01 -3.134396076202392578e+00 2.123417854309082031e+01 4.829466629028320312e+01 2.085865402221679688e+01 -2.423251152038574219e+01
3.773000000000000000e+03 6.247443008422851562e+01 -3.147672414779663086e+00 2.496155738830566406e+01 3.920592880249023438e+01 1.925024604797363281e+01 -2.593104743957519531e+01
3.774000000000000000e+03 6.246306991577148438e+01 -3.163459300994873047e+00 2.782706069946289062e+01 2.868785285949707031e+01 1.695447349548339844e+01 -2.552705574035644531e+01
3.775000000000000000e+03 6.245500183105468750e+01 -3.181153297424316406e+00 3.033191490173339844e+01 1.894918251037597656e+01 1.478432846069335938e+01 -2.245145225524902344e+01
3.776000000000000000e+03 6.245052719116210938e+01 -3.200078964233398438e+00 3.074601745605468750e+01 9.672798156738281250e+00 1.212564468383789062e+01 -1.733789253234863281e+01
3.777000000000000000e+03 6.244981765747070312e+01 -3.219513893127441406e+00 2.962015151977539062e+01 2.746559619903564453e+00 9.710013389587402344e+00 -6.284159183502197266e+00
