# el_label, x, y, sXX, sYY, sZZ, sXY
1.000000000000000000e+00 1.265211009979248047e+01 5.233107805252075195e-01 -1.231550574302673340e+00 -2.559674263000488281e+00 -1.137367486953735352e+00 -1.925313472747802734e+00
2.000000000000000000e+00 1.246260643005371094e+01 4.624356627464294434e-01 8.813630342483520508e-01 8.195135593414306641e-01 5.102629661560058594e-01 6.729579567909240723e-01
3.000000000000000000e+00 1.227310276031494141e+01 4.015605449676513672e-01 1.040711775422096252e-01 -1.301761269569396973e-01 -7.831485942006111145e-03 1.059415787458419800e-01
4.000000000000000000e+00 1.208359909057617188e+01 3.406854569911956787e-01 -2.266906648874282837e-01 1.094607263803482056e-01 -3.516897931694984436e-02 1.115347146987915039e-01
5.000000000000000000e+00 1.267532730102539062e+01 4.697162210941314697e-01 8.396917343139648438e+00 -1.065217494964599609e+00 2.199509859085083008e+00 3.616240978240966797e+00
6.000000000000000000e+00 1.250130176544189453e+01 3.731114268302917480e-01 3.453042984008789062e+00 1.053015470504760742e+00 1.351817488670349121e+00 1.717293858528137207e+00
7.000000000000000000e+00 1.232727622985839844e+01 2.765066027641296387e-01 2.991208553314208984e+00 1.242681384086608887e+00 1.270166993141174316e+00 2.199368476867675781e+00
8.000000000000000000e+00 1.215325069427490234e+01 1.799017935991287231e-01 2.206487417221069336e+00 8.905330896377563477e-01 9.291061162948608398e-01 1.534286499023437500e+00
9.000000000000000000e+00 1.270853424072265625e+01 4.216673672199249268e-01 1.015380477905273438e+01 5.291828632354736328e+00 4.633689880371093750e+00 8.473358154296875000e+00
1.000000000000000000e+01 1.255664730072021484e+01 2.930299937725067139e-01 6.432312011718750000e+00 2.867990970611572266e+00 2.790090799331665039e+00 5.143972396850585938e+00
1.100000000000000000e+01 1.240475940704345703e+01 1.643926054239273071e-01 4.435351848602294922e+00 3.201540470123291016e+00 2.291067838668823242e+00 3.768734455108642578e+00
1.200000000000000000e+01 1.225287246704101562e+01 3.575523197650909424e-02 3.674350976943969727e+00 2.670267343521118164e+00 1.903385400772094727e+00 3.628983020782470703e+00
1.300000000000000000e+01 1.275046062469482422e+01 3.810030817985534668e-01 9.708856582641601562e+00 1.160093402862548828e+01 6.392937183380126953e+00 1.151051235198974609e+01
1.400000000000000000e+01 1.262652397155761719e+01 2.252561748027801514e-01 6.537610054016113281e+00 7.739761829376220703e+00 4.283211708068847656e+00 7.488465785980224609e+00
1.500000000000000000e+01 1.250258827209472656e+01 6.950926780700683594e-02 5.110312938690185547e+00 5.888909816741943359e+00 3.299766778945922852e+00 6.023665428161621094e+00
1.600000000000000000e+01 1.237865161895751953e+01 -8.623763918876647949e-02 4.072154998779296875e+00 5.427618503570556641e+00 2.849931955337524414e+00 4.947311878204345703e+00
1.700000000000000000e+01 1.279950141906738281e+01 3.492796123027801514e-01 7.761223793029785156e+00 1.924967002868652344e+01 8.103268623352050781e+00 1.197085475921630859e+01
1.800000000000000000e+01 1.270825958251953125e+01 1.723837256431579590e-01 5.576133728027343750e+00 1.248310756683349609e+01 5.417772293090820312e+00 8.866853713989257812e+00
1.900000000000000000e+01 1.261701774597167969e+01 -4.512173123657703400e-03 4.478286743164062500e+00 1.032561874389648438e+01 4.441171646118164062e+00 6.851544857025146484e+00
2.000000000000000000e+01 1.252577495574951172e+01 -1.814080625772476196e-01 3.635008335113525391e+00 8.491900444030761719e+00 3.638072729110717773e+00 6.110306739807128906e+00
2.100000000000000000e+01 1.285378074645996094e+01 3.277110159397125244e-01 5.422726154327392578e+00 2.546216011047363281e+01 9.265465736389160156e+00 1.083578109741210938e+01
2.200000000000000000e+01 1.279872417449951172e+01 1.364360898733139038e-01 4.394450187683105469e+00 1.793605232238769531e+01 6.699150562286376953e+00 8.062227249145507812e+00
2.300000000000000000e+01 1.274366760253906250e+01 -5.483886599540710449e-02 3.244975805282592773e+00 1.422341537475585938e+01 5.240517139434814453e+00 7.101191520690917969e+00
2.400000000000000000e+01 1.268861198425292969e+01 -2.461138069629669189e-01 2.793231725692749023e+00 1.265042209625244141e+01 4.633096218109130859e+00 5.768679141998291016e+00
2.500000000000000000e+01 1.291121959686279297e+01 3.171227872371673584e-01 4.369301795959472656e+00 3.079561424255371094e+01 1.054947471618652344e+01 7.490308284759521484e+00
2.600000000000000000e+01 1.289445686340332031e+01 1.187890022993087769e-01 3.029709577560424805e+00 2.217988014221191406e+01 7.562876701354980469e+00 6.521989345550537109e+00
2.700000000000000000e+01 1.287769317626953125e+01 -7.954477518796920776e-02 2.616140365600585938e+00 1.814574813842773438e+01 6.228566646575927734e+00 5.373457431793212891e+00
2.800000000000000000e+01 1.286093044281005859e+01 -2.778785526752471924e-01 1.765664100646972656e+00 1.562180805206298828e+01 5.216241836547851562e+00 5.245312690734863281e+00
2.900000000000000000e+01 1.296962165832519531e+01 3.179200887680053711e-01 4.237133502960205078e+00 3.398826599121093750e+01 1.146761989593505859e+01 3.545058965682983398e+00
3.000000000000000000e+01 1.299179267883300781e+01 1.201178580522537231e-01 2.998153448104858398e+00 2.527964210510253906e+01 8.483338356018066406e+00 3.616524219512939453e+00
3.100000000000000000e+01 1.301396465301513672e+01 -7.768438011407852173e-02 2.004489660263061523e+00 2.113952064514160156e+01 6.943202972412109375e+00 3.384454727172851562e+00
3.200000000000000000e+01 1.303613567352294922e+01 -2.754866182804107666e-01 1.875361680984497070e+00 1.800169944763183594e+01 5.963118076324462891e+00 2.790773630142211914e+00
3.300000000000000000e+01 1.302675056457519531e+01 3.300724625587463379e-01 5.836759090423583984e+00 3.508882141113281250e+01 1.227767372131347656e+01 -7.263994812965393066e-01
3.400000000000000000e+01 1.308700847625732422e+01 1.403717845678329468e-01 3.849951267242431641e+00 2.703216552734375000e+01 9.264635086059570312e+00 6.256610155105590820e-01
3.500000000000000000e+01 1.314726543426513672e+01 -4.932888224720954895e-02 2.607536554336547852e+00 2.256356048583984375e+01 7.551329135894775391e+00 6.999714970588684082e-01
3.600000000000000000e+01 1.320752334594726562e+01 -2.390295565128326416e-01 1.953384518623352051e+00 2.031450271606445312e+01 6.680366516113281250e+00 5.734383463859558105e-01
3.700000000000000000e+01 1.308042049407958984e+01 3.531147837638854980e-01 8.939716339111328125e+00 3.464850997924804688e+01 1.307646751403808594e+01 -4.141250133514404297e+00
3.800000000000000000e+01 1.317645835876464844e+01 1.787756532430648804e-01 5.684698581695556641e+00 2.700022697448730469e+01 9.805477142333984375e+00 -2.358823299407958984e+00
3.900000000000000000e+01 1.327249526977539062e+01 4.436529241502285004e-03 4.235737800598144531e+00 2.317214012145996094e+01 8.222363471984863281e+00 -1.625385165214538574e+00
4.000000000000000000e+01 1.336853313446044922e+01 -1.699025928974151611e-01 2.972880125045776367e+00 2.040114212036132812e+01 7.012206554412841797e+00 -1.347526550292968750e+00
4.100000000000000000e+01 1.312857723236083984e+01 3.861652016639709473e-01 1.247559165954589844e+01 3.257427978515625000e+01 1.351496124267578125e+01 -6.516263484954833984e+00
4.200000000000000000e+01 1.325671958923339844e+01 2.338597178459167480e-01 8.663517951965332031e+00 2.625493812561035156e+01 1.047553730010986328e+01 -4.480359077453613281e+00
4.300000000000000000e+01 1.338486099243164062e+01 8.155421912670135498e-02 6.510098934173583984e+00 2.205631446838378906e+01 8.569924354553222656e+00 -3.537454128265380859e+00
4.400000000000000000e+01 1.351300334930419922e+01 -7.075127959251403809e-02 5.187161922454833984e+00 1.978340721130371094e+01 7.491170883178710938e+00 -2.762309074401855469e+00
4.500000000000000000e+01 1.316937828063964844e+01 4.279588758945465088e-01 1.676185035705566406e+01 3.044957542419433594e+01 1.416342830657958984e+01 -7.273815155029296875e+00
4.600000000000000000e+01 1.332472038269042969e+01 3.035158514976501465e-01 1.152139472961425781e+01 2.423698043823242188e+01 1.072751235961914062e+01 -5.706604480743408203e+00
4.700000000000000000e+01 1.348006248474121094e+01 1.790728420019149780e-01 9.625793457031250000e+00 2.080155372619628906e+01 9.128204345703125000e+00 -4.624712944030761719e+00
4.800000000000000000e+01 1.363540554046630859e+01 5.462980642914772034e-02 7.924380302429199219e+00 1.783724021911621094e+01 7.728486061096191406e+00 -3.725785017013549805e+00
4.900000000000000000e+01 1.320126152038574219e+01 4.768963754177093506e-01 1.989011192321777344e+01 2.779411697387695312e+01 1.430526828765869141e+01 -6.973037719726562500e+00
5.000000000000000000e+01 1.337785911560058594e+01 3.850783109664916992e-01 1.498420619964599609e+01 2.259909248352050781e+01 1.127499008178710938e+01 -5.590081214904785156e+00
5.100000000000000000e+01 1.355445671081542969e+01 2.932602763175964355e-01 1.193899631500244141e+01 1.876667404174804688e+01 9.211701393127441406e+00 -4.858341693878173828e+00
5.200000000000000000e+01 1.373105430603027344e+01 2.014422267675399780e-01 1.105309772491455078e+01 1.663626289367675781e+01 8.306807518005371094e+00 -4.280051231384277344e+00
5.300000000000000000e+01 1.322300624847412109e+01 5.311047434806823730e-01 2.293085479736328125e+01 2.646700668334960938e+01 1.481935882568359375e+01 -5.284348487854003906e+00
5.400000000000000000e+01 1.341410064697265625e+01 4.754256308078765869e-01 1.705854606628417969e+01 2.053631210327148438e+01 1.127845764160156250e+01 -4.787772655487060547e+00
5.500000000000000000e+01 1.360519504547119141e+01 4.197465181350708008e-01 1.453887653350830078e+01 1.759212493896484375e+01 9.639300346374511719e+00 -3.925804853439331055e+00
5.600000000000000000e+01 1.379629039764404297e+01 3.640674054622650146e-01 1.212377262115478516e+01 1.540876483917236328e+01 8.259760856628417969e+00 -3.817327737808227539e+00
5.700000000000000000e+01 1.323378181457519531e+01 5.885095000267028809e-01 2.415845870971679688e+01 2.499222564697265625e+01 1.474520492553710938e+01 -3.435103893280029297e+00
5.800000000000000000e+01 1.343206024169921875e+01 5.711001157760620117e-01 1.886856079101562500e+01 2.003363609313964844e+01 1.167065906524658203e+01 -2.783312082290649414e+00
5.900000000000000000e+01 1.363033771514892578e+01 5.536908507347106934e-01 1.540548610687255859e+01 1.634508514404296875e+01 9.525171279907226562e+00 -2.785527229309082031e+00
6.000000000000000000e+01 1.382861614227294922e+01 5.362815260887145996e-01 1.345045757293701172e+01 1.469316482543945312e+01 8.443086624145507812e+00 -1.879999399185180664e+00
6.100000000000000000e+01 1.323317432403564453e+01 6.469135880470275879e-01 2.461154747009277344e+01 2.540881156921386719e+01 1.500610733032226562e+01 -1.124169230461120605e+00
6.200000000000000000e+01 1.343104839324951172e+01 6.684403419494628906e-01 1.918548202514648438e+01 1.941653251647949219e+01 1.158060455322265625e+01 -9.014249444007873535e-01
6.300000000000000000e+01 1.362892150878906250e+01 6.899670362472534180e-01 1.570325851440429688e+01 1.682874679565429688e+01 9.759601593017578125e+00 -6.185046434402465820e-01
6.400000000000000000e+01 1.382679462432861328e+01 7.114938497543334961e-01 1.330418491363525391e+01 1.368380832672119141e+01 8.096398353576660156e+00 -5.995070338249206543e-01
6.500000000000000000e+01 1.322120857238769531e+01 7.040817737579345703e-01 2.379983901977539062e+01 2.615094947814941406e+01 1.498523712158203125e+01 8.093664050102233887e-01
6.600000000000000000e+01 1.341110515594482422e+01 7.637206315994262695e-01 1.837894058227539062e+01 2.027878570556640625e+01 1.159731769561767578e+01 1.017423629760742188e+00
6.700000000000000000e+01 1.360100078582763672e+01 8.233594894409179688e-01 1.517423725128173828e+01 1.724029731750488281e+01 9.724360466003417969e+00 1.064380526542663574e+00
6.800000000000000000e+01 1.379089641571044922e+01 8.829984068870544434e-01 1.274604892730712891e+01 1.474736404418945312e+01 8.248023986816406250e+00 1.217451214790344238e+00
6.900000000000000000e+01 1.319834232330322266e+01 7.578262090682983398e-01 2.181623840332031250e+01 2.743399238586425781e+01 1.477506923675537109e+01 2.329842090606689453e+00
7.000000000000000000e+01 1.337299346923828125e+01 8.532946705818176270e-01 1.684560585021972656e+01 2.195972251892089844e+01 1.164159870147705078e+01 2.080609321594238281e+00
7.100000000000000000e+01 1.354764461517333984e+01 9.487631916999816895e-01 1.352146720886230469e+01 1.812367248535156250e+01 9.493541717529296875e+00 2.365203857421875000e+00
7.200000000000000000e+01 1.372229576110839844e+01 1.044231653213500977e+00 1.240878677368164062e+01 1.628511238098144531e+01 8.608169555664062500e+00 1.982502698898315430e+00
7.300000000000000000e+01 1.316544914245605469e+01 8.060902357101440430e-01 1.965617179870605469e+01 2.967333793640136719e+01 1.479885292053222656e+01 2.648396730422973633e+00
7.400000000000000000e+01 1.331817150115966797e+01 9.337347149848937988e-01 1.412887477874755859e+01 2.350347518920898438e+01 1.128970527648925781e+01 2.595563173294067383e+00
7.500000000000000000e+01 1.347089290618896484e+01 1.061379194259643555e+00 1.209015369415283203e+01 1.982759284973144531e+01 9.575324058532714844e+00 2.263135433197021484e+00
7.600000000000000000e+01 1.362361621856689453e+01 1.189023733139038086e+00 9.686086654663085938e+00 1.734990882873535156e+01 8.110798835754394531e+00 2.165519714355468750e+00
7.700000000000000000e+01 1.312378883361816406e+01 8.470267057418823242e-01 1.639552307128906250e+01 3.163043212890625000e+01 1.440778732299804688e+01 2.132001638412475586e+00
7.800000000000000000e+01 1.324873733520507812e+01 1.001962304115295410e+00 1.200737762451171875e+01 2.525179481506347656e+01 1.117775154113769531e+01 1.746751785278320312e+00
7.900000000000000000e+01 1.337368679046630859e+01 1.156897783279418945e+00 9.441606521606445312e+00 2.125778579711914062e+01 9.209817886352539062e+00 1.360631227493286133e+00
8.000000000000000000e+01 1.349863529205322266e+01 1.311833381652832031e+00 8.019033432006835938e+00 1.849227142333984375e+01 7.953391551971435547e+00 1.603913426399230957e+00
8.100000000000000000e+01 1.307495498657226562e+01 8.790691494941711426e-01 1.368235015869140625e+01 3.339247894287109375e+01 1.412244892120361328e+01 3.624069988727569580e-01
8.200000000000000000e+01 1.316734981536865234e+01 1.055366277694702148e+00 9.725138664245605469e+00 2.619489479064941406e+01 1.077600955963134766e+01 -2.053207457065582275e-01
8.300000000000000000e+01 1.325974369049072266e+01 1.231663346290588379e+00 7.477253913879394531e+00 2.230243873596191406e+01 8.933907508850097656e+00 -8.121237903833389282e-02
8.400000000000000000e+01 1.335213661193847656e+01 1.407960534095764160e+00 6.459762573242187500e+00 1.920097923278808594e+01 7.698222637176513672e+00 -3.211758136749267578e-01
8.500000000000000000e+01 1.302081871032714844e+01 9.009911417961120605e-01 1.146187973022460938e+01 3.398062896728515625e+01 1.363275241851806641e+01 -2.442140579223632812e+00
8.600000000000000000e+01 1.307712078094482422e+01 1.091902971267700195e+00 8.143680572509765625e+00 2.651906585693359375e+01 1.039882373809814453e+01 -2.859182596206665039e+00
8.700000000000000000e+01 1.313342380523681641e+01 1.282814741134643555e+00 6.455595970153808594e+00 2.183880424499511719e+01 8.488319396972656250e+00 -2.343487977981567383e+00
8.800000000000000000e+01 1.318972682952880859e+01 1.473726511001586914e+00 4.864758491516113281e+00 1.960715866088867188e+01 7.341575145721435547e+00 -2.260362625122070312e+00
8.900000000000000000e+01 1.296344947814941406e+01 9.119537472724914551e-01 1.032404518127441406e+01 3.335660552978515625e+01 1.310419559478759766e+01 -6.175960063934326172e+00
9.000000000000000000e+01 1.298150634765625000e+01 1.110173940658569336e+00 7.609119415283203125e+00 2.519728851318359375e+01 9.841922760009765625e+00 -5.565514087677001953e+00
9.100000000000000000e+01 1.299956321716308594e+01 1.308394193649291992e+00 6.068000316619873047e+00 2.092204284667968750e+01 8.097013473510742188e+00 -5.153263092041015625e+00
9.200000000000000000e+01 1.301762008666992188e+01 1.506614446640014648e+00 4.719493389129638672e+00 1.768357086181640625e+01 6.720919132232666016e+00 -4.151295661926269531e+00
9.300000000000000000e+01 1.290504455566406250e+01 9.115374684333801270e-01 1.058323764801025391e+01 3.090907287597656250e+01 1.244769287109375000e+01 -9.723345756530761719e+00
9.400000000000000000e+01 1.288416385650634766e+01 1.109480142593383789e+00 8.090283393859863281e+00 2.261423873901367188e+01 9.211357116699218750e+00 -8.389842033386230469e+00
9.500000000000000000e+01 1.286328411102294922e+01 1.307422876358032227e+00 6.545874595642089844e+00 1.861672592163085938e+01 7.548779964447021484e+00 -7.158792018890380859e+00
9.600000000000000000e+01 1.284240341186523438e+01 1.505365610122680664e+00 5.361086368560791016e+00 1.589519596099853516e+01 6.376884937286376953e+00 -6.711285591125488281e+00
9.700000000000000000e+01 1.284783744812011719e+01 8.997582197189331055e-01 1.195761775970458984e+01 2.651580047607421875e+01 1.154202556610107422e+01 -1.293977546691894531e+01
9.800000000000000000e+01 1.278881931304931641e+01 1.089848041534423828e+00 9.648032188415527344e+00 1.898641014099121094e+01 8.590332031250000000e+00 -1.006838989257812500e+01
9.900000000000000000e+01 1.272980117797851562e+01 1.279937982559204102e+00 7.519803047180175781e+00 1.517805767059326172e+01 6.809358119964599609e+00 -8.876338005065917969e+00
1.000000000000000000e+02 1.267078304290771484e+01 1.470027804374694824e+00 6.582067966461181641e+00 1.362751960754394531e+01 6.062876224517822266e+00 -7.515636444091796875e+00
1.010000000000000000e+02 1.279401874542236328e+01 8.770667910575866699e-01 1.460292053222656250e+01 2.112919044494628906e+01 1.071963310241699219e+01 -1.438442420959472656e+01
1.020000000000000000e+02 1.269912147521972656e+01 1.052029013633728027e+00 1.130378532409667969e+01 1.416916847229003906e+01 7.641886234283447266e+00 -1.103004741668701172e+01
1.030000000000000000e+02 1.260422420501708984e+01 1.226991295814514160e+00 9.174065589904785156e+00 1.164147281646728516e+01 6.244661331176757812e+00 -8.986597061157226562e+00
1.040000000000000000e+02 1.250932693481445312e+01 1.401953458786010742e+00 7.801351547241210938e+00 9.277155876159667969e+00 5.123552322387695312e+00 -7.905921936035156250e+00
1.050000000000000000e+02 1.274564743041992188e+01 8.443316221237182617e-01 1.739393424987792969e+01 1.445738220214843750e+01 9.555395126342773438e+00 -1.431977272033691406e+01
1.060000000000000000e+02 1.261850261688232422e+01 9.974703192710876465e-01 1.283459949493408203e+01 9.689572334289550781e+00 6.757251262664794922e+00 -1.022284030914306641e+01
1.070000000000000000e+02 1.249135780334472656e+01 1.150609016418457031e+00 1.062725162506103516e+01 7.279865741729736328e+00 5.372135162353515625e+00 -8.306796073913574219e+00
1.080000000000000000e+02 1.236421298980712891e+01 1.303747892379760742e+00 8.790004730224609375e+00 6.043577671051025391e+00 4.450074672698974609e+00 -7.389629364013671875e+00
1.090000000000000000e+02 1.270457553863525391e+01 8.028054237365722656e-01 1.906143760681152344e+01 8.399146080017089844e+00 8.238175392150878906e+00 -1.219785022735595703e+01
1.100000000000000000e+02 1.255004787445068359e+01 9.282599687576293945e-01 1.389286708831787109e+01 5.160077571868896484e+00 5.715883255004882812e+00 -8.144861221313476562e+00
1.110000000000000000e+02 1.239552211761474609e+01 1.053714632987976074e+00 1.090233993530273438e+01 3.882376670837402344e+00 4.435414791107177734e+00 -6.660760879516601562e+00
1.120000000000000000e+02 1.224099540710449219e+01 1.179169178009033203e+00 9.303525924682617188e+00 3.399971961975097656e+00 3.811049461364746094e+00 -5.791946411132812500e+00
1.130000000000000000e+02 1.267237377166748047e+01 7.540774345397949219e-01 1.953045272827148438e+01 3.225850343704223633e+00 6.826890945434570312e+00 -8.261155128479003906e+00
1.140000000000000000e+02 1.249637889862060547e+01 8.470467329025268555e-01 1.295603466033935547e+01 1.745592832565307617e+00 4.410488128662109375e+00 -5.315050601959228516e+00
1.150000000000000000e+02 1.232038402557373047e+01 9.400160312652587891e-01 1.034686088562011719e+01 1.594060301780700684e+00 3.582276344299316406e+00 -4.199157238006591797e+00
1.160000000000000000e+02 1.214439010620117188e+01 1.032985329627990723e+00 8.389574050903320312e+00 1.269948720932006836e+00 2.897856712341308594e+00 -3.786193370819091797e+00
1.170000000000000000e+02 1.265027427673339844e+01 7.000125050544738770e-01 1.668234825134277344e+01 -3.989713490009307861e-01 4.885012626647949219e+00 -3.745848894119262695e+00
1.180000000000000000e+02 1.245954799652099609e+01 7.569385170936584473e-01 1.070550727844238281e+01 -2.411140874028205872e-02 3.204418659210205078e+00 -1.988189458847045898e+00
1.190000000000000000e+02 1.226882076263427734e+01 8.138645291328430176e-01 7.802160739898681641e+00 3.854804039001464844e-01 2.456292390823364258e+00 -1.942177534103393555e+00
1.200000000000000000e+02 1.207809352874755859e+01 8.707905411720275879e-01 6.887619018554687500e+00 3.604001700878143311e-01 2.174405813217163086e+00 -1.985292077064514160e+00
1.210000000000000000e+02 1.263912487030029297e+01 6.426796913146972656e-01 1.099346733093261719e+01 -1.896180152893066406e+00 2.729186058044433594e+00 1.183995366096496582e+00
1.220000000000000000e+02 1.244096469879150391e+01 6.613838672637939453e-01 5.494543552398681641e+00 -4.872152209281921387e-02 1.633746623992919922e+00 -1.963837072253227234e-02
1.230000000000000000e+02 1.224280452728271484e+01 6.800880432128906250e-01 5.455945491790771484e+00 2.032847404479980469e-01 1.697769045829772949e+00 -6.902033686637878418e-01
1.240000000000000000e+02 1.204464435577392578e+01 6.987922787666320801e-01 4.093280792236328125e+00 -2.932165861129760742e-01 1.140019178390502930e+00 -3.907779157161712646e-01
1.250000000000000000e+02 1.263934993743896484e+01 5.842732191085815430e-01 -1.350550889968872070e+00 -1.184846758842468262e+00 -7.606192827224731445e-01 2.145755529403686523e+00
1.260000000000000000e+02 1.244133949279785156e+01 5.640397071838378906e-01 2.860966682434082031e+00 6.455678939819335938e-01 1.051960349082946777e+00 -2.418242841958999634e-01
1.270000000000000000e+02 1.224333000183105469e+01 5.438062548637390137e-01 1.533406257629394531e+00 -3.552303910255432129e-01 3.534527719020843506e-01 3.099166452884674072e-01
1.280000000000000000e+02 1.204532051086425781e+01 5.235727429389953613e-01 1.258927583694458008e+00 1.926669627428054810e-01 4.354783594608306885e-01 -1.361646782606840134e-02
1.290000000000000000e+02 9.718969345092773438e+00 -1.033338665962219238e+00 3.512975573539733887e-01 1.212908700108528137e-01 1.417765319347381592e-01 3.839750885963439941e-01
1.300000000000000000e+02 9.843887329101562500e+00 -1.376224637031555176e+00 8.696179986000061035e-01 3.837705850601196289e-01 3.760165870189666748e-01 6.476749777793884277e-01
1.310000000000000000e+02 7.327710151672363281e+00 -2.698817849159240723e-01 -1.060701966285705566e+00 -6.582147441804409027e-03 -3.201852142810821533e-01 -5.683125928044319153e-02
1.320000000000000000e+02 9.922579765319824219e+00 -7.714064717292785645e-01 8.075706660747528076e-02 2.539356425404548645e-02 3.184518963098526001e-02 2.870306968688964844e-01
1.330000000000000000e+02 9.436692237854003906e+00 -1.179708003997802734e+00 3.717786371707916260e-01 2.925087511539459229e-01 1.992862224578857422e-01 2.773057222366333008e-01
1.340000000000000000e+02 9.329482078552246094e+00 -8.235850334167480469e-01 -2.702887952327728271e-01 1.395730767399072647e-02 -7.689944654703140259e-02 -2.670342219062149525e-04
1.350000000000000000e+02 9.837401390075683594e+00 -3.495350182056427002e-01 -1.012817859649658203e+00 3.973566740751266479e-02 -2.919246852397918701e-01 -1.577539443969726562e-01
1.360000000000000000e+02 8.839391708374023438e+00 -2.758988738059997559e-01 -1.360831737518310547e+00 -1.594088599085807800e-02 -4.130317866802215576e-01 -5.988822132349014282e-02
1.370000000000000000e+02 7.403490543365478516e+00 -1.260187864303588867e+00 -1.368865370750427246e-01 9.033523499965667725e-03 -3.835590183734893799e-02 -9.990636259317398071e-02
1.380000000000000000e+02 5.847650527954101562e+00 -1.257942318916320801e+00 -2.368906885385513306e-01 -3.175748512148857117e-03 -7.201992720365524292e-02 -1.452227830886840820e-01
1.390000000000000000e+02 5.787881851196289062e+00 -2.706434130668640137e-01 -7.619343996047973633e-01 -6.484657991677522659e-03 -2.305257171392440796e-01 -4.962556809186935425e-02
1.400000000000000000e+02 5.046192169189453125e+00 -7.671023607254028320e-01 -4.245919585227966309e-01 -6.180110853165388107e-03 -1.292316168546676636e-01 -1.152071878314018250e-01
1.410000000000000000e+02 2.770182609558105469e+00 -1.249165415763854980e+00 -1.428078711032867432e-01 -1.501396855019265786e-05 -4.284686595201492310e-02 -1.569590121507644653e-01
1.420000000000000000e+02 1.057965159416198730e+00 -3.752878904342651367e-01 -2.850483544170856476e-02 -1.298496499657630920e-02 -1.244693994522094727e-02 -2.348960191011428833e-02
1.430000000000000000e+02 6.762168407440185547e-01 -1.115287899971008301e+00 -5.454548820853233337e-02 -5.602059885859489441e-02 -3.316982463002204895e-02 -5.611231550574302673e-02
1.440000000000000000e+02 3.718263208866119385e-01 -5.573117733001708984e-01 -1.236589043401181698e-03 -3.703893395140767097e-03 -1.482144696637988091e-03 -1.656790846027433872e-03
1.450000000000000000e+02 8.831277847290039062e+00 -7.802347540855407715e-01 -4.868359565734863281e-01 1.500215381383895874e-02 -1.415501385927200317e-01 -5.805359035730361938e-02
1.460000000000000000e+02 8.172064781188964844e+00 -1.261603474617004395e+00 -5.595789756625890732e-03 6.221624091267585754e-02 1.698613539338111877e-02 -1.309342868626117706e-02
1.470000000000000000e+02 6.626607894897460938e+00 -1.258987665176391602e+00 -2.147638797760009766e-01 1.046494115144014359e-02 -6.128968298435211182e-02 -1.035558283329010010e-01
1.480000000000000000e+02 5.068681240081787109e+00 -1.257265448570251465e+00 -2.255857288837432861e-01 -1.841598073951900005e-03 -6.822819262742996216e-02 -1.349188238382339478e-01
1.490000000000000000e+02 4.291164398193359375e+00 -1.257392168045043945e+00 -2.021148055791854858e-01 3.228307003155350685e-03 -5.966595187783241272e-02 -1.542615592479705811e-01
1.500000000000000000e+02 3.521189212799072266e+00 -1.258792281150817871e+00 -1.664986312389373779e-01 -5.835898686200380325e-03 -5.170036107301712036e-02 -1.423725336790084839e-01
1.510000000000000000e+02 2.051452159881591797e+00 -1.205345630645751953e+00 -9.151890128850936890e-02 -5.002124607563018799e-02 -4.246204346418380737e-02 -1.172313317656517029e-01
1.520000000000000000e+02 1.723409771919250488e+00 -4.139384329319000244e-01 -1.088410094380378723e-01 -1.049083471298217773e-02 -3.579955175518989563e-02 -4.481925442814826965e-02
1.530000000000000000e+02 9.510694503784179688e+00 -6.087461113929748535e-01 -6.594196557998657227e-01 -3.293709829449653625e-02 -2.077070325613021851e-01 5.047439038753509521e-02
1.540000000000000000e+02 9.722693443298339844e+00 -1.326281875371932983e-01 -1.783390879631042480e+00 2.840312011539936066e-02 -5.264962911605834961e-01 -1.312968581914901733e-01
1.550000000000000000e+02 9.953660011291503906e+00 -1.160195708274841309e+00 6.660962700843811035e-01 2.358017712831497192e-01 2.705694139003753662e-01 5.293647050857543945e-01
1.560000000000000000e+02 9.963515281677246094e+00 -9.722582101821899414e-01 4.103147685527801514e-01 1.876686513423919678e-01 1.793950200080871582e-01 3.943363428115844727e-01
1.570000000000000000e+02 9.423443794250488281e+00 -3.223205804824829102e-01 -1.402581572532653809e+00 -5.036127567291259766e-02 -4.358828365802764893e-01 -7.616974413394927979e-02
1.580000000000000000e+02 8.123278617858886719e+00 -7.709269523620605469e-01 -5.927829146385192871e-01 -3.270195447839796543e-04 -1.779329776763916016e-01 -9.931544214487075806e-02
1.590000000000000000e+02 5.820904731750488281e+00 -7.685857415199279785e-01 -4.956824183464050293e-01 1.733036478981375694e-03 -1.481848061084747314e-01 -1.109919920563697815e-01
1.600000000000000000e+02 2.309049844741821289e+00 -5.887254476547241211e-01 -1.448159217834472656e-01 1.804218627512454987e-02 -3.803212195634841919e-02 -8.108303695917129517e-02
1.610000000000000000e+02 8.091691970825195312e+00 -2.693235278129577637e-01 -1.212101817131042480e+00 9.851892478764057159e-03 -3.606749773025512695e-01 -5.045386403799057007e-02
1.620000000000000000e+02 2.851542711257934570e+00 -7.558068037033081055e-01 -1.927653849124908447e-01 -2.054209262132644653e-02 -6.399223953485488892e-02 -1.166523024439811707e-01
1.630000000000000000e+02 2.794852733612060547e+00 -2.666414082050323486e-01 -2.570030093193054199e-01 -2.512663416564464569e-02 -8.463889360427856445e-02 -2.307442016899585724e-02
1.640000000000000000e+02 8.907647132873535156e+00 -1.264335870742797852e+00 2.616487145423889160e-01 9.615045785903930664e-02 1.073397547006607056e-01 1.395435035228729248e-01
1.650000000000000000e+02 9.874578475952148438e+00 -5.599166750907897949e-01 -6.215516328811645508e-01 7.054572552442550659e-02 -1.653017848730087280e-01 1.029423922300338745e-01
1.660000000000000000e+02 1.347554922103881836e+00 -1.153938412666320801e+00 -4.062273353338241577e-02 -3.449066355824470520e-02 -2.253402024507522583e-02 -8.128116279840469360e-02
1.670000000000000000e+02 3.493366479873657227e+00 -2.672196328639984131e-01 -3.618509769439697266e-01 1.214055716991424561e-02 -1.049131304025650024e-01 -4.794419929385185242e-02
1.680000000000000000e+02 4.248246669769287109e+00 -2.685638070106506348e-01 -4.944266974925994873e-01 -8.430939167737960815e-03 -1.508572995662689209e-01 -4.199404269456863403e-02
1.690000000000000000e+02 5.016854286193847656e+00 -2.698369324207305908e-01 -6.255968213081359863e-01 4.640357568860054016e-03 -1.862869411706924438e-01 -4.623254388570785522e-02
1.700000000000000000e+02 6.558623313903808594e+00 -2.706843316555023193e-01 -9.087874889373779297e-01 3.738268045708537102e-03 -2.715147733688354492e-01 -5.210637301206588745e-02
1.710000000000000000e+02 6.595320224761962891e+00 -7.696720361709594727e-01 -5.498105883598327637e-01 -1.060775294899940491e-02 -1.681254953145980835e-01 -1.212056875228881836e-01
1.720000000000000000e+02 7.366005420684814453e+00 -7.700696587562561035e-01 -5.900871157646179199e-01 1.298107579350471497e-02 -1.731318086385726929e-01 -1.044756695628166199e-01
1.730000000000000000e+02 9.629996299743652344e+00 -8.209244608879089355e-01 -3.403819724917411804e-02 1.952852457761764526e-01 4.837411269545555115e-02 2.115978598594665527e-01
1.740000000000000000e+02 3.525779008865356445e+00 -7.660119533538818359e-01 -2.715370357036590576e-01 1.953073893673717976e-03 -8.087518811225891113e-02 -1.120328679680824280e-01
1.750000000000000000e+02 4.275351047515869141e+00 -7.659560441970825195e-01 -3.447823822498321533e-01 8.999492274597287178e-04 -1.031647250056266785e-01 -1.124844327569007874e-01
1.760000000000000000e+02 9.992226600646972656e+00 9.981760978698730469e-01 8.833196163177490234e-01 1.032719835638999939e-01 2.959774732589721680e-01 -6.527897119522094727e-01
1.770000000000000000e+02 1.187248134613037109e+01 9.316378831863403320e-01 5.699073791503906250e+00 1.020541414618492126e-01 1.740338325500488281e+00 -1.731742024421691895e+00
1.780000000000000000e+02 1.305282783508300781e+01 1.679708600044250488e+00 3.808386087417602539e+00 1.718269348144531250e+01 6.297323703765869141e+00 -3.826197862625122070e+00
1.790000000000000000e+02 1.361131668090820312e+01 1.680473446846008301e+00 5.182931900024414062e+00 1.744338417053222656e+01 6.787894725799560547e+00 1.540992259979248047e+00
1.800000000000000000e+02 1.400581741333007812e+01 3.486136794090270996e-01 1.139983844757080078e+01 1.383334445953369141e+01 7.569954872131347656e+00 -2.582749843597412109e+00
1.810000000000000000e+02 1.376508426666259766e+01 -8.175212889909744263e-02 7.067085266113281250e+00 1.616764640808105469e+01 6.970419406890869141e+00 -3.516837596893310547e+00
1.820000000000000000e+02 1.189670848846435547e+01 2.839326262474060059e-01 -4.683936238288879395e-01 4.729164391756057739e-02 -1.263305991888046265e-01 -3.735585836693644524e-03
1.830000000000000000e+02 1.230244445800781250e+01 -5.059905648231506348e-01 2.626369237899780273e+00 6.655851364135742188e+00 2.784666061401367188e+00 4.774940490722656250e+00
1.840000000000000000e+02 1.407355594635009766e+01 1.296704411506652832e+00 9.274973869323730469e+00 1.222714424133300781e+01 6.450635433197021484e+00 2.332813262939453125e+00
1.850000000000000000e+02 1.010128593444824219e+01 1.612608581781387329e-01 -9.184749722480773926e-01 -5.793878063559532166e-02 -2.929241359233856201e-01 -1.793100386857986450e-01
1.860000000000000000e+02 1.058430385589599609e+01 7.640980482101440430e-01 1.040528774261474609e+00 4.589565470814704895e-02 3.259273171424865723e-01 -5.379509925842285156e-01
1.870000000000000000e+02 1.104867362976074219e+01 3.685573935508728027e-01 -3.561446666717529297e-01 -1.211031675338745117e-01 -1.431743502616882324e-01 -1.715272217988967896e-01
1.880000000000000000e+02 1.164700603485107422e+01 1.004299283027648926e+00 4.863146305084228516e+00 2.581835389137268066e-01 1.536399006843566895e+00 -1.727338314056396484e+00
1.890000000000000000e+02 1.183155059814453125e+01 5.046353340148925781e-01 8.432399034500122070e-01 -2.120154500007629395e-01 1.893673241138458252e-01 5.124055780470371246e-03
1.900000000000000000e+02 1.338123893737792969e+01 1.573340892791748047e+00 5.092004299163818359e+00 1.791691780090332031e+01 6.902676582336425781e+00 -8.155813813209533691e-01
1.910000000000000000e+02 1.321987819671630859e+01 1.625613331794738770e+00 4.510524272918701172e+00 1.786822319030761719e+01 6.713624000549316406e+00 -2.343245506286621094e+00
1.920000000000000000e+02 1.259350585937500000e+01 1.747789621353149414e+00 4.948745250701904297e+00 1.065096187591552734e+01 4.679912090301513672e+00 -6.515134811401367188e+00
1.930000000000000000e+02 1.213421630859375000e+01 1.880142211914062500e+00 5.299911022186279297e+00 6.052000522613525391e+00 3.405573368072509766e+00 -6.121386051177978516e+00
1.940000000000000000e+02 1.171062755584716797e+01 2.301769256591796875e-01 -7.012525200843811035e-01 -1.704643666744232178e-02 -2.154896855354309082e-01 -1.309794839471578598e-02
1.950000000000000000e+02 1.297323513031005859e+01 -7.688700556755065918e-01 7.739002704620361328e-01 1.402091884613037109e+01 4.438445568084716797e+00 3.116919279098510742e+00
1.960000000000000000e+02 1.156579113006591797e+01 -1.077919840812683105e+00 1.968476653099060059e+00 3.237443208694458008e+00 1.561775922775268555e+00 2.801471948623657227e+00
1.970000000000000000e+02 1.118608474731445312e+01 -7.083963751792907715e-01 1.324049234390258789e+00 1.165097236633300781e+00 7.467439174652099609e-01 1.526061296463012695e+00
1.980000000000000000e+02 1.119511985778808594e+01 -1.164803981781005859e+00 1.770487427711486816e+00 2.083649396896362305e+00 1.156241059303283691e+00 2.157078742980957031e+00
1.990000000000000000e+02 1.052882957458496094e+01 -2.698529660701751709e-01 -7.818623781204223633e-01 7.762676477432250977e-02 -2.112706899642944336e-01 2.624053321778774261e-02
2.000000000000000000e+02 1.011159801483154297e+01 -1.062614098191261292e-01 -1.974202632904052734e+00 -2.331887334585189819e-01 -6.622174382209777832e-01 -1.802288740873336792e-01
2.010000000000000000e+02 1.024102401733398438e+01 -1.374601721763610840e+00 1.176344513893127441e+00 9.596956372261047363e-01 6.408120393753051758e-01 9.717219471931457520e-01
2.020000000000000000e+02 1.043375205993652344e+01 -1.335798621177673340e+00 1.144736051559448242e+00 8.316081166267395020e-01 5.929032564163208008e-01 1.101668953895568848e+00
2.030000000000000000e+02 1.040084457397460938e+01 -9.147462248802185059e-01 6.461772322654724121e-01 4.944796264171600342e-01 3.421970605850219727e-01 6.946205496788024902e-01
2.040000000000000000e+02 1.032948398590087891e+01 -2.895811498165130615e-01 -1.032803773880004883e+00 -4.589814320206642151e-02 -3.236105740070343018e-01 3.040180169045925140e-02
2.050000000000000000e+02 1.234269046783447266e+01 -9.137432575225830078e-01 1.731157064437866211e+00 7.671505928039550781e+00 2.820798873901367188e+00 4.251874446868896484e+00
2.060000000000000000e+02 1.062588214874267578e+01 -1.296517133712768555e+00 1.197399854660034180e+00 1.150805592536926270e+00 7.044616341590881348e-01 1.241821527481079102e+00
2.070000000000000000e+02 9.953351974487304688e+00 1.413514375686645508e+00 1.587414503097534180e+00 3.332889080047607422e-01 5.762110352516174316e-01 -1.347252011299133301e+00
2.080000000000000000e+02 1.080912876129150391e+01 6.799544692039489746e-01 1.027021646499633789e+00 -1.176775321364402771e-01 2.728032171726226807e-01 -4.027399122714996338e-01
2.090000000000000000e+02 1.035719585418701172e+01 1.460922360420227051e+00 2.213467359542846680e+00 3.098642528057098389e-01 7.569994926452636719e-01 -1.607955455780029297e+00
2.100000000000000000e+02 1.135138320922851562e+01 1.730011463165283203e+00 4.825341224670410156e+00 1.607564091682434082e+00 1.929871559143066406e+00 -3.855849981307983398e+00
2.110000000000000000e+02 1.176580715179443359e+01 1.585382461547851562e+00 5.985600471496582031e+00 2.232724428176879883e+00 2.465497493743896484e+00 -4.636034965515136719e+00
2.120000000000000000e+02 1.215496063232421875e+01 1.673282861709594727e+00 6.411601066589355469e+00 5.380153656005859375e+00 3.537526369094848633e+00 -6.440272808074951172e+00
2.130000000000000000e+02 1.241741085052490234e+01 1.596673965454101562e+00 6.453622341156005859e+00 8.289146423339843750e+00 4.422830581665039062e+00 -7.423065662384033203e+00
2.140000000000000000e+02 1.400698852539062500e+01 7.216596007347106934e-01 1.307194137573242188e+01 1.276606845855712891e+01 7.751402854919433594e+00 3.712280690670013428e-01
2.150000000000000000e+02 1.282659626007080078e+01 1.777497053146362305e+00 4.038538932800292969e+00 1.364666938781738281e+01 5.305562496185302734e+00 -5.463091373443603516e+00
2.160000000000000000e+02 1.308758831024169922e+01 1.943887352943420410e+00 3.134743452072143555e+00 1.435620689392089844e+01 5.247284889221191406e+00 -4.049198627471923828e+00
2.170000000000000000e+02 1.195572376251220703e+01 1.129022717475891113e+00 7.283143520355224609e+00 1.222851991653442383e+00 2.551798582077026367e+00 -3.491234779357910156e+00
2.180000000000000000e+02 1.145797157287597656e+01 4.045910537242889404e-01 -8.245873264968395233e-03 -8.390162140130996704e-02 -2.764424867928028107e-02 -1.050043106079101562e-01
2.190000000000000000e+02 1.337978172302246094e+01 1.711993575096130371e+00 4.943499565124511719e+00 1.550905799865722656e+01 6.135767459869384766e+00 -1.403825163841247559e+00
2.200000000000000000e+02 1.366188621520996094e+01 1.442951202392578125e+00 7.417273521423339844e+00 1.633656120300292969e+01 7.126150608062744141e+00 1.275894641876220703e+00
2.210000000000000000e+02 1.400039482116699219e+01 1.080882906913757324e+00 1.004356098175048828e+01 1.281024074554443359e+01 6.856140613555908203e+00 1.957732439041137695e+00
2.220000000000000000e+02 1.247597694396972656e+01 1.942124128341674805e+00 4.530113697052001953e+00 8.767063140869140625e+00 3.989153146743774414e+00 -6.231234550476074219e+00
2.230000000000000000e+02 1.254763507843017578e+01 -8.513674736022949219e-01 1.575137376785278320e+00 9.757216453552246094e+00 3.399706125259399414e+00 4.290674686431884766e+00
2.240000000000000000e+02 1.353816127777099609e+01 -5.749301314353942871e-01 1.645987391471862793e+00 1.668140411376953125e+01 5.498217582702636719e+00 -7.345228195190429688e-01
2.250000000000000000e+02 1.407604312896728516e+01 -7.355277985334396362e-02 6.778075218200683594e+00 1.415208244323730469e+01 6.279047489166259766e+00 -3.358730316162109375e+00
2.260000000000000000e+02 1.345136928558349609e+01 -3.642755150794982910e-01 2.196972608566284180e+00 1.912911224365234375e+01 6.397825717926025391e+00 -1.100743055343627930e+00
2.270000000000000000e+02 1.363391590118408203e+01 -2.162334620952606201e-01 3.976223468780517578e+00 1.743416595458984375e+01 6.423116683959960938e+00 -1.949783682823181152e+00
2.280000000000000000e+02 1.391119480133056641e+01 9.334679692983627319e-02 8.926298141479492188e+00 1.538957023620605469e+01 7.294760227203369141e+00 -3.844885110855102539e+00
2.290000000000000000e+02 1.401239585876464844e+01 5.589794516563415527e-01 1.116108608245849609e+01 1.276511955261230469e+01 7.177861690521240234e+00 -1.651264667510986328e+00
2.300000000000000000e+02 1.280812263488769531e+01 -5.090856552124023438e-01 1.543636083602905273e+00 1.361608219146728516e+01 4.547915458679199219e+00 4.461474895477294922e+00
2.310000000000000000e+02 1.301977539062500000e+01 -4.989825487136840820e-01 1.129795551300048828e+00 1.559233665466308594e+01 5.016639709472656250e+00 3.382698535919189453e+00
2.320000000000000000e+02 1.198382854461669922e+01 9.368035942316055298e-02 1.665450930595397949e+00 7.742953896522521973e-01 7.319239377975463867e-01 1.367004513740539551e+00
2.330000000000000000e+02 1.188452053070068359e+01 -7.776694297790527344e-01 2.331486701965332031e+00 3.859221220016479492e+00 1.857212424278259277e+00 3.305683851242065430e+00
2.340000000000000000e+02 1.224936866760253906e+01 -2.321660369634628296e-01 3.409984588623046875e+00 4.622747898101806641e+00 2.409819841384887695e+00 4.607699394226074219e+00
2.350000000000000000e+02 1.260505962371826172e+01 -4.534923732280731201e-01 2.166966199874877930e+00 1.050130653381347656e+01 3.800481796264648438e+00 5.436119556427001953e+00
2.360000000000000000e+02 1.322576236724853516e+01 -4.596574306488037109e-01 1.707743287086486816e+00 1.723160362243652344e+01 5.681804180145263672e+00 7.390728592872619629e-01
2.370000000000000000e+02 1.380374717712402344e+01 -2.994987666606903076e-01 4.574776172637939453e+00 1.550969886779785156e+01 6.025342464447021484e+00 -2.372337818145751953e+00
2.380000000000000000e+02 1.276240634918212891e+01 -7.978456020355224609e-01 1.066060423851013184e+00 1.169688415527343750e+01 3.828883409500122070e+00 4.239219188690185547e+00
2.390000000000000000e+02 1.112368679046630859e+01 5.767121538519859314e-02 -1.158523201942443848e+00 2.215050160884857178e-02 -3.409118056297302246e-01 -1.804270148277282715e-01
2.400000000000000000e+02 1.041284370422363281e+01 -1.128327250480651855e+00 9.946843981742858887e-01 7.090039849281311035e-01 5.111065506935119629e-01 9.808492064476013184e-01
2.410000000000000000e+02 1.078441429138183594e+01 -1.048349142074584961e+00 1.197486519813537598e+00 1.099029660224914551e+00 6.889548301696777344e-01 1.295929908752441406e+00
2.420000000000000000e+02 1.214721202850341797e+01 -9.573348760604858398e-01 1.978871226310729980e+00 6.194244384765625000e+00 2.451934576034545898e+00 3.814318418502807617e+00
2.430000000000000000e+02 1.195206356048583984e+01 -9.997224211692810059e-01 2.053662538528442383e+00 4.834989070892333984e+00 2.066595554351806641e+00 3.619695186614990234e+00
2.440000000000000000e+02 1.080106925964355469e+01 -6.282521486282348633e-01 5.995033383369445801e-01 4.353907704353332520e-01 3.104682266712188721e-01 7.291083931922912598e-01
2.450000000000000000e+02 1.008707046508789062e+01 3.871584832668304443e-01 -4.222611188888549805e-01 -4.333653673529624939e-02 -1.396792978048324585e-01 -2.022812664508819580e-01
2.460000000000000000e+02 1.126449680328369141e+01 3.903326392173767090e-01 -2.000459134578704834e-01 4.861581604927778244e-03 -5.855530127882957458e-02 -1.363351345062255859e-01
2.470000000000000000e+02 1.157445526123046875e+01 7.763987779617309570e-01 3.054736614227294922e+00 -1.439111232757568359e-01 8.732476234436035156e-01 -6.546260118484497070e-01
2.480000000000000000e+02 1.070029640197753906e+01 4.779521822929382324e-01 1.473127603530883789e-01 1.938121952116489410e-02 5.000819265842437744e-02 -2.366616129875183105e-01
2.490000000000000000e+02 1.049198246002197266e+01 1.084537982940673828e+00 1.769254446029663086e+00 1.547579914331436157e-01 5.772037506103515625e-01 -1.023753762245178223e+00
2.500000000000000000e+02 1.163290882110595703e+01 4.524122476577758789e-01 5.422101616859436035e-01 6.512770801782608032e-02 1.822013556957244873e-01 -1.848673075437545776e-01
2.510000000000000000e+02 1.091893863677978516e+01 1.707033812999725342e-02 -1.278201580047607422e+00 -7.394573092460632324e-02 -4.056441783905029297e-01 -1.735076159238815308e-01
2.520000000000000000e+02 1.132365703582763672e+01 1.134654879570007324e-01 -1.052034378051757812e+00 -1.317656319588422775e-02 -3.195632994174957275e-01 -1.216810569167137146e-01
2.530000000000000000e+02 1.143852233886718750e+01 -1.591763943433761597e-01 7.800434231758117676e-01 5.688526034355163574e-01 4.046688079833984375e-01 8.344286680221557617e-01
2.540000000000000000e+02 1.030904197692871094e+01 -6.942167878150939941e-02 -1.665423393249511719e+00 2.547554671764373779e-02 -4.919843673706054688e-01 -2.972320020198822021e-01
2.550000000000000000e+02 1.034438610076904297e+01 -4.984035193920135498e-01 -2.449060976505279541e-01 1.878615282475948334e-02 -6.783597916364669800e-02 2.134355902671813965e-01
2.560000000000000000e+02 1.015124130249023438e+01 1.446802139282226562e+00 1.736265897750854492e+00 2.968925535678863525e-01 6.099475622177124023e-01 -1.330557823181152344e+00
2.570000000000000000e+02 1.001897144317626953e+01 7.950571775436401367e-01 4.935006201267242432e-01 8.205793797969818115e-02 1.726675629615783691e-01 -4.731304943561553955e-01
2.580000000000000000e+02 1.099392604827880859e+01 1.607691526412963867e+00 3.729740142822265625e+00 8.016299009323120117e-01 1.359411001205444336e+00 -2.665102005004882812e+00
2.590000000000000000e+02 1.154356193542480469e+01 1.753296136856079102e+00 5.166182041168212891e+00 2.080080509185791016e+00 2.173878908157348633e+00 -4.383772850036621094e+00
2.600000000000000000e+02 1.174233341217041016e+01 1.793140769004821777e+00 5.441833019256591797e+00 3.058828115463256836e+00 2.550198316574096680e+00 -5.000185966491699219e+00
2.610000000000000000e+02 1.195664882659912109e+01 1.629674315452575684e+00 6.414231300354003906e+00 3.797394990921020508e+00 3.063487768173217773e+00 -5.589715480804443359e+00
2.620000000000000000e+02 1.223698711395263672e+01 1.472666025161743164e+00 7.456843376159667969e+00 5.494174957275390625e+00 3.885305404663085938e+00 -6.664585590362548828e+00
2.630000000000000000e+02 1.087927436828613281e+01 1.291454792022705078e+00 3.108939886093139648e+00 3.300550580024719238e-01 1.031698465347290039e+00 -1.755779743194580078e+00
2.640000000000000000e+02 1.118050003051757812e+01 1.678735613822937012e+00 4.330378532409667969e+00 9.360682368278503418e-01 1.579934000968933105e+00 -3.238850116729736328e+00
2.650000000000000000e+02 1.193920421600341797e+01 1.836229205131530762e+00 5.635747909545898438e+00 4.287922859191894531e+00 2.977101087570190430e+00 -5.897557735443115234e+00
2.660000000000000000e+02 1.025628089904785156e+01 6.861518621444702148e-01 4.562896192073822021e-01 8.482335135340690613e-03 1.394315958023071289e-01 -3.918558061122894287e-01
2.670000000000000000e+02 1.018129825592041016e+01 1.055883526802062988e+00 1.175618171691894531e+00 1.689209491014480591e-01 4.033617377281188965e-01 -8.217328786849975586e-01
2.680000000000000000e+02 1.031363487243652344e+01 1.947425007820129395e-01 -9.147261381149291992e-01 2.667010296136140823e-03 -2.736177444458007812e-01 -1.798266619443893433e-01
2.690000000000000000e+02 1.017742729187011719e+01 -7.417460680007934570e-01 1.144825443625450134e-01 1.661407947540283203e-01 8.418700098991394043e-02 3.440020084381103516e-01
2.700000000000000000e+02 1.015391540527343750e+01 -5.316546559333801270e-01 -2.870647311210632324e-01 -1.761464215815067291e-02 -9.140381217002868652e-02 8.006640523672103882e-02
2.710000000000000000e+02 1.096896934509277344e+01 -9.703627824783325195e-01 1.330504417419433594e+00 1.408730864524841309e+00 8.217706084251403809e-01 1.530107617378234863e+00
2.720000000000000000e+02 1.138100242614746094e+01 -1.123561739921569824e+00 1.937554836273193359e+00 2.602007150650024414e+00 1.361868619918823242e+00 2.434881687164306641e+00
2.730000000000000000e+02 1.210805511474609375e+01 -3.781873285770416260e-01 2.999259948730468750e+00 4.224389553070068359e+00 2.167094707489013672e+00 3.858859062194824219e+00
2.740000000000000000e+02 1.175339317321777344e+01 -2.634867727756500244e-01 1.972615599632263184e+00 1.579051494598388672e+00 1.065500140190124512e+00 2.057937145233154297e+00
2.750000000000000000e+02 1.100783729553222656e+01 -1.205925107002258301e+00 1.617494463920593262e+00 1.742193579673767090e+00 1.007906436920166016e+00 1.864755630493164062e+00
2.760000000000000000e+02 1.049497699737548828e+01 1.935551166534423828e-01 -9.040939807891845703e-01 -8.721627295017242432e-02 -2.973930835723876953e-01 -1.876480281352996826e-01
2.770000000000000000e+02 1.119694995880126953e+01 1.201252818107604980e+00 3.818709850311279297e+00 3.067046403884887695e-01 1.237624406814575195e+00 -1.846455454826354980e+00
2.780000000000000000e+02 1.074114322662353516e+01 -2.820203900337219238e-01 -3.658045232295989990e-01 1.323647052049636841e-01 -7.003194093704223633e-02 1.955120712518692017e-01
2.790000000000000000e+02 1.071242713928222656e+01 -1.022541522979736328e-02 -1.395878911018371582e+00 3.742659837007522583e-02 -4.075356721878051758e-01 -2.299240380525588989e-01
2.800000000000000000e+02 1.181439781188964844e+01 1.760974153876304626e-02 1.249979376792907715e+00 6.384782195091247559e-01 5.665373206138610840e-01 1.091988086700439453e+00
2.810000000000000000e+02 1.022007083892822266e+01 -1.163750648498535156e+00 7.676964998245239258e-01 5.910437107086181641e-01 4.076220691204071045e-01 7.183947563171386719e-01
2.820000000000000000e+02 1.207503414154052734e+01 1.316860079765319824e+00 7.732826232910156250e+00 2.762581348419189453e+00 3.148622274398803711e+00 -5.270617008209228516e+00
2.830000000000000000e+02 1.174495315551757812e+01 1.232088208198547363e+00 6.174788475036621094e+00 8.492299914360046387e-01 2.107205629348754883e+00 -3.197784423828125000e+00
2.840000000000000000e+02 1.210146522521972656e+01 -8.126365393400192261e-02 3.019860267639160156e+00 2.461358070373535156e+00 1.644365549087524414e+00 2.931324005126953125e+00
2.850000000000000000e+02 1.207957553863525391e+01 -7.231166958808898926e-01 2.416566848754882812e+00 5.228675365447998047e+00 2.293572664260864258e+00 4.009030818939208984e+00
2.860000000000000000e+02 1.180761241912841797e+01 -4.396465420722961426e-01 2.570950269699096680e+00 2.406903743743896484e+00 1.493356227874755859e+00 2.782626628875732422e+00
2.870000000000000000e+02 1.131490325927734375e+01 -8.975325822830200195e-01 1.798084378242492676e+00 1.937446236610412598e+00 1.120659112930297852e+00 2.122279405593872070e+00
2.880000000000000000e+02 1.132501220703125000e+01 8.485376834869384766e-01 2.783239841461181641e+00 -2.001290768384933472e-02 8.289681077003479004e-01 -8.512396216392517090e-01
2.890000000000000000e+02 1.156924629211425781e+01 -3.428203463554382324e-01 1.480048060417175293e+00 1.288319706916809082e+00 8.305103182792663574e-01 1.708507061004638672e+00
2.900000000000000000e+02 1.133100986480712891e+01 1.565963506698608398e+00 4.702201843261718750e+00 1.091537356376647949e+00 1.738121747970581055e+00 -3.285502433776855469e+00
2.910000000000000000e+02 1.031308650970458984e+01 5.125449299812316895e-01 3.098707646131515503e-02 -3.756898269057273865e-02 -1.974572427570819855e-03 -2.800720632076263428e-01
2.920000000000000000e+02 1.052382946014404297e+01 -4.687256515026092529e-01 -2.262992858886718750e-01 1.230509728193283081e-01 -3.097449429333209991e-02 2.704215347766876221e-01
2.930000000000000000e+02 1.097931194305419922e+01 -3.017815053462982178e-01 1.330132633447647095e-01 3.430334329605102539e-01 1.428140103816986084e-01 4.700790047645568848e-01
2.940000000000000000e+02 1.140849304199218750e+01 1.085507273674011230e+00 4.119577884674072266e+00 1.042088791728019714e-01 1.267136096954345703e+00 -1.680124640464782715e+00
2.950000000000000000e+02 1.058248138427734375e+01 -9.058757424354553223e-01 8.670743107795715332e-01 6.132242083549499512e-01 4.440895617008209229e-01 8.942722082138061523e-01
2.960000000000000000e+02 1.065195178985595703e+01 -7.539957761764526367e-01 6.470108032226562500e-01 4.948366284370422363e-01 3.425542414188385010e-01 7.562568783760070801e-01
2.970000000000000000e+02 1.051006412506103516e+01 5.614321827888488770e-01 3.553023338317871094e-01 -1.683747395873069763e-02 1.015394553542137146e-01 -3.086230754852294922e-01
2.980000000000000000e+02 1.108830738067626953e+01 8.689253926277160645e-01 2.402753114700317383e+00 -9.059225022792816162e-02 6.936482787132263184e-01 -8.212656974792480469e-01
2.990000000000000000e+02 1.060033798217773438e+01 -1.096189975738525391e+00 1.109523653984069824e+00 8.674749135971069336e-01 5.930995941162109375e-01 1.106918454170227051e+00
3.000000000000000000e+02 1.020005035400390625e+01 -9.522580504417419434e-01 5.751788616180419922e-01 2.293474823236465454e-01 2.413579076528549194e-01 5.450116991996765137e-01
3.010000000000000000e+02 1.081793689727783203e+01 -1.252822041511535645e+00 1.388006329536437988e+00 1.617739677429199219e+00 9.017238020896911621e-01 1.614580035209655762e+00
3.020000000000000000e+02 1.037549686431884766e+01 -7.027028203010559082e-01 3.124254643917083740e-01 2.046702355146408081e-01 1.551287025213241577e-01 4.369923174381256104e-01
3.030000000000000000e+02 1.013324642181396484e+01 -3.201720714569091797e-01 -9.751001596450805664e-01 -1.461990773677825928e-01 -3.363897800445556641e-01 2.448340319097042084e-02
3.040000000000000000e+02 1.004926967620849609e+01 5.915724635124206543e-01 1.128092259168624878e-01 4.258253145962953568e-03 3.512024134397506714e-02 -2.536837756633758545e-01
3.050000000000000000e+02 1.065989780426025391e+01 2.284037023782730103e-01 -7.780365943908691406e-01 1.531961746513843536e-02 -2.288150936365127563e-01 -2.091173082590103149e-01
3.060000000000000000e+02 1.021608352661132812e+01 8.696797490119934082e-01 9.144830703735351562e-01 5.844034254550933838e-02 2.918770313262939453e-01 -6.159518957138061523e-01
3.070000000000000000e+02 1.083839511871337891e+01 3.094982802867889404e-01 -5.136043429374694824e-01 -4.386739805340766907e-02 -1.672415137290954590e-01 -2.524306178092956543e-01
3.080000000000000000e+02 1.056522655487060547e+01 3.327764272689819336e-01 -5.871513485908508301e-01 -3.412165492773056030e-02 -1.863819062709808350e-01 -2.269413918256759644e-01
3.090000000000000000e+02 1.127955341339111328e+01 6.138688921928405762e-01 1.342429041862487793e+00 -1.737453341484069824e-01 3.506051003932952881e-01 -3.141630291938781738e-01
3.100000000000000000e+02 1.149727439880371094e+01 5.763803720474243164e-01 1.266458868980407715e+00 1.483834441751241684e-02 3.843891620635986328e-01 -1.774574220180511475e-01
3.110000000000000000e+02 1.182202243804931641e+01 7.213890552520751953e-01 3.456156730651855469e+00 1.405575033277273178e-02 1.041063785552978516e+00 -5.543722510337829590e-01
3.120000000000000000e+02 1.015168190002441406e+01 1.233714580535888672e+00 1.594573378562927246e+00 2.265931069850921631e-01 5.463499426841735840e-01 -1.166839003562927246e+00
3.130000000000000000e+02 9.970090866088867188e+00 1.202089786529541016e+00 1.160666942596435547e+00 2.950100600719451904e-01 4.367030858993530273e-01 -9.794067144393920898e-01
3.140000000000000000e+02 1.050877857208251953e+01 -3.665112331509590149e-02 -1.527644157409667969e+00 -9.842716902494430542e-02 -4.878213703632354736e-01 -2.446384578943252563e-01
3.150000000000000000e+02 1.115035724639892578e+01 -9.307219982147216797e-01 1.549897074699401855e+00 1.490626454353332520e+00 9.121570587158203125e-01 1.715565204620361328e+00
3.160000000000000000e+02 1.148088359832763672e+01 -8.261086940765380859e-01 2.002074241638183594e+00 2.323957920074462891e+00 1.297809600830078125e+00 2.430661439895629883e+00
3.170000000000000000e+02 1.175566768646240234e+01 -1.037814855575561523e+00 2.070535898208618164e+00 3.845050096511840820e+00 1.774675846099853516e+00 3.087151765823364258e+00
3.180000000000000000e+02 1.167793750762939453e+01 -7.952516674995422363e-01 2.080026626586914062e+00 2.980647563934326172e+00 1.518202304840087891e+00 2.866530179977416992e+00
3.190000000000000000e+02 1.242127799987792969e+01 -3.498370945453643799e-01 3.021073341369628906e+00 7.585522174835205078e+00 3.181978702545166016e+00 5.246697902679443359e+00
3.200000000000000000e+02 1.227639865875244141e+01 -6.871395111083984375e-01 2.444658279418945312e+00 6.714913845062255859e+00 2.747871637344360352e+00 4.334796905517578125e+00
3.210000000000000000e+02 1.318051815032958984e+01 -7.295976281166076660e-01 8.873876333236694336e-01 1.457305812835693359e+01 4.638133525848388672e+00 2.220299959182739258e+00
3.220000000000000000e+02 1.163204765319824219e+01 -5.901320651173591614e-02 9.520256519317626953e-01 5.039384961128234863e-01 4.367892444133758545e-01 9.854705333709716797e-01
3.230000000000000000e+02 1.151967048645019531e+01 1.736213266849517822e-01 -8.938617706298828125e-01 4.806151986122131348e-02 -2.537400722503662109e-01 -8.287859708070755005e-02
3.240000000000000000e+02 1.194186019897460938e+01 -1.870230883359909058e-01 2.472943067550659180e+00 1.922819375991821289e+00 1.318728804588317871e+00 2.566122770309448242e+00
3.250000000000000000e+02 1.155462265014648438e+01 1.541442155838012695e+00 5.423756599426269531e+00 1.533480167388916016e+00 2.087171077728271484e+00 -3.783806800842285156e+00
3.260000000000000000e+02 1.233989334106445312e+01 1.771199703216552734e+00 5.895389556884765625e+00 8.068292617797851562e+00 4.189104557037353516e+00 -6.824715137481689453e+00
3.270000000000000000e+02 1.231878566741943359e+01 1.929424166679382324e+00 4.658622264862060547e+00 7.515100955963134766e+00 3.652116775512695312e+00 -6.533369541168212891e+00
3.280000000000000000e+02 1.078367328643798828e+01 1.551806211471557617e+00 3.170650959014892578e+00 5.365374684333801270e-01 1.112156510353088379e+00 -2.290316820144653320e+00
3.290000000000000000e+02 1.057224273681640625e+01 1.492126226425170898e+00 2.660193204879760742e+00 4.322580993175506592e-01 9.277353882789611816e-01 -1.849750161170959473e+00
3.300000000000000000e+02 1.032502746582031250e+01 1.202307820320129395e+00 1.731058001518249512e+00 8.308528363704681396e-02 5.442429780960083008e-01 -1.072864174842834473e+00
3.310000000000000000e+02 1.368722248077392578e+01 1.775828838348388672e+00 4.715787410736083984e+00 1.464823246002197266e+01 5.809206008911132812e+00 1.096054434776306152e+00
3.320000000000000000e+02 1.351725006103515625e+01 1.587458491325378418e+00 5.508660793304443359e+00 1.626971244812011719e+01 6.533511638641357422e+00 8.073535561561584473e-01
3.330000000000000000e+02 1.246337032318115234e+01 -6.261100172996520996e-01 2.093146562576293945e+00 9.194705009460449219e+00 3.386355400085449219e+00 4.890152931213378906e+00
3.340000000000000000e+02 1.425141048431396484e+01 4.476515650749206543e-01 1.044618225097656250e+01 1.129330253601074219e+01 6.521845340728759766e+00 -1.203332543373107910e+00
3.350000000000000000e+02 1.380886077880859375e+01 1.288930058479309082e+00 9.433102607727050781e+00 1.497830486297607422e+01 7.323422431945800781e+00 2.284066915512084961e+00
3.360000000000000000e+02 1.383136844635009766e+01 1.565495252609252930e+00 5.689119338989257812e+00 1.345936489105224609e+01 5.744544982910156250e+00 8.060558438301086426e-01
3.370000000000000000e+02 1.343489456176757812e+01 1.845341444015502930e+00 4.740108489990234375e+00 1.288897132873535156e+01 5.288723945617675781e+00 -7.521353363990783691e-01
3.380000000000000000e+02 1.197252082824707031e+01 -5.193113088607788086e-01 2.554499864578247070e+00 3.667933225631713867e+00 1.866729855537414551e+00 3.517073154449462891e+00
3.390000000000000000e+02 1.407226467132568359e+01 8.862358927726745605e-01 1.090390491485595703e+01 1.238215923309326172e+01 6.985819339752197266e+00 6.988861560821533203e-01
3.400000000000000000e+02 1.417786026000976562e+01 7.250180244445800781e-01 1.095078086853027344e+01 1.161210441589355469e+01 6.768865585327148438e+00 -2.422874271869659424e-01
3.410000000000000000e+02 1.055511188507080078e+01 -6.317345499992370605e-01 3.928467035293579102e-01 3.134266138076782227e-01 2.118819952011108398e-01 5.439395904541015625e-01
3.420000000000000000e+02 1.135554504394531250e+01 -5.600633621215820312e-01 1.480643630027770996e+00 1.280679464340209961e+00 8.283969163894653320e-01 1.601135730743408203e+00
3.430000000000000000e+02 1.122348880767822266e+01 -2.622396349906921387e-01 5.293630361557006836e-01 4.167031943798065186e-01 2.838198840618133545e-01 7.292284965515136719e-01
3.440000000000000000e+02 1.041055583953857422e+01 3.918886482715606689e-01 -2.674287855625152588e-01 -8.613128215074539185e-03 -8.281257003545761108e-02 -1.631585955619812012e-01
3.450000000000000000e+02 1.039498138427734375e+01 8.526867032051086426e-01 1.027601599693298340e+00 -2.531242929399013519e-02 3.006867468357086182e-01 -6.020059585571289062e-01
3.460000000000000000e+02 1.319018554687500000e+01 1.754267334938049316e+00 4.057406425476074219e+00 1.689553833007812500e+01 6.285883426666259766e+00 -3.235277891159057617e+00
3.470000000000000000e+02 1.073691177368164062e+01 -8.756936788558959961e-01 1.081410765647888184e+00 7.924056649208068848e-01 5.621449351310729980e-01 1.096215963363647461e+00
3.480000000000000000e+02 1.068989658355712891e+01 -4.984492361545562744e-01 1.126218959689140320e-01 2.796920835971832275e-01 1.176941916346549988e-01 4.627021551132202148e-01
3.490000000000000000e+02 1.088923454284667969e+01 -7.811666131019592285e-01 1.166186451911926270e+00 9.119880795478820801e-01 6.234523653984069824e-01 1.219486951828002930e+00
3.500000000000000000e+02 1.098541927337646484e+01 -5.966963768005371094e-01 8.878548145294189453e-01 7.243181467056274414e-01 4.836518764495849609e-01 9.960246682167053223e-01
3.510000000000000000e+02 1.188368225097656250e+01 1.435891270637512207e+00 6.768818378448486328e+00 2.535276889801025391e+00 2.791228532791137695e+00 -4.751052856445312500e+00
3.520000000000000000e+02 1.151262664794921875e+01 1.314251422882080078e+00 5.345098972320556641e+00 8.917587995529174805e-01 1.871057271957397461e+00 -2.995661497116088867e+00
3.530000000000000000e+02 1.066292476654052734e+01 1.222349286079406738e+00 2.472505807876586914e+00 9.919577836990356445e-02 7.715104818344116211e-01 -1.370875597000122070e+00
3.540000000000000000e+02 1.087928962707519531e+01 9.166083335876464844e-01 2.031053543090820312e+00 2.715123444795608521e-02 6.174614429473876953e-01 -8.380887508392333984e-01
3.550000000000000000e+02 1.067809200286865234e+01 9.924224019050598145e-01 1.907463312149047852e+00 -3.964246436953544617e-02 5.603462457656860352e-01 -8.749404549598693848e-01
3.560000000000000000e+02 1.104596710205078125e+01 6.254889369010925293e-01 1.131230711936950684e+00 -6.217133998870849609e-02 3.207178115844726562e-01 -3.443179726600646973e-01
3.570000000000000000e+02 1.107899856567382812e+01 1.381245732307434082e+00 3.754179000854492188e+00 4.670898914337158203e-01 1.266380667686462402e+00 -2.307327747344970703e+00
3.580000000000000000e+02 1.128223609924316406e+01 1.382874727249145508e+00 4.440429210662841797e+00 5.541758537292480469e-01 1.498381495475769043e+00 -2.559045553207397461e+00
3.590000000000000000e+02 1.182841873168945312e+01 -5.960087180137634277e-01 2.214953899383544922e+00 3.442489385604858398e+00 1.697232961654663086e+00 3.053382396697998047e+00
3.600000000000000000e+02 1.101893424987792969e+01 1.076459169387817383e+00 2.931843042373657227e+00 4.680735990405082703e-02 8.935951590538024902e-01 -1.289904117584228516e+00
3.610000000000000000e+02 1.165340518951416016e+01 -4.644815921783447266e-01 2.289366960525512695e+00 1.705643653869628906e+00 1.198503136634826660e+00 2.269302845001220703e+00
3.620000000000000000e+02 1.165630245208740234e+01 -6.023554801940917969e-01 2.131368160247802734e+00 2.281908512115478516e+00 1.323982954025268555e+00 2.611996412277221680e+00
3.630000000000000000e+02 1.152808952331542969e+01 -4.969559311866760254e-01 1.811879634857177734e+00 1.431982159614562988e+00 9.731585383415222168e-01 1.883892536163330078e+00
3.640000000000000000e+02 5.876868438720703125e+01 6.275392137467861176e-03 -1.295265197753906250e+00 2.557496547698974609e+00 3.786694407463073730e-01 -1.447432398796081543e+00
3.650000000000000000e+02 5.963027954101562500e+01 -9.936441183090209961e-01 1.640561938285827637e+00 4.520963668823242188e+00 1.848457694053649902e+00 -2.678479194641113281e+00
3.660000000000000000e+02 6.100245285034179688e+01 -3.400368452072143555e+00 1.815380811691284180e+00 1.215182209014892578e+01 4.190161228179931641e+00 -2.417978048324584961e+00
3.670000000000000000e+02 6.433642578125000000e+01 6.466586112976074219e+00 -1.940383434295654297e+00 1.250030398368835449e+00 -2.071059197187423706e-01 -6.531676650047302246e-01
3.680000000000000000e+02 6.302614212036132812e+01 6.003367424011230469e+00 -1.123270869255065918e+00 3.463219881057739258e+00 7.019847035408020020e-01 -1.724080681800842285e+00
3.690000000000000000e+02 6.402072906494140625e+01 7.467955589294433594e+00 -1.264906644821166992e+00 8.005552887916564941e-01 -1.393054127693176270e-01 -3.416679799556732178e-01
3.700000000000000000e+02 6.329553985595703125e+01 8.337080001831054688e+00 6.691916584968566895e-01 1.276636838912963867e+00 5.837485790252685547e-01 -1.045454382896423340e+00
3.710000000000000000e+02 6.126216506958007812e+01 9.358711242675781250e+00 9.497940540313720703e-01 5.451656341552734375e+00 1.920435070991516113e+00 -1.662578463554382324e+00
3.720000000000000000e+02 6.078059387207031250e+01 1.195702552795410156e+01 7.819536328315734863e-01 9.887339591979980469e+00 3.200788021087646484e+00 -1.135861277580261230e+00
3.730000000000000000e+02 5.548136901855468750e+01 1.281325626373291016e+01 1.420172333717346191e+00 9.116797447204589844e+00 3.161091089248657227e+00 -6.017310619354248047e-01
3.740000000000000000e+02 5.495160293579101562e+01 1.162691879272460938e+01 5.740321874618530273e-01 1.041658973693847656e+01 3.297186613082885742e+00 -2.828429043292999268e-01
3.750000000000000000e+02 5.442087173461914062e+01 7.700377941131591797e+00 2.406047105789184570e+00 9.935297966003417969e+00 3.702403306961059570e+00 3.547344446182250977e+00
3.760000000000000000e+02 5.156309127807617188e+01 3.834780931472778320e+00 -2.835226655006408691e-01 2.578818798065185547e+00 6.885888576507568359e-01 2.174617052078247070e+00
3.770000000000000000e+02 5.559223937988281250e+01 3.666813969612121582e-01 -2.415282964706420898e+00 9.386069774627685547e-01 -4.430027902126312256e-01 6.399254202842712402e-01
3.780000000000000000e+02 6.774031066894531250e+01 -1.550986886024475098e+00 1.877288103103637695e+00 2.744730949401855469e+00 1.386605739593505859e+00 2.110691785812377930e+00
3.790000000000000000e+02 6.858330535888671875e+01 -4.461453258991241455e-01 5.676649808883666992e-01 1.791541814804077148e+00 7.077620625495910645e-01 1.925198793411254883e+00
3.800000000000000000e+02 7.244195556640625000e+01 -1.378891110420227051e+00 -1.531525731086730957e+00 1.274155378341674805e+00 -7.721108943223953247e-02 -2.156795710325241089e-01
3.810000000000000000e+02 7.425109863281250000e+01 -3.627715110778808594e+00 8.963308930397033691e-01 7.338897705078125000e+00 2.470568656921386719e+00 -2.665016651153564453e+00
3.820000000000000000e+02 7.675473022460937500e+01 -5.836167931556701660e-01 -6.845872998237609863e-01 8.376235961914062500e+00 2.307494401931762695e+00 -2.850160934031009674e-02
3.830000000000000000e+02 7.667506408691406250e+01 -4.021532058715820312e+00 4.084999859333038330e-02 9.822549819946289062e+00 2.959019899368286133e+00 3.283922374248504639e-01
3.840000000000000000e+02 7.677796936035156250e+01 -5.472291469573974609e+00 8.515567779541015625e-01 1.049147129058837891e+01 3.402908563613891602e+00 3.011184036731719971e-01
3.850000000000000000e+02 7.670012664794921875e+01 -6.872663974761962891e+00 1.099509596824645996e+00 1.094900226593017578e+01 3.614553689956665039e+00 -2.104239612817764282e-01
3.860000000000000000e+02 7.931427001953125000e+01 -5.537269115447998047e+00 1.389575153589248657e-01 7.750852584838867188e+00 2.366943120956420898e+00 3.039878606796264648e-01
3.870000000000000000e+02 7.936380767822265625e+01 -9.777960777282714844e+00 1.211738958954811096e-01 8.825613975524902344e+00 2.684036493301391602e+00 -4.976289570331573486e-01
3.880000000000000000e+02 7.821578216552734375e+01 -1.108923435211181641e+01 -3.630164563655853271e-01 9.553642272949218750e+00 2.757187843322753906e+00 -7.522988915443420410e-01
3.890000000000000000e+02 7.935291290283203125e+01 -1.250047206878662109e+01 -7.985106855630874634e-02 1.047405910491943359e+01 3.118262290954589844e+00 -1.309104263782501221e-01
3.900000000000000000e+02 7.448174285888671875e+01 -2.325052452087402344e+01 1.348967552185058594e+00 1.167820358276367188e+01 3.908151388168334961e+00 8.836981058120727539e-01
3.910000000000000000e+02 7.935611724853515625e+01 -3.326915359497070312e+01 3.946173191070556641e-02 7.524707794189453125e+00 2.269250869750976562e+00 1.022128621116280556e-03
3.920000000000000000e+02 7.790950775146484375e+01 -4.163216781616210938e+01 -2.259466610848903656e-02 7.707641601562500000e+00 2.305514097213745117e+00 -5.982227157801389694e-03
3.930000000000000000e+02 7.758229827880859375e+01 -3.669676589965820312e+01 5.435948446393013000e-02 7.323697566986083984e+00 2.213417053222656250e+00 -1.554487943649291992e-01
3.940000000000000000e+02 5.804294204711914062e+01 -1.089038181304931641e+01 -1.129524707794189453e+00 1.142274618148803711e+00 3.824949497357010841e-03 1.272598803043365479e-01
3.950000000000000000e+02 5.890400314331054688e+01 -1.003484535217285156e+01 -1.217101216316223145e+00 1.054946064949035645e+00 -4.864653572440147400e-02 8.477662205696105957e-01
3.960000000000000000e+02 5.689792633056640625e+01 -1.034750843048095703e+01 -1.432065129280090332e+00 5.671489238739013672e-01 -2.594748735427856445e-01 -7.611054182052612305e-01
3.970000000000000000e+02 5.441839599609375000e+01 -1.733258438110351562e+01 1.744592547416687012e+00 6.406699657440185547e+00 2.445387840270996094e+00 -2.623183012008666992e+00
3.980000000000000000e+02 5.424752426147460938e+01 -1.557047271728515625e+01 -1.519217014312744141e+00 5.392418384552001953e+00 1.161960363388061523e+00 -3.044651508331298828e+00
3.990000000000000000e+02 5.728523635864257812e+01 -1.844882774353027344e+01 1.425551176071166992e+00 6.910665988922119141e+00 2.500865221023559570e+00 -2.536018192768096924e-02
4.000000000000000000e+02 6.471879577636718750e+01 -2.018539237976074219e+01 2.411431670188903809e-01 9.864268302917480469e+00 3.031623601913452148e+00 1.537280622869729996e-02
4.010000000000000000e+02 6.446393585205078125e+01 -1.760682678222656250e+01 -1.165977194905281067e-01 6.613011837005615234e+00 1.948924303054809570e+00 3.276815116405487061e-01
4.020000000000000000e+02 6.307319641113281250e+01 -1.799171447753906250e+01 2.285542488098144531e-01 6.931844234466552734e+00 2.148119449615478516e+00 -4.250089824199676514e-01
4.030000000000000000e+02 6.688699340820312500e+01 -1.047601413726806641e+01 1.200174212455749512e+00 3.321136474609375000e+00 1.356393218040466309e+00 -1.776617884635925293e+00
4.040000000000000000e+02 6.416332244873046875e+01 -1.013411426544189453e+01 -2.145162224769592285e-02 7.778367042541503906e+00 2.327074527740478516e+00 -6.404327228665351868e-03
4.050000000000000000e+02 6.564667510986328125e+01 -1.096010112762451172e+01 -2.724585533142089844e-01 6.119452476501464844e+00 1.754098176956176758e+00 -1.166281104087829590e+00
4.060000000000000000e+02 6.126048278808593750e+01 -9.055616378784179688e+00 1.108253359794616699e+00 8.494060516357421875e+00 2.880694150924682617e+00 1.891223073005676270e+00
4.070000000000000000e+02 5.998762512207031250e+01 -9.455356597900390625e+00 9.963421821594238281e-01 5.097296714782714844e+00 1.828091740608215332e+00 2.394465923309326172e+00
4.080000000000000000e+02 6.164520645141601562e+01 -1.048883438110351562e+01 -1.067129492759704590e+00 7.275849342346191406e+00 1.862616062164306641e+00 1.204951643943786621e+00
4.090000000000000000e+02 6.123848342895507812e+01 -7.638858795166015625e+00 1.776931047439575195e+00 1.059170627593994141e+01 3.710591316223144531e+00 2.075069665908813477e+00
4.100000000000000000e+02 6.499901580810546875e+01 -3.308805704116821289e+00 1.543876886367797852e+00 7.945055484771728516e+00 2.846679687500000000e+00 1.511282086372375488e+00
4.110000000000000000e+02 6.335371780395507812e+01 -6.740183830261230469e+00 1.778747320175170898e+00 9.604101181030273438e+00 3.414854526519775391e+00 4.708876311779022217e-01
4.120000000000000000e+02 5.390803527832031250e+01 -1.108071041107177734e+01 2.320229411125183105e-01 3.713242530822753906e+00 1.183579683303833008e+00 -2.830166101455688477e+00
4.130000000000000000e+02 4.773612976074218750e+01 -6.591622352600097656e+00 1.549578785896301270e+00 8.108184814453125000e+00 2.897329092025756836e+00 -1.471255540847778320e+00
4.140000000000000000e+02 4.810671997070312500e+01 -5.202604293823242188e+00 7.208299636840820312e-01 6.369838714599609375e+00 2.127200603485107422e+00 -8.799092173576354980e-01
4.150000000000000000e+02 4.909428787231445312e+01 -5.273397922515869141e+00 1.235589742660522461e+00 7.382664203643798828e+00 2.585476160049438477e+00 -3.230780363082885742e-01
4.160000000000000000e+02 4.578930664062500000e+01 -5.465954780578613281e+00 1.364040732383728027e+00 2.474776268005371094e+00 1.151645183563232422e+00 -1.899009346961975098e+00
4.170000000000000000e+02 5.004014587402343750e+01 -7.431714534759521484e+00 2.074044227600097656e+00 7.685556411743164062e+00 2.927880287170410156e+00 5.409610867500305176e-01
4.180000000000000000e+02 4.837506866455078125e+01 -1.032306098937988281e+01 2.402033090591430664e+00 1.060045719146728516e+01 3.900747299194335938e+00 1.457439064979553223e+00
4.190000000000000000e+02 4.980866241455078125e+01 -1.330997848510742188e+01 -9.268330335617065430e-01 4.327702045440673828e+00 1.020260691642761230e+00 3.183867083862423897e-03
4.200000000000000000e+02 4.739052581787109375e+01 -1.117700386047363281e+01 2.618084907531738281e+00 1.155591106414794922e+01 4.252198696136474609e+00 3.324720144271850586e+00
4.210000000000000000e+02 4.538920974731445312e+01 -1.300920104980468750e+01 -2.060982704162597656e+00 2.712382793426513672e+00 1.954200118780136108e-01 1.351053714752197266e+00
4.220000000000000000e+02 4.279875183105468750e+01 -1.377194881439208984e+01 -7.025272369384765625e+00 -2.030017077922821045e-01 -2.168482303619384766e+00 -2.960331439971923828e-01
4.230000000000000000e+02 4.167625808715820312e+01 -1.420404148101806641e+01 -4.385700702667236328e+00 5.832249522209167480e-01 -1.140742659568786621e+00 -8.836258053779602051e-01
4.240000000000000000e+02 4.084059906005859375e+01 -1.328468418121337891e+01 -4.119780540466308594e+00 1.365072965621948242e+00 -8.264123201370239258e-01 -6.984834671020507812e-01
4.250000000000000000e+02 3.745430374145507812e+01 -1.188016033172607422e+01 2.904962003231048584e-02 5.716243267059326172e+00 1.723587870597839355e+00 -2.187045574188232422e+00
4.260000000000000000e+02 3.692493057250976562e+01 -7.925575733184814453e+00 1.268846392631530762e+00 9.158014297485351562e+00 3.128058195114135742e+00 -2.420127093791961670e-01
4.270000000000000000e+02 3.749120712280273438e+01 -6.028418540954589844e+00 1.753818750381469727e+00 7.099778175354003906e+00 2.656079053878784180e+00 2.124443054199218750e+00
4.280000000000000000e+02 3.657836151123046875e+01 -6.843296527862548828e+00 1.777335286140441895e+00 7.147711277008056641e+00 2.677514076232910156e+00 5.975385308265686035e-01
4.290000000000000000e+02 3.909204483032226562e+01 -4.208621025085449219e+00 5.675047039985656738e-01 2.189378261566162109e+00 8.270648717880249023e-01 1.855291247367858887e+00
4.300000000000000000e+02 3.722917175292968750e+01 1.163631796836853027e+00 2.730505913496017456e-02 2.657506227493286133e+00 8.054434061050415039e-01 2.499027252197265625e+00
4.310000000000000000e+02 4.222092437744140625e+01 -3.554452657699584961e+00 -3.358180999755859375e+00 -1.645143032073974609e-01 -1.056808590888977051e+00 2.849151194095611572e-01
4.320000000000000000e+02 4.095970916748046875e+01 -3.387196779251098633e+00 -2.465432405471801758e+00 5.024821162223815918e-01 -5.888851284980773926e-01 6.738817095756530762e-01
4.330000000000000000e+02 4.472154998779296875e+01 -4.648860454559326172e+00 1.809431314468383789e-01 1.405997991561889648e+00 4.760823249816894531e-01 -1.077792167663574219e+00
4.340000000000000000e+02 5.283229446411132812e+01 -2.258554458618164062e+00 1.071856260299682617e+00 8.626087188720703125e+00 2.909383058547973633e+00 2.287015676498413086e+00
4.350000000000000000e+02 5.072439575195312500e+01 4.883359432220458984e+00 -1.585927009582519531e+00 6.028959751129150391e-01 -2.949092984199523926e-01 7.411467432975769043e-01
4.360000000000000000e+02 4.972324752807617188e+01 5.682132720947265625e+00 -2.745501041412353516e+00 -1.067596897482872009e-01 -8.556782007217407227e-01 6.071752309799194336e-01
4.370000000000000000e+02 4.756943893432617188e+01 7.301460266113281250e+00 -2.423205077648162842e-01 7.807291746139526367e-01 1.615225970745086670e-01 -5.401187390089035034e-02
4.380000000000000000e+02 4.654877853393554688e+01 8.231701850891113281e+00 1.775880157947540283e-01 1.656265974044799805e+00 5.501561760902404785e-01 -9.157666563987731934e-01
4.390000000000000000e+02 4.116165161132812500e+01 5.148916721343994141e+00 2.042462587356567383e+00 7.626124858856201172e+00 2.900576353073120117e+00 4.436591863632202148e-01
4.400000000000000000e+02 4.426012802124023438e+01 9.869887351989746094e+00 5.210392475128173828e-01 7.973004341125488281e+00 2.548213005065917969e+00 -4.064757823944091797e-01
4.410000000000000000e+02 4.144448852539062500e+01 1.226893901824951172e+01 8.155874013900756836e-01 7.037401199340820312e+00 2.355896472930908203e+00 3.792567849159240723e-01
4.420000000000000000e+02 3.933882141113281250e+01 1.014569091796875000e+01 2.982825934886932373e-01 6.203114509582519531e+00 1.950419187545776367e+00 -8.076663017272949219e-01
4.430000000000000000e+02 3.926757431030273438e+01 8.780179023742675781e+00 5.738223791122436523e-01 8.219492912292480469e+00 2.637994766235351562e+00 -1.472154498100280762e+00
4.440000000000000000e+02 4.077291870117187500e+01 7.584526062011718750e+00 7.499205470085144043e-01 8.950945854187011719e+00 2.910259723663330078e+00 5.336976051330566406e-01
4.450000000000000000e+02 3.964739227294921875e+01 6.119741916656494141e+00 3.201854825019836426e-01 1.269806861877441406e+01 3.905476331710815430e+00 2.513462007045745850e-01
4.460000000000000000e+02 4.322751617431640625e+01 -6.939689517021179199e-01 1.826594769954681396e-01 2.759747266769409180e+00 8.827220201492309570e-01 -1.453751683235168457e+00
4.470000000000000000e+02 3.772679901123046875e+01 2.130311965942382812e+00 1.763623476028442383e+00 3.422405242919921875e+00 1.555808663368225098e+00 2.762851476669311523e+00
4.480000000000000000e+02 3.593252944946289062e+01 1.261510491371154785e+00 -1.913518309593200684e+00 1.267264008522033691e+00 -1.938762664794921875e-01 1.400429010391235352e+00
4.490000000000000000e+02 3.595044708251953125e+01 4.712342633865773678e-04 -1.126862764358520508e+00 1.665680289268493652e+00 1.616452485322952271e-01 2.945167064666748047e+00
4.500000000000000000e+02 3.450126266479492188e+01 1.174103856086730957e+00 -4.696158885955810547e+00 -4.786688387393951416e-01 -1.552448391914367676e+00 8.483296036720275879e-01
4.510000000000000000e+02 3.311589050292968750e+01 1.673560261726379395e+00 -3.532767057418823242e+00 1.758303120732307434e-02 -1.054555177688598633e+00 8.350031375885009766e-01
4.520000000000000000e+02 3.101334571838378906e+01 3.626745462417602539e+00 3.520052731037139893e-01 2.126307487487792969e+00 7.434938549995422363e-01 -1.488002896308898926e+00
4.530000000000000000e+02 3.167992019653320312e+01 -1.631953597068786621e+00 7.602890133857727051e-01 4.503677368164062500e+00 1.579189896583557129e+00 -1.108257770538330078e+00
4.540000000000000000e+02 2.934658813476562500e+01 -3.388942956924438477e+00 2.525428295135498047e+00 9.753224372863769531e+00 3.683595895767211914e+00 -3.834283113479614258e+00
4.550000000000000000e+02 3.119598579406738281e+01 -5.737320899963378906e+00 1.774296164512634277e+00 7.785130977630615234e+00 2.867828130722045898e+00 -1.127152681350708008e+00
4.560000000000000000e+02 2.968374824523925781e+01 -4.702949047088623047e+00 1.253125309944152832e+00 1.047959709167480469e+01 3.519816875457763672e+00 -2.399705648422241211e+00
4.570000000000000000e+02 3.056793022155761719e+01 -8.740993499755859375e+00 2.031625509262084961e+00 8.164452552795410156e+00 3.058823347091674805e+00 1.389933943748474121e+00
4.580000000000000000e+02 2.791198730468750000e+01 -1.164155769348144531e+01 1.131242632865905762e+00 3.833978652954101562e+00 1.489566445350646973e+00 2.373263359069824219e+00
4.590000000000000000e+02 2.882925033569335938e+01 -1.064112091064453125e+01 2.536148309707641602e+00 7.024961948394775391e+00 2.868333101272583008e+00 4.062005519866943359e+00
4.600000000000000000e+02 3.012740516662597656e+01 -1.468011474609375000e+01 -3.503781795501708984e+00 5.930714607238769531e+00 7.280799150466918945e-01 1.669777274131774902e+00
4.610000000000000000e+02 3.162109375000000000e+01 -1.576700592041015625e+01 -1.729727387428283691e+00 3.037102222442626953e+00 3.922124207019805908e-01 1.127526521682739258e+00
4.620000000000000000e+02 3.274432754516601562e+01 -1.518198680877685547e+01 -5.713315010070800781e+00 4.488850831985473633e-01 -1.579329013824462891e+00 -4.755687415599822998e-01
4.630000000000000000e+02 3.393679428100585938e+01 -1.481924438476562500e+01 -8.347015380859375000e+00 -6.659958958625793457e-01 -2.703903436660766602e+00 -6.012270599603652954e-02
4.640000000000000000e+02 3.751097488403320312e+01 -1.349887752532958984e+01 -2.748763799667358398e+00 5.320607185363769531e+00 7.715529799461364746e-01 -2.120675325393676758e+00
4.650000000000000000e+02 3.806959533691406250e+01 -1.078636837005615234e+01 3.292442083358764648e+00 7.611553668975830078e+00 3.271198749542236328e+00 -4.372127532958984375e+00
4.660000000000000000e+02 3.893979263305664062e+01 -1.164040565490722656e+01 2.251231431961059570e+00 4.587755203247070312e+00 2.051696062088012695e+00 -3.631100893020629883e+00
4.670000000000000000e+02 5.390571594238281250e+01 -4.219916462898254395e-01 3.375374972820281982e-01 5.087255477905273438e+00 1.627437949180603027e+00 2.064289093017578125e+00
4.680000000000000000e+02 5.298009872436523438e+01 6.186315536499023438e+00 1.851725697517395020e+00 4.405468940734863281e+00 1.877158403396606445e+00 2.793725490570068359e+00
4.690000000000000000e+02 4.608352279663085938e+01 -2.747112464904785156e+01 -9.707489013671875000e-01 2.943081617355346680e+00 5.916997790336608887e-01 -2.266684055328369141e+00
4.700000000000000000e+02 4.782024765014648438e+01 -2.930789375305175781e+01 3.291884660720825195e+00 4.596105098724365234e+00 2.366396903991699219e+00 -3.818224191665649414e+00
4.710000000000000000e+02 5.067268753051757812e+01 -2.680002975463867188e+01 -3.331819474697113037e-01 2.995609283447265625e+00 7.987281680107116699e-01 -1.981428384780883789e+00
4.720000000000000000e+02 5.070142745971679688e+01 -2.534127807617187500e+01 -3.851417303085327148e+00 8.176864385604858398e-01 -9.101192355155944824e-01 -9.116268157958984375e-01
4.730000000000000000e+02 5.074814605712890625e+01 -2.808546066284179688e+01 7.305072546005249023e-01 4.576734066009521484e+00 1.592172384262084961e+00 -9.061853885650634766e-01
4.740000000000000000e+02 4.940402603149414062e+01 -2.553662300109863281e+01 -1.826908230781555176e+00 3.052117586135864258e+00 3.675627708435058594e-01 -2.342560291290283203e+00
4.750000000000000000e+02 4.789208984375000000e+01 -2.330711936950683594e+01 2.644934177398681641e+00 4.800014972686767578e+00 2.233484745025634766e+00 -3.590806245803833008e+00
4.760000000000000000e+02 4.401512145996093750e+01 -2.243626403808593750e+01 3.246322154998779297e+00 4.431737422943115234e+00 2.303417921066284180e+00 2.831889390945434570e-01
4.770000000000000000e+02 4.668225860595703125e+01 -2.061147117614746094e+01 1.443094253540039062e+00 1.064813232421875000e+01 3.627368211746215820e+00 -2.979510724544525146e-01
4.780000000000000000e+02 4.016679000854492188e+01 -1.629989242553710938e+01 -7.746372222900390625e-01 4.449339866638183594e+00 1.102410793304443359e+00 -2.095232963562011719e+00
4.790000000000000000e+02 4.750510025024414062e+01 -1.665570831298828125e+01 -1.413928985595703125e+00 6.042780876159667969e+00 1.388655662536621094e+00 2.646823406219482422e+00
4.800000000000000000e+02 4.889268112182617188e+01 -1.662494468688964844e+01 -2.203652143478393555e+00 2.410490036010742188e+00 6.205135583877563477e-02 1.196715593338012695e+00
4.810000000000000000e+02 5.013705062866210938e+01 -1.627096366882324219e+01 -4.981456756591796875e+00 -7.994910702109336853e-03 -1.496835470199584961e+00 -6.269699931144714355e-01
4.820000000000000000e+02 4.928507995605468750e+01 -3.153884887695312500e+01 2.136416912078857422e+00 1.112394142150878906e+01 3.978107690811157227e+00 -3.268692255020141602e+00
4.830000000000000000e+02 5.033244705200195312e+01 -3.373388290405273438e+01 1.646860122680664062e+00 8.893718719482421875e+00 3.162173748016357422e+00 2.410301268100738525e-01
4.840000000000000000e+02 4.709493255615234375e+01 -3.731888198852539062e+01 -1.091932654380798340e+00 1.397410273551940918e+00 9.164328873157501221e-02 7.773107886314392090e-01
4.850000000000000000e+02 4.844681167602539062e+01 -3.632422637939453125e+01 1.419836133718490601e-01 3.952984333038330078e+00 1.228490352630615234e+00 1.529316067695617676e+00
4.860000000000000000e+02 5.643016815185546875e+01 -3.530108642578125000e+01 1.939405560493469238e+00 1.018801593780517578e+01 3.638226509094238281e+00 -2.780545949935913086e+00
4.870000000000000000e+02 5.762656402587890625e+01 -3.757491302490234375e+01 -7.206678986549377441e-01 3.697895288467407227e+00 8.931682109832763672e-01 -1.326051115989685059e+00
4.880000000000000000e+02 5.593286514282226562e+01 -3.331377792358398438e+01 1.177994728088378906e+00 1.224060249328613281e+01 4.025579452514648438e+00 -2.563879489898681641e-01
4.890000000000000000e+02 5.212194824218750000e+01 -3.011218261718750000e+01 2.610021829605102539e+00 5.749259948730468750e+00 2.507784605026245117e+00 -1.645744740962982178e-01
4.900000000000000000e+02 5.659853363037109375e+01 -3.051016616821289062e+01 1.920178890228271484e+00 1.004219913482666016e+01 3.588713407516479492e+00 3.393058776855468750e+00
4.910000000000000000e+02 5.732653427124023438e+01 -2.923649215698242188e+01 1.604046821594238281e+00 7.167773246765136719e+00 2.631546020507812500e+00 3.346595287322998047e+00
4.920000000000000000e+02 5.551406860351562500e+01 -2.651464843750000000e+01 -1.520889997482299805e+00 7.487535953521728516e+00 1.789993762969970703e+00 2.443279027938842773e+00
4.930000000000000000e+02 5.664165115356445312e+01 -2.222372055053710938e+01 2.345628499984741211e+00 7.785207271575927734e+00 3.039250850677490234e+00 1.130105018615722656e+00
4.940000000000000000e+02 5.980433654785156250e+01 -2.602695655822753906e+01 -2.109330654144287109e+00 1.761692166328430176e+00 -1.042915210127830505e-01 7.819814682006835938e-01
4.950000000000000000e+02 6.514836120605468750e+01 -2.311206054687500000e+01 3.119045019149780273e+00 1.145269107818603516e+01 4.371520996093750000e+00 -4.668780326843261719e+00
4.960000000000000000e+02 6.578650665283203125e+01 -2.657712554931640625e+01 -1.414043784141540527e+00 7.740276813507080078e+00 1.897869825363159180e+00 -2.788539409637451172e+00
4.970000000000000000e+02 6.353569030761718750e+01 -2.760695266723632812e+01 8.718641400337219238e-01 4.196897029876708984e+00 1.520628333091735840e+00 -2.543740749359130859e+00
4.980000000000000000e+02 6.573430633544921875e+01 -2.904789733886718750e+01 2.564780473709106445e+00 9.609126091003417969e+00 3.652171850204467773e+00 -3.706067085266113281e+00
4.990000000000000000e+02 6.569316101074218750e+01 -3.040362739562988281e+01 2.748386144638061523e+00 1.248976802825927734e+01 4.571446418762207031e+00 -3.964083194732666016e+00
5.000000000000000000e+02 6.870421600341796875e+01 -2.947988700866699219e+01 2.049121618270874023e+00 3.973113536834716797e+00 1.806670546531677246e+00 -1.293190240859985352e+00
5.010000000000000000e+02 6.583905792236328125e+01 -3.306828689575195312e+01 1.804698556661605835e-01 9.539115905761718750e+00 2.915875911712646484e+00 -4.995423853397369385e-01
5.020000000000000000e+02 6.593152618408203125e+01 -3.435756683349609375e+01 4.050663411617279053e-01 8.242713928222656250e+00 2.594334125518798828e+00 1.730433702468872070e-01
5.030000000000000000e+02 6.530066680908203125e+01 -3.641915512084960938e+01 -9.063827246427536011e-02 4.542969703674316406e+00 1.335699439048767090e+00 7.580191493034362793e-01
5.040000000000000000e+02 6.422476959228515625e+01 -3.737131500244140625e+01 -1.164037346839904785e+00 1.382419824600219727e+00 6.551475822925567627e-02 2.045021206140518188e-01
5.050000000000000000e+02 6.895237731933593750e+01 -3.410820007324218750e+01 1.183904886245727539e+00 5.995744705200195312e+00 2.153894901275634766e+00 -1.463678240776062012e+00
5.060000000000000000e+02 6.542401123046875000e+01 -3.858463668823242188e+01 -1.802658438682556152e+00 3.993776321411132812e+00 6.573353409767150879e-01 4.328041374683380127e-01
5.070000000000000000e+02 6.581948852539062500e+01 -3.172693252563476562e+01 8.107562065124511719e-01 1.181934547424316406e+01 3.789030551910400391e+00 -1.676181077957153320e+00
5.080000000000000000e+02 6.915802764892578125e+01 -2.801991462707519531e+01 1.200665950775146484e+00 1.843113183975219727e+00 9.131337404251098633e-01 -7.302121520042419434e-01
5.090000000000000000e+02 6.686940002441406250e+01 -2.655950164794921875e+01 -1.976640343666076660e+00 5.985679149627685547e+00 1.202711582183837891e+00 -2.572789907455444336e+00
5.100000000000000000e+02 6.717002868652343750e+01 -2.542523574829101562e+01 2.484935671091079712e-01 4.392037868499755859e+00 1.392159461975097656e+00 -2.259408950805664062e+00
5.110000000000000000e+02 4.583927917480468750e+01 -3.780912780761718750e+01 -2.347987174987792969e+00 1.146739959716796875e+00 -3.603742122650146484e-01 -3.605245351791381836e-01
5.120000000000000000e+02 4.344942474365234375e+01 -3.827235031127929688e+01 -3.115414381027221680e+00 -4.455226659774780273e-01 -1.068281054496765137e+00 2.728536725044250488e-01
5.130000000000000000e+02 4.128886413574218750e+01 -3.733153533935546875e+01 -1.646838426589965820e+00 8.859294652938842773e-01 -2.282727062702178955e-01 1.607464849948883057e-01
5.140000000000000000e+02 3.780522918701171875e+01 -3.601580047607421875e+01 -6.326480507850646973e-01 5.191133975982666016e+00 1.367545843124389648e+00 1.140533089637756348e+00
5.150000000000000000e+02 3.903320693969726562e+01 -3.402505111694335938e+01 9.145843982696533203e-01 8.706330299377441406e+00 2.886274337768554688e+00 -3.317715227603912354e-01
5.160000000000000000e+02 3.842489624023437500e+01 -3.142938232421875000e+01 2.302678108215332031e+00 8.238023757934570312e+00 3.162210464477539062e+00 2.747628211975097656e+00
5.170000000000000000e+02 3.637740707397460938e+01 -3.045851898193359375e+01 9.750379920005798340e-01 2.450019359588623047e+00 1.027517199516296387e+00 1.472205519676208496e+00
5.180000000000000000e+02 3.690076065063476562e+01 -3.190695762634277344e+01 2.178557395935058594e+00 3.767141342163085938e+00 1.783709645271301270e+00 1.203963279724121094e+00
5.190000000000000000e+02 3.018340301513671875e+01 -2.526007270812988281e+01 1.158468961715698242e+00 4.601109027862548828e+00 1.727873444557189941e+00 -2.427559375762939453e+00
5.200000000000000000e+02 2.938709640502929688e+01 -2.427277755737304688e+01 1.686047554016113281e+00 9.319880485534667969e+00 3.301778554916381836e+00 -2.801101207733154297e+00
5.210000000000000000e+02 2.855643844604492188e+01 -2.522641944885253906e+01 -3.697175681591033936e-01 7.455611705780029297e+00 2.125768184661865234e+00 -2.876502275466918945e-01
5.220000000000000000e+02 2.241518211364746094e+01 -2.808983039855957031e+01 -7.900643348693847656e-01 1.290043354034423828e+00 1.499937027692794800e-01 -1.697797328233718872e-01
5.230000000000000000e+02 2.304286575317382812e+01 -2.710651588439941406e+01 -1.347658157348632812e+00 3.100405931472778320e+00 5.258243083953857422e-01 -6.273087859153747559e-01
5.240000000000000000e+02 2.340229988098144531e+01 -2.904627609252929688e+01 2.633817493915557861e-01 3.411381721496582031e+00 1.102429032325744629e+00 -1.381315827369689941e+00
5.250000000000000000e+02 2.506059837341308594e+01 -2.887498855590820312e+01 -1.055675864219665527e+00 6.295843124389648438e+00 1.572050213813781738e+00 -3.265865519642829895e-02
5.260000000000000000e+02 2.839746856689453125e+01 -3.049801635742187500e+01 -1.785028427839279175e-01 5.556347846984863281e+00 1.613353490829467773e+00 -5.365234613418579102e-01
5.270000000000000000e+02 2.505621528625488281e+01 -3.347345733642578125e+01 5.489899590611457825e-02 8.847558021545410156e+00 2.670737266540527344e+00 -4.218817949295043945e-01
5.280000000000000000e+02 2.353099632263183594e+01 -3.894332504272460938e+01 -8.799579739570617676e-01 1.964108109474182129e+00 3.252450525760650635e-01 5.439067482948303223e-01
5.290000000000000000e+02 2.451418876647949219e+01 -3.770839309692382812e+01 3.596251606941223145e-01 5.383931636810302734e+00 1.723067045211791992e+00 5.810686349868774414e-01
5.300000000000000000e+02 2.215682983398437500e+01 -3.978411865234375000e+01 -1.953515052795410156e+00 7.701132893562316895e-01 -3.550205230712890625e-01 -1.193263083696365356e-01
5.310000000000000000e+02 2.254479217529296875e+01 -4.150970458984375000e+01 -2.489911794662475586e+00 1.245856642723083496e+00 -3.732165396213531494e-01 3.013504147529602051e-01
5.320000000000000000e+02 1.728542137145996094e+01 -4.034037780761718750e+01 -2.900965452194213867e+00 -3.306640088558197021e-01 -9.694888591766357422e-01 1.222233057022094727e+00
5.330000000000000000e+02 1.522891998291015625e+01 -3.987157821655273438e+01 -2.278488397598266602e+00 2.265911996364593506e-01 -6.155691742897033691e-01 4.444591999053955078e-01
5.340000000000000000e+02 1.627244377136230469e+01 -3.973417282104492188e+01 -3.210668087005615234e+00 -1.355311632156372070e+00 -1.369793891906738281e+00 1.143132686614990234e+00
5.350000000000000000e+02 1.533371067047119141e+01 -3.901502227783203125e+01 -7.587288618087768555e-01 -6.989088654518127441e-02 -2.485859245061874390e-01 1.132679581642150879e+00
5.360000000000000000e+02 1.318973827362060547e+01 -3.738734817504882812e+01 -1.304117292165756226e-01 2.652462720870971680e+00 7.566152811050415039e-01 5.306949466466903687e-02
5.370000000000000000e+02 1.206765556335449219e+01 -3.666129302978515625e+01 -5.707803182303905487e-03 3.876837253570556641e+00 1.161338806152343750e+00 4.404510855674743652e-01
5.380000000000000000e+02 4.219515323638916016e+00 -2.411888122558593750e+01 -1.609707951545715332e+00 3.423470973968505859e+00 5.441288948059082031e-01 -2.822267822921276093e-02
5.390000000000000000e+02 5.884952545166015625e-01 -3.034220314025878906e+01 1.092448178678750992e-02 3.590145826339721680e+00 1.080321073532104492e+00 -1.319661885499954224e-01
5.400000000000000000e+02 6.207119822502136230e-01 -3.173232269287109375e+01 3.722063452005386353e-02 3.369156837463378906e+00 1.021913290023803711e+00 -6.959378719329833984e-02
5.410000000000000000e+02 9.098696708679199219e-01 -3.726587295532226562e+01 4.448002576828002930e-02 3.576568603515625000e+00 1.086314558982849121e+00 1.166178956627845764e-01
5.420000000000000000e+02 7.502279758453369141e+00 -3.637015914916992188e+01 1.520475596189498901e-01 3.184256792068481445e+00 1.000891327857971191e+00 1.035550951957702637e+00
5.430000000000000000e+02 3.957834625244140625e+01 -3.070358657836914062e+01 2.071843385696411133e+00 1.124370288848876953e+01 3.994663953781127930e+00 3.883939743041992188e+00
5.440000000000000000e+02 3.744561386108398438e+01 -2.862161445617675781e+01 -2.140507459640502930e+00 3.451462030410766602e+00 3.932864367961883545e-01 1.042210221290588379e+00
5.450000000000000000e+02 3.354407501220703125e+01 -2.907041168212890625e+01 -3.184086799621582031e+00 1.093452423810958862e-01 -9.224224686622619629e-01 -4.074123203754425049e-01
5.460000000000000000e+02 3.287636566162109375e+01 -2.806866645812988281e+01 -2.591886997222900391e+00 2.313995957374572754e-01 -7.081462144851684570e-01 4.132751524448394775e-01
5.470000000000000000e+02 3.108285331726074219e+01 -2.621367835998535156e+01 2.319491356611251831e-01 2.266549587249755859e+00 7.495496273040771484e-01 -1.050014257431030273e+00
5.480000000000000000e+02 3.781949234008789062e+01 -2.739673423767089844e+01 -1.499402165412902832e+00 2.933247804641723633e+00 4.301536679267883301e-01 1.303085207939147949e+00
5.490000000000000000e+02 4.027188110351562500e+01 -2.972708702087402344e+01 1.612451314926147461e+00 8.029425621032714844e+00 2.892563104629516602e+00 3.769556283950805664e+00
5.500000000000000000e+02 4.375894546508789062e+01 -2.749346923828125000e+01 -5.717352867126464844e+00 -1.769144237041473389e-01 -1.768280148506164551e+00 -2.376352995634078979e-01
5.510000000000000000e+02 4.881797409057617188e+01 -2.432854843139648438e+01 2.295015901327133179e-01 3.175253152847290039e+00 1.021426439285278320e+00 -2.210720062255859375e+00
5.520000000000000000e+02 4.285375595092773438e+01 -2.491949462890625000e+01 2.040524482727050781e+00 3.341832637786865234e+00 1.614707112312316895e+00 6.701741218566894531e-01
5.530000000000000000e+02 4.599691390991210938e+01 -1.765336418151855469e+01 2.190521061420440674e-01 6.251911163330078125e+00 1.941288948059082031e+00 1.213257670402526855e+00
5.540000000000000000e+02 3.783090591430664062e+01 -1.702215003967285156e+01 1.101998925209045410e+00 5.363258361816406250e+00 1.939577221870422363e+00 -3.041686773300170898e+00
5.550000000000000000e+02 3.761433410644531250e+01 -1.510796070098876953e+01 -3.620420694351196289e+00 5.363552093505859375e+00 5.229394435882568359e-01 -1.919292092323303223e+00
5.560000000000000000e+02 3.055802345275878906e+01 1.402767944335937500e+01 -1.277508735656738281e+00 5.930377483367919922e+00 1.395860552787780762e+00 5.217740058898925781e+00
5.570000000000000000e+02 3.019484519958496094e+01 1.555505657196044922e+01 1.071375459432601929e-01 3.621099233627319336e+00 1.118471026420593262e+00 3.344723224639892578e+00
5.580000000000000000e+02 2.949170684814453125e+01 1.472295951843261719e+01 -2.237959861755371094e+00 2.643451690673828125e+00 1.216475591063499451e-01 2.990793943405151367e+00
5.590000000000000000e+02 2.722019767761230469e+01 1.520287418365478516e+01 -7.796821594238281250e+00 -8.896295428276062012e-01 -2.605935335159301758e+00 1.416500806808471680e+00
5.600000000000000000e+02 2.454897689819335938e+01 1.649915122985839844e+01 -2.977576971054077148e+00 -8.738978952169418335e-02 -9.194900393486022949e-01 1.455626130104064941e+00
5.610000000000000000e+02 1.871425247192382812e+01 1.725464820861816406e+01 -2.609154939651489258e+00 1.294803977012634277e+00 -3.943052887916564941e-01 9.013241529464721680e-01
5.620000000000000000e+02 2.079498672485351562e+01 2.001868057250976562e+01 1.136878490447998047e+00 8.524015426635742188e+00 2.898268222808837891e+00 4.032666981220245361e-01
5.630000000000000000e+02 2.214384651184082031e+01 2.169385147094726562e+01 9.991312026977539062e-01 1.587872695922851562e+01 5.063357353210449219e+00 4.511246979236602783e-01
5.640000000000000000e+02 2.449446487426757812e+01 2.825347518920898438e+01 -1.809336394071578979e-01 2.020545244216918945e+00 5.518835186958312988e-01 4.473851323127746582e-01
5.650000000000000000e+02 2.334983634948730469e+01 2.659196472167968750e+01 -6.407787650823593140e-02 5.599661827087402344e+00 1.660675287246704102e+00 1.046060085296630859e+00
5.660000000000000000e+02 1.990198707580566406e+01 2.917971611022949219e+01 4.305780827999114990e-01 1.257787704467773438e+01 3.902536630630493164e+00 -8.234414458274841309e-01
5.670000000000000000e+02 2.186998748779296875e+01 3.724496459960937500e+01 -9.630542993545532227e-01 4.160915374755859375e+00 9.593582749366760254e-01 5.500674620270729065e-02
5.680000000000000000e+02 1.635374259948730469e+01 3.575633621215820312e+01 -5.961725711822509766e-01 1.850956320762634277e+00 3.764351308345794678e-01 -1.211459875106811523e+00
5.690000000000000000e+02 1.222731399536132812e+01 3.496486282348632812e+01 -1.527994036674499512e+00 2.527272999286651611e-01 -3.825800418853759766e-01 1.940774023532867432e-01
5.700000000000000000e+02 1.632003593444824219e+01 3.363276290893554688e+01 -3.060814552009105682e-02 5.485598444938659668e-01 1.553855091333389282e-01 -2.760655879974365234e-01
5.710000000000000000e+02 1.737360000610351562e+01 3.303451919555664062e+01 7.859891057014465332e-01 1.585535764694213867e+00 7.114574909210205078e-01 -1.250406146049499512e+00
5.720000000000000000e+02 1.995763206481933594e+01 2.788369560241699219e+01 3.512072563171386719e-01 1.126222419738769531e+01 3.484029293060302734e+00 -1.916128955781459808e-02
5.730000000000000000e+02 2.100299453735351562e+01 2.580281639099121094e+01 -6.384296417236328125e-01 8.929090499877929688e+00 2.487198352813720703e+00 -1.064575433731079102e+00
5.740000000000000000e+02 2.014232063293457031e+01 2.494138717651367188e+01 -1.276393771171569824e+00 7.982093811035156250e+00 2.011709928512573242e+00 -9.690422415733337402e-01
5.750000000000000000e+02 2.082390022277832031e+01 2.400514793395996094e+01 -9.474465996026992798e-02 9.024736404418945312e+00 2.678997516632080078e+00 -7.256715297698974609e-01
5.760000000000000000e+02 1.746450805664062500e+01 2.406392478942871094e+01 -1.177336215972900391e+00 -3.590393960475921631e-01 -4.609126746654510498e-01 -8.250069022178649902e-01
5.770000000000000000e+02 1.780810737609863281e+01 1.906023406982421875e+01 -8.759166598320007324e-01 2.848501801490783691e-01 -1.773199588060379028e-01 4.169894754886627197e-01
5.780000000000000000e+02 1.484871101379394531e+01 1.854359054565429688e+01 -2.502143144607543945e+00 -3.070684373378753662e-01 -8.427634239196777344e-01 5.607651472091674805e-01
5.790000000000000000e+02 1.641579246520996094e+01 1.930741691589355469e+01 -1.226385831832885742e+00 -1.241949915885925293e+00 -7.405006885528564453e-01 1.300017714500427246e+00
5.800000000000000000e+02 1.659013748168945312e+01 2.163512611389160156e+01 8.044774532318115234e-01 -4.057150483131408691e-01 1.196287274360656738e-01 1.488077640533447266e-01
5.810000000000000000e+02 1.989694404602050781e+01 1.705303192138671875e+01 -2.479448556900024414e+00 6.497522354125976562e+00 1.205422163009643555e+00 3.387832939624786377e-01
5.820000000000000000e+02 2.251391410827636719e+01 1.756801033020019531e+01 -1.729020357131958008e+00 8.489323616027832031e+00 2.028090953826904297e+00 -1.771807223558425903e-01
5.830000000000000000e+02 2.473009300231933594e+01 1.473764705657958984e+01 -2.288009881973266602e+00 2.182010889053344727e+00 -3.179968893527984619e-02 -8.338969945907592773e-01
5.840000000000000000e+02 2.048461914062500000e+01 8.475397109985351562e+00 2.421287536621093750e+00 7.037816524505615234e+00 2.837731122970581055e+00 2.039714813232421875e+00
5.850000000000000000e+02 1.916847991943359375e+01 8.229865074157714844e+00 2.916410446166992188e+00 5.823347091674804688e+00 2.621927261352539062e+00 3.431508302688598633e+00
5.860000000000000000e+02 1.812292098999023438e+01 7.575015068054199219e+00 2.041125297546386719e+00 2.350728273391723633e+00 1.317556023597717285e+00 2.333716630935668945e+00
5.870000000000000000e+02 1.604214668273925781e+01 4.279867410659790039e-01 5.538731575012207031e+00 6.178026676177978516e+00 3.515027523040771484e+00 9.954469203948974609e-01
5.880000000000000000e+02 1.481623935699462891e+01 7.121611833572387695e-01 8.654172897338867188e+00 9.007684707641601562e+00 5.298557281494140625e+00 1.524133384227752686e-01
5.890000000000000000e+02 1.515184497833251953e+01 2.468322962522506714e-02 6.331163883209228516e+00 8.922781944274902344e+00 4.576183795928955078e+00 -1.065575838088989258e+00
5.900000000000000000e+02 1.582981586456298828e+01 2.177793502807617188e+00 4.185316085815429688e+00 5.573042869567871094e+00 2.927507638931274414e+00 3.199141263961791992e+00
5.910000000000000000e+02 1.990466690063476562e+01 -5.195504426956176758e-01 8.794034719467163086e-01 7.352713942527770996e-01 4.844024479389190674e-01 9.343561530113220215e-01
5.920000000000000000e+02 2.298322677612304688e+01 2.940233349800109863e-01 -2.122252702713012695e+00 2.117506861686706543e-01 -5.731505751609802246e-01 8.205561339855194092e-02
5.930000000000000000e+02 2.414857482910156250e+01 4.764002859592437744e-01 -2.718476057052612305e+00 -6.259969621896743774e-02 -8.343227505683898926e-01 2.103068307042121887e-02
5.940000000000000000e+02 2.747054672241210938e+01 2.479283094406127930e+00 -9.750965833663940430e-01 5.010787487030029297e+00 1.210707187652587891e+00 -1.432554960250854492e+00
5.950000000000000000e+02 2.897135734558105469e+01 4.921695709228515625e+00 1.623669981956481934e+00 7.490624427795410156e+00 2.734288454055786133e+00 -1.780926823616027832e+00
5.960000000000000000e+02 3.282196044921875000e+01 1.240115451812744141e+01 -2.056500911712646484e+00 1.270003437995910645e+00 -2.359492778778076172e-01 1.518738389015197754e+00
5.970000000000000000e+02 3.708300018310546875e+01 1.152490615844726562e+01 -6.620977520942687988e-01 9.975336790084838867e-01 1.006307750940322876e-01 -4.368871450424194336e-01
5.980000000000000000e+02 3.593743896484375000e+01 1.226492214202880859e+01 -2.635292768478393555e+00 1.989109516143798828e-01 -7.309145331382751465e-01 -1.168168857693672180e-01
5.990000000000000000e+02 2.706944465637207031e+01 8.551183938980102539e-01 -1.369387388229370117e+00 4.381246089935302734e+00 9.035575985908508301e-01 -2.334717273712158203e+00
6.000000000000000000e+02 2.898931503295898438e+01 7.595790863037109375e+00 1.170713067054748535e+00 9.877671241760253906e+00 3.314515113830566406e+00 8.713766932487487793e-01
6.010000000000000000e+02 2.950963211059570312e+01 9.586561203002929688e+00 2.540026664733886719e+00 8.600444793701171875e+00 3.342141389846801758e+00 3.530894279479980469e+00
6.020000000000000000e+02 2.759362792968750000e+01 9.871323585510253906e+00 3.206142425537109375e+00 4.411898136138916016e+00 2.285412311553955078e+00 1.200240492820739746e+00
6.030000000000000000e+02 3.015287017822265625e+01 1.310019111633300781e+01 -7.346038222312927246e-01 5.595602989196777344e+00 1.458299756050109863e+00 4.083237648010253906e+00
6.040000000000000000e+02 7.302914428710937500e+01 -1.144061565399169922e+01 -2.216185331344604492e+00 5.094181299209594727e-01 -5.120301842689514160e-01 -1.921079754829406738e-01
6.050000000000000000e+02 7.105125427246093750e+01 -1.209991455078125000e+01 -2.308920145034790039e+00 -3.326841890811920166e-01 -7.924812436103820801e-01 -8.180335760116577148e-01
6.060000000000000000e+02 6.940227508544921875e+01 -1.320528507232666016e+01 -4.871736466884613037e-01 2.303330898284912109e-01 -7.705216854810714722e-02 -1.567910552024841309e+00
6.070000000000000000e+02 6.959193420410156250e+01 -1.540971279144287109e+01 -9.225929975509643555e-01 -2.970857918262481689e-02 -2.856904864311218262e-01 -1.021374225616455078e+00
6.080000000000000000e+02 7.128860473632812500e+01 -1.701493263244628906e+01 6.273470520973205566e-01 8.789312243461608887e-01 4.518834948539733887e-01 -4.604429900646209717e-01
6.090000000000000000e+02 7.034558868408203125e+01 -1.641103935241699219e+01 -8.199388384819030762e-01 3.973441570997238159e-02 -2.340613305568695068e-01 -4.275123178958892822e-01
6.100000000000000000e+02 7.229805755615234375e+01 -1.764476394653320312e+01 7.483997344970703125e-01 3.494369983673095703e+00 1.272830843925476074e+00 -1.488950014114379883e+00
6.110000000000000000e+02 7.932432556152343750e+01 -1.668211555480957031e+01 5.808290094137191772e-02 9.493529319763183594e+00 2.865483522415161133e+00 4.207276999950408936e-01
6.120000000000000000e+02 7.811191558837890625e+01 -1.805185127258300781e+01 5.062062293291091919e-02 8.500152587890625000e+00 2.565231800079345703e+00 1.077887892723083496e+00
6.130000000000000000e+02 7.943418884277343750e+01 -2.369515609741210938e+01 6.171738356351852417e-02 6.345744609832763672e+00 1.922238707542419434e+00 -9.429668635129928589e-02
6.140000000000000000e+02 7.834027862548828125e+01 -2.629996109008789062e+01 -1.189870983362197876e-01 7.487712383270263672e+00 2.210617542266845703e+00 -4.217387437820434570e-01
6.150000000000000000e+02 7.945662689208984375e+01 -2.641461372375488281e+01 -3.624754026532173157e-02 7.184257984161376953e+00 2.144402980804443359e+00 -1.812988519668579102e-01
6.160000000000000000e+02 7.186535644531250000e+01 -2.608687973022460938e+01 -1.486102700233459473e+00 1.864630579948425293e+00 1.135583594441413879e-01 1.301445484161376953e+00
6.170000000000000000e+02 7.107881164550781250e+01 -2.724715995788574219e+01 -1.296373248100280762e+00 1.615527629852294922e+00 9.574630111455917358e-02 1.227048873901367188e+00
6.180000000000000000e+02 6.969541931152343750e+01 -2.656593513488769531e+01 -3.454825162887573242e+00 -1.273276358842849731e-01 -1.074645876884460449e+00 2.559664249420166016e-01
6.190000000000000000e+02 6.827494812011718750e+01 -1.605855560302734375e+01 -2.408528327941894531e+00 6.645315885543823242e-02 -7.026225328445434570e-01 -6.275731921195983887e-01
6.200000000000000000e+02 5.923862838745117188e+01 3.796796417236328125e+01 -4.134689867496490479e-01 9.155800938606262207e-01 1.506333351135253906e-01 2.973323762416839600e-01
6.210000000000000000e+02 5.171912384033203125e+01 3.624689483642578125e+01 -1.279060006141662598e+00 6.098238945007324219e+00 1.445753693580627441e+00 2.916403710842132568e-01
6.220000000000000000e+02 4.986539840698242188e+01 3.644512939453125000e+01 -1.338161945343017578e+00 5.733715534210205078e+00 1.318666100502014160e+00 -2.602878808975219727e-01
6.230000000000000000e+02 4.246667098999023438e+01 4.118502044677734375e+01 -5.820049643516540527e-01 2.399405002593994141e+00 5.452200174331665039e-01 -1.691534370183944702e-01
6.240000000000000000e+02 4.525049591064453125e+01 3.653252410888671875e+01 -1.148355245590209961e+00 3.719778537750244141e+00 7.714269757270812988e-01 -1.031896948814392090e+00
6.250000000000000000e+02 4.318374633789062500e+01 3.305919265747070312e+01 -6.020632982254028320e-01 1.257780432701110840e+00 1.967151314020156860e-01 -5.887142419815063477e-01
6.260000000000000000e+02 4.188914489746093750e+01 3.425544738769531250e+01 -1.612374544143676758e+00 6.353254318237304688e-01 -2.931147515773773193e-01 -5.597628653049468994e-02
6.270000000000000000e+02 4.519673538208007812e+01 3.097039413452148438e+01 8.895575404167175293e-01 4.812719345092773438e+00 1.710683107376098633e+00 -1.636230349540710449e+00
6.280000000000000000e+02 4.605332946777343750e+01 2.891983413696289062e+01 7.713547945022583008e-01 8.667088508605957031e+00 2.831533193588256836e+00 -1.088449954986572266e+00
6.290000000000000000e+02 4.609479904174804688e+01 2.761805343627929688e+01 5.502073764801025391e-01 1.042207717895507812e+01 3.291685342788696289e+00 -2.912915870547294617e-02
6.300000000000000000e+02 4.582645416259765625e+01 2.349073028564453125e+01 2.329949378967285156e+00 8.490900039672851562e+00 3.246254920959472656e+00 3.385073661804199219e+00
6.310000000000000000e+02 4.457780456542968750e+01 2.309069442749023438e+01 2.864399671554565430e+00 6.892303943634033203e+00 2.927011013031005859e+00 4.168531417846679688e+00
6.320000000000000000e+02 4.083715057373046875e+01 2.060338401794433594e+01 3.466266766190528870e-02 6.874250769615173340e-01 2.166263312101364136e-01 8.052551746368408203e-02
6.330000000000000000e+02 4.212670135498046875e+01 2.190783309936523438e+01 -1.873307466506958008e+00 7.557020783424377441e-01 -3.352816104888916016e-01 5.502642989158630371e-01
6.340000000000000000e+02 4.574473190307617188e+01 2.079207992553710938e+01 -1.277994632720947266e+00 6.836109161376953125e+00 1.667434334754943848e+00 3.035074234008789062e+00
6.350000000000000000e+02 4.657238388061523438e+01 1.796464729309082031e+01 2.573436260223388672e+00 5.349259853363037109e+00 2.376808643341064453e+00 2.976686239242553711e+00
6.360000000000000000e+02 4.557872390747070312e+01 1.687464141845703125e+01 2.130154371261596680e+00 9.003265380859375000e+00 3.340025901794433594e+00 3.572628498077392578e+00
6.370000000000000000e+02 5.076333236694335938e+01 1.797427940368652344e+01 -4.090783894062042236e-01 1.331243157386779785e+00 2.766494452953338623e-01 -4.667724072933197021e-01
6.380000000000000000e+02 4.963714981079101562e+01 1.881432914733886719e+01 -3.004872798919677734e+00 1.834289878606796265e-01 -8.464331626892089844e-01 1.177552342414855957e-02
6.390000000000000000e+02 5.003346252441406250e+01 2.266564178466796875e+01 9.268301129341125488e-01 4.471502780914306641e+00 1.619499802589416504e+00 -5.635541081428527832e-01
6.400000000000000000e+02 5.362194442749023438e+01 2.819101905822753906e+01 4.423379004001617432e-01 9.386407852172851562e+00 2.948623895645141602e+00 -2.852084040641784668e-01
6.410000000000000000e+02 5.353112411499023438e+01 2.951159667968750000e+01 3.019147813320159912e-01 9.521293640136718750e+00 2.946962356567382812e+00 3.657988905906677246e-01
6.420000000000000000e+02 5.357011413574218750e+01 3.088303375244140625e+01 1.344026446342468262e+00 1.038508796691894531e+01 3.518734216690063477e+00 1.827016830444335938e+00
6.430000000000000000e+02 5.307421875000000000e+01 3.250234222412109375e+01 1.544080376625061035e+00 8.555595397949218750e+00 3.029902696609497070e+00 1.549718022346496582e+00
6.440000000000000000e+02 5.720594787597656250e+01 3.564635848999023438e+01 -8.853712677955627441e-01 8.848649859428405762e-01 -1.518916251370683312e-04 9.665582180023193359e-01
6.450000000000000000e+02 5.575955963134765625e+01 3.664214324951171875e+01 -1.295376539230346680e+00 3.687349796295166016e+00 7.175919413566589355e-01 1.640827655792236328e+00
6.460000000000000000e+02 6.145461654663085938e+01 3.692049407958984375e+01 -8.877995610237121582e-01 1.614524960517883301e+00 2.180176377296447754e-01 -6.248351931571960449e-01
6.470000000000000000e+02 6.176291275024414062e+01 3.457341384887695312e+01 -6.630248427391052246e-01 1.476188182830810547e+00 2.439489960670471191e-01 -1.310443878173828125e-01
6.480000000000000000e+02 6.339394760131835938e+01 3.237743759155273438e+01 6.791781783103942871e-01 6.217255592346191406e+00 2.068930149078369141e+00 -7.268756628036499023e-01
6.490000000000000000e+02 6.320820236206054688e+01 3.570534896850585938e+01 -1.271670460700988770e+00 3.784527301788330078e+00 7.538570761680603027e-01 -4.251281321048736572e-01
6.500000000000000000e+02 6.876595306396484375e+01 2.155475234985351562e+01 -1.049856066703796387e+00 2.680134773254394531e+00 4.890835583209991455e-01 -1.429011464118957520e+00
6.510000000000000000e+02 7.806555175781250000e+01 1.826022529602050781e+01 -1.160820201039314270e-01 7.128713130950927734e+00 2.103789329528808594e+00 5.871028304100036621e-01
6.520000000000000000e+02 7.938576507568359375e+01 2.371354103088378906e+01 -1.611268520355224609e-02 7.711823463439941406e+00 2.308713197708129883e+00 -2.922253683209419250e-02
6.530000000000000000e+02 7.689103698730468750e+01 2.245320701599121094e+01 -3.172974586486816406e-01 7.174007415771484375e+00 2.057013034820556641e+00 -7.936748862266540527e-02
6.540000000000000000e+02 7.930697631835937500e+01 2.927287101745605469e+01 2.665558084845542908e-02 7.167514324188232422e+00 2.158251047134399414e+00 -2.955805882811546326e-02
6.550000000000000000e+02 6.872962188720703125e+01 3.665155792236328125e+01 -4.419278800487518311e-01 5.416575431823730469e+00 1.492394208908081055e+00 3.420895636081695557e-01
6.560000000000000000e+02 5.881645202636718750e+01 3.602885437011718750e+01 -2.000581026077270508e+00 3.089423179626464844e-01 -5.074915885925292969e-01 6.342629790306091309e-01
6.570000000000000000e+02 6.439593505859375000e+01 3.144835281372070312e+01 7.982842326164245605e-01 6.494128227233886719e+00 2.187723636627197266e+00 -9.471633820794522762e-04
6.580000000000000000e+02 6.360549545288085938e+01 2.909036064147949219e+01 1.878071725368499756e-01 7.736168861389160156e+00 2.377192735671997070e+00 5.714863538742065430e-01
6.590000000000000000e+02 6.332161712646484375e+01 2.655637168884277344e+01 2.581195116043090820e+00 1.077441787719726562e+01 4.006683826446533203e+00 3.396535873413085938e+00
6.600000000000000000e+02 6.443958282470703125e+01 2.159219169616699219e+01 -1.162280797958374023e+00 3.242689847946166992e+00 6.241226792335510254e-01 3.347893238067626953e+00
6.610000000000000000e+02 6.200410842895507812e+01 2.330848121643066406e+01 -1.448518157005310059e+00 6.208172798156738281e+00 1.427896499633789062e+00 3.521327733993530273e+00
6.620000000000000000e+02 5.828017807006835938e+01 2.306298637390136719e+01 -4.685778617858886719e+00 -6.265698373317718506e-02 -1.424530625343322754e+00 -1.922201514244079590e-01
6.630000000000000000e+02 5.711561203002929688e+01 2.320076751708984375e+01 -3.098891258239746094e+00 1.052499413490295410e+00 -6.139175891876220703e-01 -7.395184636116027832e-01
6.640000000000000000e+02 5.542261505126953125e+01 2.427552795410156250e+01 7.956344634294509888e-02 2.735879898071289062e+00 8.446329832077026367e-01 -1.737277269363403320e+00
6.650000000000000000e+02 5.456484222412109375e+01 2.520048713684082031e+01 1.565109610557556152e+00 5.291864871978759766e+00 2.057092428207397461e+00 -2.329577207565307617e+00
6.660000000000000000e+02 4.011215209960937500e+01 3.493512344360351562e+01 -2.185107469558715820e+00 1.835805922746658325e-01 -6.004580855369567871e-01 2.515051364898681641e-01
6.670000000000000000e+02 3.497744369506835938e+01 3.984755325317382812e+01 -1.170602560043334961e+00 3.551442146301269531e+00 7.142518758773803711e-01 2.302860170602798462e-01
6.680000000000000000e+02 2.866108894348144531e+01 3.481892013549804688e+01 -3.893655538558959961e-02 3.604667425155639648e+00 1.069719314575195312e+00 -6.756926178932189941e-01
6.690000000000000000e+02 2.761605262756347656e+01 2.876021385192871094e+01 -1.048248887062072754e+00 2.307201623916625977e-01 -2.452585995197296143e-01 -1.739194095134735107e-01
6.700000000000000000e+02 2.953339576721191406e+01 2.889224433898925781e+01 4.472735454328358173e-04 2.584941864013671875e+00 7.756167650222778320e-01 -1.303710579872131348e+00
6.710000000000000000e+02 2.867010498046875000e+01 2.788517570495605469e+01 -4.673699662089347839e-02 6.894265413284301758e-01 1.928068548440933228e-01 -3.385264575481414795e-01
6.720000000000000000e+02 3.058036041259765625e+01 2.597560882568359375e+01 9.951025843620300293e-01 3.779998540878295898e+00 1.432530283927917480e+00 -1.756609320640563965e+00
6.730000000000000000e+02 3.134790420532226562e+01 2.492318916320800781e+01 1.052044272422790527e+00 8.687132835388183594e+00 2.921752929687500000e+00 -1.782002568244934082e+00
6.740000000000000000e+02 3.241475677490234375e+01 2.399883460998535156e+01 8.994728326797485352e-01 1.025345897674560547e+01 3.345879316329956055e+00 -4.912615418434143066e-01
6.750000000000000000e+02 3.183617019653320312e+01 1.797961997985839844e+01 1.775870203971862793e+00 1.294977664947509766e+01 4.417694091796875000e+00 2.200323104858398438e+00
6.760000000000000000e+02 3.278067779541015625e+01 1.582347488403320312e+01 1.533549785614013672e+00 5.682766437530517578e+00 2.164894819259643555e+00 4.987609386444091797e-01
6.770000000000000000e+02 4.071458435058593750e+01 2.174974441528320312e+01 -3.014185428619384766e+00 -1.787715107202529907e-01 -9.578871130943298340e-01 6.684076040983200073e-02
6.780000000000000000e+02 3.935886001586914062e+01 2.188733100891113281e+01 -1.770733952522277832e+00 4.481983482837677002e-01 -3.967606723308563232e-01 -1.624294817447662354e-01
6.790000000000000000e+02 3.948183059692382812e+01 2.048527526855468750e+01 4.235507845878601074e-01 8.717854619026184082e-01 3.886008858680725098e-01 -1.212765693664550781e+00
6.800000000000000000e+02 3.331893539428710938e+01 1.718792724609375000e+01 2.678717136383056641e+00 6.094432353973388672e+00 2.631944894790649414e+00 1.699801683425903320e-01
6.810000000000000000e+02 4.468929290771484375e+01 1.388368988037109375e+01 9.157635569572448730e-01 1.283273315429687500e+01 4.124548912048339844e+00 1.526465177536010742e+00
6.820000000000000000e+02 4.495904541015625000e+01 1.536820507049560547e+01 1.584769964218139648e+00 1.114634323120117188e+01 3.819334030151367188e+00 2.973260641098022461e+00
6.830000000000000000e+02 4.461063766479492188e+01 1.249221611022949219e+01 6.505313515663146973e-01 1.285483360290527344e+01 4.051609516143798828e+00 -1.668461859226226807e-01
6.840000000000000000e+02 3.791099929809570312e+01 2.178144454956054688e+01 -3.255636394023895264e-01 1.525758624076843262e+00 3.600584864616394043e-01 -9.674409627914428711e-01
6.850000000000000000e+02 3.662281036376953125e+01 2.415877532958984375e+01 9.056028723716735840e-01 3.123219490051269531e+00 1.208646655082702637e+00 -1.626600861549377441e+00
6.860000000000000000e+02 3.381020736694335938e+01 2.585495376586914062e+01 7.227572798728942871e-01 9.578055381774902344e+00 3.090243816375732422e+00 2.683362066745758057e-01
6.870000000000000000e+02 3.526063156127929688e+01 2.670647811889648438e+01 1.030214309692382812e+00 1.319416046142578125e+01 4.267312526702880859e+00 -1.733635902404785156e+00
6.880000000000000000e+02 3.414803314208984375e+01 2.701468467712402344e+01 1.329447984695434570e+00 1.032676506042480469e+01 3.496863842010498047e+00 -1.688209921121597290e-02
6.890000000000000000e+02 3.600301742553710938e+01 3.196314048767089844e+01 6.841524839401245117e-01 6.643437862396240234e+00 2.198277235031127930e+00 2.119621753692626953e+00
6.900000000000000000e+02 3.541001892089843750e+01 2.960387229919433594e+01 8.087472319602966309e-01 1.246943950653076172e+01 3.983455896377563477e+00 1.956522107124328613e+00
6.910000000000000000e+02 3.591186523437500000e+01 3.332656097412109375e+01 -2.287577390670776367e-01 5.214729309082031250e+00 1.495791435241699219e+00 1.018759846687316895e+00
6.920000000000000000e+02 3.855669403076171875e+01 3.448673629760742188e+01 -1.929712176322937012e+00 1.124331057071685791e-01 -5.451837182044982910e-01 4.201519191265106201e-01
6.930000000000000000e+02 2.449266242980957031e+01 2.989985466003417969e+01 3.466342389583587646e-01 2.480400800704956055e+00 8.481105566024780273e-01 1.389987349510192871e+00
6.940000000000000000e+02 2.850623130798339844e+01 2.997999954223632812e+01 3.133435845375061035e-01 1.722337007522583008e+00 6.107041835784912109e-01 -1.392085075378417969e+00
6.950000000000000000e+02 6.621414947509765625e+01 2.040076255798339844e+01 -5.055738925933837891e+00 -1.906173527240753174e-01 -1.573906898498535156e+00 7.809628844261169434e-01
6.960000000000000000e+02 6.077326202392578125e+01 2.090336418151855469e+01 -7.509225010871887207e-01 5.523380279541015625e+00 1.431737303733825684e+00 2.582153558731079102e+00
6.970000000000000000e+02 6.377251052856445312e+01 2.431786537170410156e+01 1.113353371620178223e+00 5.827733516693115234e+00 2.082326173782348633e+00 2.120030403137207031e+00
6.980000000000000000e+02 6.360153961181640625e+01 1.989496231079101562e+01 1.566855907440185547e-01 3.309762716293334961e+00 1.039934515953063965e+00 2.663199663162231445e+00
6.990000000000000000e+02 6.096634674072265625e+01 1.974464607238769531e+01 3.874371647834777832e-01 6.866899490356445312e+00 2.176301002502441406e+00 2.453818082809448242e+00
7.000000000000000000e+02 5.463315582275390625e+01 1.590052890777587891e+01 1.082493066787719727e+00 5.836360454559326172e+00 2.075656175613403320e+00 -1.556319117546081543e+00
7.010000000000000000e+02 6.103417587280273438e+01 1.617691040039062500e+01 1.697014212608337402e+00 1.215528392791748047e+01 4.155689239501953125e+00 3.201870918273925781e+00
7.020000000000000000e+02 5.506497955322265625e+01 1.920280456542968750e+01 -1.485571861267089844e-01 4.530605316162109375e+00 1.314614415168762207e+00 -2.187483787536621094e+00
7.030000000000000000e+02 5.831544113159179688e+01 1.575068759918212891e+01 2.016590118408203125e+00 7.428215026855468750e+00 2.833441495895385742e+00 8.812215328216552734e-01
7.040000000000000000e+02 5.374586868286132812e+01 1.494917201995849609e+01 1.689336419105529785e+00 5.248787879943847656e+00 2.081437349319458008e+00 -2.694003343582153320e+00
7.050000000000000000e+02 5.282702255249023438e+01 1.602689933776855469e+01 1.629725575447082520e+00 3.366288661956787109e+00 1.498804211616516113e+00 -2.121952295303344727e+00
7.060000000000000000e+02 6.825252532958984375e+01 1.953214454650878906e+01 -3.045803308486938477e+00 2.991899549961090088e-01 -8.239839673042297363e-01 4.314217865467071533e-01
7.070000000000000000e+02 6.919741058349609375e+01 1.856332969665527344e+01 -5.272769927978515625e-01 1.414250969886779785e+00 2.660921812057495117e-01 -2.932881116867065430e-01
7.080000000000000000e+02 7.016310119628906250e+01 1.756296348571777344e+01 3.812055289745330811e-01 3.345258235931396484e+00 1.117939114570617676e+00 -1.601489782333374023e+00
7.090000000000000000e+02 7.165637969970703125e+01 1.518002986907958984e+01 1.535835027694702148e+00 1.228683662414550781e+01 4.146801471710205078e+00 -2.716009378433227539e+00
7.100000000000000000e+02 7.197594451904296875e+01 1.386388587951660156e+01 6.418595314025878906e-01 1.375089073181152344e+01 4.317825317382812500e+00 -1.361488938331604004e+00
7.110000000000000000e+02 7.140901947021484375e+01 9.352267265319824219e+00 1.818802714347839355e+00 8.093864440917968750e+00 2.973800182342529297e+00 2.878538608551025391e+00
7.120000000000000000e+02 6.898931121826171875e+01 7.326854705810546875e+00 -4.486929625272750854e-02 1.031273841857910156e+00 2.959213554859161377e-01 8.828371763229370117e-01
7.130000000000000000e+02 6.869205474853515625e+01 4.188863754272460938e+00 4.680913686752319336e-02 2.124603748321533203e+00 6.514238715171813965e-01 1.993723869323730469e+00
7.140000000000000000e+02 6.779600524902343750e+01 6.868824005126953125e+00 -1.725486397743225098e+00 2.597166299819946289e-01 -4.397309422492980957e-01 3.897435963153839111e-01
7.150000000000000000e+02 6.981448364257812500e+01 -8.220448493957519531e-01 -4.552186429500579834e-01 5.445783138275146484e-01 2.680790051817893982e-02 8.993848562240600586e-01
7.160000000000000000e+02 6.680597686767578125e+01 5.939713954925537109e+00 -1.646333813667297363e+00 4.171698689460754395e-01 -3.687491714954376221e-01 6.372384428977966309e-01
7.170000000000000000e+02 6.067900848388671875e+01 1.338068485260009766e+01 4.825674593448638916e-01 1.066079711914062500e+01 3.343009233474731445e+00 1.994752585887908936e-01
7.180000000000000000e+02 1.560502815246582031e+01 2.315740394592285156e+01 -5.928855538368225098e-01 -5.033910274505615234e-01 -3.288829922676086426e-01 -4.622808992862701416e-01
7.190000000000000000e+02 1.029368782043457031e+01 2.261562538146972656e+01 -1.578723192214965820e+00 2.720375359058380127e-01 -3.920056819915771484e-01 -6.971932202577590942e-02
7.200000000000000000e+02 8.876118659973144531e+00 2.232918739318847656e+01 -1.103477120399475098e+00 1.536751270294189453e+00 1.299822330474853516e-01 -8.647861480712890625e-01
7.210000000000000000e+02 7.396796226501464844e+00 2.444989204406738281e+01 1.308741211891174316e+00 3.108789443969726562e+00 1.325259208679199219e+00 -2.009082317352294922e+00
7.220000000000000000e+02 1.926199197769165039e+00 2.563439941406250000e+01 1.203961893916130066e-01 2.508405923843383789e+00 7.886406183242797852e-01 1.593514680862426758e-01
7.230000000000000000e+02 6.691973209381103516e-01 1.909389305114746094e+01 -7.618536055088043213e-02 1.372998833656311035e+00 3.890440464019775391e-01 -1.882471293210983276e-01
7.240000000000000000e+02 1.763383984565734863e+00 1.599668216705322266e+01 1.048996299505233765e-02 8.075220584869384766e-01 2.454036027193069458e-01 -8.680667281150817871e-01
7.250000000000000000e+02 5.535132288932800293e-01 1.484393501281738281e+01 2.370115555822849274e-02 -5.668488740921020508e-01 -1.629443168640136719e-01 -2.925329506397247314e-01
7.260000000000000000e+02 1.572215676307678223e+00 9.302844047546386719e+00 1.119977906346321106e-01 -1.035344362258911133e+00 -2.770039737224578857e-01 1.047276519238948822e-02
7.270000000000000000e+02 9.626033782958984375e+00 1.104146194458007812e+01 1.856653213500976562e+00 1.173801040649414062e+01 4.078399181365966797e+00 -2.422073125839233398e+00
7.280000000000000000e+02 9.611229896545410156e+00 1.354123497009277344e+01 5.358080267906188965e-01 8.247169494628906250e+00 2.634893178939819336e+00 5.872952938079833984e-01
7.290000000000000000e+02 9.604269027709960938e+00 1.230150508880615234e+01 4.060972854495048523e-02 1.058795452117919922e+01 3.188569307327270508e+00 -2.602822184562683105e-01
7.300000000000000000e+02 1.096600437164306641e+01 1.662321662902832031e+01 4.756093025207519531e-01 2.265602588653564453e+00 8.223635554313659668e-01 9.941960573196411133e-01
7.310000000000000000e+02 1.204759407043457031e+01 1.765077781677246094e+01 -3.390107676386833191e-02 7.932808995246887207e-01 2.278139442205429077e-01 3.977950513362884521e-01
7.320000000000000000e+02 5.674690008163452148e-01 2.469882774353027344e+01 -1.136025488376617432e-01 1.374764084815979004e+00 3.783484697341918945e-01 1.367717087268829346e-01
7.330000000000000000e+02 3.572925806045532227e+00 2.600394248962402344e+01 6.434289216995239258e-01 4.126142501831054688e+00 1.430871367454528809e+00 -9.726548194885253906e-02
7.340000000000000000e+02 5.623409271240234375e+00 2.877739906311035156e+01 4.505671560764312744e-01 8.004361152648925781e+00 2.536478519439697266e+00 -2.287303954362869263e-01
7.350000000000000000e+02 5.926064491271972656e+00 3.001836204528808594e+01 1.218673065304756165e-01 6.273826599121093750e+00 1.918708205223083496e+00 6.404528021812438965e-01
7.360000000000000000e+02 6.308035850524902344e-01 3.191393470764160156e+01 1.042648870497941971e-02 3.677893877029418945e+00 1.106496095657348633e+00 -3.441478908061981201e-01
7.370000000000000000e+02 1.983315706253051758e+00 3.327946090698242188e+01 -1.934678703546524048e-01 4.184305191040039062e+00 1.197251200675964355e+00 -7.001740336418151855e-01
7.380000000000000000e+02 5.019413471221923828e+00 4.032692337036132812e+01 9.126386791467666626e-02 2.875866651535034180e+00 8.901391625404357910e-01 -1.397046819329261780e-02
7.390000000000000000e+02 1.091321754455566406e+01 3.543314743041992188e+01 -1.944985985755920410e+00 -3.709731698036193848e-01 -6.947877407073974609e-01 -8.368031680583953857e-02
7.400000000000000000e+02 6.624005436897277832e-01 3.331491851806640625e+01 -3.987347707152366638e-02 4.385938644409179688e+00 1.303819537162780762e+00 -3.137192130088806152e-01
7.410000000000000000e+02 6.331218242645263672e+00 3.129756164550781250e+01 3.776614964008331299e-01 4.547518730163574219e+00 1.477554082870483398e+00 7.405753731727600098e-01
7.420000000000000000e+02 8.479701042175292969e+00 3.461865997314453125e+01 -2.210633516311645508e+00 -1.834435164928436279e-01 -7.182230949401855469e-01 -3.872085213661193848e-01
7.430000000000000000e+02 1.234074020385742188e+01 3.674367523193359375e+01 -1.141708254814147949e+00 2.369478940963745117e-01 -2.714281082153320312e-01 -6.202582716941833496e-01
7.440000000000000000e+02 2.692583656311035156e+01 -1.250201129913330078e+01 -2.104732275009155273e+00 1.632036805152893066e+00 -1.418086439371109009e-01 7.431234717369079590e-01
7.450000000000000000e+02 2.507592964172363281e+01 -1.347034645080566406e+01 -4.632806777954101562e+00 2.335580438375473022e-01 -1.319774508476257324e+00 -8.154788017272949219e-01
7.460000000000000000e+02 2.253298950195312500e+01 -1.395402050018310547e+01 -5.623218059539794922e+00 -2.666869163513183594e-01 -1.766971468925476074e+00 -4.037611484527587891e-01
7.470000000000000000e+02 2.046109580993652344e+01 -1.324794673919677734e+01 -2.536359071731567383e+00 1.633418083190917969e+00 -2.708823084831237793e-01 -5.184294581413269043e-01
7.480000000000000000e+02 1.946769332885742188e+01 -1.223239040374755859e+01 3.101718425750732422e-01 3.916200399398803711e+00 1.267911672592163086e+00 -1.594363093376159668e+00
7.490000000000000000e+02 1.752114295959472656e+01 -1.189297771453857422e+01 -1.452283859252929688e+00 9.724093437194824219e+00 2.481542825698852539e+00 -2.207335710525512695e+00
7.500000000000000000e+02 1.544950580596923828e+01 -1.335826492309570312e+01 -4.173615932464599609e+00 7.991566658020019531e+00 1.145385265350341797e+00 -6.832189559936523438e-01
7.510000000000000000e+02 1.702525138854980469e+01 -7.186086654663085938e+00 5.229343473911285400e-02 1.590486717224121094e+01 4.787148475646972656e+00 -6.090828180313110352e-01
7.520000000000000000e+02 1.661995506286621094e+01 -4.923856735229492188e+00 5.003920793533325195e-01 1.122715473175048828e+01 3.518264055252075195e+00 6.316304951906204224e-02
7.530000000000000000e+02 1.595726585388183594e+01 -1.410425424575805664e+00 1.756236433982849121e+00 8.839833259582519531e+00 3.178821086883544922e+00 -1.025169014930725098e+00
7.540000000000000000e+02 1.353823566436767578e+01 -1.247678518295288086e+00 4.857058823108673096e-01 1.333223819732666016e+01 4.145383358001708984e+00 5.472773909568786621e-01
7.550000000000000000e+02 1.890487480163574219e+01 -1.488599419593811035e+00 1.124683856964111328e+00 1.784387230873107910e+00 8.727213144302368164e-01 8.693658709526062012e-01
7.560000000000000000e+02 2.181733512878417969e+01 1.715439260005950928e-01 -8.202683925628662109e-01 3.447509706020355225e-01 -1.426552236080169678e-01 5.722448825836181641e-01
7.570000000000000000e+02 1.451857376098632812e+01 -2.145148277282714844e+01 2.158997297286987305e+00 4.498330593109130859e+00 1.997198343276977539e+00 2.953765869140625000e+00
7.580000000000000000e+02 1.756264114379882812e+01 -2.161989593505859375e+01 1.139242768287658691e+00 4.790835857391357422e+00 1.779023647308349609e+00 2.281696535646915436e-02
7.590000000000000000e+02 1.863087654113769531e+01 -2.646312904357910156e+01 -4.738018035888671875e+00 -2.772589027881622314e-01 -1.504583120346069336e+00 8.056674897670745850e-02
7.600000000000000000e+02 1.489532184600830078e+01 -2.858114624023437500e+01 1.960791468620300293e+00 4.748214721679687500e+00 2.012701988220214844e+00 3.011260032653808594e+00
7.610000000000000000e+02 1.412069320678710938e+01 -2.983457374572753906e+01 2.179226636886596680e+00 6.008786201477050781e+00 2.456403970718383789e+00 3.377906322479248047e+00
7.620000000000000000e+02 2.002917671203613281e+01 -2.654988670349121094e+01 -4.888244628906250000e+00 -5.939337015151977539e-01 -1.644653558731079102e+00 7.557848691940307617e-01
7.630000000000000000e+02 2.185147857666015625e+01 -2.625887107849121094e+01 -2.027085542678833008e+00 1.627223134040832520e+00 -1.199586987495422363e-01 -6.894845366477966309e-01
7.640000000000000000e+02 2.723499679565429688e+01 -1.915959930419921875e+01 1.842220544815063477e+00 6.122106552124023438e+00 2.389298200607299805e+00 2.773951292037963867e-01
7.650000000000000000e+02 1.597938728332519531e+01 -1.722338294982910156e+01 1.091288447380065918e+00 1.199201393127441406e+01 3.924990653991699219e+00 -1.235754251480102539e+00
7.660000000000000000e+02 1.589784431457519531e+01 -1.851212120056152344e+01 4.271400570869445801e-01 1.237803649902343750e+01 3.841553211212158203e+00 6.071389317512512207e-01
7.670000000000000000e+02 1.570227622985839844e+01 -1.976622390747070312e+01 2.296758890151977539e+00 1.074397945404052734e+01 3.912221431732177734e+00 2.687314033508300781e+00
7.680000000000000000e+02 1.257747554779052734e+01 -3.517920303344726562e+01 1.719804108142852783e-01 4.800609588623046875e+00 1.491776943206787109e+00 3.132884800434112549e-01
7.690000000000000000e+02 1.249279594421386719e+01 -3.066100502014160156e+01 1.757951617240905762e+00 4.975223541259765625e+00 2.019952535629272461e+00 1.920089483261108398e+00
7.700000000000000000e+02 9.441946983337402344e+00 -3.475035858154296875e+01 6.639328002929687500e-01 3.406908273696899414e+00 1.221252322196960449e+00 1.122006654739379883e+00
7.710000000000000000e+02 1.113468170166015625e+01 -2.435641670227050781e+01 -2.397795438766479492e+00 9.347489476203918457e-01 -4.389140009880065918e-01 1.411276340484619141e+00
7.720000000000000000e+02 1.057497406005859375e+01 -2.308193588256835938e+01 -4.611053466796875000e+00 -1.018143147230148315e-01 -1.413860321044921875e+00 -5.274380370974540710e-02
7.730000000000000000e+02 1.198303985595703125e+01 -2.263798332214355469e+01 -2.616174459457397461e+00 5.702781081199645996e-01 -6.137689352035522461e-01 2.121860086917877197e-01
7.740000000000000000e+02 3.889032363891601562e+01 -1.752964210510253906e+01 1.421040892601013184e+00 6.068625926971435547e+00 2.246900081634521484e+00 -2.736082553863525391e+00
7.750000000000000000e+02 3.978602600097656250e+01 -2.233985137939453125e+01 -2.782808616757392883e-02 8.906407356262207031e+00 2.663573741912841797e+00 -3.352248370647430420e-01
7.760000000000000000e+02 4.314290237426757812e+01 -2.161146354675292969e+01 3.051566839218139648e+00 4.898180484771728516e+00 2.384924173355102539e+00 5.248336195945739746e-01
7.770000000000000000e+02 4.131810760498046875e+01 -2.757578849792480469e+01 -2.659037590026855469e+00 4.284882068634033203e+00 4.877534210681915283e-01 1.152748227119445801e+00
7.780000000000000000e+02 4.022672653198242188e+01 -2.741391944885253906e+01 -2.042320728302001953e+00 7.769502639770507812e+00 1.718154549598693848e+00 1.823988676071166992e+00
7.790000000000000000e+02 2.880784797668457031e+01 -2.230470657348632812e+01 1.198361039161682129e+00 1.263869380950927734e+01 4.151116371154785156e+00 -9.362567663192749023e-01
7.800000000000000000e+02 2.760168457031250000e+01 -2.189212036132812500e+01 2.108220100402832031e+00 7.933910369873046875e+00 3.012639045715332031e+00 -1.555959433317184448e-01
7.810000000000000000e+02 2.924483680725097656e+01 -1.973568534851074219e+01 1.618609070777893066e+00 1.159488677978515625e+01 3.964048624038696289e+00 2.936856031417846680e+00
7.820000000000000000e+02 2.970217323303222656e+01 -1.848585128784179688e+01 1.859177947044372559e+00 9.368453025817871094e+00 3.368289232254028320e+00 3.824886322021484375e+00
7.830000000000000000e+02 2.134037017822265625e+01 -1.444014453887939453e+01 -3.014207601547241211e+00 7.157556414604187012e-01 -6.895356178283691406e-01 -7.806264758110046387e-01
7.840000000000000000e+02 1.521487617492675781e+01 3.544703245162963867e+00 1.575487732887268066e+00 4.900509357452392578e+00 1.942799210548400879e+00 2.258937120437622070e+00
7.850000000000000000e+02 1.410458374023437500e+01 2.032504081726074219e+00 4.160118579864501953e+00 1.196954631805419922e+01 4.838899612426757812e+00 1.492510676383972168e+00
7.860000000000000000e+02 1.256690025329589844e+01 2.274249792098999023e+00 3.105064630508422852e+00 9.504995346069335938e+00 3.783017873764038086e+00 -6.031721115112304688e+00
7.870000000000000000e+02 1.050586223602294922e+01 1.805972695350646973e+00 2.801054954528808594e+00 7.699335217475891113e-01 1.071296572685241699e+00 -2.438175201416015625e+00
7.880000000000000000e+02 9.817651748657226562e+00 1.748011231422424316e+00 1.676582336425781250e+00 4.208880066871643066e-01 6.292411088943481445e-01 -1.605617284774780273e+00
7.890000000000000000e+02 1.301939010620117188e+00 2.139818668365478516e+00 -8.838441967964172363e-02 -2.766945362091064453e-01 -1.095236837863922119e-01 2.945440113544464111e-01
7.900000000000000000e+02 5.132138729095458984e-01 6.504638195037841797e+00 3.553820401430130005e-02 -1.653603553771972656e+00 -4.854196012020111084e-01 1.403293907642364502e-01
7.910000000000000000e+02 1.047741222381591797e+01 9.197163581848144531e+00 2.802292108535766602e+00 7.449184417724609375e+00 3.075442790985107422e+00 -4.051541328430175781e+00
7.920000000000000000e+02 5.449178695678710938e+01 1.379934883117675781e+01 1.483528375625610352e+00 8.268965721130371094e+00 2.925748348236083984e+00 -1.989907860755920410e+00
7.930000000000000000e+02 1.270070743560791016e+01 -1.217930126190185547e+01 -3.935042619705200195e+00 -3.353026136755943298e-02 -1.190571904182434082e+00 1.244651079177856445e+00
7.940000000000000000e+02 1.620005416870117188e+01 -8.773187637329101562e+00 3.280928373336791992e+00 1.182028675079345703e+01 4.530364513397216797e+00 -2.603731632232666016e+00
7.950000000000000000e+02 1.427735519409179688e+01 -9.532265663146972656e+00 1.998050093650817871e+00 5.528407096862792969e+00 2.257937192916870117e+00 -7.612959146499633789e-01
7.960000000000000000e+02 1.451444816589355469e+01 -1.417487907409667969e+01 -2.016353607177734375e+00 3.120024442672729492e+00 3.311012089252471924e-01 -6.242910400032997131e-03
7.970000000000000000e+02 9.051384925842285156e+00 -2.320219039916992188e+01 -5.917504310607910156e+00 -4.801933467388153076e-01 -1.919309258460998535e+00 5.373510718345642090e-01
7.980000000000000000e+02 8.873700141906738281e+00 -2.450367546081542969e+01 -2.425726890563964844e+00 -5.152149200439453125e-01 -8.822825551033020020e-01 2.453713268041610718e-01
7.990000000000000000e+02 4.833567619323730469e+00 -1.960684585571289062e+01 5.447557568550109863e-01 8.708602905273437500e+00 2.776007652282714844e+00 8.570460677146911621e-01
8.000000000000000000e+02 3.598248481750488281e+00 -2.069650650024414062e+01 -4.952334463596343994e-01 4.089096069335937500e+00 1.078158855438232422e+00 2.165919303894042969e+00
8.010000000000000000e+02 4.360750675201416016e+00 -1.867608451843261719e+01 1.431619763374328613e+00 8.102306365966796875e+00 2.860177755355834961e+00 1.942756891250610352e+00
8.020000000000000000e+02 2.143198728561401367e+00 -1.845264816284179688e+01 9.318630099296569824e-01 2.400362730026245117e+00 9.996677041053771973e-01 1.320678949356079102e+00
8.030000000000000000e+02 3.413688659667968750e+00 -1.830035781860351562e+01 1.412647724151611328e+00 4.701282501220703125e+00 1.834179043769836426e+00 1.772569060325622559e+00
8.040000000000000000e+02 6.695931434631347656e+00 -1.487362194061279297e+01 2.452900409698486328e+00 5.258672237396240234e+00 2.313471794128417969e+00 3.224052667617797852e+00
8.050000000000000000e+02 1.018807315826416016e+01 -1.261797142028808594e+01 -4.231466293334960938e+00 -8.896804600954055786e-02 -1.296130299568176270e+00 1.418587446212768555e+00
8.060000000000000000e+02 8.967647552490234375e+00 -1.302028465270996094e+01 -4.014873132109642029e-02 1.744759798049926758e+00 5.113832950592041016e-01 1.623009800910949707e+00
8.070000000000000000e+02 1.287976551055908203e+01 -1.488783478736877441e+00 3.721226751804351807e-01 1.061242294311523438e+01 3.295363664627075195e+00 2.607760667800903320e+00
8.080000000000000000e+02 8.120799064636230469e+00 -2.543574094772338867e+00 9.247134327888488770e-01 3.038207590579986572e-01 3.685602545738220215e-01 3.986597955226898193e-01
8.090000000000000000e+02 8.937273979187011719e+00 -1.843074321746826172e+00 7.899935245513916016e-01 3.014887869358062744e-01 3.274447023868560791e-01 3.858724534511566162e-01
8.100000000000000000e+02 4.327924728393554688e+00 -1.875100851058959961e+00 -3.100714087486267090e-02 9.523706510663032532e-03 -6.445030216127634048e-03 -1.422517895698547363e-01
8.110000000000000000e+02 1.868147969245910645e+00 -1.434093284606933594e+01 9.818676114082336426e-02 8.894764184951782227e-01 2.962989509105682373e-01 -2.526264786720275879e-01
8.120000000000000000e+02 4.660973072052001953e+00 -1.587834548950195312e+01 1.299589514732360840e+00 5.979819297790527344e+00 2.183822631835937500e+00 1.445768952369689941e+00
8.130000000000000000e+02 6.136083602905273438e+01 -3.874953842163085938e+01 -3.261492252349853516e+00 -8.329018354415893555e-01 -1.228318214416503906e+00 1.249989867210388184e-01
8.140000000000000000e+02 5.806673049926757812e+01 -3.917168045043945312e+01 -1.513486504554748535e+00 3.069114685058593750e+00 4.666884541511535645e-01 -1.332656383514404297e+00
8.150000000000000000e+02 5.783413314819335938e+01 -4.134232330322265625e+01 -2.125777482986450195e+00 3.729753971099853516e+00 4.811929464340209961e-01 -5.173573493957519531e-01
8.160000000000000000e+02 6.604715728759765625e+01 -2.440378379821777344e+01 2.149587631225585938e+00 7.207374572753906250e+00 2.807088613510131836e+00 -4.265518665313720703e+00
8.170000000000000000e+02 6.112718963623046875e+01 -2.642686653137207031e+01 -4.349967002868652344e+00 -2.820042073726654053e-01 -1.389591336250305176e+00 -2.873074114322662354e-01
8.180000000000000000e+02 6.473114013671875000e+01 -2.164878082275390625e+01 1.976545333862304688e+00 1.228728961944580078e+01 4.279150485992431641e+00 -2.317816495895385742e+00
8.190000000000000000e+02 6.694094085693359375e+01 -1.639512634277343750e+01 -2.628151416778564453e+00 2.846780419349670410e-01 -7.030420303344726562e-01 -1.779846698045730591e-01
8.200000000000000000e+02 5.201885604858398438e+01 -1.428319931030273438e+01 -1.154916763305664062e+00 2.143731832504272461e+00 2.966444790363311768e-01 -2.653054952621459961e+00
8.210000000000000000e+02 4.783013916015625000e+01 -9.189571380615234375e+00 1.200561046600341797e+00 1.312567996978759766e+01 4.297872543334960938e+00 5.457335114479064941e-01
8.220000000000000000e+02 5.254025650024414062e+01 -1.552296352386474609e+01 -2.553040981292724609e+00 1.403275251388549805e+00 -3.449296951293945312e-01 -1.937604069709777832e+00
8.230000000000000000e+02 5.572301864624023438e+01 -1.802058792114257812e+01 1.601386666297912598e+00 7.889742851257324219e+00 2.847338914871215820e+00 -1.491236209869384766e+00
8.240000000000000000e+02 5.549015045166015625e+01 -2.063114547729492188e+01 6.342440247535705566e-01 1.151628398895263672e+01 3.645158290863037109e+00 -2.308546751737594604e-01
8.250000000000000000e+02 5.746559143066406250e+01 -2.480205154418945312e+01 -5.654271245002746582e-01 6.495096206665039062e+00 1.778900742530822754e+00 1.255204796791076660e+00
8.260000000000000000e+02 5.465554809570312500e+01 -2.592260360717773438e+01 -2.525735855102539062e+00 7.359667301177978516e+00 1.450179457664489746e+00 2.320824146270751953e+00
8.270000000000000000e+02 5.817489242553710938e+01 -2.809021949768066406e+01 8.287861347198486328e-01 4.783505916595458984e+00 1.683687567710876465e+00 2.233983039855957031e+00
8.280000000000000000e+02 5.310029602050781250e+01 -2.585819435119628906e+01 -2.383433580398559570e+00 2.387300729751586914e+00 1.160105573944747448e-03 1.399345397949218750e+00
8.290000000000000000e+02 1.250386810302734375e+01 2.636399745941162109e+00 2.208469390869140625e+00 8.857780456542968750e+00 3.319875001907348633e+00 -5.324022769927978516e+00
8.300000000000000000e+02 3.569911479949951172e+00 -1.893727064132690430e+00 -3.751810640096664429e-02 -1.191632356494665146e-03 -1.161292102187871933e-02 -1.638820171356201172e-01
8.310000000000000000e+02 3.031493902206420898e+00 -3.780708312988281250e+01 1.196624524891376495e-02 3.591182947158813477e+00 1.080944776535034180e+00 3.750009238719940186e-01
8.320000000000000000e+02 2.625759124755859375e+01 -3.851395797729492188e+01 -1.038094758987426758e+00 5.658023834228515625e+00 1.385978817939758301e+00 -8.875774741172790527e-01
8.330000000000000000e+02 2.723045921325683594e+01 -3.008043861389160156e+01 -2.203518748283386230e-01 6.388275146484375000e+00 1.850376963615417480e+00 -3.183922767639160156e-01
8.340000000000000000e+02 2.502834129333496094e+01 -3.213420104980468750e+01 8.696857690811157227e-01 9.365723609924316406e+00 3.070622682571411133e+00 -1.216629505157470703e+00
8.350000000000000000e+02 4.038407135009765625e+01 -3.629117965698242188e+01 -4.235405027866363525e-01 2.098007678985595703e+00 5.023401379585266113e-01 -3.921721577644348145e-01
8.360000000000000000e+02 2.876495552062988281e+01 -3.899021148681640625e+01 -1.028700470924377441e+00 5.104341506958007812e+00 1.222692370414733887e+00 -7.709113359451293945e-01
8.370000000000000000e+02 7.818237304687500000e+01 -3.027735137939453125e+01 -9.008526802062988281e-02 7.384829521179199219e+00 2.188423395156860352e+00 7.422135770320892334e-02
8.380000000000000000e+02 7.371623992919921875e+01 -2.075509834289550781e+01 5.111700296401977539e-01 1.274991703033447266e+01 3.978326082229614258e+00 -1.133548617362976074e+00
8.390000000000000000e+02 7.936573028564453125e+01 2.904013872146606445e+00 -4.294154793024063110e-02 9.421966552734375000e+00 2.813707590103149414e+00 -2.385745644569396973e-01
8.400000000000000000e+02 7.943933868408203125e+01 1.262144184112548828e+01 3.059945814311504364e-02 5.220078945159912109e+00 1.575203537940979004e+00 6.616278551518917084e-03
8.410000000000000000e+02 7.936446380615234375e+01 1.675645637512207031e+01 2.705613523721694946e-02 6.342950820922851562e+00 1.911002039909362793e+00 2.633773386478424072e-01
8.420000000000000000e+02 7.920987701416015625e+01 3.208656311035156250e+01 2.424751967191696167e-02 7.127647399902343750e+00 2.145568609237670898e+00 1.939088851213455200e-02
8.430000000000000000e+02 7.907349395751953125e+01 3.762456512451171875e+01 3.896387293934822083e-02 7.395427227020263672e+00 2.230317354202270508e+00 5.678930878639221191e-02
8.440000000000000000e+02 7.190258026123046875e+01 3.880251693725585938e+01 -2.945715487003326416e-01 6.040492057800292969e+00 1.723776102066040039e+00 2.749306857585906982e-01
8.450000000000000000e+02 7.735561370849609375e+01 3.745374679565429688e+01 -6.079251319169998169e-02 6.979926109313964844e+00 2.075740098953247070e+00 1.393122971057891846e-01
8.460000000000000000e+02 2.023179769515991211e+00 4.160895538330078125e+01 3.292647898197174072e-01 4.581782341003417969e+00 1.473314166069030762e+00 9.364658594131469727e-02
8.470000000000000000e+02 4.753909111022949219e+00 3.727883911132812500e+01 -4.713497757911682129e-01 3.326049327850341797e+00 8.564099073410034180e-01 -1.335051506757736206e-01
8.480000000000000000e+02 7.804099273681640625e+01 4.472147941589355469e+00 -7.171113044023513794e-02 8.066305160522460938e+00 2.398378133773803711e+00 -7.933620810508728027e-01
8.490000000000000000e+02 7.936653137207031250e+01 8.491599082946777344e+00 3.440532460808753967e-02 6.614576339721679688e+00 1.994694471359252930e+00 -3.420076072216033936e-01
8.500000000000000000e+02 7.202291107177734375e+01 1.044277954101562500e+01 1.621980786323547363e+00 1.221025753021240234e+01 4.149671554565429688e+00 2.037870883941650391e+00
8.510000000000000000e+02 2.378524208068847656e+01 1.579056739807128906e+00 1.461054384708404541e-01 8.455066680908203125e-01 2.974836230278015137e-01 3.497417271137237549e-01
8.520000000000000000e+02 1.821543312072753906e+01 3.030901193618774414e+00 1.801822185516357422e+00 3.144200325012207031e+00 1.483806729316711426e+00 4.245967864990234375e+00
8.530000000000000000e+02 4.859998321533203125e+01 6.372164249420166016e+00 -1.732104063034057617e+00 -8.148638904094696045e-02 -5.440771579742431641e-01 3.515205979347229004e-01
8.540000000000000000e+02 3.966966247558593750e+01 4.812840938568115234e+00 1.797788858413696289e+00 1.259424781799316406e+01 4.317611217498779297e+00 2.128880500793457031e+00
8.550000000000000000e+02 3.873540878295898438e+01 2.880312681198120117e+00 2.966893911361694336e+00 7.863431453704833984e+00 3.249097585678100586e+00 3.696010351181030273e+00
8.560000000000000000e+02 5.816105270385742188e+01 1.077536463737487793e+00 -2.514153480529785156e+00 2.092652559280395508e+00 -1.264502406120300293e-01 -1.718189954757690430e+00
8.570000000000000000e+02 5.883896636962890625e+01 3.137523651123046875e+00 -1.145829677581787109e+00 4.118607521057128906e+00 8.918333053588867188e-01 -1.995631814002990723e+00
8.580000000000000000e+02 4.496013259887695312e+01 -2.773266983032226562e+01 -2.428736925125122070e+00 6.866906285285949707e-01 -5.226138830184936523e-01 -5.390225648880004883e-01
8.590000000000000000e+02 4.701788711547851562e+01 -2.207712936401367188e+01 2.909992933273315430e+00 8.919857025146484375e+00 3.548954963684082031e+00 -2.953779697418212891e+00
8.600000000000000000e+02 5.255698394775390625e+01 -3.491075897216796875e+01 1.528565406799316406e+00 7.185591220855712891e+00 2.614246845245361328e+00 -7.867929339408874512e-02
8.610000000000000000e+02 2.045301628112792969e+01 9.930866241455078125e+00 2.170559167861938477e+00 9.844563484191894531e+00 3.604536771774291992e+00 2.179398775100708008e+00
8.620000000000000000e+02 2.201569366455078125e+01 8.218588829040527344e+00 2.202075004577636719e+00 5.736351966857910156e+00 2.381528139114379883e+00 2.772873342037200928e-01
8.630000000000000000e+02 2.232708168029785156e+01 1.627339172363281250e+01 -3.098820686340332031e+00 8.346157073974609375e+00 1.574200868606567383e+00 6.341797113418579102e-01
8.640000000000000000e+02 2.365548896789550781e+01 1.728698158264160156e+01 -1.263981223106384277e+00 4.293782234191894531e+00 9.089403152465820312e-01 -4.272097349166870117e-01
8.650000000000000000e+02 6.652775573730468750e+01 3.174563217163085938e+01 7.165366411209106445e-01 5.552083969116210938e+00 1.880586266517639160e+00 7.395226359367370605e-01
8.660000000000000000e+02 7.150756835937500000e+01 2.902924728393554688e+01 8.702836632728576660e-01 5.184692382812500000e+00 1.816492795944213867e+00 2.468607202172279358e-02
8.670000000000000000e+02 5.433081054687500000e+01 3.310169219970703125e+01 1.982329726219177246e+00 7.836590766906738281e+00 2.945676088333129883e+00 2.934811115264892578e+00
8.680000000000000000e+02 4.829438400268554688e+01 3.290637207031250000e+01 -7.583454996347427368e-02 6.116584300994873047e+00 1.812224864959716797e+00 -6.640954315662384033e-02
8.690000000000000000e+02 4.645276641845703125e+01 3.024452972412109375e+01 1.017517805099487305e+00 6.858828544616699219e+00 2.362903833389282227e+00 -7.555801868438720703e-01
8.700000000000000000e+02 4.585133361816406250e+01 2.491999053955078125e+01 3.086322546005249023e+00 1.169139003753662109e+01 4.433313846588134766e+00 3.909452915191650391e+00
8.710000000000000000e+02 6.943290710449218750e+01 2.043431472778320312e+01 -1.958563923835754395e+00 3.414058446884155273e+00 4.366483688354492188e-01 -1.469774246215820312e+00
8.720000000000000000e+02 3.431784820556640625e+01 2.412927436828613281e+01 2.206574380397796631e-01 8.880533218383789062e+00 2.730357408523559570e+00 -3.834244236350059509e-02
8.730000000000000000e+02 4.736027526855468750e+01 2.198176002502441406e+01 3.640998005867004395e-01 5.644809246063232422e+00 1.802672743797302246e+00 1.817336082458496094e+00
8.740000000000000000e+02 8.491788864135742188e+00 1.933955001831054688e+01 -9.578614830970764160e-01 2.915962457656860352e+00 5.874302983283996582e-01 -9.824815988540649414e-01
8.750000000000000000e+02 9.127707481384277344e+00 1.468333435058593750e+01 4.855768084526062012e-01 6.392155647277832031e+00 2.063319683074951172e+00 4.471637308597564697e-02
8.760000000000000000e+02 2.244142913818359375e+01 2.301552772521972656e+01 3.093842566013336182e-01 1.454285144805908203e+01 4.455670833587646484e+00 1.883356690406799316e+00
8.770000000000000000e+02 2.320900154113769531e+01 2.766816329956054688e+01 1.095416257157921791e-03 4.959722995758056641e+00 1.488245487213134766e+00 5.099702477455139160e-01
8.780000000000000000e+02 3.586380386352539062e+01 -1.036855792999267578e+01 2.442253828048706055e+00 5.179120063781738281e+00 2.286412239074707031e+00 -1.225199341773986816e+00
8.790000000000000000e+02 5.298941135406494141e-01 -1.058057880401611328e+01 -4.062518104910850525e-02 -2.455599159002304077e-01 -8.585552871227264404e-02 -4.229779541492462158e-02
8.800000000000000000e+02 6.123733520507812500e+01 -4.776570320129394531e+00 3.280338644981384277e-01 1.120006370544433594e+01 3.458429336547851562e+00 -7.417846322059631348e-01
8.810000000000000000e+02 1.851945114135742188e+01 -1.113939285278320312e+01 1.677447438240051270e+00 6.415348052978515625e+00 2.427838563919067383e+00 -4.053677558898925781e+00
8.820000000000000000e+02 6.264085769653320312e+00 -2.199995422363281250e+01 -2.434517860412597656e+00 4.482679665088653564e-01 -5.958750247955322266e-01 6.872833371162414551e-01
8.830000000000000000e+02 6.044151687622070312e+01 -2.127326726913452148e+00 2.303854465484619141e+00 8.490901947021484375e+00 3.238426923751831055e+00 -3.734260797500610352e+00
8.840000000000000000e+02 5.448547363281250000e+01 -8.983978271484375000e+00 1.523263573646545410e+00 2.628489494323730469e+00 1.245525956153869629e+00 -2.197118520736694336e+00
8.850000000000000000e+02 5.249338531494140625e+01 -4.881344318389892578e+00 7.788277864456176758e-01 1.229740810394287109e+01 3.922870635986328125e+00 1.685369014739990234e-01
8.860000000000000000e+02 5.260771560668945312e+01 -9.818236827850341797e-01 6.592126488685607910e-01 6.732068061828613281e+00 2.217384099960327148e+00 1.451792597770690918e+00
8.870000000000000000e+02 4.677254104614257812e+01 -2.852700614929199219e+01 8.612543940544128418e-01 2.688597679138183594e+00 1.064955592155456543e+00 -2.436334133148193359e+00
8.880000000000000000e+02 4.706076812744140625e+01 -3.973837280273437500e+01 -1.437865138053894043e+00 2.212621688842773438e+00 2.324269711971282959e-01 8.343480229377746582e-01
8.890000000000000000e+02 4.468689727783203125e+01 -3.814005661010742188e+01 -3.151194095611572266e+00 -9.661867618560791016e-01 -1.235214233398437500e+00 -5.268343091011047363e-01
8.900000000000000000e+02 4.097289657592773438e+01 -2.875623703002929688e+01 -9.787666201591491699e-01 4.338668346405029297e+00 1.007970571517944336e+00 1.476272344589233398e+00
8.910000000000000000e+02 3.952523040771484375e+01 7.483792304992675781e+00 7.759262919425964355e-01 1.150991916656494141e+01 3.685753583908081055e+00 -8.628991246223449707e-01
8.920000000000000000e+02 3.005950546264648438e+01 4.487917423248291016e+00 1.572356343269348145e+00 5.583293914794921875e+00 2.146695137023925781e+00 -2.672961711883544922e+00
8.930000000000000000e+02 3.023022842407226562e+01 1.064329624176025391e+01 4.034481048583984375e+00 7.541393756866455078e+00 3.472762346267700195e+00 4.917494773864746094e+00
8.940000000000000000e+02 7.496467590332031250e+01 -9.484744071960449219e+00 1.197218060493469238e+00 1.208189868927001953e+01 3.983735084533691406e+00 2.007143020629882812e+00
8.950000000000000000e+02 6.543694305419921875e+01 -8.339052200317382812e+00 1.819776892662048340e+00 1.092423820495605469e+01 3.823204517364501953e+00 -2.249328851699829102e+00
8.960000000000000000e+02 6.393283462524414062e+01 -5.681051254272460938e+00 1.932321429252624512e+00 9.912701606750488281e+00 3.553506851196289062e+00 -8.940048515796661377e-02
8.970000000000000000e+02 6.602814483642578125e+01 2.727672767639160156e+01 2.048881053924560547e+00 5.048579692840576172e+00 2.129238367080688477e+00 1.018859505653381348e+00
8.980000000000000000e+02 6.020651626586914062e+01 2.360091209411621094e+01 -2.238021135330200195e+00 1.130210280418395996e+00 -3.323433101177215576e-01 1.088065981864929199e+00
8.990000000000000000e+02 5.525373840332031250e+01 3.384655380249023438e+01 1.981614828109741211e+00 4.186407566070556641e+00 1.850406765937805176e+00 2.964324712753295898e+00
9.000000000000000000e+02 6.345695114135742188e+01 4.125522613525390625e+01 -3.184146285057067871e-01 3.070390701293945312e+00 8.255928158760070801e-01 -1.156560927629470825e-01
9.010000000000000000e+02 4.787602615356445312e+01 2.974887466430664062e+01 1.007242083549499512e+00 7.140557765960693359e+00 2.444339990615844727e+00 6.256796717643737793e-01
9.020000000000000000e+02 4.605265045166015625e+01 2.624572753906250000e+01 9.424222707748413086e-01 1.230634975433349609e+01 3.974631547927856445e+00 1.722146391868591309e+00
9.030000000000000000e+02 4.344691085815429688e+01 2.238138580322265625e+01 1.038514018058776855e+00 2.808916091918945312e+00 1.154229044914245605e+00 2.361471414566040039e+00
9.040000000000000000e+02 3.579159164428710938e+01 2.532623100280761719e+01 1.449198126792907715e+00 8.463294029235839844e+00 2.973747730255126953e+00 -2.374021291732788086e+00
9.050000000000000000e+02 3.181718826293945312e+01 2.045297813415527344e+01 1.598343849182128906e-01 1.114047718048095703e+01 3.390093564987182617e+00 3.893262520432472229e-02
9.060000000000000000e+02 3.217090606689453125e+01 1.685066413879394531e+01 3.449842929840087891e+00 9.537733078002929688e+00 3.896272897720336914e+00 2.324711084365844727e+00
9.070000000000000000e+02 2.835088920593261719e+01 1.514961528778076172e+01 -5.251645088195800781e+00 6.393593549728393555e-01 -1.383685708045959473e+00 1.119121432304382324e+00
9.080000000000000000e+02 2.244464874267578125e+01 1.892206764221191406e+01 1.402015537023544312e-01 1.210940933227539062e+01 3.674883127212524414e+00 -1.960140824317932129e+00
9.090000000000000000e+02 2.170441436767578125e+01 2.726974868774414062e+01 -2.559396326541900635e-01 8.900993347167968750e+00 2.593516349792480469e+00 -6.196966171264648438e-01
9.100000000000000000e+02 7.102683258056640625e+01 1.644742584228515625e+01 1.469536304473876953e+00 6.978101253509521484e+00 2.534291267395019531e+00 -2.891065359115600586e+00
9.110000000000000000e+02 7.287165832519531250e+01 1.155377197265625000e+01 1.485180377960205078e+00 1.206372261047363281e+01 4.064671039581298828e+00 6.981761455535888672e-01
9.120000000000000000e+02 6.110092926025390625e+01 1.063792514801025391e+01 1.680704712867736816e+00 7.477849960327148438e+00 2.747566223144531250e+00 -2.182388305664062500e+00
9.130000000000000000e+02 6.074485397338867188e+01 1.479884433746337891e+01 7.458484172821044922e-01 1.181355762481689453e+01 3.767821788787841797e+00 1.476645112037658691e+00
9.140000000000000000e+02 6.207775115966796875e+01 1.857815551757812500e+01 3.288329124450683594e+00 8.297276496887207031e+00 3.475681543350219727e+00 4.676410198211669922e+00
9.150000000000000000e+02 1.371038436889648438e+01 3.479174423217773438e+01 -1.472455620765686035e+00 1.351817548274993896e-01 -4.011821746826171875e-01 -1.239401027560234070e-01
9.160000000000000000e+02 1.515287971496582031e+01 3.432759475708007812e+01 -8.614333271980285645e-01 6.621891260147094727e-02 -2.385643273591995239e-01 -2.528626024723052979e-01
9.170000000000000000e+02 1.996242332458496094e+01 3.212330627441406250e+01 8.044164776802062988e-01 7.119657516479492188e+00 2.377222061157226562e+00 -9.270682930946350098e-01
9.180000000000000000e+02 2.302006530761718750e+01 2.546669769287109375e+01 5.037612318992614746e-01 9.075282096862792969e+00 2.873712778091430664e+00 1.903216004371643066e+00
9.190000000000000000e+02 1.427795982360839844e+01 2.183114242553710938e+01 -6.711117029190063477e-01 -4.471526145935058594e-01 -3.354792892932891846e-01 3.297874927520751953e-01
9.200000000000000000e+02 1.300810909271240234e+01 2.271254730224609375e+01 -1.112708687782287598e+00 -2.178085409104824066e-02 -3.403468728065490723e-01 2.277772426605224609e-01
9.210000000000000000e+02 6.581369876861572266e+00 2.551469230651855469e+01 1.939638495445251465e+00 5.759541988372802734e+00 2.309754133224487305e+00 -2.982297182083129883e+00
9.220000000000000000e+02 7.634466648101806641e+00 3.366345977783203125e+01 -6.896679997444152832e-01 4.512608945369720459e-01 -7.152213156223297119e-02 -3.720589280128479004e-01
9.230000000000000000e+02 3.127130889892578125e+01 1.588780164718627930e+00 -2.330017805099487305e+00 3.692917823791503906e+00 4.088699817657470703e-01 -1.115728735923767090e+00
9.240000000000000000e+02 2.988963890075683594e+01 -6.079851150512695312e+00 5.265163779258728027e-01 9.351389884948730469e+00 2.963371753692626953e+00 -1.030416965484619141e+00
9.250000000000000000e+02 2.955196189880371094e+01 -9.565220832824707031e+00 2.154950857162475586e+00 9.870124816894531250e+00 3.607522726058959961e+00 3.058524370193481445e+00
9.260000000000000000e+02 2.635026741027832031e+01 -1.360800457000732422e+01 -3.106316804885864258e+00 1.727584600448608398e+00 -4.136196672916412354e-01 4.393533170223236084e-01
9.270000000000000000e+02 2.380718231201171875e+01 -1.377089309692382812e+01 -6.317418575286865234e+00 -5.152024030685424805e-01 -2.049786329269409180e+00 -1.038796901702880859e+00
9.280000000000000000e+02 1.698942184448242188e+01 -5.904264450073242188e+00 5.522633194923400879e-01 1.328404808044433594e+01 4.150893211364746094e+00 3.629713058471679688e-01
9.290000000000000000e+02 1.438137245178222656e+01 -1.299261450767517090e+00 1.658947229385375977e+00 1.222472763061523438e+01 4.165102481842041016e+00 -1.666522383689880371e+00
9.300000000000000000e+02 2.423913192749023438e+01 -3.006082344055175781e+01 8.389118313789367676e-01 7.176531791687011719e+00 2.404633045196533203e+00 -1.854487299919128418e+00
9.310000000000000000e+02 2.497422790527343750e+01 -3.631370544433593750e+01 2.763317525386810303e-01 8.002186775207519531e+00 2.483555555343627930e+00 4.388292431831359863e-01
9.320000000000000000e+02 1.890402221679687500e+01 -4.086129379272460938e+01 -3.256280422210693359e+00 -7.006242871284484863e-01 -1.187071442604064941e+00 -3.672858476638793945e-01
9.330000000000000000e+02 1.270155143737792969e+01 -3.380242156982421875e+01 4.345343112945556641e-01 6.044642925262451172e+00 1.943753123283386230e+00 8.261886239051818848e-01
9.340000000000000000e+02 1.299100494384765625e+01 -3.241477584838867188e+01 9.146788716316223145e-01 7.005444049835205078e+00 2.376036882400512695e+00 1.798364758491516113e+00
9.350000000000000000e+02 1.595163631439208984e+01 -2.750855064392089844e+01 7.998607158660888672e-01 3.397044181823730469e+00 1.259071469306945801e+00 2.221414089202880859e+00
9.360000000000000000e+02 3.890388870239257812e+01 -1.863965034484863281e+01 1.910994529724121094e+00 6.712437629699707031e+00 2.587029695510864258e+00 -3.078989267349243164e+00
9.370000000000000000e+02 3.958436584472656250e+01 -2.106055068969726562e+01 1.296104788780212402e+00 8.773278236389160156e+00 3.020814657211303711e+00 -1.430559992790222168e+00
9.380000000000000000e+02 3.607754135131835938e+01 -2.868483352661132812e+01 -3.665310621261596680e+00 8.094760030508041382e-02 -1.075308918952941895e+00 -1.348192840814590454e-01
9.390000000000000000e+02 3.025295448303222656e+01 -1.733482742309570312e+01 1.215538620948791504e+00 6.734945774078369141e+00 2.385145425796508789e+00 2.984056472778320312e+00
9.400000000000000000e+02 1.757963371276855469e+01 1.787856674194335938e+01 -3.910453081130981445e+00 -1.304608464241027832e+00 -1.564518451690673828e+00 2.059733390808105469e+00
9.410000000000000000e+02 1.511258697509765625e+01 6.463726520538330078e+00 -6.432181358337402344e+00 1.435818970203399658e-01 -1.886579751968383789e+00 5.704339146614074707e-01
9.420000000000000000e+02 9.440631866455078125e+00 9.816714286804199219e+00 2.481997728347778320e+00 8.912196159362792969e+00 3.418257951736450195e+00 -2.457752943038940430e+00
9.430000000000000000e+02 1.011791801452636719e+01 1.555679416656494141e+01 6.356260776519775391e-01 5.095135688781738281e+00 1.719228506088256836e+00 1.178220629692077637e+00
9.440000000000000000e+02 5.474359893798828125e+01 8.969307899475097656e+00 1.482742190361022949e+00 1.241968727111816406e+01 4.170728683471679688e+00 2.272514820098876953e+00
9.450000000000000000e+02 4.303113555908203125e+01 7.337713241577148438e+00 4.164794981479644775e-01 6.891851902008056641e+00 2.192499399185180664e+00 9.922315925359725952e-02
9.460000000000000000e+02 1.643028640747070312e+01 -1.602034378051757812e+01 6.263694167137145996e-01 9.655973434448242188e+00 3.084702730178833008e+00 -9.409755468368530273e-01
9.470000000000000000e+02 1.375751495361328125e+01 -2.807327842712402344e+01 6.302874684333801270e-01 4.359128952026367188e+00 1.496824979782104492e+00 2.022511720657348633e+00
9.480000000000000000e+02 7.823671340942382812e+00 -1.387260341644287109e+01 2.288574695587158203e+00 3.043525218963623047e+00 1.599629878997802734e+00 2.452270030975341797e+00
9.490000000000000000e+02 6.430119323730468750e+01 -3.969874572753906250e+01 -1.474509835243225098e+00 1.873355984687805176e+00 1.196538209915161133e-01 7.369916439056396484e-01
9.500000000000000000e+02 5.613974380493164062e+01 -3.190422058105468750e+01 1.359726905822753906e+00 1.152950668334960938e+01 3.866770029067993164e+00 1.991642713546752930e+00
9.510000000000000000e+02 5.240950012207031250e+01 -7.491463184356689453e+00 1.887167930603027344e+00 7.683462619781494141e+00 2.871189117431640625e+00 -1.606301546096801758e+00
9.520000000000000000e+02 3.985969543457031250e+01 -1.252834129333496094e+01 4.419313669204711914e-01 3.459580898284912109e+00 1.170453667640686035e+00 -1.992815256118774414e+00
9.530000000000000000e+02 3.703343963623046875e+01 -1.031987094879150391e+01 2.875646352767944336e+00 7.646523475646972656e+00 3.156650781631469727e+00 -3.079834938049316406e+00
9.540000000000000000e+02 3.961981964111328125e+01 -3.132079124450683594e+00 -8.784534335136413574e-01 2.299460649490356445e+00 4.263021647930145264e-01 1.814288616180419922e+00
9.550000000000000000e+02 7.343930053710937500e+01 -1.802264785766601562e+01 3.783263564109802246e-01 6.593138694763183594e+00 2.091439485549926758e+00 -1.077641367912292480e+00
9.560000000000000000e+02 5.509620666503906250e+01 -2.327545547485351562e+01 2.002702713012695312e+00 1.021004295349121094e+01 3.663823604583740234e+00 3.285683393478393555e+00
9.570000000000000000e+02 9.329023361206054688e+00 1.730307936668395996e+00 1.083851575851440430e+00 4.328921139240264893e-01 4.550231099128723145e-01 -1.289013743400573730e+00
9.580000000000000000e+02 7.814595222473144531e+00 1.777161955833435059e+00 2.627546526491641998e-02 3.191712498664855957e-01 1.036340147256851196e-01 -5.041106939315795898e-01
9.590000000000000000e+02 7.025767803192138672e+00 1.812518715858459473e+00 -2.356653064489364624e-01 3.119784295558929443e-01 2.289393171668052673e-02 -2.380651384592056274e-01
9.600000000000000000e+02 5.418103218078613281e+00 1.859690904617309570e+00 -4.223600924015045166e-01 1.981650739908218384e-01 -6.725849956274032593e-02 1.868972629308700562e-01
9.610000000000000000e+02 4.604331493377685547e+00 1.878515362739562988e+00 -4.033242762088775635e-01 1.437035650014877319e-01 -7.788621634244918823e-02 3.255669176578521729e-01
9.620000000000000000e+02 5.465378761291503906e-01 3.627132415771484375e+00 -1.911554113030433655e-02 -7.463951706886291504e-01 -2.296532094478607178e-01 1.784627586603164673e-01
9.630000000000000000e+02 4.461283206939697266e+00 7.375843524932861328e+00 5.165371298789978027e-01 1.347294926643371582e+00 5.591496229171752930e-01 1.722950637340545654e-01
9.640000000000000000e+02 2.140662670135498047e+00 2.043170928955078125e+00 -1.760555654764175415e-01 -1.484636366367340088e-01 -9.735576063394546509e-02 4.154743850231170654e-01
9.650000000000000000e+02 1.070422458648681641e+01 1.832509398460388184e+00 3.162037611007690430e+00 9.427532553672790527e-01 1.231437206268310547e+00 -2.701354980468750000e+00
9.660000000000000000e+02 1.029649353027343750e+01 1.784973382949829102e+00 2.450316190719604492e+00 6.508214473724365234e-01 9.303413033485412598e-01 -2.099136114120483398e+00
9.670000000000000000e+02 1.089807319641113281e+01 1.867448925971984863e+00 3.503070116043090820e+00 1.125708937644958496e+00 1.388633728027343750e+00 -3.153144836425781250e+00
9.680000000000000000e+02 1.168593883514404297e+01 2.131112337112426758e+00 4.322273254394531250e+00 3.709137916564941406e+00 2.409423351287841797e+00 -5.282922744750976562e+00
9.690000000000000000e+02 1.212083435058593750e+01 2.226548671722412109e+00 3.909341812133789062e+00 6.264048099517822266e+00 3.052016973495483398e+00 -6.015171527862548828e+00
9.700000000000000000e+02 1.189661407470703125e+01 2.182054758071899414e+00 4.154547691345214844e+00 4.833752632141113281e+00 2.696490049362182617e+00 -5.619957447052001953e+00
9.710000000000000000e+02 1.279119300842285156e+01 -1.125213146209716797e+00 8.224744200706481934e-01 1.108927822113037109e+01 3.573525667190551758e+00 3.303684473037719727e+00
9.720000000000000000e+02 1.203306579589843750e+01 -1.272568941116333008e+00 1.725851416587829590e+00 5.843020439147949219e+00 2.270661592483520508e+00 3.514286518096923828e+00
9.730000000000000000e+02 1.182609462738037109e+01 -1.332107305526733398e+00 1.798170089721679688e+00 4.822486877441406250e+00 1.986197113990783691e+00 3.247469663619995117e+00
9.740000000000000000e+02 1.221632289886474609e+01 -1.200019478797912598e+00 1.653929233551025391e+00 6.733593463897705078e+00 2.516256809234619141e+00 3.791356563568115234e+00
9.750000000000000000e+02 1.134213924407958984e+01 -1.820225238800048828e+00 1.652909874916076660e+00 3.576483011245727539e+00 1.568817853927612305e+00 2.437334537506103516e+00
9.760000000000000000e+02 1.106713771820068359e+01 -1.586530566215515137e+00 1.816086292266845703e+00 2.444002389907836914e+00 1.278026580810546875e+00 2.110393285751342773e+00
9.770000000000000000e+02 1.073392677307128906e+01 -1.599482417106628418e+00 1.650974392890930176e+00 1.825085282325744629e+00 1.042817950248718262e+00 1.699150919914245605e+00
9.780000000000000000e+02 1.049787521362304688e+01 -1.725115537643432617e+00 1.557196378707885742e+00 1.529149889945983887e+00 9.259038567543029785e-01 1.442405581474304199e+00
9.790000000000000000e+02 1.019686698913574219e+01 -1.789975285530090332e+00 1.401458144187927246e+00 1.173385858535766602e+00 7.724531888961791992e-01 1.247312426567077637e+00
9.800000000000000000e+02 7.406797409057617188e+00 -1.835870504379272461e+00 2.899651825428009033e-01 6.015620380640029907e-02 1.050364151597023010e-01 3.417089208960533142e-02
9.810000000000000000e+02 8.178022384643554688e+00 -1.839501976966857910e+00 5.261164307594299316e-01 1.580954343080520630e-01 2.052635699510574341e-01 1.392268985509872437e-01
9.820000000000000000e+02 6.632277011871337891e+00 -1.843437671661376953e+00 1.451961100101470947e-01 4.103769734501838684e-02 5.587014183402061462e-02 -6.174240633845329285e-02
9.830000000000000000e+02 5.087059020996093750e+00 -1.879933238029479980e+00 -6.049920804798603058e-03 1.197881903499364853e-02 1.778669538907706738e-03 -1.373099237680435181e-01
9.840000000000000000e+02 3.702510595321655273e+00 -2.630229473114013672e+00 8.956343680620193481e-02 6.422134581953287125e-03 2.879567071795463562e-02 -1.227125301957130432e-01
9.850000000000000000e+02 2.026685237884521484e+00 -2.080680131912231445e+00 -3.767504915595054626e-02 -5.990665033459663391e-02 -2.927450835704803467e-02 -1.560853272676467896e-01
9.860000000000000000e+02 1.228736042976379395e+00 -2.166366100311279297e+00 -1.628057286143302917e-02 -1.010208651423454285e-01 -3.519042953848838806e-02 -1.179585009813308716e-01
9.870000000000000000e+02 4.115227758884429932e-01 -2.200380563735961914e+00 1.171239279210567474e-02 -1.501699686050415039e-01 -4.153727367520332336e-02 -4.613688960671424866e-02
9.880000000000000000e+02 2.077173948287963867e+00 -4.162347793579101562e+01 -1.417884081602096558e-01 3.926351547241210938e+00 1.135368943214416504e+00 4.065084084868431091e-02
9.890000000000000000e+02 5.313210964202880859e+00 -3.752605438232421875e+01 -7.556525617837905884e-02 3.478593111038208008e+00 1.020908355712890625e+00 6.218586564064025879e-01
9.900000000000000000e+02 1.112439751625061035e+00 -3.863102340698242188e+01 -2.365360595285892487e-02 3.736556291580200195e+00 1.113870739936828613e+00 1.110699772834777832e-01
9.910000000000000000e+02 7.135563492774963379e-01 -3.451670837402343750e+01 4.475783556699752808e-02 3.301495075225830078e+00 1.003875851631164551e+00 3.794829547405242920e-02
9.920000000000000000e+02 6.608138680458068848e-01 -3.312554931640625000e+01 8.152099326252937317e-03 3.272264480590820312e+00 9.841249585151672363e-01 -2.642433345317840576e-02
9.930000000000000000e+02 5.657300353050231934e-01 -2.895268249511718750e+01 2.075582928955554962e-02 3.956799268722534180e+00 1.193266510963439941e+00 -1.697553396224975586e-01
9.940000000000000000e+02 5.716065168380737305e-01 -2.755571746826171875e+01 -2.880596928298473358e-02 4.387741088867187500e+00 1.307680487632751465e+00 -1.680651456117630005e-01
9.950000000000000000e+02 1.683279991149902344e+00 -2.738696479797363281e+01 -7.021415978670120239e-02 3.874436140060424805e+00 1.141266584396362305e+00 -4.488469064235687256e-01
9.960000000000000000e+02 2.140593051910400391e+00 -2.298442649841308594e+01 -8.327632546424865723e-01 3.924557447433471680e+00 9.275382161140441895e-01 8.286455273628234863e-01
9.970000000000000000e+02 7.333660721778869629e-01 -2.179351234436035156e+01 -7.939839363098144531e-02 3.494398117065429688e+00 1.024499893188476562e+00 7.095384001731872559e-01
9.980000000000000000e+02 7.156916260719299316e-01 -2.035577011108398438e+01 -2.716574445366859436e-02 2.031029939651489258e+00 6.011592745780944824e-01 8.316786289215087891e-01
9.990000000000000000e+02 2.134220838546752930e+00 -1.701709938049316406e+01 5.837931036949157715e-01 2.115877866744995117e+00 8.099012970924377441e-01 6.802923679351806641e-01
1.000000000000000000e+03 6.213685870170593262e-01 -1.474514007568359375e+01 1.016264557838439941e-01 -9.703659415245056152e-01 -2.606218457221984863e-01 -5.200744792819023132e-02
1.001000000000000000e+03 5.851995944976806641e-01 -1.335887527465820312e+01 -4.828840121626853943e-02 -7.472125887870788574e-01 -2.386503070592880249e-01 -1.582524925470352173e-01
1.002000000000000000e+03 1.760843992233276367e+00 -1.301544570922851562e+01 -2.914565615355968475e-02 7.355394959449768066e-01 2.119181603193283081e-01 -2.299986183643341064e-01
1.003000000000000000e+03 5.144690275192260742e-01 -9.193242073059082031e+00 -2.127146814018487930e-03 -2.099171727895736694e-01 -6.361329555511474609e-02 2.486325241625308990e-02
1.004000000000000000e+03 5.036313533782958984e-01 -7.806454181671142578e+00 -2.461905125528573990e-03 -2.799732089042663574e-01 -8.473053574562072754e-02 2.918079681694507599e-02
1.005000000000000000e+03 5.000510215759277344e-01 -6.412904739379882812e+00 7.529317867010831833e-03 -3.553172647953033447e-01 -1.043363884091377258e-01 2.451086416840553284e-02
1.006000000000000000e+03 7.160674285888671875e+01 -4.124647521972656250e+01 -7.668458223342895508e-01 6.382396697998046875e+00 1.684665203094482422e+00 -2.328631430864334106e-01
1.007000000000000000e+03 3.228240966796875000e+01 -4.126065063476562500e+01 -1.288684010505676270e+00 4.892099380493164062e+00 1.081024527549743652e+00 4.108462855219841003e-02
1.008000000000000000e+03 1.186659717559814453e+01 -3.907098770141601562e+01 -1.468366146087646484e+00 3.110801935195922852e+00 4.927307367324829102e-01 4.802842140197753906e-01
1.009000000000000000e+03 7.873306274414062500e+01 4.039310455322265625e+01 -1.128552574664354324e-02 7.392803668975830078e+00 2.214455366134643555e+00 -7.167115807533264160e-02
1.010000000000000000e+03 7.811672973632812500e+01 4.177497482299804688e+01 8.843869715929031372e-02 7.337190151214599609e+00 2.227688550949096680e+00 -2.477494440972805023e-02
1.011000000000000000e+03 7.885250091552734375e+01 3.902566909790039062e+01 -1.183620095252990723e-01 7.432553291320800781e+00 2.194257259368896484e+00 1.719356980174779892e-03
1.012000000000000000e+03 7.765131378173828125e+01 3.626059341430664062e+01 4.133578017354011536e-02 7.025669574737548828e+00 2.120101690292358398e+00 1.610929667949676514e-01
1.013000000000000000e+03 7.919217681884765625e+01 3.486752319335937500e+01 2.941933833062648773e-02 7.228654384613037109e+00 2.177422046661376953e+00 5.152547731995582581e-02
1.014000000000000000e+03 7.748637390136718750e+01 3.356707382202148438e+01 5.295902863144874573e-02 6.899658203125000000e+00 2.085785150527954102e+00 1.132254078984260559e-01
1.015000000000000000e+03 7.918331909179687500e+01 3.348339462280273438e+01 -7.896145805716514587e-03 7.164690017700195312e+00 2.147038221359252930e+00 3.412262350320816040e-02
1.016000000000000000e+03 7.925938415527343750e+01 3.067917442321777344e+01 7.103206007741391659e-04 7.123784065246582031e+00 2.137348413467407227e+00 -3.461137413978576660e-03
1.017000000000000000e+03 7.676837158203125000e+01 2.779022979736328125e+01 9.728550165891647339e-02 6.687208652496337891e+00 2.035348176956176758e+00 -2.253569513559341431e-01
1.018000000000000000e+03 7.936631774902343750e+01 2.648553848266601562e+01 9.109123609960079193e-03 7.423850536346435547e+00 2.229887962341308594e+00 -6.732802838087081909e-02
1.019000000000000000e+03 7.689337921142578125e+01 2.511963081359863281e+01 -7.397345453500747681e-02 6.905508518218994141e+00 2.049460411071777344e+00 -2.988954782485961914e-01
1.020000000000000000e+03 7.937918853759765625e+01 2.509869384765625000e+01 -1.316691841930150986e-02 7.586915493011474609e+00 2.272124528884887695e+00 -6.397462636232376099e-02
1.021000000000000000e+03 7.938741302490234375e+01 2.095152282714843750e+01 -4.299695044755935669e-02 7.641489982604980469e+00 2.279547929763793945e+00 9.550981968641281128e-02
1.022000000000000000e+03 7.937649536132812500e+01 1.956440734863281250e+01 -3.411423414945602417e-02 7.345676422119140625e+00 2.193468809127807617e+00 1.813565939664840698e-01
1.023000000000000000e+03 7.814367675781250000e+01 1.968648529052734375e+01 -1.725634187459945679e-01 7.308560371398925781e+00 2.140799045562744141e+00 4.044275283813476562e-01
1.024000000000000000e+03 7.935678863525390625e+01 1.816324234008789062e+01 -3.459157794713973999e-02 6.879062652587890625e+00 2.053341388702392578e+00 2.597233951091766357e-01
1.025000000000000000e+03 7.942228698730468750e+01 1.399050712585449219e+01 8.224838972091674805e-02 5.372249126434326172e+00 1.636349201202392578e+00 1.382775455713272095e-01
1.026000000000000000e+03 7.833198547363281250e+01 1.276337718963623047e+01 2.992652952671051025e-01 6.155873298645019531e+00 1.936541557312011719e+00 3.685376793146133423e-02
1.027000000000000000e+03 7.943811035156250000e+01 1.124813747406005859e+01 7.346010953187942505e-02 5.404164314270019531e+00 1.643287301063537598e+00 -1.324343979358673096e-01
1.028000000000000000e+03 7.930796813964843750e+01 7.106297492980957031e+00 4.692312330007553101e-03 7.366433143615722656e+00 2.211337566375732422e+00 -3.759062886238098145e-01
1.029000000000000000e+03 7.929707336425781250e+01 5.705209732055664062e+00 5.690993275493383408e-03 8.098312377929687500e+00 2.431200981140136719e+00 -3.863314390182495117e-01
1.030000000000000000e+03 7.933778381347656250e+01 4.296056747436523438e+00 -4.602186009287834167e-02 8.814980506896972656e+00 2.630687475204467773e+00 -3.351177275180816650e-01
1.031000000000000000e+03 7.936309051513671875e+01 1.565851271152496338e-01 -8.897389285266399384e-03 9.950651168823242188e+00 2.982526063919067383e+00 -4.073895514011383057e-02
1.032000000000000000e+03 7.934786224365234375e+01 -1.229620695114135742e+00 -1.713996976613998413e-01 9.738021850585937500e+00 2.869986534118652344e+00 1.991297900676727295e-01
1.033000000000000000e+03 7.931694030761718750e+01 -2.643617391586303711e+00 1.267579733394086361e-03 9.164694786071777344e+00 2.749788761138916016e+00 3.369475603103637695e-01
1.034000000000000000e+03 7.930371093750000000e+01 -4.088637351989746094e+00 -5.657578259706497192e-02 8.440933227539062500e+00 2.515307188034057617e+00 4.032321274280548096e-01
1.035000000000000000e+03 7.790110015869140625e+01 -8.513217926025390625e+00 5.802135467529296875e-01 9.408249855041503906e+00 2.996539115905761719e+00 -9.004771709442138672e-01
1.036000000000000000e+03 7.931433105468750000e+01 -8.395071983337402344e+00 2.397342212498188019e-02 7.972908496856689453e+00 2.399064540863037109e+00 -3.555512428283691406e-01
1.037000000000000000e+03 7.939220428466796875e+01 -1.113303184509277344e+01 -1.833651512861251831e-01 9.886302947998046875e+00 2.910881280899047852e+00 -4.240432083606719971e-01
1.038000000000000000e+03 7.928367614746093750e+01 -1.527683734893798828e+01 -1.931681483983993530e-01 1.021653366088867188e+01 3.007009744644165039e+00 3.020342588424682617e-01
1.039000000000000000e+03 7.379718017578125000e+01 -1.644389533996582031e+01 -6.424747109413146973e-01 5.407082557678222656e+00 1.429382324218750000e+00 2.068195790052413940e-01
1.040000000000000000e+03 7.935646820068359375e+01 -1.808795928955078125e+01 -8.094731718301773071e-02 8.574399948120117188e+00 2.548035860061645508e+00 4.529791474342346191e-01
1.041000000000000000e+03 7.385234069824218750e+01 -2.203387069702148438e+01 7.012236714363098145e-01 1.343527412414550781e+01 4.240949153900146484e+00 5.033217072486877441e-01
1.042000000000000000e+03 7.816523742675781250e+01 -2.239468002319335938e+01 3.480685055255889893e-01 7.452682971954345703e+00 2.340225458145141602e+00 2.097174227237701416e-01
1.043000000000000000e+03 7.945478820800781250e+01 -2.505610847473144531e+01 2.247195504605770111e-02 6.722763538360595703e+00 2.023570537567138672e+00 -2.026719748973846436e-01
1.044000000000000000e+03 7.737923431396484375e+01 -2.674185562133789062e+01 -3.003129065036773682e-01 7.713912010192871094e+00 2.224079847335815430e+00 -3.111092448234558105e-01
1.045000000000000000e+03 7.940634155273437500e+01 -2.914175224304199219e+01 -3.749579191207885742e-02 7.628098011016845703e+00 2.277180671691894531e+00 -2.089332044124603271e-02
1.046000000000000000e+03 7.809977722167968750e+01 -3.159563255310058594e+01 4.633132740855216980e-02 7.319629669189453125e+00 2.209788322448730469e+00 6.045351177453994751e-02
1.047000000000000000e+03 7.937498474121093750e+01 -3.190608596801757812e+01 -2.593571320176124573e-02 7.564908027648925781e+00 2.261691808700561523e+00 3.119520843029022217e-02
1.048000000000000000e+03 7.926869964599609375e+01 -3.600458526611328125e+01 4.191444441676139832e-02 7.539889335632324219e+00 2.274541139602661133e+00 -3.257714584469795227e-02
1.049000000000000000e+03 7.913056945800781250e+01 -3.734924697875976562e+01 -2.628341875970363617e-02 7.585037231445312500e+00 2.267626047134399414e+00 -2.676721848547458649e-02
1.050000000000000000e+03 7.889725494384765625e+01 -3.867705535888671875e+01 4.754421114921569824e-02 7.657187938690185547e+00 2.311419725418090820e+00 -6.462852656841278076e-02
1.051000000000000000e+03 7.853785705566406250e+01 -4.005293273925781250e+01 -5.330329760909080505e-02 7.699856758117675781e+00 2.293966054916381836e+00 -3.246815130114555359e-02
1.052000000000000000e+03 2.451536750793457031e+01 3.845956420898437500e+01 -8.510668277740478516e-01 4.010030269622802734e+00 9.476890563964843750e-01 5.819542333483695984e-02
1.053000000000000000e+03 6.778234863281250000e+01 4.137604904174804688e+01 -5.695050954818725586e-01 4.883547782897949219e+00 1.294212818145751953e+00 3.136130049824714661e-02
1.054000000000000000e+03 4.393615424633026123e-01 2.197412490844726562e+00 -2.725762501358985901e-02 -3.053592145442962646e-01 -9.978505223989486694e-02 1.068828999996185303e-01
1.055000000000000000e+03 1.543322801589965820e+00 3.419825553894042969e+00 -2.252260036766529083e-02 -4.319836199283599854e-01 -1.363518685102462769e-01 4.205728471279144287e-01
1.056000000000000000e+03 4.802141666412353516e+00 2.624844312667846680e+00 -1.836302727460861206e-01 2.930970489978790283e-01 3.284003213047981262e-02 2.984641492366790771e-01
1.057000000000000000e+03 2.954507112503051758e+00 5.023266315460205078e+00 6.560717523097991943e-02 -1.847127079963684082e-02 1.414077170193195343e-02 4.931190907955169678e-01
1.058000000000000000e+03 5.165909528732299805e-01 9.283763885498046875e+00 2.464236877858638763e-02 -2.107440948486328125e+00 -6.248395442962646484e-01 1.352791767567396164e-02
1.059000000000000000e+03 5.240821242332458496e-01 1.207366085052490234e+01 3.247999772429466248e-02 -1.765234231948852539e+00 -5.198262929916381836e-01 -1.553802788257598877e-01
1.060000000000000000e+03 1.584910392761230469e+00 1.201361560821533203e+01 1.506833881139755249e-01 -6.565759778022766113e-01 -1.517677754163742065e-01 -4.166837036609649658e-01
1.061000000000000000e+03 5.963399410247802734e-01 1.623975372314453125e+01 3.123719070572406054e-04 2.011961489915847778e-01 6.045255437493324280e-02 -3.190781772136688232e-01
1.062000000000000000e+03 2.000646591186523438e+00 1.741617584228515625e+01 -1.710355877876281738e-01 1.393822312355041504e+00 3.668360114097595215e-01 -7.809872031211853027e-01
1.063000000000000000e+03 6.579673290252685547e-01 1.765605354309082031e+01 -1.977377571165561676e-02 8.906063437461853027e-01 2.612497806549072266e-01 -2.946404218673706055e-01
1.064000000000000000e+03 5.665287971496582031e-01 2.194077491760253906e+01 -1.387148499488830566e-01 1.800823569297790527e+00 4.986326098442077637e-01 4.168592393398284912e-02
1.065000000000000000e+03 4.237682819366455078e+00 2.413769531250000000e+01 -1.512119472026824951e-01 4.191411972045898438e+00 1.212059974670410156e+00 -4.083554819226264954e-02
1.066000000000000000e+03 4.680173873901367188e+00 2.520911598205566406e+01 5.991367101669311523e-01 4.692507743835449219e+00 1.587493419647216797e+00 -3.310286700725555420e-01
1.067000000000000000e+03 2.132332086563110352e+00 2.921830368041992188e+01 1.544912904500961304e-01 3.163463354110717773e+00 9.953864216804504395e-01 -1.022978067398071289e+00
1.068000000000000000e+03 6.475157737731933594e-01 3.050483322143554688e+01 -6.423763185739517212e-02 2.822986841201782227e+00 8.276247382164001465e-01 -4.130786061286926270e-01
1.069000000000000000e+03 3.666936159133911133e+00 3.035040664672851562e+01 2.721481025218963623e-01 4.485889434814453125e+00 1.427411317825317383e+00 -1.031200170516967773e+00
1.070000000000000000e+03 7.229582667350769043e-01 3.615401840209960938e+01 5.532696377485990524e-03 5.178757667541503906e+00 1.555287003517150879e+00 -1.171033084392547607e-01
1.071000000000000000e+03 1.954268217086791992e+00 3.777259826660156250e+01 -1.260831803083419800e-01 4.460024356842041016e+00 1.300182342529296875e+00 5.503024533390998840e-02
1.072000000000000000e+03 7.785254716873168945e-01 3.871963119506835938e+01 9.391804784536361694e-02 5.057671070098876953e+00 1.545476675033569336e+00 8.902880549430847168e-02
1.073000000000000000e+03 1.260650873184204102e+00 4.000468826293945312e+01 -1.978594809770584106e-01 4.715432643890380859e+00 1.355272054672241211e+00 2.790585756301879883e-01
1.074000000000000000e+03 1.316491985321044922e+01 -1.052778244018554688e+00 2.465489059686660767e-01 1.382814502716064453e+01 4.222408294677734375e+00 1.987153053283691406e+00
1.075000000000000000e+03 9.676496505737304688e+00 -1.829251170158386230e+00 1.128621101379394531e+00 6.958166360855102539e-01 5.473312735557556152e-01 7.701928019523620605e-01
1.076000000000000000e+03 1.140256309509277344e+01 -1.375490069389343262e+00 1.773551464080810547e+00 3.066471815109252930e+00 1.452006936073303223e+00 2.552789211273193359e+00
1.077000000000000000e+03 1.089488601684570312e+01 -1.466383934020996094e+00 1.742911934852600098e+00 1.858485221862792969e+00 1.080419182777404785e+00 1.883585691452026367e+00
1.078000000000000000e+03 1.100840568542480469e+01 -1.832351088523864746e+00 1.641800522804260254e+00 2.556525945663452148e+00 1.259498000144958496e+00 2.081282615661621094e+00
1.079000000000000000e+03 9.573472976684570312e+00 -2.537386417388916016e+00 1.447390913963317871e+00 1.093542933464050293e+00 7.622801661491394043e-01 9.992645978927612305e-01
1.080000000000000000e+03 1.143976974487304688e+01 8.292165756225585938e+00 2.093993902206420898e+00 3.893296003341674805e+00 1.796186923980712891e+00 -2.929457187652587891e+00
1.081000000000000000e+03 1.250595092773437500e+01 7.339627742767333984e+00 -1.391133069992065430e+00 2.371808290481567383e+00 2.942025959491729736e-01 -1.385510563850402832e+00
1.082000000000000000e+03 1.233826351165771484e+01 2.258589029312133789e+00 3.701070070266723633e+00 7.538535594940185547e+00 3.371881723403930664e+00 -5.901342868804931641e+00
1.083000000000000000e+03 1.148653888702392578e+01 2.455111742019653320e+00 3.618676185607910156e+00 3.668385505676269531e+00 2.186118602752685547e+00 -5.132149696350097656e+00
1.084000000000000000e+03 1.196878528594970703e+01 2.601330041885375977e+00 3.052064895629882812e+00 5.885944843292236328e+00 2.681402921676635742e+00 -5.678627014160156250e+00
1.085000000000000000e+03 1.162953186035156250e+01 2.888431549072265625e+00 2.401532888412475586e+00 4.683204650878906250e+00 2.125421285629272461e+00 -5.107612133026123047e+00
1.086000000000000000e+03 1.108800029754638672e+01 1.923124432563781738e+00 3.849026441574096680e+00 1.444074869155883789e+00 1.587930440902709961e+00 -3.541259527206420898e+00
1.087000000000000000e+03 1.127485561370849609e+01 2.012906312942504883e+00 4.134450912475585938e+00 1.974677085876464844e+00 1.832738399505615234e+00 -4.145606040954589844e+00
1.088000000000000000e+03 1.147834968566894531e+01 2.067825794219970703e+00 4.236233234405517578e+00 2.719228029251098633e+00 2.086638450622558594e+00 -4.624116897583007812e+00
1.089000000000000000e+03 1.302228450775146484e+01 2.350821495056152344e+00 2.468542575836181641e+00 1.157080268859863281e+01 4.211803913116455078e+00 -3.536318540573120117e+00
1.090000000000000000e+03 1.442889785766601562e+01 -4.344160258769989014e-01 4.999722957611083984e+00 1.244073390960693359e+01 5.232137203216552734e+00 -2.676833152770996094e+00
1.091000000000000000e+03 1.388415241241455078e+01 -8.752409815788269043e-01 1.528342247009277344e+00 1.447848033905029297e+01 4.802046775817871094e+00 -1.070663690567016602e+00
1.092000000000000000e+03 2.086217498779296875e+01 1.715962648391723633e+00 9.442300796508789062e-01 1.483267903327941895e+00 7.282493710517883301e-01 2.329224109649658203e+00
1.093000000000000000e+03 1.455373382568359375e+01 1.423550128936767578e+00 7.709959030151367188e+00 9.645977973937988281e+00 5.206780910491943359e+00 2.198451757431030273e+00
1.094000000000000000e+03 1.641505432128906250e+01 6.053309440612792969e+00 -2.776235103607177734e+00 1.350044727325439453e+00 -4.278570711612701416e-01 2.261851549148559570e+00
1.095000000000000000e+03 1.374615287780761719e+01 2.609209775924682617e+00 2.070769786834716797e+00 1.096535015106201172e+01 3.910835981369018555e+00 -4.139801561832427979e-01
1.096000000000000000e+03 1.804722595214843750e+01 -2.651079893112182617e+00 6.022613644599914551e-01 4.310486316680908203e+00 1.473824381828308105e+00 1.118368506431579590e+00
1.097000000000000000e+03 6.630679607391357422e+00 -2.530848979949951172e+00 4.849160611629486084e-01 9.845265001058578491e-02 1.750106215476989746e-01 9.227613359689712524e-02
1.098000000000000000e+03 2.803719043731689453e+00 -1.972215414047241211e+00 -4.323790594935417175e-02 -7.398868910968303680e-03 -1.519103255122900009e-02 -1.489683240652084351e-01
1.099000000000000000e+03 1.514993906021118164e+00 -7.697281360626220703e+00 1.063900417648255825e-03 7.986783981323242188e-02 2.427952177822589874e-02 1.298791021108627319e-01
1.100000000000000000e+03 7.342293262481689453e+00 -3.186823129653930664e+00 9.247109889984130859e-01 3.058530986309051514e-01 3.691692352294921875e-01 4.122668802738189697e-01
1.101000000000000000e+03 7.378573894500732422e+00 -2.512764453887939453e+00 6.795552968978881836e-01 1.806769669055938721e-01 2.580696940422058105e-01 1.883453875780105591e-01
1.102000000000000000e+03 5.857191085815429688e+00 -1.863039970397949219e+00 5.283673480153083801e-02 2.027689106762409210e-02 2.193408831954002380e-02 -8.873026072978973389e-02
1.103000000000000000e+03 5.875470638275146484e+00 -2.599568128585815430e+00 3.544441461563110352e-01 7.990480214357376099e-02 1.303046792745590210e-01 2.298098523169755936e-03
1.104000000000000000e+03 4.355510711669921875e+00 -2.640559196472167969e+00 1.635766476392745972e-01 5.293329805135726929e-02 6.495298445224761963e-02 -1.036941707134246826e-01
1.105000000000000000e+03 1.411231517791748047e+00 -3.527516603469848633e+00 4.785615950822830200e-02 -1.471970379352569580e-01 -2.980226464569568634e-02 -9.854990243911743164e-02
1.106000000000000000e+03 3.394994497299194336e+00 -3.567567586898803711e+00 2.286546826362609863e-01 4.637197032570838928e-02 8.250799775123596191e-02 -8.173799514770507812e-02
1.107000000000000000e+03 4.633761644363403320e-01 -3.602089643478393555e+00 -6.142095662653446198e-03 -2.885378897190093994e-01 -8.840399235486984253e-02 -3.603974357247352600e-02
1.108000000000000000e+03 4.973211884498596191e-01 -5.008460998535156250e+00 2.049816958606243134e-02 -3.639859855175018311e-01 -1.030463427305221558e-01 -1.617890037596225739e-02
1.109000000000000000e+03 1.054605484008789062e+01 2.603023767471313477e+00 2.559165477752685547e+00 1.992297410964965820e+00 1.365438818931579590e+00 -3.632574319839477539e+00
1.110000000000000000e+03 2.967300653457641602e+00 1.960786819458007812e+00 -2.722887098789215088e-01 -2.354658022522926331e-02 -8.875058591365814209e-02 4.446505606174468994e-01
1.111000000000000000e+03 6.226554393768310547e+00 1.839687347412109375e+00 -3.725529015064239502e-01 2.521077096462249756e-01 -3.613355383276939392e-02 -4.261367954313755035e-03
1.112000000000000000e+03 1.546489000320434570e+00 7.961832046508789062e+00 1.231190711259841919e-01 -1.028846979141235352e+00 -2.717183530330657959e-01 1.999881863594055176e-01
1.113000000000000000e+03 3.787669181823730469e+00 1.907723188400268555e+00 -3.426437377929687500e-01 6.274238228797912598e-02 -8.397040516138076782e-02 4.162737131118774414e-01
1.114000000000000000e+03 2.133764266967773438e+00 4.426141262054443359e+00 -8.661136031150817871e-03 -3.718561530113220215e-01 -1.141551882028579712e-01 4.799444675445556641e-01
1.115000000000000000e+03 2.399859905242919922e+00 3.060758590698242188e+00 -7.899946719408035278e-02 -1.549382805824279785e-01 -7.018132507801055908e-02 4.991226196289062500e-01
1.116000000000000000e+03 8.569878578186035156e+00 2.252686738967895508e+00 6.834486126899719238e-01 6.961126327514648438e-01 4.138683676719665527e-01 -1.204405665397644043e+00
1.117000000000000000e+03 8.589415550231933594e+00 1.743215084075927734e+00 4.734311997890472412e-01 4.065815508365631104e-01 2.640038132667541504e-01 -8.627113699913024902e-01
1.118000000000000000e+03 7.168042182922363281e+00 2.467263221740722656e+00 1.124509423971176147e-01 5.707242488861083984e-01 2.049525529146194458e-01 -4.908100068569183350e-01
1.119000000000000000e+03 5.605664730072021484e+00 2.583768844604492188e+00 -1.519336700439453125e-01 4.105613529682159424e-01 7.758830487728118896e-02 9.198824316263198853e-02
1.120000000000000000e+03 6.400869369506835938e+00 2.539176940917968750e+00 -5.356220155954360962e-02 5.223222970962524414e-01 1.406280249357223511e-01 -1.897337585687637329e-01
1.121000000000000000e+03 3.997584152221679688e+01 -2.359231567382812500e+01 1.458838701248168945e+00 1.092024993896484375e+01 3.713726520538330078e+00 1.658444046974182129e+00
1.122000000000000000e+03 4.758811950683593750e+01 -2.501733589172363281e+01 -8.144456744194030762e-01 5.066130638122558594e+00 1.275505423545837402e+00 -3.203562498092651367e+00
1.123000000000000000e+03 4.719815444946289062e+01 2.488591957092285156e+01 2.745893955230712891e+00 7.406021595001220703e+00 3.045574665069580078e+00 1.557660102844238281e+00
1.124000000000000000e+03 5.226830291748046875e+01 2.961319541931152344e+01 1.510229468345642090e+00 8.264144897460937500e+00 2.932312250137329102e+00 1.362382173538208008e+00
1.125000000000000000e+03 4.749687957763671875e+01 2.861223030090332031e+01 1.538058519363403320e+00 7.569415569305419922e+00 2.732242345809936523e+00 7.730776071548461914e-01
1.126000000000000000e+03 5.376013565063476562e+01 2.704571914672851562e+01 1.064594864845275879e+00 8.640898704528808594e+00 2.911648035049438477e+00 -1.677911996841430664e+00
1.127000000000000000e+03 5.163573455810546875e+01 2.851148605346679688e+01 1.447537899017333984e+00 7.542120933532714844e+00 2.696897506713867188e+00 7.075514197349548340e-01
1.128000000000000000e+03 2.188427925109863281e+01 1.468302726745605469e+00 2.016215026378631592e-01 1.114431738853454590e+00 3.948159515857696533e-01 1.663872122764587402e+00
1.129000000000000000e+03 2.966629981994628906e+01 2.695964050292968750e+01 4.578261673450469971e-01 1.581269860267639160e+00 6.117287874221801758e-01 -9.252343773841857910e-01
1.130000000000000000e+03 3.391305923461914062e+01 2.994194030761718750e+01 8.396850824356079102e-01 8.717732429504394531e+00 2.867225408554077148e+00 -5.423865318298339844e-01
1.131000000000000000e+03 4.755611038208007812e+01 -1.299986553192138672e+01 -1.832449793815612793e+00 7.754101753234863281e+00 1.776495575904846191e+00 1.725248336791992188e+00
1.132000000000000000e+03 5.113376617431640625e+01 -9.705150604248046875e+00 1.563365817070007324e+00 6.148271083831787109e+00 2.313491106033325195e+00 -7.033900022506713867e-01
1.133000000000000000e+03 3.111914634704589844e+01 1.626345634460449219e+01 3.756608963012695312e+00 9.531522750854492188e+00 3.986439704895019531e+00 4.567492008209228516e+00
1.134000000000000000e+03 6.048427581787109375e+01 3.552754592895507812e+01 -2.064976930618286133e+00 2.906408011913299561e-01 -5.323008298873901367e-01 1.505775898694992065e-01
1.135000000000000000e+03 4.959824752807617188e+01 -3.271511459350585938e+01 9.346766471862792969e-01 1.084197044372558594e+01 3.532994031906127930e+00 -5.661209225654602051e-01
1.136000000000000000e+03 4.941735458374023438e+01 -3.503284835815429688e+01 8.779817819595336914e-01 8.003609657287597656e+00 2.664477348327636719e+00 1.474995970726013184e+00
1.137000000000000000e+03 4.353906250000000000e+01 -4.025765991210937500e+01 -1.068211674690246582e+00 1.041666641831398010e-01 -2.892135083675384521e-01 -2.260540425777435303e-01
1.138000000000000000e+03 3.768878936767578125e+01 -3.850126266479492188e+01 -1.489844799041748047e+00 4.206076145172119141e+00 8.148694038391113281e-01 3.695369660854339600e-01
1.139000000000000000e+03 4.984179306030273438e+01 -2.983832550048828125e+01 2.482878446578979492e+00 6.429974555969238281e+00 2.673855781555175781e+00 -1.824017643928527832e+00
1.140000000000000000e+03 4.765113449096679688e+01 -7.977797985076904297e+00 1.341184258460998535e+00 1.094544410705566406e+01 3.685988664627075195e+00 -1.653629779815673828e+00
1.141000000000000000e+03 5.710613632202148438e+01 4.119363403320312500e+01 -5.053609013557434082e-01 2.561512231826782227e+00 6.168453693389892578e-01 3.236141204833984375e-01
1.142000000000000000e+03 2.550403022766113281e+01 2.891937446594238281e+01 -1.383987545967102051e+00 1.740173697471618652e-01 -3.629910349845886230e-01 2.507617175579071045e-01
1.143000000000000000e+03 1.524229431152343750e+01 -2.389274406433105469e+01 -1.655998826026916504e+00 4.365395545959472656e+00 8.128190040588378906e-01 2.192368507385253906e+00
1.144000000000000000e+03 1.725712966918945312e+01 -2.686079406738281250e+01 -1.797215342521667480e+00 1.082518815994262695e+00 -2.144089639186859131e-01 5.609892010688781738e-01
1.145000000000000000e+03 1.832369613647460938e+01 -2.547945785522460938e+01 -1.960451841354370117e+00 6.609247326850891113e-01 -3.898581266403198242e-01 1.077829718589782715e+00
1.146000000000000000e+03 4.056933593750000000e+01 -2.482914924621582031e+01 2.725065231323242188e+00 8.740678787231445312e+00 3.439723253250122070e+00 2.595237970352172852e+00
1.147000000000000000e+03 4.350131988525390625e+01 -4.006051063537597656e+00 -1.207497119903564453e+00 6.147019863128662109e-01 -1.778385341167449951e-01 -1.611173450946807861e-01
1.148000000000000000e+03 4.240866470336914062e+01 -2.614508867263793945e+00 -9.238831996917724609e-01 6.478815078735351562e-01 -8.280050754547119141e-02 -7.495579123497009277e-01
1.149000000000000000e+03 3.582271957397460938e+01 -3.391606569290161133e+00 8.905039429664611816e-01 4.089826107025146484e+00 1.494099020957946777e+00 1.276129126548767090e+00
1.150000000000000000e+03 3.822647094726562500e+01 -5.061854362487792969e+00 2.394395351409912109e+00 4.300958156585693359e+00 2.008605957031250000e+00 2.677543640136718750e+00
1.151000000000000000e+03 3.569190216064453125e+01 -9.326952934265136719e+00 3.197082757949829102e+00 5.003643035888671875e+00 2.460217714309692383e+00 -9.505304098129272461e-01
1.152000000000000000e+03 3.707147598266601562e+01 -9.105876922607421875e+00 2.391137123107910156e+00 9.940222740173339844e+00 3.699408054351806641e+00 -2.780929327011108398e+00
1.153000000000000000e+03 2.128279495239257812e+01 1.602534866333007812e+01 -2.647371530532836914e+00 9.686168670654296875e+00 2.111639261245727539e+00 1.151481389999389648e+00
1.154000000000000000e+03 3.195560073852539062e+01 2.292462539672851562e+01 4.493910074234008789e-01 1.158270263671875000e+01 3.609627962112426758e+00 -6.692278981208801270e-01
1.155000000000000000e+03 3.381786346435546875e+01 2.323123741149902344e+01 2.268284559249877930e-01 8.839131355285644531e+00 2.719788074493408203e+00 -1.612631529569625854e-01
1.156000000000000000e+03 4.118328857421875000e+01 -2.615751457214355469e+01 -2.551956474781036377e-01 4.912627696990966797e+00 1.397229552268981934e+00 1.715378999710083008e+00
1.157000000000000000e+03 4.253477478027343750e+01 -2.752732658386230469e+01 -4.953056812286376953e+00 2.067381739616394043e-01 -1.423895716667175293e+00 -1.937110871076583862e-01
1.158000000000000000e+03 2.171482276916503906e+01 3.193083763122558594e+01 4.016595482826232910e-01 6.040977954864501953e+00 1.932791233062744141e+00 9.552424550056457520e-01
1.159000000000000000e+03 3.161484336853027344e+01 1.373457717895507812e+01 -1.957479000091552734e+00 5.828748226165771484e+00 1.161380767822265625e+00 3.017308235168457031e+00
1.160000000000000000e+03 2.827459907531738281e+01 1.292322540283203125e+01 4.388847053050994873e-01 2.428831577301025391e+00 8.603148460388183594e-01 2.384603261947631836e+00
1.161000000000000000e+03 4.040323638916015625e+01 -1.973613929748535156e+01 2.044281959533691406e+00 6.343379020690917969e+00 2.516298294067382812e+00 -1.401560425758361816e+00
1.162000000000000000e+03 3.697662734985351562e+01 1.666321182250976562e+01 2.339418172836303711e+00 2.550071477890014648e+00 1.466846823692321777e+00 -1.993425488471984863e+00
1.163000000000000000e+03 3.538584518432617188e+01 -8.233051300048828125e+00 3.324220895767211914e+00 5.544344902038574219e+00 2.660569906234741211e+00 -1.305710554122924805e+00
1.164000000000000000e+03 2.211685562133789062e+01 2.027305412292480469e+01 1.265496969223022461e+00 1.609893035888671875e+01 5.209328174591064453e+00 -1.444835662841796875e+00
1.165000000000000000e+03 1.995897674560546875e+01 1.843250083923339844e+01 -1.911898374557495117e+00 6.655690193176269531e+00 1.423137545585632324e+00 6.686534285545349121e-01
1.166000000000000000e+03 3.539264678955078125e+01 -1.261622905731201172e+01 -8.318803906440734863e-01 2.602667331695556641e+00 5.312360525131225586e-01 -1.482626080513000488e+00
1.167000000000000000e+03 3.795615005493164062e+01 -3.628988027572631836e+00 -1.940466314554214478e-01 4.531096458435058594e+00 1.301114916801452637e+00 2.337526559829711914e+00
1.168000000000000000e+03 3.646094512939453125e+01 -5.175285339355468750e+00 1.804914355278015137e+00 5.052686214447021484e+00 2.057280063629150391e+00 6.425417661666870117e-01
1.169000000000000000e+03 4.453025817871093750e+01 -1.455078983306884766e+01 -3.047504425048828125e+00 2.497440576553344727e+00 -1.650191843509674072e-01 2.150952577590942383e+00
1.170000000000000000e+03 4.406617355346679688e+01 -1.348608112335205078e+01 -5.788534641265869141e+00 4.026741981506347656e-01 -1.615758180618286133e+00 -2.473576217889785767e-01
1.171000000000000000e+03 3.045591926574707031e+01 2.779746627807617188e+01 4.158715009689331055e-01 3.690625905990600586e+00 1.231949210166931152e+00 -1.427653908729553223e+00
1.172000000000000000e+03 3.742014694213867188e+01 2.309924125671386719e+01 -2.523278295993804932e-01 1.627549290657043457e+00 4.125664234161376953e-01 -7.430251836776733398e-01
1.173000000000000000e+03 3.129906082153320312e+01 2.673796653747558594e+01 3.187806904315948486e-01 6.155907154083251953e+00 1.942406415939331055e+00 -1.244701147079467773e+00
1.174000000000000000e+03 4.655680465698242188e+01 -1.221648406982421875e+01 1.058311343193054199e+00 5.834454059600830078e+00 2.067829608917236328e+00 3.491866350173950195e+00
1.175000000000000000e+03 4.721722030639648438e+01 -1.416682338714599609e+01 -3.154364824295043945e+00 6.693316459655761719e+00 1.061685442924499512e+00 2.940067529678344727e+00
1.176000000000000000e+03 3.197356414794921875e+01 -2.717636489868164062e+01 -7.359250783920288086e-01 9.858955144882202148e-01 7.499112933874130249e-02 -1.603652834892272949e-01
1.177000000000000000e+03 2.664484024047851562e+01 -3.370779037475585938e+01 7.795026302337646484e-01 6.744242668151855469e+00 2.257123470306396484e+00 -9.001539349555969238e-01
1.178000000000000000e+03 2.062772750854492188e+01 1.289123535156250000e+01 2.356985807418823242e-01 1.190812683105468750e+01 3.643147706985473633e+00 -5.894811153411865234e-01
1.179000000000000000e+03 4.586419677734375000e+01 -1.420442676544189453e+01 -3.179710149765014648e+00 4.954788684844970703e+00 5.325235128402709961e-01 2.778268337249755859e+00
1.180000000000000000e+03 2.271551132202148438e+01 2.426385116577148438e+01 6.140695810317993164e-01 1.226266860961914062e+01 3.863021373748779297e+00 2.014299392700195312e+00
1.181000000000000000e+03 2.099275779724121094e+01 2.223337554931640625e+01 1.148004651069641113e+00 1.041993427276611328e+01 3.470381498336791992e+00 -3.639793992042541504e-01
1.182000000000000000e+03 1.844680595397949219e+01 2.489766693115234375e+01 -1.093529105186462402e+00 9.781408905982971191e-01 -3.461645543575286865e-02 -3.508195877075195312e-01
1.183000000000000000e+03 4.670812225341796875e+01 -6.252232551574707031e+00 1.766952157020568848e+00 5.797592163085937500e+00 2.269363403320312500e+00 -2.599001407623291016e+00
1.184000000000000000e+03 4.452120590209960938e+01 -2.798158168792724609e+00 -5.170650482177734375e-01 2.524605274200439453e+00 6.022620797157287598e-01 -1.840734481811523438e+00
1.185000000000000000e+03 2.138273048400878906e+01 2.828832626342773438e+01 3.577319979667663574e-01 8.200489044189453125e+00 2.567466497421264648e+00 -7.451615333557128906e-01
1.186000000000000000e+03 2.067559051513671875e+01 1.137155818939208984e+01 9.478797912597656250e-01 1.144928359985351562e+01 3.719149112701416016e+00 3.926942944526672363e-01
1.187000000000000000e+03 2.547499847412109375e+01 1.571757888793945312e+01 -5.987358093261718750e+00 -1.258597135543823242e+00 -2.173786640167236328e+00 2.184824705123901367e+00
1.188000000000000000e+03 4.632091903686523438e+01 -4.382378578186035156e+00 3.129451274871826172e-01 4.499218463897705078e+00 1.443649053573608398e+00 -2.143832206726074219e+00
1.189000000000000000e+03 2.153090667724609375e+01 2.332249641418457031e+01 4.313956201076507568e-01 1.183031368255615234e+01 3.678512573242187500e+00 2.467111498117446899e-01
1.190000000000000000e+03 3.773699569702148438e+01 -3.010956764221191406e+01 -3.170010149478912354e-01 4.780859470367431641e+00 1.339157462120056152e+00 1.747577786445617676e+00
1.191000000000000000e+03 3.295579910278320312e+01 2.025280952453613281e+01 2.338975220918655396e-01 9.684377670288085938e+00 2.975482463836669922e+00 -2.298043109476566315e-02
1.192000000000000000e+03 3.182894134521484375e+01 1.919780921936035156e+01 9.308279305696487427e-02 1.163228130340576172e+01 3.517609119415283203e+00 3.469868600368499756e-01
1.193000000000000000e+03 3.186276817321777344e+01 2.171147727966308594e+01 2.850343938916921616e-03 1.140316581726074219e+01 3.421804904937744141e+00 -1.163441836833953857e-01
1.194000000000000000e+03 3.330178833007812500e+01 2.235234642028808594e+01 4.648913443088531494e-01 8.990802764892578125e+00 2.836708307266235352e+00 -4.723327457904815674e-01
1.195000000000000000e+03 5.201203155517578125e+01 -1.026966571807861328e+01 1.406643629074096680e+00 5.150180816650390625e+00 1.967047333717346191e+00 -1.365284800529479980e+00
1.196000000000000000e+03 5.182515716552734375e+01 -8.712941169738769531e+00 1.493279218673706055e+00 6.225223541259765625e+00 2.315550804138183594e+00 -6.599687933921813965e-01
1.197000000000000000e+03 4.115835952758789062e+01 -2.223545789718627930e+00 -5.613587498664855957e-01 1.407739520072937012e+00 2.539142370223999023e-01 1.064754843711853027e+00
1.198000000000000000e+03 4.532622528076171875e+01 -3.646375894546508789e+00 -8.693845011293888092e-03 2.712557077407836914e+00 8.111590147018432617e-01 -1.843569993972778320e+00
1.199000000000000000e+03 3.597293090820312500e+01 -1.355482959747314453e+01 -2.363126277923583984e+00 3.080480813980102539e+00 2.152063548564910889e-01 -2.067322731018066406e+00
1.200000000000000000e+03 3.678114318847656250e+01 -1.277633190155029297e+01 -1.308273911476135254e+00 4.933344364166259766e+00 1.087521195411682129e+00 -2.368665933609008789e+00
1.201000000000000000e+03 3.953694915771484375e+01 -3.827218246459960938e+01 -1.762448787689208984e+00 3.193187236785888672e+00 4.292215406894683838e-01 -5.090136528015136719e-01
1.202000000000000000e+03 3.955326843261718750e+01 -3.523968505859375000e+01 1.787614524364471436e-01 4.692141532897949219e+00 1.461270809173583984e+00 -9.609290361404418945e-01
1.203000000000000000e+03 4.959070205688476562e+01 -2.695962333679199219e+01 -1.263388395309448242e+00 3.813591957092285156e+00 7.650610208511352539e-01 -2.848492383956909180e+00
1.204000000000000000e+03 4.875047302246093750e+01 -3.031630325317382812e+01 3.878911972045898438e+00 8.004178047180175781e+00 3.564927101135253906e+00 -4.377935409545898438e+00
1.205000000000000000e+03 3.862639999389648438e+01 -3.721530532836914062e+01 -1.488959431648254395e+00 4.375352382659912109e+00 8.659178614616394043e-01 2.106443047523498535e-01
1.206000000000000000e+03 4.523160934448242188e+01 -3.978573608398437500e+01 -1.273608326911926270e+00 5.358316302299499512e-01 -2.213329970836639404e-01 5.945513248443603516e-01
1.207000000000000000e+03 5.534423065185546875e+01 2.038978576660156250e+01 -4.956374168395996094e-01 4.020922660827636719e+00 1.057585597038269043e+00 -2.526140689849853516e+00
1.208000000000000000e+03 5.902399444580078125e+01 1.950280189514160156e+01 6.636202335357666016e-01 4.824981689453125000e+00 1.646580576896667480e+00 4.628001451492309570e-01
1.209000000000000000e+03 3.861268997192382812e+01 -2.881313323974609375e+01 -1.736678600311279297e+00 7.092101573944091797e+00 1.606626868247985840e+00 1.960358738899230957e+00
1.210000000000000000e+03 4.817083358764648438e+01 -2.610063171386718750e+01 -1.215113520622253418e+00 5.084451198577880859e+00 1.160801291465759277e+00 -3.407325267791748047e+00
1.211000000000000000e+03 5.147586822509765625e+01 -3.447439956665039062e+01 1.962070941925048828e+00 7.306540012359619141e+00 2.780583143234252930e+00 -1.367976516485214233e-02
1.212000000000000000e+03 5.311962509155273438e+01 -3.387857818603515625e+01 2.332664489746093750e+00 7.424261093139648438e+00 2.927077531814575195e+00 -7.334966678172349930e-03
1.213000000000000000e+03 4.919075012207031250e+01 -3.810197830200195312e+01 -1.956006407737731934e+00 5.929629802703857422e+00 1.192087054252624512e+00 8.051280975341796875e-01
1.214000000000000000e+03 6.375970077514648438e+01 3.032964706420898438e+01 2.469850331544876099e-01 7.349783420562744141e+00 2.279030561447143555e+00 1.900168806314468384e-01
1.215000000000000000e+03 6.670778656005859375e+01 2.954437065124511719e+01 1.223982572555541992e+00 5.500444889068603516e+00 2.017328262329101562e+00 1.065588116645812988e+00
1.216000000000000000e+03 3.941025543212890625e+01 -2.557094573974609375e+01 2.410139322280883789e+00 1.165240001678466797e+01 4.218761920928955078e+00 4.433011054992675781e+00
1.217000000000000000e+03 3.939069747924804688e+01 -2.708798408508300781e+01 -2.268394947052001953e+00 9.639402389526367188e+00 2.211302042007446289e+00 1.758475780487060547e+00
1.218000000000000000e+03 3.478466796875000000e+01 -2.874497985839843750e+01 -4.521764278411865234e+00 -4.893074035644531250e-01 -1.503321528434753418e+00 1.055478751659393311e-01
1.219000000000000000e+03 3.232759857177734375e+01 -2.995016098022460938e+01 -5.376210212707519531e-01 1.794228911399841309e+00 3.769823610782623291e-01 -1.462635874748229980e+00
1.220000000000000000e+03 2.841233825683593750e+01 -2.348544120788574219e+01 1.651466727256774902e+00 9.974101066589355469e+00 3.487670421600341797e+00 -1.228075623512268066e+00
1.221000000000000000e+03 3.880933380126953125e+01 -2.975919342041015625e+01 -5.389992594718933105e-01 7.260013103485107422e+00 2.016304254531860352e+00 1.307148814201354980e+00
1.222000000000000000e+03 3.589111709594726562e+01 -1.531133937835693359e+01 -5.228862762451171875e+00 8.135738372802734375e-01 -1.324586749076843262e+00 -3.840284794569015503e-02
1.223000000000000000e+03 3.696049880981445312e+01 -1.608046913146972656e+01 -5.725914239883422852e-01 3.548971891403198242e+00 8.929141163825988770e-01 -1.393213391304016113e+00
1.224000000000000000e+03 2.772297286987304688e+01 -2.452567291259765625e+01 6.646998524665832520e-01 7.200061798095703125e+00 2.359428405761718750e+00 -1.959231793880462646e-01
1.225000000000000000e+03 2.510500144958496094e+01 -1.481369209289550781e+01 -2.376764535903930664e+00 1.175485610961914062e+00 -3.603836894035339355e-01 6.667220592498779297e-01
1.226000000000000000e+03 4.858703231811523438e+01 -1.536193656921386719e+01 -3.526733875274658203e+00 5.268390178680419922e+00 5.224968791007995605e-01 2.542901277542114258e+00
1.227000000000000000e+03 5.093962860107421875e+01 -1.466681194305419922e+01 -9.805384874343872070e-01 1.374283194541931152e+00 1.181234270334243774e-01 -8.904452323913574219e-01
1.228000000000000000e+03 3.503899383544921875e+01 -1.161966896057128906e+01 1.242513537406921387e+00 3.242160081863403320e+00 1.345402121543884277e+00 -6.732876300811767578e-01
1.229000000000000000e+03 3.060875129699707031e+01 -1.164029598236083984e+01 -2.030894607305526733e-01 5.725674152374267578e+00 1.656775355339050293e+00 1.635021686553955078e+00
1.230000000000000000e+03 3.862657165527343750e+01 -2.651035881042480469e+01 1.919206023216247559e+00 6.980991363525390625e+00 2.670059204101562500e+00 3.611220359802246094e+00
1.231000000000000000e+03 3.825704574584960938e+01 -1.259157562255859375e+01 -8.341984152793884277e-01 6.065359115600585938e+00 1.569348216056823730e+00 -2.704370975494384766e+00
1.232000000000000000e+03 2.796669197082519531e+01 -1.679866600036621094e+01 -6.204035282135009766e-01 5.866356372833251953e+00 1.573785781860351562e+00 1.184319138526916504e+00
1.233000000000000000e+03 3.043663597106933594e+01 -1.605173301696777344e+01 -1.016788244247436523e+00 5.873103141784667969e+00 1.456894397735595703e+00 2.037401676177978516e+00
1.234000000000000000e+03 4.376119613647460938e+01 -2.634477424621582031e+01 -1.771137118339538574e-01 1.283990144729614258e-01 -1.461440697312355042e-02 -1.337392568588256836e+00
1.235000000000000000e+03 2.792180824279785156e+01 -2.071392440795898438e+01 2.017489910125732422e+00 8.939306259155273438e+00 3.287038803100585938e+00 3.723218441009521484e-01
1.236000000000000000e+03 4.005519104003906250e+01 -1.414433193206787109e+01 -2.873752832412719727e+00 4.476679325103759766e+00 4.808779358863830566e-01 -2.720502376556396484e+00
1.237000000000000000e+03 2.894411659240722656e+01 -2.103377342224121094e+01 7.029736638069152832e-01 1.277039241790771484e+01 4.042009830474853516e+00 1.293584823608398438e+00
1.238000000000000000e+03 3.926977157592773438e+01 -1.981424140930175781e+01 1.223951578140258789e+00 7.491588115692138672e+00 2.614661931991577148e+00 -2.827905654907226562e+00
1.239000000000000000e+03 4.034830474853515625e+01 -1.862868690490722656e+01 1.587364792823791504e+00 5.109919548034667969e+00 2.009185314178466797e+00 -1.894075870513916016e+00
1.240000000000000000e+03 2.904547691345214844e+01 -1.708246231079101562e+01 -5.240805745124816895e-01 7.134440898895263672e+00 1.983108043670654297e+00 1.707810521125793457e+00
1.241000000000000000e+03 2.866991996765136719e+01 -1.822749519348144531e+01 1.151749610900878906e+00 7.566645145416259766e+00 2.615518331527709961e+00 1.582117199897766113e+00
1.242000000000000000e+03 4.474090576171875000e+01 -1.739090156555175781e+01 4.992669820785522461e-01 5.101560592651367188e+00 1.680248379707336426e+00 1.033845782279968262e+00
1.243000000000000000e+03 4.730246353149414062e+01 -1.785488510131835938e+01 1.552194118499755859e+00 7.873390674591064453e+00 2.827675342559814453e+00 2.964239358901977539e+00
1.244000000000000000e+03 3.090440368652343750e+01 -2.798418617248535156e+01 -1.596894025802612305e+00 3.570208549499511719e+00 5.919943451881408691e-01 -7.711905241012573242e-01
1.245000000000000000e+03 2.934769630432128906e+01 -2.607075691223144531e+01 -8.243426084518432617e-01 6.848470687866210938e+00 1.807238340377807617e+00 -1.098188996315002441e+00
1.246000000000000000e+03 6.228945541381835938e+01 2.489845085144042969e+01 3.509128808975219727e+00 7.206149101257324219e+00 3.214583396911621094e+00 4.368449211120605469e+00
1.247000000000000000e+03 6.570698547363281250e+01 2.627597427368164062e+01 2.314486503601074219e+00 5.094626426696777344e+00 2.222733974456787109e+00 1.337344765663146973e+00
1.248000000000000000e+03 1.146417617797851562e+01 -1.261916160583496094e+01 -5.706587314605712891e+00 -6.110462546348571777e-01 -1.895290017127990723e+00 1.676738977432250977e+00
1.249000000000000000e+03 9.846391677856445312e+00 -1.173142528533935547e+01 -1.909599542617797852e+00 6.364321708679199219e-01 -3.819501996040344238e-01 2.926743507385253906e+00
1.250000000000000000e+03 1.375968837738037109e+01 6.668772697448730469e+00 -6.622900962829589844e+00 4.857926666736602783e-01 -1.841132521629333496e+00 -8.709739893674850464e-02
1.251000000000000000e+03 5.442726135253906250e+01 7.024865150451660156e-01 -1.159746885299682617e+00 3.496611118316650391e+00 7.010592818260192871e-01 2.195619106292724609e+00
1.252000000000000000e+03 5.683269882202148438e+01 5.244774818420410156e-01 -3.734770774841308594e+00 1.157642453908920288e-01 -1.085701942443847656e+00 -4.448793828487396240e-01
1.253000000000000000e+03 6.489970397949218750e+01 2.023492050170898438e+01 -3.526393651962280273e+00 4.473204314708709717e-01 -9.237219691276550293e-01 7.840587496757507324e-01
1.254000000000000000e+03 6.198856353759765625e+01 2.094163894653320312e+01 -1.695337772369384766e+00 6.215579986572265625e+00 1.356072664260864258e+00 3.198555231094360352e+00
1.255000000000000000e+03 1.421518039703369141e+01 -3.827991104125976562e+01 -8.650819063186645508e-01 4.978114962577819824e-01 -1.101811230182647705e-01 6.794967921450734138e-04
1.256000000000000000e+03 1.568384361267089844e+01 -4.082667922973632812e+01 -2.046994447708129883e+00 -1.951002478599548340e-01 -6.726284027099609375e-01 3.959768712520599365e-01
1.257000000000000000e+03 6.336653900146484375e+01 2.537452888488769531e+01 2.898941755294799805e+00 8.280377388000488281e+00 3.353795766830444336e+00 3.226840496063232422e+00
1.258000000000000000e+03 6.127661132812500000e+01 2.419388961791992188e+01 1.584083557128906250e+00 2.918685436248779297e+00 1.350830674171447754e+00 2.651696205139160156e+00
1.259000000000000000e+03 5.379119110107421875e+01 3.489030075073242188e+01 -9.441410303115844727e-01 6.302790641784667969e+00 1.607594847679138184e+00 9.525476694107055664e-01
1.260000000000000000e+03 4.737993240356445312e+01 3.157829284667968750e+01 1.913193166255950928e-01 5.896714210510253906e+00 1.826409935951232910e+00 9.751688688993453979e-02
1.261000000000000000e+03 5.164741134643554688e+01 3.197824096679687500e+01 1.149865269660949707e+00 6.962450504302978516e+00 2.433694601058959961e+00 7.846910357475280762e-01
1.262000000000000000e+03 5.953128433227539062e+01 2.263721466064453125e+01 -2.704024076461791992e+00 1.641695618629455566e+00 -3.186984956264495850e-01 1.207382321357727051e+00
1.263000000000000000e+03 5.434290695190429688e+01 2.338525390625000000e+01 -9.853191375732421875e-01 5.344403266906738281e+00 1.307725310325622559e+00 -2.196943283081054688e+00
1.264000000000000000e+03 5.333728027343750000e+01 2.594792938232421875e+01 1.568539142608642578e+00 6.794548988342285156e+00 2.508926391601562500e+00 -1.416248440742492676e+00
1.265000000000000000e+03 6.574942779541015625e+01 -1.698410034179687500e+01 -1.009665966033935547e+00 3.925768136978149414e+00 8.748306035995483398e-01 8.783415555953979492e-01
1.266000000000000000e+03 6.381487274169921875e+01 -1.640352439880371094e+01 -1.467782258987426758e+00 6.326377391815185547e+00 1.457578539848327637e+00 1.753504425287246704e-01
1.267000000000000000e+03 6.423979949951171875e+01 3.436823272705078125e+01 -8.066955804824829102e-01 5.010468482971191406e+00 1.261131882667541504e+00 1.487888395786285400e-01
1.268000000000000000e+03 6.273313903808593750e+01 3.349925613403320312e+01 -1.003896445035934448e-01 3.245486736297607422e+00 9.435291290283203125e-01 -9.319265484809875488e-01
1.269000000000000000e+03 5.613066864013671875e+01 3.467409896850585938e+01 9.805938601493835449e-01 2.454353332519531250e+00 1.030484080314636230e+00 1.579368233680725098e+00
1.270000000000000000e+03 2.538286781311035156e+01 -3.081512451171875000e+01 6.681770682334899902e-01 7.827306747436523438e+00 2.548645257949829102e+00 -9.801202416419982910e-01
1.271000000000000000e+03 1.729770278930664062e+01 1.378883719444274902e-01 3.461881637573242188e+00 4.598220348358154297e+00 2.418030500411987305e+00 1.566247344017028809e+00
1.272000000000000000e+03 6.069888687133789062e+01 2.201605796813964844e+01 -1.413164734840393066e+00 4.481428146362304688e+00 9.204789996147155762e-01 3.169319391250610352e+00
1.273000000000000000e+03 5.644666290283203125e+01 3.869203567504882812e+01 -8.304147720336914062e-01 2.838576078414916992e+00 6.024484038352966309e-01 1.245077133178710938e+00
1.274000000000000000e+03 5.517230606079101562e+01 3.508475112915039062e+01 -1.890262365341186523e-01 4.807161808013916016e+00 1.385440587997436523e+00 2.076734542846679688e+00
1.275000000000000000e+03 6.502494049072265625e+01 2.876307487487792969e+01 9.978145360946655273e-01 6.984229564666748047e+00 2.394613265991210938e+00 1.315550446510314941e+00
1.276000000000000000e+03 6.350509262084960938e+01 2.780326652526855469e+01 5.688248872756958008e-01 9.628248214721679688e+00 3.059121847152709961e+00 1.293258070945739746e+00
1.277000000000000000e+03 6.535181427001953125e+01 2.986291885375976562e+01 9.838413596153259277e-01 6.215337276458740234e+00 2.159753561019897461e+00 7.743091583251953125e-01
1.278000000000000000e+03 2.673086929321289062e+01 -3.517034530639648438e+01 4.809267818927764893e-01 6.453220367431640625e+00 2.080244064331054688e+00 -5.054882764816284180e-01
1.279000000000000000e+03 5.487337493896484375e+01 2.241231155395507812e+01 -8.728730678558349609e-01 4.311984062194824219e+00 1.031733393669128418e+00 -2.626944541931152344e+00
1.280000000000000000e+03 5.597079467773437500e+01 2.305659675598144531e+01 -1.477486491203308105e+00 2.606362819671630859e+00 3.386628925800323486e-01 -1.676264286041259766e+00
1.281000000000000000e+03 1.347219085693359375e+01 -3.108650779724121094e+01 1.709805130958557129e+00 6.959370136260986328e+00 2.600752592086791992e+00 2.863879680633544922e+00
1.282000000000000000e+03 1.059821701049804688e+01 -3.652267456054687500e+01 8.386938832700252533e-03 3.729395627975463867e+00 1.121334791183471680e+00 9.357692003250122070e-01
1.283000000000000000e+03 2.708755493164062500e+01 -2.537748718261718750e+01 -5.759142041206359863e-01 6.971973896026611328e+00 1.918817877769470215e+00 -1.232492253184318542e-01
1.284000000000000000e+03 2.065147209167480469e+01 -4.061298370361328125e+01 -3.014194250106811523e+00 -1.081729605793952942e-01 -9.367101788520812988e-01 -6.752842068672180176e-01
1.285000000000000000e+03 2.508950996398925781e+01 -4.041370391845703125e+01 -2.357696533203125000e+00 4.463191032409667969e+00 6.316483616828918457e-01 -4.629282355308532715e-01
1.286000000000000000e+03 6.188575363159179688e+01 4.208508014678955078e+00 -1.228376150131225586e+00 4.604485988616943359e+00 1.012832999229431152e+00 -2.038845062255859375e+00
1.287000000000000000e+03 6.262478637695312500e+01 -9.801714420318603516e-01 1.362759917974472046e-01 7.066179752349853516e+00 2.160736799240112305e+00 -2.984284460544586182e-01
1.288000000000000000e+03 5.630406188964843750e+01 1.107917881011962891e+01 1.334416270256042480e+00 9.090283393859863281e+00 3.127409934997558594e+00 6.761581301689147949e-01
1.289000000000000000e+03 1.314831352233886719e+01 -2.939755439758300781e+01 1.723534822463989258e+00 4.798966884613037109e+00 1.956750512123107910e+00 2.179480075836181641e+00
1.290000000000000000e+03 7.223245239257812500e+01 -1.232865619659423828e+01 -1.967434763908386230e+00 5.063591003417968750e-01 -4.383226931095123291e-01 -4.318866133689880371e-01
1.291000000000000000e+03 7.209469604492187500e+01 -1.346789646148681641e+01 -6.815984845161437988e-01 1.217443943023681641e+00 1.607536226511001587e-01 -3.710076510906219482e-01
1.292000000000000000e+03 2.130375480651855469e+01 -2.722565460205078125e+01 -2.334914922714233398e+00 -1.183202788233757019e-01 -7.359705567359924316e-01 8.168135881423950195e-01
1.293000000000000000e+03 1.134790134429931641e+01 -3.348275375366210938e+01 1.076193213462829590e+00 4.344467163085937500e+00 1.626198172569274902e+00 1.279286503791809082e+00
1.294000000000000000e+03 1.243847084045410156e+01 -2.372527885437011719e+01 -2.239050388336181641e+00 1.730533242225646973e+00 -1.525551378726959229e-01 1.730749487876892090e+00
1.295000000000000000e+03 2.369070625305175781e+01 -2.602432250976562500e+01 -1.269121646881103516e+00 4.339852809906005859e+00 9.212194085121154785e-01 -8.036207556724548340e-01
1.296000000000000000e+03 2.505402755737304688e+01 -3.487488937377929688e+01 3.712241351604461670e-01 8.272175788879394531e+00 2.593019962310791016e+00 -1.204132810235023499e-01
1.297000000000000000e+03 2.681321144104003906e+01 -3.121803855895996094e+01 4.516000747680664062e-01 6.509693622589111328e+00 2.088388204574584961e+00 -3.656925857067108154e-01
1.298000000000000000e+03 5.257809066772460938e+01 -6.184912204742431641e+00 1.471060872077941895e+00 1.038501453399658203e+01 3.556822538375854492e+00 -1.800206065177917480e+00
1.299000000000000000e+03 5.260633468627929688e+01 -3.529521226882934570e+00 9.283285140991210938e-01 1.107695102691650391e+01 3.601583719253540039e+00 1.801678180694580078e+00
1.300000000000000000e+03 6.136550140380859375e+01 -6.206779479980468750e+00 6.974390745162963867e-01 1.107916545867919922e+01 3.532981395721435547e+00 4.275928437709808350e-01
1.301000000000000000e+03 6.599275207519531250e+01 -3.720828533172607422e+00 2.310065507888793945e+00 7.851163864135742188e+00 3.048368930816650391e+00 3.300687789916992188e+00
1.302000000000000000e+03 6.240865325927734375e+01 -2.678176689147949219e+01 -2.560308456420898438e+00 1.876548528671264648e+00 -2.051279842853546143e-01 -8.966022133827209473e-01
1.303000000000000000e+03 6.451692962646484375e+01 -2.852378654479980469e+01 2.533442020416259766e+00 8.350127220153808594e+00 3.265070915222167969e+00 -4.443175792694091797e+00
1.304000000000000000e+03 2.054109954833984375e+01 5.653959512710571289e-01 4.764629602432250977e-01 8.834213018417358398e-01 4.079652726650238037e-01 1.579515457153320312e+00
1.305000000000000000e+03 5.562121582031250000e+01 -9.869789123535156250e+00 4.282937347888946533e-01 1.998604774475097656e+00 7.280695438385009766e-01 -1.553182482719421387e+00
1.306000000000000000e+03 5.645641326904296875e+01 -1.166868877410888672e+01 -3.165115788578987122e-02 2.493598461151123047e+00 7.385841608047485352e-01 -1.837324142456054688e+00
1.307000000000000000e+03 7.364376831054687500e+01 -2.418156242370605469e+01 1.756988406181335449e+00 1.230518531799316406e+01 4.218652248382568359e+00 2.364022493362426758e+00
1.308000000000000000e+03 7.287677001953125000e+01 -2.523120498657226562e+01 1.219467639923095703e+00 6.297256946563720703e+00 2.255017518997192383e+00 2.716271877288818359e+00
1.309000000000000000e+03 5.363115310668945312e+01 2.419848060607910156e+01 -2.885627746582031250e-01 5.562299728393554688e+00 1.582121133804321289e+00 -1.136227011680603027e+00
1.310000000000000000e+03 4.842349243164062500e+01 1.975961112976074219e+01 -1.814366459846496582e+00 1.268845677375793457e+00 -1.636562347412109375e-01 1.219043135643005371e+00
1.311000000000000000e+03 2.045911979675292969e+01 3.410912704467773438e+01 -7.755321264266967773e-01 5.049486637115478516e+00 1.282186388969421387e+00 1.758852005004882812e-01
1.312000000000000000e+03 1.977122688293457031e+01 3.048897171020507812e+01 1.706356883049011230e+00 1.051465892791748047e+01 3.666304826736450195e+00 -1.941583275794982910e+00
1.313000000000000000e+03 6.971830749511718750e+01 -1.205608463287353516e+01 -1.115371823310852051e+00 1.342429518699645996e-01 -2.943386435508728027e-01 -6.792804002761840820e-01
1.314000000000000000e+03 6.851020812988281250e+01 -1.163031196594238281e+01 6.013721227645874023e-01 1.044571518898010254e+00 4.937830865383148193e-01 -1.007763862609863281e+00
1.315000000000000000e+03 7.594414520263671875e+01 1.396619701385498047e+01 8.140418529510498047e-01 7.685245037078857422e+00 2.549786090850830078e+00 3.766754567623138428e-01
1.316000000000000000e+03 7.833000946044921875e+01 1.144804000854492188e+01 2.180722802877426147e-01 6.270485401153564453e+00 1.946567296981811523e+00 -3.357572853565216064e-01
1.317000000000000000e+03 1.930593490600585938e+01 2.588339233398437500e+01 -2.656888365745544434e-01 6.599233150482177734e+00 1.900063276290893555e+00 4.698041081428527832e-01
1.318000000000000000e+03 6.840557861328125000e+01 -2.615876197814941406e+01 -2.945495128631591797e+00 9.113479852676391602e-01 -6.102440953254699707e-01 -1.534835547208786011e-01
1.319000000000000000e+03 1.181689167022705078e+01 1.985647201538085938e+01 -7.611042857170104980e-01 7.783623933792114258e-01 5.177428480237722397e-03 3.948026001453399658e-01
1.320000000000000000e+03 8.278826713562011719e+00 2.348220825195312500e+01 -1.333544850349426270e-01 1.697169065475463867e+00 4.691444039344787598e-01 -1.039041519165039062e+00
1.321000000000000000e+03 6.512722015380859375e+01 -6.279671669006347656e+00 8.671359419822692871e-01 1.227447414398193359e+01 3.942483186721801758e+00 2.056454271078109741e-01
1.322000000000000000e+03 7.821064758300781250e+01 1.539242553710937500e+01 1.439870744943618774e-01 6.511362552642822266e+00 1.996604919433593750e+00 5.304394960403442383e-01
1.323000000000000000e+03 5.771841430664062500e+01 2.200880289077758789e+00 -1.033959627151489258e+00 2.927745580673217773e+00 5.681357979774475098e-01 -1.316153645515441895e+00
1.324000000000000000e+03 6.567830657958984375e+01 6.516448497772216797e+00 -2.683851480484008789e+00 1.166755426675081253e-02 -8.016551733016967773e-01 3.278335556387901306e-02
1.325000000000000000e+03 4.406673431396484375e+01 6.774740219116210938e+00 3.338997066020965576e-01 5.975523471832275391e+00 1.892827033996582031e+00 -1.722884476184844971e-01
1.326000000000000000e+03 4.092555618286132812e+01 6.332582473754882812e+00 1.403765082359313965e+00 9.400821685791015625e+00 3.241376161575317383e+00 8.427374958992004395e-01
1.327000000000000000e+03 4.757056427001953125e+01 1.870694541931152344e+01 -1.655242085456848145e+00 1.361984729766845703e+00 -8.797719329595565796e-02 1.583021163940429688e+00
1.328000000000000000e+03 3.039701843261718750e+01 -9.324039220809936523e-01 7.950569689273834229e-02 6.091053962707519531e+00 1.851167917251586914e+00 -1.697910785675048828e+00
1.329000000000000000e+03 2.908529472351074219e+01 6.318574428558349609e+00 1.427679657936096191e+00 9.804964065551757812e+00 3.369793176651000977e+00 -1.618649482727050781e+00
1.330000000000000000e+03 6.518154907226562500e+01 -9.936454772949218750e+00 1.160788387060165405e-01 7.908969879150390625e+00 2.407514572143554688e+00 -7.865130901336669922e-01
1.331000000000000000e+03 6.224668502807617188e+01 1.974512672424316406e+01 1.081512331962585449e+00 6.638228893280029297e+00 2.315922260284423828e+00 3.548203706741333008e+00
1.332000000000000000e+03 7.537569046020507812e+00 -2.285258102416992188e+01 -4.838792800903320312e+00 -5.571373105049133301e-01 -1.618778944015502930e+00 1.075676918029785156e+00
1.333000000000000000e+03 6.623803377151489258e-01 -2.471145629882812500e+01 -1.468692421913146973e-01 4.841555118560791016e+00 1.408405780792236328e+00 5.243417993187904358e-02
1.334000000000000000e+03 5.315222263336181641e+00 -2.081975746154785156e+01 -6.339307427406311035e-01 3.935598134994506836e+00 9.905002713203430176e-01 -2.215189039707183838e-01
1.335000000000000000e+03 7.412839508056640625e+01 -1.065256786346435547e+01 -3.240522146224975586e-01 4.247279644012451172e+00 1.176968216896057129e+00 1.454762697219848633e+00
1.336000000000000000e+03 6.952806949615478516e+00 3.522591400146484375e+01 -1.389124274253845215e+00 2.030069351196289062e+00 1.922835111618041992e-01 2.964600920677185059e-01
1.337000000000000000e+03 7.830645751953125000e+01 -2.754251289367675781e+01 -1.812343746423721313e-01 7.479844570159912109e+00 2.189583063125610352e+00 -1.689884364604949951e-01
1.338000000000000000e+03 5.547798156738281250e+01 -3.465842056274414062e+01 2.081838607788085938e+00 1.000671386718750000e+01 3.626565694808959961e+00 -1.201273322105407715e+00
1.339000000000000000e+03 5.533862686157226562e+01 -3.859247207641601562e+01 -2.166696071624755859e+00 7.027338981628417969e+00 1.458192944526672363e+00 -6.869710683822631836e-01
1.340000000000000000e+03 7.071222686767578125e+01 6.435102462768554688e+00 -4.290163815021514893e-01 4.711915493011474609e+00 1.284869670867919922e+00 1.690090179443359375e+00
1.341000000000000000e+03 7.128621673583984375e+01 8.189051628112792969e+00 1.056655287742614746e+00 6.257314682006835938e+00 2.194190979003906250e+00 2.171615600585937500e+00
1.342000000000000000e+03 7.013542938232421875e+01 7.882106304168701172e+00 1.191943526268005371e+00 3.477305173873901367e+00 1.400774598121643066e+00 1.955696105957031250e+00
1.343000000000000000e+03 7.328200531005859375e+01 8.773899078369140625e+00 5.190652012825012207e-01 8.480654716491699219e+00 2.699916124343872070e+00 -4.496037065982818604e-01
1.344000000000000000e+03 6.171867752075195312e+01 -2.384327125549316406e+01 2.010555744171142578e+00 3.503334522247314453e+00 1.654167056083679199e+00 -9.922994971275329590e-01
1.345000000000000000e+03 5.351494598388671875e+01 -8.016841888427734375e+00 2.070565938949584961e+00 5.290719509124755859e+00 2.208385467529296875e+00 -2.622136116027832031e+00
1.346000000000000000e+03 3.460280227661132812e+01 -6.943765282630920410e-02 -5.728211402893066406e-01 7.399268150329589844e-01 5.013170093297958374e-02 1.370318770408630371e+00
1.347000000000000000e+03 5.933951377868652344e+00 2.665986061096191406e+01 1.474178671836853027e+00 9.015003204345703125e+00 3.146754503250122070e+00 -2.120859861373901367e+00
1.348000000000000000e+03 7.119255065917968750e+01 1.832625007629394531e+01 -8.740023374557495117e-01 5.954652786254882812e+00 1.524195194244384766e+00 -1.117531061172485352e+00
1.349000000000000000e+03 3.100059318542480469e+01 1.164066219329833984e+01 2.413982629776000977e+00 5.720841407775878906e+00 2.440447092056274414e+00 4.342717170715332031e+00
1.350000000000000000e+03 3.148649787902832031e+01 1.265144252777099609e+01 -3.899368047714233398e-01 5.000939369201660156e+00 1.383300781250000000e+00 3.774216651916503906e+00
1.351000000000000000e+03 6.151725387573242188e+01 1.744208526611328125e+01 2.618253231048583984e+00 1.095318317413330078e+01 4.071430683135986328e+00 4.680901527404785156e+00
1.352000000000000000e+03 2.009307289123535156e+01 1.566023731231689453e+01 -8.547248244285583496e-01 9.761150360107421875e+00 2.671927690505981445e+00 -1.164986610412597656e+00
1.353000000000000000e+03 5.910941314697265625e+01 -2.713796615600585938e+01 -2.134262084960937500e+00 2.128638744354248047e+00 -1.687039039097726345e-03 8.769341707229614258e-01
1.354000000000000000e+03 5.672015380859375000e+01 1.207505702972412109e+01 1.506188392639160156e+00 8.541440010070800781e+00 3.014288663864135742e+00 6.350936889648437500e-01
1.355000000000000000e+03 5.487053680419921875e+01 1.032400226593017578e+01 3.505902588367462158e-01 1.131315326690673828e+01 3.499123096466064453e+00 7.636418938636779785e-01
1.356000000000000000e+03 6.701579284667968750e+01 4.035614013671875000e+00 -2.035875469446182251e-01 1.580811738967895508e+00 4.131672680377960205e-01 1.340101003646850586e+00
1.357000000000000000e+03 7.034008026123046875e+01 3.702909350395202637e-01 4.921730980277061462e-02 1.039640784263610840e+00 3.266574144363403320e-01 1.640772700309753418e+00
1.358000000000000000e+03 2.780699014663696289e+00 2.192411041259765625e+01 -4.020091891288757324e-01 2.745354175567626953e+00 7.030035257339477539e-01 -8.305606991052627563e-02
1.359000000000000000e+03 7.024228668212890625e+01 1.939474487304687500e+01 -1.982665181159973145e+00 4.241800785064697266e+00 6.777406930923461914e-01 -9.749735593795776367e-01
1.360000000000000000e+03 7.937824249267578125e+00 1.251591777801513672e+01 1.585251569747924805e+00 5.500362396240234375e+00 2.125684261322021484e+00 -1.574143409729003906e+00
1.361000000000000000e+03 7.330701446533203125e+01 1.335136413574218750e+01 1.411446094512939453e+00 1.078481483459472656e+01 3.658878326416015625e+00 -9.368620067834854126e-02
1.362000000000000000e+03 7.217083740234375000e+01 1.261239147186279297e+01 5.887702703475952148e-01 1.373268890380859375e+01 4.296437740325927734e+00 9.197113662958145142e-02
1.363000000000000000e+03 7.347786712646484375e+01 -1.948187255859375000e+01 1.108157157897949219e+00 9.563138961791992188e+00 3.201388835906982422e+00 -1.865962505340576172e+00
1.364000000000000000e+03 6.248014831542968750e+01 9.082054138183593750e+00 1.438150525093078613e+00 3.124604463577270508e+00 1.368826508522033691e+00 -1.943779110908508301e+00
1.365000000000000000e+03 6.238234329223632812e+01 8.054994583129882812e+00 -4.050664305686950684e-01 3.864380359649658203e+00 1.037794232368469238e+00 -1.407489299774169922e+00
1.366000000000000000e+03 2.613851737976074219e+01 -4.171444103121757507e-02 -1.001675724983215332e+00 1.618189930915832520e+00 1.849542707204818726e-01 -1.101537346839904785e+00
1.367000000000000000e+03 2.084853363037109375e+01 5.760703086853027344e+00 1.000687956809997559e+00 4.437262535095214844e+00 1.631385087966918945e+00 2.355116605758666992e+00
1.368000000000000000e+03 5.991144943237304688e+01 -3.868991088867187500e+01 -2.508483648300170898e+00 1.394820332527160645e+00 -3.340989947319030762e-01 -3.797927200794219971e-01
1.369000000000000000e+03 4.959951400756835938e+01 2.072226524353027344e+00 1.160646528005599976e-01 3.099062681198120117e+00 9.645382165908813477e-01 -4.677714705467224121e-01
1.370000000000000000e+03 4.567086029052734375e+01 -2.627831840515136719e+01 -1.459927320480346680e+00 3.370251178741455078e+00 5.730971693992614746e-01 -2.461733579635620117e+00
1.371000000000000000e+03 4.689387130737304688e+01 -1.912954139709472656e+01 1.282692193984985352e+00 9.980947494506835938e+00 3.379091978073120117e+00 2.646035432815551758e+00
1.372000000000000000e+03 6.569554901123046875e+01 -1.960356235504150391e-01 2.471481114625930786e-01 5.013981342315673828e+00 1.578338742256164551e+00 1.394504547119140625e+00
1.373000000000000000e+03 6.634811401367187500e+01 -1.526356506347656250e+01 -1.282976508140563965e+00 2.656949520111083984e+00 4.121919274330139160e-01 8.381401300430297852e-01
1.374000000000000000e+03 6.477531433105468750e+01 -1.885956954956054688e+01 5.940854549407958984e-01 7.932060241699218750e+00 2.557843685150146484e+00 7.854600548744201660e-01
1.375000000000000000e+03 2.766612052917480469e+01 1.151762962341308594e+01 2.083755254745483398e+00 2.837209463119506836e+00 1.476289391517639160e+00 1.245877146720886230e+00
1.376000000000000000e+03 6.143788146972656250e+01 -2.512931060791015625e+01 8.736196160316467285e-01 1.777885675430297852e+00 7.954515814781188965e-01 -8.862748146057128906e-01
1.377000000000000000e+03 7.939435577392578125e+01 -2.231029701232910156e+01 1.272388696670532227e-01 6.397682189941406250e+00 1.957476258277893066e+00 1.294474750757217407e-01
1.378000000000000000e+03 6.677788543701171875e+01 -2.549576759338378906e+00 2.390681982040405273e+00 4.728381156921386719e+00 2.135718822479248047e+00 3.122499465942382812e+00
1.379000000000000000e+03 4.604776382446289062e+01 -2.706626892089843750e+00 2.524574846029281616e-02 4.107995986938476562e+00 1.239972591400146484e+00 -2.275255441665649414e+00
1.380000000000000000e+03 5.104336929321289062e+01 -1.385801315307617188e+00 2.063787728548049927e-01 6.713255405426025391e+00 2.075890302658081055e+00 -1.646202504634857178e-01
1.381000000000000000e+03 1.338221931457519531e+01 1.836277198791503906e+01 -8.205114603042602539e-01 1.658054143190383911e-01 -1.964118033647537231e-01 1.570673286914825439e-01
1.382000000000000000e+03 1.184243106842041016e+01 2.128963279724121094e+01 -9.316227436065673828e-01 2.029356658458709717e-01 -2.186061292886734009e-01 4.716612398624420166e-01
1.383000000000000000e+03 5.023435974121093750e+01 -4.003384590148925781e+00 1.386663198471069336e+00 7.346586227416992188e+00 2.619974851608276367e+00 -3.588580191135406494e-01
1.384000000000000000e+03 5.135796737670898438e+01 -5.017916679382324219e+00 1.859787106513977051e+00 8.864202499389648438e+00 3.217196702957153320e+00 1.212503835558891296e-01
1.385000000000000000e+03 6.344284820556640625e+01 -1.910602951049804688e+01 7.307089567184448242e-01 7.237917900085449219e+00 2.390588045120239258e+00 -6.820324063301086426e-01
1.386000000000000000e+03 5.272992324829101562e+01 -9.230751037597656250e+00 9.676743149757385254e-01 5.569875240325927734e+00 1.961264848709106445e+00 -1.479285240173339844e+00
1.387000000000000000e+03 5.728875732421875000e+01 8.372963905334472656e+00 1.277878046035766602e+00 7.322168827056884766e+00 2.580013990402221680e+00 9.178479760885238647e-02
1.388000000000000000e+03 7.785741424560546875e+01 -1.373869991302490234e+01 -6.511755585670471191e-01 9.362376213073730469e+00 2.613360166549682617e+00 2.928615808486938477e-01
1.389000000000000000e+03 1.664286255836486816e+00 -1.168245220184326172e+01 -1.246687024831771851e-01 5.170891880989074707e-01 1.177261471748352051e-01 -1.853879094123840332e-01
1.390000000000000000e+03 6.056050109863281250e+01 -4.046878814697265625e+01 -8.468377590179443359e-01 4.212417602539062500e-01 -1.276787966489791870e-01 -5.312532186508178711e-01
1.391000000000000000e+03 2.033771896362304688e+01 2.673531913757324219e+01 4.433187469840049744e-02 9.426164627075195312e+00 2.841148853302001953e+00 -6.648699045181274414e-01
1.392000000000000000e+03 6.911703109741210938e+00 3.253454589843750000e+01 -1.932627260684967041e-01 2.117751121520996094e+00 5.773465037345886230e-01 5.180264115333557129e-01
1.393000000000000000e+03 2.006346321105957031e+01 2.315002250671386719e+01 3.893871903419494629e-01 6.674388885498046875e+00 2.119132757186889648e+00 -4.432335495948791504e-01
1.394000000000000000e+03 7.523081302642822266e+00 2.175494766235351562e+01 -9.299941062927246094e-01 3.175630569458007812e+00 6.736909151077270508e-01 -1.426819562911987305e+00
1.395000000000000000e+03 1.785215568542480469e+01 2.243203544616699219e+01 9.103720784187316895e-01 9.654542803764343262e-01 5.627478957176208496e-01 -8.948068320751190186e-02
1.396000000000000000e+03 5.137026214599609375e+01 -1.597569942474365234e+01 -5.157993793487548828e+00 7.425723224878311157e-02 -1.525120973587036133e+00 -9.506483674049377441e-01
1.397000000000000000e+03 5.396857452392578125e+01 -1.307155227661132812e+01 -3.708048164844512939e-01 3.894156932830810547e+00 1.057005643844604492e+00 -3.214366436004638672e+00
1.398000000000000000e+03 1.885185241699218750e+01 3.434655380249023438e+01 -1.081925511360168457e+00 4.585712909698486328e+00 1.051136255264282227e+00 -8.622064590454101562e-01
1.399000000000000000e+03 1.850482368469238281e+01 3.246584701538085938e+01 1.450058102607727051e+00 4.630063056945800781e+00 1.824036359786987305e+00 -2.275698661804199219e+00
1.400000000000000000e+03 6.533285140991210938e+00 3.408857727050781250e+01 -1.354231238365173340e+00 2.348354578018188477e+00 2.982370257377624512e-01 -9.552714228630065918e-02
1.401000000000000000e+03 7.369076538085937500e+01 -1.418152904510498047e+01 -8.223842382431030273e-01 4.347803115844726562e+00 1.057625651359558105e+00 6.383918523788452148e-01
1.402000000000000000e+03 5.361565017700195312e+01 -9.968297004699707031e+00 9.264639616012573242e-01 4.437553882598876953e+00 1.609205245971679688e+00 -2.239305019378662109e+00
1.403000000000000000e+03 2.076028060913085938e+01 7.021107673645019531e+00 1.188968896865844727e+00 5.088822841644287109e+00 1.883337497711181641e+00 1.668131828308105469e+00
1.404000000000000000e+03 1.739462852478027344e+01 3.442468643188476562e+01 -1.028472557663917542e-01 2.525564908981323242e+00 7.268153429031372070e-01 -1.444642066955566406e+00
1.405000000000000000e+03 4.580951690673828125e+01 7.206917285919189453e+00 -3.891883417963981628e-02 4.120959758758544922e+00 1.224612355232238770e+00 -1.109670758247375488e+00
1.406000000000000000e+03 4.684780502319335938e+01 6.387324333190917969e+00 -5.168997049331665039e-01 2.113049030303955078e+00 4.788447916507720947e-01 -9.916208386421203613e-01
1.407000000000000000e+03 1.535692310333251953e+01 3.864128494262695312e+01 -4.402433633804321289e-01 1.377373695373535156e+00 2.811391055583953857e-01 -7.701600193977355957e-01
1.408000000000000000e+03 1.627857017517089844e+01 1.834206008911132812e+01 -3.930643081665039062e+00 -8.635522127151489258e-01 -1.438258528709411621e+00 1.608965158462524414e+00
1.409000000000000000e+03 2.266750717163085938e+01 2.873178482055664062e+01 2.547469139099121094e-01 5.594694137573242188e+00 1.754832267761230469e+00 2.845783531665802002e-01
1.410000000000000000e+03 2.113903808593750000e+01 2.937829589843750000e+01 1.479788064956665039e+00 7.890858173370361328e+00 2.811193943023681641e+00 -5.451011657714843750e-01
1.411000000000000000e+03 1.681158447265625000e+01 2.297775459289550781e+01 -7.224564254283905029e-02 -4.260949194431304932e-01 -1.495021730661392212e-01 -5.071980357170104980e-01
1.412000000000000000e+03 1.433347034454345703e+01 2.293331146240234375e+01 -4.580383598804473877e-01 -9.884206950664520264e-02 -1.670641303062438965e-01 2.515894733369350433e-02
1.413000000000000000e+03 7.826786041259765625e-01 2.901769065856933594e+01 1.088258922100067139e-01 2.023900508880615234e+00 6.398178935050964355e-01 -3.602731525897979736e-01
1.414000000000000000e+03 3.880113363265991211e+00 2.876781272888183594e+01 6.842672824859619141e-01 4.574003219604492188e+00 1.577481150627136230e+00 -1.036090493202209473e+00
1.415000000000000000e+03 5.021424293518066406e+00 2.777492904663085938e+01 1.103685855865478516e+00 7.324390888214111328e+00 2.528423070907592773e+00 -9.985725283622741699e-01
1.416000000000000000e+03 7.782299041748046875e+01 -1.520522689819335938e+01 -3.828549087047576904e-01 9.027900695800781250e+00 2.593513727188110352e+00 6.880025863647460938e-01
1.417000000000000000e+03 6.610612869262695312e+00 3.274041652679443359e+00 1.428188383579254150e-01 9.134730100631713867e-01 3.168875575065612793e-01 -4.418863952159881592e-01
1.418000000000000000e+03 1.707174110412597656e+01 6.967392444610595703e+00 -1.927938342094421387e+00 9.942038059234619141e-01 -2.801203429698944092e-01 1.300462484359741211e+00
1.419000000000000000e+03 1.314371681213378906e+01 2.157654762268066406e+01 -9.876129627227783203e-01 2.695829607546329498e-02 -2.881964147090911865e-01 6.594768762588500977e-01
1.420000000000000000e+03 1.165474414825439453e+01 2.259106445312500000e+01 -1.760597705841064453e+00 1.372918672859668732e-02 -5.240605473518371582e-01 2.530854940414428711e-01
1.421000000000000000e+03 7.009136199951171875e+00 2.287269401550292969e+01 -9.058598875999450684e-01 3.674441337585449219e+00 8.305743932723999023e-01 -1.363040566444396973e+00
1.422000000000000000e+03 1.518822097778320312e+01 2.057213783264160156e+01 -3.263731002807617188e-01 -8.287334442138671875e-01 -3.465319871902465820e-01 9.886825680732727051e-01
1.423000000000000000e+03 7.099185180664062500e+01 -1.485090732574462891e+01 -1.978242099285125732e-01 1.017481803894042969e+00 2.458972781896591187e-01 -1.387105822563171387e+00
1.424000000000000000e+03 6.873527526855468750e+01 -1.427343750000000000e+01 -4.389854371547698975e-01 3.108080923557281494e-01 -3.845320641994476318e-02 -1.388701319694519043e+00
1.425000000000000000e+03 3.742975234985351562e+01 3.372130966186523438e+01 -6.802384555339813232e-02 2.598149061203002930e+00 7.590375542640686035e-01 9.178099632263183594e-01
1.426000000000000000e+03 3.135698127746582031e+01 2.852280426025390625e+01 3.155617713928222656e-01 5.535501480102539062e+00 1.755318999290466309e+00 -1.365908145904541016e+00
1.427000000000000000e+03 6.300479888916015625e+01 -2.422642517089843750e+01 1.324686884880065918e+00 5.295621395111083984e+00 1.986092567443847656e+00 -1.998101234436035156e+00
1.428000000000000000e+03 6.504663848876953125e+01 -2.730982017517089844e+01 -1.233633041381835938e+00 8.507071495056152344e+00 2.182031631469726562e+00 -2.501639366149902344e+00
1.429000000000000000e+03 3.641933822631835938e+01 2.138247299194335938e+01 5.989623069763183594e-01 4.401072502136230469e+00 1.500010490417480469e+00 -1.549253106117248535e+00
1.430000000000000000e+03 7.735687255859375000e+01 -2.442321777343750000e+01 4.261023998260498047e-01 7.711122512817382812e+00 2.441167593002319336e+00 -3.779405057430267334e-01
1.431000000000000000e+03 7.552219390869140625e+01 -2.437412452697753906e+01 1.081917405128479004e+00 8.750670433044433594e+00 2.949776411056518555e+00 1.494214590638875961e-02
1.432000000000000000e+03 5.385188293457031250e+01 -2.481250190734863281e+01 -1.664866685867309570e+00 3.855572223663330078e+00 6.572116017341613770e-01 2.125082969665527344e+00
1.433000000000000000e+03 6.544393157958984375e+01 -4.991279125213623047e+00 1.208219408988952637e+00 1.124106597900390625e+01 3.734785556793212891e+00 2.126278162002563477e+00
1.434000000000000000e+03 4.555386352539062500e+01 9.153162956237792969e+00 7.623686790466308594e-01 5.221342563629150391e+00 1.795113325119018555e+00 -1.394079804420471191e+00
1.435000000000000000e+03 4.467980575561523438e+01 1.117978477478027344e+01 5.968875288963317871e-01 1.011360645294189453e+01 3.213148117065429688e+00 -1.182021141052246094e+00
1.436000000000000000e+03 5.576506042480468750e+01 2.640235185623168945e+00 -1.011989593505859375e+00 3.697990179061889648e+00 8.058001995086669922e-01 1.038087487220764160e+00
1.437000000000000000e+03 5.180828475952148438e+01 5.669280529022216797e+00 -1.097926497459411621e+00 7.870728969573974609e-01 -9.325609356164932251e-02 1.448579072952270508e+00
1.438000000000000000e+03 7.113161468505859375e+01 -9.242617487907409668e-01 -2.550716161727905273e+00 -1.914398521184921265e-01 -8.226467967033386230e-01 2.958170175552368164e-01
1.439000000000000000e+03 3.541188812255859375e+01 3.488514328002929688e+01 -1.496454477310180664e+00 4.734809875488281250e+00 9.715065956115722656e-01 2.254265844821929932e-01
1.440000000000000000e+03 7.282931518554687500e+01 -5.203083753585815430e-01 -1.110085129737854004e+00 2.950822114944458008e+00 5.522211194038391113e-01 -1.065861463546752930e+00
1.441000000000000000e+03 6.921321868896484375e+01 7.936963438987731934e-01 1.660463362932205200e-01 1.708418726921081543e+00 5.623394846916198730e-01 1.944831371307373047e+00
1.442000000000000000e+03 6.288005447387695312e+01 -3.835465621948242188e+01 -2.404957294464111328e+00 2.531217634677886963e-01 -6.455506086349487305e-01 -3.761605918407440186e-01
1.443000000000000000e+03 5.256992340087890625e+01 3.461079835891723633e+00 -1.263512969017028809e+00 4.360042572021484375e+00 9.289589524269104004e-01 2.152770042419433594e+00
1.444000000000000000e+03 5.430292510986328125e+01 6.406975269317626953e+00 1.549504756927490234e+00 7.025459766387939453e+00 2.572489261627197266e+00 2.444211244583129883e+00
1.445000000000000000e+03 7.698693084716796875e+01 -3.779193115234375000e+01 -2.215172909200191498e-02 7.243700981140136719e+00 2.166464805603027344e+00 -1.765472739934921265e-01
1.446000000000000000e+03 7.933134460449218750e+01 -3.463776397705078125e+01 -2.550530061125755310e-02 7.509381294250488281e+00 2.245162725448608398e+00 3.476072102785110474e-03
1.447000000000000000e+03 7.699890899658203125e+01 -2.882651138305664062e+01 -3.469331562519073486e-01 7.483044147491455078e+00 2.140833139419555664e+00 6.334912776947021484e-02
1.448000000000000000e+03 7.944149017333984375e+01 -2.777107620239257812e+01 -2.648619934916496277e-02 7.520165443420410156e+00 2.248103857040405273e+00 -9.828267991542816162e-02
1.449000000000000000e+03 7.759526062011718750e+01 3.212136077880859375e+01 3.720210120081901550e-02 6.854781627655029297e+00 2.067595005035400391e+00 6.221307069063186646e-02
1.450000000000000000e+03 7.918929290771484375e+01 3.624520111083984375e+01 -3.159804269671440125e-02 7.311697959899902344e+00 2.184029817581176758e+00 5.055519565939903259e-02
1.451000000000000000e+03 7.937265014648437500e+01 -2.090241050720214844e+01 1.417223177850246429e-02 6.873441219329833984e+00 2.066283941268920898e+00 2.879793345928192139e-01
1.452000000000000000e+03 7.939328765869140625e+01 -3.053129577636718750e+01 8.171917870640754700e-03 7.625075340270996094e+00 2.289974212646484375e+00 5.121271591633558273e-03
1.453000000000000000e+03 7.803646850585937500e+01 -3.423714447021484375e+01 6.855592876672744751e-02 7.281547069549560547e+00 2.205030918121337891e+00 -2.129535377025604248e-02
1.454000000000000000e+03 7.805567932128906250e+01 -3.290885162353515625e+01 7.805607281625270844e-03 7.285338401794433594e+00 2.187943220138549805e+00 4.389866814017295837e-02
1.455000000000000000e+03 7.454439544677734375e+01 -3.732030868530273438e+01 5.652185901999473572e-02 6.645100116729736328e+00 2.010486602783203125e+00 -4.517164230346679688e-01
1.456000000000000000e+03 7.609899139404296875e+01 -3.894752883911132812e+01 -2.641751989722251892e-02 7.242737293243408203e+00 2.164896011352539062e+00 -3.273635804653167725e-01
1.457000000000000000e+03 7.815861511230468750e+01 2.104833984375000000e+01 -1.689729243516921997e-01 7.392489433288574219e+00 2.167054891586303711e+00 1.805892735719680786e-01
1.458000000000000000e+03 7.938869476318359375e+01 2.233194732666015625e+01 -2.410201914608478546e-02 7.747457504272460938e+00 2.317006587982177734e+00 1.550563424825668335e-02
1.459000000000000000e+03 7.827853393554687500e+01 1.407007598876953125e+01 1.616502404212951660e-01 6.303238868713378906e+00 1.939466714859008789e+00 3.424217998981475830e-01
1.460000000000000000e+03 7.939645385742187500e+01 1.536452102661132812e+01 -2.744838362559676170e-03 5.796764373779296875e+00 1.738205909729003906e+00 2.395635545253753662e-01
1.461000000000000000e+03 7.778340148925781250e+01 3.067283058166503906e+01 8.678372949361801147e-02 6.854015350341796875e+00 2.082239627838134766e+00 -4.809288773685693741e-03
1.462000000000000000e+03 7.804231262207031250e+01 2.785987091064453125e+01 5.823909491300582886e-02 7.004790782928466797e+00 2.118908882141113281e+00 -1.521800309419631958e-01
1.463000000000000000e+03 7.934329223632812500e+01 2.787567329406738281e+01 7.047395047266036272e-05 7.271980762481689453e+00 2.181615352630615234e+00 -5.855372175574302673e-02
1.464000000000000000e+03 7.813628387451171875e+01 2.511938285827636719e+01 -1.672729663550853729e-02 7.233622074127197266e+00 2.165068387985229492e+00 -1.788111776113510132e-01
1.465000000000000000e+03 7.814986419677734375e+01 2.375567626953125000e+01 -9.301377832889556885e-02 7.345744609832763672e+00 2.175819396972656250e+00 -1.235314831137657166e-01
1.466000000000000000e+03 7.263674163818359375e+01 1.566867542266845703e+01 1.059593558311462402e+00 9.560791015625000000e+00 3.186115503311157227e+00 -3.955052793025970459e-01
1.467000000000000000e+03 7.574192047119140625e+01 1.886402130126953125e+01 -5.287573337554931641e-01 7.575799942016601562e+00 2.114112615585327148e+00 5.701004266738891602e-01
1.468000000000000000e+03 7.809156799316406250e+01 1.679101181030273438e+01 8.567140903323888779e-04 6.849282741546630859e+00 2.055041790008544922e+00 6.795684695243835449e-01
1.469000000000000000e+03 7.479676818847656250e+01 9.700098037719726562e+00 6.167052388191223145e-01 8.244853019714355469e+00 2.658467292785644531e+00 -8.539703488349914551e-01
1.470000000000000000e+03 7.593965148925781250e+01 1.086341094970703125e+01 9.308630824089050293e-01 7.605390071868896484e+00 2.560875892639160156e+00 -6.344914436340332031e-01
1.471000000000000000e+03 7.811680603027343750e+01 8.803730010986328125e+00 1.060014814138412476e-01 6.930517673492431641e+00 2.110955715179443359e+00 -8.194646239280700684e-01
1.472000000000000000e+03 7.941464233398437500e+01 9.871644973754882812e+00 3.658677265048027039e-02 5.908036708831787109e+00 1.783387064933776855e+00 -2.596235871315002441e-01
1.473000000000000000e+03 7.653328704833984375e+01 -8.408112525939941406e+00 1.176671504974365234e+00 1.105229759216308594e+01 3.668690681457519531e+00 -5.887571573257446289e-01
1.474000000000000000e+03 7.931241607666015625e+01 -6.971115112304687500e+00 2.380527406930923462e-01 7.541130065917968750e+00 2.333754777908325195e+00 -8.514989912509918213e-02
1.475000000000000000e+03 7.929634857177734375e+01 -1.388090324401855469e+01 -7.869573682546615601e-02 1.055422019958496094e+01 3.142657518386840820e+00 3.334376960992813110e-02
1.476000000000000000e+03 7.936193084716796875e+01 -1.949315452575683594e+01 1.070736870169639587e-01 7.628815650939941406e+00 2.320766687393188477e+00 4.187778532505035400e-01
1.477000000000000000e+03 7.704874420166015625e+01 -2.229449653625488281e+01 7.239485979080200195e-01 8.106794357299804688e+00 2.649222850799560547e+00 3.860474824905395508e-01
1.478000000000000000e+03 7.793840026855468750e+01 2.924932670593261719e+01 5.746400356292724609e-02 6.911161899566650391e+00 2.090587854385375977e+00 -9.817813336849212646e-02
1.479000000000000000e+03 7.806632232666015625e+01 4.706143438816070557e-01 -2.877328395843505859e-01 8.887101173400878906e+00 2.579810619354248047e+00 -8.635242283344268799e-02
1.480000000000000000e+03 7.936856842041015625e+01 1.528876662254333496e+00 -6.733293831348419189e-02 9.787075042724609375e+00 2.915922641754150391e+00 -1.107052266597747803e-01
1.481000000000000000e+03 7.625541687011718750e+01 3.667456817626953125e+01 -3.481128439307212830e-02 6.787664890289306641e+00 2.025856018066406250e+00 1.859142780303955078e-01
1.482000000000000000e+03 7.578795623779296875e+01 3.528970718383789062e+01 2.737570740282535553e-02 6.630052089691162109e+00 1.997228384017944336e+00 2.485791295766830444e-01
1.483000000000000000e+03 7.825895690917968750e+01 1.012974643707275391e+01 1.952580809593200684e-01 6.555766105651855469e+00 2.025307178497314453e+00 -5.946685075759887695e-01
1.484000000000000000e+03 7.807363128662109375e+01 1.809745788574218750e+00 -1.970221847295761108e-01 8.777166366577148438e+00 2.574043273925781250e+00 -4.421724677085876465e-01
1.485000000000000000e+03 7.809950256347656250e+01 3.125788927078247070e+00 -2.029073089361190796e-01 8.435891151428222656e+00 2.469895124435424805e+00 -6.256001591682434082e-01
1.486000000000000000e+03 7.513368988037109375e+01 -3.162767410278320312e+00 -2.433542609214782715e-01 8.818294525146484375e+00 2.572482109069824219e+00 -7.941988110542297363e-01
1.487000000000000000e+03 7.536276245117187500e+01 -4.076252281665802002e-01 -9.760848283767700195e-01 7.177509784698486328e+00 1.860427498817443848e+00 -7.845856547355651855e-01
1.488000000000000000e+03 7.478997802734375000e+01 -4.785241127014160156e+00 1.285654306411743164e+00 1.210969161987304688e+01 4.018603801727294922e+00 -2.723191499710083008e+00
1.489000000000000000e+03 7.808295440673828125e+01 -9.904980659484863281e+00 -4.495747759938240051e-02 9.575476646423339844e+00 2.859155654907226562e+00 -1.199247479438781738e+00
1.490000000000000000e+03 7.711614227294921875e+01 -1.071971702575683594e+01 -5.421755909919738770e-01 9.798587799072265625e+00 2.776923894882202148e+00 -9.834506511688232422e-01
1.491000000000000000e+03 7.806781005859375000e+01 -1.235604953765869141e+01 -4.117645025253295898e-01 9.639513969421386719e+00 2.768324851989746094e+00 -5.404831171035766602e-01
1.492000000000000000e+03 7.482353210449218750e+01 -1.689705085754394531e+01 -5.321526527404785156e-01 7.417511940002441406e+00 2.065607786178588867e+00 5.782862901687622070e-01
1.493000000000000000e+03 7.581304168701171875e+01 -1.808937263488769531e+01 -6.045315414667129517e-02 8.362437248229980469e+00 2.490595340728759766e+00 1.168044209480285645e+00
1.494000000000000000e+03 7.809074401855468750e+01 -1.946771812438964844e+01 8.291606605052947998e-02 8.125313758850097656e+00 2.462469100952148438e+00 9.662890434265136719e-01
1.495000000000000000e+03 1.961718750000000000e+01 6.977662086486816406e+00 4.238253235816955566e-01 5.588951587677001953e+00 1.803833007812500000e+00 2.341866493225097656e+00
1.496000000000000000e+03 5.419168853759765625e+01 -3.430004501342773438e+01 2.048479080200195312e+00 7.789966106414794922e+00 2.951533555984497070e+00 -4.139319434762001038e-02
1.497000000000000000e+03 5.537924957275390625e+01 -2.987146949768066406e+01 1.358762025833129883e+00 7.789640426635742188e+00 2.744520664215087891e+00 1.501188158988952637e+00
1.498000000000000000e+03 4.496411132812500000e+01 2.165394592285156250e+01 -1.030866742134094238e+00 6.931324005126953125e+00 1.770137190818786621e+00 2.700195312500000000e+00
1.499000000000000000e+03 2.217219161987304688e+01 1.109028816223144531e+01 2.189128398895263672e+00 6.911131381988525391e+00 2.730077981948852539e+00 -4.417170286178588867e-01
1.500000000000000000e+03 1.650597763061523438e+01 2.041952705383300781e+01 2.030636966228485107e-01 -9.071041941642761230e-01 -2.112121582031250000e-01 5.401996970176696777e-01
1.501000000000000000e+03 3.939873123168945312e+01 3.785923767089843750e+01 -6.304822564125061035e-01 1.582414984703063965e+00 2.855798006057739258e-01 3.990153372287750244e-01
1.502000000000000000e+03 3.666317367553710938e+01 3.732515716552734375e+01 -1.137078404426574707e+00 3.085085630416870117e+00 5.844022035598754883e-01 9.705272912979125977e-01
1.503000000000000000e+03 7.559247589111328125e+01 -5.411254405975341797e+00 1.294148802757263184e+00 1.243690299987792969e+01 4.119315624237060547e+00 -1.315922737121582031e+00
1.504000000000000000e+03 2.118634033203125000e+01 1.733586311340332031e+01 -3.130904912948608398e+00 1.099687862396240234e+01 2.359791994094848633e+00 7.463810443878173828e-01
1.505000000000000000e+03 5.967501068115234375e+01 1.066770076751708984e+01 1.254781603813171387e+00 7.676012516021728516e+00 2.679238319396972656e+00 -1.897496916353702545e-02
1.506000000000000000e+03 7.539133453369140625e+01 -6.656638145446777344e+00 6.893777847290039062e-01 1.452373695373535156e+01 4.563934326171875000e+00 -9.522483944892883301e-01
1.507000000000000000e+03 7.531982421875000000e+01 -8.066737174987792969e+00 7.206197381019592285e-01 1.467953586578369141e+01 4.620046615600585938e+00 5.360215306282043457e-01
1.508000000000000000e+03 3.404314422607421875e+01 1.237807083129882812e+01 -3.991822719573974609e+00 3.108398430049419403e-02 -1.188221573829650879e+00 1.177537739276885986e-01
1.509000000000000000e+03 3.280887985229492188e+01 1.366275310516357422e+01 -4.523022770881652832e-01 3.407149553298950195e+00 8.864541649818420410e-01 2.500048160552978516e+00
1.510000000000000000e+03 6.444817352294921875e+01 -4.516757965087890625e+00 2.001316308975219727e+00 9.464378356933593750e+00 3.439708471298217773e+00 6.337894797325134277e-01
1.511000000000000000e+03 5.697349929809570312e+01 -3.641870117187500000e+01 6.592399477958679199e-01 5.803889274597167969e+00 1.938938856124877930e+00 -2.679471015930175781e+00
1.512000000000000000e+03 5.575705337524414062e+01 -4.043689346313476562e+01 -2.351406812667846680e+00 5.953832149505615234e+00 1.080727577209472656e+00 -2.057108283042907715e-01
1.513000000000000000e+03 6.611322784423828125e+01 -9.423905372619628906e+00 1.605921983718872070e+00 6.308842658996582031e+00 2.374429225921630859e+00 -3.086310863494873047e+00
1.514000000000000000e+03 3.524631881713867188e+01 2.133961486816406250e+01 4.497116506099700928e-01 5.984383106231689453e+00 1.930228471755981445e+00 -1.235391855239868164e+00
1.515000000000000000e+03 8.724760055541992188e+00 1.225867462158203125e+01 1.377613067626953125e+00 8.015788078308105469e+00 2.818020343780517578e+00 -1.364534497261047363e+00
1.516000000000000000e+03 9.191697120666503906e+00 1.656099510192871094e+01 -4.630640447139739990e-01 4.295067787170410156e+00 1.149601221084594727e+00 -5.718425512313842773e-01
1.517000000000000000e+03 2.204281806945800781e+01 1.340469837188720703e+01 7.897176146507263184e-01 8.300321578979492188e+00 2.727011680603027344e+00 -1.249583363533020020e+00
1.518000000000000000e+03 1.410434055328369141e+01 3.649224996566772461e+00 6.341171860694885254e-01 7.558587551116943359e+00 2.457811355590820312e+00 -7.001724094152450562e-03
1.519000000000000000e+03 1.482434940338134766e+01 2.424170970916748047e+00 3.831051588058471680e+00 7.487728118896484375e+00 3.395633935928344727e+00 2.338206052780151367e+00
1.520000000000000000e+03 9.946574211120605469e+00 8.147421836853027344e+00 3.183421194553375244e-01 6.337333679199218750e+00 1.996702671051025391e+00 -1.818836450576782227e+00
1.521000000000000000e+03 7.894073009490966797e+00 2.359063863754272461e+00 3.506709635257720947e-01 6.412388086318969727e-01 2.975729405879974365e-01 -8.331781029701232910e-01
1.522000000000000000e+03 7.305725860595703125e+01 -1.309664821624755859e+01 -9.520089626312255859e-01 2.304493427276611328e+00 4.057453274726867676e-01 4.190067052841186523e-01
1.523000000000000000e+03 4.604691696166992188e+01 2.203452873229980469e+01 -7.435020059347152710e-02 6.929857730865478516e+00 2.056652307510375977e+00 2.362061500549316406e+00
1.524000000000000000e+03 4.423307037353515625e+01 3.197426414489746094e+01 3.870657384395599365e-01 2.299740791320800781e+00 8.060418963432312012e-01 -1.172866463661193848e+00
1.525000000000000000e+03 3.415244293212890625e+01 2.847937583923339844e+01 1.337913155555725098e+00 1.031345462799072266e+01 3.495410442352294922e+00 -2.191758751869201660e-01
1.526000000000000000e+03 3.573614120483398438e+01 3.077832412719726562e+01 1.029639244079589844e+00 9.637316703796386719e+00 3.200086832046508789e+00 2.866808891296386719e+00
1.527000000000000000e+03 5.645337677001953125e+01 1.574997520446777344e+01 1.684138894081115723e+00 6.475411891937255859e+00 2.447865247726440430e+00 -2.368979156017303467e-01
1.528000000000000000e+03 4.526490783691406250e+01 3.316230010986328125e+01 -7.133314609527587891e-01 4.230429172515869141e+00 1.055129289627075195e+00 -1.107137918472290039e+00
1.529000000000000000e+03 5.717829513549804688e+01 -2.730931663513183594e+01 -1.841693043708801270e+00 7.006084442138671875e+00 1.549317479133605957e+00 1.924468994140625000e+00
1.530000000000000000e+03 4.707357406616210938e+01 2.046681976318359375e+01 -6.469415426254272461e-01 5.264468669891357422e+00 1.385258197784423828e+00 2.721901416778564453e+00
1.531000000000000000e+03 4.518286514282226562e+01 1.934021949768066406e+01 -1.095767974853515625e+00 6.960100650787353516e+00 1.759299874305725098e+00 2.410089969635009766e+00
1.532000000000000000e+03 5.644833374023437500e+01 1.384017562866210938e+01 1.807783961296081543e+00 7.549094676971435547e+00 2.807063579559326172e+00 1.119518503546714783e-01
1.533000000000000000e+03 5.181868362426757812e+01 1.702836227416992188e+01 6.984719038009643555e-01 2.031799793243408203e+00 8.190814852714538574e-01 -1.580243587493896484e+00
1.534000000000000000e+03 6.729934692382812500e+01 -4.152538681030273438e+01 -1.447365522384643555e+00 4.749613761901855469e+00 9.906744956970214844e-01 -1.861335895955562592e-02
1.535000000000000000e+03 5.011109924316406250e+01 -3.108730888366699219e+01 3.376526832580566406e+00 7.938731193542480469e+00 3.394577503204345703e+00 -1.772133588790893555e+00
1.536000000000000000e+03 6.693201446533203125e+01 -3.302824783325195312e+01 9.539269208908081055e-01 8.385678291320800781e+00 2.801881790161132812e+00 -1.238712906837463379e+00
1.537000000000000000e+03 6.711551666259765625e+01 -3.056932640075683594e+01 2.885459899902343750e+00 6.556935310363769531e+00 2.832718610763549805e+00 -2.181577444076538086e+00
1.538000000000000000e+03 6.266918563842773438e+01 -7.768334865570068359e+00 1.886977076530456543e+00 9.077569007873535156e+00 3.289363861083984375e+00 2.534420490264892578e-01
1.539000000000000000e+03 6.453731536865234375e+01 -7.414813518524169922e+00 1.659120202064514160e+00 1.087532043457031250e+01 3.760332107543945312e+00 -8.313356637954711914e-01
1.540000000000000000e+03 4.096818161010742188e+01 1.116121387481689453e+01 3.185640275478363037e-01 7.215400695800781250e+00 2.260189294815063477e+00 2.765555679798126221e-01
1.541000000000000000e+03 3.424650192260742188e+01 3.296990966796875000e+01 -6.692467331886291504e-01 6.461552143096923828e+00 1.737691640853881836e+00 -2.766542136669158936e-01
1.542000000000000000e+03 2.830199432373046875e+01 3.232830047607421875e+01 6.047194600105285645e-01 2.566982746124267578e+00 9.515106678009033203e-01 -9.678485393524169922e-01
1.543000000000000000e+03 1.353170871734619141e+01 -1.326371383666992188e+01 -5.436173439025878906e+00 7.625000178813934326e-02 -1.607977032661437988e+00 1.298220396041870117e+00
1.544000000000000000e+03 1.535681343078613281e+01 -1.522465705871582031e+01 4.672356694936752319e-02 8.554346084594726562e+00 2.580320835113525391e+00 -1.903209328651428223e+00
1.545000000000000000e+03 7.793604278564453125e+01 -3.924879074096679688e+00 2.463694475591182709e-02 9.130093574523925781e+00 2.746418952941894531e+00 8.029375076293945312e-01
1.546000000000000000e+03 4.354182052612304688e+01 1.403928184509277344e+01 1.679474115371704102e+00 9.535726547241210938e+00 3.364560365676879883e+00 8.357152938842773438e-01
1.547000000000000000e+03 3.811366271972656250e+01 1.066488456726074219e+01 3.285233676433563232e-01 3.476175546646118164e+00 1.141409635543823242e+00 -1.138370037078857422e+00
1.548000000000000000e+03 6.664942169189453125e+01 -8.862580657005310059e-01 5.940358638763427734e-01 4.317754745483398438e+00 1.473537087440490723e+00 2.073689460754394531e+00
1.549000000000000000e+03 6.333996200561523438e+01 -2.211187124252319336e+00 1.127122163772583008e+00 7.773000717163085938e+00 2.670036792755126953e+00 -1.533939130604267120e-02
1.550000000000000000e+03 3.516665649414062500e+01 2.824158287048339844e+01 7.345181703567504883e-01 1.422528076171875000e+01 4.487939834594726562e+00 4.110354185104370117e-01
1.551000000000000000e+03 5.534037399291992188e+01 -3.703036117553710938e+01 -9.768232107162475586e-01 7.327018260955810547e+00 1.905058503150939941e+00 -1.064109131693840027e-01
1.552000000000000000e+03 5.624668121337890625e+01 -2.845390319824218750e+01 -6.496974825859069824e-02 7.536838531494140625e+00 2.241560697555541992e+00 2.183667182922363281e+00
1.553000000000000000e+03 7.797469329833984375e+01 -6.963154315948486328e+00 7.233351469039916992e-01 9.307941436767578125e+00 3.009382963180541992e+00 -5.338942632079124451e-02
1.554000000000000000e+03 7.448752593994140625e+01 -1.919689774513244629e+00 -7.819932699203491211e-01 6.461315631866455078e+00 1.703796744346618652e+00 -9.804355502128601074e-01
1.555000000000000000e+03 7.350042724609375000e+01 -2.408636093139648438e+00 3.279918730258941650e-01 3.883348703384399414e+00 1.263402223587036133e+00 -1.285599470138549805e+00
1.556000000000000000e+03 6.718847656250000000e+01 -3.401787948608398438e+01 9.287441372871398926e-01 7.012666702270507812e+00 2.382423162460327148e+00 -1.016206979751586914e+00
1.557000000000000000e+03 7.192908477783203125e+01 -2.962343978881835938e+01 7.805846333503723145e-01 3.900661468505859375e+00 1.404373764991760254e+00 1.081799268722534180e+00
1.558000000000000000e+03 6.410170745849609375e+01 -2.637695884704589844e+01 -1.538929104804992676e+00 7.581125259399414062e+00 1.812658905982971191e+00 -2.732928037643432617e+00
1.559000000000000000e+03 3.411326980590820312e+01 -1.191543960571289062e+01 9.106677770614624023e-01 2.638571262359619141e+00 1.064771652221679688e+00 1.698815673589706421e-01
1.560000000000000000e+03 3.004214286804199219e+01 -7.431646347045898438e+00 8.676614761352539062e-01 9.406834602355957031e+00 3.082348823547363281e+00 4.360070824623107910e-01
1.561000000000000000e+03 3.487628936767578125e+01 2.237310600280761719e+01 1.070040985941886902e-01 7.474105834960937500e+00 2.274333000183105469e+00 -8.703176975250244141e-01
1.562000000000000000e+03 3.595753479003906250e+01 2.271328735351562500e+01 -2.473996281623840332e-01 5.720936298370361328e+00 1.642060995101928711e+00 -1.449256658554077148e+00
1.563000000000000000e+03 4.625433349609375000e+01 3.227111816406250000e+01 -3.297299444675445557e-01 5.431495189666748047e+00 1.530529618263244629e+00 -4.381511509418487549e-01
1.564000000000000000e+03 6.737602233886718750e+01 -1.165145301818847656e+01 3.481312692165374756e-01 2.499043226242065430e+00 8.541523814201354980e-01 -1.119078755378723145e+00
1.565000000000000000e+03 7.082977294921875000e+01 -1.349651813507080078e+01 -3.081801831722259521e-01 2.644649147987365723e-01 -1.311458647251129150e-02 -1.166812300682067871e+00
1.566000000000000000e+03 3.199028396606445312e+01 2.653110504150390625e+00 -1.103093147277832031e+00 1.420978188514709473e+00 9.536551684141159058e-02 -1.710544377565383911e-01
1.567000000000000000e+03 4.368273925781250000e+01 1.554712009429931641e+01 1.860671281814575195e+00 8.405573844909667969e+00 3.079873561859130859e+00 1.173839449882507324e+00
1.568000000000000000e+03 5.149384689331054688e+01 1.886879920959472656e+01 -1.457050919532775879e+00 2.941811323165893555e+00 4.454281330108642578e-01 -1.642147541046142578e+00
1.569000000000000000e+03 5.256478881835937500e+01 1.793857002258300781e+01 -3.179409354925155640e-02 3.470849990844726562e+00 1.031716823577880859e+00 -1.778900265693664551e+00
1.570000000000000000e+03 5.363755416870117188e+01 1.695816040039062500e+01 5.292030572891235352e-01 4.347210884094238281e+00 1.462924242019653320e+00 -2.026411533355712891e+00
1.571000000000000000e+03 3.966794586181640625e+01 1.631511807441711426e+00 -9.129408001899719238e-02 6.520424365997314453e+00 1.928739190101623535e+00 9.287904500961303711e-01
1.572000000000000000e+03 5.848911285400390625e+01 1.057267951965332031e+01 1.620329737663269043e+00 7.700202941894531250e+00 2.796159744262695312e+00 3.217749297618865967e-01
1.573000000000000000e+03 5.610419845581054688e+01 9.928804397583007812e+00 1.563158392906188965e+00 9.471178054809570312e+00 3.310300827026367188e+00 1.268633842468261719e+00
1.574000000000000000e+03 3.724485778808593750e+01 -8.145312219858169556e-02 -1.138258099555969238e+00 3.778381824493408203e+00 7.920371294021606445e-01 3.317507028579711914e+00
1.575000000000000000e+03 5.151737689971923828e+00 -1.745337867736816406e+01 1.707780957221984863e+00 9.511321067810058594e+00 3.365730524063110352e+00 2.896603107452392578e+00
1.576000000000000000e+03 5.789788722991943359e+00 -1.612792587280273438e+01 2.232023715972900391e+00 7.150529384613037109e+00 2.814765930175781250e+00 3.535205602645874023e+00
1.577000000000000000e+03 3.396939849853515625e+01 1.352320671081542969e+01 -8.032993227243423462e-02 1.412545204162597656e+00 3.996645808219909668e-01 7.139882445335388184e-01
1.578000000000000000e+03 1.835328483581542969e+01 -1.313303279876708984e+01 -2.437326669692993164e+00 7.039316177368164062e+00 1.380596876144409180e+00 -1.472162485122680664e+00
1.579000000000000000e+03 4.003625106811523438e+01 3.557755231857299805e+00 2.635585069656372070e+00 9.326721191406250000e+00 3.588691949844360352e+00 1.637742400169372559e+00
1.580000000000000000e+03 3.877847290039062500e+01 1.208678436279296875e+01 -3.077142238616943359e-01 4.723640918731689453e+00 1.324777960777282715e+00 -9.696451425552368164e-01
1.581000000000000000e+03 4.073828125000000000e+01 9.982213973999023438e+00 1.046585142612457275e-01 8.122560501098632812e+00 2.468165636062622070e+00 5.256200432777404785e-01
1.582000000000000000e+03 4.491900634765625000e+01 -1.554198837280273438e+01 -1.595739245414733887e+00 3.925572872161865234e+00 6.989500522613525391e-01 1.807669401168823242e+00
1.583000000000000000e+03 2.728424263000488281e+01 8.294825553894042969e+00 2.915060281753540039e+00 5.350889682769775391e+00 2.479784965515136719e+00 2.252144068479537964e-01
1.584000000000000000e+03 2.850574874877929688e+01 8.794776916503906250e+00 2.618417501449584961e+00 7.624677658081054688e+00 3.072928428649902344e+00 1.742395281791687012e+00
1.585000000000000000e+03 2.904450607299804688e+01 1.368888568878173828e+01 -1.308837771415710449e+00 3.084384202957153320e+00 5.326639413833618164e-01 3.356530189514160156e+00
1.586000000000000000e+03 2.873850822448730469e+01 1.205636501312255859e+01 1.118767380714416504e+00 4.055461883544921875e+00 1.552268862724304199e+00 2.517892599105834961e+00
1.587000000000000000e+03 1.721893501281738281e+01 -1.763670349121093750e+01 1.539556026458740234e+00 7.341769695281982422e+00 2.664397716522216797e+00 -5.690835118293762207e-01
1.588000000000000000e+03 2.032145118713378906e+01 -1.722853660583496094e+01 1.428090214729309082e+00 2.509012937545776367e+00 1.181130886077880859e+00 -1.772948741912841797e+00
1.589000000000000000e+03 1.329158782958984375e+01 -2.209075736999511719e+01 -6.118823215365409851e-02 1.214745759963989258e+00 3.460672497749328613e-01 1.280984401702880859e+00
1.590000000000000000e+03 2.928805541992187500e+01 -2.123593091964721680e+00 2.148142099380493164e+00 7.632061958312988281e+00 2.934061288833618164e+00 -3.100422382354736328e+00
1.591000000000000000e+03 1.647233390808105469e+01 -1.260900306701660156e+01 -3.010555982589721680e+00 9.024177551269531250e+00 1.804086327552795410e+00 -6.928914785385131836e-01
1.592000000000000000e+03 2.960826110839843750e+01 3.253892898559570312e+00 -1.158706307411193848e+00 5.744321346282958984e+00 1.375684618949890137e+00 -1.485458731651306152e+00
1.593000000000000000e+03 2.717538070678710938e+01 -8.765953183174133301e-01 1.565526366233825684e+00 3.248626708984375000e+00 1.444245934486389160e+00 -2.556710243225097656e+00
1.594000000000000000e+03 5.543734359741210938e+01 -1.930001449584960938e+01 1.228873729705810547e+00 1.004789257049560547e+01 3.383029937744140625e+00 -1.683609724044799805e+00
1.595000000000000000e+03 5.635014343261718750e+01 -1.678121566772460938e+01 3.158298134803771973e-01 6.207898616790771484e+00 1.957118511199951172e+00 -5.185971856117248535e-01
1.596000000000000000e+03 9.561053276062011719e+00 -2.892768859863281250e+01 1.029549956321716309e+00 2.014050245285034180e+00 9.130800962448120117e-01 5.130588412284851074e-01
1.597000000000000000e+03 5.193863296508789062e+01 -2.540351104736328125e+01 -4.635642528533935547e+00 5.649279356002807617e-01 -1.221214413642883301e+00 1.743794232606887817e-01
1.598000000000000000e+03 5.351428985595703125e+01 -1.472953891754150391e+01 -8.583292365074157715e-01 3.535076618194580078e+00 8.030241727828979492e-01 -3.444233179092407227e+00
1.599000000000000000e+03 5.339448547363281250e+01 -1.652959442138671875e+01 -1.053862452507019043e+00 2.127889633178710938e+00 3.222081661224365234e-01 -1.836645007133483887e+00
1.600000000000000000e+03 1.627833557128906250e+01 -2.225632476806640625e+01 -4.815595597028732300e-02 4.960533618927001953e+00 1.473713278770446777e+00 9.042624831199645996e-01
1.601000000000000000e+03 1.578400993347167969e+01 -2.099913978576660156e+01 1.894000291824340820e+00 7.407032489776611328e+00 2.790309906005859375e+00 1.990440368652343750e+00
1.602000000000000000e+03 1.397655105590820312e+01 -2.661581802368164062e+01 -8.766153454780578613e-01 4.213105678558349609e+00 1.000947117805480957e+00 2.131244659423828125e+00
1.603000000000000000e+03 6.096273064613342285e-01 -2.614566421508789062e+01 -1.698264479637145996e-02 4.742085456848144531e+00 1.417530775070190430e+00 -1.115813255310058594e-01
1.604000000000000000e+03 1.368830394744873047e+01 -2.315886116027832031e+01 -1.329750299453735352e+00 3.474204063415527344e+00 6.433361768722534180e-01 2.572255134582519531e+00
1.605000000000000000e+03 1.985204100608825684e+00 -1.566540813446044922e+01 2.832991480827331543e-01 1.302377343177795410e+00 4.757029414176940918e-01 9.196774661540985107e-02
1.606000000000000000e+03 6.623876094818115234e-01 -1.613038825988769531e+01 -4.289743304252624512e-02 -1.058588147163391113e+00 -3.304456770420074463e-01 -3.390721604228019714e-02
1.607000000000000000e+03 1.679840469360351562e+01 -1.974737930297851562e+01 2.118060588836669922e+00 6.929445266723632812e+00 2.714251756668090820e+00 6.838960200548171997e-02
1.608000000000000000e+03 1.695794677734375000e+01 -1.871500778198242188e+01 2.220154762268066406e+00 8.199199676513671875e+00 3.125806331634521484e+00 -1.295339614152908325e-01
1.609000000000000000e+03 4.054630279541015625e+01 -2.087730216979980469e+01 1.542771100997924805e+00 6.832621574401855469e+00 2.512617826461791992e+00 -1.069650411605834961e+00
1.610000000000000000e+03 4.712444686889648438e+01 -2.673673629760742188e+01 -9.532893896102905273e-01 4.602600574493408203e+00 1.094793438911437988e+00 -3.385308265686035156e+00
1.611000000000000000e+03 5.540954971313476562e+01 -2.201315498352050781e+01 1.428313851356506348e+00 1.282984066009521484e+01 4.277446269989013672e+00 1.895787119865417480e+00
1.612000000000000000e+03 5.700403594970703125e+01 -1.965839385986328125e+01 2.029863595962524414e+00 7.296630382537841797e+00 2.797948122024536133e+00 8.897960931062698364e-02
1.613000000000000000e+03 5.510960388183593750e+01 -2.765317726135253906e+01 -1.292730093002319336e+00 7.116086959838867188e+00 1.747007012367248535e+00 1.780231356620788574e+00
1.614000000000000000e+03 1.761377525329589844e+01 -9.974081039428710938e+00 3.790858745574951172e+00 1.368663692474365234e+01 5.243248462677001953e+00 -5.580054283142089844e+00
1.615000000000000000e+03 1.712110900878906250e+01 -8.608636856079101562e+00 2.502588748931884766e+00 1.832080078125000000e+01 6.247016906738281250e+00 -3.319263219833374023e+00
1.616000000000000000e+03 1.447052240371704102e+00 -4.002959442138671875e+01 2.368213050067424774e-02 3.873654603958129883e+00 1.169201016426086426e+00 1.239697486162185669e-01
1.617000000000000000e+03 7.990611791610717773e-01 2.750556182861328125e+01 6.003879755735397339e-02 1.546149373054504395e+00 4.818564653396606445e-01 -2.212210893630981445e-01
1.618000000000000000e+03 6.515210270881652832e-01 2.607922172546386719e+01 1.787955909967422485e-01 1.261762380599975586e+00 4.321673810482025146e-01 -1.112579554319381714e-02
1.619000000000000000e+03 2.242201566696166992e+00 3.625613403320312500e+01 -3.382286429405212402e-01 4.390635013580322266e+00 1.215721845626831055e+00 -9.322076290845870972e-02
1.620000000000000000e+03 7.003657221794128418e-01 3.473067474365234375e+01 -7.781876623630523682e-02 4.892576694488525391e+00 1.444427251815795898e+00 -1.883958578109741211e-01
1.621000000000000000e+03 6.552582979202270508e-01 3.750578308105468750e+01 -1.746090352535247803e-01 5.245536804199218750e+00 1.521278381347656250e+00 4.432621970772743225e-02
1.622000000000000000e+03 7.890163660049438477e-01 -3.589595794677734375e+01 -1.313510932959616184e-03 3.406924962997436523e+00 1.021683454513549805e+00 6.641483306884765625e-02
1.623000000000000000e+03 1.961753964424133301e+00 -3.272171020507812500e+01 1.485610455274581909e-01 3.240839004516601562e+00 1.016819953918457031e+00 -5.685506016016006470e-02
1.624000000000000000e+03 5.418453812599182129e-01 2.332304382324218750e+01 9.455516934394836426e-02 1.655452132225036621e+00 5.250021815299987793e-01 6.945116817951202393e-02
1.625000000000000000e+03 2.297330379486083984e+00 2.689782142639160156e+01 5.257646441459655762e-01 2.917354106903076172e+00 1.032935619354248047e+00 -2.481645941734313965e-01
1.626000000000000000e+03 2.747952461242675781e+00 -2.840012550354003906e+01 6.950180232524871826e-02 3.290901184082031250e+00 1.008120894432067871e+00 -5.696179270744323730e-01
1.627000000000000000e+03 6.095048427581787109e+00 -2.449090766906738281e+01 -2.054353952407836914e+00 1.567884922027587891e+00 -1.459407359361648560e-01 -7.232473492622375488e-01
1.628000000000000000e+03 2.553164482116699219e+00 -3.661445617675781250e+01 3.439870849251747131e-02 3.453871726989746094e+00 1.046481132507324219e+00 2.679931521415710449e-01
1.629000000000000000e+03 1.607796311378479004e+00 2.315988540649414062e+01 -1.861347705125808716e-01 2.236185312271118164e+00 6.150151491165161133e-01 2.159160077571868896e-01
1.630000000000000000e+03 6.193864941596984863e-01 2.053301620483398438e+01 1.030798908323049545e-02 1.710897564888000488e+00 5.163616538047790527e-01 -1.246865019202232361e-01
1.631000000000000000e+03 5.347902774810791016e-01 1.346186447143554688e+01 2.320153824985027313e-02 -1.253268241882324219e+00 -3.690200150012969971e-01 -2.300024330615997314e-01
1.632000000000000000e+03 5.093808770179748535e-01 7.893631458282470703e+00 1.575455069541931152e-02 -1.973144054412841797e+00 -5.872168540954589844e-01 6.836935877799987793e-02
1.633000000000000000e+03 7.181566357612609863e-01 -2.324703216552734375e+01 -2.057179510593414307e-01 4.457551002502441406e+00 1.275549888610839844e+00 4.029199481010437012e-01
1.634000000000000000e+03 7.020963430404663086e-01 -1.751762390136718750e+01 2.520355284214019775e-01 -7.015331387519836426e-01 -1.348492950201034546e-01 2.804986536502838135e-01
1.635000000000000000e+03 1.591304302215576172e+00 -1.035058021545410156e+01 -9.216310828924179077e-02 3.842285871505737305e-01 8.761964738368988037e-02 2.655028598383069038e-03
1.636000000000000000e+03 3.816559791564941406e+00 -3.899271392822265625e+01 -1.363548934459686279e-01 3.645272731781005859e+00 1.052675366401672363e+00 3.657059669494628906e-01
1.637000000000000000e+03 3.625300168991088867e+00 -3.478193664550781250e+01 1.963372677564620972e-01 3.210414409637451172e+00 1.022025465965270996e+00 2.771514654159545898e-01
1.638000000000000000e+03 2.094788789749145508e+00 -3.406285476684570312e+01 9.400880336761474609e-02 3.268165111541748047e+00 1.008652210235595703e+00 6.961546093225479126e-02
1.639000000000000000e+03 1.863011598587036133e+00 -3.136816406250000000e+01 1.052693352103233337e-01 3.289829254150390625e+00 1.018529534339904785e+00 -2.347174286842346191e-01
1.640000000000000000e+03 4.911751270294189453e+00 -2.528165435791015625e+01 -1.225395798683166504e+00 2.594244241714477539e+00 4.106545448303222656e-01 -6.895641088485717773e-01
1.641000000000000000e+03 1.932162523269653320e+00 -2.456316375732421875e+01 -4.525205790996551514e-01 4.034368038177490234e+00 1.074554204940795898e+00 4.761772975325584412e-02
1.642000000000000000e+03 2.200327396392822266e+00 -2.139896583557128906e+01 -6.161383390426635742e-01 3.718543052673339844e+00 9.307214021682739258e-01 1.707841515541076660e+00
1.643000000000000000e+03 7.151582837104797363e-01 -1.892271614074707031e+01 2.180515080690383911e-01 4.472680389881134033e-01 1.995958685874938965e-01 7.293139100074768066e-01
1.644000000000000000e+03 4.808129310607910156e+00 -1.062632751464843750e+01 -5.122215747833251953e-01 2.386538505554199219e+00 5.622950792312622070e-01 9.230836629867553711e-01
1.645000000000000000e+03 5.533555746078491211e-01 -1.197010421752929688e+01 8.099713013507425785e-04 -4.262308776378631592e-01 -1.276262700557708740e-01 -8.403704315423965454e-02
1.646000000000000000e+03 3.118015289306640625e+00 -1.387374973297119141e+01 1.168677434325218201e-01 2.548502683639526367e+00 7.996110916137695312e-01 4.426816105842590332e-02
1.647000000000000000e+03 5.224864959716796875e+00 -3.541753768920898438e+00 4.564968645572662354e-01 1.408257484436035156e-01 1.791967749595642090e-01 1.133467853069305420e-01
1.648000000000000000e+03 3.622034549713134766e+00 -8.683872222900390625e+00 -7.026355713605880737e-02 1.048211455345153809e+00 2.933843731880187988e-01 4.762316644191741943e-01
1.649000000000000000e+03 5.733442306518554688e-01 5.084083557128906250e+00 8.210136555135250092e-03 -1.177530169486999512e+00 -3.507960140705108643e-01 1.942498236894607544e-01
1.650000000000000000e+03 4.003070831298828125e+00 2.693740606307983398e+00 -1.842923313379287720e-01 1.656924933195114136e-01 -5.579949822276830673e-03 4.192462265491485596e-01
1.651000000000000000e+03 1.571564555168151855e+00 1.066125869750976562e+01 1.573013067245483398e-01 -9.048888683319091797e-01 -2.242762744426727295e-01 -1.860189884901046753e-01
1.652000000000000000e+03 5.194602012634277344e-01 1.067908000946044922e+01 3.323766589164733887e-02 -2.055113792419433594e+00 -6.065627932548522949e-01 -6.526609510183334351e-02
1.653000000000000000e+03 1.625583648681640625e+00 1.334792709350585938e+01 1.175441369414329529e-01 -2.655460834503173828e-01 -4.440058395266532898e-02 -6.228073835372924805e-01
1.654000000000000000e+03 1.830401301383972168e+00 2.049246025085449219e+01 -2.526680827140808105e-01 2.095997571945190430e+00 5.529989004135131836e-01 -2.392722517251968384e-01
1.655000000000000000e+03 2.029197216033935547e+00 1.896456146240234375e+01 -1.834641993045806885e-01 1.836824178695678711e+00 4.960080087184906006e-01 -6.384649276733398438e-01
1.656000000000000000e+03 1.682951211929321289e+00 2.440376281738281250e+01 9.733396023511886597e-02 2.300597190856933594e+00 7.193793058395385742e-01 2.267297059297561646e-01
1.657000000000000000e+03 4.419157409667968750e+01 -1.966338348388671875e+01 2.873837471008300781e+00 4.702363967895507812e+00 2.272860527038574219e+00 4.282479882240295410e-01
1.658000000000000000e+03 1.383621120452880859e+01 -7.328927516937255859e+00 2.399252891540527344e+00 6.050349712371826172e+00 2.534880876541137695e+00 -5.651056170463562012e-01
1.659000000000000000e+03 5.682003402709960938e+01 -2.091396713256835938e+01 2.191150903701782227e+00 8.331526756286621094e+00 3.156803369522094727e+00 6.126946806907653809e-01
1.660000000000000000e+03 4.681357192993164062e+01 -2.390982818603515625e+01 6.728016138076782227e-01 5.845153331756591797e+00 1.955386400222778320e+00 -2.140053987503051758e+00
1.661000000000000000e+03 1.472186946868896484e+01 -1.786346554756164551e+00 9.023506045341491699e-01 1.111121177673339844e+01 3.604068756103515625e+00 -1.295622587203979492e+00
1.662000000000000000e+03 3.054214859008789062e+01 5.875232219696044922e-01 -1.758708119392395020e+00 5.158358573913574219e+00 1.019895076751708984e+00 -1.901089787483215332e+00
1.663000000000000000e+03 2.526950836181640625e+01 1.066592931747436523e+00 -1.282142162322998047e+00 1.265108466148376465e+00 -5.110116209834814072e-03 -7.918350100517272949e-01
1.664000000000000000e+03 2.814601135253906250e+01 -1.727754354476928711e+00 2.839254856109619141e+00 6.409719467163085938e+00 2.774692296981811523e+00 -3.878679037094116211e+00
1.665000000000000000e+03 3.444855117797851562e+01 -3.942212581634521484e+00 1.742063522338867188e+00 4.244468212127685547e+00 1.795959472656250000e+00 2.017385512590408325e-01
1.666000000000000000e+03 2.799230384826660156e+01 -1.320856571197509766e+01 -2.725400924682617188e+00 5.419561862945556641e+00 8.082482814788818359e-01 2.264215469360351562e+00
1.667000000000000000e+03 1.554496383666992188e+01 -5.615042209625244141e+00 9.280640482902526855e-01 1.045338916778564453e+01 3.414435863494873047e+00 -1.270894408226013184e+00
1.668000000000000000e+03 1.746297264099121094e+01 -3.904289007186889648e+00 4.589782953262329102e-01 8.958489418029785156e+00 2.825240373611450195e+00 1.258193492889404297e+00
1.669000000000000000e+03 2.860750770568847656e+01 7.771636843681335449e-01 -1.800978899002075195e+00 5.751580715179443359e+00 1.185180544853210449e+00 -1.947137594223022461e+00
1.670000000000000000e+03 3.081612396240234375e+01 -1.293578529357910156e+01 -2.131442785263061523e+00 5.253060340881347656e+00 9.364852905273437500e-01 2.155672550201416016e+00
1.671000000000000000e+03 2.798017692565917969e+01 1.540080785751342773e+00 -1.240596413612365723e+00 5.355847835540771484e+00 1.234575510025024414e+00 -1.942069053649902344e+00
1.672000000000000000e+03 1.583509826660156250e+01 -6.482377052307128906e+00 9.294500946998596191e-01 1.119085597991943359e+01 3.636091709136962891e+00 -1.386776924133300781e+00
1.673000000000000000e+03 2.756512641906738281e+01 -1.410533428192138672e+01 -2.673820495605468750e+00 4.954011917114257812e+00 6.840574741363525391e-01 1.916018247604370117e+00
1.674000000000000000e+03 2.617066001892089844e+01 -1.883737754821777344e+01 1.766085863113403320e+00 4.249810695648193359e+00 1.804769039154052734e+00 -8.754393458366394043e-02
1.675000000000000000e+03 3.151096916198730469e+01 -6.985282421112060547e+00 2.190764904022216797e+00 6.877819061279296875e+00 2.720575094223022461e+00 -1.747721433639526367e-01
1.676000000000000000e+03 3.196552658081054688e+01 -8.208576202392578125e+00 2.593847036361694336e+00 5.878641128540039062e+00 2.541746377944946289e+00 3.359341919422149658e-01
1.677000000000000000e+03 4.214006423950195312e+01 8.810583114624023438e+00 3.709930479526519775e-01 8.088171005249023438e+00 2.537749290466308594e+00 8.127358555793762207e-01
1.678000000000000000e+03 6.650196075439453125e+01 -3.771925735473632812e+01 -1.651480913162231445e+00 5.134946346282958984e+00 1.045039653778076172e+00 -4.608218669891357422e-01
1.679000000000000000e+03 6.659072875976562500e+01 -3.569607543945312500e+01 4.266946017742156982e-01 6.472324848175048828e+00 2.069705724716186523e+00 -2.883099019527435303e-01
1.680000000000000000e+03 6.009338760375976562e+01 7.290946841239929199e-01 -1.643479108810424805e+00 5.664531707763671875e+00 1.206315755844116211e+00 -2.374058961868286133e+00
1.681000000000000000e+03 5.950255584716796875e+01 1.868554711341857910e+00 -1.430424451828002930e+00 4.755629062652587891e+00 9.975614547729492188e-01 -2.615809440612792969e+00
1.682000000000000000e+03 4.123430252075195312e+01 1.678533935546875000e+01 1.838022589683532715e+00 4.292329788208007812e+00 1.839105606079101562e+00 -4.874141216278076172e-01
1.683000000000000000e+03 2.624065971374511719e+01 1.485275650024414062e+01 -5.272466182708740234e+00 -1.113239169120788574e+00 -1.915711641311645508e+00 1.239222645759582520e+00
1.684000000000000000e+03 2.315849113464355469e+01 1.608068656921386719e+01 -3.416013002395629883e+00 6.566507816314697266e+00 9.451484680175781250e-01 4.532944858074188232e-01
1.685000000000000000e+03 5.999273681640625000e+01 1.659560585021972656e+01 2.237966775894165039e+00 8.772453308105468750e+00 3.303125858306884766e+00 1.996795058250427246e+00
1.686000000000000000e+03 6.751652526855468750e+01 2.078026008605957031e+01 -3.086906194686889648e+00 3.978448808193206787e-01 -8.067184090614318848e-01 -1.107745021581649780e-01
1.687000000000000000e+03 1.929602622985839844e+01 -1.429517841339111328e+01 -2.145041704177856445e+00 5.441181659698486328e+00 9.888419508934020996e-01 -1.510404825210571289e+00
1.688000000000000000e+03 2.201320838928222656e+01 -1.575641250610351562e+01 -3.804555237293243408e-01 5.994205474853515625e-01 6.568951159715652466e-02 -1.564177393913269043e+00
1.689000000000000000e+03 1.309499263763427734e+01 -1.333582997322082520e+00 3.044604361057281494e-01 1.217738914489746094e+01 3.744554758071899414e+00 2.057849645614624023e+00
1.690000000000000000e+03 1.258677196502685547e+01 -1.159247636795043945e+00 9.693814516067504883e-01 9.757911682128906250e+00 3.218188047409057617e+00 3.760893106460571289e+00
1.691000000000000000e+03 9.173264503479003906e+00 2.214257478713989258e+00 1.188010334968566895e+00 8.282181620597839355e-01 6.048685312271118164e-01 -1.678880333900451660e+00
1.692000000000000000e+03 1.190060329437255859e+01 -1.676019072532653809e+00 1.495407938957214355e+00 5.543573379516601562e+00 2.111694335937500000e+00 3.003223896026611328e+00
1.693000000000000000e+03 1.234579086303710938e+01 -1.408988356590270996e+00 1.177360892295837402e+00 7.712047100067138672e+00 2.666822433471679688e+00 3.425663232803344727e+00
1.694000000000000000e+03 1.160449123382568359e+01 -1.378128886222839355e+00 1.828229665756225586e+00 3.885238885879516602e+00 1.714040637016296387e+00 2.836869239807128906e+00
1.695000000000000000e+03 1.163580608367919922e+01 -1.746922612190246582e+00 1.622503757476806641e+00 4.428416252136230469e+00 1.815276026725769043e+00 2.840439558029174805e+00
1.696000000000000000e+03 1.015396785736083984e+01 -2.394859552383422852e+00 1.612962484359741211e+00 1.541948080062866211e+00 9.464731812477111816e-01 1.343241930007934570e+00
1.697000000000000000e+03 1.058998489379882812e+01 -2.291110515594482422e+00 1.634367108345031738e+00 2.235934972763061523e+00 1.161090612411499023e+00 1.748891830444335938e+00
1.698000000000000000e+03 1.127791023254394531e+01 5.886558532714843750e+00 -1.721431732177734375e+00 5.173460483551025391e+00 1.035608649253845215e+00 -3.783280134201049805e+00
1.699000000000000000e+03 5.970960617065429688e+00 -3.334907054901123047e+00 5.866188406944274902e-01 1.646580100059509277e-01 2.253830581903457642e-01 1.793822199106216431e-01
1.700000000000000000e+03 3.026131391525268555e+00 -2.860157251358032227e+00 8.885983377695083618e-02 -1.170798111706972122e-02 2.314555458724498749e-02 -1.258964091539382935e-01
1.701000000000000000e+03 2.529575824737548828e+00 -7.600611209869384766e+00 4.057826101779937744e-02 4.100044369697570801e-01 1.351748108863830566e-01 2.288758754730224609e-01
1.702000000000000000e+03 8.014961242675781250e+00 -3.273506641387939453e+00 1.198485016822814941e+00 4.992479979991912842e-01 5.093199014663696289e-01 5.954064130783081055e-01
1.703000000000000000e+03 9.285559654235839844e+00 -3.704597711563110352e+00 1.614413261413574219e+00 1.370393633842468262e+00 8.954420685768127441e-01 1.118569135665893555e+00
1.704000000000000000e+03 8.859071731567382812e+00 -2.598471641540527344e+00 1.262449502944946289e+00 6.253188252449035645e-01 5.663304924964904785e-01 6.688594818115234375e-01
1.705000000000000000e+03 5.092453479766845703e+00 -2.694096565246582031e+00 2.547582089900970459e-01 5.613603442907333374e-02 9.326827526092529297e-02 -3.775880113244056702e-02
1.706000000000000000e+03 6.749532699584960938e+00 -3.828400373458862305e+00 8.944145441055297852e-01 3.477681577205657959e-01 3.726547956466674805e-01 4.570269584655761719e-01
1.707000000000000000e+03 2.282002687454223633e+00 -3.234424591064453125e+00 8.339152485132217407e-02 -2.177590504288673401e-02 1.848468557000160217e-02 -1.153762042522430420e-01
1.708000000000000000e+03 1.518291354179382324e+00 -4.947766780853271484e+00 5.461638793349266052e-02 -1.174181401729583740e-01 -1.884052529931068420e-02 -6.397918798029422760e-03
1.709000000000000000e+03 1.024055671691894531e+01 -2.931213140487670898e+00 1.638586759567260742e+00 2.093504190444946289e+00 1.119627237319946289e+00 1.489638447761535645e+00
1.710000000000000000e+03 5.001952171325683594e+00 3.339895009994506836e+00 -4.014353454113006592e-02 4.867476224899291992e-01 1.339812278747558594e-01 2.195914685726165771e-01
1.711000000000000000e+03 3.205450057983398438e+00 2.827675104141235352e+00 -1.352653503417968750e-01 2.767027914524078369e-02 -3.227852284908294678e-02 4.911389350891113281e-01
1.712000000000000000e+03 3.509253025054931641e+00 3.573401212692260742e+00 -4.947310686111450195e-02 1.448092907667160034e-01 2.860085293650627136e-02 4.763035476207733154e-01
1.713000000000000000e+03 2.816510915756225586e+00 3.886903285980224609e+00 -4.526180215179920197e-03 -5.675709247589111328e-02 -1.838498190045356750e-02 5.246157646179199219e-01
1.714000000000000000e+03 5.799714565277099609e+00 3.303125858306884766e+00 2.887917868793010712e-02 7.370875477790832520e-01 2.297900170087814331e-01 -4.939446970820426941e-02
1.715000000000000000e+03 7.387612819671630859e+00 3.178733348846435547e+00 3.284227252006530762e-01 1.014995932579040527e+00 4.030256271362304688e-01 -8.551651239395141602e-01
1.716000000000000000e+03 1.090269756317138672e+01 2.393040180206298828e+00 3.296511650085449219e+00 2.122444629669189453e+00 1.625686883926391602e+00 -4.012345314025878906e+00
1.717000000000000000e+03 6.791151523590087891e+00 4.041077613830566406e+00 1.948210150003433228e-01 1.508110761642456055e+00 5.108795166015625000e-01 -6.830782294273376465e-01
1.718000000000000000e+03 4.203572082519531250e+01 1.089219951629638672e+01 5.225090980529785156e-01 8.322041511535644531e+00 2.653365135192871094e+00 1.022516846656799316e+00
1.719000000000000000e+03 4.071052932739257812e+01 8.805419921875000000e+00 3.900662958621978760e-01 8.581929206848144531e+00 2.691598653793334961e+00 9.631646275520324707e-01
1.720000000000000000e+03 2.285043907165527344e+01 1.471079826354980469e+00 -1.436729282140731812e-01 5.771278738975524902e-01 1.300364732742309570e-01 1.302597999572753906e+00
1.721000000000000000e+03 2.332766723632812500e+01 1.115285205841064453e+01 2.650035142898559570e+00 4.736949920654296875e+00 2.216095685958862305e+00 -8.520721197128295898e-01
1.722000000000000000e+03 2.832870864868164062e+01 -1.571636676788330078e+01 -1.960168600082397461e+00 6.086002349853515625e+00 1.237750053405761719e+00 1.774136066436767578e+00
1.723000000000000000e+03 3.123103141784667969e+01 -1.431881713867187500e+01 -4.075696468353271484e+00 5.393012046813964844e+00 3.951946794986724854e-01 2.184669733047485352e+00
1.724000000000000000e+03 1.491240406036376953e+01 -9.732381105422973633e-01 2.812799215316772461e+00 1.066604995727539062e+01 4.043654918670654297e+00 -1.760916233062744141e+00
1.725000000000000000e+03 1.400503349304199219e+01 -1.592063188552856445e+00 4.115875959396362305e-01 1.286597061157226562e+01 3.983267307281494141e+00 -6.775574088096618652e-01
1.726000000000000000e+03 1.448836803436279297e+01 3.064623832702636719e+00 1.789258003234863281e+00 8.200413703918457031e+00 2.996901512145996094e+00 1.387660980224609375e+00
1.727000000000000000e+03 3.947404479980468750e+01 -2.915049743652343750e+01 -1.847808718681335449e+00 9.347983360290527344e+00 2.250052452087402344e+00 1.422599077224731445e+00
1.728000000000000000e+03 4.355725860595703125e+01 1.816694641113281250e+01 4.323703050613403320e-01 5.804046154022216797e+00 1.870924830436706543e+00 1.231554746627807617e+00
1.729000000000000000e+03 4.228442382812500000e+01 2.079119682312011719e+01 -2.740889191627502441e-01 2.014509201049804688e+00 5.221261382102966309e-01 1.755887985229492188e+00
1.730000000000000000e+03 1.564075946807861328e+01 1.109046101570129395e+00 6.078261375427246094e+00 6.460567474365234375e+00 3.761648654937744141e+00 1.869445323944091797e+00
1.731000000000000000e+03 1.490023612976074219e+01 5.234805583953857422e+00 -1.074467778205871582e+00 1.936642765998840332e+00 2.586525082588195801e-01 1.249135851860046387e+00
1.732000000000000000e+03 1.798986244201660156e+01 -6.551561951637268066e-01 2.075338363647460938e+00 3.794489622116088867e+00 1.760948419570922852e+00 1.193497776985168457e+00
1.733000000000000000e+03 1.876735687255859375e+01 2.766314446926116943e-01 2.111720323562622070e+00 2.255122184753417969e+00 1.310052752494812012e+00 2.293951988220214844e+00
1.734000000000000000e+03 3.433047866821289062e+01 2.175959014892578125e+01 3.747160434722900391e-01 8.281129837036132812e+00 2.596753835678100586e+00 -3.549635410308837891e-01
1.735000000000000000e+03 3.236270523071289062e+01 -1.390926074981689453e+01 -3.265406847000122070e+00 2.832250118255615234e+00 -1.299470216035842896e-01 2.559004545211791992e+00
1.736000000000000000e+03 3.289358520507812500e+01 -1.083411788940429688e+01 1.866331458091735840e+00 3.822321891784667969e+00 1.706596016883850098e+00 6.117590069770812988e-01
1.737000000000000000e+03 3.275572967529296875e+01 2.655566024780273438e+01 8.614188432693481445e-01 8.303960800170898438e+00 2.749614000320434570e+00 1.806306536309421062e-03
1.738000000000000000e+03 1.197635078430175781e+01 -2.552790451049804688e+01 -1.244169473648071289e+00 2.276787519454956055e+00 3.097853660583496094e-01 1.860693812370300293e+00
1.739000000000000000e+03 1.188300895690917969e+01 -3.202374649047851562e+01 1.624815821647644043e+00 4.737419128417968750e+00 1.908670544624328613e+00 1.548946619033813477e+00
1.740000000000000000e+03 4.473854446411132812e+01 7.934754848480224609e+00 -3.518204092979431152e-01 6.025577545166015625e+00 1.702127099037170410e+00 -4.735872149467468262e-01
1.741000000000000000e+03 2.066443252563476562e+01 3.755969524383544922e+00 1.053640007972717285e+00 3.003642320632934570e+00 1.217184662818908691e+00 2.882781505584716797e+00
1.742000000000000000e+03 4.731929397583007812e+01 2.744164276123046875e+01 1.492351770401000977e+00 8.724315643310546875e+00 3.065000057220458984e+00 1.071121573448181152e+00
1.743000000000000000e+03 5.225640869140625000e+01 3.073063087463378906e+01 1.645765900611877441e+00 7.692303180694580078e+00 2.801420688629150391e+00 1.363440036773681641e+00
1.744000000000000000e+03 3.301179504394531250e+01 1.912409210205078125e+01 1.371320486068725586e+00 9.527349472045898438e+00 3.269601106643676758e+00 9.384154081344604492e-01
1.745000000000000000e+03 3.971009445190429688e+01 1.916893196105957031e+01 1.501459956169128418e+00 1.828113436698913574e+00 9.988720417022705078e-01 -1.177596449851989746e+00
1.746000000000000000e+03 3.293269729614257812e+01 1.481706333160400391e+01 -1.315463334321975708e-01 5.440551280975341797e+00 1.592701435089111328e+00 1.747370839118957520e+00
1.747000000000000000e+03 3.135377502441406250e+01 -3.984345793724060059e-01 -5.296127796173095703e-01 4.429544448852539062e+00 1.169979572296142578e+00 -1.335348367691040039e+00
1.748000000000000000e+03 4.082955169677734375e+01 -2.199442672729492188e+01 1.686399221420288086e+00 8.170911788940429688e+00 2.957193374633789062e+00 4.766547083854675293e-01
1.749000000000000000e+03 4.127526855468750000e+01 -2.304017829895019531e+01 2.209938764572143555e+00 6.673861980438232422e+00 2.665140151977539062e+00 2.063360214233398438e+00
1.750000000000000000e+03 2.913201332092285156e+01 -2.770831108093261719e+01 -1.591961026191711426e+00 6.138936996459960938e+00 1.364092707633972168e+00 -5.256516933441162109e-01
1.751000000000000000e+03 3.164763259887695312e+01 -2.895656394958496094e+01 -1.626708269119262695e+00 2.789191722869873047e+00 3.487449884414672852e-01 -1.247224926948547363e+00
1.752000000000000000e+03 3.503931045532226562e+01 -1.433213806152343750e+01 -5.352284431457519531e+00 4.039300978183746338e-01 -1.484506368637084961e+00 -7.446424961090087891e-01
1.753000000000000000e+03 3.303331756591796875e+01 1.808688354492187500e+01 2.645442247390747070e+00 7.267850399017333984e+00 2.973987817764282227e+00 1.031922459602355957e+00
1.754000000000000000e+03 6.778261566162109375e+01 4.990009784698486328e+00 -7.630292326211929321e-02 1.301231741905212402e+00 3.674786388874053955e-01 1.615214705467224121e+00
1.755000000000000000e+03 6.748751068115234375e+01 1.440747529268264771e-01 5.387170910835266113e-01 3.280552148818969727e+00 1.145780801773071289e+00 2.036176204681396484e+00
1.756000000000000000e+03 4.481774139404296875e+01 -2.648815917968750000e+01 -1.451675653457641602e+00 2.091127395629882812e+00 1.918355077505111694e-01 -2.437640190124511719e+00
1.757000000000000000e+03 7.154341125488281250e+01 -7.983990013599395752e-03 -2.117339372634887695e-01 5.543811917304992676e-01 1.027941703796386719e-01 1.016637831926345825e-01
1.758000000000000000e+03 7.041529083251953125e+01 4.400828361511230469e+00 -8.048991858959197998e-02 3.357806205749511719e+00 9.831948876380920410e-01 1.570986509323120117e+00
1.759000000000000000e+03 6.702951812744140625e+01 3.076260757446289062e+01 9.525746703147888184e-01 5.476403713226318359e+00 1.928693532943725586e+00 8.678544163703918457e-01
1.760000000000000000e+03 6.575790405273437500e+01 3.087752342224121094e+01 7.786982059478759766e-01 5.781207561492919922e+00 1.967971682548522949e+00 8.352616429328918457e-01
1.761000000000000000e+03 9.438884735107421875e+00 -1.075679397583007812e+01 -2.361130416393280029e-01 1.217453479766845703e+00 2.944021224975585938e-01 3.045272588729858398e+00
1.762000000000000000e+03 1.101508140563964844e+01 -1.139760017395019531e+01 -8.925415277481079102e-01 -1.898607164621353149e-01 -3.247206807136535645e-01 2.399717569351196289e+00
1.763000000000000000e+03 4.264494705200195312e+01 8.369096517562866211e-01 5.738577246665954590e-01 3.969060897827148438e+00 1.362875580787658691e+00 -1.211505532264709473e+00
1.764000000000000000e+03 6.476887512207031250e+01 2.759856414794921875e+01 2.124514102935791016e+00 6.761694908142089844e+00 2.665862798690795898e+00 2.177212238311767578e+00
1.765000000000000000e+03 6.080527496337890625e+01 2.509684085845947266e+00 -1.571088075637817383e+00 5.204158306121826172e+00 1.089920997619628906e+00 -2.160417795181274414e+00
1.766000000000000000e+03 6.267152023315429688e+01 7.026552677154541016e+00 -1.032108068466186523e+00 3.913327932357788086e+00 8.643659949302673340e-01 -1.731353759765625000e+00
1.767000000000000000e+03 5.185668182373046875e+01 2.656398391723632812e+01 1.630051136016845703e+00 6.587138175964355469e+00 2.465156793594360352e+00 1.785848736763000488e-01
1.768000000000000000e+03 4.192749023437500000e+01 -2.408752822875976562e+01 2.560922384262084961e+00 4.257946491241455078e+00 2.045660495758056641e+00 1.476595163345336914e+00
1.769000000000000000e+03 6.274140167236328125e+01 -5.721461772918701172e+00 1.611203670501708984e+00 1.004205608367919922e+01 3.495977878570556641e+00 3.569488227367401123e-01
1.770000000000000000e+03 1.091752815246582031e+01 7.433296203613281250e+00 -6.135089993476867676e-01 5.616846561431884766e+00 1.501001238822937012e+00 -2.655558824539184570e+00
1.771000000000000000e+03 5.584320068359375000e+01 7.413335800170898438e+00 1.417978644371032715e+00 7.584122180938720703e+00 2.700630187988281250e+00 4.096603989601135254e-01
1.772000000000000000e+03 5.745108413696289062e+01 1.062802124023437500e+01 1.651092767715454102e+00 8.205636024475097656e+00 2.957018613815307617e+00 9.502557516098022461e-01
1.773000000000000000e+03 4.768236541748046875e+01 -2.767503929138183594e+01 -4.844596683979034424e-01 5.249476909637451172e+00 1.429505228996276855e+00 -3.648747682571411133e+00
1.774000000000000000e+03 4.850197982788085938e+01 -2.828686332702636719e+01 2.529691457748413086e-01 5.447020053863525391e+00 1.709996700286865234e+00 -3.127407073974609375e+00
1.775000000000000000e+03 6.955010986328125000e+01 6.154873847961425781e+00 -3.238019347190856934e-01 2.858866453170776367e+00 7.605193853378295898e-01 2.045073032379150391e+00
1.776000000000000000e+03 7.234094238281250000e+01 8.445510864257812500e+00 9.430784732103347778e-02 8.886247634887695312e+00 2.694166660308837891e+00 6.707678437232971191e-01
1.777000000000000000e+03 5.045064926147460938e+01 1.978288459777832031e+01 -1.112861514091491699e+00 2.425050258636474609e+00 3.936566114425659180e-01 -1.643360972404479980e+00
1.778000000000000000e+03 6.272105026245117188e+01 3.829532623291015625e+01 -7.165429592132568359e-01 2.736828804016113281e+00 6.060857176780700684e-01 -5.319955348968505859e-01
1.779000000000000000e+03 6.356802749633789062e+01 -2.029711914062500000e+01 1.732913494110107422e+00 8.352749824523925781e+00 3.025699138641357422e+00 -1.434439420700073242e+00
1.780000000000000000e+03 2.054346466064453125e+01 -2.551362609863281250e+01 -1.549392223358154297e+00 8.425190299749374390e-02 -4.395421147346496582e-01 -6.894189715385437012e-01
1.781000000000000000e+03 3.039348793029785156e+01 2.587307453155517578e+00 -1.356192708015441895e+00 5.140576362609863281e+00 1.135315060615539551e+00 -1.748685359954833984e+00
1.782000000000000000e+03 2.042915344238281250e+01 1.434270191192626953e+01 7.421759963035583496e-01 1.365559864044189453e+01 4.319332599639892578e+00 -1.508764386177062988e+00
1.783000000000000000e+03 7.529116058349609375e+01 2.330745458602905273e+00 -3.887865543365478516e-01 6.543065547943115234e+00 1.846283793449401855e+00 -8.010515570640563965e-01
1.784000000000000000e+03 4.786128234863281250e+01 5.518999099731445312e+00 -1.007655858993530273e+00 1.691475749015808105e+00 2.051459848880767822e-01 -9.599217772483825684e-01
1.785000000000000000e+03 6.075601959228515625e+01 -3.937928974628448486e-01 -8.078096508979797363e-01 6.678384304046630859e+00 1.761172413825988770e+00 -1.610841393470764160e+00
1.786000000000000000e+03 7.287951660156250000e+01 -3.801258468627929688e+01 -1.464488059282302856e-01 6.386061191558837891e+00 1.871883749961853027e+00 -7.257075905799865723e-01
1.787000000000000000e+03 7.385254669189453125e+01 -2.621569442749023438e+01 -1.787806153297424316e+00 8.517998695373535156e+00 2.019057750701904297e+00 8.139854669570922852e-01
1.788000000000000000e+03 7.199869537353515625e+01 1.706179237365722656e+01 -4.008756875991821289e-01 8.202401161193847656e+00 2.340457677841186523e+00 -7.463039159774780273e-01
1.789000000000000000e+03 7.490856170654296875e+01 -3.514244079589843750e+01 2.318792790174484253e-01 6.484216690063476562e+00 2.014828920364379883e+00 -3.418063223361968994e-01
1.790000000000000000e+03 7.682341766357421875e+01 -3.506650543212890625e+01 9.364750236272811890e-02 7.095234870910644531e+00 2.156664848327636719e+00 -1.364693939685821533e-01
1.791000000000000000e+03 7.753704833984375000e+01 3.497467041015625000e+01 3.851315705105662346e-04 6.961826324462890625e+00 2.088663339614868164e+00 1.220023557543754578e-01
1.792000000000000000e+03 7.589803314208984375e+01 3.200711441040039062e+01 1.789931654930114746e-01 6.473663330078125000e+00 1.995796918869018555e+00 1.283675134181976318e-01
1.793000000000000000e+03 7.829629516601562500e+01 -2.376422500610351562e+01 4.202335178852081299e-01 7.298369884490966797e+00 2.315581083297729492e+00 -1.602155715227127075e-01
1.794000000000000000e+03 7.652709197998046875e+01 -2.549076652526855469e+01 -1.209465637803077698e-01 8.203429222106933594e+00 2.424744844436645508e+00 -6.012808084487915039e-01
1.795000000000000000e+03 7.817721557617187500e+01 -2.886470794677734375e+01 -8.848495781421661377e-02 7.451192855834960938e+00 2.208812236785888672e+00 -6.617987155914306641e-02
1.796000000000000000e+03 7.702040100097656250e+01 -3.001182174682617188e+01 -3.583522047847509384e-03 7.130731582641601562e+00 2.138144493103027344e+00 1.726198494434356689e-01
1.797000000000000000e+03 7.468357849121093750e+01 -2.526372909545898438e+01 4.011436551809310913e-02 8.565432548522949219e+00 2.581664085388183594e+00 -3.277986049652099609e-01
1.798000000000000000e+03 7.641777801513671875e+01 -2.341636657714843750e+01 9.950857758522033691e-01 8.665122985839843750e+00 2.898062467575073242e+00 6.771945208311080933e-02
1.799000000000000000e+03 7.566501617431640625e+01 -3.658289337158203125e+01 7.162213325500488281e-02 6.953068256378173828e+00 2.107407093048095703e+00 -3.138344287872314453e-01
1.800000000000000000e+03 7.672472381591796875e+01 -3.121590805053710938e+01 -5.362343043088912964e-03 6.985938072204589844e+00 2.094172716140747070e+00 1.317815631628036499e-01
1.801000000000000000e+03 7.070011138916015625e+01 -3.339804840087890625e+01 1.489749908447265625e+00 5.146203994750976562e+00 1.990786075592041016e+00 -9.140991568565368652e-01
1.802000000000000000e+03 7.467316436767578125e+01 -4.032698440551757812e+01 -2.718698084354400635e-01 6.987442016601562500e+00 2.014671564102172852e+00 -3.197722136974334717e-01
1.803000000000000000e+03 7.815528106689453125e+01 2.239937400817871094e+01 -1.127004623413085938e-01 7.406175613403320312e+00 2.188042640686035156e+00 1.985270716249942780e-02
1.804000000000000000e+03 7.693128967285156250e+01 1.983334922790527344e+01 -4.132497906684875488e-01 7.342510700225830078e+00 2.078778266906738281e+00 4.032510817050933838e-01
1.805000000000000000e+03 7.558273315429687500e+01 2.250426101684570312e+01 -4.324718415737152100e-01 6.925536632537841797e+00 1.947919487953186035e+00 -2.522462308406829834e-01
1.806000000000000000e+03 7.690592193603515625e+01 2.112931632995605469e+01 -3.461644947528839111e-01 7.284514904022216797e+00 2.081505060195922852e+00 1.698895543813705444e-01
1.807000000000000000e+03 7.713706207275390625e+01 1.407655143737792969e+01 4.360569119453430176e-01 6.976576805114746094e+00 2.223790168762207031e+00 4.185096025466918945e-01
1.808000000000000000e+03 7.487987518310546875e+01 1.340577697753906250e+01 1.206044077873229980e+00 8.563018798828125000e+00 2.930718898773193359e+00 1.609438657760620117e-01
1.809000000000000000e+03 7.812739562988281250e+01 -2.091983985900878906e+01 3.419510126113891602e-01 7.732728481292724609e+00 2.422403812408447266e+00 7.572456598281860352e-01
1.810000000000000000e+03 7.691081237792968750e+01 9.255696296691894531e+00 3.155496418476104736e-01 7.297829151153564453e+00 2.284013509750366211e+00 -9.528343677520751953e-01
1.811000000000000000e+03 7.689819335937500000e+01 2.378572654724121094e+01 -1.514941751956939697e-01 7.036171913146972656e+00 2.065403223037719727e+00 -2.205217480659484863e-01
1.812000000000000000e+03 7.810383605957031250e+01 2.648679351806640625e+01 1.608670689165592194e-03 7.113120555877685547e+00 2.134418725967407227e+00 -1.959939897060394287e-01
1.813000000000000000e+03 7.685422515869140625e+01 2.645486450195312500e+01 6.091223284602165222e-02 6.784679412841796875e+00 2.053677558898925781e+00 -2.796462774276733398e-01
1.814000000000000000e+03 7.788363647460937500e+01 7.420212745666503906e+00 3.148141503334045410e-02 7.371014118194580078e+00 2.220748662948608398e+00 -9.573118686676025391e-01
1.815000000000000000e+03 7.795664215087890625e+01 -2.352102994918823242e+00 -3.902551233768463135e-01 9.181764602661132812e+00 2.637452840805053711e+00 6.063418388366699219e-01
1.816000000000000000e+03 7.805157470703125000e+01 -8.999867439270019531e-01 -3.040377795696258545e-01 9.029908180236816406e+00 2.617761135101318359e+00 1.555297523736953735e-01
1.817000000000000000e+03 7.800065612792968750e+01 -5.482768058776855469e+00 4.215196967124938965e-01 9.234074592590332031e+00 2.896678447723388672e+00 4.362386167049407959e-01
1.818000000000000000e+03 7.801438140869140625e+01 -1.665624618530273438e+01 -2.180887907743453979e-01 8.870018959045410156e+00 2.595579147338867188e+00 9.922326803207397461e-01
1.819000000000000000e+03 7.587350463867187500e+01 -1.924625587463378906e+01 3.719744384288787842e-01 8.788515090942382812e+00 2.748146772384643555e+00 1.151768803596496582e+00
1.820000000000000000e+03 7.785237121582031250e+01 5.936943531036376953e+00 -6.171133369207382202e-02 7.689988136291503906e+00 2.288483142852783203e+00 -9.102921485900878906e-01
1.821000000000000000e+03 7.493201446533203125e+01 3.684231042861938477e+00 -3.887099623680114746e-01 6.520034790039062500e+00 1.839397549629211426e+00 -6.877459883689880371e-01
1.822000000000000000e+03 7.648683166503906250e+01 5.825411319732666016e+00 -1.340435445308685303e-01 7.501698017120361328e+00 2.210296392440795898e+00 -1.096546292304992676e+00
1.823000000000000000e+03 7.703346252441406250e+01 -2.112438964843750000e+01 6.106303334236145020e-01 8.141859054565429688e+00 2.625746965408325195e+00 7.879734635353088379e-01
1.824000000000000000e+03 7.568334197998046875e+01 -1.430432605743408203e+01 -1.099651455879211426e+00 7.507064342498779297e+00 1.922223806381225586e+00 7.739378213882446289e-01
1.825000000000000000e+03 7.560277557373046875e+01 3.364161682128906250e+01 8.407057076692581177e-02 6.499432086944580078e+00 1.975050806999206543e+00 2.101637572050094604e-01
1.826000000000000000e+03 7.517261505126953125e+01 3.023845863342285156e+01 2.795599102973937988e-01 6.296060085296630859e+00 1.972685933113098145e+00 1.386782736517488956e-03
1.827000000000000000e+03 7.637738037109375000e+01 3.052828788757324219e+01 1.597116738557815552e-01 6.543056964874267578e+00 2.010830640792846680e+00 -3.762888163328170776e-02
1.828000000000000000e+03 7.406616210937500000e+01 1.723083114624023438e+01 -3.403111994266510010e-01 8.084444999694824219e+00 2.323240041732788086e+00 5.898711085319519043e-01
1.829000000000000000e+03 7.574058532714843750e+01 7.121180057525634766e+00 -4.925675690174102783e-02 7.475616931915283203e+00 2.227907896041870117e+00 -1.072288513183593750e+00
1.830000000000000000e+03 7.654157257080078125e+01 8.042410850524902344e+00 1.372734904289245605e-01 7.455443382263183594e+00 2.277815103530883789e+00 -1.144911050796508789e+00
1.831000000000000000e+03 7.426966094970703125e+01 4.926328659057617188e+00 -3.256592750549316406e-01 6.547556877136230469e+00 1.866569280624389648e+00 -5.181676745414733887e-01
1.832000000000000000e+03 7.668628692626953125e+01 2.140413522720336914e+00 -4.255155622959136963e-01 7.602677345275878906e+00 2.153148651123046875e+00 -7.366731762886047363e-01
1.833000000000000000e+03 7.687026977539062500e+01 4.499186515808105469e+00 -2.049554288387298584e-01 7.631223678588867188e+00 2.227880477905273438e+00 -9.016433954238891602e-01
1.834000000000000000e+03 7.599837493896484375e+01 -1.004202747344970703e+01 -1.491708755493164062e-01 1.014580917358398438e+01 2.998991489410400391e+00 -6.634367108345031738e-01
1.835000000000000000e+03 7.475196075439453125e+01 -1.329448890686035156e+01 -1.532984972000122070e+00 6.589061260223388672e+00 1.516822814941406250e+00 9.406833648681640625e-01
1.836000000000000000e+03 7.683450317382812500e+01 -1.207980346679687500e+01 -1.149768948554992676e+00 9.406349182128906250e+00 2.476974010467529297e+00 -2.101134210824966431e-01
1.837000000000000000e+03 7.613719177246093750e+01 -2.761507987976074219e+00 -5.435552597045898438e-01 8.723232269287109375e+00 2.453903198242187500e+00 1.888018399477005005e-01
1.838000000000000000e+03 4.607547760009765625e+01 -1.542831420898437500e+01 -2.782907247543334961e+00 5.880006790161132812e+00 9.291298389434814453e-01 2.749299049377441406e+00
1.839000000000000000e+03 2.173281097412109375e+01 2.436250305175781250e+01 -2.133523225784301758e-01 1.081772422790527344e+01 3.181311607360839844e+00 3.130397796630859375e-01
1.840000000000000000e+03 2.189399528503417969e+01 2.542695617675781250e+01 -6.670437455177307129e-01 9.590732574462890625e+00 2.677106618881225586e+00 -6.669540405273437500e-01
1.841000000000000000e+03 6.500994873046875000e+01 -2.531380462646484375e+01 -1.092984557151794434e+00 8.170016288757324219e+00 2.123109340667724609e+00 -2.834525823593139648e+00
1.842000000000000000e+03 4.430449676513671875e+01 3.435304260253906250e+01 -1.228383660316467285e+00 2.934835195541381836e+00 5.119354724884033203e-01 -1.060790538787841797e+00
1.843000000000000000e+03 6.595113372802734375e+01 -2.775968551635742188e+01 -6.337405443191528320e-01 7.404834270477294922e+00 2.031327962875366211e+00 -2.427564620971679688e+00
1.844000000000000000e+03 6.707735443115234375e+01 -2.779613876342773438e+01 3.326593935489654541e-01 5.979178428649902344e+00 1.893551349639892578e+00 -2.458417892456054688e+00
1.845000000000000000e+03 3.885697174072265625e+01 -1.645219230651855469e+01 -8.003845214843750000e-01 5.224457263946533203e+00 1.327221870422363281e+00 -1.827274203300476074e+00
1.846000000000000000e+03 3.913386154174804688e+01 -1.345182132720947266e+01 -2.931046724319458008e+00 5.118051528930664062e+00 6.561014056205749512e-01 -2.367898702621459961e+00
1.847000000000000000e+03 2.801938247680664062e+01 -2.779137229919433594e+01 -1.445722579956054688e+00 6.473775386810302734e+00 1.508415818214416504e+00 -2.788589298725128174e-01
1.848000000000000000e+03 3.003509283065795898e+00 2.796360397338867188e+01 7.742574810981750488e-01 3.956075668334960938e+00 1.419099926948547363e+00 -6.812239885330200195e-01
1.849000000000000000e+03 1.858662605285644531e+00 3.191499710083007812e+01 -1.440821439027786255e-01 3.807843208312988281e+00 1.099128365516662598e+00 -9.718047976493835449e-01
1.850000000000000000e+03 4.519427299499511719e+00 3.262166213989257812e+01 -5.828305482864379883e-01 4.197497367858886719e+00 1.084400057792663574e+00 -9.062716364860534668e-01
1.851000000000000000e+03 3.093195199966430664e+00 2.969236373901367188e+01 3.347294032573699951e-01 4.327193260192871094e+00 1.398576855659484863e+00 -1.075580477714538574e+00
1.852000000000000000e+03 1.846053481101989746e+00 3.058909225463867188e+01 8.377479016780853271e-02 3.385901689529418945e+00 1.040902972221374512e+00 -9.214850068092346191e-01
1.853000000000000000e+03 2.093285560607910156e+00 3.470825195312500000e+01 -2.436277717351913452e-01 4.388284683227539062e+00 1.243397116661071777e+00 -5.356746315956115723e-01
1.854000000000000000e+03 5.134453773498535156e+00 2.605030059814453125e+01 1.309695243835449219e+00 5.831636428833007812e+00 2.142399549484252930e+00 -5.551339983940124512e-01
1.855000000000000000e+03 3.325725078582763672e+00 3.313061523437500000e+01 -5.063918828964233398e-01 4.183413028717041016e+00 1.103106260299682617e+00 -9.870649576187133789e-01
1.856000000000000000e+03 5.361937046051025391e+00 3.377766036987304688e+01 -1.150942683219909668e+00 3.480301618576049805e+00 6.988076567649841309e-01 -4.463129341602325439e-01
1.857000000000000000e+03 3.303737401962280273e+00 3.879950332641601562e+01 -2.399033159017562866e-01 4.256418228149414062e+00 1.204954385757446289e+00 9.827680885791778564e-02
1.858000000000000000e+03 3.864133596420288086e+00 -3.591030120849609375e+01 1.644008457660675049e-01 3.339890956878662109e+00 1.051287531852722168e+00 4.033271074295043945e-01
1.859000000000000000e+03 1.680521130561828613e+00 -2.870742797851562500e+01 4.314702376723289490e-02 3.629252195358276367e+00 1.101719737052917480e+00 -4.347621500492095947e-01
1.860000000000000000e+03 2.983068943023681641e+00 -2.959774780273437500e+01 1.804223209619522095e-01 3.112176418304443359e+00 9.877796769142150879e-01 -5.147817730903625488e-01
1.861000000000000000e+03 1.772419333457946777e+00 -3.002195739746093750e+01 1.029296293854713440e-01 3.453450679779052734e+00 1.066914081573486328e+00 -3.409639894962310791e-01
1.862000000000000000e+03 1.684213995933532715e+00 2.187146759033203125e+01 -1.217370033264160156e-01 2.191889286041259766e+00 6.210456490516662598e-01 -6.368064135313034058e-02
1.863000000000000000e+03 5.963755130767822266e+00 2.241030883789062500e+01 -8.835307359695434570e-01 4.090017318725585938e+00 9.619459509849548340e-01 -1.108588218688964844e+00
1.864000000000000000e+03 5.721930027008056641e+00 1.889169502258300781e+01 -8.678199648857116699e-01 3.343513965606689453e+00 7.427082061767578125e-01 -1.363155126571655273e+00
1.865000000000000000e+03 4.893732547760009766e+00 1.094459724426269531e+01 9.861695170402526855e-01 2.010559320449829102e+00 8.990186452865600586e-01 -7.311820983886718750e-01
1.866000000000000000e+03 2.086787462234497070e+00 -1.992411422729492188e+01 2.780338823795318604e-01 2.973433494567871094e+00 9.754402041435241699e-01 2.075227975845336914e+00
1.867000000000000000e+03 3.288438081741333008e+00 -1.511962032318115234e+01 4.977758526802062988e-01 3.179589033126831055e+00 1.103209495544433594e+00 2.092782706022262573e-01
1.868000000000000000e+03 6.059109210968017578e+00 -1.384800624847412109e+01 8.557889461517333984e-01 4.602589607238769531e+00 1.637513637542724609e+00 1.734177589416503906e+00
1.869000000000000000e+03 3.123516082763671875e+00 -2.457752609252929688e+01 -7.995154261589050293e-01 3.513554573059082031e+00 8.142117261886596680e-01 -6.031704321503639221e-02
1.870000000000000000e+03 5.318134307861328125e+00 -2.311638450622558594e+01 -2.678910732269287109e+00 2.744784355163574219e+00 1.976208947598934174e-02 -2.194954454898834229e-01
1.871000000000000000e+03 3.454183340072631836e+00 -1.634086418151855469e+01 1.050786972045898438e+00 3.567099332809448242e+00 1.385365843772888184e+00 7.449054718017578125e-01
1.872000000000000000e+03 2.649246931076049805e+00 -1.010005378723144531e+01 -1.902870386838912964e-01 9.784849286079406738e-01 2.364593744277954102e-01 1.539269387722015381e-01
1.873000000000000000e+03 2.624889612197875977e+00 8.005547523498535156e+00 2.621097266674041748e-01 -1.034623458981513977e-01 4.759421199560165405e-02 2.159376889467239380e-01
1.874000000000000000e+03 1.538320422172546387e+00 6.656812191009521484e+00 7.740220427513122559e-02 -9.037918448448181152e-01 -2.479168921709060669e-01 3.267882466316223145e-01
1.875000000000000000e+03 1.659772634506225586e+00 1.466174983978271484e+01 7.091589272022247314e-02 1.794981807470321655e-01 7.512421905994415283e-02 -7.555089592933654785e-01
1.876000000000000000e+03 2.855174541473388672e+00 1.563815402984619141e+01 -2.178278006613254547e-02 1.309847235679626465e+00 3.864193260669708252e-01 -1.132297992706298828e+00
1.877000000000000000e+03 1.545899629592895508e+00 -9.024575233459472656e+00 -4.762374609708786011e-02 2.232197374105453491e-01 5.267879739403724670e-02 7.203201204538345337e-02
1.878000000000000000e+03 4.856090545654296875e+00 -4.690097808837890625e+00 4.800485670566558838e-01 2.914029061794281006e-01 2.314354330301284790e-01 3.014778494834899902e-01
1.879000000000000000e+03 2.559592485427856445e+00 -5.056807041168212891e+00 1.635003238916397095e-01 8.266010880470275879e-02 7.384812831878662109e-02 3.454269468784332275e-02
1.880000000000000000e+03 1.500498414039611816e+00 -6.352893829345703125e+00 5.534004420042037964e-02 -4.502468928694725037e-02 3.094607032835483551e-03 6.326368451118469238e-02
1.881000000000000000e+03 2.688704490661621094e+00 9.329159736633300781e+00 3.444290459156036377e-01 -2.351720817387104034e-02 9.627354890108108521e-02 -1.815243624150753021e-02
1.882000000000000000e+03 4.094796657562255859e+00 -1.216182804107666016e+01 -3.812194764614105225e-01 2.739959716796875000e+00 7.076220512390136719e-01 4.052160680294036865e-01
1.883000000000000000e+03 2.277815818786621094e+00 -3.536050796508789062e+01 1.060497462749481201e-01 3.369313478469848633e+00 1.042608976364135742e+00 2.009866982698440552e-01
1.884000000000000000e+03 3.486785888671875000e+00 2.332421302795410156e+01 -3.742461502552032471e-01 3.533987283706665039e+00 9.479223489761352539e-01 -3.231589496135711670e-02
1.885000000000000000e+03 2.580731391906738281e+00 -8.851757049560546875e+00 -9.232873469591140747e-02 6.727136969566345215e-01 1.741154938936233521e-01 2.726002037525177002e-01
1.886000000000000000e+03 3.391994714736938477e+00 -3.356301116943359375e+01 3.079099953174591064e-01 3.122315645217895508e+00 1.029067635536193848e+00 1.326120495796203613e-01
1.887000000000000000e+03 4.598709106445312500e+00 -3.306891250610351562e+01 5.230506658554077148e-01 2.870556831359863281e+00 1.018082261085510254e+00 1.719243973493576050e-01
1.888000000000000000e+03 1.801643013954162598e+00 -2.600903892517089844e+01 -1.751180738210678101e-01 4.012444496154785156e+00 1.151197910308837891e+00 -2.898482382297515869e-01
1.889000000000000000e+03 6.534166336059570312e+00 -2.581338882446289062e+01 -8.660898804664611816e-01 1.093717336654663086e+00 6.828825175762176514e-02 -8.407799601554870605e-01
1.890000000000000000e+03 3.301494836807250977e+00 -1.949618721008300781e+01 8.997643589973449707e-01 4.257685184478759766e+00 1.547234892845153809e+00 2.004971981048583984e+00
1.891000000000000000e+03 2.640595197677612305e+00 1.066497802734375000e+01 3.404537141323089600e-01 4.279530420899391174e-02 1.149746999144554138e-01 -3.344133198261260986e-01
1.892000000000000000e+03 3.736790895462036133e+00 1.074677181243896484e+01 5.910038948059082031e-01 9.787545204162597656e-01 4.709275066852569580e-01 -4.873856902122497559e-01
1.893000000000000000e+03 2.780938148498535156e+00 1.324763202667236328e+01 2.892774343490600586e-01 6.850566864013671875e-01 2.923002541065216064e-01 -9.244039654731750488e-01
1.894000000000000000e+03 3.313377380371093750e+00 1.680868530273437500e+01 -1.959598660469055176e-01 1.935157060623168945e+00 5.217591524124145508e-01 -1.228938937187194824e+00
1.895000000000000000e+03 3.298063516616821289e+00 1.916456031799316406e+01 -4.736348390579223633e-01 2.440521001815795898e+00 5.900658965110778809e-01 -8.508185148239135742e-01
1.896000000000000000e+03 2.982948541641235352e+00 2.061036491394042969e+01 -4.170034229755401611e-01 2.606331348419189453e+00 6.567983627319335938e-01 -4.954256415367126465e-01
1.897000000000000000e+03 1.528632164001464844e+01 -9.001117706298828125e+00 2.139427661895751953e+00 8.365204811096191406e+00 3.151389598846435547e+00 -1.298332333564758301e+00
1.898000000000000000e+03 2.353022575378417969e+01 -1.925922393798828125e+01 2.382384777069091797e+00 1.895506858825683594e+00 1.283367514610290527e+00 -1.117070198059082031e+00
1.899000000000000000e+03 2.643433380126953125e+01 2.985349082946777344e+01 -3.725972473621368408e-01 3.547703325748443604e-01 -5.348069593310356140e-03 -5.042915418744087219e-02
1.900000000000000000e+03 7.214363098144531250e+01 1.927831077575683594e+01 -1.659819722175598145e+00 6.983976364135742188e+00 1.597247004508972168e+00 -6.513499021530151367e-01
1.901000000000000000e+03 3.283647918701171875e+01 -6.548606395721435547e+00 2.672038078308105469e+00 5.649960517883300781e+00 2.496599674224853516e+00 -5.646092295646667480e-01
1.902000000000000000e+03 5.276993942260742188e+01 -3.916960525512695312e+01 -2.163639068603515625e+00 6.725221157073974609e+00 1.368474721908569336e+00 1.962319016456604004e-01
1.903000000000000000e+03 2.198387718200683594e+01 2.636659240722656250e+01 -4.001025259494781494e-01 9.194487571716308594e+00 2.638315439224243164e+00 -6.991642117500305176e-01
1.904000000000000000e+03 4.081435012817382812e+01 2.371242761611938477e+00 1.073653697967529297e+00 5.938156127929687500e+00 2.103543043136596680e+00 -1.072635352611541748e-01
1.905000000000000000e+03 4.360052108764648438e+01 -2.996325016021728516e+00 -1.023453235626220703e+00 1.436056494712829590e+00 1.237809658050537109e-01 -1.419682502746582031e+00
1.906000000000000000e+03 3.403607940673828125e+01 2.098380088806152344e+01 3.008822202682495117e-01 8.187777519226074219e+00 2.546597957611083984e+00 -5.418230891227722168e-01
1.907000000000000000e+03 2.636039543151855469e+01 2.001051902770996094e+00 -3.787167072296142578e-01 3.653731822967529297e+00 9.825045466423034668e-01 -1.524567127227783203e+00
1.908000000000000000e+03 5.446965789794921875e+01 1.799118232727050781e+01 2.146938443183898926e-01 4.772791385650634766e+00 1.496245622634887695e+00 -1.903475284576416016e+00
1.909000000000000000e+03 5.329305267333984375e+01 1.890171623229980469e+01 -7.266039848327636719e-01 4.200759410858154297e+00 1.042246699333190918e+00 -2.304094314575195312e+00
1.910000000000000000e+03 5.258562469482421875e+01 -4.134194183349609375e+01 -2.939692020416259766e+00 6.765723228454589844e+00 1.147809386253356934e+00 3.560003638267517090e-02
1.911000000000000000e+03 5.262958145141601562e+01 -3.736998748779296875e+01 -1.015072226524353027e+00 7.288498878479003906e+00 1.882027983665466309e+00 1.493385136127471924e-01
1.912000000000000000e+03 2.209223556518554688e+01 9.642799377441406250e+00 2.687623500823974609e+00 6.067418575286865234e+00 2.626512527465820312e+00 -3.596158027648925781e-01
1.913000000000000000e+03 2.406217575073242188e+01 1.367781257629394531e+01 -1.350722461938858032e-01 3.912107706069946289e+00 1.133110642433166504e+00 -1.081780314445495605e+00
1.914000000000000000e+03 3.658604431152343750e+01 1.355013942718505859e+01 1.191835403442382812e-01 1.601178646087646484e+00 5.161086916923522949e-01 -2.124489068984985352e+00
1.915000000000000000e+03 4.952606964111328125e+01 -9.697350502014160156e+00 2.154608488082885742e+00 7.712339401245117188e+00 2.960084438323974609e+00 1.307295560836791992e-01
1.916000000000000000e+03 2.411474800109863281e+01 -2.800219917297363281e+01 -1.334568619728088379e+00 5.452258110046386719e+00 1.235306859016418457e+00 -7.191702127456665039e-01
1.917000000000000000e+03 2.198835563659667969e+01 -2.328009986877441406e+01 1.172623991966247559e+00 1.847651362419128418e+00 9.060825705528259277e-01 -1.426531910896301270e+00
1.918000000000000000e+03 7.489583587646484375e+01 -2.157935333251953125e+01 1.336835741996765137e+00 1.048579502105712891e+01 3.546789169311523438e+00 3.842374980449676514e-01
1.919000000000000000e+03 7.550205230712890625e+01 -2.250861167907714844e+01 1.268326640129089355e+00 9.531571388244628906e+00 3.239969253540039062e+00 3.599564433097839355e-01
1.920000000000000000e+03 4.237969589233398438e+01 1.547792434692382812e+01 1.852368831634521484e+00 6.321691036224365234e+00 2.452217817306518555e+00 3.159352019429206848e-02
1.921000000000000000e+03 5.261145782470703125e+01 2.483628845214843750e+01 8.821944594383239746e-01 5.600054740905761719e+00 1.944674730300903320e+00 -6.610997915267944336e-01
1.922000000000000000e+03 4.517399597167968750e+01 -2.014329910278320312e+00 1.419025473296642303e-03 2.918932914733886719e+00 8.761055469512939453e-01 -2.385379314422607422e+00
1.923000000000000000e+03 1.719435882568359375e+01 -1.372500801086425781e+01 -3.306974649429321289e+00 8.942309379577636719e+00 1.690600514411926270e+00 -9.106506109237670898e-01
1.924000000000000000e+03 3.237858963012695312e+01 4.954987168312072754e-01 -1.785548329353332520e+00 2.594880342483520508e+00 2.427996098995208740e-01 -9.738546013832092285e-01
1.925000000000000000e+03 8.026931762695312500e+00 1.398094177246093750e+01 6.906259655952453613e-01 5.560495376586914062e+00 1.875336408615112305e+00 -1.199766039848327637e+00
1.926000000000000000e+03 4.630764007568359375e+00 1.212782001495361328e+01 8.575075268745422363e-01 2.095858573913574219e+00 8.860098123550415039e-01 -1.052069783210754395e+00
1.927000000000000000e+03 5.733851623535156250e+01 1.295735359191894531e+01 1.751556396484375000e+00 8.282379150390625000e+00 3.010180711746215820e+00 5.024733543395996094e-01
1.928000000000000000e+03 4.767871093750000000e+01 -1.022952079772949219e+00 2.631638944149017334e-01 4.499494552612304688e+00 1.428797602653503418e+00 -2.143383979797363281e+00
1.929000000000000000e+03 4.722068405151367188e+01 -4.914093971252441406e+00 3.798142671585083008e-01 5.861709117889404297e+00 1.872457027435302734e+00 -1.403423070907592773e+00
1.930000000000000000e+03 5.225848770141601562e+01 1.978593444824218750e+01 -8.604275584220886230e-01 3.906261682510375977e+00 9.137501716613769531e-01 -2.394434690475463867e+00
1.931000000000000000e+03 4.518821239471435547e+00 2.963826179504394531e+01 3.840689361095428467e-01 5.255127429962158203e+00 1.691758990287780762e+00 -1.151245236396789551e+00
1.932000000000000000e+03 6.403086090087890625e+01 -1.376595306396484375e+01 -1.670847296714782715e+00 6.203626632690429688e+00 1.359833717346191406e+00 6.637566089630126953e-01
1.933000000000000000e+03 6.563013458251953125e+01 -1.427695846557617188e+01 -1.537301182746887207e+00 4.266485691070556641e+00 8.187554478645324707e-01 2.968018651008605957e-01
1.934000000000000000e+03 4.628566360473632812e+01 3.412831497192382812e+01 -1.129687666893005371e+00 4.651223659515380859e+00 1.056460857391357422e+00 -6.795836091041564941e-01
1.935000000000000000e+03 6.286068916320800781e+00 2.395030403137207031e+01 -2.165018469095230103e-01 4.558039665222167969e+00 1.302461385726928711e+00 -1.091932296752929688e+00
1.936000000000000000e+03 5.697815895080566406e+00 2.506324386596679688e+01 4.757407307624816895e-01 5.858995914459228516e+00 1.900421023368835449e+00 -9.140582084655761719e-01
1.937000000000000000e+03 4.687725067138671875e+01 -3.373724460601806641e+00 8.007368445396423340e-02 4.575067043304443359e+00 1.396542310714721680e+00 -1.792677283287048340e+00
1.938000000000000000e+03 4.901826477050781250e+01 2.923479843139648438e+01 1.621148228645324707e+00 6.978713035583496094e+00 2.579958438873291016e+00 9.692530035972595215e-01
1.939000000000000000e+03 1.543103408813476562e+01 2.177005767822265625e+01 2.771293222904205322e-01 -7.746484875679016113e-01 -1.492557525634765625e-01 1.065703406929969788e-01
1.940000000000000000e+03 7.501020812988281250e+01 1.679465866088867188e+01 -1.676647663116455078e-01 7.883995532989501953e+00 2.314899206161499023e+00 7.351670265197753906e-01
1.941000000000000000e+03 2.927101325988769531e+01 -1.601586341857910156e+01 -1.687540650367736816e+00 6.799966335296630859e+00 1.533727645874023438e+00 1.700050234794616699e+00
1.942000000000000000e+03 1.071722602844238281e+01 -3.806151580810546875e+01 -5.698979496955871582e-01 3.308680534362792969e+00 8.216347694396972656e-01 9.133790731430053711e-01
1.943000000000000000e+03 1.093895530700683594e+01 -3.497953796386718750e+01 6.177424788475036621e-01 3.942432641983032227e+00 1.368052482604980469e+00 1.172018170356750488e+00
1.944000000000000000e+03 2.402704048156738281e+01 -1.494338703155517578e+01 -1.987908482551574707e+00 -7.645170390605926514e-02 -6.193080544471740723e-01 4.934825375676155090e-02
1.945000000000000000e+03 2.760591506958007812e+01 -1.795642280578613281e+01 6.629111766815185547e-01 5.983069896697998047e+00 1.993794322013854980e+00 8.320385217666625977e-01
1.946000000000000000e+03 1.985780143737792969e+01 3.751502513885498047e+00 1.104179263114929199e+00 2.979690790176391602e+00 1.225160956382751465e+00 3.516193628311157227e+00
1.947000000000000000e+03 3.213931274414062500e+01 2.578669738769531250e+01 4.225370585918426514e-01 8.312841415405273438e+00 2.620613574981689453e+00 5.878452584147453308e-02
1.948000000000000000e+03 3.154903602600097656e+01 3.032335090637207031e+01 5.363578796386718750e-01 5.176301956176757812e+00 1.713797926902770996e+00 -1.629673123359680176e+00
1.949000000000000000e+03 8.984909057617187500e+00 8.700249671936035156e+00 1.039042115211486816e+00 5.862652301788330078e+00 2.070508241653442383e+00 -1.226946353912353516e+00
1.950000000000000000e+03 6.677449226379394531e+00 4.718879222869873047e+00 1.209950670599937439e-01 1.813625931739807129e+00 5.803863406181335449e-01 -6.353283524513244629e-01
1.951000000000000000e+03 4.713002395629882812e+01 3.343231201171875000e+01 -5.122693181037902832e-01 5.258372783660888672e+00 1.423830986022949219e+00 -4.117135107517242432e-01
1.952000000000000000e+03 5.991897583007812500e+01 -1.921468353271484375e+01 2.122983217239379883e+00 5.598368644714355469e+00 2.316405534744262695e+00 -2.385161817073822021e-01
1.953000000000000000e+03 6.237448501586914062e+01 -1.937306022644042969e+01 1.483130335807800293e+00 6.861506462097167969e+00 2.503391027450561523e+00 -1.252707123756408691e+00
1.954000000000000000e+03 9.172624588012695312e+00 2.102177429199218750e+01 -1.067310214042663574e+00 1.967846751213073730e+00 2.701609432697296143e-01 -8.555101156234741211e-01
1.955000000000000000e+03 5.516119766235351562e+01 -1.131288909912109375e+01 -2.224669307470321655e-01 3.024464368820190430e+00 8.405992388725280762e-01 -2.564987182617187500e+00
1.956000000000000000e+03 3.827588272094726562e+01 -2.645611286163330078e+00 -4.746108353137969971e-01 3.988886356353759766e+00 1.054282665252685547e+00 2.761389732360839844e+00
1.957000000000000000e+03 1.494949531555175781e+01 -2.268078422546386719e+01 -1.261379837989807129e+00 5.155753135681152344e+00 1.168311953544616699e+00 2.139778137207031250e+00
1.958000000000000000e+03 7.258549499511718750e+01 -1.610859298706054688e+01 -3.834184408187866211e-01 3.961646556854248047e+00 1.073468446731567383e+00 -5.889480710029602051e-01
1.959000000000000000e+03 4.126016235351562500e+01 -1.585148143768310547e+01 -1.297111749649047852e+00 2.797381401062011719e+00 4.500809013843536377e-01 -1.729790091514587402e+00
1.960000000000000000e+03 7.048173522949218750e+01 -3.512360000610351562e+01 6.734014749526977539e-01 5.649971008300781250e+00 1.897011756896972656e+00 -1.170403122901916504e+00
1.961000000000000000e+03 6.766184997558593750e+01 -3.712726211547851562e+01 -8.738214373588562012e-01 5.667712211608886719e+00 1.438167214393615723e+00 -9.882176518440246582e-01
1.962000000000000000e+03 4.988794708251953125e+01 2.528397369384765625e+01 2.144673109054565430e+00 5.763793945312500000e+00 2.372539997100830078e+00 5.645983815193176270e-01
1.963000000000000000e+03 5.263165283203125000e+01 2.766667938232421875e+01 1.647243738174438477e+00 7.275472640991210938e+00 2.676815032958984375e+00 -1.250343024730682373e-01
1.964000000000000000e+03 1.079405212402343750e+01 -3.151093482971191406e+01 1.646456003189086914e+00 3.494448661804199219e+00 1.542271375656127930e+00 1.234302043914794922e+00
1.965000000000000000e+03 1.797882080078125000e+01 6.209660530090332031e+00 -5.409399271011352539e-01 3.801660537719726562e+00 9.782161712646484375e-01 4.100757598876953125e+00
1.966000000000000000e+03 2.868552017211914062e+01 -6.637377738952636719e-01 -4.427649080753326416e-01 6.210250377655029297e+00 1.730245709419250488e+00 -2.057945728302001953e+00
1.967000000000000000e+03 2.953046798706054688e+01 -1.032143712043762207e+00 2.129261195659637451e-01 6.071290493011474609e+00 1.885264873504638672e+00 -1.889313697814941406e+00
1.968000000000000000e+03 4.348128128051757812e+01 1.270422267913818359e+01 1.404758334159851074e+00 9.310483932495117188e+00 3.214572668075561523e+00 5.388211011886596680e-01
1.969000000000000000e+03 2.578583717346191406e+01 -2.785232734680175781e+01 -1.304419875144958496e+00 6.492413520812988281e+00 1.556398034095764160e+00 -9.074483066797256470e-02
1.970000000000000000e+03 2.776182746887207031e+01 -2.605298614501953125e+01 -9.106057882308959961e-01 7.046947956085205078e+00 1.840902686119079590e+00 -2.315243482589721680e-01
1.971000000000000000e+03 5.597433853149414062e+01 8.660007476806640625e+00 2.043687105178833008e+00 8.348303794860839844e+00 3.117597341537475586e+00 1.367102622985839844e+00
1.972000000000000000e+03 5.986507034301757812e+01 9.363906860351562500e+00 8.064047694206237793e-01 7.118808746337890625e+00 2.377564191818237305e+00 -6.324066519737243652e-01
1.973000000000000000e+03 1.943276977539062500e+01 -1.630627059936523438e+01 2.015254050493240356e-01 4.131888389587402344e+00 1.300024151802062988e+00 -1.467536211013793945e+00
1.974000000000000000e+03 2.028945159912109375e+01 -1.535186100006103516e+01 -4.098852276802062988e-01 2.848582267761230469e+00 7.316091060638427734e-01 -1.727396488189697266e+00
1.975000000000000000e+03 5.055903625488281250e+01 -3.194710540771484375e+01 3.004953145980834961e+00 7.912660121917724609e+00 3.275284051895141602e+00 -1.445083737373352051e+00
1.976000000000000000e+03 1.385282707214355469e+01 -1.134063625335693359e+01 -7.504173517227172852e-01 3.450649261474609375e+00 8.100696206092834473e-01 -3.767175674438476562e-01
1.977000000000000000e+03 1.603957366943359375e+01 -7.554507732391357422e+00 2.089857816696166992e+00 1.249148750305175781e+01 4.374403476715087891e+00 -2.343353509902954102e+00
1.978000000000000000e+03 4.333990097045898438e+01 -1.501565265655517578e+01 -1.625398397445678711e+00 1.009213209152221680e+00 -1.848555654287338257e-01 3.519191741943359375e-01
1.979000000000000000e+03 3.868497085571289062e+01 -1.529758930206298828e+01 -2.593211174011230469e+00 5.664206504821777344e+00 9.212985634803771973e-01 -2.068518161773681641e+00
1.980000000000000000e+03 2.827677917480468750e+01 -1.946350097656250000e+01 1.750112175941467285e+00 8.469565391540527344e+00 3.065903425216674805e+00 1.436786413192749023e+00
1.981000000000000000e+03 5.553406524658203125e+01 1.482814311981201172e+01 1.402835488319396973e+00 6.901426792144775391e+00 2.491278648376464844e+00 -5.481582283973693848e-01
1.982000000000000000e+03 6.057204818725585938e+01 1.777078819274902344e+01 2.553806304931640625e+00 8.124357223510742188e+00 3.203449010848999023e+00 2.496078491210937500e+00
1.983000000000000000e+03 4.449369812011718750e+01 -1.850088691711425781e+01 1.724906325340270996e+00 4.892724514007568359e+00 1.985289335250854492e+00 3.024406433105468750e-01
1.984000000000000000e+03 4.654423904418945312e+01 -2.567171669006347656e+01 -9.109488129615783691e-01 4.570936203002929688e+00 1.097996234893798828e+00 -3.058270692825317383e+00
1.985000000000000000e+03 4.872475433349609375e+01 -4.125511932373046875e+01 -1.971323013305664062e+00 3.884078502655029297e+00 5.738266706466674805e-01 3.260095417499542236e-01
1.986000000000000000e+03 7.561930084228515625e+01 -4.297369956970214844e+00 3.996110558509826660e-01 9.740110397338867188e+00 3.041916370391845703e+00 -3.550095856189727783e-01
1.987000000000000000e+03 7.671611785888671875e+01 -1.906563878059387207e+00 -6.320244669914245605e-01 8.714004516601562500e+00 2.424593925476074219e+00 1.576009243726730347e-01
1.988000000000000000e+03 1.479468059539794922e+01 -6.953578948974609375e+00 2.013029336929321289e+00 8.623809814453125000e+00 3.191051483154296875e+00 -1.764393448829650879e+00
1.989000000000000000e+03 7.283299255371093750e+01 2.030097579956054688e+01 -1.233761072158813477e+00 6.759589195251464844e+00 1.657748341560363770e+00 -6.566644310951232910e-01
1.990000000000000000e+03 3.828425598144531250e+01 1.397467231750488281e+01 7.663460969924926758e-01 3.299577236175537109e+00 1.219776988029479980e+00 -1.978781104087829590e+00
1.991000000000000000e+03 6.808627319335937500e+01 -1.260414218902587891e+01 -4.173012375831604004e-01 1.931746959686279297e+00 4.543336927890777588e-01 -9.461212158203125000e-01
1.992000000000000000e+03 6.608605957031250000e+01 -1.210492515563964844e+01 -5.126399993896484375e-01 4.593139171600341797e+00 1.224149823188781738e+00 -6.768520474433898926e-01
1.993000000000000000e+03 5.456896209716796875e+01 -3.294534683227539062e+01 2.830029487609863281e+00 8.221425056457519531e+00 3.315436363220214844e+00 -2.172293886542320251e-02
1.994000000000000000e+03 5.480543899536132812e+01 -3.144572830200195312e+01 2.324067115783691406e+00 8.579513549804687500e+00 3.271074056625366211e+00 8.355755805969238281e-01
1.995000000000000000e+03 1.789882850646972656e+01 3.746836853027343750e+01 -7.836098670959472656e-01 2.725666999816894531e+00 5.826171636581420898e-01 -6.815084815025329590e-01
1.996000000000000000e+03 1.547560405731201172e+01 2.754387378692626953e+00 3.346238136291503906e+00 6.157584667205810547e+00 2.851146936416625977e+00 3.313536643981933594e+00
1.997000000000000000e+03 1.765966987609863281e+01 2.148600006103515625e+01 1.103717565536499023e+00 5.056238174438476562e-01 4.828024208545684814e-01 2.145982682704925537e-01
1.998000000000000000e+03 1.896885681152343750e+01 1.863528251647949219e+01 -1.546743631362915039e+00 3.718003988265991211e+00 6.513780951499938965e-01 2.274585217237472534e-01
1.999000000000000000e+03 2.554073715209960938e+01 1.405614852905273438e+01 -9.691378474235534668e-01 5.508672595024108887e-01 -1.254811882972717285e-01 -3.759270608425140381e-01
2.000000000000000000e+03 2.391246604919433594e+01 1.544163894653320312e+01 -3.482592105865478516e+00 4.539443969726562500e+00 3.170555233955383301e-01 -6.605273485183715820e-01
2.001000000000000000e+03 5.921910476684570312e+01 -2.295103263854980469e+01 2.342035293579101562e+00 4.164396286010742188e+00 1.951929569244384766e+00 6.533031463623046875e-01
2.002000000000000000e+03 2.606928062438964844e+01 -2.958004188537597656e+01 -4.357422888278961182e-01 6.531756401062011719e+00 1.828804254531860352e+00 -1.077027097344398499e-01
2.003000000000000000e+03 3.866450119018554688e+01 -2.039837837219238281e-01 -9.621068835258483887e-01 4.846520900726318359e+00 1.165324211120605469e+00 2.536348104476928711e+00
2.004000000000000000e+03 1.928575325012207031e+01 1.324822068214416504e+00 1.958768486976623535e+00 2.111593723297119141e+00 1.221108675003051758e+00 2.930029630661010742e+00
2.005000000000000000e+03 2.078769111633300781e+01 4.654722690582275391e+00 1.022143125534057617e+00 3.426526784896850586e+00 1.334600925445556641e+00 2.725494384765625000e+00
2.006000000000000000e+03 6.380984878540039062e+01 -3.548435449600219727e+00 1.797965407371520996e+00 8.373079299926757812e+00 3.051313400268554688e+00 2.695608735084533691e-01
2.007000000000000000e+03 6.251097869873046875e+01 -4.288513660430908203e+00 1.747693896293640137e+00 9.808545112609863281e+00 3.466871738433837891e+00 -9.083944559097290039e-01
2.008000000000000000e+03 2.850217056274414062e+01 1.053784275054931641e+01 3.233392715454101562e+00 4.972050189971923828e+00 2.461632728576660156e+00 1.892121553421020508e+00
2.009000000000000000e+03 2.774405288696289062e+01 1.361379337310791016e+01 -5.636508464813232422e-01 1.302425861358642578e+00 2.216325104236602783e-01 1.983195662498474121e+00
2.010000000000000000e+03 3.487869644165039062e+01 2.492610549926757812e+01 3.694430887699127197e-01 9.031268119812011719e+00 2.820213317871093750e+00 -3.955502510070800781e-01
2.011000000000000000e+03 4.991615772247314453e+00 3.069568634033203125e+01 9.060044586658477783e-02 5.365041732788085938e+00 1.636692643165588379e+00 -6.613512039184570312e-01
2.012000000000000000e+03 6.339733600616455078e+00 2.133708381652832031e+01 -1.172702789306640625e+00 3.655812740325927734e+00 7.449329495429992676e-01 -1.146093606948852539e+00
2.013000000000000000e+03 1.667087173461914062e+01 -1.071229362487792969e+01 2.355024814605712891e-01 1.076891708374023438e+01 3.301325798034667969e+00 -1.539943099021911621e+00
2.014000000000000000e+03 4.574774551391601562e+01 -1.887621879577636719e+01 1.901589989662170410e+00 6.995391368865966797e+00 2.669094324111938477e+00 1.049808740615844727e+00
2.015000000000000000e+03 4.320572280883789062e+01 -1.806150436401367188e+01 1.685603022575378418e+00 3.741966485977172852e+00 1.628270864486694336e+00 1.969326585531234741e-01
2.016000000000000000e+03 5.817149353027343750e+01 -2.128786849975585938e+01 2.835445404052734375e+00 5.575297832489013672e+00 2.523222923278808594e+00 4.898503124713897705e-01
2.017000000000000000e+03 2.886318206787109375e+01 -1.240944671630859375e+01 -1.958673357963562012e+00 6.005362510681152344e+00 1.214006781578063965e+00 2.104359388351440430e+00
2.018000000000000000e+03 6.411983489990234375e+01 3.019874334335327148e+00 -6.572271585464477539e-01 4.102491378784179688e+00 1.033579230308532715e+00 -6.760395169258117676e-01
2.019000000000000000e+03 4.889460372924804688e+01 -7.668694019317626953e+00 1.875327944755554199e+00 8.752861022949218750e+00 3.188456535339355469e+00 7.393627762794494629e-01
2.020000000000000000e+03 1.845462989807128906e+01 2.323510169982910156e+01 4.595620930194854736e-01 1.995572447776794434e+00 7.365403771400451660e-01 2.361637800931930542e-01
2.021000000000000000e+03 4.487348556518554688e+01 -2.349333763122558594e+01 2.222811460494995117e+00 4.345733642578125000e+00 1.970563530921936035e+00 -3.362807929515838623e-01
2.022000000000000000e+03 6.136500549316406250e+01 6.787435054779052734e+00 -6.666917204856872559e-01 4.748031139373779297e+00 1.224401831626892090e+00 -1.769693732261657715e+00
2.023000000000000000e+03 5.138404464721679688e+01 -3.740622758865356445e+00 1.341702103614807129e+00 8.628460884094238281e+00 2.991049051284790039e+00 2.807908952236175537e-01
2.024000000000000000e+03 5.131605148315429688e+01 -2.540118455886840820e+00 9.770810604095458984e-01 7.554990768432617188e+00 2.559621572494506836e+00 -2.991411276161670685e-02
2.025000000000000000e+03 6.857518768310546875e+01 5.783258914947509766e+00 -1.989834159612655640e-01 1.419624209403991699e+00 3.661922514438629150e-01 1.958333730697631836e+00
2.026000000000000000e+03 5.423083877563476562e+01 -2.892494964599609375e+01 9.249724149703979492e-01 6.512497901916503906e+00 2.231241226196289062e+00 1.502321481704711914e+00
2.027000000000000000e+03 1.157038307189941406e+01 -2.820191192626953125e+01 6.047491431236267090e-01 2.857707262039184570e+00 1.038736939430236816e+00 1.370071411132812500e+00
2.028000000000000000e+03 1.004721260070800781e+01 -3.303658294677734375e+01 1.390013098716735840e+00 3.351001501083374023e+00 1.422304391860961914e+00 1.152827382087707520e+00
2.029000000000000000e+03 3.420744323730468750e+01 -3.005193901062011719e+01 -3.078805804252624512e-01 1.453395485877990723e-01 -4.876231029629707336e-02 -9.862514138221740723e-01
2.030000000000000000e+03 3.818199539184570312e+01 4.098794174194335938e+01 -7.052594423294067383e-01 2.685597419738769531e+00 5.941013693809509277e-01 1.969540715217590332e-01
2.031000000000000000e+03 4.292149543762207031e+00 -2.191727828979492188e+01 -2.017381191253662109e+00 4.359033584594726562e+00 7.024957537651062012e-01 1.342867732048034668e+00
2.032000000000000000e+03 5.327622222900390625e+01 8.394148349761962891e-01 -1.547620177268981934e+00 5.818100452423095703e+00 1.281144142150878906e+00 1.779046416282653809e+00
2.033000000000000000e+03 4.977686309814453125e+01 -1.887088418006896973e+00 7.160344719886779785e-01 6.085050106048583984e+00 2.040325403213500977e+00 -8.683227896690368652e-01
2.034000000000000000e+03 1.655068969726562500e+01 -3.389739751815795898e+00 -1.788427233695983887e-01 9.208920478820800781e+00 2.709023475646972656e+00 -6.863970160484313965e-01
2.035000000000000000e+03 1.439225292205810547e+01 -5.344797134399414062e+00 1.016220688819885254e+00 8.613656997680664062e+00 2.888963460922241211e+00 -8.852425217628479004e-01
2.036000000000000000e+03 5.488842964172363281e+00 3.188016700744628906e+01 -4.054605066776275635e-01 4.143673419952392578e+00 1.121463894844055176e+00 -3.489476442337036133e-01
2.037000000000000000e+03 6.106592655181884766e+00 3.299863052368164062e+01 -6.684160232543945312e-01 3.124840974807739258e+00 7.369275093078613281e-01 -2.313244789838790894e-01
2.038000000000000000e+03 6.811849212646484375e+01 1.298590779304504395e+00 2.983616888523101807e-01 2.285629749298095703e+00 7.751973867416381836e-01 2.199754714965820312e+00
2.039000000000000000e+03 1.031665897369384766e+01 -2.730521202087402344e+01 1.919432282447814941e-01 1.484307646751403809e+00 5.028752684593200684e-01 9.039750695228576660e-01
2.040000000000000000e+03 6.096501922607421875e+01 1.871455955505371094e+01 1.632037162780761719e+00 7.418663501739501953e+00 2.715210199356079102e+00 2.428225278854370117e+00
2.041000000000000000e+03 5.813870239257812500e+01 2.174909782409667969e+01 -1.602629125118255615e-01 1.725886106491088867e+00 4.696869552135467529e-01 -3.998923599720001221e-01
2.042000000000000000e+03 2.219605445861816406e+01 2.983113098144531250e+01 5.476507544517517090e-01 5.693366527557373047e+00 1.872305274009704590e+00 7.410477399826049805e-01
2.043000000000000000e+03 3.538882064819335938e+01 -4.494026660919189453e+00 1.497548222541809082e+00 4.682229995727539062e+00 1.853933453559875488e+00 5.596269965171813965e-01
2.044000000000000000e+03 4.359306716918945312e+01 1.693620872497558594e+01 1.677601218223571777e+00 6.955084800720214844e+00 2.589805841445922852e+00 1.130258560180664062e+00
2.045000000000000000e+03 4.238743209838867188e+01 1.683300399780273438e+01 1.758261203765869141e+00 5.601660728454589844e+00 2.207976579666137695e+00 8.747456967830657959e-02
2.046000000000000000e+03 3.672531890869140625e+01 -1.437767314910888672e+01 -3.515242576599121094e+00 4.596891880035400391e+00 3.244948089122772217e-01 -2.889801502227783203e+00
2.047000000000000000e+03 4.219911956787109375e+01 -1.650925445556640625e+01 1.804894953966140747e-01 2.451802015304565430e+00 7.896874547004699707e-01 -6.828563213348388672e-01
2.048000000000000000e+03 2.108857154846191406e+01 1.866532135009765625e+01 -1.559859275817871094e+00 9.662579536437988281e+00 2.430816173553466797e+00 1.109983444213867188e+00
2.049000000000000000e+03 3.315165328979492188e+01 2.494304466247558594e+01 5.237492918968200684e-01 8.897374153137207031e+00 2.826336860656738281e+00 3.437362909317016602e-01
2.050000000000000000e+03 4.337820434570312500e+01 1.152675342559814453e+01 9.195029139518737793e-01 8.957568168640136719e+00 2.963121414184570312e+00 8.988520503044128418e-01
2.051000000000000000e+03 3.849861145019531250e+01 1.085957884788513184e+00 -2.281289696693420410e-01 5.861557483673095703e+00 1.690028548240661621e+00 3.096050977706909180e+00
2.052000000000000000e+03 5.063108825683593750e+01 3.341047668457031250e+01 2.266449332237243652e-01 6.596777439117431641e+00 2.047026634216308594e+00 2.334664016962051392e-01
2.053000000000000000e+03 5.909708023071289062e+01 -1.758626365661621094e+01 1.017574548721313477e+00 6.017530441284179688e+00 2.110531568527221680e+00 3.921109810471534729e-02
2.054000000000000000e+03 5.840963363647460938e+01 -2.005778121948242188e+01 2.396303892135620117e+00 6.128990650177001953e+00 2.557588338851928711e+00 3.020144104957580566e-01
2.055000000000000000e+03 6.372982406616210938e+01 2.280890274047851562e+01 -8.686705827713012695e-01 5.065705776214599609e+00 1.259110569953918457e+00 2.842334032058715820e+00
2.056000000000000000e+03 6.320312881469726562e+01 2.118013000488281250e+01 -2.124498605728149414e+00 5.579570770263671875e+00 1.036521673202514648e+00 3.740560054779052734e+00
2.057000000000000000e+03 2.819288635253906250e+01 1.420107650756835938e+01 -1.743853688240051270e+00 6.626620292663574219e-01 -3.243575096130371094e-01 3.018338918685913086e+00
2.058000000000000000e+03 2.674724769592285156e+01 1.401520824432373047e+01 -1.309411883354187012e+00 -3.760706782341003418e-01 -5.056447982788085938e-01 6.754028201103210449e-01
2.059000000000000000e+03 5.528094863891601562e+01 2.139618873596191406e+01 -1.001959800720214844e+00 3.867245435714721680e+00 8.595857024192810059e-01 -2.573325157165527344e+00
2.060000000000000000e+03 1.882585906982421875e+01 5.873814105987548828e+00 1.413010507822036743e-01 4.547126770019531250e+00 1.406528353691101074e+00 3.694760322570800781e+00
2.061000000000000000e+03 1.759531784057617188e+01 5.396201610565185547e+00 -2.517237886786460876e-02 3.497623443603515625e+00 1.041735410690307617e+00 4.361010551452636719e+00
2.062000000000000000e+03 6.659880065917968750e+01 -3.984239578247070312e+01 -1.561903357505798340e+00 4.710720062255859375e+00 9.446450471878051758e-01 -5.861982237547636032e-03
2.063000000000000000e+03 1.622705841064453125e+01 -1.430148887634277344e+01 -2.832300186157226562e+00 8.707232475280761719e+00 1.762479782104492188e+00 5.158084630966186523e-01
2.064000000000000000e+03 1.718029022216796875e+01 -1.487376594543457031e+01 -1.687818050384521484e+00 7.785328388214111328e+00 1.829253077507019043e+00 -5.312047600746154785e-01
2.065000000000000000e+03 5.258904647827148438e+01 2.248268699645996094e+01 -2.919948995113372803e-01 4.907078742980957031e+00 1.384525179862976074e+00 -1.707729220390319824e+00
2.066000000000000000e+03 3.466061782836914062e+01 3.652628707885742188e+01 -1.662069797515869141e+00 4.635069847106933594e+00 8.919000029563903809e-01 2.762812376022338867e-01
2.067000000000000000e+03 1.251194381713867188e+01 -2.672612380981445312e+01 -4.237509071826934814e-01 3.264899730682373047e+00 8.523446321487426758e-01 1.834676265716552734e+00
2.068000000000000000e+03 1.551277923583984375e+01 -2.640560913085937500e+01 -1.285524964332580566e+00 4.121133327484130859e+00 8.506825566291809082e-01 2.087706565856933594e+00
2.069000000000000000e+03 3.986256027221679688e+01 1.156208419799804688e+01 8.493324858136475086e-04 5.886204719543457031e+00 1.766116261482238770e+00 -2.014943808317184448e-01
2.070000000000000000e+03 7.135532379150390625e+01 -1.603750038146972656e+01 -2.458182424306869507e-01 1.478184461593627930e+00 3.697098791599273682e-01 -1.218490719795227051e+00
2.071000000000000000e+03 1.014066314697265625e+01 1.748157882690429688e+01 -4.883970320224761963e-01 3.234389066696166992e+00 8.237976431846618652e-01 2.090380042791366577e-01
2.072000000000000000e+03 3.487580108642578125e+01 2.044255828857421875e+01 9.833632707595825195e-01 6.221508979797363281e+00 2.161461591720581055e+00 -7.325453162193298340e-01
2.073000000000000000e+03 3.815859603881835938e+01 2.028069686889648438e+01 7.249029278755187988e-01 2.218601703643798828e+00 8.830513358116149902e-01 -1.723114132881164551e+00
2.074000000000000000e+03 4.593447113037109375e+01 -2.264944458007812500e+01 2.704822778701782227e+00 6.018468856811523438e+00 2.616987466812133789e+00 -8.516076803207397461e-01
2.075000000000000000e+03 4.009085083007812500e+01 -2.648885345458984375e+01 -7.814087271690368652e-01 8.273461341857910156e+00 2.247615575790405273e+00 1.110780000686645508e+00
2.076000000000000000e+03 4.226082611083984375e+01 1.405392360687255859e+01 1.786457896232604980e+00 6.990242004394531250e+00 2.633009910583496094e+00 1.756224632263183594e-01
2.077000000000000000e+03 4.724773025512695312e+01 2.352011871337890625e+01 1.862480998039245605e+00 7.119843959808349609e+00 2.694697380065917969e+00 1.380388975143432617e+00
2.078000000000000000e+03 4.459627914428710938e+01 1.774381065368652344e+01 8.808262348175048828e-01 7.297848701477050781e+00 2.453602552413940430e+00 1.887558102607727051e+00
2.079000000000000000e+03 5.088566589355468750e+01 -3.587894058227539062e+01 2.483992725610733032e-01 6.955136775970458984e+00 2.161060810089111328e+00 2.466934025287628174e-01
2.080000000000000000e+03 6.703800964355468750e+01 2.219657707214355469e+01 -4.843249917030334473e-01 1.582854986190795898e+00 3.295589983463287354e-01 -4.521772861480712891e-01
2.081000000000000000e+03 1.903613281250000000e+01 2.062078094482421875e+01 8.598608970642089844e-01 3.574795722961425781e+00 1.330397009849548340e+00 4.144555628299713135e-01
2.082000000000000000e+03 7.472148895263671875e+01 -1.938611602783203125e+01 5.250507593154907227e-01 8.860957145690917969e+00 2.815802574157714844e+00 6.631141901016235352e-01
2.083000000000000000e+03 7.694469451904296875e+01 -1.804312133789062500e+01 -3.849747031927108765e-02 8.494922637939453125e+00 2.536927461624145508e+00 1.284172415733337402e+00
2.084000000000000000e+03 5.318156051635742188e+01 -2.988374137878417969e+01 2.043131351470947266e+00 6.037428379058837891e+00 2.424167871475219727e+00 4.112335741519927979e-01
2.085000000000000000e+03 5.336148452758789062e+01 -3.134179496765136719e+01 2.876003503799438477e+00 6.475592136383056641e+00 2.805478572845458984e+00 1.971940249204635620e-01
2.086000000000000000e+03 9.504803657531738281e+00 1.993631744384765625e+01 -1.004376769065856934e+00 2.252813816070556641e+00 3.745311498641967773e-01 -6.397457122802734375e-01
2.087000000000000000e+03 4.610913848876953125e+01 5.463334560394287109e+00 -2.577221393585205078e-01 3.680763244628906250e+00 1.026912331581115723e+00 -1.525606632232666016e+00
2.088000000000000000e+03 4.373989868164062500e+01 2.108810424804687500e+01 -7.510191202163696289e-01 5.397501468658447266e+00 1.393944740295410156e+00 3.020409584045410156e+00
2.089000000000000000e+03 3.300725555419921875e+01 -3.096816062927246094e+01 4.637236297130584717e-01 1.118642807006835938e+00 4.747099578380584717e-01 -8.789380192756652832e-01
2.090000000000000000e+03 7.309545135498046875e+01 -2.722973442077636719e+01 -1.102442979812622070e+00 6.540167808532714844e+00 1.631317496299743652e+00 2.434527635574340820e+00
2.091000000000000000e+03 6.145861434936523438e+01 -1.602745890617370605e+00 9.549373984336853027e-01 8.061675071716308594e+00 2.704983711242675781e+00 -1.170552253723144531e+00
2.092000000000000000e+03 4.942933654785156250e+01 2.083242034912109375e+01 2.000935822725296021e-01 2.999079227447509766e+00 9.597518444061279297e-01 -3.814698159694671631e-01
2.093000000000000000e+03 4.833345794677734375e+01 -1.205354499816894531e+01 3.007899522781372070e-01 7.329171657562255859e+00 2.288988351821899414e+00 2.843235135078430176e-01
2.094000000000000000e+03 5.094642639160156250e+01 -8.361260414123535156e+00 1.878582119941711426e+00 7.133184432983398438e+00 2.703530073165893555e+00 -1.452830880880355835e-01
2.095000000000000000e+03 3.456969451904296875e+01 3.170560455322265625e+01 1.370934117585420609e-02 7.358992099761962891e+00 2.211810588836669922e+00 -2.250804305076599121e-01
2.096000000000000000e+03 6.293629074096679688e+01 2.384842872619628906e+01 -2.427911907434463501e-01 6.563099384307861328e+00 1.896092534065246582e+00 2.422533512115478516e+00
2.097000000000000000e+03 6.114452743530273438e+01 2.277338600158691406e+01 -1.554443240165710449e+00 4.715782165527343750e+00 9.484016895294189453e-01 3.728639125823974609e+00
2.098000000000000000e+03 6.264031982421875000e+01 -8.936522483825683594e+00 7.271507978439331055e-01 8.708226203918457031e+00 2.830613136291503906e+00 5.629819035530090332e-01
2.099000000000000000e+03 1.239586353302001953e+01 4.134948348999023438e+01 2.880492508411407471e-01 4.374391734600067139e-01 2.176465243101119995e-01 -1.036679819226264954e-01
2.100000000000000000e+03 1.446576976776123047e+01 3.659426879882812500e+01 -4.588282108306884766e-01 7.101471424102783203e-01 7.539568096399307251e-02 -6.439535021781921387e-01
2.101000000000000000e+03 5.830785369873046875e+01 1.234739398956298828e+01 1.581536769866943359e+00 8.472133636474609375e+00 3.016101121902465820e+00 8.188560009002685547e-01
2.102000000000000000e+03 5.821756744384765625e+01 1.354928398132324219e+01 1.900653362274169922e+00 8.132944107055664062e+00 3.010079145431518555e+00 7.789030671119689941e-01
2.103000000000000000e+03 7.326042175292968750e+01 9.793601036071777344e+00 1.150029659271240234e+00 8.587674140930175781e+00 2.921311378479003906e+00 -3.704574406147003174e-01
2.104000000000000000e+03 6.322130584716796875e+01 -2.297779655456542969e+01 3.125314950942993164e+00 6.375036239624023438e+00 2.850105285644531250e+00 -1.877543091773986816e+00
2.105000000000000000e+03 6.282031250000000000e+01 -2.559021759033203125e+01 -9.627583026885986328e-01 3.971169948577880859e+00 9.025234580039978027e-01 -2.666901111602783203e+00
2.106000000000000000e+03 7.394082641601562500e+01 -1.233092975616455078e+01 -1.269308567047119141e+00 4.293697834014892578e+00 9.073167443275451660e-01 1.370037078857421875e+00
2.107000000000000000e+03 3.886119842529296875e+01 -3.271303939819335938e+01 1.627730250358581543e+00 1.087075805664062500e+01 3.749546289443969727e+00 1.865331172943115234e+00
2.108000000000000000e+03 4.036921310424804688e+01 -1.749119949340820312e+01 8.265373110771179199e-01 4.282433986663818359e+00 1.532691359519958496e+00 -1.665236115455627441e+00
2.109000000000000000e+03 4.375577163696289062e+01 -2.071526527404785156e+01 3.308618068695068359e+00 4.750507354736328125e+00 2.417737722396850586e+00 3.211828768253326416e-01
2.110000000000000000e+03 3.251366424560546875e+01 -5.333797931671142578e+00 2.635454654693603516e+00 5.428160667419433594e+00 2.419084548950195312e+00 -8.978258967399597168e-01
2.111000000000000000e+03 3.064842224121093750e+01 -3.163533926010131836e+00 2.060821771621704102e+00 6.338897705078125000e+00 2.519915819168090820e+00 -1.667207598686218262e+00
2.112000000000000000e+03 1.495004749298095703e+01 1.949039649963378906e+01 -1.313999772071838379e+00 -7.170076966285705566e-01 -6.093022823333740234e-01 1.043894171714782715e+00
2.113000000000000000e+03 5.215092849731445312e+01 3.437601089477539062e+01 -2.636204957962036133e-01 6.327171802520751953e+00 1.819065451622009277e+00 3.290767371654510498e-01
2.114000000000000000e+03 4.949793624877929688e+01 3.212533950805664062e+01 4.181737601757049561e-01 6.288571834564208984e+00 2.012023687362670898e+00 4.646026790142059326e-01
2.115000000000000000e+03 3.031837081909179688e+01 -1.055994892120361328e+01 1.626670479774475098e+00 6.236500740051269531e+00 2.358951330184936523e+00 1.371717453002929688e+00
2.116000000000000000e+03 7.466304016113281250e+01 6.556526184082031250e+00 -1.697627454996109009e-01 7.278257846832275391e+00 2.132548570632934570e+00 -8.563177585601806641e-01
2.117000000000000000e+03 5.577944946289062500e+01 1.633785009384155273e+00 -1.266483068466186523e+00 2.234622240066528320e+00 2.904417514801025391e-01 1.621310949325561523e+00
2.118000000000000000e+03 6.169636917114257812e+01 2.197515487670898438e+01 -1.840782880783081055e+00 6.148506164550781250e+00 1.292316913604736328e+00 3.701402902603149414e+00
2.119000000000000000e+03 7.248444366455078125e+01 -2.835898971557617188e+01 2.579371333122253418e-01 4.697512626647949219e+00 1.486634969711303711e+00 1.968733906745910645e+00
2.120000000000000000e+03 7.055107116699218750e+01 -2.872790145874023438e+01 1.193187594413757324e+00 2.502967834472656250e+00 1.108846664428710938e+00 7.523697018623352051e-01
2.121000000000000000e+03 7.356491088867187500e+01 1.631279563903808594e+01 2.338451594114303589e-01 8.751083374023437500e+00 2.695478439331054688e+00 3.153485953807830811e-01
2.122000000000000000e+03 7.327118682861328125e+01 1.868109703063964844e+01 -1.065482854843139648e+00 7.660338878631591797e+00 1.978456854820251465e+00 1.052580587565898895e-02
2.123000000000000000e+03 2.723793029785156250e+01 -2.298306465148925781e+01 1.669712066650390625e+00 7.467323303222656250e+00 2.741110563278198242e+00 -5.155250430107116699e-02
2.124000000000000000e+03 2.617224693298339844e+01 -2.261633300781250000e+01 1.849886417388916016e+00 5.646426677703857422e+00 2.248893976211547852e+00 -4.554015994071960449e-01
2.125000000000000000e+03 2.014663696289062500e+01 2.128443145751953125e+01 1.544337987899780273e+00 7.169070243835449219e+00 2.614022493362426758e+00 -2.675639986991882324e-01
2.126000000000000000e+03 4.776035785675048828e+00 -2.705412483215332031e+01 -2.950206696987152100e-01 2.409223079681396484e+00 6.342607140541076660e-01 -8.251670002937316895e-01
2.127000000000000000e+03 7.434792995452880859e+00 -2.427350616455078125e+01 -2.551789760589599609e+00 1.707129031419754028e-01 -7.143231034278869629e-01 -4.814449846744537354e-01
2.128000000000000000e+03 1.210660743713378906e+01 -1.094079208374023438e+01 -1.230496764183044434e-01 7.779272198677062988e-01 1.964632570743560791e-01 1.230301022529602051e+00
2.129000000000000000e+03 1.461696338653564453e+01 -1.236815738677978516e+01 -2.932663679122924805e+00 5.527068138122558594e+00 7.783213257789611816e-01 -1.088067650794982910e+00
2.130000000000000000e+03 8.220428466796875000e+00 1.572934722900390625e+01 7.567347586154937744e-02 4.414248943328857422e+00 1.346976757049560547e+00 -1.042697906494140625e+00
2.131000000000000000e+03 3.392316818237304688e+01 -8.784934043884277344e+00 3.033697843551635742e+00 4.621769428253173828e+00 2.296640157699584961e+00 -2.384736090898513794e-01
2.132000000000000000e+03 2.786628150939941406e+01 -5.504285916686058044e-03 -1.111830711364746094e+00 5.607502460479736328e+00 1.348701477050781250e+00 -2.402886867523193359e+00
2.133000000000000000e+03 1.695263099670410156e+01 -1.222206473350524902e+00 1.797958374023437500e+00 6.319562911987304688e+00 2.435256242752075195e+00 2.475156635046005249e-01
2.134000000000000000e+03 2.661162567138671875e+01 -3.240450668334960938e+01 7.101457118988037109e-01 6.193921089172363281e+00 2.071219921112060547e+00 -7.055468559265136719e-01
2.135000000000000000e+03 6.630515289306640625e+01 2.841867637634277344e+01 1.928214430809020996e+00 5.272849559783935547e+00 2.160319328308105469e+00 1.232908368110656738e+00
2.136000000000000000e+03 6.451821136474609375e+01 2.545020103454589844e+01 2.384489774703979492e+00 5.980008125305175781e+00 2.509349346160888672e+00 1.432154059410095215e+00
2.137000000000000000e+03 3.347312927246093750e+01 -1.351170063018798828e+01 -1.395237207412719727e+00 9.765356779098510742e-01 -1.256104558706283569e-01 1.005075097084045410e+00
2.138000000000000000e+03 3.669832229614257812e+01 -1.139323616027832031e+01 1.208399176597595215e+00 5.297479152679443359e+00 1.951763510704040527e+00 -2.021409511566162109e+00
2.139000000000000000e+03 2.649198055267333984e+00 1.195213127136230469e+01 3.755784034729003906e-01 2.963131666183471680e-01 2.015674710273742676e-01 -6.260180473327636719e-01
2.140000000000000000e+03 8.560515403747558594e+00 1.123405265808105469e+01 2.166916608810424805e+00 6.758294105529785156e+00 2.677563190460205078e+00 -1.560907602310180664e+00
2.141000000000000000e+03 2.335903358459472656e+01 7.897699356079101562e+00 2.749293327331542969e+00 4.536071300506591797e+00 2.185609340667724609e+00 -1.110142171382904053e-01
2.142000000000000000e+03 7.009358215332031250e+01 -3.010968399047851562e+01 1.963359236717224121e+00 3.458855152130126953e+00 1.626664280891418457e+00 -3.269683122634887695e-01
2.143000000000000000e+03 2.155177879333496094e+01 1.474070644378662109e+01 -4.440392851829528809e-01 8.647810935974121094e+00 2.461131572723388672e+00 -1.606833487749099731e-01
2.144000000000000000e+03 2.314898300170898438e+01 1.436601829528808594e+01 -1.026740312576293945e+00 5.715533733367919922e+00 1.406638145446777344e+00 -5.111739635467529297e-01
2.145000000000000000e+03 3.781852340698242188e+01 -4.168997192382812500e+01 -1.590168952941894531e+00 3.716765642166137695e+00 6.379790306091308594e-01 -4.707613959908485413e-02
2.146000000000000000e+03 5.009943008422851562e+01 -6.343596935272216797e+00 1.847020149230957031e+00 7.945455551147460938e+00 2.937742710113525391e+00 5.080950856208801270e-01
2.147000000000000000e+03 5.527834320068359375e+01 -3.582789611816406250e+01 8.366461396217346191e-01 7.354645252227783203e+00 2.457387447357177734e+00 -8.991102874279022217e-02
2.148000000000000000e+03 2.277630424499511719e+01 2.646129846572875977e+00 1.018191576004028320e+00 1.718244075775146484e+00 8.209307193756103516e-01 1.307430624961853027e+00
2.149000000000000000e+03 7.328648567199707031e+00 -1.295244884490966797e+01 1.219701394438743591e-01 3.773087024688720703e+00 1.168517112731933594e+00 2.088821411132812500e+00
2.150000000000000000e+03 4.722131347656250000e+01 2.617895507812500000e+01 2.560671329498291016e+00 8.618696212768554688e+00 3.353810071945190430e+00 2.047937631607055664e+00
2.151000000000000000e+03 4.299871063232421875e+01 1.046034336090087891e+01 4.589405357837677002e-01 8.599014282226562500e+00 2.717386484146118164e+00 9.370386600494384766e-01
2.152000000000000000e+03 6.566848754882812500e+01 -2.016125679016113281e+00 1.256775498390197754e+00 6.219526767730712891e+00 2.242890596389770508e+00 1.686763405799865723e+00
2.153000000000000000e+03 3.596450042724609375e+01 -2.262187242507934570e+00 2.666797041893005371e-01 3.667419433593750000e+00 1.180229783058166504e+00 1.890301227569580078e+00
2.154000000000000000e+03 3.461061477661132812e+01 -5.524253845214843750e+00 2.380987882614135742e+00 5.056378364562988281e+00 2.231209993362426758e+00 -2.776774168014526367e-01
2.155000000000000000e+03 5.487646865844726562e+01 2.009643316268920898e+00 -1.605467796325683594e+00 3.754020452499389648e+00 6.445657610893249512e-01 2.271878957748413086e+00
2.156000000000000000e+03 6.294023895263671875e+01 -1.412618255615234375e+01 -1.633639931678771973e+00 6.684065818786621094e+00 1.515127778053283691e+00 8.236208558082580566e-01
2.157000000000000000e+03 6.049812316894531250e+01 -1.075812149047851562e+01 -1.574231505393981934e+00 6.682713031768798828e+00 1.532544493675231934e+00 1.993851184844970703e+00
2.158000000000000000e+03 3.381305313110351562e+01 3.430872726440429688e+01 -1.029714226722717285e+00 5.567824363708496094e+00 1.361433029174804688e+00 -3.646243810653686523e-01
2.159000000000000000e+03 5.338223648071289062e+01 4.903671264648437500e+00 -1.524228572845458984e+00 5.250440597534179688e+00 1.117863535881042480e+00 2.578398704528808594e+00
2.160000000000000000e+03 6.317151641845703125e+01 -4.144231796264648438e+01 -7.983188629150390625e-01 9.996223449707031250e-01 6.039102748036384583e-02 2.237208336591720581e-01
2.161000000000000000e+03 6.992798614501953125e+01 2.234241485595703125e+01 -8.084583282470703125e-01 3.979207277297973633e+00 9.512246847152709961e-01 -1.419977664947509766e+00
2.162000000000000000e+03 5.226963806152343750e+01 -3.330192184448242188e+01 2.713861703872680664e+00 7.157915592193603516e+00 2.961533308029174805e+00 -8.638256788253784180e-02
2.163000000000000000e+03 1.331736183166503906e+01 4.953131198883056641e+00 -1.135818481445312500e+00 3.972482442855834961e+00 8.509991765022277832e-01 -2.421628713607788086e+00
2.164000000000000000e+03 5.130638885498046875e+01 -6.238145828247070312e+00 1.937945485115051270e+00 8.281949996948242188e+00 3.065968513488769531e+00 2.837251126766204834e-01
2.165000000000000000e+03 5.170010757446289062e+01 -2.681919670104980469e+01 3.244100213050842285e-01 2.290620565414428711e+00 7.845091819763183594e-01 1.174596995115280151e-01
2.166000000000000000e+03 5.408600997924804688e+01 -2.680913925170898438e+01 -1.050175309181213379e+00 6.240541458129882812e+00 1.557109832763671875e+00 2.710292577743530273e+00
2.167000000000000000e+03 3.985064315795898438e+01 1.455636215209960938e+01 1.409419059753417969e+00 4.331295013427734375e+00 1.722214341163635254e+00 -1.338345766067504883e+00
2.168000000000000000e+03 1.696892547607421875e+01 -2.066043663024902344e+01 1.729170799255371094e+00 5.965822219848632812e+00 2.308497905731201172e+00 -5.753695219755172729e-02
2.169000000000000000e+03 1.891759681701660156e+01 -1.884217262268066406e+01 2.171626567840576172e+00 4.023621082305908203e+00 1.858574271202087402e+00 -1.493768095970153809e+00
2.170000000000000000e+03 7.243000030517578125e+01 -1.469674301147460938e+01 -4.438509047031402588e-01 2.522869825363159180e+00 6.237056255340576172e-01 -3.661655783653259277e-01
2.171000000000000000e+03 4.870272064208984375e+01 -2.456914663314819336e+00 4.691420197486877441e-01 5.454793453216552734e+00 1.777180671691894531e+00 -1.424359560012817383e+00
2.172000000000000000e+03 7.108861541748046875e+01 2.309767341613769531e+01 -3.741178214550018311e-01 4.927673339843750000e+00 1.366066694259643555e+00 -1.312214016914367676e+00
2.173000000000000000e+03 4.927447509765625000e+01 -1.406772327423095703e+01 -1.591127753257751465e+00 4.606038570404052734e+00 9.044731855392456055e-01 9.822930693626403809e-01
2.174000000000000000e+03 1.566823673248291016e+01 -1.156144618988037109e+01 -1.566131711006164551e+00 8.109156608581542969e+00 1.962907552719116211e+00 -8.730210661888122559e-01
2.175000000000000000e+03 5.955057907104492188e+01 1.512650585174560547e+01 1.797324895858764648e+00 9.192007064819335938e+00 3.296799421310424805e+00 1.501141548156738281e+00
2.176000000000000000e+03 7.474237823486328125e+01 -2.057591629028320312e+01 1.097183108329772949e+00 1.015090465545654297e+01 3.374426364898681641e+00 4.045757353305816650e-01
2.177000000000000000e+03 1.694695091247558594e+01 -2.591992568969726562e+01 -2.303684473037719727e+00 2.617047548294067383e+00 9.400887787342071533e-02 2.138200759887695312e+00
2.178000000000000000e+03 6.352791595458984375e+01 -2.167529106140136719e+01 2.995022535324096680e+00 7.703998088836669922e+00 3.209706068038940430e+00 -2.309638977050781250e+00
2.179000000000000000e+03 5.623568344116210938e+01 -1.292335700988769531e+01 -2.167153656482696533e-01 3.595957279205322266e+00 1.013772487640380859e+00 -1.727621793746948242e+00
2.180000000000000000e+03 1.769380187988281250e+01 -1.658413124084472656e+01 7.800193428993225098e-01 6.929005146026611328e+00 2.312707424163818359e+00 -6.966319680213928223e-01
2.181000000000000000e+03 5.293295669555664062e+01 4.118920135498046875e+01 -1.647278666496276855e+00 4.639611721038818359e+00 8.976999521255493164e-01 2.208120375871658325e-01
2.182000000000000000e+03 5.368540573120117188e+01 3.672093200683593750e+01 -1.226246356964111328e+00 5.290331840515136719e+00 1.219225645065307617e+00 9.668058156967163086e-01
2.183000000000000000e+03 2.344519615173339844e+01 -1.636051177978515625e+01 2.595196664333343506e-01 6.907629966735839844e-01 2.850848138332366943e-01 -7.229472398757934570e-01
2.184000000000000000e+03 4.648506546020507812e+01 1.908115386962890625e+01 -1.973169565200805664e+00 6.611383914947509766e+00 1.391464233398437500e+00 3.044255733489990234e+00
2.185000000000000000e+03 1.842084693908691406e+01 -2.250178909301757812e+01 8.065142035484313965e-01 2.888810396194458008e+00 1.108597397804260254e+00 -2.085693031549453735e-01
2.186000000000000000e+03 6.468521118164062500e+01 3.708113479614257812e+01 -9.221220612525939941e-01 4.310725688934326172e+00 1.016581177711486816e+00 -2.260576635599136353e-01
2.187000000000000000e+03 5.507791137695312500e+01 -1.274769496917724609e+01 -2.471460998058319092e-01 3.680820703506469727e+00 1.030102372169494629e+00 -2.596397161483764648e+00
2.188000000000000000e+03 5.891756820678710938e+01 -1.161575317382812500e+01 -6.236980482935905457e-02 3.073907852172851562e+00 9.034613966941833496e-01 1.540813088417053223e+00
2.189000000000000000e+03 6.795928192138671875e+01 -2.723289108276367188e+01 -6.345847845077514648e-01 3.795158386230468750e+00 9.481720328330993652e-01 -2.021433115005493164e+00
2.190000000000000000e+03 3.051599693298339844e+01 2.980175781250000000e+01 4.696696102619171143e-01 3.920175313949584961e+00 1.316953420639038086e+00 -1.801306009292602539e+00
2.191000000000000000e+03 3.485186004638671875e+01 3.043496513366699219e+01 9.067389369010925293e-01 9.355205535888671875e+00 3.078583240509033203e+00 6.433311104774475098e-01
2.192000000000000000e+03 4.884408950805664062e+01 4.687413215637207031e+00 -5.877707004547119141e-01 1.077033162117004395e+00 1.467787325382232666e-01 -8.912820816040039062e-01
2.193000000000000000e+03 5.068276596069335938e+01 2.874193429946899414e+00 -4.966066479682922363e-01 2.784502506256103516e+00 6.863687634468078613e-01 7.267524600028991699e-01
2.194000000000000000e+03 6.366059875488281250e+01 -8.400627136230468750e+00 1.493322134017944336e+00 8.792243957519531250e+00 3.085669755935668945e+00 9.991773217916488647e-02
2.195000000000000000e+03 6.293811035156250000e+01 -1.022293758392333984e+01 -3.163135349750518799e-01 8.154386520385742188e+00 2.351422071456909180e+00 6.717067956924438477e-01
2.196000000000000000e+03 7.921804428100585938e+00 2.051937294006347656e+01 -1.169335722923278809e+00 2.872967481613159180e+00 5.110895633697509766e-01 -1.267956018447875977e+00
2.197000000000000000e+03 5.414849853515625000e+01 -3.653546905517578125e+01 -3.297674357891082764e-01 7.555563926696777344e+00 2.167738914489746094e+00 -4.601100087165832520e-02
2.198000000000000000e+03 2.127248382568359375e+01 3.049988746643066406e+01 1.194220900535583496e+00 6.581928253173828125e+00 2.332844734191894531e+00 5.918478369712829590e-01
2.199000000000000000e+03 2.375048446655273438e+01 2.922138404846191406e+01 -5.093226432800292969e-01 4.121627330780029297e+00 1.083691358566284180e+00 1.165668368339538574e+00
2.200000000000000000e+03 3.494271087646484375e+01 -1.183924794197082520e+00 2.605270743370056152e-01 2.415575504302978516e+00 8.028307557106018066e-01 1.502517580986022949e+00
2.201000000000000000e+03 3.707046127319335938e+01 -2.394705057144165039e+00 -1.352052241563796997e-01 3.920388936996459961e+00 1.135555148124694824e+00 2.297445535659790039e+00
2.202000000000000000e+03 7.982506752014160156e+00 9.124966621398925781e+00 1.619518876075744629e+00 5.427271842956542969e+00 2.114037275314331055e+00 -7.745653986930847168e-01
2.203000000000000000e+03 4.613861465454101562e+01 -1.655159759521484375e+01 -1.076240539550781250e+00 6.460453987121582031e+00 1.615264058113098145e+00 1.709725260734558105e+00
2.204000000000000000e+03 5.573739624023437500e+01 6.215439319610595703e+00 2.318175137042999268e-01 7.410730838775634766e+00 2.292764425277709961e+00 6.035494804382324219e-01
2.205000000000000000e+03 4.185728073120117188e+00 2.694658279418945312e+01 1.261123418807983398e+00 4.876841068267822266e+00 1.841389417648315430e+00 -7.863953113555908203e-01
2.206000000000000000e+03 5.857562255859375000e+01 -2.532708930969238281e+01 -4.277214407920837402e-01 4.886705875396728516e+00 1.337695360183715820e+00 1.903548955917358398e+00
2.207000000000000000e+03 5.632581710815429688e+01 -2.450225448608398438e+01 -6.967493295669555664e-01 8.677428245544433594e+00 2.394203662872314453e+00 1.417312026023864746e+00
2.208000000000000000e+03 6.508744812011718750e+01 -1.588160991668701172e+01 -2.038720369338989258e+00 5.396155357360839844e+00 1.007230401039123535e+00 7.636107206344604492e-01
2.209000000000000000e+03 6.191369247436523438e+01 -1.842628860473632812e+01 1.013262748718261719e+00 6.461352825164794922e+00 2.242384672164916992e+00 -6.307476758956909180e-01
2.210000000000000000e+03 4.159717941284179688e+01 -4.151799011230468750e+01 -1.002631425857543945e+00 9.415128231048583984e-01 -1.833556219935417175e-02 -1.340488344430923462e-01
2.211000000000000000e+03 4.209419631958007812e+01 -3.873946380615234375e+01 -2.200886011123657227e+00 6.098939180374145508e-01 -4.772976040840148926e-01 -4.630424454808235168e-02
2.212000000000000000e+03 5.133514404296875000e+01 -2.885824012756347656e+01 1.632955789566040039e+00 4.893056869506835938e+00 1.957803845405578613e+00 -6.203845143318176270e-01
2.213000000000000000e+03 3.418381118774414062e+01 1.478322219848632812e+01 6.917745471000671387e-01 2.721547842025756836e+00 1.023996710777282715e+00 -4.731407761573791504e-02
2.214000000000000000e+03 6.722938537597656250e+01 -2.916549301147460938e+01 1.933506250381469727e+00 6.229757308959960938e+00 2.448979139328002930e+00 -1.733625411987304688e+00
2.215000000000000000e+03 3.051947593688964844e+01 -2.972985458374023438e+01 -6.799432039260864258e-01 3.829099178314208984e+00 9.447467923164367676e-01 -1.146598815917968750e+00
2.216000000000000000e+03 3.552060699462890625e+01 -3.245896911621093750e+01 2.034057617187500000e+00 2.405474185943603516e+00 1.331859588623046875e+00 1.321733117103576660e+00
2.217000000000000000e+03 2.505888938903808594e+01 3.099198341369628906e+01 8.180890083312988281e-01 2.130607366561889648e+00 8.846089243888854980e-01 1.064029812812805176e+00
2.218000000000000000e+03 2.331941795349121094e+01 3.024225234985351562e+01 6.499881744384765625e-01 4.467196464538574219e+00 1.535155415534973145e+00 1.092268824577331543e+00
2.219000000000000000e+03 7.562821388244628906e+00 -2.577674102783203125e+01 -6.362416744232177734e-01 7.912261486053466797e-01 4.649534076452255249e-02 -4.305216073989868164e-01
2.220000000000000000e+03 5.538177108764648438e+01 -2.552544975280761719e+01 -3.012613058090209961e+00 7.510153770446777344e+00 1.349262118339538574e+00 2.147772550582885742e+00
2.221000000000000000e+03 5.519241333007812500e+01 -1.623248100280761719e+01 -1.252820372581481934e+00 6.270403385162353516e+00 1.505274891853332520e+00 -1.253839135169982910e+00
2.222000000000000000e+03 5.645373153686523438e+01 -2.343365097045898438e+01 7.560787200927734375e-01 7.866868019104003906e+00 2.586884021759033203e+00 5.231204032897949219e-01
2.223000000000000000e+03 5.137660026550292969e+00 -4.035840225219726562e+01 -3.242737352848052979e-01 3.718708038330078125e+00 1.018330335617065430e+00 3.333721160888671875e-01
2.224000000000000000e+03 6.639322280883789062e+00 -3.826972961425781250e+01 -3.962174952030181885e-01 3.529392242431640625e+00 9.399523735046386719e-01 7.094152569770812988e-01
2.225000000000000000e+03 8.584108352661132812e+00 -1.221891117095947266e+01 -9.743821024894714355e-01 2.447871208190917969e+00 4.420467317104339600e-01 2.439780235290527344e+00
2.226000000000000000e+03 4.388805866241455078e+00 -1.333170032501220703e+01 7.769917696714401245e-02 3.409980773925781250e+00 1.046303987503051758e+00 5.084791779518127441e-01
2.227000000000000000e+03 4.151955795288085938e+01 4.012698650360107422e+00 1.639636397361755371e+00 6.875355720520019531e+00 2.554497718811035156e+00 -3.969710767269134521e-01
2.228000000000000000e+03 3.201869964599609375e+01 -3.880511856079101562e+01 -7.021369934082031250e-01 4.516402244567871094e+00 1.144279599189758301e+00 -1.049740090966224670e-01
2.229000000000000000e+03 5.514686203002929688e+01 -1.387013721466064453e+01 -6.201624274253845215e-01 4.426420211791992188e+00 1.141877293586730957e+00 -2.555728435516357422e+00
2.230000000000000000e+03 5.942654418945312500e+01 1.359778499603271484e+01 1.295746564865112305e+00 9.409824371337890625e+00 3.211671352386474609e+00 8.070958256721496582e-01
2.231000000000000000e+03 6.504750823974609375e+01 5.082339763641357422e+00 -3.584263622760772705e-01 1.861034512519836426e+00 4.507824480533599854e-01 -5.679476857185363770e-01
2.232000000000000000e+03 6.349909591674804688e+01 2.331774711608886719e+00 -8.279304504394531250e-01 4.763668537139892578e+00 1.180721521377563477e+00 -7.452003955841064453e-01
2.233000000000000000e+03 5.809694671630859375e+01 2.057540702819824219e+01 -9.724776446819305420e-02 3.749928236007690430e+00 1.095804095268249512e+00 -4.326402544975280762e-01
2.234000000000000000e+03 5.904978179931640625e+01 1.835493850708007812e+01 1.683787465095520020e+00 6.022887229919433594e+00 2.312002420425415039e+00 7.230692505836486816e-01
2.235000000000000000e+03 5.618632888793945312e+01 2.165362930297851562e+01 -1.355565428733825684e+00 3.194981813430786133e+00 5.518249273300170898e-01 -2.464857101440429688e+00
2.236000000000000000e+03 2.864253997802734375e+01 3.554892063140869141e+00 -6.254603862762451172e-01 5.564290523529052734e+00 1.481649041175842285e+00 -1.047415852546691895e+00
2.237000000000000000e+03 2.672948837280273438e+01 6.988901615142822266e+00 2.894903898239135742e+00 4.710653781890869141e+00 2.281667232513427734e+00 -1.884044334292411804e-02
2.238000000000000000e+03 7.499422454833984375e+01 -1.138626384735107422e+01 -1.904703140258789062e+00 8.011326789855957031e+00 1.831987142562866211e+00 8.253367543220520020e-01
2.239000000000000000e+03 7.574189758300781250e+01 -1.237814807891845703e+01 -1.403341054916381836e+00 8.155626296997070312e+00 2.025685787200927734e+00 3.130103349685668945e-01
2.240000000000000000e+03 6.801982879638671875e+01 -3.508486175537109375e+01 4.698411226272583008e-01 6.373634338378906250e+00 2.053042650222778320e+00 -1.412590622901916504e+00
2.241000000000000000e+03 4.976644897460937500e+01 -1.503974246978759766e+01 -1.940696597099304199e+00 2.600484609603881836e+00 1.979363709688186646e-01 1.381779432296752930e+00
2.242000000000000000e+03 6.657538604736328125e+01 6.608344912528991699e-01 1.768871098756790161e-01 3.688396453857421875e+00 1.159585118293762207e+00 1.742924809455871582e+00
2.243000000000000000e+03 1.138877201080322266e+01 -2.209838867187500000e+00 1.577946901321411133e+00 4.063287258148193359e+00 1.692370295524597168e+00 2.434548377990722656e+00
2.244000000000000000e+03 1.215579414367675781e+01 -1.579294562339782715e+00 1.277488470077514648e+00 6.792738914489746094e+00 2.421068191528320312e+00 3.300981521606445312e+00
2.245000000000000000e+03 1.006861019134521484e+01 1.771160364151000977e+00 2.092109203338623047e+00 5.038572549819946289e-01 7.787899374961853027e-01 -1.850487112998962402e+00
2.246000000000000000e+03 1.279235553741455078e+01 -4.051084041595458984e+00 7.336625456809997559e-01 7.089995384216308594e+00 2.347097396850585938e+00 7.167190313339233398e-01
2.247000000000000000e+03 1.184239482879638672e+01 3.424824476242065430e+00 1.078732728958129883e+00 5.506301879882812500e+00 1.975510358810424805e+00 -5.027455329895019531e+00
2.248000000000000000e+03 9.857897758483886719e+00 5.859426975250244141e+00 -7.714021205902099609e-01 4.660674095153808594e+00 1.166781544685363770e+00 -2.894220352172851562e+00
2.249000000000000000e+03 1.065191936492919922e+01 2.121792316436767578e+00 3.095897674560546875e+00 1.301613450050354004e+00 1.319253325462341309e+00 -3.199774503707885742e+00
2.250000000000000000e+03 9.724343299865722656e+00 -3.170823097229003906e+00 1.606546044349670410e+00 1.471245527267456055e+00 9.233375191688537598e-01 1.209137678146362305e+00
2.251000000000000000e+03 1.336841392517089844e+01 -1.640443563461303711e+00 1.067622080445289612e-01 1.160847759246826172e+01 3.514572143554687500e+00 1.163257718086242676e+00
2.252000000000000000e+03 1.307150363922119141e+01 -1.903001070022583008e+00 2.336058169603347778e-01 1.034728908538818359e+01 3.174268484115600586e+00 1.711939930915832520e+00
2.253000000000000000e+03 1.263974857330322266e+01 3.429823398590087891e+00 6.209425926208496094e-01 7.091618061065673828e+00 2.313768148422241211e+00 -4.026738166809082031e+00
2.254000000000000000e+03 1.194783782958984375e+01 6.581789970397949219e+00 -2.346802949905395508e+00 4.152686595916748047e+00 5.417651534080505371e-01 -2.836717844009399414e+00
2.255000000000000000e+03 1.268133926391601562e+01 4.473162174224853516e+00 -8.041155934333801270e-01 5.189531326293945312e+00 1.315624713897705078e+00 -3.689772367477416992e+00
2.256000000000000000e+03 1.292240905761718750e+01 2.905635833740234375e+00 1.383462548255920410e+00 8.859614372253417969e+00 3.072922945022583008e+00 -3.320375204086303711e+00
2.257000000000000000e+03 7.830200195312500000e+00 -3.996728181838989258e+00 1.259248971939086914e+00 6.364094614982604980e-01 5.686975717544555664e-01 8.007841706275939941e-01
2.258000000000000000e+03 6.663702964782714844e+00 -3.205603837966918945e+00 7.256603837013244629e-01 2.156037241220474243e-01 2.823792397975921631e-01 2.421173006296157837e-01
2.259000000000000000e+03 4.033433437347412109e+00 -3.231341361999511719e+00 1.964252591133117676e-01 4.096763953566551208e-02 7.121787220239639282e-02 -5.638700351119041443e-02
2.260000000000000000e+03 7.026018142700195312e+00 -4.319405078887939453e+00 1.042650818824768066e+00 5.100139379501342773e-01 4.657994210720062256e-01 6.901351809501647949e-01
2.261000000000000000e+03 6.183400154113769531e+00 -4.049466133117675781e+00 7.503952383995056152e-01 3.004286885261535645e-01 3.152471780776977539e-01 3.822595775127410889e-01
2.262000000000000000e+03 3.633773326873779297e+00 -4.262813091278076172e+00 2.733019590377807617e-01 1.445912271738052368e-01 1.253679543733596802e-01 7.879625260829925537e-02
2.263000000000000000e+03 8.149005889892578125e+00 -4.987241744995117188e+00 1.360800981521606445e+00 9.999352097511291504e-01 7.082208991050720215e-01 1.128924846649169922e+00
2.264000000000000000e+03 8.687365531921386719e+00 -3.418570041656494141e+00 1.412019491195678711e+00 8.299306035041809082e-01 6.725850701332092285e-01 8.857481479644775391e-01
2.265000000000000000e+03 2.844103097915649414e+00 -4.055046558380126953e+00 1.391447335481643677e-01 9.369343519210815430e-03 4.455422610044479370e-02 -1.377702690660953522e-02
2.266000000000000000e+03 3.507342100143432617e+00 -6.359794139862060547e+00 2.287669330835342407e-01 4.400138556957244873e-01 2.006342411041259766e-01 3.296396136283874512e-01
2.267000000000000000e+03 2.506101131439208984e+00 -6.340304851531982422e+00 9.925122559070587158e-02 2.105572521686553955e-01 9.294254332780838013e-02 1.906036883592605591e-01
2.268000000000000000e+03 4.132856845855712891e+00 6.601056098937988281e+00 2.568843364715576172e-01 8.984898924827575684e-01 3.466122746467590332e-01 2.986447513103485107e-01
2.269000000000000000e+03 8.075834274291992188e+00 2.978940486907958984e+00 5.327754020690917969e-01 1.083165645599365234e+00 4.847823083400726318e-01 -1.210399627685546875e+00
2.270000000000000000e+03 5.992533206939697266e+00 4.588018894195556641e+00 1.756625473499298096e-01 1.315927386283874512e+00 4.474769830703735352e-01 -2.861172854900360107e-01
2.271000000000000000e+03 8.633440017700195312e+00 2.760602712631225586e+00 7.771871089935302734e-01 1.159868717193603516e+00 5.811167359352111816e-01 -1.601044058799743652e+00
2.272000000000000000e+03 3.804886579513549805e+00 4.188625812530517578e+00 3.093389421701431274e-02 3.067220449447631836e-01 1.012967824935913086e-01 4.409837126731872559e-01
2.273000000000000000e+03 4.239607334136962891e+00 3.416525363922119141e+00 -4.906667396426200867e-02 3.200123906135559082e-01 8.128371089696884155e-02 3.828305006027221680e-01
2.274000000000000000e+03 2.653192520141601562e+00 5.804394721984863281e+00 1.206566616892814636e-01 -1.326539963483810425e-01 -3.599202493205666542e-03 4.755815565586090088e-01
2.275000000000000000e+03 1.670180559158325195e+00 5.385515213012695312e+00 4.719979315996170044e-02 -6.551798582077026367e-01 -1.823940128087997437e-01 4.216552972793579102e-01
2.276000000000000000e+03 1.071705245971679688e+01 3.188036203384399414e+00 1.816580295562744141e+00 3.065613269805908203e+00 1.464658141136169434e+00 -4.208578109741210938e+00
2.277000000000000000e+03 8.998620986938476562e+00 6.397652149200439453e+00 -6.049989461898803711e-01 4.680324554443359375e+00 1.222597718238830566e+00 -1.885067224502563477e+00
2.278000000000000000e+03 1.349094009399414062e+01 3.234649419784545898e+00 9.607111215591430664e-01 8.193545341491699219e+00 2.746276855468750000e+00 -1.746827483177185059e+00
2.279000000000000000e+03 9.799677848815917969e+00 -4.044950962066650391e+00 1.714491605758666992e+00 1.909479618072509766e+00 1.087191343307495117e+00 1.355827569961547852e+00
2.280000000000000000e+03 8.421116828918457031e+00 -4.212221145629882812e+00 1.476374864578247070e+00 9.799414277076721191e-01 7.368949055671691895e-01 1.004932641983032227e+00
2.281000000000000000e+03 1.563159465789794922e+01 -6.593499183654785156e-01 3.373473644256591797e+00 8.684632301330566406e+00 3.617431640625000000e+00 -1.041581392288208008e+00
2.282000000000000000e+03 1.522027969360351562e+01 -1.540369510650634766e+00 1.677537798881530762e+00 1.012229156494140625e+01 3.539948701858520508e+00 -1.535411238670349121e+00
2.283000000000000000e+03 1.502327156066894531e+01 -7.967339992523193359e+00 2.713997364044189453e+00 8.073170661926269531e+00 3.236150264739990234e+00 -1.632797360420227051e+00
2.284000000000000000e+03 1.366507339477539062e+01 5.697570800781250000e+00 -2.872975111007690430e+00 2.506308794021606445e+00 -1.099998727440834045e-01 -2.140947103500366211e+00
2.285000000000000000e+03 9.466395378112792969e+00 7.225480556488037109e+00 -3.419091999530792236e-01 5.343106269836425781e+00 1.500359177589416504e+00 -1.802923560142517090e+00
2.286000000000000000e+03 1.124102783203125000e+01 3.803753852844238281e+00 7.365413904190063477e-01 4.404840946197509766e+00 1.542414784431457520e+00 -4.590896129608154297e+00
2.287000000000000000e+03 4.854969406127929688e+01 -1.349401092529296875e+01 -1.579715490341186523e+00 6.052140235900878906e+00 1.341727495193481445e+00 1.055916547775268555e+00
2.288000000000000000e+03 4.837581253051757812e+01 -1.431900405883789062e+01 -2.321371316909790039e+00 5.667947292327880859e+00 1.003972768783569336e+00 1.686986565589904785e+00
2.289000000000000000e+03 2.949914360046386719e+01 2.157613039016723633e+00 -1.612628698348999023e+00 5.219182491302490234e+00 1.081966161727905273e+00 -1.347973346710205078e+00
2.290000000000000000e+03 2.921074104309082031e+01 1.871293485164642334e-01 -1.456588864326477051e+00 5.839358329772949219e+00 1.314830899238586426e+00 -2.059460878372192383e+00
2.291000000000000000e+03 6.206741333007812500e+01 -2.903176546096801758e+00 1.919170379638671875e+00 8.672472953796386719e+00 3.177493095397949219e+00 -1.090533614158630371e+00
2.292000000000000000e+03 3.414037704467773438e+01 -1.605875849723815918e+00 7.010188698768615723e-01 2.700773477554321289e+00 1.020537734031677246e+00 8.618269562721252441e-01
2.293000000000000000e+03 3.478627395629882812e+01 -3.076438188552856445e+00 1.128180146217346191e+00 3.818039417266845703e+00 1.483865857124328613e+00 8.029373884201049805e-01
2.294000000000000000e+03 5.136416625976562500e+01 3.020110511779785156e+01 1.586921095848083496e+00 7.006206989288330078e+00 2.577938556671142578e+00 8.862438797950744629e-01
2.295000000000000000e+03 4.149494552612304688e+01 -2.076317024230957031e+01 2.339576482772827148e+00 6.223553657531738281e+00 2.568938970565795898e+00 2.670510672032833099e-03
2.296000000000000000e+03 4.231731796264648438e+01 -2.237850570678710938e+01 3.118069648742675781e+00 4.808460712432861328e+00 2.377959012985229492e+00 6.616971492767333984e-01
2.297000000000000000e+03 5.063317108154296875e+01 2.744197654724121094e+01 2.151116847991943359e+00 6.466101169586181641e+00 2.585165500640869141e+00 7.693481445312500000e-01
2.298000000000000000e+03 2.425887680053710938e+01 -1.598717403411865234e+01 -1.904454678297042847e-01 7.671549320220947266e-01 1.730128377676010132e-01 -1.290056109428405762e-01
2.299000000000000000e+03 2.297718429565429688e+01 -1.526034545898437500e+01 -9.789316058158874512e-01 -3.653545677661895752e-01 -4.032858610153198242e-01 -8.400863409042358398e-01
2.300000000000000000e+03 4.075818252563476562e+01 -1.484639644622802734e+01 -2.310277700424194336e+00 3.372493028640747070e+00 3.186645805835723877e-01 -2.467906475067138672e+00
2.301000000000000000e+03 2.112690734863281250e+01 2.652948856353759766e+00 9.723736643791198730e-01 2.030137777328491211e+00 9.007534384727478027e-01 2.651899337768554688e+00
2.302000000000000000e+03 1.868180274963378906e+01 4.929422378540039062e+00 3.619492650032043457e-01 3.830199956893920898e+00 1.257644772529602051e+00 4.048065185546875000e+00
2.303000000000000000e+03 4.249942779541015625e+01 -2.614141845703125000e+01 6.855140924453735352e-01 2.510882616043090820e+00 9.589190483093261719e-01 1.385123133659362793e+00
2.304000000000000000e+03 4.499991607666015625e+01 -2.547115516662597656e+01 5.044232010841369629e-01 2.596437215805053711e+00 9.302581548690795898e-01 -1.921214818954467773e+00
2.305000000000000000e+03 5.052435684204101562e+01 2.155444908142089844e+01 6.995578110218048096e-02 3.915003538131713867e+00 1.195487737655639648e+00 -1.218660473823547363e+00
2.306000000000000000e+03 2.112289047241210938e+01 -1.643781089782714844e+01 3.300389349460601807e-01 1.293982386589050293e+00 4.872063994407653809e-01 -1.670527338981628418e+00
2.307000000000000000e+03 2.433283996582031250e+01 -2.485997200012207031e+01 -7.114807516336441040e-02 4.304011344909667969e+00 1.269858956336975098e+00 -6.628621220588684082e-01
2.308000000000000000e+03 6.194195556640625000e+01 1.856728792190551758e-01 -8.652752637863159180e-01 6.818821907043457031e+00 1.786063909530639648e+00 -1.094485521316528320e+00
2.309000000000000000e+03 6.461549377441406250e+01 -1.242782235145568848e+00 5.133742094039916992e-01 6.442578315734863281e+00 2.086785793304443359e+00 9.087693095207214355e-01
2.310000000000000000e+03 5.796830368041992188e+01 4.259442806243896484e+00 -6.091154217720031738e-01 4.852349281311035156e+00 1.272970199584960938e+00 -1.225837707519531250e+00
2.311000000000000000e+03 4.205657196044921875e+01 9.927839279174804688e+00 3.249008059501647949e-01 8.264271736145019531e+00 2.576751947402954102e+00 1.059092044830322266e+00
2.312000000000000000e+03 4.232404708862304688e+01 1.181460475921630859e+01 8.060707449913024902e-01 8.185666084289550781e+00 2.697520971298217773e+00 7.335278391838073730e-01
2.313000000000000000e+03 6.413793182373046875e+01 -2.391151428222656250e+01 1.726643085479736328e+00 7.671461105346679688e+00 2.819431066513061523e+00 -2.393507242202758789e+00
2.314000000000000000e+03 5.951795959472656250e+01 1.207746791839599609e+01 1.562449932098388672e+00 8.528287887573242188e+00 3.027221202850341797e+00 -3.731276839971542358e-02
2.315000000000000000e+03 5.132551193237304688e+01 2.063626098632812500e+01 -3.765875399112701416e-01 3.557434320449829102e+00 9.542540311813354492e-01 -1.824350237846374512e+00
2.316000000000000000e+03 1.461169052124023438e+01 -6.065641880035400391e+00 1.261114239692687988e+00 8.580776214599609375e+00 2.952567100524902344e+00 -9.469581842422485352e-01
2.317000000000000000e+03 2.693932342529296875e+01 -1.646253776550292969e+01 -7.575742602348327637e-01 4.442358970642089844e+00 1.105435371398925781e+00 9.842156767845153809e-01
2.318000000000000000e+03 2.618120574951171875e+01 -1.494424343109130859e+01 -2.423909902572631836e+00 2.836551666259765625e+00 1.237925738096237183e-01 1.066553711891174316e+00
2.319000000000000000e+03 1.591524219512939453e+01 -4.263845443725585938e+00 2.915867865085601807e-01 9.715426445007324219e+00 3.002104043960571289e+00 -9.056930541992187500e-01
2.320000000000000000e+03 8.557271957397460938e+00 7.729772567749023438e+00 2.383590191602706909e-01 5.212881088256835938e+00 1.635372042655944824e+00 -1.150060176849365234e+00
2.321000000000000000e+03 4.016289901733398438e+01 1.668183517456054688e+01 2.161655664443969727e+00 3.468127727508544922e+00 1.688935041427612305e+00 -1.230856537818908691e+00
2.322000000000000000e+03 3.425628662109375000e+01 1.900205802917480469e+01 1.983658075332641602e+00 5.925531387329101562e+00 2.372756719589233398e+00 -2.409905046224594116e-01
2.323000000000000000e+03 2.580776023864746094e+01 -2.000112533569335938e+01 2.363720893859863281e+00 4.268817424774169922e+00 1.989761471748352051e+00 -3.896582722663879395e-01
2.324000000000000000e+03 4.353945922851562500e+01 8.545372009277343750e+00 1.677145808935165405e-01 7.074494361877441406e+00 2.172662734985351562e+00 6.609609127044677734e-01
2.325000000000000000e+03 3.194480705261230469e+01 1.530906581878662109e+01 -5.391942262649536133e-01 6.569670200347900391e+00 1.809142708778381348e+00 1.321056127548217773e+00
2.326000000000000000e+03 1.616160583496093750e+01 4.829771518707275391e+00 -6.257848143577575684e-01 2.944408893585205078e+00 6.955872178077697754e-01 3.533234119415283203e+00
2.327000000000000000e+03 1.459757804870605469e+01 4.248502254486083984e+00 -1.145934313535690308e-01 5.085326671600341797e+00 1.491219878196716309e+00 8.314968347549438477e-01
2.328000000000000000e+03 7.582914733886718750e+01 1.527057552337646484e+01 5.445883274078369141e-01 7.709851264953613281e+00 2.476331949234008789e+00 6.981356143951416016e-01
2.329000000000000000e+03 7.682464599609375000e+01 1.852590751647949219e+01 -2.702561318874359131e-01 7.370388031005859375e+00 2.130039453506469727e+00 6.819319725036621094e-01
2.330000000000000000e+03 2.964852714538574219e+01 -1.343162822723388672e+01 -2.894146203994750977e+00 6.659113883972167969e+00 1.129490256309509277e+00 2.228414058685302734e+00
2.331000000000000000e+03 4.236690902709960938e+01 1.949912452697753906e+01 4.425531327724456787e-01 3.531902790069580078e+00 1.192336797714233398e+00 1.472415447235107422e+00
2.332000000000000000e+03 3.338735580444335938e+01 -6.231232285499572754e-01 -6.220551207661628723e-02 1.782657980918884277e+00 5.161357522010803223e-01 -2.419867664575576782e-01
2.333000000000000000e+03 2.774386787414550781e+01 -2.895131111145019531e+01 -1.073430776596069336e+00 6.241866588592529297e+00 1.550530791282653809e+00 -1.979492604732513428e-01
2.334000000000000000e+03 3.544016265869140625e+01 1.436320018768310547e+01 1.149284005165100098e+00 1.403900623321533203e+00 7.659553885459899902e-01 -1.281049609184265137e+00
2.335000000000000000e+03 7.120723724365234375e+01 3.408651351928710938e+00 4.412092268466949463e-02 3.524269580841064453e+00 1.070517182350158691e+00 1.028395533561706543e+00
2.336000000000000000e+03 4.278104019165039062e+01 4.407440662384033203e+00 1.370890140533447266e+00 5.914100170135498047e+00 2.185497045516967773e+00 -7.022906541824340820e-01
2.337000000000000000e+03 4.514859390258789062e+01 6.201261997222900391e+00 -1.533596664667129517e-01 4.507401943206787109e+00 1.306212663650512695e+00 -1.004071474075317383e+00
2.338000000000000000e+03 1.698952865600585938e+01 -2.312696218490600586e+00 4.820255935192108154e-01 7.517365455627441406e+00 2.399817466735839844e+00 3.750764951109886169e-02
2.339000000000000000e+03 6.310276031494140625e+01 8.145476579666137695e-01 -6.739332675933837891e-01 5.878213405609130859e+00 1.561284065246582031e+00 -4.692058563232421875e-01
2.340000000000000000e+03 4.988747787475585938e+01 2.393102836608886719e+01 1.535634875297546387e+00 5.142590045928955078e+00 2.003467559814453125e+00 3.781711682677268982e-02
2.341000000000000000e+03 4.734348678588867188e+01 -1.541748428344726562e+01 -3.283104181289672852e+00 5.930115699768066406e+00 7.941034436225891113e-01 2.544501781463623047e+00
2.342000000000000000e+03 7.711915588378906250e+01 1.045212936401367188e+01 3.799085915088653564e-01 7.081720352172851562e+00 2.238488674163818359e+00 -7.491046786308288574e-01
2.343000000000000000e+03 7.627597808837890625e+01 1.187481212615966797e+01 9.166811704635620117e-01 7.583879470825195312e+00 2.550168275833129883e+00 -2.286319285631179810e-01
2.344000000000000000e+03 7.681488800048828125e+01 -1.676967430114746094e+01 -3.205300867557525635e-01 8.460103988647460938e+00 2.441872358322143555e+00 1.155594229698181152e+00
2.345000000000000000e+03 7.692944335937500000e+01 -1.928510665893554688e+01 2.784820795059204102e-01 8.288149833679199219e+00 2.569989681243896484e+00 1.258226275444030762e+00
2.346000000000000000e+03 7.533052062988281250e+01 5.375132083892822266e+00 -3.228594362735748291e-01 7.091460704803466797e+00 2.030580282211303711e+00 -8.705181479454040527e-01
2.347000000000000000e+03 7.527374267578125000e+01 9.604733586311340332e-01 -7.505718469619750977e-01 6.534978866577148438e+00 1.735322117805480957e+00 -8.317232131958007812e-01
2.348000000000000000e+03 7.671517944335937500e+01 7.600584030151367188e-01 -5.958654284477233887e-01 8.055569648742675781e+00 2.237911224365234375e+00 -5.131705403327941895e-01
2.349000000000000000e+03 7.656827545166015625e+01 -1.330250263214111328e+01 -1.014523148536682129e+00 8.570213317871093750e+00 2.266706943511962891e+00 2.722228467464447021e-01
2.350000000000000000e+03 7.480844879150390625e+01 8.180828094482421875e+00 2.511105537414550781e-01 7.776350021362304688e+00 2.408238172531127930e+00 -1.019526481628417969e+00
2.351000000000000000e+03 7.576638793945312500e+01 -1.697410964965820312e+01 -4.041203558444976807e-01 8.171648025512695312e+00 2.330258131027221680e+00 1.123884201049804688e+00
2.352000000000000000e+03 7.359886169433593750e+01 6.081590652465820312e+00 -4.839923977851867676e-01 6.885675430297851562e+00 1.920504927635192871e+00 -2.827314436435699463e-01
2.353000000000000000e+03 7.684876251220703125e+01 3.373090505599975586e+00 -2.418667674064636230e-01 7.599501132965087891e+00 2.207290410995483398e+00 -8.489008545875549316e-01
2.354000000000000000e+03 7.575532531738281250e+01 9.759897232055664062e+00 5.897601842880249023e-01 7.667048454284667969e+00 2.477042675018310547e+00 -9.672220349311828613e-01
2.355000000000000000e+03 7.726236724853515625e+01 1.164547634124755859e+01 6.136713624000549316e-01 6.897752285003662109e+00 2.253427267074584961e+00 -3.743567466735839844e-01
2.356000000000000000e+03 7.455205535888671875e+01 -1.521669864654541016e+01 -8.400493860244750977e-01 6.211020469665527344e+00 1.611291289329528809e+00 5.990543365478515625e-01
2.357000000000000000e+03 7.540313720703125000e+01 -1.604558753967285156e+01 -8.945266604423522949e-01 7.380786895751953125e+00 1.945878028869628906e+00 8.340454101562500000e-01
2.358000000000000000e+03 7.704828643798828125e+01 1.533050060272216797e+01 2.577758431434631348e-01 7.099782943725585938e+00 2.207267522811889648e+00 6.608108878135681152e-01
2.359000000000000000e+03 7.457715606689453125e+01 1.555071830749511719e+01 6.704421639442443848e-01 8.429324150085449219e+00 2.729929924011230469e+00 6.640346050262451172e-01
2.360000000000000000e+03 7.560986328125000000e+01 -1.681984543800354004e+00 -1.025700569152832031e+00 8.040633201599121094e+00 2.104479789733886719e+00 -3.128502070903778076e-01
2.361000000000000000e+03 7.598461914062500000e+01 1.649227714538574219e+01 1.304334849119186401e-01 7.680673599243164062e+00 2.343332290649414062e+00 8.918921947479248047e-01
2.362000000000000000e+03 7.557427215576171875e+01 2.113262367248535156e+01 -6.860781311988830566e-01 7.172980785369873047e+00 1.946070790290832520e+00 -3.486158698797225952e-02
2.363000000000000000e+03 7.486303710937500000e+01 1.935008049011230469e+01 -8.008311390876770020e-01 7.522072315216064453e+00 2.016372442245483398e+00 2.882034182548522949e-01
2.364000000000000000e+03 7.696115875244140625e+01 1.658866310119628906e+01 1.221690624952316284e-01 7.238103389739990234e+00 2.208081722259521484e+00 8.158390522003173828e-01
2.365000000000000000e+03 7.625463867187500000e+01 -2.171895599365234375e+01 9.980573058128356934e-01 8.879471778869628906e+00 2.963258504867553711e+00 6.053403019905090332e-01
2.366000000000000000e+03 7.351332092285156250e+01 3.393875885009765625e+01 1.584641784429550171e-01 6.051125049591064453e+00 1.862876772880554199e+00 3.646994531154632568e-01
2.367000000000000000e+03 7.457064819335937500e+01 3.137424087524414062e+01 2.815375626087188721e-01 6.118741512298583984e+00 1.920083761215209961e+00 1.387161165475845337e-01
2.368000000000000000e+03 7.601616668701171875e+01 -2.933581542968750000e+01 -2.827832698822021484e-01 7.160410404205322266e+00 2.063288211822509766e+00 3.817063868045806885e-01
2.369000000000000000e+03 7.645752716064453125e+01 -2.755393218994140625e+01 -3.819357454776763916e-01 7.649879932403564453e+00 2.180383205413818359e+00 -3.314545750617980957e-02
2.370000000000000000e+03 7.427879333496093750e+01 2.751203727722167969e+01 3.426946401596069336e-01 5.909793853759765625e+00 1.875746488571166992e+00 -3.204306364059448242e-01
2.371000000000000000e+03 7.420867919921875000e+01 2.261316108703613281e+01 -6.419304013252258301e-01 6.557981014251708984e+00 1.774815082550048828e+00 -5.406515002250671387e-01
2.372000000000000000e+03 7.562135314941406250e+01 2.639913940429687500e+01 8.584652096033096313e-02 6.429385185241699219e+00 1.954569578170776367e+00 -3.684112727642059326e-01
2.373000000000000000e+03 7.552990722656250000e+01 -3.278103256225585938e+01 3.268317282199859619e-01 6.549452781677246094e+00 2.062885522842407227e+00 7.338617742061614990e-02
2.374000000000000000e+03 7.645234680175781250e+01 -3.591071319580078125e+01 6.602314114570617676e-02 6.976915359497070312e+00 2.112881660461425781e+00 -1.790810227394104004e-01
2.375000000000000000e+03 7.551451873779296875e+01 2.767965126037597656e+01 2.152182757854461670e-01 6.350436210632324219e+00 1.969696283340454102e+00 -2.625586688518524170e-01
2.376000000000000000e+03 7.662265777587890625e+01 2.913616943359375000e+01 1.632498353719711304e-01 6.627443313598632812e+00 2.037207841873168945e+00 -1.234369203448295593e-01
2.377000000000000000e+03 7.535172271728515625e+01 2.896748733520507812e+01 2.509727776050567627e-01 6.282192230224609375e+00 1.959949493408203125e+00 -1.532501131296157837e-01
2.378000000000000000e+03 7.429832458496093750e+01 -2.811497688293457031e+01 -5.174841284751892090e-01 6.918749332427978516e+00 1.920379519462585449e+00 8.713027834892272949e-01
2.379000000000000000e+03 7.582766723632812500e+01 -3.388174438476562500e+01 1.195401847362518311e-01 6.809935569763183594e+00 2.078842639923095703e+00 -1.542956382036209106e-01
2.380000000000000000e+03 7.670576477050781250e+01 -3.259187698364257812e+01 1.244660988450050354e-01 6.927365779876708984e+00 2.115549564361572266e+00 7.608161121606826782e-02
2.381000000000000000e+03 7.530319213867187500e+01 -3.041302108764648438e+01 4.930711165070533752e-02 6.716008186340332031e+00 2.029594659805297852e+00 4.385777115821838379e-01
2.382000000000000000e+03 7.226271057128906250e+01 -3.578638076782226562e+01 4.196938574314117432e-01 5.815646171569824219e+00 1.870602011680603027e+00 -8.630989193916320801e-01
2.383000000000000000e+03 4.015009689331054688e+01 -5.608689785003662109e-01 -3.887965679168701172e-01 3.856987237930297852e+00 1.040457248687744141e+00 1.432929039001464844e+00
2.384000000000000000e+03 3.985288238525390625e+01 -1.835749149322509766e+00 -1.102802038192749023e+00 3.125224113464355469e+00 6.067266464233398438e-01 2.179748535156250000e+00
2.385000000000000000e+03 3.404996871948242188e+01 -6.687353610992431641e+00 2.963205337524414062e+00 5.058819770812988281e+00 2.406607627868652344e+00 -6.535288691520690918e-01
2.386000000000000000e+03 3.571847534179687500e+01 -6.091296672821044922e+00 2.333961486816406250e+00 5.493587970733642578e+00 2.348264932632446289e+00 3.799740374088287354e-01
2.387000000000000000e+03 2.272869110107421875e+01 1.222148799896240234e+01 1.231600165367126465e+00 6.742910861968994141e+00 2.392353296279907227e+00 -8.686247467994689941e-01
2.388000000000000000e+03 4.575687026977539062e+01 -2.461078834533691406e+01 7.244672179222106934e-01 4.238723754882812500e+00 1.488957285881042480e+00 -1.702478170394897461e+00
2.389000000000000000e+03 2.190868186950683594e+01 2.601178646087646484e+00 9.393804073333740234e-01 1.688681602478027344e+00 7.884186506271362305e-01 2.110973358154296875e+00
2.390000000000000000e+03 4.295708847045898438e+01 -1.914904785156250000e+01 2.268005609512329102e+00 4.307649135589599609e+00 1.972696423530578613e+00 -1.960153579711914062e-01
2.391000000000000000e+03 3.114758729934692383e+00 2.497733497619628906e+01 2.709068357944488525e-01 3.466529846191406250e+00 1.121230959892272949e+00 1.363560408353805542e-01
2.392000000000000000e+03 2.704978942871093750e+00 2.402683448791503906e+01 -8.817490935325622559e-02 3.073656320571899414e+00 8.956444263458251953e-01 2.555772066116333008e-01
2.393000000000000000e+03 3.882040262222290039e+00 2.215632247924804688e+01 -5.563543438911437988e-01 3.392433643341064453e+00 8.508238196372985840e-01 -3.519454002380371094e-01
2.394000000000000000e+03 2.603705406188964844e+00 2.306873321533203125e+01 -2.247846126556396484e-01 2.795696735382080078e+00 7.712736129760742188e-01 4.751248657703399658e-02
2.395000000000000000e+03 5.282400608062744141e+00 2.329594993591308594e+01 -5.755816102027893066e-01 4.461799621582031250e+00 1.165865421295166016e+00 -6.511353254318237305e-01
2.396000000000000000e+03 4.969683170318603516e+00 2.226005744934082031e+01 -8.654887676239013672e-01 3.919854402542114258e+00 9.163096547126770020e-01 -4.987229704856872559e-01
2.397000000000000000e+03 4.082799911499023438e+00 -1.708796882629394531e+01 1.648581624031066895e+00 5.489926815032958984e+00 2.141552686691284180e+00 1.492532610893249512e+00
2.398000000000000000e+03 4.665227890014648438e+00 -1.457714557647705078e+01 6.841281056404113770e-01 4.613892555236816406e+00 1.589406132698059082e+00 1.082148551940917969e+00
2.399000000000000000e+03 7.236264705657958984e+00 1.489204788208007812e+01 3.637913465499877930e-01 4.536149024963378906e+00 1.469982147216796875e+00 -1.384522199630737305e+00
2.400000000000000000e+03 4.398798942565917969e+00 1.961664199829101562e+01 -7.056298255920410156e-01 3.042115688323974609e+00 7.009457349777221680e-01 -1.081962943077087402e+00
2.401000000000000000e+03 4.045160770416259766e+00 1.784826850891113281e+01 -4.233655929565429688e-01 2.444250822067260742e+00 6.062656044960021973e-01 -1.250842332839965820e+00
2.402000000000000000e+03 4.879811286926269531e+00 1.854999732971191406e+01 -6.990734338760375977e-01 3.063790321350097656e+00 7.094150781631469727e-01 -1.302621960639953613e+00
2.403000000000000000e+03 2.987612247467041016e+00 -2.599112510681152344e+01 -4.617206454277038574e-01 3.430696010589599609e+00 8.906925916671752930e-01 -3.855369985103607178e-01
2.404000000000000000e+03 2.683747291564941406e+00 -2.730913734436035156e+01 -8.822167664766311646e-02 3.414271116256713867e+00 9.978148341178894043e-01 -6.140069961547851562e-01
2.405000000000000000e+03 6.105813980102539062e+00 -2.743157386779785156e+01 1.386596858501434326e-01 1.673867940902709961e+00 5.437582731246948242e-01 -6.486651897430419922e-01
2.406000000000000000e+03 2.775653123855590820e+00 1.450551319122314453e+01 2.095704078674316406e-01 1.008105874061584473e+00 3.653028607368469238e-01 -1.113686919212341309e+00
2.407000000000000000e+03 6.311937808990478516e+00 1.591400051116943359e+01 -5.309752374887466431e-02 3.497927188873291016e+00 1.033448934555053711e+00 -1.636489868164062500e+00
2.408000000000000000e+03 6.339159488677978516e+00 1.395452499389648438e+01 7.196612954139709473e-01 3.691813468933105469e+00 1.323442459106445312e+00 -1.575483918190002441e+00
2.409000000000000000e+03 4.569209575653076172e+00 1.391782760620117188e+01 4.526452720165252686e-01 2.142299175262451172e+00 7.784833312034606934e-01 -1.373142600059509277e+00
2.410000000000000000e+03 3.717462539672851562e+00 1.489945507049560547e+01 1.412615776062011719e-01 1.783406734466552734e+00 5.774005055427551270e-01 -1.309817552566528320e+00
2.411000000000000000e+03 3.452897310256958008e+00 3.457309722900390625e+01 -6.437038183212280273e-01 4.142379760742187500e+00 1.049602866172790527e+00 -4.801642894744873047e-01
2.412000000000000000e+03 4.709034919738769531e+00 3.496471405029296875e+01 -8.187927007675170898e-01 3.655611276626586914e+00 8.510455489158630371e-01 -4.230055212974548340e-01
2.413000000000000000e+03 3.690063953399658203e+00 -9.844433784484863281e+00 -2.611959278583526611e-01 1.452243208885192871e+00 3.573141694068908691e-01 5.292505621910095215e-01
2.414000000000000000e+03 2.766344547271728516e+00 -1.135897159576416016e+01 -2.644243240356445312e-01 1.412079691886901855e+00 3.442966341972351074e-01 6.838823109865188599e-02
2.415000000000000000e+03 3.089311838150024414e+00 -3.096221733093261719e+01 2.976387441158294678e-01 3.047609806060791016e+00 1.003574609756469727e+00 -3.131460249423980713e-01
2.416000000000000000e+03 4.275936126708984375e+00 -2.801491546630859375e+01 1.179963164031505585e-02 2.691998958587646484e+00 8.111395835876464844e-01 -6.977980136871337891e-01
2.417000000000000000e+03 5.937019824981689453e+00 9.709502220153808594e+00 1.246125221252441406e+00 2.812098741531372070e+00 1.217467188835144043e+00 -4.845253825187683105e-01
2.418000000000000000e+03 4.042902469635009766e+00 3.136158943176269531e+01 -1.891072839498519897e-01 4.400475502014160156e+00 1.263410568237304688e+00 -1.234634518623352051e+00
2.419000000000000000e+03 6.264717102050781250e+00 -1.080584907531738281e+01 -6.041088104248046875e-01 2.869747161865234375e+00 6.796914935111999512e-01 1.737856626510620117e+00
2.420000000000000000e+03 2.934512853622436523e+00 -1.262162113189697266e+01 -1.476907879114151001e-01 1.852207541465759277e+00 5.113550424575805664e-01 -7.261246442794799805e-02
2.421000000000000000e+03 6.959954261779785156e+00 -3.438842010498046875e+01 6.875836253166198730e-01 2.871188163757324219e+00 1.067631602287292480e+00 7.422043085098266602e-01
2.422000000000000000e+03 4.181505203247070312e+00 -2.927369117736816406e+01 3.171944916248321533e-01 2.709540128707885742e+00 9.080203771591186523e-01 -5.652846693992614746e-01
2.423000000000000000e+03 4.280222892761230469e+00 -3.058794212341308594e+01 4.487975835800170898e-01 2.717668294906616211e+00 9.499397873878479004e-01 -3.611485064029693604e-01
2.424000000000000000e+03 3.211151838302612305e+00 -3.227716445922851562e+01 3.023966848850250244e-01 3.041799783706665039e+00 1.003258943557739258e+00 -1.094783693552017212e-01
2.425000000000000000e+03 6.076118946075439453e+00 1.089513015747070312e+01 1.348398685455322266e+00 3.188230752944946289e+00 1.360988855361938477e+00 -8.072195649147033691e-01
2.426000000000000000e+03 4.154425144195556641e+00 8.560696601867675781e+00 5.925927162170410156e-01 1.122344136238098145e+00 5.144810676574707031e-01 5.620979517698287964e-02
2.427000000000000000e+03 3.794038534164428711e+00 5.393158912658691406e+00 1.487289220094680786e-01 4.813944101333618164e-01 1.890370100736618042e-01 4.083020687103271484e-01
2.428000000000000000e+03 3.407904624938964844e+00 6.852692127227783203e+00 2.486570775508880615e-01 4.021007418632507324e-01 1.952273547649383545e-01 3.861610591411590576e-01
2.429000000000000000e+03 3.578270435333251953e+00 -5.227927684783935547e+00 2.872156202793121338e-01 2.459850311279296875e-01 1.599601954221725464e-01 2.072005718946456909e-01
2.430000000000000000e+03 4.370802402496337891e+00 -3.679356384277343750e+01 6.771358847618103027e-02 3.382397174835205078e+00 1.035033226013183594e+00 5.039600133895874023e-01
2.431000000000000000e+03 6.179501533508300781e+00 -3.353826522827148438e+01 6.906960010528564453e-01 2.807374238967895508e+00 1.049421072006225586e+00 4.956377148628234863e-01
2.432000000000000000e+03 1.977811622619628906e+01 5.841758251190185547e+00 3.677445054054260254e-01 4.429512500762939453e+00 1.439177155494689941e+00 3.088921070098876953e+00
2.433000000000000000e+03 1.975093460083007812e+01 4.750649452209472656e+00 8.841325044631958008e-01 3.824014425277709961e+00 1.412444114685058594e+00 3.533150911331176758e+00
2.434000000000000000e+03 3.701688051223754883e+00 3.598051834106445312e+01 -5.491548776626586914e-01 4.047013282775878906e+00 1.049357533454895020e+00 -2.223906666040420532e-01
2.435000000000000000e+03 1.389044857025146484e+01 2.081773376464843750e+01 -6.117852926254272461e-01 -3.761266469955444336e-01 -2.963735759258270264e-01 7.818922996520996094e-01
2.436000000000000000e+03 4.967032623291015625e+01 -2.838929176330566406e+01 9.852948784828186035e-01 5.224637031555175781e+00 1.862979650497436523e+00 -2.057168006896972656e+00
2.437000000000000000e+03 5.103450012207031250e+01 -2.987450599670410156e+01 2.341584682464599609e+00 5.863582134246826172e+00 2.461550235748291016e+00 -7.784493565559387207e-01
2.438000000000000000e+03 7.300263977050781250e+01 1.437294483184814453e+01 1.262338280677795410e+00 1.079579734802246094e+01 3.617440700531005859e+00 -3.409367799758911133e-01
2.439000000000000000e+03 7.550263214111328125e+01 1.242626285552978516e+01 1.053213000297546387e+00 8.008308410644531250e+00 2.718456268310546875e+00 -1.053108051419258118e-01
2.440000000000000000e+03 6.216711997985839844e+00 -3.589179611206054688e+01 2.515830099582672119e-01 3.186120986938476562e+00 1.031311154365539551e+00 7.477861642837524414e-01
2.441000000000000000e+03 6.517866134643554688e+00 3.826686477661132812e+01 -3.546726107597351074e-01 1.724390506744384766e+00 4.109153449535369873e-01 2.301605641841888428e-01
2.442000000000000000e+03 6.719245910644531250e+01 2.712604141235351562e+01 1.933252811431884766e+00 4.554733276367187500e+00 1.946395874023437500e+00 7.718840837478637695e-01
2.443000000000000000e+03 1.337731361389160156e+01 1.962774848937988281e+01 -9.293761849403381348e-01 1.025855764746665955e-01 -2.480371892452239990e-01 7.725270390510559082e-01
2.444000000000000000e+03 4.930443954467773438e+01 -1.134370040893554688e+01 1.667877435684204102e+00 6.603932857513427734e+00 2.481543064117431641e+00 1.178605481982231140e-03
2.445000000000000000e+03 1.114398670196533203e+01 1.853785133361816406e+01 -5.732115507125854492e-01 1.625879168510437012e+00 3.158003091812133789e-01 3.445475101470947266e-01
2.446000000000000000e+03 2.380033683776855469e+01 1.260352325439453125e+01 1.417452096939086914e+00 4.716381549835205078e+00 1.840150117874145508e+00 -1.345112562179565430e+00
2.447000000000000000e+03 2.719401359558105469e+01 1.251404762268066406e+01 1.298695921897888184e+00 2.013447284698486328e+00 9.936429262161254883e-01 1.158472061157226562e+00
2.448000000000000000e+03 2.846899414062500000e+01 2.390439033508300781e+00 -1.425178050994873047e+00 6.067344188690185547e+00 1.392649769783020020e+00 -1.685734272003173828e+00
2.449000000000000000e+03 1.777401351928710938e+01 8.780478239059448242e-01 3.285547971725463867e+00 3.613404035568237305e+00 2.069685697555541992e+00 2.606230735778808594e+00
2.450000000000000000e+03 7.405425262451171875e+01 -6.085922718048095703e-01 -1.271928191184997559e+00 5.276750087738037109e+00 1.201446652412414551e+00 -1.009475946426391602e+00
2.451000000000000000e+03 5.977548217773437500e+01 2.072139930725097656e+01 -4.287751615047454834e-01 3.950644969940185547e+00 1.056560993194580078e+00 1.586312174797058105e+00
2.452000000000000000e+03 5.198447036743164062e+01 3.569787442684173584e-01 -8.059235215187072754e-01 5.340767860412597656e+00 1.360453367233276367e+00 7.676707506179809570e-01
2.453000000000000000e+03 5.284041213989257812e+01 2.202855825424194336e+00 -1.179494023323059082e+00 4.634999275207519531e+00 1.036651611328125000e+00 2.141162872314453125e+00
2.454000000000000000e+03 1.962682723999023438e+01 1.952102088928222656e+01 -3.259934782981872559e-01 5.039740085601806641e+00 1.414124011993408203e+00 4.429558515548706055e-01
2.455000000000000000e+03 6.547798919677734375e+01 3.593123435974121094e+00 -3.235989212989807129e-01 2.744908809661865234e+00 7.263929843902587891e-01 1.242552101612091064e-01
2.456000000000000000e+03 6.607602691650390625e+01 4.666017055511474609e+00 -3.281700909137725830e-01 1.202583670616149902e+00 2.623240649700164795e-01 5.786755681037902832e-01
2.457000000000000000e+03 1.648754501342773438e+01 -3.238077759742736816e-01 3.727574825286865234e+00 6.111841678619384766e+00 2.951824903488159180e+00 1.639885753393173218e-01
2.458000000000000000e+03 1.612587356567382812e+01 3.690427303314208984e+00 1.623291254043579102e+00 4.063874244689941406e+00 1.706149578094482422e+00 3.650686740875244141e+00
2.459000000000000000e+03 1.643184280395507812e+01 1.610969305038452148e+00 4.600073337554931641e+00 5.007246971130371094e+00 2.882195949554443359e+00 2.924846172332763672e+00
2.460000000000000000e+03 4.488967895507812500e+01 -2.151236152648925781e+01 3.129508972167968750e+00 5.590960502624511719e+00 2.616140842437744141e+00 3.105770237743854523e-02
2.461000000000000000e+03 4.545899200439453125e+01 -2.027711868286132812e+01 2.888746976852416992e+00 6.841822624206542969e+00 2.919170856475830078e+00 2.231623530387878418e-01
2.462000000000000000e+03 4.892389297485351562e+01 -6.486130237579345703e+00 1.424042463302612305e+00 8.168528556823730469e+00 2.877771377563476562e+00 1.051655113697052002e-01
2.463000000000000000e+03 8.308107376098632812e+00 1.016867733001708984e+01 2.028806447982788086e+00 6.141813755035400391e+00 2.451186180114746094e+00 -9.369516372680664062e-01
2.464000000000000000e+03 7.528925895690917969e+00 1.158166217803955078e+01 1.660447597503662109e+00 5.158755779266357422e+00 2.045761108398437500e+00 -1.111081123352050781e+00
2.465000000000000000e+03 5.735137557983398438e+01 9.577666282653808594e+00 1.733998179435729980e+00 7.690611839294433594e+00 2.827383041381835938e+00 6.743780970573425293e-01
2.466000000000000000e+03 2.480639839172363281e+01 -2.357044219970703125e+01 1.094208359718322754e+00 4.492794513702392578e+00 1.676100850105285645e+00 -7.088541984558105469e-01
2.467000000000000000e+03 5.771804046630859375e+01 -2.373342323303222656e+01 9.116674661636352539e-01 6.340901374816894531e+00 2.175770521163940430e+00 1.316264986991882324e+00
2.468000000000000000e+03 6.660366821289062500e+01 2.456700134277343750e+01 1.635985255241394043e+00 3.547658443450927734e+00 1.555093169212341309e+00 5.634883046150207520e-01
2.469000000000000000e+03 6.575614166259765625e+01 2.191055297851562500e+01 -3.179787099361419678e-01 1.333749651908874512e+00 3.047313094139099121e-01 1.187432050704956055e+00
2.470000000000000000e+03 6.016389083862304688e+01 -2.467761802673339844e+01 8.220965266227722168e-01 2.366908788681030273e+00 9.567016363143920898e-01 8.603874444961547852e-01
2.471000000000000000e+03 1.584501171112060547e+01 -9.808505058288574219e+00 2.196403980255126953e+00 9.590384483337402344e+00 3.536036491394042969e+00 -1.235522747039794922e+00
2.472000000000000000e+03 4.377145004272460938e+01 -2.416152763366699219e+01 2.300149679183959961e+00 3.428532600402832031e+00 1.718604683876037598e+00 1.135291382670402527e-01
2.473000000000000000e+03 5.455675125122070312e+01 3.825469732284545898e+00 -1.140327692031860352e+00 4.811652660369873047e+00 1.101397514343261719e+00 2.112320184707641602e+00
2.474000000000000000e+03 9.965579986572265625e+00 -2.524785232543945312e+01 -1.432738065719604492e+00 3.409474790096282959e-01 -3.275371789932250977e-01 9.678860306739807129e-01
2.475000000000000000e+03 7.466391754150390625e+01 -1.809591293334960938e+01 -1.196145936846733093e-01 8.226976394653320312e+00 2.432208299636840820e+00 6.198347210884094238e-01
2.476000000000000000e+03 7.638168334960937500e+01 -2.018696403503417969e+01 5.507448911666870117e-01 8.626139640808105469e+00 2.753065347671508789e+00 1.114241480827331543e+00
2.477000000000000000e+03 2.247643089294433594e+01 -2.518815612792968750e+01 -5.157828927040100098e-01 2.281852722167968750e+00 5.298209190368652344e-01 -1.234264612197875977e+00
2.478000000000000000e+03 1.867140388488769531e+01 -2.401596450805664062e+01 -2.461756765842437744e-02 1.562600135803222656e+00 4.613947570323944092e-01 2.593158483505249023e-01
2.479000000000000000e+03 4.379368591308593750e+01 1.959139442443847656e+01 -5.735341310501098633e-01 5.757878303527832031e+00 1.555303335189819336e+00 2.200326919555664062e+00
2.480000000000000000e+03 7.409272003173828125e+01 9.120013236999511719e+00 6.354455351829528809e-01 8.299624443054199219e+00 2.680521011352539062e+00 -5.449569225311279297e-01
2.481000000000000000e+03 6.456851959228515625e+01 2.648720932006835938e+01 2.616518020629882812e+00 5.892676353454589844e+00 2.552758216857910156e+00 1.655402660369873047e+00
2.482000000000000000e+03 3.076113891601562500e+01 3.358584213256835938e+01 -1.242287680506706238e-01 4.481577396392822266e+00 1.307204604148864746e+00 -1.245299696922302246e+00
2.483000000000000000e+03 3.368193817138671875e+01 -3.204206848144531250e+01 1.236523509025573730e+00 1.541509151458740234e+00 8.334097862243652344e-01 -2.478241175413131714e-01
2.484000000000000000e+03 3.497463607788085938e+01 -3.113855171203613281e+01 1.454949736595153809e+00 8.099185228347778320e-01 6.794604659080505371e-01 2.985800504684448242e-01
2.485000000000000000e+03 6.632537078857421875e+01 3.163187742233276367e+00 -3.690749406814575195e-02 2.313066244125366211e+00 6.828476786613464355e-01 9.807022809982299805e-01
2.486000000000000000e+03 2.206659889221191406e+01 6.805261611938476562e+00 1.810391664505004883e+00 4.887085437774658203e+00 2.009243249893188477e+00 1.025280117988586426e+00
2.487000000000000000e+03 2.663660621643066406e+01 9.268744468688964844e+00 3.442158699035644531e+00 4.334022998809814453e+00 2.332854509353637695e+00 2.477877587080001831e-01
2.488000000000000000e+03 3.129916381835937500e+01 -1.000194931030273438e+01 2.373928546905517578e+00 5.543587684631347656e+00 2.375254869461059570e+00 1.326709628105163574e+00
2.489000000000000000e+03 6.971713256835937500e+01 -3.147791099548339844e+01 2.234202623367309570e+00 4.461277008056640625e+00 2.008643865585327148e+00 -9.734899997711181641e-01
2.490000000000000000e+03 3.600959777832031250e+01 -1.159812331199645996e+00 -5.374109838157892227e-03 2.609356880187988281e+00 7.811948657035827637e-01 2.449079751968383789e+00
2.491000000000000000e+03 5.360988616943359375e+01 3.758928060531616211e+00 -9.445635080337524414e-01 4.757936000823974609e+00 1.144011616706848145e+00 2.477496385574340820e+00
2.492000000000000000e+03 5.201879119873046875e+01 -3.131641197204589844e+01 3.008778572082519531e+00 6.393023967742919922e+00 2.820540666580200195e+00 -3.480312526226043701e-01
2.493000000000000000e+03 1.154522132873535156e+01 -9.956315040588378906e+00 7.195525765419006348e-01 1.213976144790649414e+00 5.800585746765136719e-01 1.753261446952819824e+00
2.494000000000000000e+03 1.257569408416748047e+01 -2.793357658386230469e+01 3.081519305706024170e-01 3.760434627532958984e+00 1.220575928688049316e+00 1.662295579910278320e+00
2.495000000000000000e+03 2.640768241882324219e+01 4.111969470977783203e+00 9.872139096260070801e-01 4.170484542846679688e+00 1.547309517860412598e+00 -6.617262959480285645e-01
2.496000000000000000e+03 2.667939949035644531e+01 5.222896099090576172e+00 1.819908499717712402e+00 4.844774246215820312e+00 1.999404788017272949e+00 -3.481786549091339111e-01
2.497000000000000000e+03 3.549692535400390625e+01 1.930287933349609375e+01 1.627904891967773438e+00 4.883814811706542969e+00 1.953516006469726562e+00 -1.378744482994079590e+00
2.498000000000000000e+03 3.409975051879882812e+01 1.785187721252441406e+01 2.135709285736083984e+00 6.161021232604980469e+00 2.489019155502319336e+00 -1.518856883049011230e-01
2.499000000000000000e+03 3.118382644653320312e+01 1.468751049041748047e+01 -1.270353794097900391e+00 7.392183303833007812e+00 1.836548924446105957e+00 4.201686859130859375e+00
2.500000000000000000e+03 5.955136108398437500e+01 -1.104417800903320312e+01 -4.219661355018615723e-01 4.669063091278076172e+00 1.274129152297973633e+00 2.447673559188842773e+00
2.501000000000000000e+03 2.751980590820312500e+01 3.729078769683837891e+00 3.155131936073303223e-01 5.592462539672851562e+00 1.772392749786376953e+00 -8.961549997329711914e-01
2.502000000000000000e+03 5.236522674560546875e+01 4.550221920013427734e+00 -4.961640536785125732e-01 3.678074836730957031e+00 9.545732736587524414e-01 3.185831069946289062e+00
2.503000000000000000e+03 5.118645477294921875e+01 -7.366406440734863281e+00 1.773566484451293945e+00 7.974744796752929688e+00 2.924493312835693359e+00 1.523004174232482910e-01
2.504000000000000000e+03 2.203128051757812500e+01 5.501250267028808594e+00 1.406680226325988770e+00 3.852273941040039062e+00 1.577686309814453125e+00 1.535731434822082520e+00
2.505000000000000000e+03 7.053617095947265625e+01 2.124167823791503906e+01 -1.249105811119079590e+00 4.567987442016601562e+00 9.956644177436828613e-01 -1.441739916801452637e+00
2.506000000000000000e+03 7.163732910156250000e+01 2.195939064025878906e+01 -1.082897543907165527e+00 5.518840312957763672e+00 1.330782890319824219e+00 -1.297617316246032715e+00
2.507000000000000000e+03 1.863317871093750000e+01 -2.070513916015625000e+01 2.179278135299682617e+00 3.351120710372924805e+00 1.659119606018066406e+00 -1.082642078399658203e+00
2.508000000000000000e+03 9.064579963684082031e+00 -2.752590179443359375e+01 4.172220826148986816e-01 1.273415565490722656e+00 5.071913003921508789e-01 2.426845282316207886e-01
2.509000000000000000e+03 1.216003322601318359e+01 -2.897838401794433594e+01 1.126892089843750000e+00 3.611891508102416992e+00 1.421635031700134277e+00 1.490783452987670898e+00
2.510000000000000000e+03 5.746449279785156250e+01 1.470486545562744141e+01 1.757056474685668945e+00 7.682976722717285156e+00 2.832010030746459961e+00 5.237447619438171387e-01
2.511000000000000000e+03 5.449311447143554688e+01 5.064062595367431641e+00 -8.658909797668457031e-01 5.829092502593994141e+00 1.488960504531860352e+00 1.539669036865234375e+00
2.512000000000000000e+03 5.405835342407226562e+01 2.795715808868408203e+00 -1.562241911888122559e+00 4.481930732727050781e+00 8.759066462516784668e-01 2.114874124526977539e+00
2.513000000000000000e+03 1.924496650695800781e+01 2.406231689453125000e+01 -6.031514406204223633e-01 5.097703933715820312e+00 1.348365664482116699e+00 1.993806958198547363e-01
2.514000000000000000e+03 2.794112014770507812e+01 -3.251288604736328125e+01 5.755932927131652832e-01 5.723195075988769531e+00 1.889636397361755371e+00 -7.865307331085205078e-01
2.515000000000000000e+03 5.684231567382812500e+01 -1.557753562927246094e+01 -5.254432559013366699e-01 5.875269889831542969e+00 1.604948043823242188e+00 -8.325855135917663574e-01
2.516000000000000000e+03 5.757378387451171875e+01 -1.208449649810791016e+01 5.932083725929260254e-02 2.386933326721191406e+00 7.338762879371643066e-01 -3.212644159793853760e-01
2.517000000000000000e+03 5.265633773803710938e+01 -2.708455276489257812e+01 -5.825161933898925781e-01 3.262161016464233398e+00 8.038934469223022461e-01 1.517934560775756836e+00
2.518000000000000000e+03 4.954422378540039062e+01 2.654879188537597656e+01 2.152440547943115234e+00 6.411700248718261719e+00 2.569242238998413086e+00 1.015865802764892578e+00
2.519000000000000000e+03 2.731637191772460938e+01 -1.525537109375000000e+01 -2.083679914474487305e+00 4.470560550689697266e+00 7.160641551017761230e-01 1.348329663276672363e+00
2.520000000000000000e+03 5.010803222656250000e+01 1.063290953636169434e+00 -2.775596082210540771e-01 4.172618865966796875e+00 1.168517708778381348e+00 -4.713128209114074707e-01
2.521000000000000000e+03 4.975680541992187500e+01 3.847972393035888672e+00 -9.971670806407928467e-02 1.347891211509704590e+00 3.744523227214813232e-01 1.122395470738410950e-01
2.522000000000000000e+03 4.377112960815429688e+01 -2.122510671615600586e+00 -3.301225900650024414e-01 1.936558604240417480e+00 4.819307923316955566e-01 -1.899540901184082031e+00
2.523000000000000000e+03 4.161075592041015625e+01 1.393717885017395020e+00 4.595004618167877197e-01 5.300545692443847656e+00 1.728013753890991211e+00 -5.128855109214782715e-01
2.524000000000000000e+03 5.542350292205810547e+00 -9.983804702758789062e+00 -3.130261898040771484e-01 2.171448707580566406e+00 5.575267672538757324e-01 1.303568720817565918e+00
2.525000000000000000e+03 5.859457015991210938e+01 9.403143882751464844e+00 1.173317551612854004e+00 7.203201293945312500e+00 2.512955665588378906e+00 2.834973484277725220e-02
2.526000000000000000e+03 1.836008262634277344e+01 -1.543046283721923828e+01 -5.697878003120422363e-01 6.378258228302001953e+00 1.742541193962097168e+00 -7.655361890792846680e-01
2.527000000000000000e+03 5.802378845214843750e+01 -2.635435676574707031e+01 -1.924837708473205566e+00 6.074581146240234375e+00 1.244922995567321777e+00 2.071161746978759766e+00
2.528000000000000000e+03 4.854883956909179688e+01 -2.718457412719726562e+01 -9.516115188598632812e-01 4.832970142364501953e+00 1.164407610893249512e+00 -3.174754858016967773e+00
2.529000000000000000e+03 7.185549163818359375e+01 6.845678329467773438e+00 -4.921351969242095947e-01 6.308708667755126953e+00 1.744971990585327148e+00 8.128761649131774902e-01
2.530000000000000000e+03 6.786475372314453125e+01 3.223175048828125000e+00 2.201114147901535034e-01 2.003993034362792969e+00 6.672313213348388672e-01 1.941431641578674316e+00
2.531000000000000000e+03 2.962837409973144531e+01 -1.140649986267089844e+01 -8.245679736137390137e-02 6.775330543518066406e+00 2.007862091064453125e+00 1.799664258956909180e+00
2.532000000000000000e+03 5.395598983764648438e+01 1.991591644287109375e+01 -7.211476564407348633e-01 4.538041114807128906e+00 1.145068049430847168e+00 -2.638637304306030273e+00
2.533000000000000000e+03 6.073450088500976562e+01 -1.216163635253906250e+01 -1.095961332321166992e+00 6.059681415557861328e+00 1.489116072654724121e+00 1.478517651557922363e+00
2.534000000000000000e+03 6.321482849121093750e+01 -1.154773616790771484e+01 -1.388454437255859375e+00 7.298554420471191406e+00 1.773030042648315430e+00 7.566586732864379883e-01
2.535000000000000000e+03 7.123731994628906250e+01 2.021525764465332031e+01 -1.572693228721618652e+00 5.615413188934326172e+00 1.212815999984741211e+00 -1.405451416969299316e+00
2.536000000000000000e+03 7.339473724365234375e+01 2.458408355712890625e+01 -7.460564374923706055e-02 5.947360038757324219e+00 1.761826276779174805e+00 -7.085058689117431641e-01
2.537000000000000000e+03 1.404837894439697266e+01 -2.421229171752929688e+01 -2.326488018035888672e+00 4.095808982849121094e+00 5.307962298393249512e-01 2.537940502166748047e+00
2.538000000000000000e+03 4.075530624389648438e+01 5.567096471786499023e-01 5.710557475686073303e-02 4.727653980255126953e+00 1.435427784919738770e+00 6.375719904899597168e-01
2.539000000000000000e+03 5.341931533813476562e+01 -2.780620956420898438e+01 -2.224855870008468628e-01 4.669889450073242188e+00 1.334221124649047852e+00 1.516211271286010742e+00
2.540000000000000000e+03 6.164610671997070312e+01 5.522130012512207031e+00 -1.279462337493896484e+00 4.736817359924316406e+00 1.037206530570983887e+00 -1.961463689804077148e+00
2.541000000000000000e+03 5.628805923461914062e+01 -2.547215461730957031e+01 -1.697350621223449707e+00 7.839965820312500000e+00 1.842784523963928223e+00 1.899988651275634766e+00
2.542000000000000000e+03 5.713173675537109375e+01 -2.573632049560546875e+01 -1.415663719177246094e+00 7.296991825103759766e+00 1.764398336410522461e+00 1.664375782012939453e+00
2.543000000000000000e+03 2.392112731933593750e+01 3.326622390747070312e+01 4.264779984951019287e-01 3.846575975418090820e+00 1.281916141510009766e+00 9.888088107109069824e-01
2.544000000000000000e+03 4.967649841308593750e+01 3.016597175598144531e+01 1.297606229782104492e+00 6.703289031982421875e+00 2.400268554687500000e+00 9.168276190757751465e-01
2.545000000000000000e+03 5.072043228149414062e+01 -1.348373985290527344e+01 -5.727644562721252441e-01 3.598726511001586914e+00 9.077885746955871582e-01 -6.051288247108459473e-01
2.546000000000000000e+03 4.559893417358398438e+01 3.517554855346679688e+01 -1.232440590858459473e+00 4.173674583435058594e+00 8.823701739311218262e-01 -1.125437736511230469e+00
2.547000000000000000e+03 6.268209457397460938e+01 2.231925582885742188e+01 -1.555545806884765625e+00 5.676857471466064453e+00 1.236393451690673828e+00 3.500253915786743164e+00
2.548000000000000000e+03 1.785413360595703125e+01 -2.452752113342285156e+01 -1.092792034149169922e+00 2.394867897033691406e+00 3.906227350234985352e-01 1.359843254089355469e+00
2.549000000000000000e+03 6.623385620117187500e+01 -1.334469223022460938e+01 -1.002570629119873047e+00 3.900352716445922852e+00 8.693345785140991211e-01 -1.564589589834213257e-01
2.550000000000000000e+03 6.751948547363281250e+01 -1.364702415466308594e+01 -5.263429284095764160e-01 1.793100237846374512e+00 3.800271749496459961e-01 -6.322014331817626953e-01
2.551000000000000000e+03 2.687440681457519531e+01 6.169203758239746094e+00 2.455082654953002930e+00 4.878268241882324219e+00 2.200005292892456055e+00 -1.423143595457077026e-01
2.552000000000000000e+03 2.550087928771972656e+01 5.650980472564697266e+00 2.240926980972290039e+00 3.728247880935668945e+00 1.790752410888671875e+00 -5.380453541874885559e-02
2.553000000000000000e+03 7.606992340087890625e+01 4.073522186279296875e+01 -1.085513755679130554e-01 7.013963699340820312e+00 2.071623563766479492e+00 1.880892217159271240e-01
2.554000000000000000e+03 7.464289093017578125e+01 3.780651855468750000e+01 -1.292286962270736694e-01 6.542816162109375000e+00 1.924076318740844727e+00 2.646698057651519775e-01
2.555000000000000000e+03 2.840212583541870117e+00 3.065183639526367188e+01 -2.450314350426197052e-02 3.878918647766113281e+00 1.156324625015258789e+00 -1.372803568840026855e+00
2.556000000000000000e+03 3.307505035400390625e+01 2.859253692626953125e+01 9.774695634841918945e-01 7.775600433349609375e+00 2.625921010971069336e+00 -7.492651939392089844e-01
2.557000000000000000e+03 3.448000717163085938e+01 -1.310178279876708984e+01 -1.462230920791625977e+00 1.340964436531066895e+00 -3.637992218136787415e-02 -5.081428885459899902e-01
2.558000000000000000e+03 5.722573089599609375e+01 7.130245685577392578e+00 6.726658940315246582e-01 6.850896358489990234e+00 2.257068634033203125e+00 3.244300372898578644e-03
2.559000000000000000e+03 5.993431091308593750e+01 8.069046974182128906e+00 2.073824107646942139e-01 6.039798736572265625e+00 1.874154329299926758e+00 -1.138754367828369141e+00
2.560000000000000000e+03 4.302711868286132812e+01 -2.323969268798828125e+01 2.607528686523437500e+00 4.519665241241455078e+00 2.138158082962036133e+00 7.213899493217468262e-01
2.561000000000000000e+03 4.530440902709960938e+01 4.610744476318359375e+00 3.140207827091217041e-01 3.896768093109130859e+00 1.263236641883850098e+00 -1.601215004920959473e+00
2.562000000000000000e+03 2.252488517761230469e+01 1.527376937866210938e+01 -2.390295743942260742e+00 7.891240119934082031e+00 1.650283336639404297e+00 5.471435934305191040e-02
2.563000000000000000e+03 4.981853485107421875e+01 2.848292350769042969e+01 1.878284692764282227e+00 6.843959808349609375e+00 2.616673231124877930e+00 1.245439648628234863e+00
2.564000000000000000e+03 5.053692245483398438e+01 3.114352989196777344e+01 1.193837761878967285e+00 6.860449314117431641e+00 2.416286230087280273e+00 8.704119920730590820e-01
2.565000000000000000e+03 5.291389846801757812e+01 -1.077601432800292969e+01 8.592033982276916504e-01 4.498119831085205078e+00 1.607196927070617676e+00 -2.059233665466308594e+00
2.566000000000000000e+03 7.307508850097656250e+01 1.742706489562988281e+01 -5.165561437606811523e-01 8.211984634399414062e+00 2.308628559112548828e+00 -4.909929633140563965e-02
2.567000000000000000e+03 7.212900543212890625e+01 2.096069145202636719e+01 -1.322365283966064453e+00 6.228955268859863281e+00 1.471976995468139648e+00 -9.369776844978332520e-01
2.568000000000000000e+03 5.553601837158203125e+01 1.690338516235351562e+01 8.136884570121765137e-01 5.472746372222900391e+00 1.885930418968200684e+00 -1.176850795745849609e+00
2.569000000000000000e+03 5.657213592529296875e+01 1.761241722106933594e+01 1.030532836914062500e+00 5.373699188232421875e+00 1.921269655227661133e+00 -9.600826501846313477e-01
2.570000000000000000e+03 3.394829559326171875e+01 1.611793136596679688e+01 2.308255672454833984e+00 4.605610847473144531e+00 2.074160099029541016e+00 -2.903768047690391541e-02
2.571000000000000000e+03 5.784448242187500000e+01 1.144094467163085938e+01 1.536104202270507812e+00 8.453772544860839844e+00 2.996963024139404297e+00 6.772210001945495605e-01
2.572000000000000000e+03 4.582100677490234375e+01 -1.197854399681091309e+00 2.181392908096313477e-01 3.763379096984863281e+00 1.194455504417419434e+00 -2.431608676910400391e+00
2.573000000000000000e+03 1.981785583496093750e+01 2.314121484756469727e+00 1.444118857383728027e+00 2.157274007797241211e+00 1.080417871475219727e+00 3.205239295959472656e+00
2.574000000000000000e+03 2.487042999267578125e+01 -2.690294456481933594e+01 -1.321377038955688477e+00 5.517098426818847656e+00 1.258716344833374023e+00 -2.135808765888214111e-01
2.575000000000000000e+03 4.765888595581054688e+01 -3.796292066574096680e+00 4.279317259788513184e-01 5.474345207214355469e+00 1.770683050155639648e+00 -1.511266112327575684e+00
2.576000000000000000e+03 4.924431610107421875e+01 -4.193801879882812500e+00 8.677057623863220215e-01 6.791042327880859375e+00 2.297624349594116211e+00 -6.280615329742431641e-01
2.577000000000000000e+03 6.823444366455078125e+01 3.900558090209960938e+01 -5.486329197883605957e-01 5.081106185913085938e+00 1.359741926193237305e+00 1.171513423323631287e-01
2.578000000000000000e+03 3.753607559204101562e+01 -3.454954147338867188e+01 9.482926726341247559e-01 5.361539840698242188e+00 1.892949700355529785e+00 2.008478879928588867e+00
2.579000000000000000e+03 3.522966003417968750e+01 -3.843590927124023438e+01 -7.555887103080749512e-01 4.260196685791015625e+00 1.051382422447204590e+00 6.121547222137451172e-01
2.580000000000000000e+03 1.245569038391113281e+01 -9.333970069885253906e+00 1.754982113838195801e+00 2.570451498031616211e+00 1.297630071640014648e+00 8.789051175117492676e-01
2.581000000000000000e+03 3.849144744873046875e+01 1.893894386291503906e+01 1.648661375045776367e+00 2.054779052734375000e+00 1.111032128334045410e+00 -1.668081283569335938e+00
2.582000000000000000e+03 3.678959274291992188e+01 1.990559577941894531e+01 1.190178036689758301e+00 3.129576921463012695e+00 1.295926451683044434e+00 -1.665334701538085938e+00
2.583000000000000000e+03 6.737245178222656250e+01 2.811184310913085938e+01 1.694462776184082031e+00 4.819403171539306641e+00 1.954159736633300781e+00 7.877345085144042969e-01
2.584000000000000000e+03 6.981713867187500000e+01 2.972213745117187500e+01 1.072422266006469727e+00 5.042651653289794922e+00 1.834522247314453125e+00 4.396865367889404297e-01
2.585000000000000000e+03 6.845364379882812500e+01 -3.093106269836425781e+01 2.392243862152099609e+00 5.378999710083007812e+00 2.331373214721679688e+00 -1.565320491790771484e+00
2.586000000000000000e+03 6.479721069335937500e+01 -1.236482238769531250e+01 -1.387364387512207031e+00 6.327672004699707031e+00 1.482092261314392090e+00 1.192873120307922363e-01
2.587000000000000000e+03 5.650601387023925781e+00 -1.265352344512939453e+01 -3.071157038211822510e-01 3.819137096405029297e+00 1.053606390953063965e+00 1.127852439880371094e+00
2.588000000000000000e+03 5.221937656402587891e+00 -1.157777595520019531e+01 -5.184082984924316406e-01 3.016191482543945312e+00 7.493349909782409668e-01 1.006380319595336914e+00
2.589000000000000000e+03 4.168455123901367188e+01 -1.878612709045410156e+01 1.996189236640930176e+00 4.498875617980957031e+00 1.948519468307495117e+00 -5.607376694679260254e-01
2.590000000000000000e+03 2.655832672119140625e+01 -1.765340042114257812e+01 7.566899061203002930e-01 4.337552070617675781e+00 1.528272509574890137e+00 3.120872378349304199e-01
2.591000000000000000e+03 1.930999946594238281e+01 2.233911514282226562e+01 8.443337082862854004e-01 4.817070960998535156e+00 1.698421478271484375e+00 1.704054512083530426e-02
2.592000000000000000e+03 1.781430244445800781e+01 2.032889556884765625e+01 4.228527843952178955e-01 9.255034327507019043e-01 4.045068621635437012e-01 3.773138821125030518e-01
2.593000000000000000e+03 1.669483947753906250e+01 4.113805007934570312e+01 -4.988878667354583740e-01 2.073055505752563477e+00 4.722503125667572021e-01 -2.403947860002517700e-01
2.594000000000000000e+03 2.679334259033203125e+01 -2.747044181823730469e+01 -1.338892221450805664e+00 6.653192520141601562e+00 1.594290018081665039e+00 -2.542650513350963593e-02
2.595000000000000000e+03 4.382656097412109375e+01 4.765143871307373047e+00 8.669012784957885742e-01 5.144514560699462891e+00 1.803424715995788574e+00 -1.099680781364440918e+00
2.596000000000000000e+03 8.025014877319335938e+00 -3.139739990234375000e+01 1.273446559906005859e+00 2.385348081588745117e+00 1.097638368606567383e+00 4.443024694919586182e-01
2.597000000000000000e+03 8.081956863403320312e+00 -3.465602111816406250e+01 8.414904475212097168e-01 3.044649124145507812e+00 1.165841817855834961e+00 9.161642193794250488e-01
2.598000000000000000e+03 6.155520248413085938e+01 -1.990612602233886719e+01 2.319097518920898438e+00 5.671421527862548828e+00 2.397155761718750000e+00 -8.761919736862182617e-01
2.599000000000000000e+03 8.802305221557617188e+00 -2.589226722717285156e+01 -5.685095191001892090e-01 5.875629186630249023e-01 5.716012325137853622e-03 9.054619073867797852e-02
2.600000000000000000e+03 5.214259338378906250e+01 2.152477073669433594e+01 -3.501021265983581543e-01 4.496215820312500000e+00 1.243834137916564941e+00 -2.082406520843505859e+00
2.601000000000000000e+03 2.508274841308593750e+01 -1.849006843566894531e+01 1.809636592864990234e+00 2.848785877227783203e+00 1.397526741027832031e+00 -4.852882921695709229e-01
2.602000000000000000e+03 4.366751098632812500e+01 5.690060615539550781e+00 7.347795963287353516e-01 5.559645175933837891e+00 1.888327479362487793e+00 -5.853155255317687988e-01
2.603000000000000000e+03 6.701747894287109375e+01 -3.186487388610839844e+01 2.091633558273315430e+00 8.112164497375488281e+00 3.061139345169067383e+00 -2.534696578979492188e+00
2.604000000000000000e+03 6.821202850341796875e+01 -3.223507690429687500e+01 2.161419391632080078e+00 5.908151626586914062e+00 2.420871257781982422e+00 -1.620729684829711914e+00
2.605000000000000000e+03 5.455686569213867188e+01 2.083989334106445312e+01 -7.441539168357849121e-01 4.443676948547363281e+00 1.109856963157653809e+00 -2.686209440231323242e+00
2.606000000000000000e+03 4.876190567016601562e+01 2.826383018493652344e+01 1.735162973403930664e+00 7.211990833282470703e+00 2.684146165847778320e+00 1.131096839904785156e+00
2.607000000000000000e+03 1.305870819091796875e+01 -2.479018211364746094e+01 -1.841180562973022461e+00 3.303774118423461914e+00 4.387780725955963135e-01 2.427272081375122070e+00
2.608000000000000000e+03 4.120857620239257812e+01 1.551729297637939453e+01 1.952543377876281738e+00 5.041317462921142578e+00 2.098158121109008789e+00 -7.006557583808898926e-01
2.609000000000000000e+03 1.146625518798828125e+01 -3.012764549255371094e+01 1.692444086074829102e+00 3.555749893188476562e+00 1.574458241462707520e+00 1.316712141036987305e+00
2.610000000000000000e+03 5.502670288085937500e+00 -3.150070381164550781e+01 7.511060237884521484e-01 2.503166437149047852e+00 9.762817621231079102e-01 -5.080603808164596558e-02
2.611000000000000000e+03 2.651718902587890625e+01 -2.149680328369140625e+01 2.310385942459106445e+00 5.943006515502929688e+00 2.476017713546752930e+00 -1.526361256837844849e-01
2.612000000000000000e+03 2.350539207458496094e+01 9.184172630310058594e+00 2.925827980041503906e+00 4.710349082946777344e+00 2.290853261947631836e+00 -4.643346071243286133e-01
2.613000000000000000e+03 2.539105224609375000e+01 7.184758186340332031e+00 2.981952428817749023e+00 3.758269548416137695e+00 2.022066593170166016e+00 -1.645013391971588135e-01
2.614000000000000000e+03 3.720176696777343750e+01 -1.265057682991027832e+00 -7.334386110305786133e-01 3.813024282455444336e+00 9.238756895065307617e-01 3.046515226364135742e+00
2.615000000000000000e+03 3.850203704833984375e+01 -1.483603596687316895e+00 -9.264790415763854980e-01 3.892808914184570312e+00 8.898989558219909668e-01 2.766622781753540039e+00
2.616000000000000000e+03 5.489192581176757812e+01 -1.473684692382812500e+01 -9.759258627891540527e-01 4.779184818267822266e+00 1.140977740287780762e+00 -2.189481496810913086e+00
2.617000000000000000e+03 5.576109313964843750e+01 -1.516897964477539062e+01 -6.080448627471923828e-01 5.306815624237060547e+00 1.409631252288818359e+00 -1.830432176589965820e+00
2.618000000000000000e+03 4.453752517700195312e+00 1.586412525177001953e+01 -1.645875722169876099e-02 2.415953397750854492e+00 7.198483943939208984e-01 -1.553567528724670410e+00
2.619000000000000000e+03 2.861145210266113281e+01 -1.403668785095214844e+01 -3.071687698364257812e+00 5.927893161773681641e+00 8.568616509437561035e-01 1.858482360839843750e+00
2.620000000000000000e+03 1.614680862426757812e+01 2.772735595703125000e+00 3.150155782699584961e+00 4.895187377929687500e+00 2.413602828979492188e+00 3.486697673797607422e+00
2.621000000000000000e+03 3.936178207397460938e+01 1.336640453338623047e+01 5.215511918067932129e-01 4.529484748840332031e+00 1.515310764312744141e+00 -1.229889273643493652e+00
2.622000000000000000e+03 4.326926422119140625e+01 3.595914459228515625e+01 -1.152037501335144043e+00 2.338709831237792969e+00 3.560017049312591553e-01 -1.040793657302856445e+00
2.623000000000000000e+03 5.009973144531250000e+01 -2.916226863861083984e+00 7.315362691879272461e-01 6.844966888427734375e+00 2.272950887680053711e+00 -6.622533798217773438e-01
2.624000000000000000e+03 5.030954360961914062e+01 -1.060563564300537109e+01 1.891049623489379883e+00 6.360785961151123047e+00 2.475550651550292969e+00 -4.109065532684326172e-01
2.625000000000000000e+03 1.669124031066894531e+01 -2.481774902343750000e+01 -1.657468318939208984e+00 3.215991020202636719e+00 4.675568342208862305e-01 2.060075283050537109e+00
2.626000000000000000e+03 1.656336021423339844e+01 -2.355012893676757812e+01 -1.035530209541320801e+00 4.254792213439941406e+00 9.657785892486572266e-01 1.595906019210815430e+00
2.627000000000000000e+03 5.255006408691406250e+01 -2.815382575988769531e+01 8.630079030990600586e-01 4.317759037017822266e+00 1.554230093955993652e+00 4.660413563251495361e-01
2.628000000000000000e+03 7.438246917724609375e+01 1.829388809204101562e+01 -6.939861774444580078e-01 7.843595027923583984e+00 2.144882678985595703e+00 4.416051506996154785e-01
2.629000000000000000e+03 7.388407897949218750e+01 1.990270996093750000e+01 -1.270963311195373535e+00 7.320089340209960938e+00 1.814737796783447266e+00 -1.688563078641891479e-01
2.630000000000000000e+03 3.306532287597656250e+01 -3.698304891586303711e+00 2.054674148559570312e+00 4.319144248962402344e+00 1.912145495414733887e+00 -6.382742524147033691e-01
2.631000000000000000e+03 3.205175399780273438e+01 -4.116982460021972656e+00 2.093503475189208984e+00 5.624782562255859375e+00 2.315485715866088867e+00 -9.449321031570434570e-01
2.632000000000000000e+03 2.567935943603515625e+01 1.171855258941650391e+01 2.197259426116943359e+00 2.360076189041137695e+00 1.367200732231140137e+00 -4.020689427852630615e-01
2.633000000000000000e+03 4.113012695312500000e+01 1.805534934997558594e+01 1.675148367881774902e+00 3.400361776351928711e+00 1.522653102874755859e+00 -2.964353263378143311e-01
2.634000000000000000e+03 4.844540405273437500e+01 -4.065101146697998047e+00 6.477658152580261230e-01 6.247155189514160156e+00 2.068476200103759766e+00 -1.154135704040527344e+00
2.635000000000000000e+03 4.908052825927734375e+01 -3.324681520462036133e+00 9.467393159866333008e-01 6.181094169616699219e+00 2.138350009918212891e+00 -1.029597282409667969e+00
2.636000000000000000e+03 1.779312133789062500e+01 -2.351560592651367188e+01 -4.130886197090148926e-01 3.252834081649780273e+00 8.519236445426940918e-01 6.521160006523132324e-01
2.637000000000000000e+03 4.923406982421875000e+01 -8.402928113937377930e-01 2.547070384025573730e-01 4.939435958862304688e+00 1.558242797851562500e+00 -1.321540474891662598e+00
2.638000000000000000e+03 3.044479560852050781e+01 -3.472354507446289062e+01 7.762525677680969238e-01 3.765218973159790039e+00 1.362441420555114746e+00 -7.194961309432983398e-01
2.639000000000000000e+03 4.911655044555664062e+01 3.452872085571289062e+01 -6.638926863670349121e-01 5.806992053985595703e+00 1.542929768562316895e+00 -2.478264719247817993e-01
2.640000000000000000e+03 1.822311782836914062e+01 -1.811293983459472656e+01 2.051851272583007812e+00 5.363551616668701172e+00 2.224620819091796875e+00 -8.093774318695068359e-01
2.641000000000000000e+03 6.443642425537109375e+01 -1.127030563354492188e+01 -8.967841863632202148e-01 7.270262241363525391e+00 1.912043452262878418e+00 1.581683903932571411e-01
2.642000000000000000e+03 6.196011352539062500e+01 -1.195492172241210938e+01 -1.468991756439208984e+00 7.153022766113281250e+00 1.705209374427795410e+00 1.419670701026916504e+00
2.643000000000000000e+03 4.497642517089843750e+01 -1.643266487121582031e+01 -7.262479066848754883e-01 4.726095199584960938e+00 1.199954152107238770e+00 1.558501958847045898e+00
2.644000000000000000e+03 5.896039581298828125e+01 2.054665565490722656e+01 3.277218043804168701e-01 3.804739713668823242e+00 1.239738464355468750e+00 2.926238477230072021e-01
2.645000000000000000e+03 5.914938354492187500e+01 2.149868011474609375e+01 -7.642017602920532227e-01 2.795500516891479492e+00 6.093896031379699707e-01 1.235517621040344238e+00
2.646000000000000000e+03 6.004002380371093750e+01 1.852774620056152344e+01 1.403683781623840332e+00 6.983483314514160156e+00 2.516149997711181641e+00 1.501976251602172852e+00
2.647000000000000000e+03 5.993933486938476562e+01 1.961955261230468750e+01 8.994203805923461914e-01 5.579894542694091797e+00 1.943794369697570801e+00 1.524016141891479492e+00
2.648000000000000000e+03 4.048328399658203125e+01 1.286160945892333984e+01 7.102900743484497070e-01 5.938465118408203125e+00 1.994626522064208984e+00 -4.875189960002899170e-01
2.649000000000000000e+03 3.788523483276367188e+01 1.576587390899658203e+01 1.809472918510437012e+00 2.681099176406860352e+00 1.347171545028686523e+00 -2.064376592636108398e+00
2.650000000000000000e+03 5.711113452911376953e+00 1.788583755493164062e+01 -6.519945859909057617e-01 3.196663379669189453e+00 7.634006142616271973e-01 -1.451311349868774414e+00
2.651000000000000000e+03 8.371236801147460938e+00 1.754692840576171875e+01 -6.309755444526672363e-01 3.606744766235351562e+00 8.927307724952697754e-01 -9.420946836471557617e-01
2.652000000000000000e+03 3.729429626464843750e+01 -3.319799423217773438e+01 2.582246065139770508e+00 4.308165073394775391e+00 2.067123413085937500e+00 2.059859991073608398e+00
2.653000000000000000e+03 3.182817649841308594e+01 4.125552749633789062e+01 -1.171186566352844238e+00 3.994505643844604492e+00 8.469957709312438965e-01 -5.275179632008075714e-03
2.654000000000000000e+03 3.254364776611328125e+01 -9.471734046936035156e+00 2.578300476074218750e+00 5.019994735717773438e+00 2.279488563537597656e+00 4.131411015987396240e-01
2.655000000000000000e+03 1.875683975219726562e+01 -1.725959777832031250e+01 1.321964979171752930e+00 4.905011177062988281e+00 1.868092894554138184e+00 -1.185628533363342285e+00
2.656000000000000000e+03 9.758991241455078125e+00 -3.086871719360351562e+01 1.605548262596130371e+00 2.728704929351806641e+00 1.300276041030883789e+00 8.451405763626098633e-01
2.657000000000000000e+03 3.691653442382812500e+01 -3.477408170700073242e+00 3.977514207363128662e-01 4.471770286560058594e+00 1.460856556892395020e+00 1.656330704689025879e+00
2.658000000000000000e+03 7.629521846771240234e+00 1.852735137939453125e+01 -9.958727955818176270e-01 3.465772628784179688e+00 7.409699559211730957e-01 -1.292374014854431152e+00
2.659000000000000000e+03 9.001577377319335938e+00 -3.658973312377929688e+01 2.861713171005249023e-01 3.362398147583007812e+00 1.094570875167846680e+00 1.037603139877319336e+00
2.660000000000000000e+03 1.068844699859619141e+01 -2.815312623977661133e+00 1.645445823669433594e+00 2.758718490600585938e+00 1.321249246597290039e+00 1.753921866416931152e+00
2.661000000000000000e+03 1.110829448699951172e+01 2.308970689773559570e+00 3.699110269546508789e+00 2.347953081130981445e+00 1.814118981361389160e+00 -4.285121917724609375e+00
2.662000000000000000e+03 1.116792201995849609e+01 2.629544258117675781e+00 2.990352630615234375e+00 3.055245876312255859e+00 1.813679575920104980e+00 -4.571687221527099609e+00
2.663000000000000000e+03 1.119193267822265625e+01 3.136211633682250977e+00 1.995774269104003906e+00 3.727726936340332031e+00 1.717050313949584961e+00 -4.785252571105957031e+00
2.664000000000000000e+03 9.633827209472656250e+00 2.225639581680297852e+00 1.684711098670959473e+00 7.248398661613464355e-01 7.228652834892272949e-01 -2.036939859390258789e+00
2.665000000000000000e+03 1.513993930816650391e+01 -4.916358947753906250e+00 5.190978050231933594e-01 9.874165534973144531e+00 3.117979049682617188e+00 -8.992068767547607422e-01
2.666000000000000000e+03 1.377766513824462891e+01 -1.941853761672973633e+00 5.248162895441055298e-03 1.163047504425048828e+01 3.490716934204101562e+00 4.736414551734924316e-01
2.667000000000000000e+03 1.224326419830322266e+01 3.001937627792358398e+00 1.748036623001098633e+00 6.790669441223144531e+00 2.561611652374267578e+00 -5.021305561065673828e+00
2.668000000000000000e+03 1.315413093566894531e+01 3.849445819854736328e+00 2.090370208024978638e-01 6.324850082397460938e+00 1.960166096687316895e+00 -2.774537086486816406e+00
2.669000000000000000e+03 1.405217742919921875e+01 -3.114416122436523438e+00 -1.358331292867660522e-01 1.005609321594238281e+01 2.976078033447265625e+00 -1.604878604412078857e-01
2.670000000000000000e+03 1.005021286010742188e+01 -3.585557460784912109e+00 1.689914107322692871e+00 2.160471916198730469e+00 1.155115842819213867e+00 1.396463513374328613e+00
2.671000000000000000e+03 1.520236778259277344e+01 -2.111634969711303711e+00 7.559845447540283203e-01 1.016583251953125000e+01 3.276545286178588867e+00 -1.200507879257202148e+00
2.672000000000000000e+03 1.426566314697265625e+01 -2.011825799942016602e+00 3.848218023777008057e-01 1.146979236602783203e+01 3.556384325027465820e+00 -9.331644773483276367e-01
2.673000000000000000e+03 1.071862888336181641e+01 2.323815107345581055e+00 3.045934677124023438e+00 1.636949181556701660e+00 1.404865145683288574e+00 -3.625482559204101562e+00
2.674000000000000000e+03 1.390814590454101562e+01 -6.188994884490966797e+00 1.520578145980834961e+00 7.496263027191162109e+00 2.705052375793457031e+00 -9.336874485015869141e-01
2.675000000000000000e+03 9.096563339233398438e+00 2.703093528747558594e+00 1.102830767631530762e+00 1.135183930397033691e+00 6.714044213294982910e-01 -1.974144458770751953e+00
2.676000000000000000e+03 4.468904495239257812e+00 -5.375171184539794922e+00 4.630436301231384277e-01 3.897051811218261719e-01 2.558246552944183350e-01 3.651608824729919434e-01
2.677000000000000000e+03 4.437086105346679688e+00 -3.942713975906372070e+00 3.864471018314361572e-01 1.712811440229415894e-01 1.673184782266616821e-01 1.006070822477340698e-01
2.678000000000000000e+03 5.920904159545898438e+00 -5.100018024444580078e+00 7.466457486152648926e-01 5.100452303886413574e-01 3.770072758197784424e-01 6.281731128692626953e-01
2.679000000000000000e+03 5.544258594512939453e+00 -4.327633380889892578e+00 6.549389958381652832e-01 3.018409013748168945e-01 2.870339751243591309e-01 3.380688130855560303e-01
2.680000000000000000e+03 6.543348312377929688e+00 -4.735458850860595703e+00 9.429054856300354004e-01 5.456396341323852539e-01 4.465635418891906738e-01 6.850656867027282715e-01
2.681000000000000000e+03 7.531487464904785156e+00 -4.694483280181884766e+00 1.266059279441833496e+00 7.789995670318603516e-01 6.135176420211791992e-01 9.210335016250610352e-01
2.682000000000000000e+03 7.274635791778564453e+00 -3.814394474029541016e+00 1.086230635643005371e+00 4.656740725040435791e-01 4.655714035034179688e-01 5.680019855499267578e-01
2.683000000000000000e+03 7.830432415008544922e+00 -5.819092273712158203e+00 1.269866466522216797e+00 1.118761301040649414e+00 7.165883183479309082e-01 1.304663538932800293e+00
2.684000000000000000e+03 5.164338588714599609e+00 4.015220642089843750e+00 6.383627653121948242e-02 7.559411525726318359e-01 2.459332346916198730e-01 1.186003088951110840e-01
2.685000000000000000e+03 3.898742914199829102e+00 4.747905254364013672e+00 5.780675634741783142e-02 4.419486224651336670e-01 1.499266177415847778e-01 3.929263651371002197e-01
2.686000000000000000e+03 5.940369606018066406e+00 3.982751131057739258e+00 9.105151146650314331e-02 1.012609362602233887e+00 3.310982584953308105e-01 -1.384327262639999390e-01
2.687000000000000000e+03 4.657907485961914062e+00 5.477097034454345703e+00 1.259494423866271973e-01 9.979268312454223633e-01 3.371628820896148682e-01 2.357968538999557495e-01
2.688000000000000000e+03 5.292240619659423828e+00 4.674465656280517578e+00 8.169794082641601562e-02 1.055941700935363770e+00 3.412919044494628906e-01 7.228004187345504761e-02
2.689000000000000000e+03 3.318216323852539062e+00 4.474615573883056641e+00 1.648134924471378326e-02 1.350780129432678223e-01 4.546780884265899658e-02 4.964156448841094971e-01
2.690000000000000000e+03 8.425909996032714844e+00 3.576812505722045898e+00 5.749183893203735352e-01 1.759768605232238770e+00 7.004061341285705566e-01 -1.784460067749023438e+00
2.691000000000000000e+03 7.718933105468750000e+00 6.043702125549316406e+00 -6.806891411542892456e-02 3.403115510940551758e+00 1.000514030456542969e+00 -1.191743612289428711e+00
2.692000000000000000e+03 1.359886360168457031e+01 -6.647243499755859375e+00 1.974799990653991699e+00 6.540893077850341797e+00 2.554708003997802734e+00 -8.049731254577636719e-01
2.693000000000000000e+03 1.149584674835205078e+01 -2.642153739929199219e+00 1.366280078887939453e+00 4.504770278930664062e+00 1.761315107345581055e+00 2.182644605636596680e+00
2.694000000000000000e+03 1.317520904541015625e+01 -2.383235216140747070e+00 4.552797228097915649e-02 9.798851966857910156e+00 2.953314065933227539e+00 1.402259707450866699e+00
2.695000000000000000e+03 9.015309333801269531e+00 -4.441416740417480469e+00 1.584156513214111328e+00 1.280819177627563477e+00 8.594926595687866211e-01 1.208574295043945312e+00
2.696000000000000000e+03 1.571247100830078125e+01 -3.027847766876220703e+00 1.221840381622314453e-01 9.546455383300781250e+00 2.900591850280761719e+00 -9.172322154045104980e-01
2.697000000000000000e+03 5.626842117309570312e+01 2.037075996398925781e+01 -9.654550999402999878e-02 3.575690269470214844e+00 1.043743371963500977e+00 -2.198045015335083008e+00
2.698000000000000000e+03 5.734787368774414062e+01 1.931519317626953125e+01 6.988837122917175293e-01 4.602811813354492188e+00 1.590508580207824707e+00 -9.958829879760742188e-01
2.699000000000000000e+03 1.598458290100097656e+01 -2.219760417938232422e+00 7.928359508514404297e-01 9.161771774291992188e+00 2.986382246017456055e+00 -1.109828591346740723e+00
2.700000000000000000e+03 1.134548568725585938e+01 -2.713043594360351562e+01 -1.088892202824354172e-02 2.316556692123413086e+00 6.917003393173217773e-01 1.335081100463867188e+00
2.701000000000000000e+03 1.078752231597900391e+01 -2.625014114379882812e+01 -4.785168766975402832e-01 1.493540406227111816e+00 3.045070469379425049e-01 1.192972660064697266e+00
2.702000000000000000e+03 1.733078575134277344e+01 4.422300338745117188e+00 4.320190250873565674e-01 3.121982812881469727e+00 1.066200494766235352e+00 4.410390853881835938e+00
2.703000000000000000e+03 7.274822235107421875e+00 7.251560688018798828e+00 3.578012883663177490e-01 3.662566184997558594e+00 1.206110239028930664e+00 -6.287536621093750000e-01
2.704000000000000000e+03 5.006857299804687500e+01 -8.372745513916015625e+00 2.020854473114013672e+00 7.732858180999755859e+00 2.926113843917846680e+00 5.105876326560974121e-01
2.705000000000000000e+03 4.155873107910156250e+01 -1.982145118713378906e+01 2.214756727218627930e+00 5.069978713989257812e+00 2.185420751571655273e+00 -7.173938155174255371e-01
2.706000000000000000e+03 4.402219009399414062e+01 -1.599113655090332031e+01 -8.851162791252136230e-01 3.095473289489746094e+00 6.631070971488952637e-01 1.032864212989807129e+00
2.707000000000000000e+03 4.349330902099609375e+01 -1.692820167541503906e+01 3.998835384845733643e-01 3.256657600402832031e+00 1.096962332725524902e+00 3.318149149417877197e-01
2.708000000000000000e+03 6.960939788818359375e+01 2.551595878601074219e+01 1.062919259071350098e+00 4.146071434020996094e+00 1.562697172164916992e+00 -6.011308431625366211e-01
2.709000000000000000e+03 6.640729522705078125e+01 2.562451362609863281e+01 1.928892731666564941e+00 4.149833679199218750e+00 1.823617815971374512e+00 5.991704463958740234e-01
2.710000000000000000e+03 6.822676849365234375e+01 2.272872543334960938e+01 -2.899878621101379395e-01 2.165016412734985352e+00 5.625085830688476562e-01 -1.022067427635192871e+00
2.711000000000000000e+03 6.790801239013671875e+01 2.919217300415039062e+01 1.574345588684082031e+00 4.957190036773681641e+00 1.959460735321044922e+00 8.060740232467651367e-01
2.712000000000000000e+03 5.097594070434570312e+01 -3.102968788146972656e+01 3.247968912124633789e+00 6.512453079223632812e+00 2.928126573562622070e+00 -9.461109638214111328e-01
2.713000000000000000e+03 5.161618804931640625e+01 -2.795914077758789062e+01 4.143158197402954102e-01 4.341941833496093750e+00 1.426877379417419434e+00 -4.251094460487365723e-01
2.714000000000000000e+03 2.780068778991699219e+01 5.012995243072509766e+00 1.327167153358459473e+00 5.895188331604003906e+00 2.166706562042236328e+00 -4.939014613628387451e-01
2.715000000000000000e+03 1.687902641296386719e+01 8.731577992439270020e-01 4.119497776031494141e+00 4.560665607452392578e+00 2.604048967361450195e+00 2.093634128570556641e+00
2.716000000000000000e+03 4.499026870727539062e+01 -4.262367784976959229e-01 3.029204010963439941e-01 3.198014736175537109e+00 1.050280570983886719e+00 -2.417768239974975586e+00
2.717000000000000000e+03 7.485692596435546875e+01 -3.373278427124023438e+01 3.772701025009155273e-01 6.251972198486328125e+00 1.988772630691528320e+00 -1.254510879516601562e-01
2.718000000000000000e+03 1.270599842071533203e+01 5.688382625579833984e+00 -3.012090921401977539e+00 3.577077150344848633e+00 1.694958657026290894e-01 -3.476453781127929688e+00
2.719000000000000000e+03 1.038295650482177734e+01 6.611716270446777344e+00 -1.365718722343444824e+00 5.389580249786376953e+00 1.207158446311950684e+00 -2.615010976791381836e+00
2.720000000000000000e+03 5.337294006347656250e+01 -1.216780757904052734e+01 -1.812975555658340454e-01 3.592417716979980469e+00 1.023336052894592285e+00 -2.837140083312988281e+00
2.721000000000000000e+03 6.133507537841796875e+01 1.319948315620422363e+00 -1.317427158355712891e+00 5.898819446563720703e+00 1.374417662620544434e+00 -1.764952540397644043e+00
2.722000000000000000e+03 6.227515029907226562e+01 -2.137620925903320312e+01 2.905575275421142578e+00 5.650417327880859375e+00 2.566797733306884766e+00 -1.354061603546142578e+00
2.723000000000000000e+03 4.098538589477539062e+01 1.418479156494140625e+01 1.344224810600280762e+00 5.664454936981201172e+00 2.102603912353515625e+00 -5.093004703521728516e-01
2.724000000000000000e+03 4.151255798339843750e+01 -1.136916518211364746e+00 -2.296902090311050415e-01 2.628223657608032227e+00 7.195600271224975586e-01 1.634655594825744629e-01
2.725000000000000000e+03 4.272515487670898438e+01 -1.646074652671813965e+00 -1.763329096138477325e-02 1.860118150711059570e+00 5.527454614639282227e-01 -9.896282553672790527e-01
2.726000000000000000e+03 3.311026763916015625e+01 -1.220579433441162109e+01 -2.957157790660858154e-01 3.031300544738769531e+00 8.206754326820373535e-01 1.078938603401184082e+00
2.727000000000000000e+03 3.449695968627929688e+01 -9.794121742248535156e+00 2.943574190139770508e+00 4.304651260375976562e+00 2.174467802047729492e+00 -6.843062043190002441e-01
2.728000000000000000e+03 6.557214355468750000e+01 2.325905418395996094e+01 4.192065000534057617e-01 3.455098628997802734e+00 1.162291526794433594e+00 1.375556349754333496e+00
2.729000000000000000e+03 6.693493652343750000e+01 2.504642963409423828e+00 8.581609278917312622e-02 2.491759538650512695e+00 7.732726931571960449e-01 1.689812421798706055e+00
2.730000000000000000e+03 3.201014709472656250e+01 -1.257036399841308594e+01 -8.360597491264343262e-01 3.997056245803833008e+00 9.482989907264709473e-01 1.618836045265197754e+00
2.731000000000000000e+03 5.565322113037109375e+01 3.749541521072387695e+00 -1.105571150779724121e+00 4.725795269012451172e+00 1.086067199707031250e+00 1.017916560173034668e+00
2.732000000000000000e+03 3.819793701171875000e+00 9.521092414855957031e+00 6.315791606903076172e-01 8.866835236549377441e-01 4.554787874221801758e-01 -1.712120324373245239e-01
2.733000000000000000e+03 5.686612319946289062e+01 2.709688663482666016e+00 -1.105448007583618164e+00 3.599313735961914062e+00 7.481597065925598145e-01 -1.090133786201477051e-01
2.734000000000000000e+03 5.568392562866210938e+01 4.998400688171386719e+00 -3.397483825683593750e-01 6.016045570373535156e+00 1.702889204025268555e+00 7.824939489364624023e-01
2.735000000000000000e+03 4.908069610595703125e+01 -1.278582191467285156e+01 -6.581745147705078125e-01 6.333134174346923828e+00 1.702487826347351074e+00 7.460913658142089844e-01
2.736000000000000000e+03 4.099666976928710938e+01 1.934806251525878906e+01 1.133790016174316406e+00 2.062356948852539062e+00 9.588440656661987305e-01 -1.365448627620935440e-02
2.737000000000000000e+03 3.878627395629882812e+01 1.772649192810058594e+01 2.133145809173583984e+00 2.563349008560180664e+00 1.408948421478271484e+00 -1.769242167472839355e+00
2.738000000000000000e+03 1.943498802185058594e+01 -2.477816200256347656e+01 -8.325449824333190918e-01 2.816458046436309814e-01 -1.652697622776031494e-01 -5.748696625232696533e-02
2.739000000000000000e+03 6.385918426513671875e+01 5.357439041137695312e+00 -1.375226736068725586e+00 2.636539220809936523e+00 3.783937394618988037e-01 -1.515963673591613770e+00
2.740000000000000000e+03 8.539264678955078125e+00 5.619087219238281250e+00 -2.128530591726303101e-01 3.646139621734619141e+00 1.029985904693603516e+00 -1.871858596801757812e+00
2.741000000000000000e+03 7.388542175292968750e+01 -2.935318756103515625e+01 -2.652966678142547607e-01 6.221036911010742188e+00 1.786722183227539062e+00 1.047460556030273438e+00
2.742000000000000000e+03 6.327797698974609375e+01 -1.523939609527587891e+01 -1.619275569915771484e+00 6.546678543090820312e+00 1.478220939636230469e+00 6.496970653533935547e-01
2.743000000000000000e+03 5.734764862060546875e+01 -1.323831462860107422e+01 -3.242547512054443359e-01 4.030768871307373047e+00 1.111954331398010254e+00 -8.924702405929565430e-01
2.744000000000000000e+03 5.598072528839111328e+00 -2.635963439941406250e+01 -6.472484469413757324e-01 1.855064988136291504e+00 3.623449802398681641e-01 -8.768987059593200684e-01
2.745000000000000000e+03 5.999173355102539062e+01 6.734710216522216797e+00 -4.284185469150543213e-01 5.641216754913330078e+00 1.563839435577392578e+00 -1.386049151420593262e+00
2.746000000000000000e+03 5.725503921508789062e+01 1.657350349426269531e+01 1.521495342254638672e+00 6.380238056182861328e+00 2.370520114898681641e+00 -4.822902381420135498e-02
2.747000000000000000e+03 5.883978652954101562e+01 1.707514953613281250e+01 1.976273179054260254e+00 7.004133701324462891e+00 2.694122076034545898e+00 9.477745890617370605e-01
2.748000000000000000e+03 5.236477279663085938e+01 -2.914674758911132812e+01 1.659165382385253906e+00 5.355070590972900391e+00 2.104270696640014648e+00 2.948943078517913818e-01
2.749000000000000000e+03 5.861649322509765625e+01 8.167925834655761719e+00 6.735187172889709473e-01 6.805032730102539062e+00 2.243565320968627930e+00 -2.993399202823638916e-01
2.750000000000000000e+03 2.344947624206542969e+01 3.158988952636718750e+01 4.980152249336242676e-01 3.977950334548950195e+00 1.342789649963378906e+00 1.067799925804138184e+00
2.751000000000000000e+03 7.634242534637451172e+00 8.146652221679687500e+00 5.777440071105957031e-01 4.316415309906005859e+00 1.468247771263122559e+00 -5.363811254501342773e-01
2.752000000000000000e+03 3.425192260742187500e+01 -3.320383834838867188e+01 1.540572881698608398e+00 1.988999128341674805e+00 1.058871626853942871e+00 4.761092662811279297e-01
2.753000000000000000e+03 3.299510192871093750e+01 2.748249626159667969e+01 9.844241738319396973e-01 8.091137886047363281e+00 2.722668647766113281e+00 -2.715529203414916992e-01
2.754000000000000000e+03 4.216827011108398438e+01 6.617072582244873047e+00 1.205982685089111328e+00 6.993489265441894531e+00 2.459841489791870117e+00 4.291422963142395020e-01
2.755000000000000000e+03 3.981536865234375000e+01 -1.514055919647216797e+01 -2.730086803436279297e+00 4.654215335845947266e+00 5.772386193275451660e-01 -2.249662160873413086e+00
2.756000000000000000e+03 2.686968231201171875e+01 -2.035315322875976562e+01 2.362563133239746094e+00 5.943890571594238281e+00 2.491935968399047852e+00 4.082485288381576538e-02
2.757000000000000000e+03 1.775614738464355469e+01 -1.998452377319335938e+01 2.042205333709716797e+00 5.421566486358642578e+00 2.239131689071655273e+00 -6.190682053565979004e-01
2.758000000000000000e+03 1.962692451477050781e+01 -1.806889343261718750e+01 1.875817894935607910e+00 3.144755840301513672e+00 1.506172060966491699e+00 -1.366675734519958496e+00
2.759000000000000000e+03 2.418469619750976562e+01 1.169906234741210938e+01 2.092561960220336914e+00 4.130393028259277344e+00 1.866886496543884277e+00 -1.124350428581237793e+00
2.760000000000000000e+03 2.629734611511230469e+01 1.348462200164794922e+01 -4.640884399414062500e-01 7.240221649408340454e-02 -1.175058633089065552e-01 3.064431846141815186e-01
2.761000000000000000e+03 3.348447036743164062e+01 -2.291731834411621094e+00 1.243202686309814453e+00 2.909112930297851562e+00 1.245694637298583984e+00 -3.754531219601631165e-02
2.762000000000000000e+03 2.396382331848144531e+01 -1.730108642578125000e+01 1.199038028717041016e+00 1.463086605072021484e+00 7.986373901367187500e-01 -5.333902239799499512e-01
2.763000000000000000e+03 2.107004356384277344e+01 -1.812481307983398438e+01 1.866068363189697266e+00 1.565786719322204590e+00 1.029556512832641602e+00 -1.699488043785095215e+00
2.764000000000000000e+03 1.054765510559082031e+01 -1.038093948364257812e+01 2.591831982135772705e-01 8.023993968963623047e-01 3.184747695922851562e-01 2.398715734481811523e+00
2.765000000000000000e+03 4.233241653442382812e+01 -2.099139022827148438e+01 3.140451192855834961e+00 4.736546039581298828e+00 2.363099336624145508e+00 1.650413572788238525e-01
2.766000000000000000e+03 3.053331184387207031e+01 -1.964415073394775391e+00 1.033661484718322754e+00 6.274888992309570312e+00 2.192564964294433594e+00 -1.724403858184814453e+00
2.767000000000000000e+03 5.688708496093750000e+01 4.821105480194091797e+00 -5.265967845916748047e-01 5.727111816406250000e+00 1.560154438018798828e+00 -3.052228689193725586e-01
2.768000000000000000e+03 5.647916030883789062e+01 -2.641189956665039062e+01 -2.087809801101684570e+00 7.288993835449218750e+00 1.560355186462402344e+00 2.277496337890625000e+00
2.769000000000000000e+03 1.317999076843261719e+01 -1.023144626617431641e+01 5.483450889587402344e-01 2.470219373703002930e+00 9.055693745613098145e-01 3.209811449050903320e-01
2.770000000000000000e+03 1.490917587280273438e+01 -1.057420730590820312e+01 4.546394106000661850e-03 6.828637599945068359e+00 2.049955129623413086e+00 -6.452153921127319336e-01
2.771000000000000000e+03 6.600093841552734375e+01 1.345412850379943848e+00 -1.228884980082511902e-01 3.830193758010864258e+00 1.112191557884216309e+00 1.222228050231933594e+00
2.772000000000000000e+03 4.019527053833007812e+01 1.565345287322998047e+01 1.774395108222961426e+00 4.127920627593994141e+00 1.770694613456726074e+00 -1.118942379951477051e+00
2.773000000000000000e+03 3.721511459350585938e+01 1.473391342163085938e+01 1.359638094902038574e+00 2.223492622375488281e+00 1.074939250946044922e+00 -2.086164474487304688e+00
2.774000000000000000e+03 7.088404083251953125e+01 1.411052107810974121e+00 3.620462715625762939e-01 1.717649102210998535e+00 6.239085793495178223e-01 9.626030921936035156e-01
2.775000000000000000e+03 7.203974914550781250e+01 9.604228734970092773e-01 1.784596592187881470e-02 2.545355319976806641e+00 7.689603567123413086e-01 -5.407911911606788635e-02
2.776000000000000000e+03 7.381836700439453125e+01 1.340302705764770508e+00 -4.750998914241790771e-01 5.011438369750976562e+00 1.360901594161987305e+00 -7.871612310409545898e-01
2.777000000000000000e+03 2.662455940246582031e+01 -2.854154205322265625e+01 -1.316899061203002930e+00 6.711131095886230469e+00 1.618269681930541992e+00 -6.066819652915000916e-02
2.778000000000000000e+03 2.184220886230468750e+01 4.293136596679687500e+00 1.198756933212280273e+00 3.128113508224487305e+00 1.298061132431030273e+00 1.991516709327697754e+00
2.779000000000000000e+03 2.369078445434570312e+01 2.489964723587036133e+00 6.442540884017944336e-01 1.707190632820129395e+00 7.054334282875061035e-01 6.867280006408691406e-01
2.780000000000000000e+03 1.910026550292968750e+01 3.245208024978637695e+00 1.474385261535644531e+00 3.017575502395629883e+00 1.347588300704956055e+00 3.921887397766113281e+00
2.781000000000000000e+03 6.381008529663085938e+01 -2.090881615877151489e-01 -1.652477085590362549e-01 6.391569137573242188e+00 1.867896437644958496e+00 5.943439900875091553e-02
2.782000000000000000e+03 1.838068389892578125e+01 3.997764348983764648e+00 9.901176691055297852e-01 3.571419715881347656e+00 1.368461251258850098e+00 4.354536056518554688e+00
2.783000000000000000e+03 7.480679321289062500e+01 -2.713751792907714844e+01 -6.689414978027343750e-01 7.629149913787841797e+00 2.088062524795532227e+00 8.137779831886291504e-01
2.784000000000000000e+03 7.541117095947265625e+01 -2.818103790283203125e+01 -6.281892657279968262e-01 7.418040752410888672e+00 2.036955356597900391e+00 4.244491457939147949e-01
2.785000000000000000e+03 3.613523101806640625e+01 1.785843849182128906e+01 2.169928312301635742e+00 3.247371435165405273e+00 1.625189900398254395e+00 -1.527047276496887207e+00
2.786000000000000000e+03 4.249362182617187500e+01 5.534656047821044922e+00 1.082166552543640137e+00 6.867215156555175781e+00 2.384814500808715820e+00 -2.195015698671340942e-01
2.787000000000000000e+03 4.327168273925781250e+01 3.361335039138793945e+00 1.088438272476196289e+00 4.935254096984863281e+00 1.807107686996459961e+00 -1.328035235404968262e+00
2.788000000000000000e+03 7.563381195068359375e+01 2.382141113281250000e+01 -3.002780675888061523e-01 6.735104560852050781e+00 1.930448055267333984e+00 -3.900648057460784912e-01
2.789000000000000000e+03 7.265329742431640625e+01 2.562325286865234375e+01 2.356783300638198853e-01 5.436068058013916016e+00 1.701523900032043457e+00 -6.971625685691833496e-01
2.790000000000000000e+03 7.565771484375000000e+01 2.511164474487304688e+01 -2.764996886253356934e-02 6.554478645324707031e+00 1.958048582077026367e+00 -4.224932789802551270e-01
2.791000000000000000e+03 7.833783721923828125e+01 -2.501407814025878906e+01 -1.254713349044322968e-02 7.313097953796386719e+00 2.190165281295776367e+00 -5.307740569114685059e-01
2.792000000000000000e+03 7.400444793701171875e+01 1.065433502197265625e+01 1.576459288597106934e+00 8.715848922729492188e+00 3.087692499160766602e+00 -2.240577936172485352e-01
2.793000000000000000e+03 7.483406829833984375e+01 1.155761909484863281e+01 1.354890942573547363e+00 8.715805053710937500e+00 3.021208763122558594e+00 -2.674149274826049805e-01
2.794000000000000000e+03 7.320954132080078125e+01 4.483327388763427734e+00 -4.025129079818725586e-01 5.761413574218750000e+00 1.607670187950134277e+00 -5.034820362925529480e-02
2.795000000000000000e+03 7.219042968750000000e+01 3.924031496047973633e+00 -1.318792104721069336e-01 4.456310272216796875e+00 1.297329306602478027e+00 5.049804449081420898e-01
2.796000000000000000e+03 7.592838287353515625e+01 4.138762950897216797e+00 -2.634669542312622070e-01 7.121281623840332031e+00 2.057344436645507812e+00 -9.099280834197998047e-01
2.797000000000000000e+03 7.538136291503906250e+01 1.787384986877441406e+01 -3.427146971225738525e-01 7.656739234924316406e+00 2.194207429885864258e+00 6.755604743957519531e-01
2.798000000000000000e+03 7.548451232910156250e+01 8.837605476379394531e+00 3.749467730522155762e-01 7.659945487976074219e+00 2.410467624664306641e+00 -9.760028123855590820e-01
2.799000000000000000e+03 7.329724121093750000e+01 3.726314604282379150e-01 -5.593162178993225098e-01 3.972843885421752930e+00 1.024058341979980469e+00 -8.703143000602722168e-01
2.800000000000000000e+03 7.627995300292968750e+01 1.283869457244873047e+01 8.514717221260070801e-01 7.562374114990234375e+00 2.524153709411621094e+00 4.956353921443223953e-03
2.801000000000000000e+03 7.404553985595703125e+01 1.429399108886718750e+01 1.333100795745849609e+00 8.930129051208496094e+00 3.078969001770019531e+00 1.736987233161926270e-01
2.802000000000000000e+03 7.404108428955078125e+01 2.881798362731933594e+01 4.365323781967163086e-01 5.901261806488037109e+00 1.901338338851928711e+00 -1.254342943429946899e-01
2.803000000000000000e+03 7.573751831054687500e+01 1.989330291748046875e+01 -6.916050910949707031e-01 7.406835079193115234e+00 2.014569044113159180e+00 3.189934492111206055e-01
2.804000000000000000e+03 7.423185729980468750e+01 2.120435905456542969e+01 -8.523280024528503418e-01 6.927177429199218750e+00 1.822454810142517090e+00 -3.448245227336883545e-01
2.805000000000000000e+03 7.326348114013671875e+01 -3.061868858337402344e+01 6.514190435409545898e-01 5.535802364349365234e+00 1.856166481971740723e+00 7.859659194946289062e-01
2.806000000000000000e+03 7.311137390136718750e+01 3.209011459350585938e+01 3.571093678474426270e-01 5.892342090606689453e+00 1.874835371971130371e+00 2.680923640727996826e-01
2.807000000000000000e+03 1.717250442504882812e+01 3.386409044265747070e+00 1.808240056037902832e+00 3.343602418899536133e+00 1.545552730560302734e+00 4.303851127624511719e+00
2.808000000000000000e+03 7.407265472412109375e+01 3.020288658142089844e+01 4.178865551948547363e-01 5.914943218231201172e+00 1.899848937988281250e+00 3.896877542138099670e-02
2.809000000000000000e+03 4.267480850219726562e+01 -2.014237594604492188e+01 2.799542665481567383e+00 4.717770099639892578e+00 2.255193710327148438e+00 1.966212838888168335e-01
2.810000000000000000e+03 3.832349538803100586e+00 -1.100599193572998047e+01 -3.757004737854003906e-01 2.011735200881958008e+00 4.908104240894317627e-01 4.393016695976257324e-01
2.811000000000000000e+03 5.171446800231933594e+00 -2.789935684204101562e+01 1.092301681637763977e-01 2.170127391815185547e+00 6.838072538375854492e-01 -7.080290317535400391e-01
2.812000000000000000e+03 7.293257904052734375e+01 7.237261295318603516e+00 -7.234270870685577393e-02 7.181387424468994141e+00 2.132713317871093750e+00 2.805516705848276615e-04
2.813000000000000000e+03 3.384317636489868164e+00 -2.319489097595214844e+01 -1.457344055175781250e+00 3.796811819076538086e+00 7.018403410911560059e-01 7.158865332603454590e-01
2.814000000000000000e+03 6.878002929687500000e+01 2.462294816970825195e+00 2.619942128658294678e-01 2.115636110305786133e+00 7.132890820503234863e-01 2.013078927993774414e+00
2.815000000000000000e+03 5.206301212310791016e+00 1.687307739257812500e+01 -3.650357127189636230e-01 2.992384433746337891e+00 7.882046103477478027e-01 -1.571900248527526855e+00
2.816000000000000000e+03 4.092326641082763672e+00 2.084639358520507812e+01 -7.613706588745117188e-01 3.175305366516113281e+00 7.241804003715515137e-01 -6.459777951240539551e-01
2.817000000000000000e+03 3.872239828109741211e+00 1.293164348602294922e+01 5.321613550186157227e-01 1.537441968917846680e+00 6.208810210227966309e-01 -1.123457670211791992e+00
2.818000000000000000e+03 3.666703462600708008e+00 1.189217185974121094e+01 5.909782052040100098e-01 1.007941722869873047e+00 4.796759784221649170e-01 -7.314224839210510254e-01
2.819000000000000000e+03 6.737629413604736328e+00 1.897181320190429688e+01 -1.021185874938964844e+00 3.314086437225341797e+00 6.878701448440551758e-01 -1.331402182579040527e+00
2.820000000000000000e+03 5.202892780303955078e+00 2.107399940490722656e+01 -9.449575543403625488e-01 3.628875255584716797e+00 8.051753044128417969e-01 -9.764419198036193848e-01
2.821000000000000000e+03 3.484076738357543945e+00 -2.761451148986816406e+01 1.917229034006595612e-03 3.005795955657958984e+00 9.023139476776123047e-01 -6.361523866653442383e-01
2.822000000000000000e+03 7.928470134735107422e+00 -3.338056564331054688e+01 1.014302253723144531e+00 2.874496459960937500e+00 1.166639685630798340e+00 7.279358506202697754e-01
2.823000000000000000e+03 5.028203964233398438e+00 -3.558335113525390625e+01 2.380528897047042847e-01 3.181910753250122070e+00 1.025989174842834473e+00 5.361393094062805176e-01
2.824000000000000000e+03 5.437183856964111328e+00 1.490307617187500000e+01 2.964404523372650146e-01 3.015868663787841797e+00 9.936926960945129395e-01 -1.586465001106262207e+00
2.825000000000000000e+03 4.803199768066406250e+00 8.088279724121093750e+00 5.964299440383911133e-01 1.550912737846374512e+00 6.442027688026428223e-01 3.747008368372917175e-02
2.826000000000000000e+03 3.620034217834472656e+00 7.787895202636718750e+00 4.186898171901702881e-01 5.906891226768493652e-01 3.028136789798736572e-01 2.204742580652236938e-01
2.827000000000000000e+03 5.801887989044189453e+00 8.705344200134277344e+00 9.145272970199584961e-01 2.528729915618896484e+00 1.032977223396301270e+00 -1.931507885456085205e-01
2.828000000000000000e+03 3.548717021942138672e+00 -7.515125274658203125e+00 6.158618628978729248e-02 7.267273664474487305e-01 2.364940792322158813e-01 4.768313765525817871e-01
2.829000000000000000e+03 6.481145858764648438e+00 1.210043334960937500e+01 1.386293411254882812e+00 3.630362749099731445e+00 1.504996895790100098e+00 -1.326018214225769043e+00
2.830000000000000000e+03 4.947699069976806641e+00 8.807304382324218750e+00 7.621619105339050293e-01 1.820284724235534668e+00 7.747340202331542969e-01 -1.222359463572502136e-01
2.831000000000000000e+03 7.109636688232421875e+01 3.229170608520507812e+01 4.965486228466033936e-01 5.481140613555908203e+00 1.793306827545166016e+00 5.086920261383056641e-01
2.832000000000000000e+03 5.211222076416015625e+01 2.378976440429687500e+01 3.414002954959869385e-01 5.374372482299804688e+00 1.714731812477111816e+00 -1.026712298393249512e+00
2.833000000000000000e+03 4.474537849426269531e+00 -6.354002952575683594e+00 3.294717669486999512e-01 6.253379583358764648e-01 2.864429354667663574e-01 5.677983164787292480e-01
2.834000000000000000e+03 4.715747833251953125e+00 -8.543548583984375000e+00 -6.390288472175598145e-02 1.398494005203247070e+00 4.003773629665374756e-01 9.026643633842468262e-01
2.835000000000000000e+03 5.415670394897460938e+00 -6.233890056610107422e+00 5.645049214363098145e-01 7.326118946075439453e-01 3.891350328922271729e-01 7.842199206352233887e-01
2.836000000000000000e+03 4.767937088012695312e+01 -2.823866844177246094e+00 4.250687062740325928e-01 5.305238246917724609e+00 1.719092130661010742e+00 -1.941472172737121582e+00
2.837000000000000000e+03 2.772382926940917969e+01 7.282654762268066406e+00 2.983480930328369141e+00 6.123250007629394531e+00 2.732019186019897461e+00 -1.082227602601051331e-01
2.838000000000000000e+03 2.605883407592773438e+01 6.476853370666503906e+00 2.742330312728881836e+00 4.478058815002441406e+00 2.166116714477539062e+00 -1.918525546789169312e-01
2.839000000000000000e+03 4.183613967895507812e+01 -1.765028381347656250e+01 1.052271604537963867e+00 3.713583230972290039e+00 1.429756402969360352e+00 -1.002228856086730957e+00
2.840000000000000000e+03 4.701462554931640625e+01 4.634090900421142578e+00 -1.081901490688323975e-01 2.461354255676269531e+00 7.059492468833923340e-01 -1.672355055809020996e+00
2.841000000000000000e+03 6.881111145019531250e+00 -1.183381938934326172e+01 -6.496621370315551758e-01 3.476105690002441406e+00 8.479330539703369141e-01 1.963531970977783203e+00
2.842000000000000000e+03 6.360994338989257812e+01 -1.269885253906250000e+01 -1.485468745231628418e+00 6.879478931427001953e+00 1.618203043937683105e+00 8.244144320487976074e-01
2.843000000000000000e+03 2.952278327941894531e+01 3.105127525329589844e+01 5.692408680915832520e-01 3.089243412017822266e+00 1.097545266151428223e+00 -1.554599285125732422e+00
2.844000000000000000e+03 2.728802680969238281e+01 3.116924476623535156e+01 8.171581625938415527e-01 1.498374104499816895e+00 6.946597099304199219e-01 -5.991839766502380371e-01
2.845000000000000000e+03 6.046517944335937500e+01 -2.339959907531738281e+01 2.347760438919067383e+00 3.442004680633544922e+00 1.736929535865783691e+00 -3.201927542686462402e-01
2.846000000000000000e+03 5.389708709716796875e+01 2.168683815002441406e+01 -9.073556661605834961e-01 4.870523929595947266e+00 1.188950538635253906e+00 -2.454424381256103516e+00
2.847000000000000000e+03 4.582778930664062500e+01 2.108724355697631836e+00 6.700206398963928223e-01 3.715537071228027344e+00 1.315667271614074707e+00 -2.239995956420898438e+00
2.848000000000000000e+03 5.719359970092773438e+01 2.049762916564941406e+01 5.244750902056694031e-02 3.606978654861450195e+00 1.097827911376953125e+00 -1.194698333740234375e+00
2.849000000000000000e+03 5.343438339233398438e+01 2.263006782531738281e+01 -4.116468727588653564e-01 4.836229324340820312e+00 1.327374696731567383e+00 -2.009706735610961914e+00
2.850000000000000000e+03 4.206140518188476562e+01 2.909271955490112305e+00 1.669190287590026855e+00 5.989743232727050781e+00 2.297680139541625977e+00 -9.166373014450073242e-01
2.851000000000000000e+03 6.094186401367187500e+01 -1.903139686584472656e+01 1.783443808555603027e+00 5.837800979614257812e+00 2.286373376846313477e+00 -6.638277173042297363e-01
2.852000000000000000e+03 6.248882675170898438e+01 -2.029465675354003906e+01 2.449969768524169922e+00 6.277428150177001953e+00 2.618219375610351562e+00 -1.618259787559509277e+00
2.853000000000000000e+03 3.618333816528320312e+01 -1.209961509704589844e+01 -2.207097560167312622e-01 4.404309749603271484e+00 1.255079984664916992e+00 -1.933847188949584961e+00
2.854000000000000000e+03 2.569751930236816406e+01 8.735631942749023438e+00 3.205165147781372070e+00 3.844884872436523438e+00 2.115015029907226562e+00 -3.348491489887237549e-01
2.855000000000000000e+03 2.409492874145507812e+01 1.019095706939697266e+01 2.751349210739135742e+00 4.252703189849853516e+00 2.101215839385986328e+00 -8.658384084701538086e-01
2.856000000000000000e+03 1.968654632568359375e+01 -1.981764030456542969e+01 2.349823951721191406e+00 2.745901107788085938e+00 1.528717517852783203e+00 -1.356408119201660156e+00
2.857000000000000000e+03 2.184722137451171875e+01 -1.749533271789550781e+01 1.686232566833496094e+00 1.215669631958007812e+00 8.705706596374511719e-01 -1.520357966423034668e+00
2.858000000000000000e+03 5.608461761474609375e+01 -1.407860374450683594e+01 -5.961401462554931641e-01 4.672083377838134766e+00 1.222782969474792480e+00 -1.761819601058959961e+00
2.859000000000000000e+03 5.433502960205078125e+01 -1.408386135101318359e+01 -1.107838034629821777e+00 4.370936393737792969e+00 9.789294004440307617e-01 -2.809147119522094727e+00
2.860000000000000000e+03 2.125174522399902344e+01 -2.434988975524902344e+01 1.422359496355056763e-01 1.384050965309143066e+00 4.578860700130462646e-01 -1.176866173744201660e+00
2.861000000000000000e+03 3.169496536254882812e+01 3.153194999694824219e+01 2.130498737096786499e-01 5.177256584167480469e+00 1.617091894149780273e+00 -1.663017868995666504e+00
2.862000000000000000e+03 3.050924110412597656e+01 3.219756698608398438e+01 2.967052757740020752e-01 4.113052845001220703e+00 1.322927474975585938e+00 -1.542073011398315430e+00
2.863000000000000000e+03 4.669731521606445312e+01 -8.413777351379394531e-01 2.570782303810119629e-01 4.035179138183593750e+00 1.287677168846130371e+00 -2.259202718734741211e+00
2.864000000000000000e+03 5.245725250244140625e+01 -1.174550151824951172e+01 4.986515939235687256e-01 3.946371793746948242e+00 1.333507061004638672e+00 -2.192637205123901367e+00
2.865000000000000000e+03 5.298297119140625000e+01 -1.372391414642333984e+01 -7.513056993484497070e-01 2.841368198394775391e+00 6.270187497138977051e-01 -2.935448646545410156e+00
2.866000000000000000e+03 2.574168777465820312e+01 3.252313995361328125e+01 6.882233023643493652e-01 2.397647619247436523e+00 9.257612824440002441e-01 4.050841629505157471e-01
2.867000000000000000e+03 2.564329338073730469e+01 3.604358673095703125e+01 -2.528018355369567871e-01 3.685539007186889648e+00 1.029821157455444336e+00 1.841837912797927856e-01
2.868000000000000000e+03 5.769512176513671875e+01 1.755326652526855469e+01 1.479577183723449707e+00 5.709638118743896484e+00 2.156764507293701172e+00 -1.599127054214477539e-01
2.869000000000000000e+03 4.223512268066406250e+01 -1.539336299896240234e+01 -1.704954147338867188e+00 1.404004216194152832e+00 -9.028495848178863525e-02 -1.009742975234985352e+00
2.870000000000000000e+03 4.789487457275390625e+01 3.776163101196289062e+00 4.251101054251194000e-03 2.402859687805175781e+00 7.221332192420959473e-01 -1.395714402198791504e+00
2.871000000000000000e+03 4.875551986694335938e+01 2.917246341705322266e+00 -9.207656979560852051e-02 2.595432043075561523e+00 7.510066628456115723e-01 -1.035886526107788086e+00
2.872000000000000000e+03 2.507764625549316406e+01 9.495131492614746094e+00 3.460681915283203125e+00 3.776900291442871094e+00 2.171274662017822266e+00 -3.880553245544433594e-01
2.873000000000000000e+03 2.584477043151855469e+01 1.015939903259277344e+01 3.120793104171752930e+00 3.344108104705810547e+00 1.939470410346984863e+00 -2.710670828819274902e-01
2.874000000000000000e+03 5.051919937133789062e+01 -1.648776382207870483e-01 2.043267339468002319e-01 5.443846225738525391e+00 1.694451928138732910e+00 -3.206694722175598145e-01
2.875000000000000000e+03 5.144603347778320312e+01 1.685558795928955078e+00 -5.968124866485595703e-01 4.497803211212158203e+00 1.170297265052795410e+00 1.091592788696289062e+00
2.876000000000000000e+03 3.176484680175781250e+01 -2.907315969467163086e+00 1.721028566360473633e+00 5.170197963714599609e+00 2.067367792129516602e+00 -1.299613356590270996e+00
2.877000000000000000e+03 2.882387924194335938e+01 -2.952213287353515625e+01 -8.889682292938232422e-01 5.644236087799072266e+00 1.426580309867858887e+00 -5.785354375839233398e-01
2.878000000000000000e+03 5.332138824462890625e+01 -3.276703643798828125e+01 2.920249223709106445e+00 7.314619541168212891e+00 3.070460557937622070e+00 2.501074410974979401e-02
2.879000000000000000e+03 5.140912246704101562e+01 -3.257630157470703125e+01 2.757488489151000977e+00 7.395495891571044922e+00 3.045895338058471680e+00 -8.505756258964538574e-01
2.880000000000000000e+03 6.030221939086914062e+01 3.844966411590576172e+00 -1.272642850875854492e+00 5.230857372283935547e+00 1.187464356422424316e+00 -2.244660615921020508e+00
2.881000000000000000e+03 6.678973674774169922e+00 2.014585304260253906e+01 -1.064965009689331055e+00 3.444000720977783203e+00 7.137107253074645996e-01 -1.337528228759765625e+00
2.882000000000000000e+03 6.194622802734375000e+01 -1.553456306457519531e+01 -1.127959489822387695e+00 6.670245170593261719e+00 1.662685632705688477e+00 4.979471564292907715e-01
2.883000000000000000e+03 6.944242858886718750e+01 5.107408523559570312e+00 -6.540872901678085327e-02 2.842126131057739258e+00 8.330152034759521484e-01 2.001172542572021484e+00
2.884000000000000000e+03 3.730251312255859375e+01 1.852980804443359375e+01 1.981203913688659668e+00 2.852706670761108398e+00 1.450173139572143555e+00 -1.944924950599670410e+00
2.885000000000000000e+03 3.600272369384765625e+01 -3.479177856445312500e+01 1.267456650733947754e+00 3.602278709411621094e+00 1.460920572280883789e+00 1.524102807044982910e+00
2.886000000000000000e+03 3.327748107910156250e+01 -7.645102024078369141e+00 3.029364347457885742e+00 5.284307003021240234e+00 2.494101285934448242e+00 -3.814412653446197510e-01
2.887000000000000000e+03 6.788837432861328125e+01 -3.333017730712890625e+01 1.416089773178100586e+00 6.684937477111816406e+00 2.430308341979980469e+00 -1.992307543754577637e+00
2.888000000000000000e+03 6.212586879730224609e+00 -9.229457855224609375e+00 -1.738887429237365723e-01 2.099525928497314453e+00 5.776911377906799316e-01 1.582052469253540039e+00
2.889000000000000000e+03 5.631523132324218750e+01 1.899608802795410156e+01 4.165314733982086182e-01 4.634031295776367188e+00 1.515168786048889160e+00 -1.406800150871276855e+00
2.890000000000000000e+03 5.249150085449218750e+01 -1.271855831146240234e+01 9.842441976070404053e-02 3.534428358078002930e+00 1.089855790138244629e+00 -2.690894603729248047e+00
2.891000000000000000e+03 2.856726074218750000e+01 -3.520713806152343750e+01 6.951193809509277344e-01 4.827676773071289062e+00 1.656838774681091309e+00 -8.751947879791259766e-01
2.892000000000000000e+03 1.013161659240722656e+01 1.916578674316406250e+01 -8.711556792259216309e-01 2.291558027267456055e+00 4.261206686496734619e-01 -1.617789864540100098e-01
2.893000000000000000e+03 1.053105831146240234e+01 2.009978675842285156e+01 -8.805430531501770020e-01 1.542030453681945801e+00 1.984462141990661621e-01 -6.826806813478469849e-02
2.894000000000000000e+03 4.572341156005859375e+01 4.911799728870391846e-01 4.612411856651306152e-01 3.713237285614013672e+00 1.252343535423278809e+00 -2.447387933731079102e+00
2.895000000000000000e+03 6.321932983398437500e+01 3.186588525772094727e+00 -1.043662548065185547e+00 4.448076725006103516e+00 1.021324276924133301e+00 -1.221729516983032227e+00
2.896000000000000000e+03 6.591749572753906250e+01 2.279080629348754883e+00 -1.116621196269989014e-01 3.513500690460205078e+00 1.020551562309265137e+00 7.622432708740234375e-01
2.897000000000000000e+03 4.199304199218750000e+01 7.648861408233642578e+00 6.098760366439819336e-01 8.065090179443359375e+00 2.602489948272705078e+00 1.098089694976806641e+00
2.898000000000000000e+03 2.263200569152832031e+01 -1.686178207397460938e+01 9.807354211807250977e-01 7.178376913070678711e-01 5.095719099044799805e-01 -1.140100598335266113e+00
2.899000000000000000e+03 2.147821807861328125e+01 3.385753154754638672e+00 1.251586079597473145e+00 2.349781036376953125e+00 1.080410122871398926e+00 2.411588907241821289e+00
2.900000000000000000e+03 2.343248367309570312e+01 3.512212371826171875e+01 -3.589821159839630127e-01 4.117935657501220703e+00 1.127686023712158203e+00 5.514582991600036621e-01
2.901000000000000000e+03 4.655735397338867188e+01 -1.772847414016723633e+00 1.336246281862258911e-01 4.222490787506103516e+00 1.306834697723388672e+00 -2.285439252853393555e+00
2.902000000000000000e+03 4.747769165039062500e+01 -1.907479286193847656e+00 2.630423605442047119e-01 4.622338294982910156e+00 1.465614080429077148e+00 -1.994822263717651367e+00
2.903000000000000000e+03 4.799992752075195312e+01 3.765274047851562500e+01 -1.381878018379211426e+00 4.998062133789062500e+00 1.084855198860168457e+00 -5.708962678909301758e-01
2.904000000000000000e+03 5.119497299194335938e+01 3.800852584838867188e+01 -1.607371449470520020e+00 5.435598850250244141e+00 1.148468255996704102e+00 8.617830276489257812e-02
2.905000000000000000e+03 5.130049896240234375e+01 2.528553581237792969e+01 1.692053437232971191e+00 5.804697990417480469e+00 2.249025344848632812e+00 -3.882629424333572388e-02
2.906000000000000000e+03 5.101949310302734375e+01 2.295458602905273438e+01 5.867280960083007812e-01 4.698755264282226562e+00 1.585645079612731934e+00 -9.826284050941467285e-01
2.907000000000000000e+03 2.215244102478027344e+01 3.376050186157226562e+01 -2.831326127052307129e-01 5.085713386535644531e+00 1.440774202346801758e+00 6.362721920013427734e-01
2.908000000000000000e+03 4.203613281250000000e+01 -1.327515095472335815e-01 1.743843555450439453e-01 3.373748064041137695e+00 1.064439773559570312e+00 -6.307084560394287109e-01
2.909000000000000000e+03 7.236657714843750000e+01 4.123968887329101562e+01 -3.162430226802825928e-01 6.113840579986572266e+00 1.739279270172119141e+00 8.285800367593765259e-02
2.910000000000000000e+03 7.384875488281250000e+01 3.590723419189453125e+01 -6.036828830838203430e-02 6.270460128784179688e+00 1.863027572631835938e+00 3.587395250797271729e-01
2.911000000000000000e+03 5.815960311889648438e+01 1.951435852050781250e+01 9.033710956573486328e-01 4.546959400177001953e+00 1.635099172592163086e+00 -2.618439197540283203e-01
2.912000000000000000e+03 2.553402137756347656e+01 -1.731962394714355469e+01 7.455707788467407227e-01 2.830311775207519531e+00 1.072764754295349121e+00 6.533146649599075317e-02
2.913000000000000000e+03 2.470326423645019531e+01 -1.680083656311035156e+01 6.074333190917968750e-01 1.795581102371215820e+00 7.209043502807617188e-01 -2.115397900342941284e-01
2.914000000000000000e+03 2.621935081481933594e+01 -2.476320457458496094e+01 2.034012377262115479e-01 6.031462192535400391e+00 1.870459079742431641e+00 -3.604675084352493286e-02
2.915000000000000000e+03 6.734337615966796875e+01 3.442316055297851562e+01 -1.172965466976165771e-01 5.431360244750976562e+00 1.594219088554382324e+00 6.180748939514160156e-01
2.916000000000000000e+03 6.584364318847656250e+01 3.455709457397460938e+01 -4.812424480915069580e-01 4.922800540924072266e+00 1.332467436790466309e+00 4.690191745758056641e-01
2.917000000000000000e+03 3.365405654907226562e+01 -4.716348171234130859e+00 2.231027364730834961e+00 4.779647827148437500e+00 2.103202581405639648e+00 -3.432796299457550049e-01
2.918000000000000000e+03 8.940360069274902344e+00 -3.228313064575195312e+01 1.339358448982238770e+00 2.748311519622802734e+00 1.226300954818725586e+00 8.903872370719909668e-01
2.919000000000000000e+03 4.851847457885742188e+01 2.500577926635742188e+01 2.335217475891113281e+00 6.561391830444335938e+00 2.668982744216918945e+00 1.125320434570312500e+00
2.920000000000000000e+03 4.859968948364257812e+01 2.368149757385253906e+01 1.929875373840332031e+00 5.651381492614746094e+00 2.274377107620239258e+00 8.298297524452209473e-01
2.921000000000000000e+03 2.668738746643066406e+01 1.088338947296142578e+01 3.012331008911132812e+00 2.982589483261108398e+00 1.798476099967956543e+00 2.735393643379211426e-01
2.922000000000000000e+03 4.878514099121093750e+01 2.220344161987304688e+01 7.938104271888732910e-01 4.249435424804687500e+00 1.512973785400390625e+00 4.092292785644531250e-01
2.923000000000000000e+03 1.110276412963867188e+01 -2.735083818435668945e+00 1.494023680686950684e+00 3.615334033966064453e+00 1.532807350158691406e+00 2.027466297149658203e+00
2.924000000000000000e+03 1.083671665191650391e+01 2.704536437988281250e+00 2.571163177490234375e+00 2.451839923858642578e+00 1.506900906562805176e+00 -4.129417896270751953e+00
2.925000000000000000e+03 1.038948059082031250e+01 -3.368672370910644531e+00 1.629907011985778809e+00 2.469728469848632812e+00 1.229890584945678711e+00 1.559501886367797852e+00
2.926000000000000000e+03 1.404261970520019531e+01 -4.782596588134765625e+00 5.834044814109802246e-01 8.620707511901855469e+00 2.761233806610107422e+00 -4.583917856216430664e-01
2.927000000000000000e+03 1.419668197631835938e+01 -3.911488056182861328e+00 1.644690404646098614e-03 9.464591979980468750e+00 2.839870929718017578e+00 -3.922972977161407471e-01
2.928000000000000000e+03 1.365261650085449219e+01 -2.441960096359252930e+00 -4.235035553574562073e-02 1.061209964752197266e+01 3.170924901962280273e+00 5.157128572463989258e-01
2.929000000000000000e+03 1.202702617645263672e+01 -2.914222002029418945e+00 1.000215411186218262e+00 5.909046173095703125e+00 2.072778463363647461e+00 1.988599061965942383e+00
2.930000000000000000e+03 1.218891525268554688e+01 3.962922811508178711e+00 1.975824385881423950e-01 5.576271533966064453e+00 1.732156276702880859e+00 -4.458353042602539062e+00
2.931000000000000000e+03 9.614656448364257812e+00 -4.663811206817626953e+00 1.681686520576477051e+00 1.921994924545288086e+00 1.081104397773742676e+00 1.355681777000427246e+00
2.932000000000000000e+03 9.560041427612304688e+00 2.766958475112915039e+00 1.457183837890625000e+00 1.429225206375122070e+00 8.659226894378662109e-01 -2.489571094512939453e+00
2.933000000000000000e+03 1.000772857666015625e+01 2.659839153289794922e+00 1.882001042366027832e+00 1.535138487815856934e+00 1.025141835212707520e+00 -2.965700149536132812e+00
2.934000000000000000e+03 1.012973976135253906e+01 -5.508340358734130859e+00 1.728876948356628418e+00 2.482053279876708984e+00 1.263279080390930176e+00 1.440084695816040039e+00
2.935000000000000000e+03 1.080149936676025391e+01 -3.297689437866210938e+00 1.559159874916076660e+00 3.193538904190063477e+00 1.425809621810913086e+00 1.704428911209106445e+00
2.936000000000000000e+03 1.070064449310302734e+01 5.181208133697509766e+00 -7.810845971107482910e-01 4.589563846588134766e+00 1.142543792724609375e+00 -3.740858316421508789e+00
2.937000000000000000e+03 1.463307952880859375e+01 -3.377911567687988281e+00 -7.082668691873550415e-02 9.892988204956054688e+00 2.946648359298706055e+00 -6.435548067092895508e-01
2.938000000000000000e+03 9.551589965820312500e+00 4.177733421325683594e+00 4.790759086608886719e-01 2.943093776702880859e+00 1.026650905609130859e+00 -3.010333061218261719e+00
2.939000000000000000e+03 1.466711997985839844e+01 -4.352420330047607422e+00 2.673440277576446533e-01 9.331236839294433594e+00 2.879574298858642578e+00 -7.995009422302246094e-01
2.940000000000000000e+03 1.199056148529052734e+01 -2.009551048278808594e+00 1.221637964248657227e+00 5.970656394958496094e+00 2.157688379287719727e+00 2.834928750991821289e+00
2.941000000000000000e+03 5.218120098114013672e+00 -5.377003192901611328e+00 6.344234347343444824e-01 5.035459399223327637e-01 3.413908183574676514e-01 5.561385750770568848e-01
2.942000000000000000e+03 6.346121788024902344e+00 -5.941804409027099609e+00 8.518368005752563477e-01 8.294227719306945801e-01 5.043778419494628906e-01 9.823543429374694824e-01
2.943000000000000000e+03 7.691874504089355469e+00 3.961575508117675781e+00 3.573099374771118164e-01 1.706364512443542480e+00 6.191023588180541992e-01 -1.283413171768188477e+00
2.944000000000000000e+03 8.888269424438476562e+00 3.134844541549682617e+00 9.152263998985290527e-01 1.496331334114074707e+00 7.234673500061035156e-01 -2.052551984786987305e+00
2.945000000000000000e+03 4.578813552856445312e+00 4.755973339080810547e+00 1.184650659561157227e-01 7.247161269187927246e-01 2.529543638229370117e-01 2.644705474376678467e-01
2.946000000000000000e+03 5.461426734924316406e+00 5.333488464355468750e+00 2.031622081995010376e-01 1.457957983016967773e+00 4.983360469341278076e-01 -7.107413560152053833e-02
2.947000000000000000e+03 6.166265487670898438e+00 5.124772071838378906e+00 1.300061196088790894e-01 1.772806644439697266e+00 5.708438158035278320e-01 -3.608452081680297852e-01
2.948000000000000000e+03 6.072537899017333984e+00 6.767548561096191406e+00 3.746264576911926270e-01 2.386296510696411133e+00 8.282768726348876953e-01 -1.734312027692794800e-01
2.949000000000000000e+03 9.355824470520019531e+00 5.180826187133789062e+00 -3.460136353969573975e-01 3.834292173385620117e+00 1.046483635902404785e+00 -2.649837493896484375e+00
2.950000000000000000e+03 9.478461265563964844e+00 -5.343405723571777344e+00 1.661802887916564941e+00 1.761418104171752930e+00 1.026966333389282227e+00 1.457273721694946289e+00
2.951000000000000000e+03 8.812795639038085938e+00 -5.186328887939453125e+00 1.521136641502380371e+00 1.419630289077758789e+00 8.822301030158996582e-01 1.330459952354431152e+00
2.952000000000000000e+03 3.396654891967773438e+01 -1.071896934509277344e+01 1.914234995841979980e+00 3.750095129013061523e+00 1.699298977851867676e+00 9.059411287307739258e-02
2.953000000000000000e+03 1.525425243377685547e+01 -3.760476827621459961e+00 -1.495571881532669067e-01 9.997395515441894531e+00 2.954351425170898438e+00 -1.004067897796630859e+00
2.954000000000000000e+03 1.495197963714599609e+01 -2.739676475524902344e+00 1.253408640623092651e-01 1.037871265411376953e+01 3.151216030120849609e+00 -1.070370793342590332e+00
2.955000000000000000e+03 6.208837127685546875e+01 2.953072547912597656e+00 -1.263476371765136719e+00 5.128530979156494141e+00 1.159516453742980957e+00 -1.752773761749267578e+00
2.956000000000000000e+03 1.697905349731445312e+01 2.376979589462280273e+00 3.203931570053100586e+00 4.031938552856445312e+00 2.170761108398437500e+00 3.747370481491088867e+00
2.957000000000000000e+03 6.045786666870117188e+01 -1.368154811859130859e+01 -1.107356548309326172e+00 6.211314201354980469e+00 1.531187295913696289e+00 1.192598342895507812e+00
2.958000000000000000e+03 2.036766624450683594e+01 3.054112195968627930e+00 1.218595266342163086e+00 2.397219657897949219e+00 1.084744453430175781e+00 3.129945993423461914e+00
2.959000000000000000e+03 4.821278381347656250e+01 -2.307881787419319153e-02 3.197396099567413330e-01 4.339632987976074219e+00 1.397811770439147949e+00 -1.762456536293029785e+00
2.960000000000000000e+03 1.396377372741699219e+01 -8.381842613220214844e+00 2.008419036865234375e+00 5.545165061950683594e+00 2.266075134277343750e+00 -6.331845521926879883e-01
2.961000000000000000e+03 4.473439025878906250e+01 1.296687006950378418e+00 5.369591116905212402e-01 3.676825284957885742e+00 1.264135360717773438e+00 -2.254490375518798828e+00
2.962000000000000000e+03 4.881196594238281250e+01 1.131000280380249023e+00 1.251251846551895142e-01 3.841525077819824219e+00 1.189995169639587402e+00 -1.442154765129089355e+00
2.963000000000000000e+03 2.846575164794921875e+01 -2.684040260314941406e+01 -1.328182816505432129e+00 6.586133480072021484e+00 1.577385187149047852e+00 -2.228154391050338745e-01
2.964000000000000000e+03 6.493384552001953125e+01 6.779211759567260742e-01 -1.610192656517028809e-01 4.966710567474365234e+00 1.441707372665405273e+00 6.931944489479064941e-01
2.965000000000000000e+03 7.563171386718750000e+01 -2.636026573181152344e+01 -8.135458230972290039e-01 8.378138542175292969e+00 2.269377708435058594e+00 9.823474287986755371e-02
2.966000000000000000e+03 3.494187545776367188e+01 -2.125094890594482422e+00 7.640600800514221191e-01 3.097160100936889648e+00 1.158366084098815918e+00 1.242860078811645508e+00
2.967000000000000000e+03 1.346972370147705078e+01 -5.115327358245849609e+00 1.138776898384094238e+00 7.280488967895507812e+00 2.525779724121093750e+00 -2.486142665147781372e-01
2.968000000000000000e+03 8.139588356018066406e+00 6.855048179626464844e+00 -8.310338854789733887e-02 4.165948390960693359e+00 1.224853515625000000e+00 -1.095534920692443848e+00
2.969000000000000000e+03 5.019525146484375000e+01 -5.175149917602539062e+00 1.580244898796081543e+00 7.724607944488525391e+00 2.791455745697021484e+00 2.280440181493759155e-01
2.970000000000000000e+03 2.470696640014648438e+01 -1.965074157714843750e+01 2.320101976394653320e+00 2.965539455413818359e+00 1.585692405700683594e+00 -7.920119166374206543e-01
2.971000000000000000e+03 2.387613677978515625e+01 3.437108039855957031e+00 1.103320717811584473e+00 2.312006711959838867e+00 1.024598240852355957e+00 6.732375025749206543e-01
2.972000000000000000e+03 2.573575973510742188e+01 3.285038232803344727e+00 5.109913349151611328e-01 3.247838258743286133e+00 1.127648830413818359e+00 -5.482361912727355957e-01
2.973000000000000000e+03 2.290997505187988281e+01 3.865760564804077148e+00 1.252703189849853516e+00 2.498365402221679688e+00 1.125320553779602051e+00 1.397914767265319824e+00
2.974000000000000000e+03 7.457074737548828125e+01 -3.167750740051269531e+01 2.833619415760040283e-01 6.159013271331787109e+00 1.932712554931640625e+00 3.341438174247741699e-01
2.975000000000000000e+03 7.139773559570312500e+01 -3.090120697021484375e+01 1.658862352371215820e+00 4.182523727416992188e+00 1.752415776252746582e+00 1.460319012403488159e-01
2.976000000000000000e+03 7.143347740173339844e+00 -3.072089195251464844e+01 1.104717850685119629e+00 2.210745811462402344e+00 9.946390986442565918e-01 1.620709151029586792e-01
2.977000000000000000e+03 1.043314933776855469e+01 -2.963444900512695312e+01 1.372147917747497559e+00 2.620214462280273438e+00 1.197708725929260254e+00 9.178085327148437500e-01
2.978000000000000000e+03 4.385813522338867188e+01 3.208495080471038818e-01 4.899205565452575684e-01 3.547316551208496094e+00 1.211171150207519531e+00 -1.907922863960266113e+00
2.979000000000000000e+03 4.265710830688476562e+01 1.848613619804382324e+00 6.919115185737609863e-01 4.628855228424072266e+00 1.596230030059814453e+00 -1.371703505516052246e+00
2.980000000000000000e+03 7.285162353515625000e+01 2.249088859558105469e+01 -6.655767560005187988e-01 6.126449584960937500e+00 1.638261914253234863e+00 -8.604813814163208008e-01
2.981000000000000000e+03 8.088679313659667969e+00 4.804934978485107422e+00 9.798046201467514038e-02 2.679792881011962891e+00 8.333320021629333496e-01 -1.647392392158508301e+00
2.982000000000000000e+03 1.295365619659423828e+01 -8.420218467712402344e+00 2.115858078002929688e+00 3.781760931015014648e+00 1.769285678863525391e+00 1.190858483314514160e-01
2.983000000000000000e+03 3.991114807128906250e+01 1.785652732849121094e+01 1.946307420730590820e+00 2.617887258529663086e+00 1.369258403778076172e+00 -1.093885064125061035e+00
2.984000000000000000e+03 3.856531906127929688e+01 1.669738960266113281e+01 2.236423730850219727e+00 2.660522937774658203e+00 1.469084024429321289e+00 -1.773325800895690918e+00
2.985000000000000000e+03 5.714507675170898438e+01 2.177179527282714844e+01 -9.166461229324340820e-01 2.103314161300659180e+00 3.560004234313964844e-01 -2.175139665603637695e+00
2.986000000000000000e+03 2.527332544326782227e+00 6.814547061920166016e+00 1.747601777315139771e-01 -1.948586553335189819e-01 -6.029544863849878311e-03 3.767838776111602783e-01
2.987000000000000000e+03 3.540925264358520508e+00 6.092082977294921875e+00 1.958954632282257080e-01 4.370683431625366211e-01 1.898891478776931763e-01 3.920460045337677002e-01
2.988000000000000000e+03 1.295174598693847656e+01 -6.753681182861328125e+00 2.205637693405151367e+00 5.114600181579589844e+00 2.196071386337280273e+00 -8.226736448705196381e-03
2.989000000000000000e+03 4.388733673095703125e+01 2.290360212326049805e+00 1.034932851791381836e+00 4.439091682434082031e+00 1.642207384109497070e+00 -1.842736959457397461e+00
2.990000000000000000e+03 7.182165527343750000e+01 -3.306808471679687500e+01 1.328438639640808105e+00 5.172814369201660156e+00 1.950375795364379883e+00 -4.802197217941284180e-01
2.991000000000000000e+03 2.682556152343750000e+01 -2.398509597778320312e+01 1.166783094406127930e+00 7.045142650604248047e+00 2.463577747344970703e+00 -1.431467533111572266e-01
2.992000000000000000e+03 2.588933753967285156e+01 -2.378151512145996094e+01 1.060552597045898438e+00 5.565055847167968750e+00 1.987682580947875977e+00 -2.275871187448501587e-01
2.993000000000000000e+03 7.249961853027343750e+01 1.995119333267211914e+00 -3.325356170535087585e-02 3.535561323165893555e+00 1.050692319869995117e+00 -9.848511777818202972e-03
2.994000000000000000e+03 6.940602874755859375e+01 -3.283172225952148438e+01 1.679106235504150391e+00 5.420156955718994141e+00 2.129779100418090820e+00 -1.430290222167968750e+00
2.995000000000000000e+03 4.575838565826416016e+00 -7.408423900604248047e+00 2.260440587997436523e-01 9.276615381240844727e-01 3.461116850376129150e-01 7.255949974060058594e-01
2.996000000000000000e+03 7.306764984130859375e+01 2.129872512817382812e+01 -1.205478787422180176e+00 6.595564365386962891e+00 1.617025613784790039e+00 -7.107356190681457520e-01
2.997000000000000000e+03 7.443303680419921875e+01 2.510788726806640625e+01 -9.181223809719085693e-03 6.175660133361816406e+00 1.849943757057189941e+00 -5.203870534896850586e-01
2.998000000000000000e+03 7.336731719970703125e+01 2.676556587219238281e+01 3.553310930728912354e-01 5.716981887817382812e+00 1.821693897247314453e+00 -5.010415315628051758e-01
2.999000000000000000e+03 7.440549468994140625e+01 2.632494354248046875e+01 1.687681227922439575e-01 6.094148635864257812e+00 1.878875017166137695e+00 -4.709140956401824951e-01
3.000000000000000000e+03 7.168442535400390625e+01 2.618008422851562500e+01 5.988380908966064453e-01 4.998601436614990234e+00 1.679231882095336914e+00 -6.407909393310546875e-01
3.001000000000000000e+03 7.054364776611328125e+01 2.857801628112792969e+01 1.052918195724487305e+00 4.853076457977294922e+00 1.771798372268676758e+00 2.513516880571842194e-02
3.002000000000000000e+03 7.251473236083984375e+01 5.622833728790283203e+00 -3.793173432350158691e-01 5.843378067016601562e+00 1.639218211174011230e+00 4.246490299701690674e-01
3.003000000000000000e+03 7.405020904541015625e+01 2.426068067550659180e+00 -3.537974953651428223e-01 5.415895938873291016e+00 1.518629431724548340e+00 -5.839073061943054199e-01
3.004000000000000000e+03 5.769115829467773438e+01 -1.721300697326660156e+01 8.905055522918701172e-01 6.458735942840576172e+00 2.204772472381591797e+00 -1.577048599720001221e-01
3.005000000000000000e+03 6.864425659179687500e+01 2.447723007202148438e+01 9.505454301834106445e-01 3.167291402816772461e+00 1.235351085662841797e+00 -7.058736085891723633e-01
3.006000000000000000e+03 2.345715713500976562e+01 6.460486888885498047e+00 2.207144021987915039e+00 3.957367658615112305e+00 1.849353551864624023e+00 3.231523036956787109e-01
3.007000000000000000e+03 2.113840484619140625e+01 -2.218491172790527344e+01 1.837291359901428223e+00 1.599205017089843750e+00 1.030948877334594727e+00 -1.382389426231384277e+00
3.008000000000000000e+03 6.450736522674560547e+00 -2.858495712280273438e+01 4.957255423069000244e-01 1.890673160552978516e+00 7.159196138381958008e-01 -3.691919147968292236e-01
3.009000000000000000e+03 6.425488948822021484e+00 -3.172453308105468750e+01 9.654403328895568848e-01 2.405543327331542969e+00 1.011295080184936523e+00 1.802401691675186157e-01
3.010000000000000000e+03 5.658776760101318359e+00 -3.254465484619140625e+01 7.773719429969787598e-01 2.710066556930541992e+00 1.046231508255004883e+00 2.482233494520187378e-01
3.011000000000000000e+03 6.451889038085937500e+01 3.974994897842407227e+00 -8.279089927673339844e-01 2.886950731277465820e+00 6.177125573158264160e-01 -3.992739319801330566e-01
3.012000000000000000e+03 6.199150085449218750e+01 -2.258255195617675781e+01 3.029273748397827148e+00 4.906702995300292969e+00 2.380793094635009766e+00 -1.465533852577209473e+00
3.013000000000000000e+03 5.814221858978271484e+00 -8.268500328063964844e+00 1.555225849151611328e-01 1.519483327865600586e+00 5.025017857551574707e-01 1.288614749908447266e+00
3.014000000000000000e+03 6.772200107574462891e+00 1.787798500061035156e+01 -6.837789416313171387e-01 3.454781532287597656e+00 8.313007950782775879e-01 -1.478469014167785645e+00
3.015000000000000000e+03 5.484416961669921875e+00 1.993897819519042969e+01 -1.010136604309082031e+00 3.412392616271972656e+00 7.206767797470092773e-01 -1.127035737037658691e+00
3.016000000000000000e+03 5.798928833007812500e+01 1.857846450805664062e+01 1.079366922378540039e+00 5.368655204772949219e+00 1.934406518936157227e+00 -2.469930499792098999e-01
3.017000000000000000e+03 7.396165466308593750e+01 1.248556137084960938e+01 1.445035934448242188e+00 9.638393402099609375e+00 3.325028657913208008e+00 -1.076387390494346619e-01
3.018000000000000000e+03 5.257443904876708984e+00 7.052539825439453125e+00 3.824359774589538574e-01 1.798260211944580078e+00 6.542088389396667480e-01 4.283289238810539246e-02
3.019000000000000000e+03 6.409533977508544922e+00 7.576730728149414062e+00 4.425581693649291992e-01 2.902514219284057617e+00 1.003521680831909180e+00 -2.145602703094482422e-01
3.020000000000000000e+03 7.338953495025634766e+00 1.678247261047363281e+01 -5.192656517028808594e-01 3.920598745346069336e+00 1.020399928092956543e+00 -1.380469202995300293e+00
3.021000000000000000e+03 4.902557849884033203e+00 9.745646476745605469e+00 1.001715660095214844e+00 1.958421707153320312e+00 8.880411982536315918e-01 -3.013311624526977539e-01
3.022000000000000000e+03 2.316462707519531250e+01 -2.041831398010253906e+01 2.468287706375122070e+00 2.122209548950195312e+00 1.377149224281311035e+00 -1.339588999748229980e+00
3.023000000000000000e+03 2.311762428283691406e+01 -2.411609649658203125e+01 4.452271163463592529e-01 3.011188268661499023e+00 1.036924600601196289e+00 -1.206978797912597656e+00
3.024000000000000000e+03 3.507351303100585938e+01 1.687427139282226562e+01 2.466616153717041016e+00 3.526046752929687500e+00 1.797798871994018555e+00 -1.167688965797424316e+00
3.025000000000000000e+03 3.610333633422851562e+01 1.565911293029785156e+01 1.829226732254028320e+00 2.340522050857543945e+00 1.250924587249755859e+00 -1.754189610481262207e+00
3.026000000000000000e+03 6.003411102294921875e+01 5.309545516967773438e+00 -8.139061927795410156e-01 5.156994819641113281e+00 1.302926540374755859e+00 -1.969502806663513184e+00
3.027000000000000000e+03 3.391797637939453125e+01 -3.189702510833740234e+00 1.610415697097778320e+00 3.740654230117797852e+00 1.605321049690246582e+00 3.049169778823852539e-01
3.028000000000000000e+03 7.277679443359375000e+01 3.045384407043457031e+01 5.345540046691894531e-01 5.656668186187744141e+00 1.857366561889648438e+00 1.639941185712814331e-01
3.029000000000000000e+03 4.856208038330078125e+01 2.722429084777832031e+01 2.441791296005249023e+00 6.955898761749267578e+00 2.819306850433349609e+00 1.475551962852478027e+00
3.030000000000000000e+03 7.140621948242187500e+01 5.121183872222900391e+00 -3.387272953987121582e-01 4.617653369903564453e+00 1.283677697181701660e+00 1.148442387580871582e+00
3.031000000000000000e+03 6.958300018310546875e+01 3.476558208465576172e+00 2.152653485536575317e-01 2.403648614883422852e+00 7.856741547584533691e-01 1.907284498214721680e+00
3.032000000000000000e+03 3.883734512329101562e+01 1.507833194732666016e+01 1.579805254936218262e+00 3.245206356048583984e+00 1.447503447532653809e+00 -1.763840079307556152e+00
3.033000000000000000e+03 4.708414077758789062e+00 -9.653234481811523438e+00 -2.310149073600769043e-01 1.819542050361633301e+00 4.765581190586090088e-01 8.873496055603027344e-01
3.034000000000000000e+03 5.611427783966064453e+00 -7.205680370330810547e+00 3.830202519893646240e-01 1.077564001083374023e+00 4.381752908229827881e-01 1.041301131248474121e+00
3.035000000000000000e+03 5.087306594848632812e+01 -1.242266750335693359e+01 3.528540432453155518e-01 4.491749286651611328e+00 1.453380942344665527e+00 -1.211872935295104980e+00
3.036000000000000000e+03 2.331930732727050781e+01 5.086858272552490234e+00 1.746163964271545410e+00 3.425361394882202148e+00 1.551457643508911133e+00 8.189427852630615234e-01
3.037000000000000000e+03 5.716882324218750000e+01 -1.438904476165771484e+01 -2.356799840927124023e-01 4.714614868164062500e+00 1.343680500984191895e+00 -8.564015626907348633e-01
3.038000000000000000e+03 1.106528568267822266e+01 -9.102136611938476562e+00 1.559646010398864746e+00 1.647634506225585938e+00 9.621841311454772949e-01 1.783195972442626953e+00
3.039000000000000000e+03 2.947247695922851562e+01 -3.039939689636230469e+01 -3.881843388080596924e-01 4.619587898254394531e+00 1.269421100616455078e+00 -9.917593002319335938e-01
3.040000000000000000e+03 6.751035308837890625e+01 2.599664497375488281e+01 1.906918048858642578e+00 3.900788784027099609e+00 1.742312073707580566e+00 3.422634601593017578e-01
3.041000000000000000e+03 2.506283950805664062e+01 -1.592155742645263672e+01 -6.605337262153625488e-01 1.692044854164123535e+00 3.094533383846282959e-01 4.142591953277587891e-01
3.042000000000000000e+03 2.809092903137207031e+01 -3.150970649719238281e+01 1.731182634830474854e-01 5.480219364166259766e+00 1.696001291275024414e+00 -8.073687553405761719e-01
3.043000000000000000e+03 4.749496841430664062e+01 3.473807144165039062e+01 -1.063772797584533691e+00 5.297798156738281250e+00 1.270207643508911133e+00 -6.921970844268798828e-01
3.044000000000000000e+03 8.172430038452148438e+00 -1.117323398590087891e+01 -8.825225830078125000e-01 2.504111528396606445e+00 4.864767193794250488e-01 2.789940118789672852e+00
3.045000000000000000e+03 5.948473739624023438e+01 -2.169632530212402344e+01 2.684291839599609375e+00 4.834459304809570312e+00 2.255625247955322266e+00 -1.288639307022094727e-01
3.046000000000000000e+03 5.867494201660156250e+01 -1.884523582458496094e+01 1.941912531852722168e+00 6.062141418457031250e+00 2.401216030120849609e+00 -4.916363395750522614e-03
3.047000000000000000e+03 5.976705169677734375e+01 -2.043536186218261719e+01 2.744786262512207031e+00 5.067831516265869141e+00 2.343785285949707031e+00 -2.067615240812301636e-01
3.048000000000000000e+03 2.594762992858886719e+01 -1.616035270690917969e+01 -6.527656912803649902e-01 2.843217849731445312e+00 6.571356654167175293e-01 6.635676622390747070e-01
3.049000000000000000e+03 2.546653747558593750e+01 -2.113341522216796875e+01 2.420041799545288086e+00 4.243013381958007812e+00 1.998916625976562500e+00 -6.020188331604003906e-01
3.050000000000000000e+03 4.396142578125000000e+01 -2.519377517700195312e+01 1.429568290710449219e+00 2.455131053924560547e+00 1.165409803390502930e+00 -4.070399403572082520e-01
3.051000000000000000e+03 4.456050872802734375e+01 5.323918819427490234e+00 3.509775102138519287e-01 5.021791934967041016e+00 1.611830830574035645e+00 -1.099237799644470215e+00
3.052000000000000000e+03 7.232646942138671875e+01 2.375852203369140625e+01 -3.443218767642974854e-01 5.510307312011718750e+00 1.549795627593994141e+00 -9.944272637367248535e-01
3.053000000000000000e+03 6.551786804199218750e+01 2.540755844116210938e+01 2.240590810775756836e+00 4.604751586914062500e+00 2.053602695465087891e+00 1.231577157974243164e+00
3.054000000000000000e+03 6.558915710449218750e+01 2.442077064514160156e+01 1.593646168708801270e+00 4.264550209045410156e+00 1.757458925247192383e+00 8.270315527915954590e-01
3.055000000000000000e+03 4.236497497558593750e+01 1.815514183044433594e+01 9.978405833244323730e-01 4.707927227020263672e+00 1.711730241775512695e+00 6.464877128601074219e-01
3.056000000000000000e+03 2.819955825805664062e+01 -3.371909332275390625e+01 7.534803152084350586e-01 5.101413249969482422e+00 1.756468057632446289e+00 -6.787431836128234863e-01
3.057000000000000000e+03 3.146729087829589844e+01 -3.653408813476562500e+01 3.204990327358245850e-01 3.894924402236938477e+00 1.264626979827880859e+00 -3.270678520202636719e-01
3.058000000000000000e+03 2.693625259399414062e+01 3.395270538330078125e+01 4.470806121826171875e-01 2.944576501846313477e+00 1.017497062683105469e+00 -1.411994546651840210e-01
3.059000000000000000e+03 3.280237960815429688e+01 3.243460083007812500e+01 -2.256572097539901733e-01 5.833557128906250000e+00 1.682369947433471680e+00 -1.185125827789306641e+00
3.060000000000000000e+03 6.674036407470703125e+01 2.342888832092285156e+01 8.167419433593750000e-01 2.394877195358276367e+00 9.634857177734375000e-01 1.578021049499511719e-01
3.061000000000000000e+03 2.180165481567382812e+01 -2.041116905212402344e+01 2.473206996917724609e+00 1.575756788253784180e+00 1.214689135551452637e+00 -1.518340229988098145e+00
3.062000000000000000e+03 5.971929931640625000e+01 -1.202497768402099609e+01 -1.315971016883850098e+00 5.698379039764404297e+00 1.314722418785095215e+00 1.488554477691650391e+00
3.063000000000000000e+03 5.850998687744140625e+01 5.492527008056640625e+00 -4.358572661876678467e-01 5.464405059814453125e+00 1.508564352989196777e+00 -1.239459991455078125e+00
3.064000000000000000e+03 2.324309730529785156e+01 -1.775999259948730469e+01 1.767210960388183594e+00 1.266381025314331055e+00 9.100775718688964844e-01 -1.052954912185668945e+00
3.065000000000000000e+03 2.404110908508300781e+01 -1.822629928588867188e+01 1.769499659538269043e+00 1.862703561782836914e+00 1.089661002159118652e+00 -7.779442667961120605e-01
3.066000000000000000e+03 6.981743621826171875e+01 1.878139734268188477e+00 3.680379688739776611e-01 1.963310599327087402e+00 6.994045376777648926e-01 1.910965919494628906e+00
3.067000000000000000e+03 6.510320281982421875e+01 -1.339490699768066406e+01 -1.324981331825256348e+00 5.551649570465087891e+00 1.268000364303588867e+00 2.574166059494018555e-01
3.068000000000000000e+03 6.252004241943359375e+01 -1.683337593078613281e+01 -4.009863138198852539e-01 6.699489116668701172e+00 1.889550805091857910e+00 -4.707985743880271912e-02
3.069000000000000000e+03 8.763619422912597656e+00 -3.005912780761718750e+01 1.236542940139770508e+00 2.094413042068481445e+00 9.992867708206176758e-01 4.269413948059082031e-01
3.070000000000000000e+03 6.956130981445312500e+00 9.471807479858398438e+00 1.422785758972167969e+00 3.851403236389160156e+00 1.582256793975830078e+00 -4.940769672393798828e-01
3.071000000000000000e+03 7.209237098693847656e+00 1.053282833099365234e+01 1.824279308319091797e+00 4.422488212585449219e+00 1.874030232429504395e+00 -1.038121819496154785e+00
3.072000000000000000e+03 5.935677719116210938e+01 -1.303862285614013672e+01 -6.069450974464416504e-01 4.910014152526855469e+00 1.290920615196228027e+00 1.045702099800109863e+00
3.073000000000000000e+03 4.985031127929687500e+01 -1.233452129364013672e+01 3.099107146263122559e-01 5.610316276550292969e+00 1.776068091392517090e+00 -4.852644503116607666e-01
3.074000000000000000e+03 6.027926254272460938e+01 -1.813673973083496094e+01 1.161278843879699707e+00 6.136860847473144531e+00 2.189441919326782227e+00 -1.429958939552307129e-01
3.075000000000000000e+03 5.303432083129882812e+01 2.077702903747558594e+01 -6.182721853256225586e-01 4.365491390228271484e+00 1.124165773391723633e+00 -2.385419607162475586e+00
3.076000000000000000e+03 7.681766510009765625e+00 -2.806983757019042969e+01 4.828722774982452393e-01 1.494893431663513184e+00 5.933297276496887207e-01 -1.670476198196411133e-01
3.077000000000000000e+03 7.724356174468994141e+00 -2.956360244750976562e+01 9.890524744987487793e-01 1.820047497749328613e+00 8.427299857139587402e-01 6.330361962318420410e-02
3.078000000000000000e+03 2.620132827758789062e+01 7.827301502227783203e+00 3.297069787979125977e+00 4.420052528381347656e+00 2.315136671066284180e+00 -1.506226658821105957e-01
3.079000000000000000e+03 4.682779693603515625e+01 3.603531646728515625e+01 -1.274853944778442383e+00 4.813480854034423828e+00 1.061588048934936523e+00 -7.039715647697448730e-01
3.080000000000000000e+03 4.562183380126953125e+01 3.851435470581054688e+01 -1.285828113555908203e+00 3.917554378509521484e+00 7.895178794860839844e-01 -7.473707199096679688e-01
3.081000000000000000e+03 6.333753967285156250e+01 4.256171226501464844e+00 -9.807900190353393555e-01 3.803031206130981445e+00 8.466723561286926270e-01 -1.398563265800476074e+00
3.082000000000000000e+03 7.101524353027343750e+00 -2.683385848999023438e+01 -1.355813443660736084e-02 1.262186408042907715e+00 3.745884895324707031e-01 -4.255610108375549316e-01
3.083000000000000000e+03 6.066265106201171875e+01 -1.604644203186035156e+01 -2.146617174148559570e-01 6.318279266357421875e+00 1.831085324287414551e+00 4.471828341484069824e-01
3.084000000000000000e+03 5.353394699096679688e+01 3.877502441406250000e+01 -1.597471356391906738e+00 4.865015983581542969e+00 9.802633523941040039e-01 6.544962525367736816e-01
3.085000000000000000e+03 4.973763275146484375e+01 3.989330673217773438e+01 -1.798914313316345215e+00 5.054965496063232422e+00 9.768154025077819824e-01 -1.205519288778305054e-01
3.086000000000000000e+03 6.250165176391601562e+01 1.838009119033813477e+00 -1.221465229988098145e+00 5.628957748413085938e+00 1.322247743606567383e+00 -1.189077615737915039e+00
3.087000000000000000e+03 4.686418151855468750e+01 1.938799768686294556e-01 4.452048540115356445e-01 3.696795225143432617e+00 1.242600083351135254e+00 -2.297398328781127930e+00
3.088000000000000000e+03 5.107324600219726562e+01 2.401739692687988281e+01 1.063419938087463379e+00 5.149841308593750000e+00 1.863978385925292969e+00 -4.725225567817687988e-01
3.089000000000000000e+03 2.255469131469726562e+01 -1.852993392944335938e+01 2.117972373962402344e+00 1.291511178016662598e+00 1.022845029830932617e+00 -1.336644411087036133e+00
3.090000000000000000e+03 7.271160125732421875e+01 2.889767456054687500e+01 6.693832874298095703e-01 5.471740722656250000e+00 1.842337131500244141e+00 -1.024205684661865234e-01
3.091000000000000000e+03 5.848992156982421875e+01 -1.347614574432373047e+01 -2.237861752510070801e-01 4.354463577270507812e+00 1.239203333854675293e+00 4.139371812343597412e-01
3.092000000000000000e+03 3.247595977783203125e+01 3.070755958557128906e+01 5.094735622406005859e-01 6.514862537384033203e+00 2.107300758361816406e+00 -1.377801299095153809e+00
3.093000000000000000e+03 9.157830238342285156e+00 3.624362182617187500e+01 -1.347867250442504883e+00 -1.416737288236618042e-01 -4.468623101711273193e-01 -2.160041220486164093e-02
3.094000000000000000e+03 8.112236022949218750e+00 4.125010681152343750e+01 4.072687327861785889e-01 1.078492045402526855e+00 4.457282423973083496e-01 3.838742524385452271e-02
3.095000000000000000e+03 2.804119491577148438e+01 -4.128444671630859375e+01 -1.912491083145141602e+00 5.413965702056884766e+00 1.050442457199096680e+00 -3.091747462749481201e-01
3.096000000000000000e+03 9.050709724426269531e+00 3.872203826904296875e+01 2.799943462014198303e-02 5.032950043678283691e-01 1.593883335590362549e-01 2.342033535242080688e-01
3.097000000000000000e+03 2.154274749755859375e+01 -1.914311218261718750e+01 2.469451665878295898e+00 1.679078817367553711e+00 1.244559168815612793e+00 -1.589135289192199707e+00
3.098000000000000000e+03 1.209921550750732422e+01 -4.197902202606201172e+00 1.101218581199645996e+00 5.687143325805664062e+00 2.036508560180664062e+00 1.187359929084777832e+00
3.099000000000000000e+03 1.232550430297851562e+01 -2.195682048797607422e+00 7.083383798599243164e-01 7.419637203216552734e+00 2.438392639160156250e+00 2.549848318099975586e+00
3.100000000000000000e+03 1.032353019714355469e+01 -4.246486186981201172e+00 1.689859747886657715e+00 2.702649831771850586e+00 1.317752838134765625e+00 1.422308802604675293e+00
3.101000000000000000e+03 1.171229457855224609e+01 -2.122804164886474609e+00 1.399176716804504395e+00 5.007596969604492188e+00 1.922032117843627930e+00 2.592343091964721680e+00
3.102000000000000000e+03 1.123652648925781250e+01 -3.224734544754028320e+00 1.426661372184753418e+00 4.090839862823486328e+00 1.655250430107116699e+00 1.816805481910705566e+00
3.103000000000000000e+03 9.373048782348632812e+00 3.346478700637817383e+00 1.034366846084594727e+00 1.845562934875488281e+00 8.639789819717407227e-01 -2.575206041336059570e+00
3.104000000000000000e+03 1.027269077301025391e+01 3.026698112487792969e+00 1.736359477043151855e+00 2.170981645584106445e+00 1.172202348709106445e+00 -3.540928840637207031e+00
3.105000000000000000e+03 9.939936637878417969e+00 3.584906816482543945e+00 9.818367362022399902e-01 2.681249380111694336e+00 1.098925828933715820e+00 -3.347855329513549805e+00
3.106000000000000000e+03 1.226149082183837891e+01 -6.613968372344970703e+00 1.884290218353271484e+00 4.469302177429199219e+00 1.906077742576599121e+00 4.872490465641021729e-01
3.107000000000000000e+03 1.042057418823242188e+01 -3.770687341690063477e+00 1.660161614418029785e+00 2.674006938934326172e+00 1.300250649452209473e+00 1.517827033996582031e+00
3.108000000000000000e+03 6.661629676818847656e+00 -6.909758090972900391e+00 7.365060448646545410e-01 1.134180784225463867e+00 5.612060427665710449e-01 1.316333413124084473e+00
3.109000000000000000e+03 1.205065250396728516e+01 5.143144130706787109e+00 -1.446329116821289062e+00 4.618038654327392578e+00 9.515129327774047852e-01 -4.056858539581298828e+00
3.110000000000000000e+03 4.891096591949462891e+00 6.261195182800292969e+00 3.153503239154815674e-01 1.374867916107177734e+00 5.070654749870300293e-01 1.461650878190994263e-01
3.111000000000000000e+03 5.733576297760009766e+00 6.021816730499267578e+00 1.835209727287292480e-01 1.859168291091918945e+00 6.128067970275878906e-01 -1.188602298498153687e-01
3.112000000000000000e+03 6.524319648742675781e+00 5.718215465545654297e+00 1.414868533611297607e-01 2.304013013839721680e+00 7.336499094963073730e-01 -4.776223599910736084e-01
3.113000000000000000e+03 7.075592517852783203e+00 -5.395490169525146484e+00 1.041725873947143555e+00 7.902554869651794434e-01 5.495944023132324219e-01 1.024484992027282715e+00
3.114000000000000000e+03 9.132717132568359375e+00 -9.716547966003417969e+00 2.842875719070434570e-01 1.601784467697143555e+00 5.658215880393981934e-01 2.696864843368530273e+00
3.115000000000000000e+03 7.263502597808837891e+00 5.266586780548095703e+00 1.133049204945564270e-01 2.408555269241333008e+00 7.565580010414123535e-01 -9.748026132583618164e-01
3.116000000000000000e+03 6.902352809906005859e+00 6.439589977264404297e+00 1.288486421108245850e-01 2.858871698379516602e+00 8.963161110877990723e-01 -5.342087149620056152e-01
3.117000000000000000e+03 8.987843513488769531e+00 3.921499490737915039e+00 5.888971090316772461e-01 2.355042695999145508e+00 8.831819295883178711e-01 -2.413133859634399414e+00
3.118000000000000000e+03 1.425666522979736328e+01 -2.557683944702148438e+00 2.155600860714912415e-02 1.072730541229248047e+01 3.224658489227294922e+00 -4.428672790527343750e-01
3.119000000000000000e+03 1.351219749450683594e+01 -2.969634056091308594e+00 2.641790732741355896e-02 9.371690750122070312e+00 2.819432497024536133e+00 6.091554164886474609e-01
3.120000000000000000e+03 8.649991989135742188e+00 -6.771094799041748047e+00 1.360288619995117188e+00 1.514694809913635254e+00 8.624950051307678223e-01 1.707020044326782227e+00
3.121000000000000000e+03 8.662096023559570312e+00 -5.957097053527832031e+00 1.444342732429504395e+00 1.425078749656677246e+00 8.608264327049255371e-01 1.475188493728637695e+00
3.122000000000000000e+03 1.344437599182128906e+01 -6.217347145080566406e+00 1.662214040756225586e+00 6.334807395935058594e+00 2.399106502532958984e+00 -2.452387362718582153e-01
3.123000000000000000e+03 1.378094005584716797e+01 -3.585527658462524414e+00 1.047746539115905762e-01 9.097894668579101562e+00 2.760800838470458984e+00 4.849214851856231689e-02
3.124000000000000000e+03 1.144627571105957031e+01 -4.297584056854248047e+00 1.418656706809997559e+00 4.372560501098632812e+00 1.737365126609802246e+00 1.383186459541320801e+00
3.125000000000000000e+03 3.783965682983398438e+01 1.741208648681640625e+01 2.141272544860839844e+00 2.454685211181640625e+00 1.378787279129028320e+00 -1.887096047401428223e+00
3.126000000000000000e+03 2.469598770141601562e+01 8.688421249389648438e+00 3.213258743286132812e+00 3.871407747268676758e+00 2.125399827957153320e+00 -4.328043460845947266e-01
3.127000000000000000e+03 5.843465423583984375e+01 -1.464967060089111328e+01 -4.634610116481781006e-01 5.413477420806884766e+00 1.485004901885986328e+00 6.502632051706314087e-02
3.128000000000000000e+03 1.010406780242919922e+01 4.600296974182128906e+00 2.226745337247848511e-02 3.839886903762817383e+00 1.158646345138549805e+00 -3.633292198181152344e+00
3.129000000000000000e+03 2.495616531372070312e+01 1.094152641296386719e+01 3.006966352462768555e+00 3.296163558959960938e+00 1.890938997268676758e+00 -7.845405340194702148e-01
3.130000000000000000e+03 2.471540260314941406e+01 1.232444286346435547e+01 1.709640383720397949e+00 2.649629592895507812e+00 1.307780981063842773e+00 -1.099660158157348633e+00
3.131000000000000000e+03 6.246886062622070312e+01 -1.314974880218505859e+01 -1.442209124565124512e+00 6.650855064392089844e+00 1.562593698501586914e+00 1.105488181114196777e+00
3.132000000000000000e+03 2.051945304870605469e+01 -2.093035888671875000e+01 2.333231687545776367e+00 1.946083307266235352e+00 1.283794522285461426e+00 -1.606767773628234863e+00
3.133000000000000000e+03 2.368564414978027344e+01 -2.303346443176269531e+01 1.433179736137390137e+00 3.040733337402343750e+00 1.342173933982849121e+00 -1.094453811645507812e+00
3.134000000000000000e+03 1.943366241455078125e+01 -2.166184997558593750e+01 1.926799893379211426e+00 2.414558410644531250e+00 1.302407503128051758e+00 -1.047748327255249023e+00
3.135000000000000000e+03 6.933216857910156250e+01 2.347502517700195312e+01 1.622747480869293213e-01 3.719404220581054688e+00 1.164503693580627441e+00 -1.261184453964233398e+00
3.136000000000000000e+03 6.179159545898437500e+01 -1.412565803527832031e+01 -1.345131754875183105e+00 6.570663928985595703e+00 1.567659616470336914e+00 9.084367752075195312e-01
3.137000000000000000e+03 5.979153060913085938e+01 -1.503516578674316406e+01 -5.996024608612060547e-01 5.927793979644775391e+00 1.598457574844360352e+00 5.194808244705200195e-01
3.138000000000000000e+03 4.775016021728515625e+01 1.962817907333374023e+00 3.880993723869323730e-01 3.378146648406982422e+00 1.129873871803283691e+00 -1.816268920898437500e+00
3.139000000000000000e+03 4.665468597412109375e+01 1.211464285850524902e+00 2.909559607505798340e-01 3.568778753280639648e+00 1.157920360565185547e+00 -2.272627830505371094e+00
3.140000000000000000e+03 6.639820575714111328e+00 -2.981426048278808594e+01 7.743335366249084473e-01 1.976049184799194336e+00 8.251147866249084473e-01 -2.133190482854843140e-01
3.141000000000000000e+03 1.299133682250976562e+01 -7.475500106811523438e+00 2.037071466445922852e+00 4.905423641204833984e+00 2.082748413085937500e+00 -4.338580649346113205e-03
3.142000000000000000e+03 1.149143886566162109e+01 -6.491759777069091797e+00 1.944017648696899414e+00 3.386545896530151367e+00 1.599169015884399414e+00 1.023860812187194824e+00
3.143000000000000000e+03 3.937733078002929688e+01 1.610489082336425781e+01 1.925806403160095215e+00 3.230618953704833984e+00 1.546927571296691895e+00 -1.611451864242553711e+00
3.144000000000000000e+03 4.436398696899414062e+01 3.907878875732421875e+00 8.452646732330322266e-01 4.715266704559326172e+00 1.668159484863281250e+00 -1.552491426467895508e+00
3.145000000000000000e+03 4.503812026977539062e+01 3.007308959960937500e+00 6.078196167945861816e-01 3.824854850769042969e+00 1.329802274703979492e+00 -2.005961656570434570e+00
3.146000000000000000e+03 7.991754531860351562e+00 -9.958864212036132812e+00 -8.025842159986495972e-02 2.114528179168701172e+00 6.102809309959411621e-01 2.544336795806884766e+00
3.147000000000000000e+03 2.475742912292480469e+01 3.120290756225585938e+00 6.902502179145812988e-01 2.358097076416015625e+00 9.145041704177856445e-01 -2.433400750160217285e-01
3.148000000000000000e+03 3.488251876831054688e+01 -3.428817749023437500e+01 1.346643090248107910e+00 2.896081447601318359e+00 1.272817373275756836e+00 1.226154685020446777e+00
3.149000000000000000e+03 3.184473419189453125e+01 -3.179739379882812500e+01 6.259305477142333984e-01 2.528656482696533203e+00 9.463761448860168457e-01 -1.020192742347717285e+00
3.150000000000000000e+03 7.134954833984375000e+01 2.407917022705078125e+00 1.746031492948532104e-01 3.064068078994750977e+00 9.716013669967651367e-01 7.874816656112670898e-01
3.151000000000000000e+03 1.016189575195312500e+01 -9.422108650207519531e+00 8.892188072204589844e-01 1.367293715476989746e+00 6.769537925720214844e-01 2.457804203033447266e+00
3.152000000000000000e+03 1.179234409332275391e+01 -8.720172882080078125e+00 1.596316337585449219e+00 2.320061445236206055e+00 1.174913287162780762e+00 1.162751555442810059e+00
3.153000000000000000e+03 2.554826736450195312e+01 -2.571041297912597656e+01 -7.703089714050292969e-01 6.008799076080322266e+00 1.571546912193298340e+00 -2.268290668725967407e-01
3.154000000000000000e+03 5.486261367797851562e+00 -3.026528358459472656e+01 6.829453706741333008e-01 2.360247135162353516e+00 9.129577875137329102e-01 -2.717173099517822266e-01
3.155000000000000000e+03 7.165660858154296875e+01 2.496195030212402344e+01 3.338686823844909668e-01 5.064201831817626953e+00 1.619421124458312988e+00 -8.976097702980041504e-01
3.156000000000000000e+03 2.408771896362304688e+01 -2.190107917785644531e+01 2.163598775863647461e+00 3.182093143463134766e+00 1.603707551956176758e+00 -1.060952901840209961e+00
3.157000000000000000e+03 2.513469886779785156e+01 -2.229163551330566406e+01 2.065320014953613281e+00 4.241088867187500000e+00 1.891922712326049805e+00 -5.708880424499511719e-01
3.158000000000000000e+03 5.577388763427734375e+00 7.839070796966552734e+00 6.814283728599548340e-01 2.247686624526977539e+00 8.787345290184020996e-01 2.672992832958698273e-02
3.159000000000000000e+03 6.703445911407470703e+00 8.476684570312500000e+00 1.042041301727294922e+00 3.501655578613281250e+00 1.363109111785888672e+00 -2.709906697273254395e-01
3.160000000000000000e+03 9.891776084899902344e+00 -8.445994377136230469e+00 1.305786967277526855e+00 1.686334252357482910e+00 8.976363539695739746e-01 2.093587160110473633e+00
3.161000000000000000e+03 7.035017490386962891e+00 -8.887557983398437500e+00 2.397363781929016113e-01 1.744245290756225586e+00 5.951945185661315918e-01 1.994969010353088379e+00
3.162000000000000000e+03 6.779367065429687500e+01 2.376970672607421875e+01 8.915196061134338379e-01 2.745828151702880859e+00 1.091204285621643066e+00 -5.570677518844604492e-01
3.163000000000000000e+03 6.947659015655517578e+00 -9.847719192504882812e+00 -3.419372141361236572e-01 2.316910266876220703e+00 5.924919247627258301e-01 2.113478183746337891e+00
3.164000000000000000e+03 5.808734130859375000e+01 -1.594110202789306641e+01 3.346388414502143860e-02 5.879120826721191406e+00 1.773775339126586914e+00 -6.559301167726516724e-02
3.165000000000000000e+03 7.088928222656250000e+01 -3.209211349487304688e+01 1.687434673309326172e+00 4.595022201538085938e+00 1.884737133979797363e+00 -5.741340517997741699e-01
3.166000000000000000e+03 6.125951004028320312e+01 -1.734189605712890625e+01 3.659589290618896484e-01 6.326188087463378906e+00 2.007644176483154297e+00 -1.730338633060455322e-01
3.167000000000000000e+03 7.235015106201171875e+01 2.746566772460937500e+01 6.654667258262634277e-01 5.256755828857421875e+00 1.776666760444641113e+00 -3.580520153045654297e-01
3.168000000000000000e+03 4.951422214508056641e+00 -3.428509140014648438e+01 4.470911622047424316e-01 3.050791263580322266e+00 1.049364686012268066e+00 4.302157461643218994e-01
3.169000000000000000e+03 7.259934234619140625e+01 -3.187767791748046875e+01 1.015519261360168457e+00 5.017125606536865234e+00 1.809793591499328613e+00 1.872833669185638428e-01
3.170000000000000000e+03 7.373437500000000000e+01 -3.556336593627929688e+01 2.407561540603637695e-01 6.287632942199707031e+00 1.958516716957092285e+00 -4.798095524311065674e-01
3.171000000000000000e+03 5.688603210449218750e+01 3.766947507858276367e+00 -7.475609779357910156e-01 4.505387783050537109e+00 1.127348065376281738e+00 -2.761895656585693359e-01
3.172000000000000000e+03 7.129838562011718750e+01 3.434903335571289062e+01 9.790192544460296631e-02 5.725254058837890625e+00 1.746946811676025391e+00 5.047108530998229980e-01
3.173000000000000000e+03 6.911911773681640625e+01 3.450479507446289062e+01 -5.711129307746887207e-02 5.502375125885009766e+00 1.633579134941101074e+00 6.164821386337280273e-01
3.174000000000000000e+03 3.196228790283203125e+01 3.523377609252929688e+01 -8.723367452621459961e-01 4.849206447601318359e+00 1.193060874938964844e+00 -7.188916802406311035e-01
3.175000000000000000e+03 6.812141418457031250e+01 2.756523895263671875e+01 1.788701295852661133e+00 4.440400123596191406e+00 1.868730545043945312e+00 5.293912887573242188e-01
3.176000000000000000e+03 3.075960540771484375e+01 -3.260597991943359375e+01 6.364818811416625977e-01 3.388244628906250000e+00 1.207417964935302734e+00 -8.526849746704101562e-01
3.177000000000000000e+03 2.899367713928222656e+01 -3.216183090209960938e+01 4.395877420902252197e-01 4.644567489624023438e+00 1.525246500968933105e+00 -7.488918900489807129e-01
3.178000000000000000e+03 3.035162162780761719e+01 3.696094894409179688e+01 -8.817809224128723145e-01 4.290577411651611328e+00 1.022638916969299316e+00 -4.323892891407012939e-01
3.179000000000000000e+03 3.217200469970703125e+01 3.658536148071289062e+01 -1.247810006141662598e+00 4.672453880310058594e+00 1.027393102645874023e+00 -3.880475163459777832e-01
3.180000000000000000e+03 4.673434448242187500e+01 4.110113906860351562e+01 -1.493265151977539062e+00 4.281677722930908203e+00 8.365237712860107422e-01 -2.777820527553558350e-01
3.181000000000000000e+03 7.284934997558593750e+01 -3.421179199218750000e+01 7.542951107025146484e-01 5.590779781341552734e+00 1.903522491455078125e+00 -5.497742891311645508e-01
3.182000000000000000e+03 4.689338302612304688e+01 2.904624462127685547e+00 2.557143270969390869e-01 3.070909261703491211e+00 9.979870319366455078e-01 -2.019948244094848633e+00
3.183000000000000000e+03 7.147724914550781250e+01 3.651208114624023438e+01 -1.926185786724090576e-01 5.838847160339355469e+00 1.693868637084960938e+00 4.089336991310119629e-01
3.184000000000000000e+03 1.166279697418212891e+01 -3.102497577667236328e+00 1.192590236663818359e+00 5.074850082397460938e+00 1.880232095718383789e+00 2.021133422851562500e+00
3.185000000000000000e+03 1.086812782287597656e+01 -3.788293361663818359e+00 1.565945386886596680e+00 3.407386302947998047e+00 1.491999506950378418e+00 1.589949250221252441e+00
3.186000000000000000e+03 1.259979724884033203e+01 -2.427624225616455078e+00 5.379545688629150391e-01 7.907839298248291016e+00 2.533738136291503906e+00 2.180595159530639648e+00
3.187000000000000000e+03 1.335029792785644531e+01 -3.447067022323608398e+00 1.661659926176071167e-01 8.797888755798339844e+00 2.689216375350952148e+00 4.982858896255493164e-01
3.188000000000000000e+03 1.302824592590332031e+01 -2.878246784210205078e+00 2.471650987863540649e-01 8.796948432922363281e+00 2.713233947753906250e+00 1.282953977584838867e+00
3.189000000000000000e+03 1.054935932159423828e+01 3.859863042831420898e+00 7.685292959213256836e-01 3.476116895675659180e+00 1.273393869400024414e+00 -4.135876655578613281e+00
3.190000000000000000e+03 1.022483634948730469e+01 -4.836788654327392578e+00 1.731620669364929199e+00 2.503684043884277344e+00 1.270591497421264648e+00 1.428713321685791016e+00
3.191000000000000000e+03 7.816784858703613281e+00 -7.778616905212402344e+00 8.543154597282409668e-01 1.455148100852966309e+00 6.928390264511108398e-01 1.891278624534606934e+00
3.192000000000000000e+03 7.700366020202636719e+00 -6.770397663116455078e+00 1.040329456329345703e+00 1.247755527496337891e+00 6.864254474639892578e-01 1.545037865638732910e+00
3.193000000000000000e+03 8.941626548767089844e+00 4.533060073852539062e+00 2.609615623950958252e-01 2.840047836303710938e+00 9.303027987480163574e-01 -2.463863372802734375e+00
3.194000000000000000e+03 1.366868782043457031e+01 -4.309840679168701172e+00 4.782797098159790039e-01 8.292746543884277344e+00 2.631307840347290039e+00 -8.704221993684768677e-02
3.195000000000000000e+03 1.281258773803710938e+01 -3.417817354202270508e+00 4.623301923274993896e-01 7.586753845214843750e+00 2.414725303649902344e+00 1.169360518455505371e+00
3.196000000000000000e+03 1.215682506561279297e+01 -8.140389442443847656e+00 1.878284454345703125e+00 3.034679412841796875e+00 1.473889231681823730e+00 8.605567216873168945e-01
3.197000000000000000e+03 2.434465980529785156e+01 4.280812740325927734e+00 1.636008381843566895e+00 3.126471757888793945e+00 1.428744077682495117e+00 3.169510364532470703e-01
3.198000000000000000e+03 1.329997348785400391e+01 -5.840122222900390625e+00 1.541414499282836914e+00 6.364357471466064453e+00 2.371731519699096680e+00 -2.571706175804138184e-01
3.199000000000000000e+03 1.338366794586181641e+01 -3.882706165313720703e+00 2.689898014068603516e-01 8.455914497375488281e+00 2.617471218109130859e+00 3.485584259033203125e-01
3.200000000000000000e+03 8.935747146606445312e+00 -8.652624130249023438e+00 8.535227179527282715e-01 1.656533479690551758e+00 7.530168890953063965e-01 2.319303750991821289e+00
3.201000000000000000e+03 1.075435352325439453e+01 -8.243300437927246094e+00 1.495769143104553223e+00 2.093046188354492188e+00 1.076644539833068848e+00 1.745345473289489746e+00
3.202000000000000000e+03 1.060974311828613281e+01 -7.339469432830810547e+00 1.748575568199157715e+00 2.284719467163085938e+00 1.209988474845886230e+00 1.607458829879760742e+00
3.203000000000000000e+03 2.437679481506347656e+01 -2.076845741271972656e+01 2.473410129547119141e+00 2.997841596603393555e+00 1.641375541687011719e+00 -8.662793636322021484e-01
3.204000000000000000e+03 2.271126747131347656e+01 -2.244127845764160156e+01 1.758571624755859375e+00 2.382683277130126953e+00 1.242376446723937988e+00 -1.379864215850830078e+00
3.205000000000000000e+03 2.012176704406738281e+01 -2.269293212890625000e+01 1.314950346946716309e+00 1.628124475479125977e+00 8.829224705696105957e-01 -1.254930377006530762e+00
3.206000000000000000e+03 4.607859802246093750e+01 3.783392667770385742e+00 3.345394730567932129e-01 3.620011568069458008e+00 1.186365246772766113e+00 -1.909669280052185059e+00
3.207000000000000000e+03 2.453163909912109375e+01 7.671878814697265625e+00 2.923329114913940430e+00 3.974209308624267578e+00 2.069261550903320312e+00 -2.517363429069519043e-01
3.208000000000000000e+03 7.375818634033203125e+01 -3.296943664550781250e+01 7.058454751968383789e-01 5.851351261138916016e+00 1.967159032821655273e+00 -4.647414758801460266e-02
3.209000000000000000e+03 7.119835662841796875e+01 3.046426963806152344e+01 7.883337736129760742e-01 5.300050258636474609e+00 1.826515197753906250e+00 2.956485152244567871e-01
3.210000000000000000e+03 3.227006530761718750e+01 3.378230285644531250e+01 -5.354091525077819824e-01 5.202488422393798828e+00 1.400123834609985352e+00 -1.044426798820495605e+00
3.211000000000000000e+03 7.046474456787109375e+01 2.434824371337890625e+01 2.388822287321090698e-01 4.326422691345214844e+00 1.369591474533081055e+00 -1.077898859977722168e+00
3.212000000000000000e+03 7.061701965332031250e+01 2.670160675048828125e+01 9.264630675315856934e-01 4.626019001007080078e+00 1.665744662284851074e+00 -4.136474728584289551e-01
3.213000000000000000e+03 6.971296691894531250e+01 2.759679794311523438e+01 1.273739933967590332e+00 4.595199108123779297e+00 1.760681629180908203e+00 -1.747395843267440796e-03
3.214000000000000000e+03 6.655389404296875000e+01 3.592273712158203125e+01 -6.824586987495422363e-01 5.064553737640380859e+00 1.314628481864929199e+00 3.240479528903961182e-01
3.215000000000000000e+03 6.902778625488281250e+01 3.245541381835937500e+01 5.262500047683715820e-01 5.414903163909912109e+00 1.782346010208129883e+00 6.939445734024047852e-01
3.216000000000000000e+03 6.889540863037109375e+01 2.852190971374511719e+01 1.473953962326049805e+00 4.535559654235839844e+00 1.802854061126708984e+00 4.320091605186462402e-01
3.217000000000000000e+03 1.928819656372070312e+01 -2.323755645751953125e+01 5.988599061965942383e-01 1.418050169944763184e+00 6.050730347633361816e-01 -2.969723641872406006e-01
3.218000000000000000e+03 3.041739082336425781e+01 3.517752838134765625e+01 -5.219910144805908203e-01 4.329245090484619141e+00 1.142176270484924316e+00 -8.805660605430603027e-01
3.219000000000000000e+03 5.510729789733886719e+00 1.292582988739013672e+01 8.902554512023925781e-01 2.859308004379272461e+00 1.124869108200073242e+00 -1.293720483779907227e+00
3.220000000000000000e+03 7.038211822509765625e+01 -3.868846130371093750e+01 -7.652555108070373535e-01 5.945433616638183594e+00 1.554053425788879395e+00 -7.934023737907409668e-01
3.221000000000000000e+03 6.930675506591796875e+01 -3.653834915161132812e+01 8.596157282590866089e-02 6.036530017852783203e+00 1.836747407913208008e+00 -1.124452233314514160e+00
3.222000000000000000e+03 3.364258193969726562e+01 -3.545261764526367188e+01 7.089530229568481445e-01 3.175312519073486328e+00 1.165279626846313477e+00 3.932720124721527100e-01
3.223000000000000000e+03 3.167381477355957031e+01 -3.373288726806640625e+01 9.184111356735229492e-01 3.053347826004028320e+00 1.191527724266052246e+00 -6.300299763679504395e-01
3.224000000000000000e+03 7.171627998352050781e+00 -3.250136947631835938e+01 1.115201592445373535e+00 2.558406352996826172e+00 1.102082371711730957e+00 5.327848792076110840e-01
3.225000000000000000e+03 1.231468009948730469e+01 -3.257816791534423828e+00 7.583954930305480957e-01 6.774503231048583984e+00 2.259869575500488281e+00 1.618817210197448730e+00
3.226000000000000000e+03 1.190261840820312500e+01 -3.594541549682617188e+00 1.064225435256958008e+00 5.630957126617431641e+00 2.008554935455322266e+00 1.556099534034729004e+00
3.227000000000000000e+03 1.136659526824951172e+01 -3.738794088363647461e+00 1.393748521804809570e+00 4.346627712249755859e+00 1.722112894058227539e+00 1.617160201072692871e+00
3.228000000000000000e+03 1.086997795104980469e+01 -4.320924282073974609e+00 1.595728874206542969e+00 3.425524711608886719e+00 1.506376028060913086e+00 1.479768872261047363e+00
3.229000000000000000e+03 1.301635551452636719e+01 -6.209290027618408203e+00 1.569908738136291504e+00 6.043315410614013672e+00 2.283967256546020508e+00 -9.190429747104644775e-02
3.230000000000000000e+03 1.259295463562011719e+01 -5.053629398345947266e+00 1.308778047561645508e+00 5.983615398406982422e+00 2.187718152999877930e+00 4.368087351322174072e-01
3.231000000000000000e+03 9.369129180908203125e+00 -6.015471935272216797e+00 1.557617545127868652e+00 1.851068735122680664e+00 1.022605895996093750e+00 1.574411630630493164e+00
3.232000000000000000e+03 1.307994747161865234e+01 -4.630896568298339844e+00 8.340895771980285645e-01 7.192906856536865234e+00 2.408098936080932617e+00 3.043004572391510010e-01
3.233000000000000000e+03 6.838864803314208984e+00 -7.941239356994628906e+00 4.570864140987396240e-01 1.510765552520751953e+00 5.903555750846862793e-01 1.698668360710144043e+00
3.234000000000000000e+03 8.773591995239257812e+00 -7.658120155334472656e+00 1.136796355247497559e+00 1.568772912025451660e+00 8.116707801818847656e-01 1.923658847808837891e+00
3.235000000000000000e+03 1.084015750885009766e+01 -4.930675506591796875e+00 1.672488451004028320e+00 3.398652315139770508e+00 1.521342277526855469e+00 1.312556505203247070e+00
3.236000000000000000e+03 1.149844837188720703e+01 -5.664086341857910156e+00 1.694178104400634766e+00 4.046422958374023438e+00 1.722180366516113281e+00 9.590433239936828613e-01
3.237000000000000000e+03 1.149127006530761719e+01 -8.081749916076660156e+00 1.858180880546569824e+00 2.457564115524291992e+00 1.294723510742187500e+00 1.364035010337829590e+00
3.238000000000000000e+03 1.221478748321533203e+01 -7.388060569763183594e+00 2.164290904998779297e+00 3.505210399627685547e+00 1.700850367546081543e+00 6.303502321243286133e-01
3.239000000000000000e+03 1.144436168670654297e+01 -7.321452140808105469e+00 1.838321805000305176e+00 2.984338760375976562e+00 1.446798205375671387e+00 1.178893923759460449e+00
3.240000000000000000e+03 2.210554695129394531e+01 -2.161437797546386719e+01 2.211183071136474609e+00 1.897581219673156738e+00 1.232629299163818359e+00 -1.555070996284484863e+00
3.241000000000000000e+03 6.853861999511718750e+01 3.062130355834960938e+01 9.759603142738342285e-01 5.104054927825927734e+00 1.824004650115966797e+00 7.866568565368652344e-01
3.242000000000000000e+03 7.130216979980468750e+01 2.788381004333496094e+01 9.142982363700866699e-01 5.044950008392333984e+00 1.787774562835693359e+00 -1.803835630416870117e-01
3.243000000000000000e+03 4.833217620849609375e+01 -1.564020276069641113e+00 4.537994563579559326e-01 5.174920558929443359e+00 1.688616037368774414e+00 -1.801354289054870605e+00
3.244000000000000000e+03 2.803964233398437500e+01 3.680478286743164062e+01 -4.769267439842224121e-01 3.805153369903564453e+00 9.984679818153381348e-01 -3.422101438045501709e-01
3.245000000000000000e+03 6.056594085693359375e+01 4.006809997558593750e+01 -1.314812898635864258e-01 1.887540578842163086e+00 5.268177986145019531e-01 -6.927128136157989502e-02
3.246000000000000000e+03 1.252646923065185547e+01 -5.957801818847656250e+00 1.760616779327392578e+00 5.054799556732177734e+00 2.044625043869018555e+00 3.322439491748809814e-01
3.247000000000000000e+03 1.146023273468017578e+01 -4.927859783172607422e+00 1.545122981071472168e+00 4.245358467102050781e+00 1.737144470214843750e+00 1.248342633247375488e+00
3.248000000000000000e+03 9.476013183593750000e+00 -6.670006275177001953e+00 1.592801451683044434e+00 1.859102487564086914e+00 1.035571217536926270e+00 1.686325907707214355e+00
3.249000000000000000e+03 1.208395767211914062e+01 -4.862203121185302734e+00 1.318556427955627441e+00 5.352627277374267578e+00 2.001355171203613281e+00 8.484326601028442383e-01
3.250000000000000000e+03 9.970641136169433594e+00 -6.222776412963867188e+00 1.692351579666137695e+00 2.112210273742675781e+00 1.141368627548217773e+00 1.545856952667236328e+00
3.251000000000000000e+03 9.709327697753906250e+00 -7.473577022552490234e+00 1.430354356765747070e+00 1.915511846542358398e+00 1.003759860992431641e+00 1.850381493568420410e+00
3.252000000000000000e+03 1.066657352447509766e+01 -6.447622299194335938e+00 1.744926095008850098e+00 2.751374721527099609e+00 1.348890304565429688e+00 1.451336026191711426e+00
3.253000000000000000e+03 7.952665328979492188e+00 -8.800876617431640625e+00 4.279603362083435059e-01 1.697021007537841797e+00 6.374944448471069336e-01 2.167753458023071289e+00
3.254000000000000000e+03 7.591101837158203125e+01 -3.496580886840820312e+01 1.573754251003265381e-01 6.840257167816162109e+00 2.099289894104003906e+00 -1.271615773439407349e-01
3.255000000000000000e+03 3.325020599365234375e+01 3.564412307739257812e+01 -1.263039588928222656e+00 4.978229999542236328e+00 1.114557147026062012e+00 -3.888640105724334717e-01
3.256000000000000000e+03 3.079903793334960938e+01 3.895612716674804688e+01 -1.139679908752441406e+00 4.214642047882080078e+00 9.224886298179626465e-01 -1.762108802795410156e-01
3.257000000000000000e+03 1.213684177398681641e+01 -5.483562946319580078e+00 1.584979772567749023e+00 4.917970657348632812e+00 1.950885176658630371e+00 7.237653732299804688e-01
3.258000000000000000e+03 1.079261016845703125e+01 -5.638371944427490234e+00 1.799470424652099609e+00 3.012154340744018555e+00 1.443487405776977539e+00 1.340011715888977051e+00
3.259000000000000000e+03 2.753470802307128906e+01 4.136587524414062500e+01 -1.080677390098571777e+00 4.196806907653808594e+00 9.348388910293579102e-01 -3.709976375102996826e-02
3.260000000000000000e+03 5.232793426513671875e+01 -3.600259017944335938e+01 2.408003062009811401e-01 7.272572994232177734e+00 2.254012107849121094e+00 1.444976329803466797e-01
3.261000000000000000e+03 5.077660751342773438e+01 -3.747402572631835938e+01 -1.347864866256713867e+00 6.567986488342285156e+00 1.566036462783813477e+00 4.589399993419647217e-01
3.262000000000000000e+03 8.000490188598632812e+00 -4.112199401855468750e+01 -9.488984346389770508e-01 3.648891210556030273e+00 8.099977970123291016e-01 2.515253424644470215e-01
3.263000000000000000e+03 8.635484695434570312e+00 -3.863708877563476562e+01 -8.203991651535034180e-01 3.458261966705322266e+00 7.913588285446166992e-01 9.594150185585021973e-01
3.264000000000000000e+03 3.253417205810546875e+01 -3.280314254760742188e+01 1.114212036132812500e+00 2.140772581100463867e+00 9.764953851699829102e-01 -5.321542024612426758e-01
3.265000000000000000e+03 3.002191352844238281e+01 -3.147380256652832031e+01 1.689106971025466919e-01 4.128750324249267578e+00 1.289298295974731445e+00 -1.063530206680297852e+00
3.266000000000000000e+03 3.117313957214355469e+01 -3.075407028198242188e+01 -1.836337596178054810e-01 3.001336574554443359e+00 8.453108668327331543e-01 -1.168227434158325195e+00
3.267000000000000000e+03 3.555707550048828125e+01 -4.063608551025390625e+01 -1.381623744964599609e+00 4.274784088134765625e+00 8.679481744766235352e-01 1.986594498157501221e-01
3.268000000000000000e+03 5.814487934112548828e+00 3.597402572631835938e+01 -8.320874571800231934e-01 2.464735984802246094e+00 4.897945523262023926e-01 1.451596915721893311e-01
3.269000000000000000e+03 1.992134284973144531e+01 3.967648696899414062e+01 -9.821108579635620117e-01 3.413980007171630859e+00 7.295607328414916992e-01 -2.530363500118255615e-01
3.270000000000000000e+03 1.981251525878906250e+01 3.587704086303710938e+01 -8.824487924575805664e-01 4.175578594207763672e+00 9.879390001296997070e-01 -4.457246065139770508e-01
3.271000000000000000e+03 6.489274597167968750e+01 3.894427490234375000e+01 -6.710073947906494141e-01 4.002512931823730469e+00 9.994516372680664062e-01 -2.307442724704742432e-01
3.272000000000000000e+03 1.222489738464355469e+01 3.889604187011718750e+01 1.296110451221466064e-01 3.361933827400207520e-01 1.397413313388824463e-01 -3.828175663948059082e-01
3.273000000000000000e+03 2.768688583374023438e+01 3.905828094482421875e+01 -8.791047334671020508e-01 4.010760307312011719e+00 9.394966363906860352e-01 -8.710993826389312744e-02
3.274000000000000000e+03 2.885704231262207031e+01 -3.696357345581054688e+01 -8.753030002117156982e-02 4.991111278533935547e+00 1.471074342727661133e+00 -9.202451705932617188e-01
3.275000000000000000e+03 2.321738052368164062e+01 4.109916687011718750e+01 -1.054803490638732910e+00 3.873236179351806641e+00 8.455297946929931641e-01 1.762129552662372589e-02
3.276000000000000000e+03 4.257624816894531250e+01 3.838116073608398438e+01 -8.116375803947448730e-01 2.212653636932373047e+00 4.203048348426818848e-01 -7.145528197288513184e-01
3.277000000000000000e+03 2.668991661071777344e+01 -3.677337646484375000e+01 3.039773404598236084e-01 5.627770900726318359e+00 1.779524445533752441e+00 -6.962561011314392090e-01
3.278000000000000000e+03 3.318866729736328125e+01 3.804910278320312500e+01 -1.306488156318664551e+00 4.329460620880126953e+00 9.068917632102966309e-01 6.664945930242538452e-02
3.279000000000000000e+03 1.105263042449951172e+01 -1.408078908920288086e+00 1.743217349052429199e+00 2.184065341949462891e+00 1.178184747695922852e+00 2.074928998947143555e+00
3.280000000000000000e+03 1.122778701782226562e+01 -1.374832510948181152e+00 1.768721699714660645e+00 2.399404525756835938e+00 1.250437855720520020e+00 2.282771825790405273e+00
3.281000000000000000e+03 1.128527927398681641e+01 -1.556240558624267578e+00 1.814384818077087402e+00 2.991944074630737305e+00 1.441898584365844727e+00 2.413149118423461914e+00
3.282000000000000000e+03 1.239105892181396484e+01 -1.164335250854492188e+00 1.411573052406311035e+00 8.387902259826660156e+00 2.939842700958251953e+00 3.699058294296264648e+00
3.283000000000000000e+03 1.259660053253173828e+01 -1.517954111099243164e+00 7.859392166137695312e-01 9.254178047180175781e+00 3.012035131454467773e+00 3.013653993606567383e+00
3.284000000000000000e+03 1.297945976257324219e+01 -1.066735386848449707e+00 5.051237344741821289e-01 1.212418460845947266e+01 3.788792610168457031e+00 2.975860118865966797e+00
3.285000000000000000e+03 1.024589157104492188e+01 2.131696701049804688e+00 2.341512441635131836e+00 1.065548062324523926e+00 1.022118210792541504e+00 -2.599072456359863281e+00
3.286000000000000000e+03 9.972914695739746094e+00 2.199187517166137695e+00 1.992303729057312012e+00 9.034881591796875000e-01 8.687375783920288086e-01 -2.305709838867187500e+00
3.287000000000000000e+03 1.045945930480957031e+01 2.124273300170898438e+00 2.800109624862670898e+00 1.223780393600463867e+00 1.207167029380798340e+00 -2.907374382019042969e+00
3.288000000000000000e+03 1.082392692565917969e+01 2.119568109512329102e+00 3.507977724075317383e+00 1.485392570495605469e+00 1.498011112213134766e+00 -3.410391092300415039e+00
3.289000000000000000e+03 7.645706939697265625e+01 3.888571166992187500e+01 -1.324002444744110107e-01 6.889794826507568359e+00 2.027218341827392578e+00 1.522267609834671021e-01
3.290000000000000000e+03 1.521702671051025391e+01 1.769726276397705078e+00 5.696093082427978516e+00 7.539424896240234375e+00 3.970655202865600586e+00 2.655637025833129883e+00
3.291000000000000000e+03 3.089121246337890625e+01 -4.439219474792480469e+00 2.336377143859863281e+00 7.002716064453125000e+00 2.801728010177612305e+00 -2.085107326507568359e+00
3.292000000000000000e+03 5.503620147705078125e+01 -2.444896507263183594e+01 -3.605094552040100098e-01 7.555414676666259766e+00 2.158471584320068359e+00 2.129391193389892578e+00
3.293000000000000000e+03 1.045931816101074219e+01 2.125891113281250000e+01 -9.186975955963134766e-01 1.010003209114074707e+00 2.739167027175426483e-02 -2.719543576240539551e-01
3.294000000000000000e+03 3.491643905639648438e+01 1.301922321319580078e+01 -2.414491415023803711e+00 6.493247300386428833e-02 -7.048676609992980957e-01 -4.436296522617340088e-01
3.295000000000000000e+03 3.769725036621093750e+01 1.277040863037109375e+01 -5.271488428115844727e-01 2.983568906784057617e+00 7.369259595870971680e-01 -1.729416251182556152e+00
3.296000000000000000e+03 6.449729156494140625e+01 -9.142270088195800781e+00 7.823740243911743164e-01 8.434041023254394531e+00 2.764924526214599609e+00 -2.261029630899429321e-01
3.297000000000000000e+03 3.014000701904296875e+01 -2.700200271606445312e+01 -9.421575665473937988e-01 4.576334476470947266e+00 1.090253114700317383e+00 -1.140960693359375000e+00
3.298000000000000000e+03 3.730215835571289062e+01 -4.376487731933593750e+00 5.138039588928222656e-01 4.992763519287109375e+00 1.651970267295837402e+00 1.455695748329162598e+00
3.299000000000000000e+03 4.906587600708007812e+01 -8.730565071105957031e+00 2.533402681350708008e+00 8.223757743835449219e+00 3.227148056030273438e+00 6.706008911132812500e-01
3.300000000000000000e+03 6.465057373046875000e+01 3.314424133300781250e+01 -1.082805767655372620e-01 5.037187099456787109e+00 1.478672027587890625e+00 6.579360365867614746e-01
3.301000000000000000e+03 3.302887725830078125e+01 2.134931755065917969e+01 4.263346493244171143e-01 9.734037399291992188e+00 3.048111677169799805e+00 -4.654298126697540283e-01
3.302000000000000000e+03 2.743720626831054688e+01 1.428067588806152344e+01 -1.545829892158508301e+00 -5.592191815376281738e-01 -6.315147280693054199e-01 1.706179022789001465e+00
3.303000000000000000e+03 1.675465965270996094e+01 -4.189515304565429688e+01 -2.719908237457275391e+00 -7.528547048568725586e-01 -1.041828870773315430e+00 1.406202018260955811e-01
3.304000000000000000e+03 1.115888023376464844e+01 -4.091085052490234375e+01 -1.707297801971435547e+00 2.822281360626220703e+00 3.344950377941131592e-01 4.132465720176696777e-01
3.305000000000000000e+03 4.024763107299804688e+01 -3.970788192749023438e+01 -1.580182313919067383e+00 2.249899625778198242e+00 2.009152173995971680e-01 -5.150916576385498047e-01
3.306000000000000000e+03 1.100162410736083984e+01 -2.242223262786865234e+00 1.681777000427246094e+00 2.990375041961669922e+00 1.401645660400390625e+00 2.026019334793090820e+00
3.307000000000000000e+03 1.255354690551757812e+01 -1.861577987670898438e+00 6.494296789169311523e-01 8.468068122863769531e+00 2.735249280929565430e+00 2.725110530853271484e+00
3.308000000000000000e+03 1.226083755493164062e+01 -1.894412875175476074e+00 9.856061339378356934e-01 7.375815868377685547e+00 2.508426666259765625e+00 2.887104272842407227e+00
3.309000000000000000e+03 1.300014114379882812e+01 -4.194396972656250000e+01 -1.843897461891174316e+00 2.311931610107421875e+00 1.404102146625518799e-01 2.479767426848411560e-02
3.310000000000000000e+03 1.345467185974121094e+01 -4.082467269897460938e+01 -2.401738643646240234e+00 2.162937402725219727e+00 -7.164039462804794312e-02 9.939022362232208252e-02
3.311000000000000000e+03 3.402061080932617188e+01 2.012757682800292969e+01 1.028633832931518555e+00 7.736664772033691406e+00 2.629589557647705078e+00 -3.509373962879180908e-01
3.312000000000000000e+03 2.506608772277832031e+01 1.317264175415039062e+01 4.164964258670806885e-01 2.161258459091186523e+00 7.733264565467834473e-01 -9.766746759414672852e-01
3.313000000000000000e+03 6.798414611816406250e+01 -3.869364166259765625e+01 -1.118397116661071777e+00 5.485840320587158203e+00 1.310232996940612793e+00 -4.181324839591979980e-01
3.314000000000000000e+03 2.789187812805175781e+01 6.200437545776367188e+00 2.349290132522583008e+00 6.252189159393310547e+00 2.580443859100341797e+00 -2.350378483533859253e-01
3.315000000000000000e+03 4.232583999633789062e+01 1.280216121673583984e+01 1.101828455924987793e+00 7.794867038726806641e+00 2.669008731842041016e+00 4.938561320304870605e-01
3.316000000000000000e+03 2.932266426086425781e+01 1.126854515075683594e+01 2.054003000259399414e+00 5.444810867309570312e+00 2.249644041061401367e+00 2.432796478271484375e+00
3.317000000000000000e+03 3.718308258056640625e+01 3.525905227661132812e+01 -2.240036487579345703e+00 3.505207061767578125e+00 3.795511722564697266e-01 1.450446605682373047e+00
3.318000000000000000e+03 3.548456192016601562e+01 2.384844779968261719e+01 -6.721419841051101685e-02 7.344821929931640625e+00 2.183282375335693359e+00 -1.106867790222167969e+00
3.319000000000000000e+03 5.345446014404296875e+01 -3.547192764282226562e+01 9.563980102539062500e-01 7.660422325134277344e+00 2.585046052932739258e+00 1.791967153549194336e-01
3.320000000000000000e+03 2.976752471923828125e+01 -2.872759628295898438e+01 -1.305087208747863770e+00 5.012931346893310547e+00 1.112353205680847168e+00 -9.915983080863952637e-01
3.321000000000000000e+03 5.042108917236328125e+01 -3.914996719360351562e+01 -2.249270915985107422e+00 6.142497062683105469e+00 1.167967796325683594e+00 8.207352161407470703e-01
3.322000000000000000e+03 9.290574073791503906e+00 1.835844230651855469e+01 -9.154361486434936523e-01 3.091000795364379883e+00 6.526693701744079590e-01 -6.137623190879821777e-01
3.323000000000000000e+03 5.041482162475585938e+01 -9.101105690002441406e+00 1.971994280815124512e+00 6.946896553039550781e+00 2.675667285919189453e+00 1.229619905352592468e-01
3.324000000000000000e+03 6.447213745117187500e+01 2.353598022460937500e+01 4.276857525110244751e-02 4.931677341461181641e+00 1.492333769798278809e+00 1.902333855628967285e+00
3.325000000000000000e+03 5.160682296752929688e+01 -1.316253662109375000e+01 1.627609506249427795e-02 3.042898654937744141e+00 9.177523851394653320e-01 -1.699663877487182617e+00
3.326000000000000000e+03 8.587015151977539062e+00 1.315052032470703125e+01 5.788620114326477051e-01 7.106155872344970703e+00 2.305505275726318359e+00 -9.315785169601440430e-01
3.327000000000000000e+03 7.174552440643310547e+00 1.313388824462890625e+01 9.884059429168701172e-01 4.800692558288574219e+00 1.736729502677917480e+00 -1.423552393913269043e+00
3.328000000000000000e+03 5.675768661499023438e+01 1.692709088325500488e+00 -7.098656296730041504e-01 1.604837059974670410e+00 2.684914171695709229e-01 9.562943875789642334e-02
3.329000000000000000e+03 7.166131019592285156e+00 3.654405593872070312e+01 -5.495527982711791992e-01 1.753865361213684082e+00 3.612937629222869873e-01 3.534392118453979492e-01
3.330000000000000000e+03 5.294143295288085938e+01 2.334921455383300781e+01 -6.527255475521087646e-02 5.268139362335205078e+00 1.560860037803649902e+00 -1.648506045341491699e+00
3.331000000000000000e+03 1.361078453063964844e+01 -3.957744979858398438e+01 -1.496799230575561523e+00 1.743533730506896973e+00 7.402034103870391846e-02 1.329291462898254395e-01
3.332000000000000000e+03 7.392961120605468750e+01 7.667181015014648438e+00 -4.080027341842651367e-02 7.818128585815429688e+00 2.333198547363281250e+00 -5.412616729736328125e-01
3.333000000000000000e+03 2.608422851562500000e+01 1.263364219665527344e+01 1.442924261093139648e+00 1.111840248107910156e+00 7.664293646812438965e-01 -1.047205701470375061e-01
3.334000000000000000e+03 6.763461303710937500e+01 -1.483293914794921875e+01 -7.374827861785888672e-01 9.042850732803344727e-01 5.004068464040756226e-02 -5.079694390296936035e-01
3.335000000000000000e+03 3.991954421997070312e+01 -2.831239700317382812e+01 -2.623780012130737305e+00 8.778419494628906250e+00 1.846391916275024414e+00 1.800913691520690918e+00
3.336000000000000000e+03 3.891524124145507812e+01 -2.790926742553710938e+01 -2.404108047485351562e+00 8.633996963500976562e+00 1.868966817855834961e+00 2.157099485397338867e+00
3.337000000000000000e+03 6.122452926635742188e+01 8.045529365539550781e+00 -1.438669562339782715e-01 5.121433734893798828e+00 1.493270039558410645e+00 -1.377688765525817871e+00
3.338000000000000000e+03 3.595676040649414062e+01 -3.361029815673828125e+01 1.718503713607788086e+00 3.333235263824462891e+00 1.515521645545959473e+00 1.456883907318115234e+00
3.339000000000000000e+03 4.173751449584960938e+01 -2.158573722839355469e+01 2.554082393646240234e+00 5.721046924591064453e+00 2.482538938522338867e+00 7.815353870391845703e-01
3.340000000000000000e+03 1.800796127319335938e+01 -1.901488494873046875e+01 2.335023641586303711e+00 4.657861709594726562e+00 2.097865581512451172e+00 -8.017407059669494629e-01
3.341000000000000000e+03 4.023945808410644531e+00 -2.636858558654785156e+01 -5.699509978294372559e-01 2.947657346725463867e+00 7.133119106292724609e-01 -6.383142471313476562e-01
3.342000000000000000e+03 3.341825103759765625e+01 3.124453544616699219e+01 3.046477735042572021e-01 7.004312038421630859e+00 2.192687988281250000e+00 -9.240259528160095215e-01
3.343000000000000000e+03 2.452919769287109375e+01 2.092148065567016602e+00 2.354549169540405273e-01 1.614966034889221191e+00 5.551262497901916504e-01 -1.986087709665298462e-01
3.344000000000000000e+03 3.830501937866210938e+01 -1.427598285675048828e+01 -3.331813573837280273e+00 5.830210208892822266e+00 7.495189905166625977e-01 -2.990970611572265625e+00
3.345000000000000000e+03 5.135560607910156250e+01 -1.135118198394775391e+01 1.080927848815917969e+00 4.950608730316162109e+00 1.809460997581481934e+00 -1.392889618873596191e+00
3.346000000000000000e+03 6.074739074707031250e+01 -2.214092254638671875e+01 2.991369009017944336e+00 4.130252838134765625e+00 2.136486530303955078e+00 -4.937282502651214600e-01
3.347000000000000000e+03 5.794377899169921875e+01 -2.254253959655761719e+01 1.882122278213500977e+00 5.992930412292480469e+00 2.362515687942504883e+00 5.063060522079467773e-01
3.348000000000000000e+03 1.097976016998291016e+01 2.179683923721313477e+00 3.653215408325195312e+00 1.686210155487060547e+00 1.601827621459960938e+00 -3.742550134658813477e+00
3.349000000000000000e+03 1.032996845245361328e+01 2.405054092407226562e+00 2.451095342636108398e+00 1.450524568557739258e+00 1.170485973358154297e+00 -3.148273706436157227e+00
3.350000000000000000e+03 6.537508392333984375e+01 3.236006927490234375e+01 4.923521578311920166e-01 5.260858058929443359e+00 1.725962996482849121e+00 6.943019628524780273e-01
3.351000000000000000e+03 1.865910148620605469e+01 6.720469951629638672e+00 -5.496752858161926270e-01 4.882703781127929688e+00 1.299908638000488281e+00 3.389100313186645508e+00
3.352000000000000000e+03 4.389064311981201172e+00 -3.184692001342773438e+01 5.547978878021240234e-01 2.781078815460205078e+00 1.000763058662414551e+00 -9.643451124429702759e-02
3.353000000000000000e+03 2.953006744384765625e+01 1.076138496398925781e+00 -2.063052892684936523e+00 5.890811443328857422e+00 1.148327589035034180e+00 -1.923408269882202148e+00
3.354000000000000000e+03 4.857523727416992188e+01 3.091268157958984375e+01 8.974610567092895508e-01 6.711280345916748047e+00 2.282622337341308594e+00 4.624903500080108643e-01
3.355000000000000000e+03 2.981808662414550781e+01 1.212380599975585938e+01 4.549459218978881836e-01 5.421780586242675781e+00 1.763018012046813965e+00 3.252869129180908203e+00
3.356000000000000000e+03 3.528916931152343750e+01 -7.085921287536621094e+00 2.540830612182617188e+00 6.029944419860839844e+00 2.571232557296752930e+00 -6.411347985267639160e-01
3.357000000000000000e+03 7.791900634765625000e+01 -3.551976013183593750e+01 1.227145176380872726e-02 7.289362907409667969e+00 2.190490245819091797e+00 -6.444934010505676270e-02
3.358000000000000000e+03 3.789957427978515625e+01 -4.009463119506835938e+01 -1.500748753547668457e+00 3.669206142425537109e+00 6.505371928215026855e-01 -1.430615899153053761e-03
3.359000000000000000e+03 1.379329299926757812e+01 4.282771587371826172e+00 -3.649218678474426270e-01 5.240187644958496094e+00 1.462579727172851562e+00 -1.240836262702941895e+00
3.360000000000000000e+03 2.703306961059570312e+01 1.334169101715087891e+01 4.788143187761306763e-02 7.684348225593566895e-01 2.448948770761489868e-01 1.249024033546447754e+00
3.361000000000000000e+03 1.185051631927490234e+01 -2.508996963500976562e+00 1.173942804336547852e+00 5.613207817077636719e+00 2.036145210266113281e+00 2.373819828033447266e+00
3.362000000000000000e+03 1.277843475341796875e+01 -2.048739433288574219e+00 3.317265808582305908e-01 9.120058059692382812e+00 2.835535526275634766e+00 2.284255743026733398e+00
3.363000000000000000e+03 1.807238197326660156e+01 1.911793947219848633e+00 2.653703689575195312e+00 3.057058811187744141e+00 1.713228702545166016e+00 3.576946496963500977e+00
3.364000000000000000e+03 1.255381107330322266e+01 -2.148325443267822266e+00 6.604220867156982422e-01 7.904041290283203125e+00 2.569339036941528320e+00 2.301517248153686523e+00
3.365000000000000000e+03 3.205319595336914062e+01 2.739783287048339844e+01 6.618221402168273926e-01 6.738160133361816406e+00 2.219994783401489258e+00 -6.861711144447326660e-01
3.366000000000000000e+03 2.904585266113281250e+01 -1.502146530151367188e+01 -2.549107789993286133e+00 6.641361236572265625e+00 1.227676033973693848e+00 1.758413672447204590e+00
3.367000000000000000e+03 3.590559387207031250e+01 -1.133416461944580078e+01 1.576135873794555664e+00 4.482665061950683594e+00 1.817640304565429688e+00 -1.616710424423217773e+00
3.368000000000000000e+03 6.450321960449218750e+01 -1.481856536865234375e+01 -1.717626214027404785e+00 5.576979160308837891e+00 1.157805919647216797e+00 6.660365462303161621e-01
3.369000000000000000e+03 5.853820800781250000e+01 -1.249296283721923828e+01 -5.339713692665100098e-01 3.506146669387817383e+00 8.916525840759277344e-01 7.227451801300048828e-01
3.370000000000000000e+03 3.293462371826171875e+01 -3.395280075073242188e+01 1.168417811393737793e+00 2.669367074966430664e+00 1.151335477828979492e+00 -8.669749647378921509e-02
3.371000000000000000e+03 3.171781539916992188e+01 -1.125984764099121094e+01 4.978035390377044678e-01 4.801726818084716797e+00 1.589859127998352051e+00 1.188991069793701172e+00
3.372000000000000000e+03 7.560820770263671875e+01 -2.091811561584472656e+01 1.113610029220581055e+00 8.916260719299316406e+00 3.008960962295532227e+00 7.754406929016113281e-01
3.373000000000000000e+03 6.705113220214843750e+01 1.557859063148498535e+00 2.236188799142837524e-01 2.898113250732421875e+00 9.365196228027343750e-01 1.663825750350952148e+00
3.374000000000000000e+03 7.646598052978515625e+01 -1.546372795104980469e+01 -7.388411760330200195e-01 8.289864540100097656e+00 2.265306949615478516e+00 8.565252423286437988e-01
3.375000000000000000e+03 5.860613250732421875e+01 6.869304180145263672e+00 1.525213569402694702e-01 6.104095458984375000e+00 1.876984953880310059e+00 -1.023748397827148438e+00
3.376000000000000000e+03 5.940562820434570312e+01 -1.627811813354492188e+01 2.592015266418457031e-01 6.084638595581054688e+00 1.903151988983154297e+00 1.202558279037475586e-01
3.377000000000000000e+03 6.462241363525390625e+01 2.446276283264160156e+01 1.678965568542480469e+00 5.280143737792968750e+00 2.087732791900634766e+00 1.546935200691223145e+00
3.378000000000000000e+03 1.406752204895019531e+01 -2.529805946350097656e+01 -1.809557795524597168e+00 4.004052162170410156e+00 6.583483219146728516e-01 2.335050821304321289e+00
3.379000000000000000e+03 5.893692398071289062e+01 -2.417809104919433594e+01 7.101849317550659180e-01 4.151382923126220703e+00 1.458470344543457031e+00 1.014815330505371094e+00
3.380000000000000000e+03 1.284438228607177734e+01 -2.387165069580078125e+00 2.844657599925994873e-01 9.030634880065917969e+00 2.794530391693115234e+00 1.788152694702148438e+00
3.381000000000000000e+03 2.530463981628417969e+01 4.537461757659912109e+00 1.708400845527648926e+00 3.422682285308837891e+00 1.539324998855590820e+00 1.089779380708932877e-02
3.382000000000000000e+03 6.105241775512695312e+01 -2.090818405151367188e+01 2.754355430603027344e+00 5.129704952239990234e+00 2.365218162536621094e+00 -9.616959691047668457e-01
3.383000000000000000e+03 3.272515869140625000e+01 -1.654715299606323242e+00 5.885958075523376465e-01 3.445208072662353516e+00 1.210141181945800781e+00 -6.991764903068542480e-01
3.384000000000000000e+03 3.007608413696289062e+00 3.177888870239257812e+01 -1.779043078422546387e-01 4.102318763732910156e+00 1.177324414253234863e+00 -1.113690018653869629e+00
3.385000000000000000e+03 3.487205123901367188e+01 -1.063663959503173828e+01 2.418111324310302734e+00 3.634846210479736328e+00 1.815887212753295898e+00 -6.660423874855041504e-01
3.386000000000000000e+03 4.841137695312500000e+01 2.617547035217285156e+01 2.520327568054199219e+00 6.738000392913818359e+00 2.777498483657836914e+00 1.141290068626403809e+00
3.387000000000000000e+03 1.151485538482666016e+01 4.518284320831298828e+00 -4.543332755565643311e-01 4.881784915924072266e+00 1.328235507011413574e+00 -4.525088787078857422e+00
3.388000000000000000e+03 2.046621704101562500e+01 -1.891257286071777344e+01 2.341365098953247070e+00 2.058328151702880859e+00 1.319908022880554199e+00 -1.801988840103149414e+00
3.389000000000000000e+03 4.448009490966796875e+00 4.086763858795166016e+00 1.465006545186042786e-02 5.050058364868164062e-01 1.558967828750610352e-01 3.266610205173492432e-01
3.390000000000000000e+03 2.992857551574707031e+01 -2.380892336368560791e-01 -1.029642939567565918e+00 5.887444496154785156e+00 1.457340359687805176e+00 -1.844724416732788086e+00
3.391000000000000000e+03 1.211465930938720703e+01 -2.327535629272460938e+00 9.701678156852722168e-01 6.548419952392578125e+00 2.255576372146606445e+00 2.444479703903198242e+00
3.392000000000000000e+03 5.063785552978515625e+01 2.932782745361328125e+01 1.879370808601379395e+00 6.862155914306640625e+00 2.622457981109619141e+00 1.169389843940734863e+00
3.393000000000000000e+03 3.555730819702148438e+01 -3.636089706420898438e+01 1.088506635278463364e-02 4.060756206512451172e+00 1.221492409706115723e+00 1.127208590507507324e+00
3.394000000000000000e+03 5.710664367675781250e+01 5.924532413482666016e+00 1.826765090227127075e-01 6.086736202239990234e+00 1.880823731422424316e+00 -3.934835791587829590e-01
3.395000000000000000e+03 6.768441772460937500e+01 2.480791664123535156e+01 1.362951278686523438e+00 3.355372905731201172e+00 1.415497303009033203e+00 -1.481113880872726440e-01
3.396000000000000000e+03 6.495846557617187500e+01 2.534986734390258789e+00 -4.134092330932617188e-01 3.598952054977416992e+00 9.556628465652465820e-01 3.448039889335632324e-01
3.397000000000000000e+03 6.419112396240234375e+01 1.566215753555297852e+00 -6.182127594947814941e-01 5.064309597015380859e+00 1.333829045295715332e+00 -1.403627842664718628e-01
3.398000000000000000e+03 2.960604858398437500e+01 -3.332540893554687500e+01 7.220635414123535156e-01 4.229532241821289062e+00 1.485478758811950684e+00 -9.988365769386291504e-01
3.399000000000000000e+03 2.464100837707519531e+01 6.530521392822265625e+00 2.554674386978149414e+00 3.929352045059204102e+00 1.945207953453063965e+00 1.278433017432689667e-02
3.400000000000000000e+03 2.944669151306152344e+01 3.323163223266601562e+01 3.116757571697235107e-01 3.417053461074829102e+00 1.118618726730346680e+00 -1.127780199050903320e+00
3.401000000000000000e+03 2.674473762512207031e+01 -2.631355857849121094e+01 -1.138436555862426758e+00 6.549982070922851562e+00 1.623463749885559082e+00 8.890769630670547485e-02
3.402000000000000000e+03 6.585348510742187500e+01 3.329319000244140625e+01 -1.183057576417922974e-01 5.446540832519531250e+00 1.598470568656921387e+00 6.218554973602294922e-01
3.403000000000000000e+03 1.854019737243652344e+01 2.170596313476562500e+01 1.320188283920288086e+00 2.469611883163452148e+00 1.136940002441406250e+00 9.982793033123016357e-02
3.404000000000000000e+03 5.181219863891601562e+01 2.285847854614257812e+01 2.446598112583160400e-01 4.834269046783447266e+00 1.523678660392761230e+00 -1.409135341644287109e+00
3.405000000000000000e+03 5.136338806152343750e+01 2.215082359313964844e+01 2.414362728595733643e-01 4.388817310333251953e+00 1.389075994491577148e+00 -1.444804787635803223e+00
3.406000000000000000e+03 3.270725250244140625e+01 -2.693357706069946289e+00 1.596682071685791016e+00 4.312300682067871094e+00 1.772694826126098633e+00 -6.278237104415893555e-01
3.407000000000000000e+03 1.538723945617675781e+01 -2.513499832153320312e+01 -2.183095693588256836e+00 4.361724853515625000e+00 6.535887122154235840e-01 2.482681274414062500e+00
3.408000000000000000e+03 2.014426231384277344e+01 -2.377085685729980469e+01 6.149726510047912598e-01 8.520131111145019531e-01 4.400957524776458740e-01 -9.297033548355102539e-01
3.409000000000000000e+03 7.384017944335937500e+01 3.429137706756591797e+00 -2.746786475181579590e-01 5.659708499908447266e+00 1.615508913993835449e+00 -3.630078434944152832e-01
3.410000000000000000e+03 7.301855468750000000e+01 2.923721790313720703e+00 -1.830877661705017090e-01 4.683522224426269531e+00 1.350130319595336914e+00 -1.019101366400718689e-01
3.411000000000000000e+03 7.041859436035156250e+01 2.800595045089721680e+00 2.968594133853912354e-01 2.422094583511352539e+00 8.156862258911132812e-01 1.492630839347839355e+00
3.412000000000000000e+03 3.217458724975585938e+01 2.918752288818359375e+01 6.774353981018066406e-01 6.240797042846679688e+00 2.075469732284545898e+00 -1.216590285301208496e+00
3.413000000000000000e+03 3.296117019653320312e+01 2.966494178771972656e+01 9.297563433647155762e-01 7.350049495697021484e+00 2.483941793441772461e+00 -1.122665166854858398e+00
3.414000000000000000e+03 1.377490806579589844e+01 -5.606887340545654297e+00 1.159168720245361328e+00 7.621471881866455078e+00 2.634192228317260742e+00 -4.668405950069427490e-01
3.415000000000000000e+03 6.724533843994140625e+01 3.287640762329101562e+01 2.416748404502868652e-01 5.248135566711425781e+00 1.646943211555480957e+00 8.815839290618896484e-01
3.416000000000000000e+03 1.297507286071777344e+01 -5.479391098022460938e+00 1.250434756278991699e+00 6.545670986175537109e+00 2.338831663131713867e+00 1.453341692686080933e-01
3.417000000000000000e+03 5.324700832366943359e+00 -2.901500129699707031e+01 4.147927165031433105e-01 2.188008308410644531e+00 7.808402776718139648e-01 -5.414777398109436035e-01
3.418000000000000000e+03 2.306615447998046875e+01 -2.154610443115234375e+01 2.272042036056518555e+00 2.255196332931518555e+00 1.358171463012695312e+00 -1.266650915145874023e+00
3.419000000000000000e+03 7.726170349121093750e+01 1.285274219512939453e+01 5.698837637901306152e-01 6.918634891510009766e+00 2.246555566787719727e+00 8.082140982151031494e-02
3.420000000000000000e+03 7.685208129882812500e+01 -3.392978286743164062e+01 1.137578338384628296e-01 6.986003398895263672e+00 2.129928350448608398e+00 -5.906609445810317993e-02
3.421000000000000000e+03 1.056169223785400391e+01 -2.851084136962890625e+01 9.075738787651062012e-01 2.216350793838500977e+00 9.371774196624755859e-01 8.961300849914550781e-01
3.422000000000000000e+03 1.270707225799560547e+01 -2.700795173645019531e+00 4.186868071556091309e-01 8.163411140441894531e+00 2.574629545211791992e+00 1.769360899925231934e+00
3.423000000000000000e+03 1.233671951293945312e+01 -2.477771043777465820e+00 7.588146328926086426e-01 7.174645423889160156e+00 2.380038022994995117e+00 2.185055255889892578e+00
3.424000000000000000e+03 1.238071155548095703e+01 -2.823282003402709961e+00 6.646483540534973145e-01 7.228351116180419922e+00 2.367899894714355469e+00 1.885453343391418457e+00
3.425000000000000000e+03 7.638328552246093750e+01 1.744874382019042969e+01 -2.632681131362915039e-01 7.506117343902587891e+00 2.172854900360107422e+00 7.765248417854309082e-01
3.426000000000000000e+03 4.428892517089843750e+01 -1.311612248420715332e+00 8.315980434417724609e-02 2.762805938720703125e+00 8.537897467613220215e-01 -2.103898286819458008e+00
3.427000000000000000e+03 6.873890686035156250e+01 2.659080505371093750e+01 1.516752243041992188e+00 3.991678953170776367e+00 1.652529358863830566e+00 -6.256937980651855469e-02
3.428000000000000000e+03 7.436191558837890625e+01 2.391685485839843750e+01 -2.724051177501678467e-01 6.338726520538330078e+00 1.819896459579467773e+00 -6.195060014724731445e-01
3.429000000000000000e+03 8.693520545959472656e+00 2.427078932523727417e-01 -1.349398136138916016e+00 3.032214008271694183e-03 -4.039098024368286133e-01 -6.712623685598373413e-02
3.430000000000000000e+03 9.817865371704101562e+00 5.504872798919677734e-01 -9.198288619518280029e-02 8.170238137245178223e-02 -3.084151307120919228e-03 -2.879229485988616943e-01
3.431000000000000000e+03 7.161246776580810547e+00 2.339046746492385864e-01 -1.584721684455871582e+00 -9.134142659604549408e-03 -4.781567454338073730e-01 1.102571561932563782e-02
3.432000000000000000e+03 4.625304698944091797e+00 2.889777123928070068e-01 -1.125278592109680176e+00 1.796552212908864021e-03 -3.370445966720581055e-01 8.796148002147674561e-02
3.433000000000000000e+03 3.754725217819213867e+00 2.685947120189666748e-01 -8.409193158149719238e-01 1.372592989355325699e-03 -2.518640160560607910e-01 9.460891038179397583e-02
3.434000000000000000e+03 2.926367521286010742e+00 2.631625533103942871e-01 -5.456444025039672852e-01 -7.840514183044433594e-03 -1.660454720258712769e-01 8.481873571872711182e-02
3.435000000000000000e+03 2.127670049667358398e+00 2.723321318626403809e-01 -2.641171813011169434e-01 5.445851013064384460e-03 -7.760140299797058105e-02 8.314447849988937378e-02
3.436000000000000000e+03 2.218181133270263672e+00 7.655605077743530273e-01 -3.057381212711334229e-01 -1.854141056537628174e-02 -9.728386253118515015e-02 2.077335417270660400e-01
3.437000000000000000e+03 1.100202798843383789e+00 1.125606417655944824e+00 -8.964043110609054565e-02 -1.155889630317687988e-01 -6.156881898641586304e-02 1.546485424041748047e-01
3.438000000000000000e+03 6.931994557380676270e-01 3.856063783168792725e-01 -2.713184058666229248e-02 -6.350665818899869919e-03 -1.004475168883800507e-02 1.306899264454841614e-02
3.439000000000000000e+03 3.887466788291931152e-01 9.569423198699951172e-01 -1.128125190734863281e-02 -4.947872087359428406e-02 -1.822799071669578552e-02 3.795685246586799622e-02
3.440000000000000000e+03 5.781003952026367188e+00 7.084670066833496094e-01 -1.120829701423645020e+00 3.948343545198440552e-02 -3.244038820266723633e-01 1.358138620853424072e-01
3.441000000000000000e+03 6.340057849884033203e+00 2.473020553588867188e-01 -1.536701083183288574e+00 1.396590843796730042e-02 -4.568205773830413818e-01 2.929265238344669342e-02
3.442000000000000000e+03 8.002328872680664062e+00 6.220018267631530762e-01 -9.793280363082885742e-01 5.131417512893676758e-02 -2.784041762351989746e-01 -1.421233266592025757e-01
3.443000000000000000e+03 7.942407131195068359e+00 2.139604389667510986e-01 -1.548837184906005859e+00 2.453479543328285217e-02 -4.572907090187072754e-01 -1.204631570726633072e-02
3.444000000000000000e+03 8.625327110290527344e+00 7.057957053184509277e-01 -6.242510080337524414e-01 3.960868343710899353e-02 -1.753926873207092285e-01 -2.110919207334518433e-01
3.445000000000000000e+03 9.674440383911132812e+00 1.478188782930374146e-01 -1.134949922561645508e+00 4.290547594428062439e-02 -3.276133239269256592e-01 -4.400052875280380249e-02
3.446000000000000000e+03 9.585026741027832031e+00 5.069413781166076660e-01 -3.844281435012817383e-01 1.404623389244079590e-01 -7.318974286317825317e-02 -3.145340085029602051e-01
3.447000000000000000e+03 9.729178428649902344e+00 9.271935820579528809e-01 5.069422125816345215e-01 2.423675730824470520e-02 1.593536883592605591e-01 -6.050586104393005371e-01
3.448000000000000000e+03 9.178325653076171875e+00 7.588088512420654297e-01 -2.855277359485626221e-01 7.036943733692169189e-02 -6.454748660326004028e-02 -3.884761929512023926e-01
3.449000000000000000e+03 9.546202659606933594e+00 7.513159513473510742e-01 4.218685254454612732e-02 9.633816778659820557e-02 4.155750572681427002e-02 -4.799022078514099121e-01
3.450000000000000000e+03 9.658329010009765625e+00 1.135874986648559570e+00 7.587395310401916504e-01 2.397211268544197083e-03 2.283410131931304932e-01 -7.386026978492736816e-01
3.451000000000000000e+03 9.204312324523925781e+00 1.162485718727111816e+00 4.349979758262634277e-01 2.169577032327651978e-01 1.955867111682891846e-01 -7.135883569717407227e-01
3.452000000000000000e+03 9.795917510986328125e+00 7.416434884071350098e-01 2.316060513257980347e-01 1.829336024820804596e-02 7.496982067823410034e-02 -3.643085062503814697e-01
3.453000000000000000e+03 9.800837516784667969e+00 3.656761646270751953e-01 -5.463064312934875488e-01 1.455183923244476318e-01 -1.202364116907119751e-01 -2.020145058631896973e-01
3.454000000000000000e+03 9.541524887084960938e+00 1.377694964408874512e+00 9.577491283416748047e-01 1.902561783790588379e-01 3.444015979766845703e-01 -9.872786998748779297e-01
3.455000000000000000e+03 9.268665313720703125e+00 3.618368208408355713e-01 -9.575130343437194824e-01 -3.291615843772888184e-02 -2.971287667751312256e-01 -1.037440299987792969e-01
3.456000000000000000e+03 8.612956047058105469e+00 1.223087906837463379e+00 2.259153500199317932e-02 1.880705058574676514e-01 6.319861114025115967e-02 -5.392097234725952148e-01
3.457000000000000000e+03 7.946456909179687500e+00 1.035202145576477051e+00 -4.122546613216400146e-01 1.387216299772262573e-01 -8.205991238355636597e-02 -2.833398282527923584e-01
3.458000000000000000e+03 3.744450569152832031e+00 7.627975940704345703e-01 -6.782940030097961426e-01 2.487406367436051369e-03 -2.027419805526733398e-01 2.470867037773132324e-01
3.459000000000000000e+03 2.157451152801513672e+00 1.253228306770324707e+00 -2.404769957065582275e-01 -9.349058568477630615e-02 -1.001902744174003601e-01 3.001838624477386475e-01
3.460000000000000000e+03 1.657777905464172363e+00 9.363725185394287109e-01 -1.807795166969299316e-01 -6.939816474914550781e-02 -7.505330443382263184e-02 1.932340413331985474e-01
3.461000000000000000e+03 5.495354175567626953e+00 2.683033943176269531e-01 -1.347565889358520508e+00 8.842792361974716187e-03 -4.016169309616088867e-01 7.315725088119506836e-02
3.462000000000000000e+03 6.309861183166503906e+00 1.072665810585021973e+00 -7.330219149589538574e-01 9.995284676551818848e-02 -1.899207085371017456e-01 6.896075606346130371e-02
3.463000000000000000e+03 5.387830734252929688e+00 9.692571759223937988e-01 -8.864808082580566406e-01 2.987545169889926910e-02 -2.569816112518310547e-01 1.870303899049758911e-01
3.464000000000000000e+03 6.975544452667236328e+00 1.289078593254089355e+00 -5.455774664878845215e-01 1.488823592662811279e-01 -1.190085262060165405e-01 -1.134184375405311584e-01
3.465000000000000000e+03 1.378027677536010742e+00 3.200071454048156738e-01 -7.817238569259643555e-02 -2.637311816215515137e-02 -3.136365115642547607e-02 4.217533767223358154e-02
3.466000000000000000e+03 2.902846813201904297e+00 1.252973556518554688e+00 -3.818625807762145996e-01 -2.911048009991645813e-02 -1.232919245958328247e-01 3.601158857345581055e-01
3.467000000000000000e+03 3.710217952728271484e+00 1.254202842712402344e+00 -5.205835700035095215e-01 1.476678345352411270e-02 -1.517450213432312012e-01 3.506733477115631104e-01
3.468000000000000000e+03 4.530282974243164062e+00 1.270731449127197266e+00 -6.064835786819458008e-01 6.205537170171737671e-02 -1.633284538984298706e-01 3.049710392951965332e-01
3.469000000000000000e+03 5.304078578948974609e+00 1.319573998451232910e+00 -6.428278684616088867e-01 8.876029402017593384e-02 -1.662202775478363037e-01 1.989324837923049927e-01
3.470000000000000000e+03 5.936791419982910156e+00 1.304061651229858398e+00 -6.701588630676269531e-01 1.359997838735580444e-01 -1.602477282285690308e-01 8.096958696842193604e-02
3.471000000000000000e+03 6.422771930694580078e+00 6.828411817550659180e-01 -1.158779025077819824e+00 3.469318896532058716e-02 -3.372257649898529053e-01 3.782918304204940796e-02
3.472000000000000000e+03 7.588127136230468750e+00 1.283737182617187500e+00 -3.738674819469451904e-01 2.005984187126159668e-01 -5.198072269558906555e-02 -3.070378601551055908e-01
3.473000000000000000e+03 7.083060264587402344e+00 9.077944755554199219e-01 -9.145570993423461914e-01 2.643490768969058990e-02 -2.664366662502288818e-01 -1.989936828613281250e-02
3.474000000000000000e+03 2.935497760772705078e+00 7.561360597610473633e-01 -4.615394771099090576e-01 -1.586247608065605164e-02 -1.432205885648727417e-01 2.418904751539230347e-01
3.475000000000000000e+03 7.438564777374267578e+00 6.540583372116088867e-01 -1.140433549880981445e+00 3.819107264280319214e-02 -3.306727409362792969e-01 -3.362419828772544861e-02
3.476000000000000000e+03 4.608318805694580078e+00 7.997091412544250488e-01 -8.730348944664001465e-01 2.750098705291748047e-02 -2.536601722240447998e-01 2.189786434173583984e-01
3.477000000000000000e+03 1.284161281585693359e+01 5.841858983039855957e-01 2.225252532958984375e+01 8.920266151428222656e+00 9.351837158203125000e+00 1.279750537872314453e+01
3.478000000000000000e+03 1.284935188293457031e+01 5.663210153579711914e-01 1.736041069030761719e+01 2.163042831420898438e+01 1.169725227355957031e+01 1.837390136718750000e+01
3.479000000000000000e+03 1.286042118072509766e+01 5.503047108650207520e-01 1.472803020477294922e+01 3.104375457763671875e+01 1.373153495788574219e+01 1.897833824157714844e+01
3.480000000000000000e+03 1.287439632415771484e+01 5.367499589920043945e-01 1.205734157562255859e+01 4.074373245239257812e+01 1.584032249450683594e+01 1.717988395690917969e+01
3.481000000000000000e+03 1.289074325561523438e+01 5.261754989624023438e-01 1.026224231719970703e+01 4.790075683593750000e+01 1.744890022277832031e+01 1.381802082061767578e+01
3.482000000000000000e+03 1.290883636474609375e+01 5.189859867095947266e-01 9.862203598022460938e+00 5.391223907470703125e+01 1.913233184814453125e+01 8.564061164855957031e+00
3.483000000000000000e+03 1.292798328399658203e+01 5.154565572738647461e-01 1.043194293975830078e+01 5.691317367553710938e+01 2.020353507995605469e+01 3.040988683700561523e+00
3.484000000000000000e+03 1.294745063781738281e+01 5.157223343849182129e-01 1.303012752532958984e+01 5.765623474121093750e+01 2.120590782165527344e+01 -2.744350433349609375e+00
3.485000000000000000e+03 1.296649360656738281e+01 5.197731256484985352e-01 1.687650871276855469e+01 5.609190368652343750e+01 2.189052391052246094e+01 -7.511739730834960938e+00
3.486000000000000000e+03 1.298438358306884766e+01 5.274538993835449219e-01 2.146597290039062500e+01 5.256892395019531250e+01 2.221046829223632812e+01 -1.099555778503417969e+01
3.487000000000000000e+03 1.300043582916259766e+01 5.384706854820251465e-01 2.678280639648437500e+01 4.843876647949218750e+01 2.256647109985351562e+01 -1.252316665649414062e+01
3.488000000000000000e+03 1.301403617858886719e+01 5.524019002914428711e-01 3.116111183166503906e+01 4.365301132202148438e+01 2.244423675537109375e+01 -1.247230529785156250e+01
3.489000000000000000e+03 1.302466392517089844e+01 5.687143802642822266e-01 3.539334106445312500e+01 4.003041076660156250e+01 2.262712478637695312e+01 -1.058992862701416016e+01
3.490000000000000000e+03 1.303191184997558594e+01 5.867838859558105469e-01 3.759741973876953125e+01 3.668105316162109375e+01 2.228354263305664062e+01 -8.007570266723632812e+00
3.491000000000000000e+03 1.303550338745117188e+01 6.059187650680541992e-01 3.913935470581054688e+01 3.569322586059570312e+01 2.244977378845214844e+01 -4.441126823425292969e+00
3.492000000000000000e+03 1.303530120849609375e+01 6.253868341445922852e-01 3.882285308837890625e+01 3.519603347778320312e+01 2.220566558837890625e+01 -1.050044059753417969e+00
3.493000000000000000e+03 1.303131294250488281e+01 6.444428563117980957e-01 3.747246170043945312e+01 3.660774993896484375e+01 2.222406196594238281e+01 2.071196794509887695e+00
3.494000000000000000e+03 1.302369022369384766e+01 6.623576879501342773e-01 3.525486373901367188e+01 3.944044113159179688e+01 2.240859222412109375e+01 4.330450057983398438e+00
3.495000000000000000e+03 1.301272583007812500e+01 6.784456968307495117e-01 3.165027046203613281e+01 4.267687606811523438e+01 2.229814338684082031e+01 5.754943370819091797e+00
3.496000000000000000e+03 1.299883937835693359e+01 6.920911669731140137e-01 2.832247924804687500e+01 4.679169082641601562e+01 2.253425025939941406e+01 5.536658763885498047e+00
3.497000000000000000e+03 1.298256206512451172e+01 7.027719616889953613e-01 2.448022842407226562e+01 5.067171096801757812e+01 2.254558181762695312e+01 3.864062309265136719e+00
3.498000000000000000e+03 1.296451568603515625e+01 7.100793123245239258e-01 2.126752471923828125e+01 5.393803024291992188e+01 2.256166648864746094e+01 5.325768589973449707e-01
3.499000000000000000e+03 1.294539356231689453e+01 7.137335538864135742e-01 1.903838348388671875e+01 5.553918838500976562e+01 2.237327194213867188e+01 -3.869476318359375000e+00
3.500000000000000000e+03 1.292592430114746094e+01 7.135947942733764648e-01 1.819478607177734375e+01 5.514071273803710938e+01 2.200065040588378906e+01 -9.273651123046875000e+00
3.501000000000000000e+03 1.290685558319091797e+01 7.096683382987976074e-01 1.916199493408203125e+01 5.255099868774414062e+01 2.151389694213867188e+01 -1.440664672851562500e+01
3.502000000000000000e+03 1.288891601562500000e+01 7.021045684814453125e-01 2.122077178955078125e+01 4.716291809082031250e+01 2.051510620117187500e+01 -1.910463142395019531e+01
3.503000000000000000e+03 1.287279224395751953e+01 6.911928057670593262e-01 2.428459548950195312e+01 4.043606948852539062e+01 1.941620063781738281e+01 -2.197773742675781250e+01
3.504000000000000000e+03 1.285910224914550781e+01 6.773507595062255859e-01 2.800286865234375000e+01 3.198206710815429688e+01 1.799548149108886719e+01 -2.300604248046875000e+01
3.505000000000000000e+03 1.284836769104003906e+01 6.611080765724182129e-01 3.070373344421386719e+01 2.318030929565429688e+01 1.616521263122558594e+01 -2.205456924438476562e+01
3.506000000000000000e+03 1.284100151062011719e+01 6.430864334106445312e-01 3.297566604614257812e+01 1.478799343109130859e+01 1.432909870147705078e+01 -1.864749336242675781e+01
3.507000000000000000e+03 1.283728504180908203e+01 6.239755153656005859e-01 3.308195877075195312e+01 7.217910766601562500e+00 1.208996105194091797e+01 -1.369399833679199219e+01
3.508000000000000000e+03 1.283735942840576172e+01 6.045066714286804199e-01 3.128101539611816406e+01 2.024031639099121094e+00 9.991514205932617188e+00 -3.601910591125488281e+00
