# el_label, x, y, sXX, sYY, sZZ, sXY
1.000000000000000000e+00 5.295402145385742188e+01 7.977571338415145874e-02 4.683949470520019531e+00 -2.470458984375000000e+00 6.640471816062927246e-01 5.331732034683227539e-01
2.000000000000000000e+00 5.276410675048828125e+01 2.018830738961696625e-02 2.099290609359741211e+00 1.942465424537658691e+00 1.212526798248291016e+00 1.867465972900390625e+00
3.000000000000000000e+00 5.257419586181640625e+01 -3.939909860491752625e-02 -1.587184190750122070e+00 -2.268578708171844482e-01 -5.442125797271728516e-01 6.071684956550598145e-01
4.000000000000000000e+00 5.238428497314453125e+01 -9.898650646209716797e-02 -3.812033414840698242e+00 6.099105477333068848e-01 -9.606368541717529297e-01 8.516968227922916412e-03
5.000000000000000000e+00 5.297687149047851562e+01 2.602722309529781342e-02 1.326014041900634766e+01 9.723665714263916016e-01 4.269752025604248047e+00 7.950415134429931641e+00
6.000000000000000000e+00 5.280219650268554688e+01 -6.939250975847244263e-02 3.902928829193115234e+00 2.813115596771240234e+00 2.014813423156738281e+00 4.312423229217529297e+00
7.000000000000000000e+00 5.262751770019531250e+01 -1.648122370243072510e-01 1.242698311805725098e+00 2.868075132369995117e+00 1.233232021331787109e+00 4.251871109008789062e+00
8.000000000000000000e+00 5.245283889770507812e+01 -2.602319717407226562e-01 -8.635957837104797363e-01 2.035629987716674805e+00 3.516102731227874756e-01 3.018681287765502930e+00
9.000000000000000000e+00 5.300975036621093750e+01 -2.224411815404891968e-02 1.332250595092773438e+01 9.086053848266601562e+00 6.722568035125732422e+00 1.390859889984130859e+01
1.000000000000000000e+01 5.285699081420898438e+01 -1.498447507619857788e-01 6.138255119323730469e+00 6.076561450958251953e+00 3.664444923400878906e+00 8.894712448120117188e+00
1.100000000000000000e+01 5.270423126220703125e+01 -2.774453759193420410e-01 2.340870618820190430e+00 5.915713310241699219e+00 2.476975202560424805e+00 6.778126716613769531e+00
1.200000000000000000e+01 5.255147171020507812e+01 -4.050459861755371094e-01 2.520030736923217773e-01 5.272521018981933594e+00 1.657357215881347656e+00 6.243063926696777344e+00
1.300000000000000000e+01 5.305139541625976562e+01 -6.319110840559005737e-02 1.107988262176513672e+01 1.747564125061035156e+01 8.566657066345214844e+00 1.721809005737304688e+01
1.400000000000000000e+01 5.292640304565429688e+01 -2.180897295475006104e-01 5.534158706665039062e+00 1.192115688323974609e+01 5.236594676971435547e+00 1.180588054656982422e+01
1.500000000000000000e+01 5.280140686035156250e+01 -3.729883432388305664e-01 2.264987945556640625e+00 1.007485675811767578e+01 3.701953411102294922e+00 9.798467636108398438e+00
1.600000000000000000e+01 5.267641067504882812e+01 -5.278869867324829102e-01 6.151412725448608398e-01 9.204664230346679688e+00 2.945941686630249023e+00 8.240675926208496094e+00
1.700000000000000000e+01 5.310021972656250000e+01 -9.524682164192199707e-02 7.987504005432128906e+00 2.601817893981933594e+01 1.020170497894287109e+01 1.745147323608398438e+01
1.800000000000000000e+01 5.300777053833007812e+01 -2.715159356594085693e-01 3.580393552780151367e+00 1.813345336914062500e+01 6.514153957366943359e+00 1.325001335144042969e+01
1.900000000000000000e+01 5.291532516479492188e+01 -4.477850198745727539e-01 1.325767874717712402e+00 1.505698585510253906e+01 4.914825916290283203e+00 1.097981071472167969e+01
2.000000000000000000e+01 5.282287597656250000e+01 -6.240541338920593262e-01 -3.653031885623931885e-01 1.361655616760253906e+01 3.975376129150390625e+00 9.847374916076660156e+00
2.100000000000000000e+01 5.315434646606445312e+01 -1.171845942735671997e-01 5.082608222961425781e+00 3.325033950805664062e+01 1.149988460540771484e+01 1.530085086822509766e+01
2.200000000000000000e+01 5.309798431396484375e+01 -3.080788850784301758e-01 1.624472260475158691e+00 2.381913948059082031e+01 7.633083343505859375e+00 1.263135337829589844e+01
2.300000000000000000e+01 5.304162216186523438e+01 -4.989731609821319580e-01 -3.030538558959960938e-01 2.004645347595214844e+01 5.923019886016845703e+00 1.082603836059570312e+01
2.400000000000000000e+01 5.298526000976562500e+01 -6.898674368858337402e-01 -1.171455502510070801e+00 1.766312408447265625e+01 4.947500228881835938e+00 9.905226707458496094e+00
2.500000000000000000e+01 5.321170806884765625e+01 -1.281649172306060791e-01 3.202128410339355469e+00 3.818795776367187500e+01 1.241702651977539062e+01 1.164210700988769531e+01
2.600000000000000000e+01 5.319358825683593750e+01 -3.263794183731079102e-01 5.045049786567687988e-01 2.847192382812500000e+01 8.692928314208984375e+00 1.031114768981933594e+01
2.700000000000000000e+01 5.317546844482421875e+01 -5.245939493179321289e-01 -1.734073638916015625e+00 2.386471557617187500e+01 6.639193058013916016e+00 9.486853599548339844e+00
2.800000000000000000e+01 5.315734863281250000e+01 -7.228084206581115723e-01 -1.969566702842712402e+00 2.121144104003906250e+01 5.772562026977539062e+00 8.419486999511718750e+00
2.900000000000000000e+01 5.327011108398437500e+01 -1.277676224708557129e-01 3.900447368621826172e+00 4.106494140625000000e+01 1.348961734771728516e+01 7.103861331939697266e+00
3.000000000000000000e+01 5.329092788696289062e+01 -3.257172405719757080e-01 -3.891555070877075195e-01 3.120908927917480469e+01 9.245980262756347656e+00 7.187762737274169922e+00
3.100000000000000000e+01 5.331174087524414062e+01 -5.236669182777404785e-01 -1.353619217872619629e+00 2.625578308105468750e+01 7.470649242401123047e+00 6.982307910919189453e+00
3.200000000000000000e+01 5.333255767822265625e+01 -7.216165065765380859e-01 -3.216118812561035156e+00 2.346115684509277344e+01 6.073511600494384766e+00 6.620209693908691406e+00
3.300000000000000000e+01 5.332732009887695312e+01 -1.160079017281532288e-01 5.024230003356933594e+00 4.117262268066406250e+01 1.385905551910400391e+01 2.634713649749755859e+00
3.400000000000000000e+01 5.338627243041992188e+01 -3.061177134513854980e-01 1.366262674331665039e+00 3.232705307006835938e+01 1.010799503326416016e+01 4.027229785919189453e+00
3.500000000000000000e+01 5.344522857666015625e+01 -4.962275326251983643e-01 -1.383304357528686523e+00 2.706792640686035156e+01 7.705387115478515625e+00 3.878462076187133789e+00
3.600000000000000000e+01 5.350418090820312500e+01 -6.863373517990112305e-01 -1.592594146728515625e+00 2.364778900146484375e+01 6.616558551788330078e+00 4.592863559722900391e+00
3.700000000000000000e+01 5.338114547729492188e+01 -9.333576261997222900e-02 8.790063858032226562e+00 4.018409729003906250e+01 1.469224834442138672e+01 -4.601926505565643311e-01
3.800000000000000000e+01 5.347598266601562500e+01 -2.683308124542236328e-01 3.034370899200439453e+00 3.119109535217285156e+01 1.026764011383056641e+01 7.473894357681274414e-01
3.900000000000000000e+01 5.357081985473632812e+01 -4.433258771896362305e-01 9.515315890312194824e-01 2.662748718261718750e+01 8.273705482482910156e+00 1.839958906173706055e+00
4.000000000000000000e+01 5.366565704345703125e+01 -6.183209419250488281e-01 -6.669667363166809082e-01 2.267528915405273438e+01 6.602497100830078125e+00 1.514186024665832520e+00
4.100000000000000000e+01 5.342952346801757812e+01 -6.061879917979240417e-02 1.219879436492919922e+01 3.695949554443359375e+01 1.474748706817626953e+01 -2.736590385437011719e+00
4.200000000000000000e+01 5.355661392211914062e+01 -2.138025462627410889e-01 6.550250053405761719e+00 2.977114868164062500e+01 1.089641952514648438e+01 -8.998855352401733398e-01
4.300000000000000000e+01 5.368370437622070312e+01 -3.669863045215606689e-01 3.271244287490844727e+00 2.404878616333007812e+01 8.196009635925292969e+00 -3.215225934982299805e-01
4.400000000000000000e+01 5.381079864501953125e+01 -5.201700329780578613e-01 1.415511131286621094e+00 2.145467185974121094e+01 6.861054897308349609e+00 6.941522359848022461e-01
4.500000000000000000e+01 5.347061157226562500e+01 -1.910900697112083435e-02 1.637676620483398438e+01 3.463379669189453125e+01 1.530316829681396484e+01 -2.984910488128662109e+00
4.600000000000000000e+01 5.362509155273437500e+01 -1.446195691823959351e-01 9.751585006713867188e+00 2.641331100463867188e+01 1.084946918487548828e+01 -1.885841369628906250e+00
4.700000000000000000e+01 5.377957153320312500e+01 -2.701300978660583496e-01 6.464060783386230469e+00 2.213160896301269531e+01 8.578701019287109375e+00 -8.238181471824645996e-01
4.800000000000000000e+01 5.393405532836914062e+01 -3.956406712532043457e-01 4.179000854492187500e+00 1.738536834716796875e+01 6.469310760498046875e+00 1.843041926622390747e-01
4.900000000000000000e+01 5.350283050537109375e+01 2.960516512393951416e-02 1.972434234619140625e+01 3.130163383483886719e+01 1.530779266357421875e+01 -2.129402637481689453e+00
5.000000000000000000e+01 5.367878723144531250e+01 -6.342927366495132446e-02 1.300627422332763672e+01 2.420265197753906250e+01 1.116267776489257812e+01 -1.344214558601379395e+00
5.100000000000000000e+01 5.385474777221679688e+01 -1.564637124538421631e-01 9.226641654968261719e+00 1.888906097412109375e+01 8.434710502624511719e+00 -3.430517613887786865e-01
5.200000000000000000e+01 5.403070831298828125e+01 -2.494981437921524048e-01 7.224554061889648438e+00 1.502256584167480469e+01 6.674136161804199219e+00 -1.992171816527843475e-02
5.300000000000000000e+01 5.352494812011718750e+01 8.365956693887710571e-02 2.190382957458496094e+01 2.923646926879882812e+01 1.534208965301513672e+01 -4.596487283706665039e-01
5.400000000000000000e+01 5.371565246582031250e+01 2.666139975190162659e-02 1.556757164001464844e+01 2.199598503112792969e+01 1.126906681060791016e+01 4.303647875785827637e-01
5.500000000000000000e+01 5.390635681152343750e+01 -3.033677302300930023e-02 1.161814022064208984e+01 1.666610336303710938e+01 8.485273361206054688e+00 7.755815982818603516e-01
5.600000000000000000e+01 5.409706115722656250e+01 -8.733493834733963013e-02 8.708060264587402344e+00 1.305942153930664062e+01 6.530244350433349609e+00 1.453002333641052246e+00
5.700000000000000000e+01 5.353611755371093750e+01 1.409856975078582764e-01 2.324444961547851562e+01 2.888739395141601562e+01 1.563955307006835938e+01 2.108888387680053711e+00
5.800000000000000000e+01 5.373427200317382812e+01 1.222049519419670105e-01 1.689724349975585938e+01 1.988595008850097656e+01 1.103495883941650391e+01 2.418618917465209961e+00
5.900000000000000000e+01 5.393242645263671875e+01 1.034241989254951477e-01 1.285202693939208984e+01 1.629072761535644531e+01 8.742826461791992188e+00 3.076969623565673828e+00
6.000000000000000000e+01 5.413057708740234375e+01 8.464345335960388184e-02 1.023950195312500000e+01 1.096491813659667969e+01 6.361326217651367188e+00 3.090268850326538086e+00
6.100000000000000000e+01 5.353591537475585938e+01 1.993898600339889526e-01 2.287513351440429688e+01 2.788729858398437500e+01 1.522873020172119141e+01 4.873915672302246094e+00
6.200000000000000000e+01 5.373393249511718750e+01 2.195452153682708740e-01 1.679739952087402344e+01 2.090826416015625000e+01 1.131169891357421875e+01 4.519844055175781250e+00
6.300000000000000000e+01 5.393195343017578125e+01 2.397005707025527954e-01 1.328503131866455078e+01 1.460296154022216797e+01 8.366397857666015625e+00 5.384182929992675781e+00
6.400000000000000000e+01 5.412997055053710938e+01 2.598559260368347168e-01 1.072336101531982422e+01 1.285362339019775391e+01 7.073095321655273438e+00 4.862929344177246094e+00
6.500000000000000000e+01 5.352434539794921875e+01 2.566370964050292969e-01 2.169674873352050781e+01 2.905794525146484375e+01 1.522640800476074219e+01 6.480061054229736328e+00
6.600000000000000000e+01 5.371465301513671875e+01 3.149572908878326416e-01 1.533017349243164062e+01 2.164728546142578125e+01 1.109323787689208984e+01 7.153604030609130859e+00
6.700000000000000000e+01 5.390495681762695312e+01 3.732774853706359863e-01 1.230793285369873047e+01 1.599207592010498047e+01 8.490002632141113281e+00 6.181751728057861328e+00
6.800000000000000000e+01 5.409526062011718750e+01 4.315976798534393311e-01 9.532294273376464844e+00 1.252923679351806641e+01 6.618459224700927734e+00 7.505823135375976562e+00
6.900000000000000000e+01 5.350185394287109375e+01 3.105367720127105713e-01 1.890249443054199219e+01 3.177212524414062500e+01 1.520238590240478516e+01 8.153535842895507812e+00
7.000000000000000000e+01 5.367716598510742188e+01 4.047900438308715820e-01 1.328472137451171875e+01 2.253540229797363281e+01 1.074603748321533203e+01 8.053924560546875000e+00
7.100000000000000000e+01 5.385247421264648438e+01 4.990433156490325928e-01 9.810723304748535156e+00 1.903973197937011719e+01 8.655137062072753906e+00 7.497787952423095703e+00
7.200000000000000000e+01 5.402778625488281250e+01 5.932965874671936035e-01 8.043018341064453125e+00 1.240243911743164062e+01 6.133637428283691406e+00 7.675239086151123047e+00
7.300000000000000000e+01 5.346929931640625000e+01 3.590261936187744141e-01 1.527020740509033203e+01 3.309027862548828125e+01 1.450814533233642578e+01 8.738743782043457031e+00
7.400000000000000000e+01 5.362290573120117188e+01 4.856057763099670410e-01 1.032607364654541016e+01 2.591420555114746094e+01 1.087208366394042969e+01 7.529858589172363281e+00
7.500000000000000000e+01 5.377651214599609375e+01 6.121853590011596680e-01 7.350696563720703125e+00 1.967966842651367188e+01 8.109108924865722656e+00 8.083644866943359375e+00
7.600000000000000000e+01 5.393011856079101562e+01 7.387650012969970703e-01 6.490644931793212891e+00 1.692865943908691406e+01 7.025791168212890625e+00 7.023906707763671875e+00
7.700000000000000000e+01 5.342792510986328125e+01 4.002498984336853027e-01 1.183755970001220703e+01 3.607324600219726562e+01 1.437324237823486328e+01 7.382891654968261719e+00
7.800000000000000000e+01 5.355395126342773438e+01 5.543119311332702637e-01 6.868711471557617188e+00 2.752749061584472656e+01 1.031886100769042969e+01 6.577264785766601562e+00
7.900000000000000000e+01 5.367997360229492188e+01 7.083740234375000000e-01 5.288917064666748047e+00 2.190077590942382812e+01 8.156908035278320312e+00 6.182620048522949219e+00
8.000000000000000000e+01 5.380599975585937500e+01 8.624360561370849609e-01 4.454266071319580078e+00 1.810274696350097656e+01 6.767104148864746094e+00 6.549694538116455078e+00
8.100000000000000000e+01 5.337932205200195312e+01 4.326303303241729736e-01 8.017185211181640625e+00 3.800828933715820312e+01 1.380764293670654297e+01 4.813274383544921875e+00
8.200000000000000000e+01 5.347293853759765625e+01 6.082793474197387695e-01 4.355874061584472656e+00 2.878066444396972656e+01 9.940961837768554688e+00 4.012177467346191406e+00
8.300000000000000000e+01 5.356655883789062500e+01 7.839283347129821777e-01 3.197485685348510742e+00 2.330076026916503906e+01 7.949473857879638672e+00 3.898375511169433594e+00
8.400000000000000000e+01 5.366017913818359375e+01 9.595773220062255859e-01 2.099801301956176758e+00 1.861331176757812500e+01 6.213933944702148438e+00 3.606153249740600586e+00
8.500000000000000000e+01 5.332534027099609375e+01 4.549283981323242188e-01 4.956312656402587891e+00 3.860997772216796875e+01 1.306988716125488281e+01 1.014284729957580566e+00
8.600000000000000000e+01 5.338297271728515625e+01 6.454427838325500488e-01 2.965239763259887695e+00 2.886521339416503906e+01 9.549136161804199219e+00 5.845246911048889160e-01
8.700000000000000000e+01 5.344060516357421875e+01 8.359571695327758789e-01 1.470965266227722168e+00 2.323888969421386719e+01 7.412956237792968750e+00 9.505261778831481934e-01
8.800000000000000000e+01 5.349823760986328125e+01 1.026471495628356934e+00 7.532870769500732422e-01 2.007149124145507812e+01 6.247433662414550781e+00 1.020363092422485352e+00
8.900000000000000000e+01 5.326805114746093750e+01 4.662908017635345459e-01 3.766642570495605469e+00 3.753524017333984375e+01 1.239056491851806641e+01 -3.648560047149658203e+00
9.000000000000000000e+01 5.328749084472656250e+01 6.643801331520080566e-01 2.271811008453369141e+00 2.727464866638183594e+01 8.863938331604003906e+00 -3.010370731353759766e+00
9.100000000000000000e+01 5.330693435668945312e+01 8.624694347381591797e-01 1.244148135185241699e+00 2.213630676269531250e+01 7.014136791229248047e+00 -2.095338821411132812e+00
9.200000000000000000e+01 5.332637405395507812e+01 1.060558795928955078e+00 5.249891281127929688e-01 1.901614952087402344e+01 5.862341403961181641e+00 -1.122349739074707031e+00
9.300000000000000000e+01 5.320964431762695312e+01 4.662827551364898682e-01 4.064916610717773438e+00 3.418062973022460938e+01 1.147366428375244141e+01 -8.266605377197265625e+00
9.400000000000000000e+01 5.319015121459960938e+01 6.643667221069335938e-01 2.933141946792602539e+00 2.428019142150878906e+01 8.164000511169433594e+00 -6.227838516235351562e+00
9.500000000000000000e+01 5.317065429687500000e+01 8.624506592750549316e-01 1.974223971366882324e+00 1.950281333923339844e+01 6.443111419677734375e+00 -4.666908264160156250e+00
9.600000000000000000e+01 5.315115737915039062e+01 1.060534596443176270e+00 1.407500386238098145e+00 1.625327301025390625e+01 5.298232078552246094e+00 -3.500755310058593750e+00
9.700000000000000000e+01 5.315235900878906250e+01 4.549045860767364502e-01 5.953010559082031250e+00 2.881934738159179688e+01 1.043170738220214844e+01 -1.194124221801757812e+01
9.800000000000000000e+01 5.309467315673828125e+01 6.454030871391296387e-01 4.493700027465820312e+00 1.995017242431640625e+01 7.333161354064941406e+00 -8.399706840515136719e+00
9.900000000000000000e+01 5.303698730468750000e+01 8.359015583992004395e-01 3.399019956588745117e+00 1.574564838409423828e+01 5.743400573730468750e+00 -6.543594360351562500e+00
1.000000000000000000e+02 5.297930526733398438e+01 1.026400089263916016e+00 2.766340255737304688e+00 1.308211231231689453e+01 4.754535675048828125e+00 -5.244928359985351562e+00
1.010000000000000000e+02 5.309838485717773438e+01 4.325916469097137451e-01 8.732374191284179688e+00 2.206932067871093750e+01 9.240508079528808594e+00 -1.373606777191162109e+01
1.020000000000000000e+02 5.300471496582031250e+01 6.082148551940917969e-01 6.462646961212158203e+00 1.480118370056152344e+01 6.379149436950683594e+00 -9.321797370910644531e+00
1.030000000000000000e+02 5.291104888916015625e+01 7.838380932807922363e-01 4.993443489074707031e+00 1.146935844421386719e+01 4.938840389251708984e+00 -7.155862808227539062e+00
1.040000000000000000e+02 5.281737899780273438e+01 9.594612717628479004e-01 4.158599376678466797e+00 9.596440315246582031e+00 4.126512050628662109e+00 -5.840901374816894531e+00
1.050000000000000000e+02 5.304978942871093750e+01 4.001978039741516113e-01 1.153028869628906250e+01 1.475158119201660156e+01 7.884560585021972656e+00 -1.337440490722656250e+01
1.060000000000000000e+02 5.292372131347656250e+01 5.542251467704772949e-01 8.011018753051757812e+00 9.604856491088867188e+00 5.284762382507324219e+00 -8.676951408386230469e+00
1.070000000000000000e+02 5.279765319824218750e+01 7.082524895668029785e-01 6.329319953918457031e+00 7.251427650451660156e+00 4.074223995208740234e+00 -6.589282035827636719e+00
1.080000000000000000e+02 5.267158508300781250e+01 8.622798323631286621e-01 5.164453506469726562e+00 5.860262870788574219e+00 3.307415008544921875e+00 -5.151133537292480469e+00
1.090000000000000000e+02 5.300842666625976562e+01 3.589627146720886230e-01 1.302473640441894531e+01 8.184760093688964844e+00 6.362849235534667969e+00 -1.084315681457519531e+01
1.100000000000000000e+02 5.285478591918945312e+01 4.855000078678131104e-01 8.627795219421386719e+00 4.829696655273437500e+00 4.037247657775878906e+00 -6.792800426483154297e+00
1.110000000000000000e+02 5.270114517211914062e+01 6.120372414588928223e-01 6.606775283813476562e+00 3.764794349670410156e+00 3.111470937728881836e+00 -4.778285980224609375e+00
1.120000000000000000e+02 5.254750442504882812e+01 7.385745048522949219e-01 5.490742683410644531e+00 2.870272159576416016e+00 2.508304357528686523e+00 -4.032797813415527344e+00
1.130000000000000000e+02 5.297588729858398438e+01 3.104643225669860840e-01 1.238860893249511719e+01 2.670591592788696289e+00 4.517760276794433594e+00 -6.882951259613037109e+00
1.140000000000000000e+02 5.280054855346679688e+01 4.046693146228790283e-01 7.384469985961914062e+00 1.626904606819152832e+00 2.703412294387817383e+00 -3.879078388214111328e+00
1.150000000000000000e+02 5.262521362304687500e+01 4.988743066787719727e-01 5.683774471282958984e+00 1.106402277946472168e+00 2.037053108215332031e+00 -2.743879079818725586e+00
1.160000000000000000e+02 5.244987487792968750e+01 5.930792689323425293e-01 4.430229187011718750e+00 1.379680991172790527e+00 1.742972970008850098e+00 -2.135827779769897461e+00
1.170000000000000000e+02 5.295340728759765625e+01 2.565584778785705566e-01 8.452030181884765625e+00 -3.120750784873962402e-01 2.441986560821533203e+00 -2.514152526855468750e+00
1.180000000000000000e+02 5.276308822631835938e+01 3.148262202739715576e-01 4.427692890167236328e+00 -5.623552799224853516e-01 1.159601211547851562e+00 -9.443141222000122070e-01
1.190000000000000000e+02 5.257276535034179688e+01 3.730939924716949463e-01 2.746593475341796875e+00 5.260809063911437988e-01 9.818023443222045898e-01 -7.985556125640869141e-01
1.200000000000000000e+02 5.238244247436523438e+01 4.313617646694183350e-01 2.692232608795166016e+00 2.184067964553833008e-01 8.731918334960937500e-01 -8.687679171562194824e-01
1.210000000000000000e+02 5.294185256958007812e+01 1.993080228567123413e-01 1.228120684623718262e+00 -2.094276666641235352e+00 -2.598468065261840820e-01 1.719701766967773438e+00
1.220000000000000000e+02 5.274383163452148438e+01 2.194088101387023926e-01 -1.471207022666931152e+00 -1.045158132910728455e-02 -4.444975852966308594e-01 4.078563451766967773e-01
1.230000000000000000e+02 5.254580688476562500e+01 2.395096123218536377e-01 7.036682218313217163e-02 1.135764941573143005e-01 5.518299341201782227e-02 -2.913063466548919678e-01
1.240000000000000000e+02 5.234778213500976562e+01 2.596104145050048828e-01 -2.228899598121643066e-01 -1.632441952824592590e-02 -7.176431268453598022e-02 9.587005525827407837e-02
1.250000000000000000e+02 5.294166564941406250e+01 1.409037709236145020e-01 -1.289819335937500000e+01 -1.101100325584411621e+00 -4.199788093566894531e+00 1.118583321571350098e+00
1.260000000000000000e+02 5.274351882934570312e+01 1.220683977007865906e-01 -4.423942565917968750e+00 3.723212480545043945e-01 -1.215486407279968262e+00 -9.034531116485595703e-01
1.270000000000000000e+02 5.254537200927734375e+01 1.032330244779586792e-01 -3.821716070175170898e+00 -1.987054347991943359e-01 -1.206126451492309570e+00 -2.230785638093948364e-01
1.280000000000000000e+02 5.234722137451171875e+01 8.439765125513076782e-02 -2.922240734100341797e+00 3.885974362492561340e-02 -8.650143146514892578e-01 -3.155005276203155518e-01
1.290000000000000000e+02 1.777486610412597656e+01 1.073900461196899414e+00 -6.823201775550842285e-01 4.318750500679016113e-01 -7.513353973627090454e-02 -4.354961588978767395e-02
1.300000000000000000e+02 1.792778015136718750e+01 4.714254438877105713e-01 -5.104778409004211426e-01 -2.883001565933227539e-01 -2.396333962678909302e-01 -1.081505697220563889e-02
1.310000000000000000e+02 1.644459342956542969e+01 1.723731011152267456e-01 -4.660880565643310547e-01 -2.278762012720108032e-01 -2.081892788410186768e-01 -7.786072790622711182e-02
1.320000000000000000e+02 1.848871994018554688e+01 6.747622489929199219e-01 -4.785971343517303467e-01 3.370026350021362305e-01 -4.247834905982017517e-02 1.682191528379917145e-02
1.330000000000000000e+02 1.726383209228515625e+01 2.464335858821868896e-01 -3.992463350296020508e-01 2.910546064376831055e-01 -3.245751559734344482e-02 -9.284751117229461670e-02
1.340000000000000000e+02 1.847787094116210938e+01 1.163098692893981934e+00 -6.795257329940795898e-01 -4.820957183837890625e-01 -3.484864234924316406e-01 -4.387534782290458679e-02
1.350000000000000000e+02 1.630637359619140625e+01 9.048026204109191895e-01 -5.540552735328674316e-01 2.177818417549133301e-01 -1.008820310235023499e-01 -1.169256195425987244e-01
1.360000000000000000e+02 1.839068794250488281e+01 1.810296177864074707e-01 -6.998823285102844238e-01 8.172196894884109497e-02 -1.854481101036071777e-01 -8.878673613071441650e-02
1.370000000000000000e+02 1.705963325500488281e+01 9.744657874107360840e-01 -6.670699119567871094e-01 -2.887768149375915527e-01 -2.867540121078491211e-01 -5.979272723197937012e-02
1.380000000000000000e+02 2.069370651245117188e+01 3.904900848865509033e-01 -9.015162587165832520e-01 7.130534648895263672e-01 -5.653883889317512512e-02 5.587396621704101562e-01
1.390000000000000000e+02 2.311314582824707031e+01 -1.502791643142700195e-01 -1.880224227905273438e+00 3.070754706859588623e-01 -4.719446599483489990e-01 2.824103645980358124e-02
1.400000000000000000e+02 2.569888687133789062e+01 -5.156913399696350098e-01 -3.469779729843139648e+00 4.764904379844665527e-01 -8.979868292808532715e-01 8.643988370895385742e-01
1.410000000000000000e+02 2.401404762268066406e+01 3.338841721415519714e-02 -1.159554123878479004e+00 9.389780759811401367e-01 -6.617281585931777954e-02 -3.930595815181732178e-01
1.420000000000000000e+02 2.763137626647949219e+01 -1.746285796165466309e+00 1.226382851600646973e+00 1.620633482933044434e+00 8.541048765182495117e-01 -8.790225982666015625e-01
1.430000000000000000e+02 2.771944427490234375e+01 -1.175511240959167480e+00 -2.697671890258789062e+00 -7.328805923461914062e-01 -1.029165744781494141e+00 1.209105134010314941e+00
1.440000000000000000e+02 2.848646163940429688e+01 -2.198873519897460938e+00 1.608628928661346436e-01 -7.337265610694885254e-01 -1.718591004610061646e-01 3.431478515267372131e-03
1.450000000000000000e+02 2.930397224426269531e+01 -2.423318624496459961e+00 -5.294156074523925781e-01 2.286992669105529785e-01 -9.021490067243576050e-02 1.414174735546112061e-01
1.460000000000000000e+02 1.982421684265136719e+01 3.275624811649322510e-01 -6.746479272842407227e-01 1.796509176492691040e-01 -1.484991014003753662e-01 -1.307594627141952515e-01
1.470000000000000000e+02 1.909939575195312500e+01 1.000163033604621887e-01 -3.461067378520965576e-01 9.335480630397796631e-02 -7.582557946443557739e-02 -1.035111472010612488e-01
1.480000000000000000e+02 1.978351783752441406e+01 -9.413920342922210693e-02 -4.034412652254104614e-02 -1.907664388418197632e-01 -6.933316588401794434e-02 -2.951602451503276825e-02
1.490000000000000000e+02 2.930961036682128906e+01 -1.660121440887451172e+00 -1.425032258033752441e+00 -3.961320817470550537e-01 -5.463493466377258301e-01 4.758583307266235352e-01
1.500000000000000000e+02 3.012296295166015625e+01 -2.638345956802368164e+00 -4.269361495971679688e-01 -6.981023550033569336e-01 -3.375115394592285156e-01 1.806678175926208496e-01
1.510000000000000000e+02 3.009844779968261719e+01 -1.867299437522888184e+00 -1.430410623550415039e+00 -2.348026633262634277e-02 -4.361672699451446533e-01 2.511194944381713867e-01
1.520000000000000000e+02 2.688036918640136719e+01 -8.299868702888488770e-01 -4.240657806396484375e+00 -2.242633104324340820e-01 -1.339476346969604492e+00 1.681082963943481445e+00
1.530000000000000000e+02 2.669494247436523438e+01 -1.065739393234252930e+00 2.568934917449951172e+00 6.699989438056945801e-01 9.716801643371582031e-01 -1.905771970748901367e+00
1.540000000000000000e+02 2.604942893981933594e+01 -5.149537920951843262e-01 -6.339915752410888672e+00 -9.321095943450927734e-01 -2.181607484817504883e+00 1.480099558830261230e+00
1.550000000000000000e+02 2.534797477722167969e+01 -2.902369797229766846e-01 -3.650225877761840820e+00 1.424562573432922363e+00 -6.676989197731018066e-01 1.004557728767395020e+00
1.560000000000000000e+02 2.502335357666015625e+01 -2.417187690734863281e-01 -1.383330821990966797e+01 -1.947862982749938965e+00 -4.734351158142089844e+00 5.382110595703125000e+00
1.570000000000000000e+02 2.246835899353027344e+01 1.378261744976043701e-01 -1.012868285179138184e+00 1.592552304267883301e+00 1.739052385091781616e-01 -4.891254603862762451e-01
1.580000000000000000e+02 2.035116004943847656e+01 -1.736120879650115967e-01 -8.316665887832641602e-03 1.131403207778930664e+00 3.369259834289550781e-01 -3.531955182552337646e-01
1.590000000000000000e+02 1.996188163757324219e+01 8.227458000183105469e-01 -1.078178644180297852e+00 -5.710514783859252930e-01 -4.947690069675445557e-01 1.212224923074245453e-02
1.600000000000000000e+02 1.914756202697753906e+01 5.841042995452880859e-01 -8.269211649894714355e-01 -1.193038895726203918e-01 -2.838675081729888916e-01 -4.189869761466979980e-02
1.610000000000000000e+02 1.921282958984375000e+01 1.082078099250793457e+00 -6.625961065292358398e-01 5.087285041809082031e-01 -4.616028070449829102e-02 1.665464937686920166e-01
1.620000000000000000e+02 2.161278152465820312e+01 8.425430953502655029e-02 -7.612006068229675293e-01 -1.039866209030151367e+00 -5.403200387954711914e-01 2.089263200759887695e-01
1.630000000000000000e+02 2.852224922180175781e+01 -1.443525433540344238e+00 -1.843752741813659668e+00 -2.181465476751327515e-01 -6.185697913169860840e-01 7.888385057449340820e-01
1.640000000000000000e+02 2.421053886413574219e+01 -1.071830093860626221e-01 -9.297332763671875000e+00 -3.824136555194854736e-01 -2.903923749923706055e+00 7.292417287826538086e-01
1.650000000000000000e+02 2.475981521606445312e+01 -1.221572384238243103e-01 -1.036418628692626953e+01 -2.758930206298828125e+00 -3.936935186386108398e+00 3.157129764556884766e+00
1.660000000000000000e+02 2.316209220886230469e+01 1.658043712377548218e-01 -1.516834974288940430e+00 -1.167716264724731445e+00 -8.053653836250305176e-01 9.797942042350769043e-01
1.670000000000000000e+02 3.171501731872558594e+01 -2.317536830902099609e+00 -7.404375076293945312e-01 -4.083642959594726562e-01 -3.446405529975891113e-01 -8.039906620979309082e-02
1.680000000000000000e+02 3.159167480468750000e+01 -1.573781251907348633e+00 -8.373008966445922852e-01 9.065223485231399536e-02 -2.239945977926254272e-01 -3.203843533992767334e-01
1.690000000000000000e+02 3.092625236511230469e+01 -2.603541374206542969e+00 -5.282871127128601074e-01 -1.408528685569763184e-01 -2.007420063018798828e-01 6.317339837551116943e-02
1.700000000000000000e+02 3.329127502441406250e+01 -1.721204519271850586e+00 -6.859384775161743164e-01 -3.077161610126495361e-01 -2.980963885784149170e-01 -2.458426803350448608e-01
1.710000000000000000e+02 3.305626296997070312e+01 -1.019069790840148926e+00 -8.160235285758972168e-01 4.762261360883712769e-02 -2.305202782154083252e-01 -3.905704617500305176e-01
1.720000000000000000e+02 3.232479095458984375e+01 -1.299670934677124023e+00 -8.145304322242736816e-01 -3.249611258506774902e-01 -3.418474793434143066e-01 -2.612499296665191650e-01
1.730000000000000000e+02 3.250396728515625000e+01 -2.022616147994995117e+00 -6.512125730514526367e-01 4.228515923023223877e-02 -1.826782226562500000e-01 -3.355638086795806885e-01
1.740000000000000000e+02 3.085874366760253906e+01 -1.838975429534912109e+00 -1.197023630142211914e+00 -4.476611614227294922e-01 -4.934054315090179443e-01 -7.756824046373367310e-02
1.750000000000000000e+02 3.381026458740234375e+01 -7.248246073722839355e-01 -8.807517290115356445e-01 -3.140407800674438477e-01 -3.584377467632293701e-01 -2.940365374088287354e-01
1.760000000000000000e+02 3.458703231811523438e+01 -4.199312925338745117e-01 -8.631911277770996094e-01 4.508777707815170288e-02 -2.454310059547424316e-01 -3.990952968597412109e-01
1.770000000000000000e+02 3.405215835571289062e+01 -1.424708485603332520e+00 -6.764137744903564453e-01 3.746270760893821716e-02 -1.916853189468383789e-01 -3.579998314380645752e-01
1.780000000000000000e+02 3.536509704589843750e+01 -1.194015666842460632e-01 -8.888136148452758789e-01 -2.726221978664398193e-01 -3.484307229518890381e-01 -2.827788293361663818e-01
1.790000000000000000e+02 3.691955184936523438e+01 4.870322942733764648e-01 -7.435412406921386719e-01 -1.952833086252212524e-01 -2.816473543643951416e-01 -2.131342291831970215e-01
1.800000000000000000e+02 3.769688415527343750e+01 7.879440784454345703e-01 -5.896496772766113281e-01 1.259651035070419312e-01 -1.391053646802902222e-01 -1.546056419610977173e-01
1.810000000000000000e+02 3.846224212646484375e+01 2.872591614723205566e-01 -6.371504664421081543e-01 2.443824410438537598e-01 -1.178304031491279602e-01 8.427590364590287209e-04
1.820000000000000000e+02 3.847284317016601562e+01 1.084994435310363770e+00 -3.970504105091094971e-01 -9.718824177980422974e-02 -1.482716053724288940e-01 -4.471387714147567749e-02
1.830000000000000000e+02 3.699311447143554688e+01 -2.780858278274536133e-01 -6.859588027000427246e-01 1.526597291231155396e-01 -1.599897146224975586e-01 -1.566185355186462402e-01
1.840000000000000000e+02 3.614285659790039062e+01 1.828823834657669067e-01 -8.148407936096191406e-01 5.926604568958282471e-02 -2.266724258661270142e-01 -3.184118866920471191e-01
1.850000000000000000e+02 3.478684234619140625e+01 -1.136123776435852051e+00 -7.364242076873779297e-01 -2.114669680595397949e-01 -2.843673527240753174e-01 -2.431671172380447388e-01
1.860000000000000000e+02 3.552282333374023438e+01 -8.519025444984436035e-01 -7.070687413215637207e-01 7.613357901573181152e-02 -1.892805546522140503e-01 -2.952991425991058350e-01
1.870000000000000000e+02 3.625850296020507812e+01 -5.659272074699401855e-01 -7.503053545951843262e-01 -1.040056049823760986e-01 -2.562932968139648438e-01 -1.697150468826293945e-01
1.880000000000000000e+02 3.772836685180664062e+01 6.517409812659025192e-03 -6.862592101097106934e-01 1.040139142423868179e-02 -2.027573436498641968e-01 -6.781394779682159424e-02
1.890000000000000000e+02 4.027894592285156250e+01 -2.541387975215911865e-01 -7.460002303123474121e-01 -1.662055775523185730e-02 -2.287862300872802734e-01 1.244840919971466064e-01
1.900000000000000000e+02 4.047003936767578125e+01 4.750773012638092041e-01 -7.168777585029602051e-01 2.359721437096595764e-02 -2.079841643571853638e-01 2.649610042572021484e-01
1.910000000000000000e+02 3.969956207275390625e+01 2.476016059517860413e-02 -6.886011958122253418e-01 2.248434722423553467e-01 -1.391273289918899536e-01 6.754824519157409668e-02
1.920000000000000000e+02 4.085557556152343750e+01 -5.415500402450561523e-01 -8.016965389251708984e-01 9.909656643867492676e-02 -2.107799947261810303e-01 1.296300590038299561e-01
1.930000000000000000e+02 4.111045455932617188e+01 1.569967120885848999e-01 -8.958492875099182129e-01 -1.845123916864395142e-01 -3.241084814071655273e-01 3.081561625003814697e-01
1.940000000000000000e+02 3.982687759399414062e+01 7.846456766128540039e-01 -5.582295060157775879e-01 -1.527841985225677490e-01 -2.133041024208068848e-01 1.558333337306976318e-01
1.950000000000000000e+02 3.911914825439453125e+01 2.937080264091491699e-01 -6.383318901062011719e-01 1.053297799080610275e-02 -1.883396655321121216e-01 3.523989766836166382e-02
1.960000000000000000e+02 3.918268203735351562e+01 1.084262847900390625e+00 -3.744824826717376709e-01 1.831385493278503418e-01 -5.740318074822425842e-02 7.336649298667907715e-02
1.970000000000000000e+02 4.250700378417968750e+01 -3.963981866836547852e-01 -1.087988018989562988e+00 -1.360074430704116821e-01 -3.671986460685729980e-01 3.452246785163879395e-01
1.980000000000000000e+02 4.151531600952148438e+01 -8.242236971855163574e-01 -8.403940796852111816e-01 -6.716363877058029175e-02 -2.722673118114471436e-01 1.892707049846649170e-01
1.990000000000000000e+02 4.375409698486328125e+01 -1.632939934730529785e+00 -9.006397724151611328e-01 -1.043268889188766479e-01 -3.014900088310241699e-01 2.115031182765960693e-01
2.000000000000000000e+02 4.300669479370117188e+01 -1.363770723342895508e+00 -9.608193635940551758e-01 -8.485448360443115234e-02 -3.137021362781524658e-01 2.200979888439178467e-01
2.010000000000000000e+02 4.394734954833984375e+01 -9.159503579139709473e-01 -1.310205459594726562e+00 -1.728193163871765137e-01 -4.449074268341064453e-01 3.466677069664001465e-01
2.020000000000000000e+02 4.178872680664062500e+01 -1.361862868070602417e-01 -1.022348284721374512e+00 -9.215272963047027588e-02 -3.343503177165985107e-01 3.446249067783355713e-01
2.030000000000000000e+02 4.322666549682617188e+01 -6.564318537712097168e-01 -1.150860786437988281e+00 -1.012915149331092834e-01 -3.756456971168518066e-01 3.819580376148223877e-01
2.040000000000000000e+02 4.226031494140625000e+01 -1.094086289405822754e+00 -8.932577371597290039e-01 -2.411819063127040863e-02 -2.752127945423126221e-01 2.368405461311340332e-01
2.050000000000000000e+02 4.469203567504882812e+01 -1.104038357734680176e+00 -1.383952736854553223e+00 -9.529425203800201416e-02 -4.437741041183471680e-01 2.587795257568359375e-01
2.060000000000000000e+02 4.700760269165039062e+01 -2.182412624359130859e+00 -1.246469140052795410e+00 -6.928938031196594238e-01 -5.818088650703430176e-01 -9.978325366973876953e-01
2.070000000000000000e+02 4.453843307495117188e+01 -1.829608321189880371e+00 -9.348022341728210449e-01 -2.395506203174591064e-01 -3.523058593273162842e-01 1.202485635876655579e-01
2.080000000000000000e+02 4.618450164794921875e+01 -2.070826292037963867e+00 -1.414491653442382812e+00 -3.631856739521026611e-01 -5.333032011985778809e-01 -5.212313532829284668e-01
2.090000000000000000e+02 4.700347900390625000e+01 -1.434312224388122559e+00 -2.861626625061035156e+00 -3.361700773239135742e-01 -9.593389630317687988e-01 -4.284755587577819824e-01
2.100000000000000000e+02 4.546185302734375000e+01 -1.219994664192199707e+00 -1.441293120384216309e+00 -1.070970818400382996e-01 -4.645170569419860840e-01 1.052128449082374573e-01
2.110000000000000000e+02 4.536082458496093750e+01 -1.953074812889099121e+00 -1.107580065727233887e+00 -2.108896672725677490e-01 -3.955409228801727295e-01 -3.858482837677001953e-02
2.120000000000000000e+02 4.623295593261718750e+01 -1.330235958099365234e+00 -1.796699047088623047e+00 -2.928631193935871124e-02 -5.477955937385559082e-01 -5.950542166829109192e-03
2.130000000000000000e+02 4.844709777832031250e+01 -1.236085414886474609e+00 -4.457523822784423828e+00 -4.825860857963562012e-01 -1.482033014297485352e+00 -1.471701741218566895e+00
2.140000000000000000e+02 4.774229049682617188e+01 -1.399104118347167969e+00 -3.831464290618896484e+00 -5.134102702140808105e-01 -1.303462386131286621e+00 -1.070092797279357910e+00
2.150000000000000000e+02 4.774854660034179688e+01 -2.156430006027221680e+00 -1.297713756561279297e+00 -8.972540497779846191e-01 -6.584903597831726074e-01 -1.123572468757629395e+00
2.160000000000000000e+02 5.028923034667968750e+01 -1.031085729598999023e+00 -4.246956348419189453e+00 -1.454208791255950928e-01 -1.317713260650634766e+00 -1.719338417053222656e+00
2.170000000000000000e+02 5.039028167724609375e+01 -1.599312424659729004e+00 -1.310652613639831543e+00 3.734079301357269287e-01 -2.811734080314636230e-01 -7.701289057731628418e-01
2.180000000000000000e+02 5.035121536254882812e+01 -1.835594177246093750e+00 -8.009353876113891602e-01 7.470654249191284180e-01 -1.616100408136844635e-02 -2.666680812835693359e-01
2.190000000000000000e+02 5.037556457519531250e+01 -1.395148158073425293e+00 -2.115624427795410156e+00 3.603530526161193848e-01 -5.265814065933227539e-01 -8.295772075653076172e-01
2.200000000000000000e+02 4.969239807128906250e+01 -1.100021481513977051e+00 -5.191099643707275391e+00 -6.900502443313598633e-01 -1.764344930648803711e+00 -1.926511406898498535e+00
2.210000000000000000e+02 5.004420089721679688e+01 -6.565489768981933594e-01 -7.517913818359375000e+00 -4.485417604446411133e-01 -2.389936685562133789e+00 -2.056398391723632812e+00
2.220000000000000000e+02 4.840504837036132812e+01 -2.004351615905761719e+00 -1.722778439521789551e+00 -7.620275616645812988e-01 -7.454417943954467773e-01 -1.326071023941040039e+00
2.230000000000000000e+02 5.021068572998046875e+01 -8.575401902198791504e-01 -5.663521289825439453e+00 -2.694858983159065247e-02 -1.707140922546386719e+00 -1.839752912521362305e+00
2.240000000000000000e+02 5.013953018188476562e+01 -1.363092422485351562e+00 -3.028020143508911133e+00 1.139054149389266968e-01 -8.742344379425048828e-01 -1.174499988555908203e+00
2.250000000000000000e+02 5.034367752075195312e+01 -1.215784430503845215e+00 -3.624106168746948242e+00 1.186329871416091919e-01 -1.051641941070556641e+00 -1.460523009300231934e+00
2.260000000000000000e+02 5.008061981201171875e+01 -1.672776341438293457e+00 -1.582781314849853516e+00 2.678398191928863525e-01 -3.944824337959289551e-01 -8.925998806953430176e-01
2.270000000000000000e+02 4.913293457031250000e+01 -1.093728065490722656e+00 -5.370570659637451172e+00 -5.362930893898010254e-01 -1.772059082984924316e+00 -1.738548994064331055e+00
2.280000000000000000e+02 4.904258346557617188e+01 -1.872934818267822266e+00 -1.487042427062988281e+00 -6.042267084121704102e-01 -6.273807287216186523e-01 -1.420687317848205566e+00
2.290000000000000000e+02 4.964006042480468750e+01 -1.771425247192382812e+00 -1.486477017402648926e+00 -2.023421823978424072e-01 -5.066457390785217285e-01 -1.027515649795532227e+00
2.300000000000000000e+02 5.004109954833984375e+01 -1.135610342025756836e+00 -4.151154994964599609e+00 4.192597046494483948e-02 -1.232768774032592773e+00 -1.657605290412902832e+00
2.310000000000000000e+02 5.042683792114257812e+01 -5.293962955474853516e-01 -8.653586387634277344e+00 -4.412111937999725342e-01 -2.728439331054687500e+00 -1.956088781356811523e+00
2.320000000000000000e+02 5.438607025146484375e+01 -5.512453913688659668e-01 3.037093639373779297e+00 7.854404926300048828e+00 3.267449617385864258e+00 7.601505517959594727e-01
2.330000000000000000e+02 5.398138809204101562e+01 1.063816547393798828e+00 3.424709558486938477e+00 1.318975162506103516e+01 4.984338283538818359e+00 5.769831180572509766e+00
2.340000000000000000e+02 5.422169494628906250e+01 6.866576075553894043e-01 8.568842887878417969e+00 1.053351116180419922e+01 5.730706214904785156e+00 8.337862968444824219e+00
2.350000000000000000e+02 5.372098541259765625e+01 1.122873187065124512e+00 1.638918876647949219e+00 1.663751792907714844e+01 5.482931137084960938e+00 3.155530691146850586e+00
2.360000000000000000e+02 5.335411834716796875e+01 1.216788768768310547e+00 3.819238841533660889e-01 1.788442230224609375e+01 5.479903697967529297e+00 -8.263443708419799805e-01
2.370000000000000000e+02 5.199827575683593750e+01 7.971366643905639648e-01 3.158929109573364258e+00 7.599062919616699219e-01 1.175650596618652344e+00 -1.531465291976928711e+00
2.380000000000000000e+02 5.268672561645507812e+01 1.107866048812866211e+00 3.775973796844482422e+00 7.631066322326660156e+00 3.422111988067626953e+00 -4.752072811126708984e+00
2.390000000000000000e+02 5.291640853881835938e+01 1.505597710609436035e+00 1.528698205947875977e+00 9.940284729003906250e+00 3.440694808959960938e+00 -2.725221157073974609e+00
2.400000000000000000e+02 5.450594329833984375e+01 -1.953037381172180176e-01 2.788992166519165039e+00 3.613467931747436523e+00 1.920737981796264648e+00 4.285089492797851562e+00
2.410000000000000000e+02 5.068657684326171875e+01 -1.770302414894104004e+00 -1.462352573871612549e-01 2.160645008087158203e+00 6.043229103088378906e-01 1.687316894531250000e-01
2.420000000000000000e+02 5.060659408569335938e+01 -1.363589286804199219e+00 -2.111310005187988281e+00 4.927689731121063232e-01 -4.855623543262481689e-01 -8.550155162811279297e-01
2.430000000000000000e+02 5.184153366088867188e+01 -5.160307288169860840e-01 -4.365882873535156250e+00 1.326839447021484375e+00 -9.117131233215332031e-01 7.700875997543334961e-01
2.440000000000000000e+02 5.182302474975585938e+01 -1.207039594650268555e+00 -9.939309358596801758e-01 4.801759243011474609e+00 1.142348527908325195e+00 3.019751071929931641e+00
2.450000000000000000e+02 5.322203063964843750e+01 -1.263710021972656250e+00 -2.503285646438598633e+00 1.914852714538574219e+01 4.993572235107421875e+00 7.371012687683105469e+00
2.460000000000000000e+02 5.295119476318359375e+01 -9.654788374900817871e-01 -2.123969316482543945e+00 1.709248924255371094e+01 4.490555763244628906e+00 8.638892173767089844e+00
2.470000000000000000e+02 5.272191619873046875e+01 -7.773239612579345703e-01 -4.703168570995330811e-01 1.253287696838378906e+01 3.618768215179443359e+00 8.715648651123046875e+00
2.480000000000000000e+02 5.226259994506835938e+01 -1.416043639183044434e+00 -2.249479144811630249e-01 9.988494873046875000e+00 2.929064035415649414e+00 5.111912250518798828e+00
2.490000000000000000e+02 5.081849288940429688e+01 -1.144363999366760254e+00 -2.931802749633789062e+00 6.430565118789672852e-01 -6.866238713264465332e-01 -6.900450587272644043e-01
2.500000000000000000e+02 5.106715774536132812e+01 -1.680659532546997070e+00 1.443852186203002930e-01 2.872222423553466797e+00 9.049822688102722168e-01 9.144071340560913086e-01
2.510000000000000000e+02 5.011952972412109375e+01 9.377243518829345703e-01 5.104153156280517578e-01 -3.101173415780067444e-02 1.438210606575012207e-01 -6.796319484710693359e-01
2.520000000000000000e+02 5.030844116210937500e+01 6.101383566856384277e-01 -2.352433837950229645e-02 -1.351108551025390625e-01 -4.759055748581886292e-02 -4.005152583122253418e-01
2.530000000000000000e+02 5.094658660888671875e+01 -1.702667921781539917e-01 -1.534011960029602051e+00 -2.398450486361980438e-02 -4.673989415168762207e-01 -2.987309992313385010e-01
2.540000000000000000e+02 5.114548110961914062e+01 6.424557566642761230e-01 7.098804712295532227e-01 -3.667608276009559631e-02 2.019613236188888550e-01 -3.107488453388214111e-01
2.550000000000000000e+02 5.220577239990234375e+01 1.094996452331542969e+00 3.886781215667724609e+00 2.304686546325683594e+00 1.857440352439880371e+00 -3.119257688522338867e+00
2.560000000000000000e+02 5.036938476562500000e+01 -2.842349112033843994e-01 -1.524269223213195801e+00 -1.239598318934440613e-01 -4.944687187671661377e-01 -2.881955504417419434e-01
2.570000000000000000e+02 5.056323242187500000e+01 -2.483671903610229492e-01 -1.521098613739013672e+00 -1.303925365209579468e-02 -4.602413773536682129e-01 -2.907396554946899414e-01
2.580000000000000000e+02 5.051388931274414062e+01 -4.638047516345977783e-02 -1.168892145156860352e+00 -7.690082490444183350e-02 -3.737378716468811035e-01 -2.152326554059982300e-01
2.590000000000000000e+02 5.028048706054687500e+01 1.307191401720046997e-01 -7.641869783401489258e-01 -8.761019259691238403e-02 -2.555391490459442139e-01 -1.611456871032714844e-01
2.600000000000000000e+02 5.041401672363281250e+01 3.927043676376342773e-01 -3.192598819732666016e-01 -6.579625606536865234e-02 -1.155168414115905762e-01 -2.201193273067474365e-01
2.610000000000000000e+02 5.014897918701171875e+01 7.232492566108703613e-01 3.096242621541023254e-02 -6.220530346035957336e-02 -9.372862987220287323e-03 -4.344640374183654785e-01
2.620000000000000000e+02 5.132269287109375000e+01 -6.360618025064468384e-02 -1.638293266296386719e+00 -2.554283477365970612e-02 -4.991508424282073975e-01 -2.679927945137023926e-01
2.630000000000000000e+02 5.172370529174804688e+01 2.397395111620426178e-02 -1.878885149955749512e+00 -5.309315770864486694e-02 -5.795934796333312988e-01 -2.275781780481338501e-01
2.640000000000000000e+02 5.103994369506835938e+01 9.214337915182113647e-02 -1.002034544944763184e+00 -5.849817022681236267e-02 -3.181597888469696045e-01 -1.521155685186386108e-01
2.650000000000000000e+02 5.214463806152343750e+01 6.813149154186248779e-02 -2.448196649551391602e+00 -3.366677835583686829e-02 -7.445590496063232422e-01 -2.081288546323776245e-01
2.660000000000000000e+02 5.217159652709960938e+01 4.973304271697998047e-01 2.086532115936279297e+00 1.536342054605484009e-01 6.720498800277709961e-01 -5.900580286979675293e-01
2.670000000000000000e+02 5.317197799682617188e+01 1.251902222633361816e+00 1.078993678092956543e+00 1.468009853363037109e+01 4.727727890014648438e+00 -2.268233060836791992e+00
2.680000000000000000e+02 5.213637542724609375e+01 2.858695983886718750e-01 4.366616532206535339e-02 -5.434198677539825439e-02 -3.202746389433741570e-03 -7.039415091276168823e-02
2.690000000000000000e+02 5.219086074829101562e+01 -1.618386507034301758e-01 -5.374598979949951172e+00 -5.609525740146636963e-02 -1.629208207130432129e+00 -4.564327001571655273e-01
2.700000000000000000e+02 5.179355239868164062e+01 -2.664945125579833984e-01 -7.374402046203613281e+00 -1.283228676766157150e-02 -2.216170310974121094e+00 -1.128758430480957031e+00
2.710000000000000000e+02 5.255636978149414062e+01 -6.798070073127746582e-01 -5.414097905158996582e-01 8.902513504028320312e+00 2.508331060409545898e+00 7.579260349273681641e+00
2.720000000000000000e+02 5.339315032958984375e+01 -9.350559115409851074e-01 -2.144372940063476562e+00 2.084607315063476562e+01 5.610509872436523438e+00 6.173963069915771484e+00
2.730000000000000000e+02 5.160208892822265625e+01 -1.229213714599609375e+00 -9.330238699913024902e-01 3.814450502395629883e+00 8.644280433654785156e-01 1.896957039833068848e+00
2.740000000000000000e+02 5.118618011474609375e+01 -3.776012957096099854e-01 -8.723434448242187500e+00 -2.648978531360626221e-01 -2.696499824523925781e+00 -1.692427635192871094e+00
2.750000000000000000e+02 5.047891616821289062e+01 -7.384923696517944336e-01 -6.606295108795166016e+00 -6.627658009529113770e-01 -2.180718183517456055e+00 -1.587746977806091309e+00
2.760000000000000000e+02 5.436706542968750000e+01 5.042253136634826660e-01 6.913743495941162109e+00 7.437787532806396484e+00 4.305459499359130859e+00 6.661554336547851562e+00
2.770000000000000000e+02 5.288336563110351562e+01 -8.449110984802246094e-01 -2.087950944900512695e+00 1.604958915710449219e+01 4.188491821289062500e+00 9.115658760070800781e+00
2.780000000000000000e+02 5.374588012695312500e+01 -7.485571503639221191e-01 -1.072916030883789062e+00 2.163706779479980469e+01 6.169245243072509766e+00 2.091322422027587891e+00
2.790000000000000000e+02 5.426016616821289062e+01 -4.443153142929077148e-01 4.623888015747070312e+00 1.155576705932617188e+01 4.853896617889404297e+00 -2.257104367017745972e-01
2.800000000000000000e+02 5.236306381225585938e+01 -1.054485440254211426e+00 -1.034400582313537598e+00 8.802532196044921875e+00 2.330439567565917969e+00 6.085297107696533203e+00
2.810000000000000000e+02 5.159246063232421875e+01 -3.147955834865570068e-01 -7.969936847686767578e+00 -1.342917531728744507e-01 -2.431268692016601562e+00 -1.419691443443298340e+00
2.820000000000000000e+02 5.435951614379882812e+01 2.867593429982662201e-02 7.662200927734375000e+00 3.750730752944946289e+00 3.423879384994506836e+00 3.795124053955078125e+00
2.830000000000000000e+02 5.205429840087890625e+01 -4.671755731105804443e-01 -3.367426156997680664e+00 1.691390872001647949e+00 -5.028105974197387695e-01 1.701388001441955566e+00
2.840000000000000000e+02 5.378482055664062500e+01 -8.576525449752807617e-01 -2.397545814514160156e+00 2.025497627258300781e+01 5.357229232788085938e+00 2.037447214126586914e+00
2.850000000000000000e+02 5.252688598632812500e+01 -1.130976796150207520e+00 -7.659425735473632812e-01 1.151583957672119141e+01 3.224969148635864258e+00 6.804778099060058594e+00
2.860000000000000000e+02 5.424192810058593750e+01 -1.433402448892593384e-01 7.500165462493896484e+00 1.005594730377197266e+01 5.266833782196044922e+00 6.021175980567932129e-01
2.870000000000000000e+02 5.239716339111328125e+01 1.183571696281433105e+00 3.838212490081787109e+00 4.208685874938964844e+00 2.414069414138793945e+00 -3.731880903244018555e+00
2.880000000000000000e+02 5.333578109741210938e+01 1.510840058326721191e+00 4.047823548316955566e-01 1.359478664398193359e+01 4.199870586395263672e+00 -1.143255114555358887e+00
2.890000000000000000e+02 5.149690628051757812e+01 1.232754230499267578e+00 2.444562435150146484e+00 5.738167762756347656e-01 9.055137634277343750e-01 -1.616714596748352051e+00
2.900000000000000000e+02 5.224171066284179688e+01 7.079415917396545410e-01 3.860411882400512695e+00 8.218894004821777344e-01 1.404690384864807129e+00 -1.960621714591979980e+00
2.910000000000000000e+02 5.249065399169921875e+01 1.439207434654235840e+00 2.923397779464721680e+00 5.579263687133789062e+00 2.550798416137695312e+00 -3.750916242599487305e+00
2.920000000000000000e+02 5.189794158935546875e+01 3.157865107059478760e-01 9.169514477252960205e-02 -2.976151742041110992e-02 1.858008839190006256e-02 -5.949901416897773743e-02
2.930000000000000000e+02 5.354408645629882812e+01 1.173335194587707520e+00 7.050337791442871094e-01 1.779226112365722656e+01 5.549188137054443359e+00 1.228230953216552734e+00
2.940000000000000000e+02 5.386298370361328125e+01 1.342959523200988770e+00 2.220609903335571289e+00 1.303016185760498047e+01 4.575231552124023438e+00 4.169457912445068359e+00
2.950000000000000000e+02 5.269109725952148438e+01 1.474160313606262207e+00 2.426593780517578125e+00 7.743735313415527344e+00 3.051098823547363281e+00 -4.169576168060302734e+00
2.960000000000000000e+02 5.443217468261718750e+01 7.734201550483703613e-01 7.016418457031250000e+00 7.226856231689453125e+00 4.272982597351074219e+00 7.207829952239990234e+00
2.970000000000000000e+02 5.247156524658203125e+01 -1.380771517753601074e+00 -1.033937692642211914e+00 1.171562385559082031e+01 3.204505681991577148e+00 6.255654335021972656e+00
2.980000000000000000e+02 5.267411041259765625e+01 -1.364329576492309570e+00 -9.060893654823303223e-01 1.444562911987304688e+01 4.061861991882324219e+00 6.990871906280517578e+00
2.990000000000000000e+02 5.062874603271484375e+01 -4.895203113555908203e-01 -8.797774314880371094e+00 -5.328220129013061523e-01 -2.799179077148437500e+00 -2.025909662246704102e+00
3.000000000000000000e+02 5.165678024291992188e+01 -1.529313802719116211e+00 1.512165069580078125e-01 4.990682601928710938e+00 1.542569756507873535e+00 2.694505929946899414e+00
3.010000000000000000e+02 5.286927032470703125e+01 -1.339823365211486816e+00 -1.900867581367492676e+00 1.611384010314941406e+01 4.263892173767089844e+00 7.331869602203369141e+00
3.020000000000000000e+02 5.305099487304687500e+01 -1.318594813346862793e+00 -1.956053495407104492e+00 1.741193771362304688e+01 4.636765003204345703e+00 7.515392303466796875e+00
3.030000000000000000e+02 5.100824737548828125e+01 -3.920530974864959717e-01 -9.071189880371093750e+00 -3.350855410099029541e-01 -2.821882486343383789e+00 -1.910169839859008789e+00
3.040000000000000000e+02 5.125753784179687500e+01 -1.624321579933166504e+00 1.551680713891983032e-01 3.105450868606567383e+00 9.781856536865234375e-01 1.322256088256835938e+00
3.050000000000000000e+02 5.076080322265625000e+01 -9.128613471984863281e-01 -4.713480472564697266e+00 -6.178825278766453266e-04 -1.414229393005371094e+00 -1.028810620307922363e+00
3.060000000000000000e+02 5.090164184570312500e+01 -6.429504752159118652e-01 -6.656790256500244141e+00 -1.686691492795944214e-01 -2.047637701034545898e+00 -1.463371396064758301e+00
3.070000000000000000e+02 5.138470840454101562e+01 -3.654205799102783203e-01 -8.393582344055175781e+00 -2.790401875972747803e-01 -2.601786851882934570e+00 -1.577877521514892578e+00
3.080000000000000000e+02 5.145616149902343750e+01 -1.573559761047363281e+00 1.930234581232070923e-01 4.349895954132080078e+00 1.362875819206237793e+00 1.886001706123352051e+00
3.090000000000000000e+02 5.087255477905273438e+01 2.153392694890499115e-02 -1.138411998748779297e+00 -5.690403282642364502e-02 -3.585948050022125244e-01 -1.935751736164093018e-01
3.100000000000000000e+02 5.151661300659179688e+01 -1.423875056207180023e-02 -1.733090996742248535e+00 -7.383494079113006592e-02 -5.420777797698974609e-01 -2.444190084934234619e-01
3.110000000000000000e+02 5.193514251708984375e+01 5.126021802425384521e-02 -2.100645065307617188e+00 -5.242476984858512878e-02 -6.459209918975830078e-01 -2.094200849533081055e-01
3.120000000000000000e+02 5.175917816162109375e+01 1.043590426445007324e+00 2.813139915466308594e+00 6.592119336128234863e-01 1.041705489158630371e+00 -1.663344264030456543e+00
3.130000000000000000e+02 5.169709014892578125e+01 1.266870021820068359e+00 2.863988161087036133e+00 9.527496695518493652e-01 1.145021319389343262e+00 -1.931957602500915527e+00
3.140000000000000000e+02 5.033363723754882812e+01 9.637730717658996582e-01 5.710727572441101074e-01 -2.075619399547576904e-01 1.090532466769218445e-01 -5.808711647987365723e-01
3.150000000000000000e+02 5.110857772827148438e+01 1.151590347290039062e+00 1.759114503860473633e+00 3.502922877669334412e-02 5.382431149482727051e-01 -1.066613316535949707e+00
3.160000000000000000e+02 5.072755813598632812e+01 1.061531901359558105e+00 1.142612814903259277e+00 -8.667878061532974243e-02 3.167802095413208008e-01 -8.531007766723632812e-01
3.170000000000000000e+02 5.210192489624023438e+01 1.340157747268676758e+00 3.168037652969360352e+00 2.706028223037719727e+00 1.762219786643981934e+00 -2.911482334136962891e+00
3.180000000000000000e+02 5.229625320434570312e+01 1.391074180603027344e+00 3.208120584487915039e+00 3.749216318130493164e+00 2.087201118469238281e+00 -3.630881786346435547e+00
3.190000000000000000e+02 5.226489257812500000e+01 -3.761160075664520264e-01 -2.383748531341552734e+00 2.255094289779663086e+00 -3.859625756740570068e-02 2.574657201766967773e+00
3.200000000000000000e+02 5.199322128295898438e+01 -2.190499156713485718e-01 -6.502598762512207031e+00 1.001675426959991455e-01 -1.920729398727416992e+00 -7.573584914207458496e-01
3.210000000000000000e+02 5.239256286621093750e+01 -5.540030002593994141e-01 -6.245290637016296387e-01 5.051116466522216797e+00 1.327976226806640625e+00 5.083903789520263672e+00
3.220000000000000000e+02 5.188055419921875000e+01 -7.448158264160156250e-01 -2.843115806579589844e+00 2.426207304000854492e+00 -1.250725388526916504e-01 2.128329277038574219e+00
3.230000000000000000e+02 5.116147994995117188e+01 -1.364405393600463867e+00 -1.130968689918518066e+00 2.278815746307373047e+00 3.443541228771209717e-01 5.802230238914489746e-01
3.240000000000000000e+02 5.052941131591796875e+01 -9.473463296890258789e-01 -4.513269424438476562e+00 -1.759172827005386353e-01 -1.406756043434143066e+00 -1.520131349563598633e+00
3.250000000000000000e+02 5.098718643188476562e+01 -8.543642163276672363e-01 -4.685077667236328125e+00 3.703400492668151855e-01 -1.294421315193176270e+00 -9.623911380767822266e-01
3.260000000000000000e+02 5.236641311645507812e+01 8.858198523521423340e-01 4.504407882690429688e+00 2.562756299972534180e+00 2.120149374008178711e+00 -3.142295122146606445e+00
3.270000000000000000e+02 5.091781997680664062e+01 1.107181549072265625e+00 1.455286145210266113e+00 4.360364284366369247e-03 4.378939270973205566e-01 -9.003424644470214844e-01
3.280000000000000000e+02 5.065222549438476562e+01 7.701716423034667969e-01 5.717111825942993164e-01 -1.635647267103195190e-01 1.224439293146133423e-01 -4.469946920871734619e-01
3.290000000000000000e+02 5.053310012817382812e+01 1.014518737792968750e+00 7.546558976173400879e-01 -3.314379975199699402e-02 2.164536416530609131e-01 -6.864333152770996094e-01
3.300000000000000000e+02 5.046001815795898438e+01 7.047389149665832520e-01 2.904325723648071289e-01 -7.743547856807708740e-02 6.389912962913513184e-02 -4.477197229862213135e-01
3.310000000000000000e+02 5.087866210937500000e+01 -1.731054186820983887e+00 2.076254971325397491e-02 1.884020566940307617e+00 5.714349150657653809e-01 4.516977071762084961e-01
3.320000000000000000e+02 5.075540542602539062e+01 -2.118046283721923828e-01 -1.535609126091003418e+00 -8.546349406242370605e-02 -4.863217771053314209e-01 -2.759747207164764404e-01
3.330000000000000000e+02 5.204201126098632812e+01 -9.735425710678100586e-01 -1.519710659980773926e+00 5.479844570159912109e+00 1.188040256500244141e+00 3.957305908203125000e+00
3.340000000000000000e+02 5.152215957641601562e+01 -9.336283206939697266e-01 -2.764164686203002930e+00 1.861741065979003906e+00 -2.707270979881286621e-01 1.024714112281799316e+00
3.350000000000000000e+02 5.106599044799804688e+01 -1.101458191871643066e+00 -2.880004167556762695e+00 9.355778098106384277e-01 -5.833278894424438477e-01 -1.550592333078384399e-01
3.360000000000000000e+02 5.109598159790039062e+01 -5.522164106369018555e-01 -7.137275218963623047e+00 -1.343429684638977051e-01 -2.181485414505004883e+00 -1.616916537284851074e+00
3.370000000000000000e+02 5.119448852539062500e+01 2.012828290462493896e-01 -6.140695214271545410e-01 -3.300692513585090637e-02 -1.941229403018951416e-01 -1.120244413614273071e-01
3.380000000000000000e+02 5.164829635620117188e+01 3.078922331333160400e-01 -4.651684686541557312e-02 -7.275361567735671997e-02 -3.578114137053489685e-02 -4.780381917953491211e-02
3.390000000000000000e+02 5.156079483032226562e+01 1.021968364715576172e+00 2.319721460342407227e+00 3.385940492153167725e-01 7.974946498870849609e-01 -1.180204033851623535e+00
3.400000000000000000e+02 5.080012130737304688e+01 1.834364086389541626e-01 -7.391229271888732910e-01 -2.398191951215267181e-02 -2.289314568042755127e-01 -1.287955194711685181e-01
3.410000000000000000e+02 5.145826339721679688e+01 7.716025710105895996e-01 1.694930553436279297e+00 5.724171921610832214e-02 5.256516933441162109e-01 -7.201707959175109863e-01
3.420000000000000000e+02 5.070502853393554688e+01 3.093640804290771484e-01 -3.717997372150421143e-01 -7.059907168149948120e-02 -1.327196359634399414e-01 -1.783442944288253784e-01
3.430000000000000000e+02 5.069649124145507812e+01 -1.894991099834442139e-02 -1.158504128456115723e+00 -1.203106530010700226e-02 -3.511605560779571533e-01 -2.206654548645019531e-01
3.440000000000000000e+02 5.193140029907226562e+01 5.632358789443969727e-01 1.813502430915832520e+00 4.585319384932518005e-02 5.578066706657409668e-01 -5.841934680938720703e-01
3.450000000000000000e+02 5.138213729858398438e+01 -1.292143225669860840e+00 -1.190609455108642578e+00 2.506572008132934570e+00 3.947887420654296875e-01 1.274062156677246094e+00
3.460000000000000000e+02 5.097580718994140625e+01 5.771584510803222656e-01 3.989939093589782715e-01 -1.094812080264091492e-01 8.685380965471267700e-02 -3.004160523414611816e-01
3.470000000000000000e+02 5.120932006835937500e+01 -7.518551349639892578e-01 -5.105781555175781250e+00 4.326568543910980225e-01 -1.401937484741210938e+00 -6.745063662528991699e-01
3.480000000000000000e+02 5.133360290527343750e+01 5.255705118179321289e-01 5.124739408493041992e-01 -1.230030432343482971e-01 1.168412640690803528e-01 -2.608903646469116211e-01
3.490000000000000000e+02 5.017274475097656250e+01 5.383837819099426270e-01 -2.400877028703689575e-01 -1.114824786782264709e-01 -1.054710596799850464e-01 -3.136797845363616943e-01
3.500000000000000000e+02 5.023139572143554688e+01 3.399093449115753174e-01 -5.284011960029602051e-01 -1.155999898910522461e-01 -1.932003647089004517e-01 -2.438055425882339478e-01
3.510000000000000000e+02 5.084278106689453125e+01 8.237528800964355469e-01 8.536431789398193359e-01 -6.669744849205017090e-02 2.360837310552597046e-01 -5.274213552474975586e-01
3.520000000000000000e+02 5.119368743896484375e+01 9.340252876281738281e-01 1.515094637870788574e+00 4.232749715447425842e-02 4.672266542911529541e-01 -8.001316189765930176e-01
3.530000000000000000e+02 5.047427368164062500e+01 1.679717004299163818e-01 -7.414793372154235840e-01 -8.277101814746856689e-02 -2.472751140594482422e-01 -2.031040340662002563e-01
3.540000000000000000e+02 5.032429504394531250e+01 -7.819340378046035767e-02 -1.166681408882141113e+00 -1.029394865036010742e-01 -3.808862864971160889e-01 -2.512051165103912354e-01
3.550000000000000000e+02 5.137521362304687500e+01 9.816024899482727051e-01 1.885583162307739258e+00 1.848265528678894043e-01 6.211228966712951660e-01 -9.926784634590148926e-01
3.560000000000000000e+02 5.130150985717773438e+01 1.193738222122192383e+00 2.028685331344604492e+00 3.100188076496124268e-01 7.016112208366394043e-01 -1.220142006874084473e+00
3.570000000000000000e+02 5.198371887207031250e+01 1.047337293624877930e+00 3.386530637741088867e+00 1.272453904151916504e+00 1.397695302963256836e+00 -2.141967773437500000e+00
3.580000000000000000e+02 5.113623428344726562e+01 -1.196907982230186462e-01 -1.577076435089111328e+00 -9.502504020929336548e-02 -5.016304254531860352e-01 -2.572330534458160400e-01
3.590000000000000000e+02 5.139639663696289062e+01 2.768727540969848633e-01 -3.293550610542297363e-01 -4.059291630983352661e-02 -1.109843924641609192e-01 -7.453678548336029053e-02
3.600000000000000000e+02 5.082508850097656250e+01 -4.441077113151550293e-01 -8.978408813476562500e+00 -3.604800403118133545e-01 -2.801666736602783203e+00 -2.079436540603637695e+00
3.610000000000000000e+02 5.069456863403320312e+01 -6.991826891899108887e-01 -6.534420013427734375e+00 -2.192716747522354126e-01 -2.026107549667358398e+00 -1.674913763999938965e+00
3.620000000000000000e+02 5.057392883300781250e+01 -1.157339096069335938e+00 -3.293934106826782227e+00 2.105268090963363647e-01 -9.250221848487854004e-01 -1.133388876914978027e+00
3.630000000000000000e+02 5.064134979248046875e+01 -1.566600918769836426e+00 -1.128514409065246582e+00 1.156335711479187012e+00 8.346405811607837677e-03 -3.923503458499908447e-01
3.640000000000000000e+02 5.082457733154296875e+01 -1.538450479507446289e+00 -9.241052865982055664e-01 1.844970583915710449e+00 2.762596011161804199e-01 2.545466460287570953e-02
3.650000000000000000e+02 5.098155212402343750e+01 -1.464474201202392578e+00 -1.081584334373474121e+00 1.525236725807189941e+00 1.330957263708114624e-01 3.071564733982086182e-01
3.660000000000000000e+02 5.142971420288085938e+01 -6.517100930213928223e-01 -5.177734375000000000e+00 5.675879120826721191e-01 -1.383043885231018066e+00 -4.149249494075775146e-01
3.670000000000000000e+02 5.185689163208007812e+01 -1.494130969047546387e+00 3.483275473117828369e-01 6.888050079345703125e+00 2.170913219451904297e+00 3.117612123489379883e+00
3.680000000000000000e+02 5.205698013305664062e+01 -1.462397098541259766e+00 -3.679189085960388184e-01 8.013646125793457031e+00 2.293718099594116211e+00 4.236469268798828125e+00
3.690000000000000000e+02 5.203153991699218750e+01 -1.208758831024169922e+00 -3.721120655536651611e-01 6.920550346374511719e+00 1.964531540870666504e+00 4.074355125427246094e+00
3.700000000000000000e+02 5.262095642089843750e+01 -9.303059577941894531e-01 -1.427202820777893066e+00 1.175617980957031250e+01 3.098693132400512695e+00 7.848347187042236328e+00
3.710000000000000000e+02 5.344095230102539062e+01 -1.185167074203491211e+00 -3.566152095794677734e+00 1.862692642211914062e+01 4.518232345581054688e+00 6.184514522552490234e+00
3.720000000000000000e+02 5.383731842041015625e+01 -1.026179313659667969e+00 -1.362471222877502441e+00 1.849846076965332031e+01 5.140796661376953125e+00 3.354961633682250977e+00
3.730000000000000000e+02 5.163893127441406250e+01 -5.789400935173034668e-01 -5.035830974578857422e+00 7.843523025512695312e-01 -1.275443673133850098e+00 1.387958526611328125e-01
3.740000000000000000e+02 5.190122222900390625e+01 1.298977732658386230e+00 3.195444822311401367e+00 1.706092476844787598e+00 1.470461249351501465e+00 -2.555323123931884766e+00
3.750000000000000000e+02 5.274876785278320312e+01 1.258312225341796875e+00 3.041060447692871094e+00 8.216597557067871094e+00 3.377297401428222656e+00 -4.345717430114746094e+00
3.760000000000000000e+02 5.227426910400390625e+01 -7.617162466049194336e-01 -1.362609267234802246e+00 5.597777366638183594e+00 1.270550489425659180e+00 4.885352134704589844e+00
3.770000000000000000e+02 5.291315078735351562e+01 -1.150190472602844238e+00 -2.139707803726196289e+00 1.677241516113281250e+01 4.389812469482421875e+00 8.226479530334472656e+00
3.780000000000000000e+02 5.272084426879882812e+01 -1.153445720672607422e+00 -1.805554032325744629e+00 1.405368137359619141e+01 3.674438238143920898e+00 7.654738426208496094e+00
3.790000000000000000e+02 5.315176391601562500e+01 -9.467630982398986816e-01 -2.907778024673461914e+00 1.917253303527832031e+01 4.879426479339599609e+00 8.416233062744140625e+00
3.800000000000000000e+02 5.310422134399414062e+01 -1.154607534408569336e+00 -3.124638795852661133e+00 1.824423789978027344e+01 4.535879611968994141e+00 7.419655323028564453e+00
3.810000000000000000e+02 5.362345886230468750e+01 1.267272591590881348e+00 1.100224256515502930e+00 1.632436561584472656e+01 5.227376937866210938e+00 1.969753742218017578e+00
3.820000000000000000e+02 5.297005081176757812e+01 1.256667017936706543e+00 1.890963435173034668e+00 1.196586799621582031e+01 4.157049179077148438e+00 -3.831471920013427734e+00
3.830000000000000000e+02 5.256770324707031250e+01 1.253529667854309082e+00 3.442178726196289062e+00 5.859753608703613281e+00 2.790579795837402344e+00 -4.401470184326171875e+00
3.840000000000000000e+02 5.335723495483398438e+01 1.340214133262634277e+00 4.878225922584533691e-01 1.589612960815429688e+01 4.915185451507568359e+00 -8.028296232223510742e-01
3.850000000000000000e+02 5.416377639770507812e+01 9.006010890007019043e-01 5.474485874176025391e+00 1.019830894470214844e+01 4.701838493347167969e+00 6.623042106628417969e+00
3.860000000000000000e+02 5.427285766601562500e+01 4.862786456942558289e-02 7.568655014038085938e+00 9.545365333557128906e+00 5.134206295013427734e+00 4.245236396789550781e+00
3.870000000000000000e+02 5.446255493164062500e+01 2.904774546623229980e-01 5.855535030364990234e+00 4.552187442779541016e+00 3.122316837310791016e+00 4.740143775939941406e+00
3.880000000000000000e+02 5.429084396362304688e+01 1.986344456672668457e-01 1.105763149261474609e+01 7.535311222076416016e+00 5.577882766723632812e+00 3.316406488418579102e+00
3.890000000000000000e+02 5.415645980834960938e+01 -3.571380078792572021e-01 5.650317668914794922e+00 1.162533855438232422e+01 5.182696819305419922e+00 6.031923294067382812e-01
3.900000000000000000e+02 5.435322570800781250e+01 -1.859321892261505127e-01 5.801604270935058594e+00 9.478229522705078125e+00 4.583950042724609375e+00 2.981646299362182617e+00
3.910000000000000000e+02 5.403310012817382812e+01 -5.174406170845031738e-01 2.995298862457275391e+00 1.597579002380371094e+01 5.691326618194580078e+00 1.785462975502014160e+00
3.920000000000000000e+02 5.390208816528320312e+01 -6.335576772689819336e-01 3.579141795635223389e-01 1.937331581115722656e+01 5.919369220733642578e+00 7.413748502731323242e-01
3.930000000000000000e+02 5.398678970336914062e+01 -6.846680045127868652e-01 2.639378309249877930e-01 1.782200813293457031e+01 5.425784111022949219e+00 1.614493370056152344e+00
3.940000000000000000e+02 5.359230804443359375e+01 -8.519232869148254395e-01 -2.339726924896240234e+00 2.072853851318359375e+01 5.516643524169921875e+00 3.360184431076049805e+00
3.950000000000000000e+02 5.278105926513671875e+01 -9.805482029914855957e-01 -1.229932665824890137e+00 1.408796310424804688e+01 3.857409000396728516e+00 8.370196342468261719e+00
3.960000000000000000e+02 5.253100204467773438e+01 1.012127637863159180e+00 4.596827507019042969e+00 4.804637908935546875e+00 2.820439577102661133e+00 -4.545692443847656250e+00
3.970000000000000000e+02 5.414003372192382812e+01 -7.424235343933105469e-01 8.102627396583557129e-01 1.228442192077636719e+01 3.928405523300170898e+00 2.747123718261718750e+00
3.980000000000000000e+02 5.207457733154296875e+01 -7.254672646522521973e-01 -1.839326977729797363e+00 3.707597494125366211e+00 5.604811906814575195e-01 3.407758951187133789e+00
3.990000000000000000e+02 5.446852874755859375e+01 4.510601609945297241e-02 1.103631782531738281e+01 5.283732891082763672e+00 4.896015167236328125e+00 3.769004583358764648e+00
4.000000000000000000e+02 5.058781814575195312e+01 4.737183153629302979e-01 -1.206876784563064575e-01 -1.180291175842285156e-01 -7.161504030227661133e-02 -2.753359973430633545e-01
4.010000000000000000e+02 5.101895141601562500e+01 8.785792589187622070e-01 1.182291269302368164e+00 -1.187562718987464905e-01 3.190604746341705322e-01 -6.779333353042602539e-01
4.020000000000000000e+02 5.172740173339843750e+01 6.637631058692932129e-01 1.797553420066833496e+00 1.513802409172058105e-01 5.846800804138183594e-01 -5.982735753059387207e-01
4.030000000000000000e+02 5.178489303588867188e+01 8.375207185745239258e-01 2.502424955368041992e+00 3.044510781764984131e-01 8.420627713203430176e-01 -1.112596392631530762e+00
4.040000000000000000e+02 5.129854965209960938e+01 -1.016894936561584473e+00 -2.699707508087158203e+00 1.656572699546813965e+00 -3.129404783248901367e-01 2.703651189804077148e-01
4.050000000000000000e+02 5.245372009277343750e+01 -8.518892526626586914e-01 -5.978601574897766113e-01 9.023693084716796875e+00 2.527749776840209961e+00 6.714841365814208984e+00
4.060000000000000000e+02 5.221471405029296875e+01 -9.858524799346923828e-01 -8.926603198051452637e-01 6.851837158203125000e+00 1.787753105163574219e+00 5.133556365966796875e+00
4.070000000000000000e+02 5.222346115112304688e+01 -1.181195735931396484e+00 -8.962296247482299805e-01 8.445157051086425781e+00 2.264678239822387695e+00 5.121739864349365234e+00
4.080000000000000000e+02 5.460951995849609375e+01 6.683617830276489258e-02 7.399557590484619141e+00 2.480290412902832031e+00 2.963954448699951172e+00 3.891556262969970703e+00
4.090000000000000000e+02 5.171181488037109375e+01 -8.252907991409301758e-01 -2.759925365447998047e+00 2.306571245193481445e+00 -1.360062360763549805e-01 1.378628849983215332e+00
4.100000000000000000e+02 5.155957412719726562e+01 5.582031011581420898e-01 9.940934181213378906e-01 -2.018082141876220703e-02 2.921737730503082275e-01 -3.268401324748992920e-01
4.110000000000000000e+02 5.161929702758789062e+01 8.271117210388183594e-01 1.947268605232238770e+00 1.928087919950485229e-01 6.420232057571411133e-01 -9.667202234268188477e-01
4.120000000000000000e+02 5.081997680664062500e+01 -1.356610059738159180e+00 -1.843190312385559082e+00 1.190438628196716309e+00 -1.958255320787429810e-01 -3.650654256343841553e-01
4.130000000000000000e+02 5.065285110473632812e+01 1.700646281242370605e-01 -7.404564023017883301e-01 -6.900821626186370850e-02 -2.428393959999084473e-01 -1.558383256196975708e-01
4.140000000000000000e+02 5.092832946777343750e+01 2.505276799201965332e-01 -5.842162370681762695e-01 -6.673736125230789185e-02 -1.952860802412033081e-01 -1.331139355897903442e-01
4.150000000000000000e+02 5.076785278320312500e+01 5.494384765625000000e-01 1.329585760831832886e-01 -7.932973653078079224e-02 1.608864963054656982e-02 -3.108030259609222412e-01
4.160000000000000000e+02 5.084604263305664062e+01 3.783734738826751709e-01 -1.240019723773002625e-01 -5.253928899765014648e-02 -5.296237766742706299e-02 -1.872994154691696167e-01
4.170000000000000000e+02 5.128807067871093750e+01 7.255812287330627441e-01 1.311141490936279297e+00 -5.730288475751876831e-02 3.761515617370605469e-01 -4.784616231918334961e-01
4.180000000000000000e+02 5.101906585693359375e+01 3.685812652111053467e-01 -1.821200698614120483e-01 -1.117213889956474304e-01 -8.815243840217590332e-02 -1.481501460075378418e-01
4.190000000000000000e+02 5.185308456420898438e+01 -9.572607278823852539e-01 -1.479326963424682617e+00 3.838808774948120117e+00 7.078444957733154297e-01 2.746430397033691406e+00
4.200000000000000000e+02 5.000027847290039062e+01 -3.377362191677093506e-01 -1.472244143486022949e+00 -5.110869184136390686e-02 -4.570058584213256836e-01 -3.115172684192657471e-01
4.210000000000000000e+02 4.857192993164062500e+01 3.372751772403717041e-01 -7.737474441528320312e-01 8.100363425910472870e-03 -2.296941280364990234e-01 -3.332694172859191895e-01
4.220000000000000000e+02 4.965238189697265625e+01 -1.609900146722793579e-01 -1.225759744644165039e+00 -1.501434147357940674e-01 -4.127709567546844482e-01 -3.204100131988525391e-01
4.230000000000000000e+02 4.773786163330078125e+01 -6.019107699394226074e-01 -1.219940900802612305e+00 3.773669898509979248e-02 -3.546612560749053955e-01 -1.625718474388122559e-01
4.240000000000000000e+02 4.916254806518554688e+01 -3.245400488376617432e-01 -1.397846579551696777e+00 -2.691342122852802277e-02 -4.274280071258544922e-01 -3.252911865711212158e-01
4.250000000000000000e+02 4.963016891479492188e+01 2.570833563804626465e-01 -6.649967432022094727e-01 -2.169066518545150757e-01 -2.645710110664367676e-01 -3.146226406097412109e-01
4.260000000000000000e+02 4.922449111938476562e+01 3.437721133232116699e-01 -5.843656659126281738e-01 -2.215544320642948151e-02 -1.819563359022140503e-01 -3.344590365886688232e-01
4.270000000000000000e+02 4.966414260864257812e+01 8.106035590171813965e-01 -8.351931720972061157e-02 -1.620629280805587769e-01 -7.367467135190963745e-02 -4.876615107059478760e-01
4.280000000000000000e+02 4.774756622314453125e+01 1.590300649404525757e-01 -1.137535810470581055e+00 1.769714653491973877e-01 -2.881692945957183838e-01 -2.069993019104003906e-01
4.290000000000000000e+02 4.848199844360351562e+01 -4.418362677097320557e-01 -1.367915511131286621e+00 -3.373203799128532410e-02 -4.204942882061004639e-01 -2.581101357936859131e-01
4.300000000000000000e+02 5.009372711181640625e+01 -9.192810207605361938e-02 -1.058791399002075195e+00 -6.077375635504722595e-02 -3.358695209026336670e-01 -2.364256978034973145e-01
4.310000000000000000e+02 4.987678527832031250e+01 2.420430928468704224e-01 -7.287082076072692871e-01 -1.212687715888023376e-01 -2.549930810928344727e-01 -2.933076620101928711e-01
4.320000000000000000e+02 4.986731719970703125e+01 5.972160696983337402e-01 -1.670407652854919434e-01 -1.746155917644500732e-01 -1.024969071149826050e-01 -3.154044151306152344e-01
4.330000000000000000e+02 5.009149932861328125e+01 9.342689812183380127e-02 -8.403108716011047363e-01 -9.010775387287139893e-02 -2.791255712509155273e-01 -2.191549837589263916e-01
4.340000000000000000e+02 5.005329132080078125e+01 2.793681621551513672e-01 -6.284925937652587891e-01 -1.177268326282501221e-01 -2.238658368587493896e-01 -2.143619358539581299e-01
4.350000000000000000e+02 4.999208450317382812e+01 4.446243047714233398e-01 -4.346855282783508301e-01 -1.982732713222503662e-01 -1.898876279592514038e-01 -3.258014023303985596e-01
4.360000000000000000e+02 4.991198348999023438e+01 1.561803370714187622e-02 -9.510431289672851562e-01 -6.440645456314086914e-02 -3.046348690986633301e-01 -2.453751415014266968e-01
4.370000000000000000e+02 4.604219436645507812e+01 2.554396986961364746e-01 -1.366043448448181152e+00 1.895746588706970215e-01 -3.529406487941741943e-01 -8.372232317924499512e-03
4.380000000000000000e+02 4.480234527587890625e+01 -4.746525585651397705e-01 -1.691955208778381348e+00 -3.259900212287902832e-02 -5.173662900924682617e-01 3.235566318035125732e-01
4.390000000000000000e+02 4.496949386596679688e+01 -5.796610936522483826e-02 -1.574748039245605469e+00 6.733029335737228394e-02 -4.522253274917602539e-01 3.188602328300476074e-01
4.400000000000000000e+02 4.690711975097656250e+01 1.273740828037261963e-01 -1.295782566070556641e+00 1.924122720956802368e-01 -3.310110867023468018e-01 -1.511739790439605713e-01
4.410000000000000000e+02 4.696422958374023438e+01 -6.282959580421447754e-01 -1.306299090385437012e+00 1.020946428179740906e-01 -3.612613081932067871e-01 7.196010090410709381e-03
4.420000000000000000e+02 4.515171432495117188e+01 4.377203583717346191e-01 -1.501948475837707520e+00 1.722232848405838013e-01 -3.989175856113433838e-01 1.785798817873001099e-01
4.430000000000000000e+02 4.543532943725585938e+01 -4.982649981975555420e-01 -1.733910202980041504e+00 1.634242385625839233e-02 -5.152703523635864258e-01 2.063949853181838989e-01
4.440000000000000000e+02 4.615271377563476562e+01 -5.078593492507934570e-01 -1.581126928329467773e+00 5.981946829706430435e-03 -4.725435078144073486e-01 1.437662988901138306e-01
4.450000000000000000e+02 4.215386199951171875e+01 5.665354728698730469e-01 -1.999942660331726074e+00 -2.770270705223083496e-01 -6.830909252166748047e-01 7.035295367240905762e-01
4.460000000000000000e+02 4.248154067993164062e+01 1.234971404075622559e+00 -1.809898018836975098e+00 -7.776481658220291138e-02 -5.662988424301147461e-01 5.979825258255004883e-01
4.470000000000000000e+02 4.342110824584960938e+01 -6.086104363203048706e-02 -1.885044813156127930e+00 -2.537033259868621826e-01 -6.416244506835937500e-01 6.267320513725280762e-01
4.480000000000000000e+02 4.411052322387695312e+01 -2.798376083374023438e-01 -1.672310113906860352e+00 -6.608743965625762939e-02 -5.215192437171936035e-01 5.169327259063720703e-01
4.490000000000000000e+02 4.420140457153320312e+01 2.044474780559539795e-01 -1.712098956108093262e+00 6.974324584007263184e-02 -4.927067160606384277e-01 3.783549666404724121e-01
4.500000000000000000e+02 4.428497695922851562e+01 7.040962576866149902e-01 -1.590329885482788086e+00 1.531398594379425049e-01 -4.311569929122924805e-01 3.078719675540924072e-01
4.510000000000000000e+02 4.340343475341796875e+01 9.601488709449768066e-01 -1.692221045494079590e+00 1.675436273217201233e-02 -5.026400089263916016e-01 4.072181284427642822e-01
4.520000000000000000e+02 4.283208847045898438e+01 2.259752005338668823e-01 -1.957872867584228516e+00 -2.050989270210266113e-01 -6.488915085792541504e-01 7.233467102050781250e-01
4.530000000000000000e+02 4.341694641113281250e+01 3.954064249992370605e-01 -1.818352580070495605e+00 -9.288480132818222046e-02 -5.733712315559387207e-01 5.257123708724975586e-01
4.540000000000000000e+02 4.008607864379882812e+01 2.347794055938720703e+00 -3.460219621658325195e+00 -3.384768366813659668e-01 -1.139608979225158691e+00 -3.636744618415832520e-01
4.550000000000000000e+02 3.924859237670898438e+01 1.918622970581054688e+00 -6.154624938964843750e+00 -1.343315958976745605e+00 -2.249382257461547852e+00 1.911048144102096558e-01
4.560000000000000000e+02 4.066986846923828125e+01 1.245835542678833008e+00 -2.576708078384399414e+00 -5.291920304298400879e-01 -9.317700266838073730e-01 8.602486848831176758e-01
4.570000000000000000e+02 4.163364028930664062e+01 1.592744350433349609e+00 -2.162391901016235352e+00 -1.611233949661254883e-01 -6.970545649528503418e-01 5.116375684738159180e-01
4.580000000000000000e+02 4.137876510620117188e+01 8.941976428031921387e-01 -2.093754768371582031e+00 -2.424191236495971680e-01 -7.008521556854248047e-01 8.804600834846496582e-01
4.590000000000000000e+02 3.931212234497070312e+01 2.709177732467651367e+00 -1.659514784812927246e+00 -1.500097751617431641e+00 -9.478837847709655762e-01 -1.303322076797485352e+00
4.600000000000000000e+02 4.086096572875976562e+01 1.975051641464233398e+00 -2.296442508697509766e+00 -1.639184206724166870e-01 -7.381082773208618164e-01 5.236529111862182617e-01
4.610000000000000000e+02 3.995876693725585938e+01 1.587908506393432617e+00 -3.299010515213012695e+00 -2.177022993564605713e-01 -1.055013775825500488e+00 1.101002335548400879e+00
4.620000000000000000e+02 3.316690444946289062e+01 7.908318638801574707e-01 -2.299546718597412109e+00 -2.286410145461559296e-02 -6.967232823371887207e-01 -8.827818632125854492e-01
4.630000000000000000e+02 3.399934387207031250e+01 6.623410582542419434e-01 -2.637104988098144531e+00 -4.338214993476867676e-01 -9.212779402732849121e-01 -1.384954452514648438e+00
4.640000000000000000e+02 3.436914443969726562e+01 1.189764857292175293e+00 -4.862940311431884766e+00 -7.615317702293395996e-01 -1.687341570854187012e+00 -9.815067797899246216e-02
4.650000000000000000e+02 3.783919525146484375e+01 2.484255313873291016e+00 -3.849098682403564453e-01 1.958604454994201660e+00 4.721083641052246094e-01 1.209200501441955566e+00
4.660000000000000000e+02 3.703740692138671875e+01 1.373660683631896973e+00 -5.109824180603027344e+00 3.952817916870117188e-01 -1.414362788200378418e+00 -6.092880964279174805e-01
4.670000000000000000e+02 3.334777450561523438e+01 3.404574692249298096e-01 -7.060545086860656738e-01 -1.823481321334838867e-01 -2.665207982063293457e-01 -8.242198824882507324e-01
4.680000000000000000e+02 3.353592681884765625e+01 -1.197979226708412170e-01 -5.737184286117553711e-01 -9.979003667831420898e-02 -2.020525485277175903e-01 -3.708881735801696777e-01
4.690000000000000000e+02 3.501575469970703125e+01 1.059977054595947266e+00 -5.176395893096923828e+00 -8.098687529563903809e-01 -1.795879483222961426e+00 -8.990812897682189941e-01
4.700000000000000000e+02 3.555833053588867188e+01 6.905598640441894531e-01 -4.714858829975128174e-01 5.934973955154418945e-01 3.660344704985618591e-02 3.999097943305969238e-01
4.710000000000000000e+02 3.575750350952148438e+01 1.575511693954467773e+00 -6.725266456604003906e+00 -3.995471000671386719e-01 -2.137444019317626953e+00 -9.014764428138732910e-01
4.720000000000000000e+02 3.622613906860351562e+01 1.030777692794799805e+00 -2.707793235778808594e+00 1.210131794214248657e-01 -7.760339975357055664e-01 2.178420275449752808e-01
4.730000000000000000e+02 3.782004547119140625e+01 1.683207035064697266e+00 -6.558534622192382812e+00 3.428069055080413818e-01 -1.864718317985534668e+00 -2.136863470077514648e+00
4.740000000000000000e+02 3.853881835937500000e+01 1.949121356010437012e+00 -7.747129917144775391e+00 -2.124148368835449219e+00 -2.961383342742919922e+00 -2.038614988327026367e+00
4.750000000000000000e+02 3.856629180908203125e+01 2.753397226333618164e+00 3.569222614169120789e-02 -1.084498286247253418e+00 -3.146418333053588867e-01 3.505205214023590088e-01
4.760000000000000000e+02 3.379653930664062500e+01 1.053609251976013184e+00 -3.061690807342529297e+00 -1.067589670419692993e-01 -9.505348801612854004e-01 -1.091809049248695374e-01
4.770000000000000000e+02 3.424254989624023438e+01 2.046553343534469604e-01 4.998540282249450684e-01 -1.620988845825195312e-01 1.013265475630760193e-01 -4.038460850715637207e-01
4.780000000000000000e+02 3.494199752807617188e+01 4.520132541656494141e-01 7.964171767234802246e-01 -5.510145425796508789e-01 7.362079620361328125e-02 4.426321983337402344e-01
4.790000000000000000e+02 3.690625000000000000e+01 2.049182176589965820e+00 -2.183817863464355469e+00 5.259658098220825195e-01 -4.973556101322174072e-01 -2.108468264341354370e-01
4.800000000000000000e+02 3.083432960510253906e+01 -2.170480340719223022e-01 -1.163479685783386230e+00 1.612320840358734131e-01 -3.006742596626281738e-01 -1.672320514917373657e-01
4.810000000000000000e+02 3.085270309448242188e+01 -9.999262094497680664e-01 -7.952778935432434082e-01 8.541327714920043945e-02 -2.129593789577484131e-01 -1.366908252239227295e-01
4.820000000000000000e+02 3.216926574707031250e+01 -6.736713051795959473e-01 -1.008923888206481934e+00 -1.213509291410446167e-01 -3.390824198722839355e-01 -4.346885085105895996e-01
4.830000000000000000e+02 3.193232536315917969e+01 -3.087860345840454102e-01 -1.016199588775634766e+00 -2.281763404607772827e-02 -3.117051720619201660e-01 -3.697017729282379150e-01
4.840000000000000000e+02 3.283817291259765625e+01 -3.977768719196319580e-01 -8.672785758972167969e-01 -2.003591060638427734e-01 -3.202913105487823486e-01 -3.661484718322753906e-01
4.850000000000000000e+02 3.245020675659179688e+01 5.051715970039367676e-01 -1.278278470039367676e+00 -2.381287142634391785e-02 -3.906274139881134033e-01 -5.967001318931579590e-01
4.860000000000000000e+02 3.264751434326171875e+01 4.808262735605239868e-02 -1.171475648880004883e+00 -1.919626742601394653e-01 -4.090314805507659912e-01 -5.133640170097351074e-01
4.870000000000000000e+02 3.166022682189941406e+01 1.470156908035278320e-01 -1.278249144554138184e+00 1.690214574337005615e-01 -3.327682912349700928e-01 -3.068016171455383301e-01
4.880000000000000000e+02 3.155240631103515625e+01 -8.315400481224060059e-01 -1.009724974632263184e+00 -7.898793369531631470e-02 -3.266138732433319092e-01 -3.087246417999267578e-01
4.890000000000000000e+02 1.934751129150390625e+01 2.503270149230957031e+00 -1.282027959823608398e+00 -1.752213239669799805e-01 -4.371747970581054688e-01 2.114701569080352783e-01
4.900000000000000000e+02 2.005071449279785156e+01 1.556203603744506836e+00 -1.689782619476318359e+00 -1.065040677785873413e-01 -5.388860106468200684e-01 4.077259898185729980e-01
4.910000000000000000e+02 1.928076744079589844e+01 1.755981087684631348e+00 -1.891472101211547852e+00 -1.527475565671920776e-01 -6.132658720016479492e-01 3.370551764965057373e-01
4.920000000000000000e+02 2.158644676208496094e+01 1.168239593505859375e+00 -1.612882018089294434e+00 -1.162226423621177673e-01 -5.187314152717590332e-01 4.166788160800933838e-01
4.930000000000000000e+02 2.307723426818847656e+01 1.624484539031982422e+00 -1.343552350997924805e+00 -1.056910231709480286e-01 -4.347729980945587158e-01 3.746745586395263672e-01
4.940000000000000000e+02 2.233542251586914062e+01 9.922933578491210938e-01 -1.613145709037780762e+00 -1.150811538100242615e-01 -5.184680819511413574e-01 4.274212718009948730e-01
4.950000000000000000e+02 2.398313713073730469e+01 4.381691217422485352e-01 -1.672599077224731445e+00 -1.004590094089508057e-01 -5.319173932075500488e-01 4.583945870399475098e-01
4.960000000000000000e+02 2.469855880737304688e+01 3.134082555770874023e-01 -1.696005105972290039e+00 -1.212666854262351990e-01 -5.451815724372863770e-01 4.390757381916046143e-01
4.970000000000000000e+02 2.544886207580566406e+01 1.369469165802001953e-01 -1.688572049140930176e+00 -1.094283238053321838e-01 -5.394001007080078125e-01 4.404690861701965332e-01
4.980000000000000000e+02 2.621602630615234375e+01 -5.633327364921569824e-02 -1.674518704414367676e+00 -1.027504801750183105e-01 -5.331807732582092285e-01 4.252317547798156738e-01
4.990000000000000000e+02 2.698558807373046875e+01 -2.541643083095550537e-01 -1.628426671028137207e+00 -8.326386660337448120e-02 -5.135071873664855957e-01 3.958546221256256104e-01
5.000000000000000000e+02 2.852584266662597656e+01 -6.537437438964843750e-01 -1.377749443054199219e+00 -5.139189213514328003e-02 -4.287424087524414062e-01 2.770913243293762207e-01
5.010000000000000000e+02 2.929613304138183594e+01 -8.536532521247863770e-01 -1.158264398574829102e+00 3.499570116400718689e-02 -3.369805812835693359e-01 1.719548702239990234e-01
5.020000000000000000e+02 2.926754379272460938e+01 -8.154577016830444336e-02 -1.246990442276000977e+00 1.291179060935974121e-01 -3.353617787361145020e-01 4.372008889913558960e-02
5.030000000000000000e+02 3.006602287292480469e+01 -1.052662253379821777e+00 -8.379704356193542480e-01 4.075074568390846252e-02 -2.391659021377563477e-01 3.980241343379020691e-02
5.040000000000000000e+02 3.003009986877441406e+01 -2.786456644535064697e-01 -1.209771990776062012e+00 2.471999675035476685e-01 -2.887716293334960938e-01 -6.683270633220672607e-02
5.050000000000000000e+02 2.011012649536132812e+01 2.305401802062988281e+00 -1.423274517059326172e+00 -1.173874139785766602e-01 -4.621985852718353271e-01 2.572527229785919189e-01
5.060000000000000000e+02 2.087202072143554688e+01 2.110936641693115234e+00 -1.371571898460388184e+00 -1.073477715253829956e-01 -4.436759054660797119e-01 3.270286023616790771e-01
5.070000000000000000e+02 2.163119125366210938e+01 1.921256065368652344e+00 -1.364555835723876953e+00 -1.088478863239288330e-01 -4.420211315155029297e-01 3.480877280235290527e-01
5.080000000000000000e+02 2.237283515930175781e+01 1.747218847274780273e+00 -1.335834383964538574e+00 -1.187128946185112000e-01 -4.363641738891601562e-01 3.594803810119628906e-01
5.090000000000000000e+02 2.399707603454589844e+01 1.007387638092041016e+00 -1.447023987770080566e+00 -1.005522757768630981e-01 -4.642728865146636963e-01 3.960441350936889648e-01
5.100000000000000000e+02 2.471397018432617188e+01 1.074061155319213867e+00 -1.391389012336730957e+00 -1.038929373025894165e-01 -4.485845863819122314e-01 3.985793292522430420e-01
5.110000000000000000e+02 2.545693969726562500e+01 8.995088934898376465e-01 -1.412622809410095215e+00 -8.070901781320571899e-02 -4.479995667934417725e-01 3.757261037826538086e-01
5.120000000000000000e+02 2.697899818420410156e+01 5.122158527374267578e-01 -1.406062841415405273e+00 -4.553921986371278763e-03 -4.231850206851959229e-01 2.942543923854827881e-01
5.130000000000000000e+02 2.775563621520996094e+01 -4.536604583263397217e-01 -1.531632542610168457e+00 -5.070053040981292725e-02 -4.746999442577362061e-01 3.363014757633209229e-01
5.140000000000000000e+02 2.081994247436523438e+01 1.359829425811767578e+00 -1.636003136634826660e+00 -1.078182160854339600e-01 -5.231463909149169922e-01 4.089504182338714600e-01
5.150000000000000000e+02 2.621677017211914062e+01 7.081378102302551270e-01 -1.414073348045349121e+00 -5.282155424356460571e-02 -4.400684535503387451e-01 3.482322096824645996e-01
5.160000000000000000e+02 2.366904449462890625e+01 1.446964621543884277e+00 -1.373810172080993652e+00 -1.122799366712570190e-01 -4.458270072937011719e-01 3.864602446556091309e-01
5.170000000000000000e+02 2.850458717346191406e+01 1.164546683430671692e-01 -1.335011959075927734e+00 1.065583750605583191e-01 -3.685360848903656006e-01 1.173861175775527954e-01
5.180000000000000000e+02 2.774171447753906250e+01 3.146288096904754639e-01 -1.392461299896240234e+00 3.794602677226066589e-02 -4.063546061515808105e-01 2.381988018751144409e-01
5.190000000000000000e+02 2.338090705871582031e+01 6.175161004066467285e-01 -1.648966312408447266e+00 -1.345270723104476929e-01 -5.350480079650878906e-01 4.322449564933776855e-01
5.200000000000000000e+02 2.305155563354492188e+01 1.057019233703613281e+00 -1.548547625541687012e+00 -1.128108277916908264e-01 -4.984075129032135010e-01 4.244264960289001465e-01
5.210000000000000000e+02 1.611225318908691406e+01 2.416136503219604492e+00 -7.855840325355529785e-01 1.382853090763092041e-02 -2.315266430377960205e-01 2.811158299446105957e-01
5.220000000000000000e+02 1.692862129211425781e+01 2.473628282546997070e+00 -9.918833971023559570e-01 3.918361291289329529e-02 -2.858099341392517090e-01 2.570639550685882568e-01
5.230000000000000000e+02 1.619552993774414062e+01 1.680045008659362793e+00 -8.998850584030151367e-01 1.304112002253532410e-02 -2.660531699657440186e-01 4.938430339097976685e-02
5.240000000000000000e+02 1.774459457397460938e+01 2.528052330017089844e+00 -1.193022012710571289e+00 -3.207792341709136963e-02 -3.675299584865570068e-01 3.073834776878356934e-01
5.250000000000000000e+02 1.851055526733398438e+01 1.834378838539123535e+00 -1.805187940597534180e+00 -1.170558854937553406e-01 -5.766731500625610352e-01 1.459425240755081177e-01
5.260000000000000000e+02 1.855901145935058594e+01 2.579250097274780273e+00 -1.193928003311157227e+00 -1.449292302131652832e-01 -4.016571640968322754e-01 3.143010437488555908e-01
5.270000000000000000e+02 1.696798706054687500e+01 1.734610080718994141e+00 -1.138921618461608887e+00 -9.522267617285251617e-03 -3.445331752300262451e-01 5.450719222426414490e-02
5.280000000000000000e+02 1.774004745483398438e+01 1.786107659339904785e+00 -1.408113002777099609e+00 2.368923276662826538e-02 -4.153271317481994629e-01 4.668835178017616272e-02
5.290000000000000000e+02 1.307423973083496094e+01 1.803115367889404297e+00 -1.220775246620178223e-01 5.300133954733610153e-03 -3.503321856260299683e-02 1.541806310415267944e-01
5.300000000000000000e+02 1.322374725341796875e+01 1.078295350074768066e+00 3.865363076329231262e-02 2.385239489376544952e-02 1.875180751085281372e-02 6.677436828613281250e-02
5.310000000000000000e+02 1.396254444122314453e+01 1.243136167526245117e+00 -1.114829704165458679e-01 8.969209156930446625e-03 -3.075412847101688385e-02 6.642734259366989136e-02
5.320000000000000000e+02 1.470126342773437500e+01 1.407449364662170410e+00 -3.138456046581268311e-01 3.238693997263908386e-02 -8.443760126829147339e-02 4.574213549494743347e-02
5.330000000000000000e+02 1.544029712677001953e+01 1.569983482360839844e+00 -6.079031825065612793e-01 -6.007613148540258408e-03 -1.841732412576675415e-01 4.587601125240325928e-02
5.340000000000000000e+02 1.532874107360839844e+01 2.303210496902465820e+00 -6.067948341369628906e-01 5.346588417887687683e-02 -1.659986823797225952e-01 2.722330093383789062e-01
5.350000000000000000e+02 1.382568740844726562e+01 1.970758438110351562e+00 -2.584775388240814209e-01 4.101563990116119385e-02 -6.523857265710830688e-02 1.837354898452758789e-01
5.360000000000000000e+02 1.457705688476562500e+01 2.137874126434326172e+00 -4.410347640514373779e-01 3.396468609571456909e-02 -1.221210211515426636e-01 2.382269650697708130e-01
5.370000000000000000e+02 1.104393005371093750e+01 6.161050796508789062e-01 2.309190481901168823e-01 9.838660480454564095e-04 6.957087665796279907e-02 5.618009343743324280e-02
5.380000000000000000e+02 1.093760776519775391e+01 1.349887132644653320e+00 9.861542284488677979e-02 -1.414822414517402649e-02 2.534016035497188568e-02 4.730504378676414490e-02
5.390000000000000000e+02 1.032133674621582031e+01 4.645727574825286865e-01 2.293608486652374268e-01 -2.632477320730686188e-03 6.801851093769073486e-02 3.561364114284515381e-02
5.400000000000000000e+02 1.176770782470703125e+01 7.675349712371826172e-01 2.025854885578155518e-01 1.551856938749551773e-02 6.543121486902236938e-02 6.185279414057731628e-02
5.410000000000000000e+02 1.234649181365966797e+01 1.644436478614807129e+00 -1.527703739702701569e-02 8.852830156683921814e-03 -1.927262288518249989e-03 1.091015934944152832e-01
5.420000000000000000e+02 1.249242305755615234e+01 9.189449548721313477e-01 1.388785541057586670e-01 5.518879741430282593e-03 4.331922903656959534e-02 7.060962170362472534e-02
5.430000000000000000e+02 1.023481845855712891e+01 1.202500104904174805e+00 1.383804082870483398e-01 -2.927555888891220093e-02 3.273145481944084167e-02 3.259736299514770508e-02
5.440000000000000000e+02 1.164158153533935547e+01 1.497171759605407715e+00 4.949565231800079346e-02 -1.229262165725231171e-02 1.116090919822454453e-02 8.364128321409225464e-02
5.450000000000000000e+02 8.738976478576660156e+00 3.806764781475067139e-01 2.502222359180450439e-01 -2.785394899547100067e-03 7.423105835914611816e-02 -2.294914564117789268e-03
5.460000000000000000e+02 8.719267845153808594e+00 1.120676517486572266e+00 1.444953233003616333e-01 -1.586808636784553528e-02 3.858816996216773987e-02 2.193599648308008909e-04
5.470000000000000000e+02 7.164478778839111328e+00 1.118019104003906250e+00 1.381445527076721191e-01 -5.803599022328853607e-03 3.970228508114814758e-02 -2.537611126899719238e-02
5.480000000000000000e+02 6.292463302612304688e+00 3.770544826984405518e-01 1.928500831127166748e-01 1.215180673170834780e-04 5.789148062467575073e-02 -1.248422451317310333e-02
5.490000000000000000e+02 5.476712703704833984e+00 3.768434524536132812e-01 1.618449687957763672e-01 -1.220642123371362686e-03 4.818729683756828308e-02 -1.414518803358078003e-02
5.500000000000000000e+02 4.661345481872558594e+00 3.765997588634490967e-01 1.283187121152877808e-01 4.530380538199096918e-04 3.863152489066123962e-02 -1.457118336111307144e-02
5.510000000000000000e+02 3.032949686050415039e+00 3.775091171264648438e-01 6.141691654920578003e-02 6.007260526530444622e-04 1.860529370605945587e-02 -1.381671987473964691e-02
5.520000000000000000e+02 2.221997976303100586e+00 3.784421682357788086e-01 3.242121264338493347e-02 1.086048199795186520e-03 1.005217805504798889e-02 -1.186094619333744049e-02
5.530000000000000000e+02 2.505794763565063477e+00 1.118442177772521973e+00 3.619276359677314758e-02 4.837906453758478165e-03 1.230920106172561646e-02 -3.315283730626106262e-02
5.540000000000000000e+02 1.745976328849792480e+00 1.122917294502258301e+00 2.058205753564834595e-02 9.023112244904041290e-03 8.881551213562488556e-03 -2.578457258641719818e-02
5.550000000000000000e+02 3.682450354099273682e-01 9.625021815299987793e-01 1.582949887961149216e-03 6.779010873287916183e-03 2.508588135242462158e-03 -3.805658314377069473e-03
5.560000000000000000e+02 6.944741606712341309e-01 4.059950113296508789e-01 2.605208428576588631e-03 1.673744642175734043e-03 1.283685909584164619e-03 -3.195117693394422531e-03
5.570000000000000000e+02 3.278808116912841797e+00 1.117509126663208008e+00 5.360222607851028442e-02 1.494431169703602791e-03 1.652899757027626038e-02 -3.764361143112182617e-02
5.580000000000000000e+02 3.846553564071655273e+00 3.765962421894073486e-01 9.439888596534729004e-02 -2.201060124207288027e-04 2.825363352894783020e-02 -1.464539300650358200e-02
5.590000000000000000e+02 5.608756542205810547e+00 1.116843461990356445e+00 1.099546030163764954e-01 -2.129128202795982361e-03 3.234764188528060913e-02 -3.659535944461822510e-02
5.600000000000000000e+02 6.386569023132324219e+00 1.117054462432861328e+00 1.265597492456436157e-01 -4.750053863972425461e-03 3.654291108250617981e-02 -3.265853598713874817e-02
5.610000000000000000e+02 7.108311176300048828e+00 3.780190646648406982e-01 2.198722362518310547e-01 -2.001703949645161629e-03 6.536115705966949463e-02 -1.065309718251228333e-02
5.620000000000000000e+02 7.924066066741943359e+00 3.789985179901123047e-01 2.398958653211593628e-01 -1.186068402603268623e-03 7.161293923854827881e-02 -6.733801215887069702e-03
5.630000000000000000e+02 7.942295551300048828e+00 1.118998527526855469e+00 1.465419381856918335e-01 -8.814875036478042603e-03 4.131811857223510742e-02 -1.758788526058197021e-02
5.640000000000000000e+02 9.552846908569335938e+00 3.859910368919372559e-01 2.353690117597579956e-01 -1.104999706149101257e-02 6.729570031166076660e-02 1.421164628118276596e-02
5.650000000000000000e+02 9.495200157165527344e+00 1.125990986824035645e+00 1.528197973966598511e-01 -2.531309053301811218e-02 3.825201094150543213e-02 1.373270153999328613e-02
5.660000000000000000e+02 1.054147243499755859e+00 1.145995020866394043e+00 9.083404205739498138e-03 1.245614048093557358e-02 6.461863406002521515e-03 -1.608788780868053436e-02
5.670000000000000000e+02 4.831327438354492188e+00 1.116599798202514648e+00 9.174317121505737305e-02 -1.638624817132949829e-03 2.703136391937732697e-02 -3.921155631542205811e-02
5.680000000000000000e+02 4.054473876953125000e+00 1.116596221923828125e+00 7.207535207271575928e-02 1.114540267735719681e-03 2.195696718990802765e-02 -3.908319398760795593e-02
5.690000000000000000e+02 1.424241423606872559e+00 3.829173147678375244e-01 1.212228368967771530e-02 2.329463372007012367e-03 4.335524048656225204e-03 -7.221698295325040817e-03
5.700000000000000000e+02 1.338139057159423828e+01 3.142086565494537354e-01 -4.429390132427215576e-01 1.709774136543273926e-01 -8.158847689628601074e-02 -1.503280550241470337e-01
5.710000000000000000e+02 1.410687160491943359e+01 4.760258793830871582e-01 -4.851255118846893311e-01 -2.447428405284881592e-01 -2.189605087041854858e-01 -8.269469439983367920e-02
5.720000000000000000e+02 1.353089809417724609e+01 -4.106113612651824951e-01 -3.177099823951721191e-01 -2.280769199132919312e-01 -1.637360751628875732e-01 -1.154519915580749512e-01
5.730000000000000000e+02 1.483218193054199219e+01 6.374483108520507812e-01 -5.006062984466552734e-01 1.897095441818237305e-01 -9.326902776956558228e-02 -1.683053672313690186e-01
5.740000000000000000e+02 1.495638942718505859e+01 -9.297639876604080200e-02 -3.882063925266265869e-01 -2.489800900220870972e-01 -1.911559551954269409e-01 -7.158895581960678101e-02
5.750000000000000000e+02 1.566942024230957031e+01 6.387124955654144287e-02 -4.021156132221221924e-01 2.649417817592620850e-01 -4.115214571356773376e-02 -1.598202139139175415e-01
5.760000000000000000e+02 1.555786418914794922e+01 7.970982789993286133e-01 -5.288516879081726074e-01 -2.198974937200546265e-01 -2.246247380971908569e-01 -7.036763429641723633e-02
5.770000000000000000e+02 1.424372863769531250e+01 -2.515964508056640625e-01 -3.716346323490142822e-01 1.843160092830657959e-01 -5.619558319449424744e-02 -1.582184731960296631e-01
5.780000000000000000e+02 3.205512285232543945e+00 -1.950798153877258301e+00 -1.041668467223644257e-02 8.969045244157314301e-03 -4.342919855844229460e-04 -4.191730637103319168e-03
5.790000000000000000e+02 4.674437046051025391e+00 -1.884385228157043457e+00 -2.845881506800651550e-02 1.829621568322181702e-02 -3.048779675737023354e-03 -1.836859807372093201e-02
5.800000000000000000e+02 9.869774818420410156e+00 -2.471037864685058594e+00 -8.482164144515991211e-02 1.039238367229700089e-02 -2.232877723872661591e-02 -9.344484657049179077e-02
5.810000000000000000e+02 1.790969848632812500e+01 -2.981535434722900391e+00 1.457251906394958496e-01 2.899989783763885498e-01 1.307172477245330811e-01 1.111037433147430420e-01
5.820000000000000000e+02 1.699851799011230469e+01 -1.916010260581970215e+00 -8.289487101137638092e-03 -7.308427244424819946e-02 -2.441212907433509827e-02 -8.500245958566665649e-02
5.830000000000000000e+02 2.011639022827148438e+01 -9.009941816329956055e-01 1.607201844453811646e-01 3.071233928203582764e-01 1.403530836105346680e-01 -1.587445735931396484e-01
5.840000000000000000e+02 1.740697669982910156e+01 -4.563701748847961426e-01 -4.175963401794433594e-01 -1.188854947686195374e-01 -1.609445512294769287e-01 -6.381349638104438782e-03
5.850000000000000000e+02 5.434067249298095703e-01 -1.055978870391845703e+01 7.936022244393825531e-03 -8.977178484201431274e-03 -3.123469359707087278e-04 5.291433073580265045e-03
5.860000000000000000e+02 6.690393447875976562e+00 -1.487692642211914062e+01 -1.988522112369537354e-01 -3.369681537151336670e-01 -1.607461124658584595e-01 -2.106732726097106934e-01
5.870000000000000000e+02 1.016676616668701172e+01 -1.257451438903808594e+01 -1.610322892665863037e-01 -3.579714521765708923e-02 -5.904882773756980896e-02 -6.422393769025802612e-02
5.880000000000000000e+02 8.950193405151367188e+00 -1.299915790557861328e+01 -2.366292029619216919e-01 -1.703456491231918335e-01 -1.220924556255340576e-01 -1.584950089454650879e-01
5.890000000000000000e+02 1.275158786773681641e+01 -1.212289237976074219e+01 7.881400175392627716e-03 1.250731199979782104e-01 3.988635540008544922e-02 -9.115451574325561523e-02
5.900000000000000000e+02 1.824580192565917969e+01 -1.590505409240722656e+01 -1.408339291810989380e-01 8.282154053449630737e-02 -1.740371622145175934e-02 -3.530873954296112061e-01
5.910000000000000000e+02 1.544346237182617188e+01 -9.672058105468750000e+00 4.463484138250350952e-02 2.984148263931274414e-01 1.029148995876312256e-01 1.953246770426630974e-03
5.920000000000000000e+02 1.700785255432128906e+01 -8.422003746032714844e+00 6.551829725503921509e-02 4.363380074501037598e-01 1.505568921566009521e-01 -2.790440805256366730e-02
5.930000000000000000e+02 1.704783439636230469e+01 -5.554864406585693359e+00 1.018882617354393005e-01 3.940406143665313721e-01 1.487786620855331421e-01 4.933184757828712463e-02
5.940000000000000000e+02 3.522383689880371094e+00 -2.066751480102539062e+01 8.521676808595657349e-02 -2.374080270528793335e-01 -4.565737769007682800e-02 -1.601946353912353516e-01
5.950000000000000000e+02 6.005342960357666016e+00 -2.183574485778808594e+01 2.438724935054779053e-01 9.851145744323730469e-02 1.027151793241500854e-01 -1.450034976005554199e-01
5.960000000000000000e+02 7.738819599151611328e+00 -2.301238059997558594e+01 3.755735456943511963e-01 1.178789585828781128e-01 1.480357497930526733e-01 -1.461823135614395142e-01
5.970000000000000000e+02 3.953356742858886719e+00 -2.384105873107910156e+01 8.536178618669509888e-02 -2.386191785335540771e-01 -4.597721621394157410e-02 -2.087124809622764587e-02
5.980000000000000000e+02 6.146804690361022949e-01 -3.036609077453613281e+01 4.986421205103397369e-03 -4.381606578826904297e-01 -1.299522668123245239e-01 -4.193672444671392441e-03
5.990000000000000000e+02 1.305848312377929688e+01 -3.678031539916992188e+01 1.319874525070190430e-01 5.130757391452789307e-02 5.498850718140602112e-02 -1.455705016851425171e-01
6.000000000000000000e+02 1.277357196807861328e+01 -3.527709960937500000e+01 2.574278041720390320e-02 -1.476492583751678467e-01 -3.657194226980209351e-02 -9.014330059289932251e-02
6.010000000000000000e+02 1.244225215911865234e+01 -3.063285827636718750e+01 -1.812437176704406738e-01 -4.087069332599639893e-01 -1.769852042198181152e-01 -2.208614051342010498e-01
6.020000000000000000e+02 1.411370849609375000e+01 -2.980897331237792969e+01 -2.095865160226821899e-01 -5.594733953475952148e-01 -2.307179719209671021e-01 -3.270867168903350830e-01
6.030000000000000000e+02 1.493312263488769531e+01 -2.856875419616699219e+01 -1.837560236454010010e-01 -4.551875591278076172e-01 -1.916830688714981079e-01 -2.883547544479370117e-01
6.040000000000000000e+02 1.168493843078613281e+01 -2.293246078491210938e+01 -1.573910862207412720e-01 -1.728328615427017212e-01 -9.906718134880065918e-02 -2.078142762184143066e-01
6.050000000000000000e+02 1.037739467620849609e+01 -2.308723831176757812e+01 1.055004298686981201e-01 -1.802409067749977112e-02 2.624290250241756439e-02 -8.369511365890502930e-02
6.060000000000000000e+02 1.144413566589355469e+01 -2.445840644836425781e+01 4.856031015515327454e-02 -2.410959303379058838e-01 -5.776068568229675293e-02 -2.946237921714782715e-01
6.070000000000000000e+02 7.726222038269042969e+00 -3.857747268676757812e+01 1.439146846532821655e-01 -3.298942744731903076e-01 -5.579387769103050232e-02 -1.575172990560531616e-01
6.080000000000000000e+02 9.861286163330078125e+00 -3.452458953857421875e+01 -7.173492573201656342e-03 -2.280358374118804932e-01 -7.056280225515365601e-02 -2.422363758087158203e-01
6.090000000000000000e+02 6.393477320671081543e-01 -3.174565315246582031e+01 -1.008826214820146561e-02 -4.600097537040710449e-01 -1.410294026136398315e-01 -1.298934686928987503e-02
6.100000000000000000e+02 9.605442285537719727e-01 -3.724783706665039062e+01 -6.780826020985841751e-03 -6.137490868568420410e-01 -1.861589699983596802e-01 -2.612890489399433136e-02
6.110000000000000000e+02 3.331388711929321289e+00 -3.767581939697265625e+01 2.052725106477737427e-02 -5.264080762863159180e-01 -1.517642587423324585e-01 -9.111876785755157471e-02
6.120000000000000000e+02 2.229115295410156250e+01 -3.988336181640625000e+01 4.650583863258361816e-01 1.076055243611335754e-01 1.717991828918457031e-01 1.400279104709625244e-01
6.130000000000000000e+02 2.267911720275878906e+01 -4.160894775390625000e+01 5.839669108390808105e-01 5.330519005656242371e-02 1.911816298961639404e-01 9.319726377725601196e-04
6.140000000000000000e+02 2.627083587646484375e+01 -4.131750869750976562e+01 3.790137767791748047e-01 2.346611022949218750e-01 1.841024607419967651e-01 6.453621387481689453e-02
6.150000000000000000e+02 2.836254310607910156e+01 -4.008005142211914062e+01 2.852601408958435059e-01 4.082643091678619385e-01 2.080573290586471558e-01 1.147999539971351624e-01
6.160000000000000000e+02 2.881475257873535156e+01 -3.803424453735351562e+01 2.248913347721099854e-01 4.847704768180847168e-01 2.128985524177551270e-01 1.526402831077575684e-01
6.170000000000000000e+02 4.000565338134765625e+01 -3.527482986450195312e+01 4.498075544834136963e-01 1.521618127822875977e+00 5.914276838302612305e-01 -9.809617400169372559e-01
6.180000000000000000e+02 3.912787628173828125e+01 -3.218184661865234375e+01 6.573501229286193848e-01 4.433296680450439453e+00 1.527194023132324219e+00 8.462802767753601074e-01
6.190000000000000000e+02 3.645822525024414062e+01 -2.974374198913574219e+01 6.710845828056335449e-01 1.044012069702148438e+00 5.145289897918701172e-01 4.918648302555084229e-01
6.200000000000000000e+02 3.622273635864257812e+01 -3.156040191650390625e+01 9.697332978248596191e-01 1.322605252265930176e+00 6.877015233039855957e-01 4.025764465332031250e-01
6.210000000000000000e+02 3.017428779602050781e+01 -2.523224258422851562e+01 3.142848312854766846e-01 4.732099473476409912e-01 2.362484335899353027e-01 -3.314330279827117920e-01
6.220000000000000000e+02 2.939489555358886719e+01 -2.420982360839843750e+01 2.227895408868789673e-01 6.395066976547241211e-01 2.586888670921325684e-01 -3.153280019760131836e-01
6.230000000000000000e+02 2.929047775268554688e+01 -2.596187782287597656e+01 2.162363678216934204e-01 4.555860459804534912e-01 2.015467286109924316e-01 -2.485548555850982666e-01
6.240000000000000000e+02 2.245201492309570312e+01 -2.809909820556640625e+01 3.918997943401336670e-01 2.563278675079345703e-01 1.944683045148849487e-01 -3.171313703060150146e-01
6.250000000000000000e+02 2.319813919067382812e+01 -2.723555946350097656e+01 4.547796249389648438e-01 2.090631723403930664e-01 1.991528421640396118e-01 -2.179314792156219482e-01
6.260000000000000000e+02 2.341320228576660156e+01 -2.910347747802734375e+01 2.865831851959228516e-01 3.028663694858551025e-01 1.768348664045333862e-01 -2.396297156810760498e-01
6.270000000000000000e+02 2.507573318481445312e+01 -2.909831619262695312e+01 3.119475841522216797e-01 2.190790921449661255e-01 1.593080013990402222e-01 -2.274631708860397339e-01
6.280000000000000000e+02 2.970329284667968750e+01 -3.104924392700195312e+01 3.334098756313323975e-01 3.854302763938903809e-01 2.156520485877990723e-01 -2.077357918024063110e-01
6.290000000000000000e+02 2.495551681518554688e+01 -3.344872283935546875e+01 1.072412170469760895e-02 -5.137313902378082275e-02 -1.219470519572496414e-02 -2.935330383479595184e-02
6.300000000000000000e+02 2.393969154357910156e+01 -3.920010375976562500e+01 3.121107816696166992e-01 8.777175098657608032e-02 1.199647635221481323e-01 1.526549607515335083e-01
6.310000000000000000e+02 3.973568725585937500e+01 -3.788803482055664062e+01 -2.924382686614990234e-01 1.163189172744750977e+00 2.612252831459045410e-01 -1.928326636552810669e-01
6.320000000000000000e+02 4.075913619995117188e+01 -3.617764282226562500e+01 5.277954936027526855e-01 7.910838127136230469e-01 3.956637978553771973e-01 -3.969483971595764160e-01
6.330000000000000000e+02 4.752995681762695312e+01 -3.684181594848632812e+01 9.292135238647460938e-01 1.581709027290344238e+00 7.532767653465270996e-01 9.531674385070800781e-01
6.340000000000000000e+02 4.998726272583007812e+01 -3.766879653930664062e+01 -5.015108585357666016e-01 4.296837329864501953e+00 1.138597965240478516e+00 6.432407498359680176e-01
6.350000000000000000e+02 4.874837875366210938e+01 -3.604163742065429688e+01 1.004040956497192383e+00 3.131802558898925781e+00 1.240753054618835449e+00 1.450629115104675293e+00
6.360000000000000000e+02 5.719929122924804688e+01 -3.757101058959960938e+01 -4.692240059375762939e-01 3.166956424713134766e+00 8.093196749687194824e-01 -9.510844349861145020e-01
6.370000000000000000e+02 5.597686004638671875e+01 -3.621493911743164062e+01 1.421104222536087036e-01 5.860186576843261719e+00 1.800689101219177246e+00 -7.546169757843017578e-01
6.380000000000000000e+02 5.912001419067382812e+01 -3.771878433227539062e+01 -1.214361548423767090e+00 5.961135029792785645e-01 -1.854744106531143188e-01 1.778159290552139282e-01
6.390000000000000000e+02 6.003535842895507812e+01 -3.811606597900390625e+01 -2.798824548721313477e+00 -9.231899380683898926e-01 -1.116604328155517578e+00 9.337427020072937012e-01
6.400000000000000000e+02 6.137184524536132812e+01 -3.837292861938476562e+01 -2.655491828918457031e+00 -1.209792941808700562e-01 -8.329413533210754395e-01 -2.621815502643585205e-01
6.410000000000000000e+02 6.431229400634765625e+01 -3.735660934448242188e+01 -8.775778412818908691e-01 7.201867103576660156e-01 -4.721733182668685913e-02 3.667974174022674561e-01
6.420000000000000000e+02 7.021788787841796875e+01 -3.528362274169921875e+01 7.398269772529602051e-01 5.444935321807861328e+00 1.855428695678710938e+00 -9.699724316596984863e-01
6.430000000000000000e+02 7.799655914306640625e+01 -4.167766571044921875e+01 5.725848674774169922e-02 7.997456550598144531e+00 2.416414499282836914e+00 1.568383909761905670e-02
6.440000000000000000e+02 7.739624786376953125e+01 -3.711415863037109375e+01 -2.212272724136710167e-03 7.698521137237548828e+00 2.308892726898193359e+00 -3.984536603093147278e-02
6.450000000000000000e+02 7.787419128417968750e+01 -3.019576263427734375e+01 -5.943968892097473145e-02 8.001723289489746094e+00 2.382685184478759766e+00 1.393273919820785522e-01
6.460000000000000000e+02 7.475962066650390625e+01 -2.074239730834960938e+01 1.309726715087890625e+00 1.051560783386230469e+01 3.547600507736206055e+00 6.482332944869995117e-02
6.470000000000000000e+02 7.231739044189453125e+01 -1.769028854370117188e+01 1.324151039123535156e+00 4.180097103118896484e+00 1.651274442672729492e+00 -2.069974660873413086e+00
6.480000000000000000e+02 7.800283050537109375e+01 -1.081959152221679688e+01 -6.261817812919616699e-01 9.818466186523437500e+00 2.757685184478759766e+00 -1.240585446357727051e+00
6.490000000000000000e+02 7.931298065185546875e+01 -1.240555286407470703e+01 -3.040657937526702881e-01 1.108249950408935547e+01 3.233530044555664062e+00 -1.737660318613052368e-01
6.500000000000000000e+02 7.308067321777343750e+01 -1.147061443328857422e+01 -3.556141614913940430e+00 9.525173157453536987e-02 -1.038267016410827637e+00 -9.065942168235778809e-01
6.510000000000000000e+02 7.107369232177734375e+01 -1.212035465240478516e+01 -2.893363714218139648e+00 -5.581467151641845703e-01 -1.035453200340270996e+00 -1.445167064666748047e+00
6.520000000000000000e+02 6.944748687744140625e+01 -1.324536800384521484e+01 -7.661511301994323730e-01 6.887527704238891602e-01 -2.321950159966945648e-02 -2.735767126083374023e+00
6.530000000000000000e+02 6.963415527343750000e+01 -1.543675231933593750e+01 -1.722105503082275391e+00 1.141952797770500183e-01 -4.823730885982513428e-01 -1.830906748771667480e+00
6.540000000000000000e+02 7.129895782470703125e+01 -1.703439712524414062e+01 1.485927224159240723e+00 1.421811223030090332e+00 8.723215460777282715e-01 -9.828735589981079102e-01
6.550000000000000000e+02 7.036082458496093750e+01 -1.642367553710937500e+01 -1.070901393890380859e+00 2.570701837539672852e-01 -2.441493719816207886e-01 -9.606691598892211914e-01
6.560000000000000000e+02 7.348786163330078125e+01 -1.954971885681152344e+01 1.502130508422851562e+00 1.034827423095703125e+01 3.555121421813964844e+00 -2.289947986602783203e+00
6.570000000000000000e+02 7.817115020751953125e+01 -1.794014358520507812e+01 5.908296257257461548e-02 8.759813308715820312e+00 2.645668745040893555e+00 1.010203480720520020e+00
6.580000000000000000e+02 7.696681213378906250e+01 -1.131088352203369141e+01 -1.259403347969055176e+00 9.484200477600097656e+00 2.467439174652099609e+00 -8.306087851524353027e-01
6.590000000000000000e+02 7.654975128173828125e+01 -8.842394828796386719e+00 5.110003352165222168e-01 1.029552078247070312e+01 3.241956233978271484e+00 -1.477795481681823730e+00
6.600000000000000000e+02 7.682016754150390625e+01 -7.373600482940673828e+00 1.169132947921752930e+00 1.027986145019531250e+01 3.434698343276977539e+00 -1.229152798652648926e+00
6.610000000000000000e+02 7.712751770019531250e+01 -5.947975635528564453e+00 9.287565350532531738e-01 9.631082534790039062e+00 3.167951822280883789e+00 -4.534218013286590576e-01
6.620000000000000000e+02 7.936729431152343750e+01 2.805583715438842773e+00 -8.380033820867538452e-02 7.652029514312744141e+00 2.270468711853027344e+00 -1.758943349123001099e-01
6.630000000000000000e+02 6.916529083251953125e+01 4.137821197509765625e+00 4.357928633689880371e-01 2.676344156265258789e+00 9.336411356925964355e-01 2.300957441329956055e+00
6.640000000000000000e+02 6.698820495605468750e+01 5.823745250701904297e+00 -1.333132386207580566e+00 4.727364480495452881e-01 -2.581187784671783447e-01 1.325682163238525391e+00
6.650000000000000000e+02 6.296980285644531250e+01 5.908162593841552734e+00 -1.148317337036132812e+00 3.850342035293579102e+00 8.106073737144470215e-01 -1.486976504325866699e+00
6.660000000000000000e+02 6.225837707519531250e+01 7.663076877593994141e+00 -1.733688116073608398e+00 4.471302509307861328e+00 8.212843537330627441e-01 -1.093481421470642090e+00
6.670000000000000000e+02 6.098666381835937500e+01 -3.384579181671142578e+00 2.601377248764038086e+00 1.709826087951660156e+01 5.909891128540039062e+00 -3.876274824142456055e+00
6.680000000000000000e+02 6.597034454345703125e+01 -3.683873176574707031e+00 1.715050578117370605e+00 5.859671592712402344e+00 2.272416591644287109e+00 2.157010078430175781e+00
6.690000000000000000e+02 6.494029998779296875e+01 -3.211464405059814453e+00 1.626894354820251465e+00 7.419359207153320312e+00 2.713876008987426758e+00 1.089766263961791992e+00
6.700000000000000000e+02 6.123314285278320312e+01 -4.758392810821533203e+00 5.756121277809143066e-01 1.485625553131103516e+01 4.629560470581054688e+00 -1.421414375305175781e+00
6.710000000000000000e+02 6.333505630493164062e+01 -6.671886920928955078e+00 1.837961792945861816e+00 1.077506542205810547e+01 3.783908128738403320e+00 -1.124285221099853516e+00
6.720000000000000000e+02 6.198743438720703125e+01 -1.015581321716308594e+01 -1.110451102256774902e+00 7.998311042785644531e+00 2.066358089447021484e+00 7.962902188301086426e-01
6.730000000000000000e+02 6.135322189331054688e+01 -8.938557624816894531e+00 8.068776726722717285e-01 9.125071525573730469e+00 2.979584693908691406e+00 1.320666551589965820e+00
6.740000000000000000e+02 5.800821304321289062e+01 -1.073369503021240234e+01 -3.211233377456665039e+00 2.173062860965728760e-01 -8.981781601905822754e-01 4.742832183837890625e-01
6.750000000000000000e+02 5.900388717651367188e+01 -1.125362682342529297e+01 -1.106765270233154297e+00 2.831467390060424805e+00 5.174106359481811523e-01 2.195704698562622070e+00
6.760000000000000000e+02 5.694382858276367188e+01 -1.018782997131347656e+01 -4.639925479888916016e+00 -3.391736745834350586e-01 -1.493729829788208008e+00 2.920761406421661377e-01
6.770000000000000000e+02 5.426160049438476562e+01 -1.009090995788574219e+01 -1.575870037078857422e+00 2.757469177246093750e+00 3.544797599315643311e-01 -1.119293093681335449e+00
6.780000000000000000e+02 4.901709365844726562e+01 -8.438776016235351562e+00 -1.679380387067794800e-01 3.926398754119873047e+00 1.127538204193115234e+00 3.073524951934814453e+00
6.790000000000000000e+02 4.873861312866210938e+01 -3.439551353454589844e+00 1.720749855041503906e+00 1.032536774873733521e-01 5.472010970115661621e-01 -2.103572487831115723e-01
6.800000000000000000e+02 4.973715591430664062e+01 -2.363882780075073242e+00 6.745038628578186035e-01 3.155965507030487061e-01 2.970301210880279541e-01 -5.243288874626159668e-01
6.810000000000000000e+02 5.030985641479492188e+01 -2.179335832595825195e+00 6.333857178688049316e-01 1.493811368942260742e+00 6.381591558456420898e-01 2.051120400428771973e-01
6.820000000000000000e+02 5.305488204956054688e+01 -1.492298960685729980e+00 -1.530466675758361816e+00 1.760070800781250000e+01 4.821072578430175781e+00 6.933468818664550781e+00
6.830000000000000000e+02 5.323052215576171875e+01 -1.456534981727600098e+00 -2.501607894897460938e+00 1.841953468322753906e+01 4.775377750396728516e+00 6.645952701568603516e+00
6.840000000000000000e+02 5.444328308105468750e+01 -8.690592646598815918e-01 -1.868170022964477539e+00 1.126004314422607422e+01 2.817561864852905273e+00 -1.958694815635681152e+00
6.850000000000000000e+02 5.400727462768554688e+01 -1.197430849075317383e+00 -3.937258124351501465e-01 5.114581584930419922e+00 1.416256785392761230e+00 1.634839534759521484e+00
6.860000000000000000e+02 7.805092620849609375e+01 4.204166889190673828e+00 -1.321559846401214600e-01 7.052452087402343750e+00 2.076088905334472656e+00 -5.935971140861511230e-01
6.870000000000000000e+02 7.934436035156250000e+01 8.413417816162109375e+00 5.108844954520463943e-03 5.407654762268066406e+00 1.623829126358032227e+00 -2.687706649303436279e-01
6.880000000000000000e+02 7.198744964599609375e+01 1.379592895507812500e+01 4.233320057392120361e-01 1.384296607971191406e+01 4.279889583587646484e+00 -1.051409840583801270e+00
6.890000000000000000e+02 7.198097229003906250e+01 1.046332550048828125e+01 1.955657958984375000e+00 1.341560363769531250e+01 4.611378192901611328e+00 2.671969890594482422e+00
6.900000000000000000e+02 7.136955261230468750e+01 9.376588821411132812e+00 2.493934869766235352e+00 9.266860961914062500e+00 3.528238773345947266e+00 3.671727418899536133e+00
6.910000000000000000e+02 7.223873901367187500e+01 8.512840270996093750e+00 5.045150518417358398e-01 9.600777626037597656e+00 3.031587600708007812e+00 1.109418511390686035e+00
6.920000000000000000e+02 7.012349700927734375e+01 7.917665481567382812e+00 1.991246819496154785e+00 4.198550224304199219e+00 1.856939077377319336e+00 2.595259904861450195e+00
6.930000000000000000e+02 7.943782806396484375e+01 1.255218505859375000e+01 4.990392923355102539e-02 4.609333515167236328e+00 1.397771239280700684e+00 1.155061349272727966e-01
6.940000000000000000e+02 7.939401245117187500e+01 1.667091941833496094e+01 2.510917000472545624e-02 6.433811664581298828e+00 1.937676310539245605e+00 3.494321107864379883e-01
6.950000000000000000e+02 7.022445678710937500e+01 1.759040260314941406e+01 -2.315715104341506958e-01 2.827035188674926758e+00 7.786390781402587891e-01 -1.115949034690856934e+00
6.960000000000000000e+02 7.176502990722656250e+01 1.516257095336914062e+01 1.148519992828369141e+00 1.169213294982910156e+01 3.852195978164672852e+00 -2.003540039062500000e+00
6.970000000000000000e+02 7.814680480957031250e+01 1.792695617675781250e+01 -1.160184442996978760e-01 7.218603134155273438e+00 2.130775451660156250e+00 7.863236069679260254e-01
6.980000000000000000e+02 7.938128662109375000e+01 2.359914398193359375e+01 -2.309050783514976501e-02 8.271563529968261719e+00 2.474542140960693359e+00 -2.493807859718799591e-02
6.990000000000000000e+02 7.281955718994140625e+01 2.906931114196777344e+01 6.085405945777893066e-01 5.566634178161621094e+00 1.852552533149719238e+00 -1.078513264656066895e-01
7.000000000000000000e+02 6.356372833251953125e+01 3.067776679992675781e+01 3.425392508506774902e-01 6.931045055389404297e+00 2.182075262069702148e+00 -5.558874830603599548e-02
7.010000000000000000e+02 6.374687576293945312e+01 2.813624000549316406e+01 8.341659307479858398e-01 8.538252830505371094e+00 2.811725616455078125e+00 1.195450186729431152e+00
7.020000000000000000e+02 6.428529357910156250e+01 2.702553749084472656e+01 2.238828659057617188e+00 7.815220355987548828e+00 3.016214609146118164e+00 2.011403799057006836e+00
7.030000000000000000e+02 6.321460723876953125e+01 2.618431282043457031e+01 2.621971368789672852e+00 9.754157066345214844e+00 3.712838411331176758e+00 3.589234113693237305e+00
7.040000000000000000e+02 6.488169860839843750e+01 2.142889595031738281e+01 -1.835759878158569336e+00 2.067050457000732422e+00 6.938715279102325439e-02 3.149991035461425781e+00
7.050000000000000000e+02 6.223610305786132812e+01 2.392846298217773438e+01 -8.880242705345153809e-02 5.546580314636230469e+00 1.637333273887634277e+00 3.168252706527709961e+00
7.060000000000000000e+02 5.843211364746093750e+01 2.328616523742675781e+01 -7.675011634826660156e+00 -1.855670660734176636e-01 -2.358173608779907227e+00 -4.097931385040283203e-01
7.070000000000000000e+02 5.719825744628906250e+01 2.332332229614257812e+01 -4.971384048461914062e+00 3.883020877838134766e-01 -1.374924540519714355e+00 -4.909607768058776855e-01
7.080000000000000000e+02 5.547375106811523438e+01 2.434942626953125000e+01 -2.641276419162750244e-01 3.228801012039184570e+00 8.894019722938537598e-01 -1.688211441040039062e+00
7.090000000000000000e+02 5.465414810180664062e+01 2.534393501281738281e+01 1.706848144531250000e+00 5.779204845428466797e+00 2.245815753936767578e+00 -3.044258594512939453e+00
7.100000000000000000e+02 4.867615890502929688e+01 2.259969520568847656e+01 6.704685091972351074e-02 2.283332109451293945e+00 7.051137089729309082e-01 -5.457875728607177734e-01
7.110000000000000000e+02 4.586933135986328125e+01 2.493890190124511719e+01 5.509818196296691895e-01 2.847785234451293945e+00 1.019630074501037598e+00 8.057430386543273926e-01
7.120000000000000000e+02 5.014765167236328125e+01 2.214518165588378906e+01 -4.670411944389343262e-01 3.257054090499877930e+00 8.370038270950317383e-01 -1.384045720100402832e+00
7.130000000000000000e+02 4.587631225585937500e+01 2.342370414733886719e+01 6.438826322555541992e-01 2.100953340530395508e+00 8.234508037567138672e-01 7.386941313743591309e-01
7.140000000000000000e+02 4.624805831909179688e+01 2.169846725463867188e+01 -3.276296854019165039e-01 1.531284213066101074e+00 3.610963523387908936e-01 3.523763418197631836e-01
7.150000000000000000e+02 4.231274414062500000e+01 2.085283851623535156e+01 -2.569422721862792969e-01 5.006833076477050781e-01 7.312230020761489868e-02 3.353008329868316650e-01
7.160000000000000000e+02 4.089162063598632812e+01 2.059956550598144531e+01 -1.383207887411117554e-01 2.571712434291839600e-01 3.565514087677001953e-02 -8.045859634876251221e-02
7.170000000000000000e+02 4.073296356201171875e+01 2.175424957275390625e+01 -6.207118034362792969e-01 -3.815484791994094849e-02 -1.976599842309951782e-01 -3.057874180376529694e-02
7.180000000000000000e+02 3.939793014526367188e+01 2.191471099853515625e+01 -2.355947494506835938e-01 1.970759779214859009e-01 -1.155563257634639740e-02 -1.474566459655761719e-01
7.190000000000000000e+02 3.954106521606445312e+01 2.058208656311035156e+01 -7.274639606475830078e-02 2.925073504447937012e-01 6.592828780412673950e-02 -4.290383458137512207e-01
7.200000000000000000e+02 3.750604629516601562e+01 1.115308856964111328e+01 -2.741123735904693604e-01 -7.208724021911621094e-01 -2.984954416751861572e-01 3.819302022457122803e-01
7.210000000000000000e+02 3.559576034545898438e+01 1.229181289672851562e+01 -3.142853081226348877e-01 -2.148464918136596680e-01 -1.587395519018173218e-01 1.327141225337982178e-01
7.220000000000000000e+02 3.907077026367187500e+01 8.767628669738769531e+00 -4.389458298683166504e-01 -2.203027248382568359e+00 -7.925919294357299805e-01 7.592325210571289062e-01
7.230000000000000000e+02 3.948500823974609375e+01 7.349291801452636719e+00 -1.913320124149322510e-01 -2.122199296951293945e+00 -6.940593719482421875e-01 4.900061190128326416e-01
7.240000000000000000e+02 3.963864517211914062e+01 5.904238700866699219e+00 4.656622186303138733e-02 -1.257850408554077148e+00 -3.633852601051330566e-01 4.134030938148498535e-01
7.250000000000000000e+02 4.021652603149414062e+01 3.015115022659301758e+00 -1.338168025016784668e+00 -1.103569746017456055e+00 -7.325213551521301270e-01 -9.810199141502380371e-01
7.260000000000000000e+02 4.355503463745117188e+01 1.764443874359130859e+00 -1.475107789039611816e+00 2.090578526258468628e-01 -3.798150122165679932e-01 2.780506908893585205e-01
7.270000000000000000e+02 4.609464645385742188e+01 1.095389723777770996e+00 -1.167784571647644043e+00 3.812178075313568115e-01 -2.359700500965118408e-01 -1.684448719024658203e-01
7.280000000000000000e+02 4.754771423339843750e+01 7.236537456512451172e+00 1.744546055793762207e+00 2.309864997863769531e+00 1.216323375701904297e+00 -2.001227617263793945e+00
7.290000000000000000e+02 5.068053054809570312e+01 1.360873818397521973e+00 1.519487142562866211e+00 2.269688760861754417e-03 4.565270245075225830e-01 -1.080691576004028320e+00
7.300000000000000000e+02 5.025022888183593750e+01 1.390089035034179688e+00 9.882295727729797363e-01 -6.550735235214233398e-02 2.768166661262512207e-01 -9.959295988082885742e-01
7.310000000000000000e+02 4.620019912719726562e+01 2.022510051727294922e+00 -9.405433535575866699e-01 6.394207477569580078e-01 -9.033679217100143433e-02 -4.520491361618041992e-01
7.320000000000000000e+02 4.860125732421875000e+01 1.126107931137084961e+00 -3.575942516326904297e-01 6.811605393886566162e-02 -8.684345334768295288e-02 -5.672788619995117188e-01
7.330000000000000000e+02 4.654604721069335938e+01 8.234095573425292969e+00 2.017737627029418945e+00 2.738183021545410156e+00 1.426776170730590820e+00 -2.335963726043701172e+00
7.340000000000000000e+02 4.375027847290039062e+01 5.918305397033691406e+00 -1.281346976757049561e-01 1.214904308319091797e+00 3.260308802127838135e-01 -7.084447145462036133e-02
7.350000000000000000e+02 4.436393737792968750e+01 9.895456314086914062e+00 1.542329430580139160e+00 3.940905332565307617e+00 1.644970417022705078e+00 -1.453985214233398438e+00
7.360000000000000000e+02 3.935684204101562500e+01 1.051184654235839844e+01 2.145054489374160767e-01 -8.845992684364318848e-01 -2.010281383991241455e-01 -1.125704944133758545e-01
7.370000000000000000e+02 7.690995025634765625e+01 2.327487373352050781e+01 -2.245595753192901611e-01 7.347956180572509766e+00 2.137018918991088867e+00 -1.576786339282989502e-01
7.380000000000000000e+02 7.933892059326171875e+01 2.915753173828125000e+01 2.044526860117912292e-02 7.625008106231689453e+00 2.293636083602905273e+00 -4.774470999836921692e-02
7.390000000000000000e+02 6.969941711425781250e+01 3.522283554077148438e+01 -2.361254952847957611e-02 5.408616542816162109e+00 1.615501165390014648e+00 4.772096276283264160e-01
7.400000000000000000e+02 6.095624542236328125e+01 3.839852523803710938e+01 -4.093138277530670166e-01 1.375905394554138184e+00 2.899774610996246338e-01 -5.341877937316894531e-01
7.410000000000000000e+02 6.351018142700195312e+01 3.777282714843750000e+01 -8.306257724761962891e-01 3.017268657684326172e+00 6.559928655624389648e-01 -4.882994294166564941e-01
7.420000000000000000e+02 5.874994659423828125e+01 3.592968750000000000e+01 -2.178797960281372070e+00 -1.523929089307785034e-01 -6.993572711944580078e-01 -3.965581208467483521e-02
7.430000000000000000e+02 5.608560180664062500e+01 3.508662414550781250e+01 -5.124499201774597168e-01 1.472429990768432617e+00 2.879940271377563477e-01 6.358481049537658691e-01
7.440000000000000000e+02 5.572515106201171875e+01 3.678965759277343750e+01 -8.698855638504028320e-01 2.192639112472534180e+00 3.968260586261749268e-01 9.333024024963378906e-01
7.450000000000000000e+02 6.317881774902343750e+01 3.577961349487304688e+01 -1.004559397697448730e+00 3.363295078277587891e+00 7.076206803321838379e-01 -3.937902152538299561e-01
7.460000000000000000e+02 6.169284439086914062e+01 3.486306762695312500e+01 -6.808339357376098633e-01 1.238624930381774902e+00 1.673372834920883179e-01 -2.714988291263580322e-01
7.470000000000000000e+02 6.352715301513671875e+01 3.316667938232421875e+01 2.980213463306427002e-01 4.519865036010742188e+00 1.445365905761718750e+00 -4.484256803989410400e-01
7.480000000000000000e+02 6.345297622680664062e+01 3.195274353027343750e+01 5.723721981048583984e-01 6.086615085601806641e+00 1.997696161270141602e+00 -7.427368164062500000e-01
7.490000000000000000e+02 7.928308105468750000e+01 3.193632316589355469e+01 2.327663265168666840e-02 7.509111404418945312e+00 2.259716272354125977e+00 5.099181085824966431e-03
7.500000000000000000e+02 7.901046752929687500e+01 3.742631149291992188e+01 2.717583253979682922e-02 7.590281009674072266e+00 2.285237073898315430e+00 1.486739888787269592e-02
7.510000000000000000e+02 7.663536834716796875e+01 3.804744338989257812e+01 -7.608776539564132690e-02 7.113398075103759766e+00 2.111193180084228516e+00 1.666733920574188232e-01
7.520000000000000000e+02 5.197795867919921875e+01 3.724974822998046875e+01 -8.685220479965209961e-01 3.526420354843139648e+00 7.973694801330566406e-01 -4.793351888656616211e-02
7.530000000000000000e+02 4.905537033081054688e+01 3.755444717407226562e+01 -5.649975538253784180e-01 3.199036359786987305e+00 7.902116179466247559e-01 -4.233113825321197510e-01
7.540000000000000000e+02 5.356731414794921875e+01 3.080723762512207031e+01 6.790189146995544434e-01 7.386890411376953125e+00 2.419772863388061523e+00 5.612405538558959961e-01
7.550000000000000000e+02 5.413722229003906250e+01 3.293349075317382812e+01 6.327121853828430176e-01 5.038864135742187500e+00 1.701472878456115723e+00 1.338024258613586426e+00
7.560000000000000000e+02 4.811662673950195312e+01 3.141292953491210938e+01 8.626578450202941895e-01 3.359911441802978516e+00 1.266770720481872559e+00 -9.213523268699645996e-01
7.570000000000000000e+02 5.358539199829101562e+01 2.956986618041992188e+01 -3.885497571900486946e-03 7.868734359741210938e+00 2.359454631805419922e+00 -1.023115292191505432e-01
7.580000000000000000e+02 5.355524063110351562e+01 2.834340476989746094e+01 6.448641419410705566e-01 8.871447563171386719e+00 2.854893445968627930e+00 -8.215153217315673828e-01
7.590000000000000000e+02 4.249958419799804688e+01 4.093165206909179688e+01 1.952661434188485146e-03 1.665595412254333496e+00 5.002644062042236328e-01 -1.821553409099578857e-01
7.600000000000000000e+02 4.452904891967773438e+01 3.706221771240234375e+01 -5.146691575646400452e-02 2.101789712905883789e+00 6.150968074798583984e-01 -6.297049522399902344e-01
7.610000000000000000e+02 4.312217712402343750e+01 3.301620483398437500e+01 7.839859724044799805e-01 1.229774236679077148e+00 6.041280627250671387e-01 -9.709699153900146484e-01
7.620000000000000000e+02 4.182585906982421875e+01 3.420769882202148438e+01 5.151163935661315918e-01 7.787016034126281738e-01 3.881454169750213623e-01 -6.241528987884521484e-01
7.630000000000000000e+02 4.505241012573242188e+01 3.095981788635253906e+01 1.086565375328063965e+00 2.651654005050659180e+00 1.121465802192687988e+00 -1.420700669288635254e+00
7.640000000000000000e+02 4.601925659179687500e+01 2.898633766174316406e+01 7.430409789085388184e-01 3.627181768417358398e+00 1.311066865921020508e+00 -1.015530347824096680e+00
7.650000000000000000e+02 4.610134887695312500e+01 2.766009521484375000e+01 1.884912550449371338e-01 3.432547807693481445e+00 1.086311697959899902e+00 -3.477425873279571533e-01
7.660000000000000000e+02 3.853884506225585938e+01 3.454668807983398438e+01 9.901586920022964478e-02 2.046333551406860352e-01 9.109476953744888306e-02 1.286553144454956055e-01
7.670000000000000000e+02 3.603145599365234375e+01 3.344374465942382812e+01 1.640538424253463745e-01 8.347501754760742188e-01 2.996411919593811035e-01 2.882847785949707031e-01
7.680000000000000000e+02 4.014804840087890625e+01 3.488334274291992188e+01 3.159775435924530029e-01 4.776677191257476807e-01 2.380935698747634888e-01 -2.956974208354949951e-01
7.690000000000000000e+02 3.465280532836914062e+01 3.731391906738281250e+01 2.040979415178298950e-01 7.580165863037109375e-01 2.886343598365783691e-01 1.217493861913681030e-01
7.700000000000000000e+02 3.175805091857910156e+01 3.705189132690429688e+01 1.411824822425842285e-01 6.728459596633911133e-01 2.442085295915603638e-01 3.950609639286994934e-02
7.710000000000000000e+02 2.792105102539062500e+01 2.863901329040527344e+01 3.022170364856719971e-01 -1.358647830784320831e-02 8.658917248249053955e-02 6.073378957808017731e-03
7.720000000000000000e+02 2.929892730712890625e+01 2.957622909545898438e+01 4.135060906410217285e-01 1.919564902782440186e-01 1.816387772560119629e-01 -4.548097401857376099e-02
7.730000000000000000e+02 2.883549499511718750e+01 2.777989578247070312e+01 3.736438974738121033e-02 -2.513412386178970337e-02 3.669079858809709549e-03 1.614263094961643219e-02
7.740000000000000000e+02 2.976559448242187500e+01 2.685418701171875000e+01 -2.155914343893527985e-02 -2.219857880845665932e-03 -7.133699953556060791e-03 3.167058527469635010e-02
7.750000000000000000e+02 3.065053939819335938e+01 2.583445549011230469e+01 -3.411999344825744629e-02 1.442212909460067749e-01 3.303038701415061951e-02 -1.844140351749956608e-03
7.760000000000000000e+02 3.313183212280273438e+01 2.574297523498535156e+01 1.609853804111480713e-01 1.172919154167175293e+00 4.001713693141937256e-01 -4.423072561621665955e-02
7.770000000000000000e+02 3.339651870727539062e+01 2.454631042480468750e+01 4.957285895943641663e-02 1.192622184753417969e+00 3.726585209369659424e-01 4.912569373846054077e-02
7.780000000000000000e+02 3.523515319824218750e+01 2.657847785949707031e+01 3.230333924293518066e-01 2.440963745117187500e+00 8.291991353034973145e-01 -4.737148582935333252e-01
7.790000000000000000e+02 3.343438339233398438e+01 2.739488983154296875e+01 3.427110612392425537e-01 1.386815071105957031e+00 5.188578367233276367e-01 -1.971455216407775879e-01
7.800000000000000000e+02 3.553629684448242188e+01 3.088409233093261719e+01 1.917286515235900879e-01 1.585907101631164551e+00 5.332907438278198242e-01 3.905063867568969727e-01
7.810000000000000000e+02 3.522214508056640625e+01 2.953940582275390625e+01 1.361535638570785522e-01 1.972567200660705566e+00 6.326162219047546387e-01 2.525129318237304688e-01
7.820000000000000000e+02 3.596859359741210938e+01 3.212539291381835938e+01 2.419444471597671509e-01 1.113539218902587891e+00 4.066450893878936768e-01 4.050352573394775391e-01
7.830000000000000000e+02 2.585411643981933594e+01 2.927715301513671875e+01 7.542451024055480957e-01 4.338533282279968262e-01 3.564295172691345215e-01 3.877869844436645508e-01
7.840000000000000000e+02 2.412717819213867188e+01 3.073343467712402344e+01 1.706547737121582031e-01 4.950740635395050049e-01 1.997186541557312012e-01 1.409158855676651001e-01
7.850000000000000000e+02 2.442665290832519531e+01 2.909773826599121094e+01 6.243953108787536621e-01 6.777256131172180176e-01 3.906362652778625488e-01 4.330476224422454834e-01
7.860000000000000000e+02 2.867550849914550781e+01 3.062112808227539062e+01 4.120616614818572998e-01 2.341034561395645142e-01 1.938495337963104248e-01 2.045080624520778656e-02
7.870000000000000000e+02 1.591286945343017578e+01 3.575017166137695312e+01 1.076715737581253052e-01 -1.120373234152793884e-01 -1.309724058955907822e-03 1.043740212917327881e-01
7.880000000000000000e+02 1.288459491729736328e+01 3.516081237792968750e+01 1.708189249038696289e-01 -7.563029648736119270e-04 5.101878941059112549e-02 6.143716350197792053e-02
7.890000000000000000e+02 1.626730728149414062e+01 3.340222549438476562e+01 -1.754185110330581665e-01 -9.848836809396743774e-02 -8.217205852270126343e-02 1.007724851369857788e-01
7.900000000000000000e+02 1.726028060913085938e+01 3.283218002319335938e+01 -2.297149598598480225e-01 -1.217087879776954651e-01 -1.054271236062049866e-01 1.885512024164199829e-01
7.910000000000000000e+02 1.984247779846191406e+01 2.798499298095703125e+01 7.864331454038619995e-02 -1.395235806703567505e-01 -1.826407946646213531e-02 1.855141669511795044e-01
7.920000000000000000e+02 2.422062110900878906e+01 2.781808662414550781e+01 7.357452511787414551e-01 9.199472665786743164e-01 4.967077672481536865e-01 7.229112386703491211e-01
7.930000000000000000e+02 2.120344543457031250e+01 2.631715202331542969e+01 5.033001303672790527e-01 1.532188504934310913e-01 1.969557106494903564e-01 5.633893013000488281e-01
7.940000000000000000e+02 1.950749778747558594e+01 2.419859886169433594e+01 6.185728311538696289e-01 2.418338805437088013e-01 2.581219971179962158e-01 3.152753412723541260e-01
7.950000000000000000e+02 1.993114089965820312e+01 2.319893646240234375e+01 4.064428508281707764e-01 1.728946119546890259e-01 1.738012433052062988e-01 1.935158818960189819e-01
7.960000000000000000e+02 1.759178161621093750e+01 2.404569435119628906e+01 9.595052599906921387e-01 4.534927606582641602e-01 4.238994121551513672e-01 5.682630538940429688e-01
7.970000000000000000e+02 1.764551734924316406e+01 1.927770423889160156e+01 -1.086986139416694641e-01 -1.193379461765289307e-01 -6.841097027063369751e-02 1.879381239414215088e-01
7.980000000000000000e+02 1.479951000213623047e+01 1.852500534057617188e+01 8.930813521146774292e-02 8.087554574012756348e-02 5.105510354042053223e-02 2.510285675525665283e-01
7.990000000000000000e+02 1.620765304565429688e+01 1.950587844848632812e+01 1.886055245995521545e-02 -4.873018711805343628e-02 -8.960889652371406555e-03 3.340026438236236572e-01
8.000000000000000000e+02 1.671744537353515625e+01 2.140962028503417969e+01 3.199384212493896484e-01 1.559456288814544678e-01 1.427652239799499512e-01 3.416991531848907471e-01
8.010000000000000000e+02 2.021320343017578125e+01 1.685692596435546875e+01 -2.817470431327819824e-01 -2.228037863969802856e-01 -1.513652503490447998e-01 1.591247469186782837e-01
8.020000000000000000e+02 2.273871612548828125e+01 1.854417228698730469e+01 2.620355039834976196e-02 1.544162780046463013e-01 5.418594554066658020e-02 -1.114796772599220276e-01
8.030000000000000000e+02 2.474825668334960938e+01 1.493955421447753906e+01 -1.499735713005065918e-01 4.752111807465553284e-02 -3.073573485016822815e-02 -1.308122184127569199e-02
8.040000000000000000e+02 2.025531387329101562e+01 9.974512100219726562e+00 2.490105628967285156e-01 2.059467136859893799e-01 1.364871859550476074e-01 2.512365281581878662e-01
8.050000000000000000e+02 2.024485969543457031e+01 8.665567398071289062e+00 4.681761562824249268e-01 1.762871593236923218e-01 1.933389902114868164e-01 3.004509210586547852e-01
8.060000000000000000e+02 1.907992935180664062e+01 8.256732940673828125e+00 5.978137254714965820e-01 4.042933881282806396e-01 3.006321191787719727e-01 4.625179469585418701e-01
8.070000000000000000e+02 1.793178939819335938e+01 7.485585689544677734e+00 7.113584280014038086e-01 3.719069361686706543e-01 3.249796032905578613e-01 4.874368607997894287e-01
8.080000000000000000e+02 2.022394561767578125e+01 3.063793897628784180e+00 -1.002778172492980957e+00 -1.631216555833816528e-01 -3.497699499130249023e-01 2.120392024517059326e-01
8.090000000000000000e+02 2.176007270812988281e+01 2.659157752990722656e+00 -1.081367850303649902e+00 -1.264133155345916748e-01 -3.623343706130981445e-01 2.804295718669891357e-01
8.100000000000000000e+02 2.628758811950683594e+01 1.475723743438720703e+00 -1.187764167785644531e+00 1.136165857315063477e-02 -3.529207706451416016e-01 2.951841354370117188e-01
8.110000000000000000e+02 2.780552482604980469e+01 1.143067121505737305e+00 -1.212056636810302734e+00 1.447900384664535522e-01 -3.201799988746643066e-01 1.628562062978744507e-01
8.120000000000000000e+02 3.110558891296386719e+01 2.551388502120971680e+00 -9.002655744552612305e-01 2.570338845252990723e-01 -1.929695010185241699e-01 1.431373506784439087e-01
8.130000000000000000e+02 3.350090408325195312e+01 1.465441703796386719e+00 -3.177595615386962891e+00 -2.277070283889770508e-01 -1.021590709686279297e+00 -1.670297682285308838e-01
8.140000000000000000e+02 3.288304519653320312e+01 1.227089166641235352e+00 -2.452946662902832031e+00 3.415698930621147156e-02 -7.256369590759277344e-01 -1.522350460290908813e-01
8.150000000000000000e+02 1.008716869354248047e+01 3.597224426269531250e+01 3.056535422801971436e-01 7.998038828372955322e-02 1.156901791691780090e-01 1.460015028715133667e-01
8.160000000000000000e+02 4.443761825561523438e+00 4.047726058959960938e+01 -4.856017604470252991e-02 -6.388213038444519043e-01 -2.062144279479980469e-01 2.332017384469509125e-02
8.170000000000000000e+02 8.797851562500000000e+00 3.460549926757812500e+01 5.406205058097839355e-01 1.682097613811492920e-01 2.126490920782089233e-01 2.130020558834075928e-01
8.180000000000000000e+02 1.040388870239257812e+01 3.890005874633789062e+01 1.713757961988449097e-02 1.913436502218246460e-02 1.088158320635557175e-02 9.947016090154647827e-02
8.190000000000000000e+02 1.936075448989868164e+00 4.161979675292968750e+01 -8.139929920434951782e-02 -9.477524757385253906e-01 -3.087455332279205322e-01 -2.307467721402645111e-02
8.200000000000000000e+02 7.906117439270019531e-01 3.349270629882812500e+01 2.409186586737632751e-02 -1.134842872619628906e+00 -3.332253098487854004e-01 3.430961817502975464e-02
8.210000000000000000e+02 2.369316577911376953e+00 3.384029006958007812e+01 4.546249657869338989e-02 -8.956863880157470703e-01 -2.550671696662902832e-01 6.897894293069839478e-02
8.220000000000000000e+02 7.765327453613281250e+00 3.363189697265625000e+01 3.405587077140808105e-01 2.128251940011978149e-01 1.660151779651641846e-01 2.593709528446197510e-01
8.230000000000000000e+02 7.001646995544433594e+00 3.247164916992187500e+01 1.392321288585662842e-01 1.132014989852905273e-01 7.573009282350540161e-02 1.228971779346466064e-01
8.240000000000000000e+02 5.992430210113525391e+00 3.001443290710449219e+01 1.267734263092279434e-02 -5.399348735809326172e-01 -1.581772565841674805e-01 -2.220403403043746948e-02
8.250000000000000000e+02 5.653817176818847656e+00 2.879646682739257812e+01 -4.397514089941978455e-02 -8.408753871917724609e-01 -2.654551565647125244e-01 6.581739336252212524e-02
8.260000000000000000e+02 3.628571033477783203e+00 2.609234428405761719e+01 -1.309426575899124146e-01 -6.737886667251586914e-01 -2.414193898439407349e-01 9.316148608922958374e-02
8.270000000000000000e+02 5.990831851959228516e-01 2.467318153381347656e+01 1.165282679721713066e-03 -5.521131753921508789e-01 -1.652843654155731201e-01 -7.798071485012769699e-03
8.280000000000000000e+02 1.656423687934875488e+00 2.304533958435058594e+01 -8.377933874726295471e-03 -5.900130271911621094e-01 -1.795172989368438721e-01 -3.466263785958290100e-02
8.290000000000000000e+02 2.160687446594238281e+00 1.747557449340820312e+01 5.165231600403785706e-02 -5.226497054100036621e-01 -1.412992179393768311e-01 7.176471501588821411e-02
8.300000000000000000e+02 1.740505576133728027e+00 1.168373966217041016e+01 -1.454333495348691940e-02 -1.955296546220779419e-01 -6.302189826965332031e-02 1.592576354742050171e-01
8.310000000000000000e+02 1.741477131843566895e+00 3.769365072250366211e+00 -5.033909343183040619e-03 4.337972775101661682e-02 1.150374487042427063e-02 -4.024294391274452209e-02
8.320000000000000000e+02 1.011694717407226562e+01 1.964558005332946777e+00 3.236277028918266296e-02 -4.954813793301582336e-02 -5.155610386282205582e-03 3.619913011789321899e-02
8.330000000000000000e+02 1.247079849243164062e+01 7.431526660919189453e+00 -9.644756913185119629e-01 -6.116214394569396973e-01 -4.728291332721710205e-01 6.513075232505798340e-01
8.340000000000000000e+02 1.080404758453369141e+01 2.119340896606445312e+00 -1.146650779992341995e-02 -5.125256627798080444e-02 -1.881572231650352478e-02 7.847564667463302612e-02
8.350000000000000000e+02 1.149635696411132812e+01 2.280372142791748047e+00 -6.501312553882598877e-02 -4.027844592928886414e-02 -3.158747032284736633e-02 1.080672368407249451e-01
8.360000000000000000e+02 1.369589042663574219e+01 2.743419170379638672e+00 -3.367494344711303711e-01 -1.746575720608234406e-02 -1.062645539641380310e-01 3.174337744712829590e-01
8.370000000000000000e+02 1.695451927185058594e+01 3.277853727340698242e+00 -8.171725273132324219e-01 3.618386387825012207e-02 -2.342966049909591675e-01 4.259273409843444824e-01
8.380000000000000000e+02 1.780865478515625000e+01 3.324673891067504883e+00 -8.651385307312011719e-01 -2.603309787809848785e-02 -2.673514783382415771e-01 3.911148011684417725e-01
8.390000000000000000e+02 3.396543502807617188e+01 1.734721302986145020e+00 -4.883749961853027344e+00 -5.536443591117858887e-01 -1.631218314170837402e+00 1.005300879478454590e+00
8.400000000000000000e+02 2.897842025756835938e+01 6.657975196838378906e+00 1.994779109954833984e-01 1.194855690002441406e+00 4.183000922203063965e-01 -9.908505529165267944e-02
8.410000000000000000e+02 2.854701042175292969e+01 9.296930313110351562e+00 3.465861380100250244e-01 8.555580973625183105e-01 3.606432676315307617e-01 2.700920999050140381e-01
8.420000000000000000e+02 3.028133201599121094e+01 1.088359069824218750e+01 4.119583964347839355e-01 8.775941729545593262e-01 3.868657648563385010e-01 5.815769433975219727e-01
8.430000000000000000e+02 2.936846542358398438e+01 1.190282535552978516e+01 2.115396410226821899e-01 6.904920935630798340e-01 2.706095278263092041e-01 3.091670870780944824e-01
8.440000000000000000e+02 3.007423591613769531e+01 1.541096401214599609e+01 3.828053772449493408e-01 4.427185356616973877e-01 2.476571798324584961e-01 4.672168791294097900e-01
8.450000000000000000e+02 3.099178504943847656e+01 1.442939758300781250e+01 -9.428611956536769867e-03 8.219702243804931641e-01 2.437624931335449219e-01 4.943974316120147705e-01
8.460000000000000000e+02 2.885401535034179688e+01 1.493974208831787109e+01 2.607188373804092407e-02 1.922747343778610229e-01 6.550398468971252441e-02 2.415220439434051514e-01
8.470000000000000000e+02 2.666577148437500000e+01 1.519534301757812500e+01 -2.403285354375839233e-01 -4.327950999140739441e-02 -8.508241176605224609e-02 5.134094506502151489e-02
8.480000000000000000e+02 2.447554969787597656e+01 1.663305854797363281e+01 -8.927123248577117920e-02 3.245422989130020142e-02 -1.704510115087032318e-02 -2.461840398609638214e-03
8.490000000000000000e+02 2.274813079833984375e+01 1.681508255004882812e+01 -1.510077714920043945e-01 9.432926028966903687e-02 -1.700355485081672668e-02 2.375814318656921387e-02
8.500000000000000000e+02 2.355491638183593750e+01 1.758300971984863281e+01 1.310636196285486221e-02 1.482982188463211060e-01 4.842137545347213745e-02 -4.090385138988494873e-02
8.510000000000000000e+02 1.879410552978515625e+01 1.733761596679687500e+01 -4.263251125812530518e-01 -2.732658386230468750e-01 -2.098772823810577393e-01 2.707460820674896240e-01
8.520000000000000000e+02 2.217969322204589844e+01 2.045933532714843750e+01 4.687943682074546814e-02 6.807399541139602661e-02 3.448602929711341858e-02 -8.209137618541717529e-02
8.530000000000000000e+02 2.365373420715332031e+01 2.675641822814941406e+01 4.216121733188629150e-01 9.301453828811645508e-01 4.055272638797760010e-01 6.319804787635803223e-01
8.540000000000000000e+02 2.310824012756347656e+01 2.557844734191894531e+01 2.698646187782287598e-01 5.628587603569030762e-01 2.498170137405395508e-01 3.952739536762237549e-01
8.550000000000000000e+02 3.295591735839843750e+01 1.241256427764892578e+01 -2.396016195416450500e-02 5.676143243908882141e-02 9.840380400419235229e-03 1.687221080064773560e-01
8.560000000000000000e+02 3.823844909667968750e+01 3.273871660232543945e+00 2.400135517120361328e+00 2.246761322021484375e+00 1.394069075584411621e+00 2.172473430633544922e+00
8.570000000000000000e+02 5.137887954711914062e+01 1.683178782463073730e+00 2.322146415710449219e+00 7.861080765724182129e-01 9.324762821197509766e-01 -2.027977943420410156e+00
8.580000000000000000e+02 5.280854034423828125e+01 1.869144916534423828e+00 1.190943002700805664e+00 7.700958251953125000e+00 2.667570352554321289e+00 -3.050016403198242188e+00
8.590000000000000000e+02 5.291864395141601562e+01 6.281720638275146484e+00 -3.010780334472656250e+00 1.486477255821228027e+00 -4.572909176349639893e-01 -2.485002577304840088e-01
8.600000000000000000e+02 5.549105072021484375e+01 1.721506118774414062e+00 4.388698101043701172e+00 3.818901062011718750e+00 2.462279796600341797e+00 2.707781314849853516e+00
8.610000000000000000e+02 5.540543365478515625e+01 1.290095424652099609e+01 1.590966582298278809e+00 9.232402801513671875e+00 3.247010946273803711e+00 -1.073626875877380371e+00
8.620000000000000000e+02 5.438142776489257812e+01 7.764512062072753906e+00 -3.651403635740280151e-02 7.108142852783203125e+00 2.121488571166992188e+00 1.389049410820007324e+00
8.630000000000000000e+02 5.536174774169921875e+01 2.082535773515701294e-01 3.746433734893798828e+00 8.135315030813217163e-02 1.148336052894592285e+00 1.266587495803833008e+00
8.640000000000000000e+02 5.508897781372070312e+01 -3.843003809452056885e-01 -3.893044948577880859e+00 -6.489405632019042969e+00 -3.114735126495361328e+00 -9.698327183723449707e-01
8.650000000000000000e+02 5.445945358276367188e+01 -6.886545419692993164e-01 -2.208614826202392578e+00 1.901049804687500000e+01 5.040565013885498047e+00 -2.295420408248901367e+00
8.660000000000000000e+02 4.293370819091796875e+01 -2.288187742233276367e+00 -5.692256689071655273e-01 7.297047413885593414e-03 -1.685785949230194092e-01 8.797750622034072876e-02
8.670000000000000000e+02 3.899039077758789062e+01 -2.017420768737792969e+00 -5.827179551124572754e-01 2.905630767345428467e-01 -8.764646202325820923e-02 -7.896831259131431580e-03
8.680000000000000000e+02 3.999995803833007812e+01 -9.613587856292724609e-01 -6.895834207534790039e-01 1.999469846487045288e-01 -1.468909382820129395e-01 2.582078240811824799e-02
8.690000000000000000e+02 3.952183532714843750e+01 -6.692630648612976074e-01 -6.891301870346069336e-01 6.724183261394500732e-02 -1.865665018558502197e-01 7.331866770982742310e-02
8.700000000000000000e+02 3.647826385498046875e+01 -1.272019386291503906e+00 -5.798168182373046875e-01 1.266014426946640015e-01 -1.359646022319793701e-01 -1.864863932132720947e-01
8.710000000000000000e+02 3.432083892822265625e+01 -2.202660560607910156e+00 -5.579847097396850586e-01 -1.652781516313552856e-01 -2.169788628816604614e-01 -2.238003462553024292e-01
8.720000000000000000e+02 2.991091728210449219e+01 -5.456833362579345703e+00 -2.974982745945453644e-02 -3.976891636848449707e-01 -1.282316893339157104e-01 -2.428174465894699097e-01
8.730000000000000000e+02 2.980263519287109375e+01 -7.359225749969482422e+00 -3.910618647933006287e-02 -8.054922223091125488e-01 -2.533795237541198730e-01 -8.746165782213211060e-02
8.740000000000000000e+02 3.046901893615722656e+01 -6.487076282501220703e+00 1.806573867797851562e-01 -4.646349847316741943e-01 -8.519327640533447266e-02 -1.864905804395675659e-01
8.750000000000000000e+02 3.468628311157226562e+01 -8.504240036010742188e+00 1.248737350106239319e-01 1.555161923170089722e-01 8.411698043346405029e-02 -7.620407640933990479e-02
8.760000000000000000e+02 2.864981842041015625e+01 -1.101494693756103516e+01 -8.361392617225646973e-01 -8.512754440307617188e-01 -5.062244534492492676e-01 -7.253053188323974609e-01
8.770000000000000000e+02 2.873540306091308594e+01 -1.479025650024414062e+01 -5.861214399337768555e-01 -8.755877614021301270e-02 -2.021040618419647217e-01 -1.585071533918380737e-01
8.780000000000000000e+02 2.737339973449707031e+01 -1.316484069824218750e+01 -1.230988740921020508e+00 -4.912495911121368408e-01 -5.166714787483215332e-01 -5.904888510704040527e-01
8.790000000000000000e+02 2.484230613708496094e+01 -1.358453083038330078e+01 -1.569613099098205566e+00 -3.128082156181335449e-01 -5.647264122962951660e-01 -6.049284934997558594e-01
8.800000000000000000e+02 2.251942253112792969e+01 -1.473599624633789062e+01 -9.616852998733520508e-01 -2.110349535942077637e-01 -3.518160879611968994e-01 -3.383326530456542969e-01
8.810000000000000000e+02 2.140083312988281250e+01 -1.385703277587890625e+01 -8.995628952980041504e-01 -8.172808587551116943e-02 -2.943873107433319092e-01 -8.473419398069381714e-02
8.820000000000000000e+02 2.018742561340332031e+01 -1.308889293670654297e+01 -2.746136188507080078e-01 -2.748065628111362457e-03 -8.320850133895874023e-02 5.573322623968124390e-02
8.830000000000000000e+02 1.829925155639648438e+01 -1.092906856536865234e+01 -3.053732216358184814e-03 1.095128878951072693e-01 3.193774819374084473e-02 -1.884336955845355988e-02
8.840000000000000000e+02 1.920315551757812500e+01 -1.200595092773437500e+01 -7.347325235605239868e-02 2.306562848389148712e-02 -1.512228697538375854e-02 9.022206068038940430e-03
8.850000000000000000e+02 1.653109169006347656e+01 -1.326678943634033203e+01 -1.110710576176643372e-01 3.226234018802642822e-01 6.346570700407028198e-02 -3.078310750424861908e-02
8.860000000000000000e+02 1.749655151367187500e+01 -1.758395767211914062e+01 -7.799097895622253418e-02 4.179620742797851562e-02 -1.085843145847320557e-02 -5.469104051589965820e-01
8.870000000000000000e+02 2.213602638244628906e+01 -2.614006614685058594e+01 4.870800077915191650e-01 1.609499007463455200e-01 1.944089680910110474e-01 -1.790275126695632935e-01
8.880000000000000000e+02 2.363044357299804688e+01 -1.398524761199951172e+01 -1.455556154251098633e+00 -2.162266820669174194e-01 -5.015348196029663086e-01 -4.029283523559570312e-01
8.890000000000000000e+02 2.966512107849121094e+01 -1.846168136596679688e+01 1.473989486694335938e-01 6.748380661010742188e-01 2.466710954904556274e-01 3.139007687568664551e-01
8.900000000000000000e+02 2.920969009399414062e+01 -1.970952796936035156e+01 1.474870592355728149e-01 7.384874224662780762e-01 2.657923400402069092e-01 2.229481041431427002e-01
8.910000000000000000e+02 2.743660545349121094e+01 -2.178660202026367188e+01 1.812249273061752319e-01 4.268551170825958252e-01 1.824240088462829590e-01 -4.905180260539054871e-02
8.920000000000000000e+02 2.875869178771972656e+01 -2.227146911621093750e+01 1.052127033472061157e-01 7.383383512496948242e-01 2.530653178691864014e-01 -7.024789601564407349e-02
8.930000000000000000e+02 2.917198371887207031e+01 -3.937734842300415039e+00 2.908888459205627441e-01 6.445266008377075195e-01 2.806246578693389893e-01 -1.460550874471664429e-01
8.940000000000000000e+02 1.586482524871826172e+01 -8.262632489204406738e-01 -2.810955941677093506e-01 -2.181884497404098511e-01 -1.497852206230163574e-01 -7.123255729675292969e-02
8.950000000000000000e+02 1.210321807861328125e+01 -1.420076251029968262e+00 -2.110785990953445435e-01 8.322560787200927734e-02 -3.835589438676834106e-02 -8.256375789642333984e-02
8.960000000000000000e+02 5.248731994628906250e+01 -1.547035694122314453e+01 -2.053108692169189453e+00 6.472951769828796387e-01 -4.217440485954284668e-01 -8.746262192726135254e-01
8.970000000000000000e+02 5.446059417724609375e+01 -1.730651092529296875e+01 5.346670746803283691e-01 3.643914461135864258e+00 1.253574490547180176e+00 -1.225083708763122559e+00
8.980000000000000000e+02 5.432639312744140625e+01 -1.538313484191894531e+01 -1.307683825492858887e+00 3.036991357803344727e+00 5.187922716140747070e-01 -1.618713259696960449e+00
8.990000000000000000e+02 5.719202804565429688e+01 -1.859957313537597656e+01 7.623726725578308105e-01 5.014853954315185547e+00 1.733168005943298340e+00 3.947751522064208984e-01
9.000000000000000000e+02 6.470854949951171875e+01 -2.017703437805175781e+01 2.323850691318511963e-01 1.048914527893066406e+01 3.216459035873413086e+00 1.971974074840545654e-01
9.010000000000000000e+02 6.450225830078125000e+01 -1.755996894836425781e+01 -7.431683540344238281e-01 7.056180477142333984e+00 1.893903613090515137e+00 1.470269709825515747e-01
9.020000000000000000e+02 6.306572341918945312e+01 -1.785299110412597656e+01 -4.866052269935607910e-01 7.026449203491210938e+00 1.961953282356262207e+00 -3.669243752956390381e-01
9.030000000000000000e+02 6.685063934326171875e+01 -1.052892303466796875e+01 2.391060352325439453e+00 5.095019340515136719e+00 2.245823860168457031e+00 -3.096733093261718750e+00
9.040000000000000000e+02 6.375461578369140625e+01 -1.068340301513671875e+01 -6.511018276214599609e-01 8.372007369995117188e+00 2.316271781921386719e+00 4.931085743010044098e-03
9.050000000000000000e+02 5.574017715454101562e+01 -1.806506156921386719e+01 6.498928070068359375e-01 4.954556941986083984e+00 1.681334972381591797e+00 -6.290130019187927246e-01
9.060000000000000000e+02 5.541604614257812500e+01 -2.061248207092285156e+01 3.635793626308441162e-01 7.762905120849609375e+00 2.437945365905761719e+00 -2.654102072119712830e-02
9.070000000000000000e+02 5.750960540771484375e+01 -2.576655960083007812e+01 -1.051662921905517578e+00 5.343063354492187500e+00 1.287420153617858887e+00 1.700671672821044922e+00
9.080000000000000000e+02 5.647152328491210938e+01 -2.207480049133300781e+01 1.858222842216491699e+00 5.819615364074707031e+00 2.303351402282714844e+00 1.485537528991699219e+00
9.090000000000000000e+02 5.474310684204101562e+01 -2.602537536621093750e+01 -1.741336941719055176e+00 5.732338428497314453e+00 1.197300434112548828e+00 1.703477144241333008e+00
9.100000000000000000e+02 5.555735397338867188e+01 -2.666562843322753906e+01 -8.831320405006408691e-01 5.846424102783203125e+00 1.488987565040588379e+00 1.803702235221862793e+00
9.110000000000000000e+02 5.822596740722656250e+01 -2.796776962280273438e+01 7.777346372604370117e-01 4.272256374359130859e+00 1.514997243881225586e+00 1.915758013725280762e+00
9.120000000000000000e+02 5.735870742797851562e+01 -2.911013412475585938e+01 1.265702366828918457e+00 6.104523658752441406e+00 2.211067914962768555e+00 2.854733467102050781e+00
9.130000000000000000e+02 5.318156433105468750e+01 -2.596439361572265625e+01 -1.388481616973876953e+00 2.079194784164428711e+00 2.072139680385589600e-01 1.245534062385559082e+00
9.140000000000000000e+02 4.673276901245117188e+01 -2.843018913269042969e+01 1.970226168632507324e-01 1.062409877777099609e+00 3.778297603130340576e-01 -1.084766745567321777e+00
9.150000000000000000e+02 4.963862991333007812e+01 -2.567828178405761719e+01 -1.530569314956665039e+00 9.657031297683715820e-01 -1.694598495960235596e-01 -8.335521221160888672e-01
9.160000000000000000e+02 4.891958618164062500e+01 -2.443841552734375000e+01 -8.024606108665466309e-01 1.113328099250793457e+00 9.326023608446121216e-02 -5.372825264930725098e-01
9.170000000000000000e+02 4.417584228515625000e+01 -2.283954238891601562e+01 8.789761066436767578e-01 2.328541517257690430e+00 9.622552990913391113e-01 1.056644082069396973e+00
9.180000000000000000e+02 4.703405380249023438e+01 -2.216740417480468750e+01 1.047652959823608398e+00 4.937432765960693359e+00 1.795525670051574707e+00 -1.117402315139770508e+00
9.190000000000000000e+02 4.489891052246093750e+01 -2.774799156188964844e+01 -8.171567916870117188e-01 4.314988851547241211e-01 -1.156973689794540405e-01 -1.214205995202064514e-01
9.200000000000000000e+02 4.595083618164062500e+01 -2.731867408752441406e+01 -4.469429850578308105e-01 1.196403503417968750e+00 2.248381674289703369e-01 -6.975522637367248535e-01
9.210000000000000000e+02 4.775310897827148438e+01 -2.927542686462402344e+01 1.343827128410339355e+00 1.774437308311462402e+00 9.354793429374694824e-01 -1.509809017181396484e+00
9.220000000000000000e+02 4.929082870483398438e+01 -3.152650260925292969e+01 9.697805047035217285e-01 4.644304752349853516e+00 1.684225559234619141e+00 -1.183202266693115234e+00
9.230000000000000000e+02 4.959686279296875000e+01 -3.272274017333984375e+01 4.430945515632629395e-01 5.281649112701416016e+00 1.717423081398010254e+00 6.128287687897682190e-02
9.240000000000000000e+02 5.024735260009765625e+01 -3.368182373046875000e+01 1.139304041862487793e+00 4.967810630798339844e+00 1.832134366035461426e+00 7.826355695724487305e-01
9.250000000000000000e+02 4.665713119506835938e+01 -2.066493606567382812e+01 8.498689532279968262e-01 6.859457969665527344e+00 2.312798023223876953e+00 1.644413918256759644e-01
9.260000000000000000e+02 4.612397384643554688e+01 -1.639241981506347656e+01 -7.858902812004089355e-01 4.436820030212402344e+00 1.095278978347778320e+00 1.118001222610473633e+00
9.270000000000000000e+02 4.052905273437500000e+01 -1.651118659973144531e+01 -8.915225043892860413e-03 2.824643254280090332e-01 8.206472545862197876e-02 -2.720899283885955811e-01
9.280000000000000000e+02 4.752125930786132812e+01 -1.662178611755371094e+01 -8.149800896644592285e-01 4.092278480529785156e+00 9.831895828247070312e-01 1.631059885025024414e+00
9.290000000000000000e+02 4.890940475463867188e+01 -1.663557434082031250e+01 -1.269187092781066895e+00 1.519305586814880371e+00 7.503554970026016235e-02 8.286904096603393555e-01
9.300000000000000000e+02 5.013978195190429688e+01 -1.631831169128417969e+01 -3.202194452285766602e+00 2.119038719683885574e-03 -9.600226283073425293e-01 -3.698416352272033691e-01
9.310000000000000000e+02 7.383636474609375000e+01 -2.207704734802246094e+01 7.011600136756896973e-01 1.356639480590820312e+01 4.280266284942626953e+00 3.874046504497528076e-01
9.320000000000000000e+02 7.939311981201171875e+01 -2.643844223022460938e+01 -2.553897723555564880e-02 8.144588470458984375e+00 2.435714721679687500e+00 -2.308616787195205688e-01
9.330000000000000000e+02 7.185646057128906250e+01 -2.602504348754882812e+01 -2.100754499435424805e+00 1.537519097328186035e+00 -1.689706295728683472e-01 9.670169949531555176e-01
9.340000000000000000e+02 7.102381896972656250e+01 -2.712909698486328125e+01 -2.032856941223144531e+00 1.308560848236083984e+00 -2.172888219356536865e-01 1.081412434577941895e+00
9.350000000000000000e+02 6.966482543945312500e+01 -2.651219749450683594e+01 -4.377513885498046875e+00 -3.600878119468688965e-01 -1.421280503273010254e+00 1.220146790146827698e-01
9.360000000000000000e+02 6.850257873535156250e+01 -2.913417434692382812e+01 1.293941974639892578e+00 3.524448633193969727e+00 1.445517182350158691e+00 -1.307074785232543945e+00
9.370000000000000000e+02 6.715176391601562500e+01 -2.540922164916992188e+01 -1.686280667781829834e-01 3.954385519027709961e+00 1.135727167129516602e+00 -1.931668519973754883e+00
9.380000000000000000e+02 6.352552032470703125e+01 -2.761616516113281250e+01 2.793292514979839325e-02 3.375661611557006836e+00 1.021078348159790039e+00 -1.744211077690124512e+00
9.390000000000000000e+02 6.568777465820312500e+01 -2.897673988342285156e+01 1.854589462280273438e+00 8.437019348144531250e+00 3.087482452392578125e+00 -3.207485198974609375e+00
9.400000000000000000e+02 6.568905639648437500e+01 -3.033493995666503906e+01 2.347258806228637695e+00 1.077691078186035156e+01 3.937250852584838867e+00 -3.496988296508789062e+00
9.410000000000000000e+02 6.603552246093750000e+01 -3.305043792724609375e+01 2.759276926517486572e-01 8.127964019775390625e+00 2.521167755126953125e+00 -6.504752635955810547e-01
9.420000000000000000e+02 6.614610290527343750e+01 -3.440018463134765625e+01 4.599041640758514404e-01 7.008957862854003906e+00 2.240658760070800781e+00 -3.673133999109268188e-02
9.430000000000000000e+02 6.519628143310546875e+01 -3.638790130615234375e+01 2.786887586116790771e-01 3.802627086639404297e+00 1.224394679069519043e+00 6.298469305038452148e-01
9.440000000000000000e+02 6.731005096435546875e+01 -4.150087356567382812e+01 -1.013781547546386719e+00 4.245906352996826172e+00 9.696374535560607910e-01 -7.363178301602602005e-03
9.450000000000000000e+02 6.583128356933593750e+01 -3.781774520874023438e+01 -1.691154360771179199e+00 4.536550998687744141e+00 8.536190390586853027e-01 1.352607011795043945e-01
9.460000000000000000e+02 6.115572738647460938e+01 -2.648130035400390625e+01 -4.583329677581787109e+00 -3.865269720554351807e-01 -1.490956902503967285e+00 1.529777944087982178e-01
9.470000000000000000e+02 6.472895812988281250e+01 -2.162841033935546875e+01 1.808817744255065918e+00 1.237918090820312500e+01 4.256399631500244141e+00 -1.991068005561828613e+00
9.480000000000000000e+02 6.697528076171875000e+01 -1.640949058532714844e+01 -4.685392856597900391e+00 -2.585994265973567963e-02 -1.413375854492187500e+00 -6.554120182991027832e-01
9.490000000000000000e+02 6.830570983886718750e+01 -1.607478713989257812e+01 -4.051428318023681641e+00 8.212268352508544922e-02 -1.190791726112365723e+00 -1.113125920295715332e+00
9.500000000000000000e+02 4.525058364868164062e+01 -2.632312059402465820e+00 -5.979084968566894531e-01 -5.141752362251281738e-01 -3.336251378059387207e-01 -1.826167702674865723e-01
9.510000000000000000e+02 4.610980987548828125e+01 -2.828876733779907227e+00 -4.229709208011627197e-01 -7.343155741691589355e-01 -3.471859395503997803e-01 -5.440177917480468750e-01
9.520000000000000000e+02 4.528699111938476562e+01 -4.391498088836669922e+00 2.871792316436767578e-01 -8.758077621459960938e-01 -1.765885502099990845e-01 1.657958477735519409e-01
9.530000000000000000e+02 4.849445343017578125e+01 -2.741238355636596680e+00 4.865531325340270996e-01 -7.200347781181335449e-01 -7.004449516534805298e-02 -8.503707647323608398e-01
9.540000000000000000e+02 4.764822769165039062e+01 -9.791497230529785156e+00 5.283448696136474609e-01 5.723954200744628906e+00 1.875689625740051270e+00 1.994635224342346191e+00
9.550000000000000000e+02 4.540439987182617188e+01 -1.296958446502685547e+01 4.492899179458618164e-01 2.236202001571655273e+00 8.056476116180419922e-01 1.641525864601135254e+00
9.560000000000000000e+02 4.286491775512695312e+01 -1.376097869873046875e+01 -2.378752470016479492e+00 -6.334982067346572876e-02 -7.326306700706481934e-01 1.636593937873840332e-01
9.570000000000000000e+02 4.072782135009765625e+01 -1.987196159362792969e+01 3.900445401668548584e-01 9.561166763305664062e-01 4.038483798503875732e-01 1.711395084857940674e-01
9.580000000000000000e+02 4.011637115478515625e+01 -2.472823715209960938e+01 8.993605375289916992e-01 3.296454668045043945e+00 1.258744597434997559e+00 1.390587806701660156e+00
9.590000000000000000e+02 4.096634292602539062e+01 -2.456286621093750000e+01 8.967968821525573730e-01 1.990220904350280762e+00 8.661053180694580078e-01 1.369398713111877441e+00
9.600000000000000000e+02 4.178528213500976562e+01 -1.424536991119384766e+01 -1.570597290992736816e+00 -7.866996526718139648e-02 -4.947801828384399414e-01 -2.050013281404972076e-02
9.610000000000000000e+02 4.086017608642578125e+01 -1.329332065582275391e+01 -1.837516903877258301e+00 -1.647181212902069092e-01 -6.006705164909362793e-01 2.938277721405029297e-01
9.620000000000000000e+02 3.749600219726562500e+01 -1.189752674102783203e+01 -5.168605446815490723e-01 7.332688570022583008e-01 6.492248922586441040e-02 1.173364650458097458e-02
9.630000000000000000e+02 3.617939376831054688e+01 -7.554600238800048828e+00 1.788194328546524048e-01 6.689971685409545898e-01 2.543449997901916504e-01 -1.626610010862350464e-01
9.640000000000000000e+02 3.838307952880859375e+01 -5.160694122314453125e+00 3.197087347507476807e-01 5.695065259933471680e-01 2.667645812034606934e-01 3.468895256519317627e-01
9.650000000000000000e+02 3.541511154174804688e+01 -2.687171936035156250e+00 -4.515942633152008057e-01 7.173178344964981079e-02 -1.139587461948394775e-01 -1.535129845142364502e-01
9.660000000000000000e+02 6.240456771850585938e+01 -2.681451034545898438e+01 -3.480499029159545898e+00 1.168125867843627930e+00 -6.937119364738464355e-01 -1.239927411079406738e-01
9.670000000000000000e+02 6.602335357666015625e+01 -2.439571189880371094e+01 1.799123048782348633e+00 6.698155403137207031e+00 2.549183368682861328e+00 -3.816800594329833984e+00
9.680000000000000000e+02 6.574034118652343750e+01 -2.654649734497070312e+01 -1.886079192161560059e+00 7.115402698516845703e+00 1.568797111511230469e+00 -2.427216291427612305e+00
9.690000000000000000e+02 5.588272094726562500e+01 -3.317123031616210938e+01 7.287611365318298340e-01 8.695734977722167969e+00 2.827348709106445312e+00 6.537757515907287598e-01
9.700000000000000000e+02 5.252052307128906250e+01 -3.040864753723144531e+01 1.424904227256774902e+00 3.869378089904785156e+00 1.588284730911254883e+00 5.717506408691406250e-01
9.710000000000000000e+02 5.995831680297851562e+01 -2.604628181457519531e+01 -1.977018117904663086e+00 1.246698260307312012e+00 -2.190959602594375610e-01 9.888561367988586426e-01
9.720000000000000000e+02 1.676347541809082031e+01 -1.943469810485839844e+01 -2.546225488185882568e-01 -2.134657502174377441e-01 -1.404264867305755615e-01 -4.794311523437500000e-01
9.730000000000000000e+02 1.611894607543945312e+01 -1.816228103637695312e+01 -1.004190295934677124e-01 -7.818122953176498413e-02 -5.358007922768592834e-02 -3.066965043544769287e-01
9.740000000000000000e+02 1.686628341674804688e+01 -2.174931716918945312e+01 -3.169147968292236328e-01 -1.774635314941406250e-01 -1.483134925365447998e-01 -3.328524827957153320e-01
9.750000000000000000e+02 1.724172019958496094e+01 -2.681004333496093750e+01 2.135374695062637329e-01 -9.893570840358734131e-02 3.438052907586097717e-02 -6.864330172538757324e-02
9.760000000000000000e+02 4.806491851806640625e+00 -1.959510040283203125e+01 9.809720329940319061e-03 -3.393952250480651855e-01 -9.887564927339553833e-02 -1.179865077137947083e-01
9.770000000000000000e+02 4.347319602966308594e+00 -1.866427040100097656e+01 -4.053471609950065613e-02 -3.419827222824096680e-01 -1.147552356123924255e-01 -1.592136323451995850e-01
9.780000000000000000e+02 2.134261846542358398e+00 -1.843306350708007812e+01 -5.716696009039878845e-02 -2.079175859689712524e-01 -7.952536642551422119e-02 -1.359829306602478027e-01
9.790000000000000000e+02 3.403592586517333984e+00 -1.828144073486328125e+01 -6.612518429756164551e-02 -2.891469895839691162e-01 -1.065816581249237061e-01 -1.728705763816833496e-01
9.800000000000000000e+02 4.660123348236083984e+00 -1.587465000152587891e+01 -1.119966506958007812e-01 -3.135892748832702637e-01 -1.276757717132568359e-01 -1.100198328495025635e-01
9.810000000000000000e+02 1.884820580482482910e+00 -1.432376194000244141e+01 -1.209760084748268127e-02 -8.656283468008041382e-02 -2.959812991321086884e-02 -1.480222027748823166e-02
9.820000000000000000e+02 4.760828018188476562e+01 1.890254402160644531e+01 -2.405944108963012695e+00 -9.957431256771087646e-02 -7.516555190086364746e-01 -4.544182717800140381e-01
9.830000000000000000e+02 5.076638412475585938e+01 1.793243026733398438e+01 1.050479531288146973e+00 2.046566486358642578e+00 9.291137456893920898e-01 -1.440385699272155762e+00
9.840000000000000000e+02 5.279027938842773438e+01 1.599888801574707031e+01 2.463721036911010742e+00 4.196416378021240234e+00 1.998041152954101562e+00 -2.973498344421386719e+00
9.850000000000000000e+02 5.369718551635742188e+01 1.492751502990722656e+01 2.375231981277465820e+00 6.116264820098876953e+00 2.547449111938476562e+00 -3.435120582580566406e+00
9.860000000000000000e+02 5.738209152221679688e+01 1.310728931427001953e+01 1.894873261451721191e+00 8.484418869018554688e+00 3.113787412643432617e+00 1.436319388449192047e-02
9.870000000000000000e+02 5.486600494384765625e+01 1.983205032348632812e+01 -7.069725394248962402e-01 4.704474925994873047e+00 1.199250698089599609e+00 -2.558128595352172852e+00
9.880000000000000000e+02 5.444350051879882812e+01 1.380316734313964844e+01 1.810854554176330566e+00 8.831771850585937500e+00 3.192788124084472656e+00 -2.576271295547485352e+00
9.890000000000000000e+02 5.483774185180664062e+01 1.040635108947753906e+01 1.608115732669830322e-01 1.055177021026611328e+01 3.213774442672729492e+00 3.453341722488403320e-01
9.900000000000000000e+02 5.653001785278320312e+01 1.224672698974609375e+01 1.716260910034179688e+00 8.658082008361816406e+00 3.112302780151367188e+00 -1.882548183202743530e-01
9.910000000000000000e+02 6.146906661987304688e+01 1.012358665466308594e+01 1.519111871719360352e+00 7.582209110260009766e+00 2.730396270751953125e+00 -2.594626665115356445e+00
9.920000000000000000e+02 6.321189880371093750e+01 8.294086456298828125e+00 -1.881680190563201904e-01 1.449407696723937988e+00 3.783718943595886230e-01 -4.417172968387603760e-01
9.930000000000000000e+02 6.404188537597656250e+01 7.411281585693359375e+00 -2.410511493682861328e+00 3.483748435974121094e-01 -6.186410188674926758e-01 3.153594732284545898e-01
9.940000000000000000e+02 4.463848114013671875e+01 1.251418972015380859e+01 2.397626042366027832e-01 4.946250915527343750e+00 1.555804014205932617e+00 -5.039463639259338379e-01
9.950000000000000000e+02 4.504383468627929688e+01 1.527612018585205078e+01 1.666769385337829590e-01 2.565188169479370117e+00 8.195595145225524902e-01 4.370505809783935547e-01
9.960000000000000000e+02 4.212737655639648438e+01 2.192230224609375000e+01 -4.349673390388488770e-01 2.074910253286361694e-01 -6.824289262294769287e-02 1.203736811876296997e-01
9.970000000000000000e+02 4.374754714965820312e+01 2.019638824462890625e+01 -5.510570406913757324e-01 1.222916007041931152e+00 2.015576809644699097e-01 5.653243660926818848e-01
9.980000000000000000e+02 1.657795906066894531e+01 6.944931507110595703e+00 4.665929377079010010e-01 1.958875358104705811e-01 1.987441480159759521e-01 3.351796567440032959e-01
9.990000000000000000e+02 1.044649600982666016e+01 9.200514793395996094e+00 -5.416732430458068848e-01 -7.293260693550109863e-01 -3.812997937202453613e-01 5.317090749740600586e-01
1.000000000000000000e+03 9.583651542663574219e+00 1.106034755706787109e+01 -1.978086829185485840e-01 -6.836842298507690430e-01 -2.644478678703308105e-01 3.082096278667449951e-01
1.001000000000000000e+03 9.541497230529785156e+00 1.355114459991455078e+01 9.994261711835861206e-02 1.342881023883819580e-01 7.026921212673187256e-02 2.009224593639373779e-01
1.002000000000000000e+03 9.552760124206542969e+00 1.231582832336425781e+01 -1.387375057674944401e-03 -2.811487317085266113e-01 -8.476082980632781982e-02 1.070321276783943176e-01
1.003000000000000000e+03 7.770703792572021484e+00 1.403348636627197266e+01 1.850665956735610962e-01 -2.070672661066055298e-01 -6.600202992558479309e-03 3.759411871433258057e-01
1.004000000000000000e+03 5.787534713745117188e+00 1.874131774902343750e+01 1.795620620250701904e-01 -3.889226913452148438e-01 -6.280819326639175415e-02 8.832385390996932983e-02
1.005000000000000000e+03 1.093941688537597656e+01 1.662593460083007812e+01 6.285773515701293945e-01 6.111382246017456055e-01 3.719146549701690674e-01 5.690849423408508301e-01
1.006000000000000000e+03 1.202770423889160156e+01 1.759084320068359375e+01 7.561549544334411621e-01 4.997724890708923340e-01 3.767782151699066162e-01 5.530712008476257324e-01
1.007000000000000000e+03 3.159531021118164062e+01 -1.585695552825927734e+01 6.605046242475509644e-02 3.570154011249542236e-01 1.269197613000869751e-01 2.303092330694198608e-01
1.008000000000000000e+03 3.269394683837890625e+01 -1.524265480041503906e+01 -3.718303143978118896e-01 1.089924573898315430e-01 -7.885135710239410400e-02 9.306134283542633057e-02
1.009000000000000000e+03 2.477844047546386719e+01 -1.654187774658203125e+01 -3.651618063449859619e-01 -2.716792225837707520e-01 -1.910523027181625366e-01 -3.866016566753387451e-01
1.010000000000000000e+03 3.384446334838867188e+01 -1.481745719909667969e+01 -9.394128322601318359e-01 -5.755871906876564026e-02 -2.990914583206176758e-01 1.816024780273437500e-01
1.011000000000000000e+03 3.754712677001953125e+01 -1.344951915740966797e+01 -8.904789090156555176e-01 6.139243245124816895e-01 -8.296638727188110352e-02 -6.147126108407974243e-02
1.012000000000000000e+03 3.806427001953125000e+01 -1.079773902893066406e+01 9.320287406444549561e-02 6.780098080635070801e-01 2.313638031482696533e-01 -3.069669902324676514e-01
1.013000000000000000e+03 3.763157272338867188e+01 -1.513370037078857422e+01 -7.185289859771728516e-01 4.725001156330108643e-01 -7.380866259336471558e-02 -1.372001469135284424e-01
1.014000000000000000e+03 3.782244873046875000e+01 -1.694668579101562500e+01 5.104578286409378052e-02 3.169320523738861084e-01 1.103933453559875488e-01 -1.570639908313751221e-01
1.015000000000000000e+03 3.905395507812500000e+01 -1.749120140075683594e+01 1.196415126323699951e-01 2.421892285346984863e-01 1.085492223501205444e-01 -2.670374810695648193e-01
1.016000000000000000e+03 3.986143112182617188e+01 -2.246973609924316406e+01 3.248455375432968140e-02 1.535196781158447266e+00 4.703043997287750244e-01 3.801469802856445312e-01
1.017000000000000000e+03 4.304499435424804688e+01 -2.202563476562500000e+01 9.054941534996032715e-01 2.131849765777587891e+00 9.112032055854797363e-01 1.218605399131774902e+00
1.018000000000000000e+03 4.122047042846679688e+01 -2.776042175292968750e+01 6.772537529468536377e-02 1.781706213951110840e+00 5.548294782638549805e-01 9.551452994346618652e-01
1.019000000000000000e+03 4.077286911010742188e+01 -2.533466339111328125e+01 9.810125827789306641e-01 2.373797893524169922e+00 1.006443142890930176e+00 1.398312330245971680e+00
1.020000000000000000e+03 3.994087600708007812e+01 -2.773886871337890625e+01 1.222857683897018433e-01 3.026611804962158203e+00 9.446692466735839844e-01 1.058090448379516602e+00
1.021000000000000000e+03 3.741164016723632812e+01 -2.838081932067871094e+01 2.624726593494415283e-01 1.345451951026916504e+00 4.823773801326751709e-01 6.954600214958190918e-01
1.022000000000000000e+03 3.371667480468750000e+01 -2.940557098388671875e+01 3.531822264194488525e-01 2.153097540140151978e-01 1.705475896596908569e-01 -1.616396754980087280e-01
1.023000000000000000e+03 3.290257644653320312e+01 -2.816739082336425781e+01 1.815926581621170044e-01 2.133568972349166870e-01 1.184848695993423462e-01 -2.384504526853561401e-01
1.024000000000000000e+03 3.106241226196289062e+01 -2.622710609436035156e+01 2.542351484298706055e-01 3.295731246471405029e-01 1.751424819231033325e-01 -3.117426335811614990e-01
1.025000000000000000e+03 1.465456104278564453e+01 -2.135422325134277344e+01 -6.873573064804077148e-01 -5.873563289642333984e-01 -3.824140727519989014e-01 -5.219693183898925781e-01
1.026000000000000000e+03 1.999127960205078125e+01 -2.647739982604980469e+01 8.107349872589111328e-01 1.719394624233245850e-01 2.948023378849029541e-01 -2.357224673032760620e-01
1.027000000000000000e+03 1.720226287841796875e+01 -4.030810928344726562e+01 7.970433831214904785e-01 1.248481348156929016e-01 2.765674591064453125e-01 -2.411818057298660278e-01
1.028000000000000000e+03 1.886569023132324219e+01 -4.084400939941406250e+01 8.131938576698303223e-01 1.110436320304870605e-01 2.772712409496307373e-01 3.844474256038665771e-02
1.029000000000000000e+03 1.540633773803710938e+01 -4.072999572753906250e+01 5.429050922393798828e-01 1.651058495044708252e-01 2.124032825231552124e-01 -1.384224444627761841e-01
1.030000000000000000e+03 1.524816894531250000e+01 -3.897344589233398438e+01 2.736234962940216064e-01 1.993802785873413086e-01 1.419011354446411133e-01 -3.172581791877746582e-01
1.031000000000000000e+03 1.568460559844970703e+01 2.312680244445800781e+01 9.241915941238403320e-01 2.746364772319793701e-01 3.596484363079071045e-01 4.539915621280670166e-01
1.032000000000000000e+03 1.032128429412841797e+01 2.261097908020019531e+01 -3.056797981262207031e-01 -7.329314202070236206e-02 -1.136918812990188599e-01 1.412478238344192505e-01
1.033000000000000000e+03 8.913498878479003906e+00 2.227817535400390625e+01 -2.190953344106674194e-01 -2.061589062213897705e-01 -1.275762766599655151e-01 1.501701623201370239e-01
1.034000000000000000e+03 7.400160312652587891e+00 2.447949600219726562e+01 -2.855024635791778564e-01 -4.262547791004180908e-01 -2.135271728038787842e-01 3.413547575473785400e-01
1.035000000000000000e+03 2.009075641632080078e+00 2.559789657592773438e+01 -4.472294822335243225e-02 -6.248716115951538086e-01 -2.008783668279647827e-01 3.060389123857021332e-02
1.036000000000000000e+03 6.503002929687500000e+01 2.018627929687500000e+01 -4.544167995452880859e+00 3.242265582084655762e-01 -1.265982389450073242e+00 6.147949099540710449e-01
1.037000000000000000e+03 6.363134002685546875e+01 2.474506759643554688e+01 3.708224594593048096e-01 6.668561458587646484e+00 2.111815214157104492e+00 1.592769503593444824e+00
1.038000000000000000e+03 6.371554565429687500e+01 1.991020202636718750e+01 -1.848198920488357544e-01 3.034727811813354492e+00 8.549723625183105469e-01 2.727576971054077148e+00
1.039000000000000000e+03 6.098522567749023438e+01 1.984352874755859375e+01 1.579581201076507568e-02 6.628057003021240234e+00 1.993155837059020996e+00 2.478937864303588867e+00
1.040000000000000000e+03 5.448372268676757812e+01 1.582507324218750000e+01 1.680402040481567383e+00 6.213153839111328125e+00 2.368066787719726562e+00 -2.120220184326171875e+00
1.041000000000000000e+03 6.111986541748046875e+01 1.613820457458496094e+01 1.541118144989013672e+00 1.257432937622070312e+01 4.234634399414062500e+00 3.226377725601196289e+00
1.042000000000000000e+03 6.066688919067382812e+01 1.342238044738769531e+01 4.858363568782806396e-01 1.162417411804199219e+01 3.633002996444702148e+00 6.592793017625808716e-02
1.043000000000000000e+03 6.634857940673828125e+01 2.031942367553710938e+01 -6.325149059295654297e+00 -5.215075016021728516e-01 -2.053997039794921875e+00 9.265149831771850586e-01
1.044000000000000000e+03 6.834950256347656250e+01 1.953944587707519531e+01 -3.706428527832031250e+00 -2.662724070250988007e-02 -1.119916796684265137e+00 8.537999987602233887e-01
1.045000000000000000e+03 6.926606750488281250e+01 1.858213424682617188e+01 -1.101340055465698242e+00 1.091600775718688965e+00 -2.921812701970338821e-03 1.831755340099334717e-01
1.046000000000000000e+03 6.966926574707031250e+01 2.046027565002441406e+01 -2.439129114151000977e+00 3.565030813217163086e+00 3.377705216407775879e-01 -1.297589659690856934e+00
1.047000000000000000e+03 6.903948974609375000e+01 2.152408218383789062e+01 -1.495536208152770996e+00 2.639885187149047852e+00 3.433046638965606689e-01 -1.360165238380432129e+00
1.048000000000000000e+03 3.183241653442382812e+01 2.326934623718261719e+01 3.141412138938903809e-02 9.253201484680175781e-01 2.870202958583831787e-01 1.783301681280136108e-02
1.049000000000000000e+03 3.186219215393066406e+01 2.057120513916015625e+01 2.809455804526805878e-02 1.069615364074707031e+00 3.293129801750183105e-01 1.992787607014179230e-02
1.050000000000000000e+03 3.805712127685546875e+01 2.182865524291992188e+01 2.547899074852466583e-02 4.418693184852600098e-01 1.402044892311096191e-01 -3.010085225105285645e-01
1.051000000000000000e+03 3.662273406982421875e+01 2.406424140930175781e+01 3.712380230426788330e-01 9.159789681434631348e-01 3.861651122570037842e-01 -5.162770748138427734e-01
1.052000000000000000e+03 5.301770019531250000e+01 3.214157104492187500e+01 7.767530083656311035e-01 5.945650577545166016e+00 2.016721010208129883e+00 4.087370038032531738e-01
1.053000000000000000e+03 7.241107177734375000e+01 -1.359302878379821777e+00 1.770950853824615479e-01 1.943944334983825684e+00 6.363118290901184082e-01 -1.145723342895507812e+00
1.054000000000000000e+03 6.785366821289062500e+01 6.843871593475341797e+00 -1.369166254997253418e+00 4.044925868511199951e-01 -2.894020974636077881e-01 7.510920166969299316e-01
1.055000000000000000e+03 7.429384613037109375e+01 -3.501085996627807617e+00 1.408103585243225098e+00 8.445192337036132812e+00 2.955988645553588867e+00 -3.233176469802856445e+00
1.056000000000000000e+03 7.557060241699218750e+01 4.367445409297943115e-01 -5.288450121879577637e-01 6.691630840301513672e+00 1.848835825920104980e+00 -7.584743499755859375e-01
1.057000000000000000e+03 7.705162048339843750e+01 -3.560183048248291016e+00 2.488379627466201782e-01 8.903827667236328125e+00 2.745799541473388672e+00 1.010798290371894836e-02
1.058000000000000000e+03 6.004996871948242188e+01 -9.535916328430175781e+00 -1.697056293487548828e-01 5.080318450927734375e+00 1.473183870315551758e+00 2.271998643875122070e+00
1.059000000000000000e+03 6.124544143676757812e+01 -7.588250637054443359e+00 1.799097061157226562e+00 1.163112735748291016e+01 4.029067516326904297e+00 1.476140022277832031e+00
1.060000000000000000e+03 6.770745086669921875e+01 -1.460942029953002930e+00 2.186715602874755859e+00 2.125427961349487305e+00 1.293642997741699219e+00 1.759860515594482422e+00
1.061000000000000000e+03 6.674736022949218750e+01 -2.490979433059692383e+00 1.934861183166503906e+00 3.329568862915039062e+00 1.579329013824462891e+00 2.321262121200561523e+00
1.062000000000000000e+03 6.856951904296875000e+01 -2.325481176376342773e-01 1.543629884719848633e+00 1.589352369308471680e+00 9.398946762084960938e-01 1.814431667327880859e+00
1.063000000000000000e+03 6.985516357421875000e+01 -7.101288437843322754e-01 7.239742279052734375e-01 4.599437117576599121e-01 3.551753759384155273e-01 8.501404523849487305e-01
1.064000000000000000e+03 4.519594955444335938e+01 -3.848471832275390625e+01 -2.496681511402130127e-01 5.495730638504028320e-01 8.997146785259246826e-02 3.723635375499725342e-01
1.065000000000000000e+03 4.301642608642578125e+01 -3.849192428588867188e+01 -2.923400998115539551e-01 5.033164620399475098e-01 6.329291313886642456e-02 -1.275637894868850708e-01
1.066000000000000000e+03 4.660720825195312500e+01 -3.772284317016601562e+01 6.538459658622741699e-02 6.240954995155334473e-01 2.068440318107604980e-01 7.543355226516723633e-01
1.067000000000000000e+03 4.147904968261718750e+01 -3.748788833618164062e+01 -1.442385464906692505e-01 4.514792859554290771e-01 9.217222034931182861e-02 -4.587730169296264648e-01
1.068000000000000000e+03 3.964915847778320312e+01 -3.100002288818359375e+01 8.115478157997131348e-01 4.168652534484863281e+00 1.494060039520263672e+00 1.677471041679382324e+00
1.069000000000000000e+03 3.783451461791992188e+01 -2.732129287719726562e+01 6.740264296531677246e-01 1.416322708129882812e+00 6.271047592163085938e-01 1.010344505310058594e+00
1.070000000000000000e+03 4.026958847045898438e+01 -2.989000892639160156e+01 1.119350790977478027e+00 3.308931827545166016e+00 1.328484773635864258e+00 1.709566712379455566e+00
1.071000000000000000e+03 5.864855957031250000e+01 -7.086361199617385864e-02 4.585241317749023438e+00 4.650389194488525391e+00 2.770689249038696289e+00 -3.769444465637207031e+00
1.072000000000000000e+03 5.954993057250976562e+01 -1.015806674957275391e+00 4.133871555328369141e+00 7.117561340332031250e+00 3.375429868698120117e+00 -5.329067230224609375e+00
1.073000000000000000e+03 5.670891189575195312e+01 4.573564231395721436e-01 3.497488737106323242e+00 4.393133223056793213e-01 1.181040644645690918e+00 -5.553087592124938965e-01
1.074000000000000000e+03 5.800611495971679688e+01 8.620104193687438965e-01 3.449427604675292969e+00 3.994232177734375000e+00 2.233098030090332031e+00 -2.283498048782348633e+00
1.075000000000000000e+03 5.564888000488281250e+01 2.667277574539184570e+00 1.803802967071533203e+00 5.391894817352294922e+00 2.158709287643432617e+00 2.128656387329101562e+00
1.076000000000000000e+03 5.022354888916015625e+01 -2.829880332946777344e+01 6.323455572128295898e-01 2.160427570343017578e+00 8.378319144248962402e-01 -5.263698101043701172e-01
1.077000000000000000e+03 5.093968200683593750e+01 -2.689746284484863281e+01 2.083873935043811798e-02 1.195045828819274902e+00 3.647653758525848389e-01 -5.522520542144775391e-01
1.078000000000000000e+03 4.727389907836914062e+01 -1.096686840057373047e+01 2.287618160247802734e+00 7.908492088317871094e+00 3.058833122253417969e+00 3.133810281753540039e+00
1.079000000000000000e+03 4.812254333496093750e+01 -8.889989852905273438e+00 8.221781998872756958e-02 3.763671875000000000e+00 1.153766870498657227e+00 2.188224554061889648e+00
1.080000000000000000e+03 9.816493034362792969e+00 -1.817215323448181152e+00 -1.409021019935607910e-01 -1.278411298990249634e-01 -8.062297105789184570e-02 -1.248599886894226074e-01
1.081000000000000000e+03 2.729603958129882812e+01 -3.034262466430664062e+01 2.456882447004318237e-01 2.853712439537048340e-01 1.593178510665893555e-01 -2.311624437570571899e-01
1.082000000000000000e+03 2.500710868835449219e+01 -3.219157791137695312e+01 5.742517858743667603e-02 6.421552598476409912e-02 3.649220988154411316e-02 -9.112711250782012939e-02
1.083000000000000000e+03 6.590618896484375000e+01 -3.167271614074707031e+01 8.480480909347534180e-01 1.008469581604003906e+01 3.279823064804077148e+00 -1.682844758033752441e+00
1.084000000000000000e+03 6.904517364501953125e+01 -2.784930801391601562e+01 3.893767595291137695e-01 1.443664908409118652e+00 5.499125123023986816e-01 -7.916945219039916992e-01
1.085000000000000000e+03 7.820394897460937500e+01 -2.641567993164062500e+01 -2.090510278940200806e-01 8.198799133300781250e+00 2.396924495697021484e+00 -4.702974259853363037e-01
1.086000000000000000e+03 7.936029052734375000e+01 -2.357719039916992188e+01 1.000947058200836182e-01 7.183253765106201172e+00 2.185004711151123047e+00 -1.691398769617080688e-01
1.087000000000000000e+03 7.927149200439453125e+01 -3.331140518188476562e+01 -1.738334260880947113e-02 8.268553733825683594e+00 2.475351333618164062e+00 5.298693105578422546e-02
1.088000000000000000e+03 5.086006546020507812e+01 -1.487062931060791016e+01 -8.487704992294311523e-01 5.193184018135070801e-01 -9.883562475442886353e-02 -5.197170004248619080e-02
1.089000000000000000e+03 4.583100128173828125e+01 -1.753049468994140625e+01 -3.600495308637619019e-02 4.090265274047851562e+00 1.216278076171875000e+00 7.059238553047180176e-01
1.090000000000000000e+03 3.894625854492187500e+01 -1.162877655029296875e+01 -1.438049823045730591e-01 3.070641160011291504e-01 4.897774010896682739e-02 -8.914260566234588623e-02
1.091000000000000000e+03 3.711052322387695312e+01 -9.056339263916015625e+00 1.877006888389587402e-01 1.320923328399658203e+00 4.525872170925140381e-01 -1.894391775131225586e-01
1.092000000000000000e+03 3.080451965332031250e+01 -1.120848369598388672e+01 -6.572930216789245605e-01 -2.790695726871490479e-01 -2.809087932109832764e-01 -9.711631387472152710e-02
1.093000000000000000e+03 6.900318908691406250e+01 7.336455345153808594e+00 6.961655616760253906e-01 1.376466631889343262e+00 6.217896938323974609e-01 1.321971535682678223e+00
1.094000000000000000e+03 4.969675827026367188e+01 1.874657440185546875e+01 -1.370159387588500977e+00 8.271493911743164062e-01 -1.629030108451843262e-01 -8.089296817779541016e-01
1.095000000000000000e+03 4.473079299926757812e+01 1.389045619964599609e+01 2.309534996747970581e-01 3.850755453109741211e+00 1.224512696266174316e+00 9.542954713106155396e-02
1.096000000000000000e+03 3.369843673706054688e+01 1.706436347961425781e+01 3.853554427623748779e-01 5.463527441024780273e-01 2.795124650001525879e-01 4.036243259906768799e-02
1.097000000000000000e+03 2.151399612426757812e+01 8.636029243469238281e+00 3.843712806701660156e-01 -1.503039300441741943e-01 7.022020220756530762e-02 2.033562809228897095e-01
1.098000000000000000e+03 3.195173454284667969e+01 1.801485252380371094e+01 2.375310212373733521e-01 1.331759452819824219e+00 4.707871377468109131e-01 2.672238349914550781e-01
1.099000000000000000e+03 6.627689361572265625e+01 3.208774185180664062e+01 3.741215467453002930e-01 5.280792713165283203e+00 1.696474313735961914e+00 7.244175076484680176e-01
1.100000000000000000e+03 4.626389694213867188e+01 3.037096405029296875e+01 1.018216848373413086e+00 3.213412046432495117e+00 1.269488573074340820e+00 -1.157130241394042969e+00
1.101000000000000000e+03 1.004120159149169922e+01 1.950388717651367188e+01 2.350835800170898438e-01 4.851471632719039917e-02 8.507949113845825195e-02 2.077859789133071899e-01
1.102000000000000000e+03 2.236269760131835938e+01 2.301222038269042969e+01 6.139848753809928894e-02 -3.459384897723793983e-03 1.738173142075538635e-02 5.747602880001068115e-02
1.103000000000000000e+03 2.231376886367797852e+00 1.589261817932128906e+01 4.667117074131965637e-02 -4.568398892879486084e-01 -1.230506151914596558e-01 1.297523677349090576e-01
1.104000000000000000e+03 9.008723258972167969e+00 1.470701599121093750e+01 2.765129506587982178e-01 1.116653680801391602e-01 1.164534911513328552e-01 3.229889869689941406e-01
1.105000000000000000e+03 2.069940757751464844e+01 1.990312004089355469e+01 4.308850970119237900e-03 -2.771068923175334930e-02 -7.020551711320877075e-03 -8.982668071985244751e-02
1.106000000000000000e+03 1.663199186325073242e+00 8.998048782348632812e+00 -2.691491693258285522e-02 -2.795308455824851990e-02 -1.646040007472038269e-02 8.859096467494964600e-02
1.107000000000000000e+03 4.013280487060546875e+01 3.691943407058715820e+00 4.743113368749618530e-02 -1.008381724357604980e+00 -2.882851660251617432e-01 8.533793687820434570e-02
1.108000000000000000e+03 2.603018188476562500e+01 1.119564056396484375e+01 2.572599351406097412e-01 1.381160318851470947e-01 1.186127960681915283e-01 9.713507443666458130e-02
1.109000000000000000e+03 9.077329635620117188e+00 -1.835713505744934082e+00 -1.085039600729942322e-01 3.401970118284225464e-02 -2.234527841210365295e-02 -8.217084407806396484e-02
1.110000000000000000e+03 7.616302490234375000e+00 -1.850128769874572754e+00 -7.819210737943649292e-02 3.491383418440818787e-02 -1.298348139971494675e-02 -5.664109066128730774e-02
1.111000000000000000e+03 8.345249176025390625e+00 -1.842677950859069824e+00 -1.075892895460128784e-01 -8.920015394687652588e-02 -5.903683230280876160e-02 -9.629879146814346313e-02
1.112000000000000000e+03 6.885500431060791016e+00 -1.863363385200500488e+00 -6.646848469972610474e-02 -6.539433449506759644e-02 -3.955884277820587158e-02 -6.566393375396728516e-02
1.113000000000000000e+03 2.514845371246337891e+00 -1.912865400314331055e+00 -5.080724135041236877e-03 -2.203823626041412354e-02 -8.135688491165637970e-03 -1.298595406115055084e-02
1.114000000000000000e+03 3.073137283325195312e+00 -2.960204839706420898e+00 -1.351127866655588150e-02 -3.104139678180217743e-02 -1.336580235511064529e-02 -2.566814050078392029e-02
1.115000000000000000e+03 3.941491365432739258e+00 -1.903404474258422852e+00 -1.465082913637161255e-02 -3.461163863539695740e-02 -1.477874070405960083e-02 -2.805640362203121185e-02
1.116000000000000000e+03 1.871767401695251465e+00 -1.950981974601745605e+00 -6.605220027267932892e-03 6.235871929675340652e-03 -1.108044816646724939e-04 1.184985623694956303e-03
1.117000000000000000e+03 1.169576406478881836e+00 -2.104587554931640625e+00 -4.199102520942687988e-03 -6.347818300127983093e-03 -3.164076246321201324e-03 -3.126922296360135078e-03
1.118000000000000000e+03 2.140924215316772461e+00 -4.162544631958007812e+01 9.479563683271408081e-03 -6.587278842926025391e-01 -1.947744935750961304e-01 -2.775433473289012909e-03
1.119000000000000000e+03 1.215371727943420410e+00 -3.860139465332031250e+01 8.855502121150493622e-03 -6.423272490501403809e-01 -1.900415271520614624e-01 -2.006396465003490448e-02
1.120000000000000000e+03 7.065744400024414062e-01 -3.451808166503906250e+01 -8.277326822280883789e-03 -5.315304994583129883e-01 -1.619423627853393555e-01 -2.191985026001930237e-02
1.121000000000000000e+03 6.654577851295471191e-01 -3.313124084472656250e+01 4.941149149090051651e-03 -4.906517565250396729e-01 -1.457131803035736084e-01 -1.495741214603185654e-02
1.122000000000000000e+03 6.057940721511840820e-01 -2.897992134094238281e+01 -1.196936424821615219e-02 -4.341729283332824707e-01 -1.338426917791366577e-01 1.419365406036376953e-03
1.123000000000000000e+03 6.164692044258117676e-01 -2.757790946960449219e+01 8.922474458813667297e-03 -4.431128203868865967e-01 -1.302570998668670654e-01 7.520298473536968231e-03
1.124000000000000000e+03 1.837255001068115234e+00 -2.744162178039550781e+01 -1.404893491417169571e-02 -3.813534677028656006e-01 -1.186207234859466553e-01 1.651240885257720947e-02
1.125000000000000000e+03 2.060526847839355469e+00 -2.295386505126953125e+01 5.478585511445999146e-02 -3.574417531490325928e-01 -9.079676866531372070e-02 -3.305095806717872620e-02
1.126000000000000000e+03 7.156903743743896484e-01 -2.178257369995117188e+01 1.860926300287246704e-02 -4.242727458477020264e-01 -1.216990426182746887e-01 -3.397044911980628967e-02
1.127000000000000000e+03 7.057024240493774414e-01 -2.034369850158691406e+01 1.832672045566141605e-03 -3.393892347812652588e-01 -1.012669652700424194e-01 -5.973686650395393372e-02
1.128000000000000000e+03 2.135925531387329102e+00 -1.700472831726074219e+01 -3.244895488023757935e-02 -1.756868660449981689e-01 -6.244074553251266479e-02 -8.946470171213150024e-02
1.129000000000000000e+03 6.299862861633300781e-01 -1.473701000213623047e+01 -1.076257415115833282e-02 -4.957659635692834854e-03 -4.716069903224706650e-03 -1.060656830668449402e-02
1.130000000000000000e+03 5.965218544006347656e-01 -1.334598255157470703e+01 2.963593695312738419e-03 9.609184227883815765e-03 3.771833376958966255e-03 2.422580262646079063e-03
1.131000000000000000e+03 1.783624291419982910e+00 -1.298425960540771484e+01 -1.713797263801097870e-02 -7.749932259321212769e-02 -2.839118801057338715e-02 -7.769060903228819370e-04
1.132000000000000000e+03 5.308089256286621094e-01 -9.168128967285156250e+00 -6.467991042882204056e-03 -1.895208284258842468e-02 -7.626021746546030045e-03 1.769963128026574850e-04
1.133000000000000000e+03 5.252075195312500000e-01 -7.774865627288818359e+00 7.236442528665065765e-03 -1.933165639638900757e-02 -3.628564300015568733e-03 1.617040019482374191e-03
1.134000000000000000e+03 1.568290233612060547e+00 -7.626071929931640625e+00 -2.019062638282775879e-03 -4.108740389347076416e-02 -1.293194014579057693e-02 -7.322120480239391327e-03
1.135000000000000000e+03 5.332572460174560547e-01 -6.369942665100097656e+00 -3.359261667355895042e-03 -1.739323697984218597e-02 -6.225749850273132324e-03 -5.173208191990852356e-03
1.136000000000000000e+03 7.182261657714843750e+01 -4.131722259521484375e+01 -5.663074254989624023e-01 6.207654476165771484e+00 1.692404150962829590e+00 -1.683144271373748779e-01
1.137000000000000000e+03 3.237072372436523438e+01 -4.117029953002929688e+01 5.223972350358963013e-02 9.403994679450988770e-01 2.977917790412902832e-01 7.570509612560272217e-02
1.138000000000000000e+03 7.845359039306640625e+01 4.025432205200195312e+01 -5.383250489830970764e-02 7.545432567596435547e+00 2.247479915618896484e+00 -5.705426633358001709e-02
1.139000000000000000e+03 7.801162719726562500e+01 4.174362945556640625e+01 9.362524747848510742e-02 7.504584789276123047e+00 2.279463052749633789e+00 -2.620637230575084686e-02
1.140000000000000000e+03 7.864956665039062500e+01 3.881634902954101562e+01 -4.739083349704742432e-02 7.582486152648925781e+00 2.260528564453125000e+00 -1.232777908444404602e-02
1.141000000000000000e+03 7.920754241943359375e+01 3.469674682617187500e+01 2.028990536928176880e-02 7.554942131042480469e+00 2.272569656372070312e+00 3.199303522706031799e-02
1.142000000000000000e+03 7.593578338623046875e+01 3.407005310058593750e+01 8.058471977710723877e-02 6.735617637634277344e+00 2.044860839843750000e+00 1.726559996604919434e-01
1.143000000000000000e+03 7.924684906005859375e+01 3.332147598266601562e+01 -7.156793028116226196e-03 7.518372058868408203e+00 2.253364562988281250e+00 1.540931873023509979e-02
1.144000000000000000e+03 7.931494903564453125e+01 3.054724884033203125e+01 3.806031541898846626e-03 7.536658287048339844e+00 2.262139320373535156e+00 -2.535573579370975494e-02
1.145000000000000000e+03 7.669223785400390625e+01 2.867211532592773438e+01 1.486924737691879272e-01 6.889713764190673828e+00 2.111521959304809570e+00 -2.189400643110275269e-01
1.146000000000000000e+03 7.936988067626953125e+01 2.637886238098144531e+01 5.202158354222774506e-03 7.948610782623291016e+00 2.386143922805786133e+00 -7.560291886329650879e-02
1.147000000000000000e+03 7.683613586425781250e+01 2.597063827514648438e+01 2.173290774226188660e-02 7.094686985015869141e+00 2.134925842285156250e+00 -3.264605998992919922e-01
1.148000000000000000e+03 7.937876892089843750e+01 2.498853111267089844e+01 -1.551704481244087219e-02 8.131887435913085938e+00 2.434911012649536133e+00 -6.775425374507904053e-02
1.149000000000000000e+03 7.937103271484375000e+01 2.082701110839843750e+01 -4.732634499669075012e-02 8.124362945556640625e+00 2.423110961914062500e+00 1.455082148313522339e-01
1.150000000000000000e+03 7.937241363525390625e+01 1.944111633300781250e+01 -3.478018566966056824e-02 7.746616840362548828e+00 2.313550949096679688e+00 2.383024841547012329e-01
1.151000000000000000e+03 7.809868621826171875e+01 2.067996597290039062e+01 -2.252158075571060181e-01 7.722562313079833984e+00 2.249203920364379883e+00 3.329990804195404053e-01
1.152000000000000000e+03 7.938229370117187500e+01 1.805414390563964844e+01 -4.069953411817550659e-02 7.165030479431152344e+00 2.137299299240112305e+00 3.241857290267944336e-01
1.153000000000000000e+03 7.942221832275390625e+01 1.392102527618408203e+01 5.850893259048461914e-02 5.038316249847412109e+00 1.529047608375549316e+00 2.479357570409774780e-01
1.154000000000000000e+03 7.831198120117187500e+01 1.256511211395263672e+01 3.007131218910217285e-01 5.738219738006591797e+00 1.811679840087890625e+00 3.115530312061309814e-01
1.155000000000000000e+03 7.942742919921875000e+01 1.117861080169677734e+01 8.375883847475051880e-02 4.549712657928466797e+00 1.390041470527648926e+00 -5.363490059971809387e-02
1.156000000000000000e+03 7.931819915771484375e+01 7.011409282684326172e+00 4.026051238179206848e-02 6.014310836791992188e+00 1.816371440887451172e+00 -3.182282149791717529e-01
1.157000000000000000e+03 7.931903076171875000e+01 5.604308605194091797e+00 -5.717863142490386963e-02 6.629188537597656250e+00 1.971603035926818848e+00 -2.958123385906219482e-01
1.158000000000000000e+03 7.795034790039062500e+01 5.633727550506591797e+00 -5.890813097357749939e-02 6.784727573394775391e+00 2.017745733261108398e+00 -7.320463061332702637e-01
1.159000000000000000e+03 7.934477233886718750e+01 4.202314853668212891e+00 1.503770798444747925e-02 7.189455986022949219e+00 2.161348104476928711e+00 -2.538895905017852783e-01
1.160000000000000000e+03 7.931472778320312500e+01 -3.988890093751251698e-04 -1.151125729084014893e-01 7.903810024261474609e+00 2.336609363555908203e+00 7.247032225131988525e-02
1.161000000000000000e+03 7.932823181152343750e+01 -1.424678564071655273e+00 1.404471416026353836e-02 7.658065319061279297e+00 2.301633119583129883e+00 1.763659715652465820e-01
1.162000000000000000e+03 7.941477966308593750e+01 -2.830966472625732422e+00 -6.575398147106170654e-02 7.227023124694824219e+00 2.148380756378173828e+00 2.255370914936065674e-01
1.163000000000000000e+03 7.950800323486328125e+01 -4.185940265655517578e+00 8.460208028554916382e-02 6.645610809326171875e+00 2.019063949584960938e+00 2.133985906839370728e-01
1.164000000000000000e+03 7.854312133789062500e+01 -4.273949623107910156e+00 1.929965913295745850e-01 7.656908512115478516e+00 2.354971408843994141e+00 3.764773905277252197e-01
1.165000000000000000e+03 7.495244598388671875e+01 -9.546104431152343750e+00 3.994120061397552490e-01 1.002824592590332031e+01 3.128297328948974609e+00 1.139178156852722168e+00
1.166000000000000000e+03 7.936965179443359375e+01 -8.221816062927246094e+00 1.648284494876861572e-01 7.930767536163330078e+00 2.428678750991821289e+00 -6.304097771644592285e-01
1.167000000000000000e+03 7.932901000976562500e+01 -1.102301025390625000e+01 -7.504975888878107071e-03 1.040246868133544922e+01 3.118489265441894531e+00 -5.689660310745239258e-01
1.168000000000000000e+03 7.921469116210937500e+01 -1.516480827331542969e+01 -7.201738655567169189e-02 1.051394653320312500e+01 3.132578849792480469e+00 3.133909404277801514e-01
1.169000000000000000e+03 7.389910888671875000e+01 -1.669107246398925781e+01 -2.836352586746215820e-01 5.732856750488281250e+00 1.634766459465026855e+00 -2.208486571907997131e-02
1.170000000000000000e+03 7.937059783935546875e+01 -1.802659416198730469e+01 1.177496165037155151e-01 8.807246208190917969e+00 2.677498817443847656e+00 4.391416907310485840e-01
1.171000000000000000e+03 7.837599945068359375e+01 -1.928679466247558594e+01 1.675547063350677490e-01 8.331340789794921875e+00 2.549668550491333008e+00 8.263323307037353516e-01
1.172000000000000000e+03 7.440254211425781250e+01 -2.326948547363281250e+01 1.250880718231201172e+00 1.183071899414062500e+01 3.924479961395263672e+00 7.060840129852294922e-01
1.173000000000000000e+03 7.807702636718750000e+01 -2.335863304138183594e+01 3.593305051326751709e-01 7.960448265075683594e+00 2.495933771133422852e+00 -3.354076147079467773e-01
1.174000000000000000e+03 7.935507965087890625e+01 -2.501102447509765625e+01 1.026569865643978119e-03 7.628475189208984375e+00 2.288850545883178711e+00 -2.622601687908172607e-01
1.175000000000000000e+03 7.938499450683593750e+01 -2.917756462097167969e+01 -7.924280129373073578e-03 8.604563713073730469e+00 2.578991889953613281e+00 -5.185662303119897842e-03
1.176000000000000000e+03 7.787702178955078125e+01 -3.165133857727050781e+01 -5.277601256966590881e-02 7.845940589904785156e+00 2.337949275970458984e+00 2.168507874011993408e-01
1.177000000000000000e+03 7.929505920410156250e+01 -3.191512107849121094e+01 2.756625041365623474e-02 8.391629219055175781e+00 2.525758743286132812e+00 5.634664371609687805e-02
1.178000000000000000e+03 7.916953277587890625e+01 -3.606975555419921875e+01 -3.142006695270538330e-03 8.132217407226562500e+00 2.438722610473632812e+00 1.380594912916421890e-02
1.179000000000000000e+03 7.910663604736328125e+01 -3.744826507568359375e+01 -2.064788946881890297e-03 8.097033500671386719e+00 2.428490400314331055e+00 1.934855617582798004e-02
1.180000000000000000e+03 7.899703216552734375e+01 -3.881674575805664062e+01 7.032427936792373657e-03 8.067960739135742188e+00 2.422497987747192383e+00 1.227741595357656479e-02
1.181000000000000000e+03 7.870712280273437500e+01 -4.017676544189453125e+01 -3.715468198060989380e-02 8.023637771606445312e+00 2.395945072174072266e+00 4.198978841304779053e-02
1.182000000000000000e+03 2.439802742004394531e+01 3.797949600219726562e+01 1.528623402118682861e-01 2.723773121833801270e-01 1.275718957185745239e-01 -2.348986454308032990e-02
1.183000000000000000e+03 4.667013168334960938e+01 3.790813446044921875e+01 -3.395065665245056152e-01 2.750733613967895508e+00 7.233681082725524902e-01 -5.698908567428588867e-01
1.184000000000000000e+03 3.797132968902587891e-01 2.163010597229003906e+00 1.169306109659373760e-03 3.155609592795372009e-02 9.817620739340782166e-03 -9.197887964546680450e-03
1.185000000000000000e+03 2.603809356689453125e+00 2.878261327743530273e+00 3.101573558524250984e-03 1.990240812301635742e-02 6.901194341480731964e-03 -5.151396244764328003e-02
1.186000000000000000e+03 5.526336193084716797e+00 4.952482223510742188e+00 -1.214568838477134705e-01 -3.655428066849708557e-02 -4.740335047245025635e-02 -2.247811062261462212e-03
1.187000000000000000e+03 1.559604883193969727e+00 4.890110969543457031e+00 -1.564468257129192352e-02 5.770535394549369812e-02 1.261820178478956223e-02 -2.382377907633781433e-02
1.188000000000000000e+03 5.468031167984008789e-01 9.178412437438964844e+00 -5.232020746916532516e-03 2.876714617013931274e-02 7.060537580400705338e-03 3.187902644276618958e-02
1.189000000000000000e+03 5.827544331550598145e-01 1.196590995788574219e+01 -2.955067204311490059e-03 -2.113219350576400757e-01 -6.428309530019760132e-02 5.841823294758796692e-02
1.190000000000000000e+03 7.326323390007019043e-01 1.619057655334472656e+01 1.078773196786642075e-02 -5.717225074768066406e-01 -1.682804375886917114e-01 4.015778377652168274e-02
1.191000000000000000e+03 7.192556262016296387e-01 1.764023399353027344e+01 8.021218702197074890e-03 -6.287924051284790039e-01 -1.862313598394393921e-01 2.304832078516483307e-02
1.192000000000000000e+03 5.427838563919067383e-01 2.191748237609863281e+01 4.010507836937904358e-03 -6.128804683685302734e-01 -1.826609820127487183e-01 -1.728576794266700745e-02
1.193000000000000000e+03 3.256952285766601562e+00 2.501359558105468750e+01 -8.410803973674774170e-02 -6.332890987396240234e-01 -2.152191549539566040e-01 4.598011448979377747e-02
1.194000000000000000e+03 4.749321937561035156e+00 2.537206459045410156e+01 -1.613450944423675537e-01 -6.655289530754089355e-01 -2.480622231960296631e-01 1.162718534469604492e-01
1.195000000000000000e+03 2.233740806579589844e+00 2.931257629394531250e+01 -4.040186293423175812e-03 -7.452442049980163574e-01 -2.247853130102157593e-01 1.826367080211639404e-01
1.196000000000000000e+03 7.275134921073913574e-01 3.058258628845214844e+01 2.419476769864559174e-02 -9.261819124221801758e-01 -2.705961465835571289e-01 7.674709707498550415e-02
1.197000000000000000e+03 3.884268999099731445e+00 3.053326606750488281e+01 2.399312704801559448e-02 -6.907592415809631348e-01 -2.000298351049423218e-01 1.918919235467910767e-01
1.198000000000000000e+03 6.915792822837829590e-01 3.632098770141601562e+01 3.169341362081468105e-04 -1.189540863037109375e+00 -3.567671775817871094e-01 4.565905313938856125e-03
1.199000000000000000e+03 1.575219154357910156e+00 3.806333923339843750e+01 9.603286162018775940e-03 -9.698556065559387207e-01 -2.880756855010986328e-01 -6.060542166233062744e-02
1.200000000000000000e+03 6.370018720626831055e-01 3.878717041015625000e+01 -2.088344655930995941e-02 -1.094487071037292480e+00 -3.346111476421356201e-01 -3.164382651448249817e-02
1.201000000000000000e+03 1.087854385375976562e+00 4.005193710327148438e+01 4.199340194463729858e-02 -9.860900044441223145e-01 -2.832289934158325195e-01 -7.433021813631057739e-02
1.202000000000000000e+03 9.409663200378417969e+00 1.880628824234008789e+00 5.073717236518859863e-02 -4.148374497890472412e-02 2.776027657091617584e-03 1.833832077682018280e-02
1.203000000000000000e+03 8.674481391906738281e+00 1.869071364402770996e+00 6.347946077585220337e-02 -3.270892426371574402e-02 9.231161326169967651e-03 -3.610329702496528625e-03
1.204000000000000000e+03 7.929414749145507812e+00 1.875212788581848145e+00 5.955919250845909119e-02 -2.167177014052867889e-02 1.136622764170169830e-02 -1.613193564116954803e-02
1.205000000000000000e+03 7.175865173339843750e+00 1.886790633201599121e+00 6.281367689371109009e-02 -1.688321307301521301e-02 1.377913821488618851e-02 -3.254872560501098633e-02
1.206000000000000000e+03 6.417345046997070312e+00 1.897450923919677734e+00 5.789069831371307373e-02 -1.060398388653993607e-02 1.418601348996162415e-02 -4.165375977754592896e-02
1.207000000000000000e+03 5.657573223114013672e+00 1.905536055564880371e+00 5.366846919059753418e-02 -7.792373187839984894e-03 1.376282796263694763e-02 -4.881059750914573669e-02
1.208000000000000000e+03 4.898013114929199219e+00 1.913901090621948242e+00 4.681945964694023132e-02 -2.324661938473582268e-03 1.334843877702951431e-02 -5.216838791966438293e-02
1.209000000000000000e+03 4.139107227325439453e+00 1.925528764724731445e+00 4.016440361738204956e-02 -6.930039671715348959e-05 1.202853024005889893e-02 -5.374340340495109558e-02
1.210000000000000000e+03 3.383313179016113281e+00 1.940935611724853516e+00 3.126237913966178894e-02 6.277643144130706787e-03 1.126200705766677856e-02 -5.189226567745208740e-02
1.211000000000000000e+03 1.884932160377502441e+00 1.986910104751586914e+00 1.572902314364910126e-02 1.773551106452941895e-02 1.003936026245355606e-02 -4.030897840857505798e-02
1.212000000000000000e+03 1.134274601936340332e+00 2.062745332717895508e+00 7.297652773559093475e-03 2.907698601484298706e-02 1.091239135712385178e-02 -2.788820117712020874e-02
1.213000000000000000e+03 1.141524505615234375e+01 8.313532829284667969e+00 -6.237138509750366211e-01 -5.696209669113159180e-01 -3.580004572868347168e-01 6.172126531600952148e-01
1.214000000000000000e+03 1.219800281524658203e+01 2.428052902221679688e+00 -1.335932463407516479e-01 -4.798939824104309082e-02 -5.447479337453842163e-02 1.683859825134277344e-01
1.215000000000000000e+03 1.436812400817871094e+01 3.772547721862792969e+00 -4.545639455318450928e-01 -2.872765250504016876e-02 -1.449874788522720337e-01 4.892875850200653076e-01
1.216000000000000000e+03 1.447104930877685547e+01 2.928932905197143555e+00 -4.589633643627166748e-01 3.078014217317104340e-02 -1.284549683332443237e-01 3.749404251575469971e-01
1.217000000000000000e+03 1.526256561279296875e+01 3.102812528610229492e+00 -5.771648287773132324e-01 2.818726003170013428e-02 -1.646932661533355713e-01 4.243128001689910889e-01
1.218000000000000000e+03 1.880289459228515625e+01 4.136874675750732422e+00 -6.066919565200805664e-01 -2.088170312345027924e-02 -1.882721036672592163e-01 2.975459396839141846e-01
1.219000000000000000e+03 1.864296340942382812e+01 3.329317331314086914e+00 -9.096611738204956055e-01 -7.422364503145217896e-02 -2.951654493808746338e-01 3.029796779155731201e-01
1.220000000000000000e+03 2.252012252807617188e+01 2.473165988922119141e+00 -1.114448666572570801e+00 -1.083843484520912170e-01 -3.668498992919921875e-01 3.115535378456115723e-01
1.221000000000000000e+03 2.117921447753906250e+01 3.582375049591064453e+00 -7.689169645309448242e-01 -1.542352437973022461e-01 -2.769456803798675537e-01 2.078020423650741577e-01
1.222000000000000000e+03 2.327797317504882812e+01 2.286972761154174805e+00 -1.120916485786437988e+00 -1.184097677469253540e-01 -3.717978894710540771e-01 3.251041173934936523e-01
1.223000000000000000e+03 2.403302383422851562e+01 2.092308282852172852e+00 -1.124679088592529297e+00 -9.792104363441467285e-02 -3.667800128459930420e-01 3.435304760932922363e-01
1.224000000000000000e+03 2.478594017028808594e+01 1.886818289756774902e+00 -1.149615287780761719e+00 -7.463720440864562988e-02 -3.672757446765899658e-01 3.358127176761627197e-01
1.225000000000000000e+03 2.857775115966796875e+01 9.958974123001098633e-01 -1.251569032669067383e+00 2.276059538125991821e-01 -3.071889281272888184e-01 1.082749888300895691e-01
1.226000000000000000e+03 2.989516830444335938e+01 4.876765727996826172e+00 1.435545086860656738e-01 7.211028933525085449e-01 2.593972384929656982e-01 -2.829850018024444580e-01
1.227000000000000000e+03 2.936707687377929688e+01 8.388108611106872559e-01 -1.293027997016906738e+00 3.047294616699218750e-01 -2.964895367622375488e-01 -2.563820593059062958e-02
1.228000000000000000e+03 3.014281654357910156e+01 6.381054520606994629e-01 -1.251861929893493652e+00 2.769947648048400879e-01 -2.924601733684539795e-01 -8.404014259576797485e-02
1.229000000000000000e+03 3.119660568237304688e+01 1.201232671737670898e+00 -1.325935363769531250e+00 3.497201800346374512e-01 -2.928645610809326172e-01 -1.905514746904373169e-01
1.230000000000000000e+03 3.315289306640625000e+01 1.854763388633728027e+00 -3.040103435516357422e+00 -2.494299113750457764e-01 -9.868599772453308105e-01 9.482958316802978516e-01
1.231000000000000000e+03 2.659400558471679688e+01 2.898577213287353516e+00 -7.749583125114440918e-01 1.044622734189033508e-01 -2.011488080024719238e-01 2.462136298418045044e-01
1.232000000000000000e+03 3.882236862182617188e+01 3.457883834838867188e+00 9.971898794174194336e-01 -4.040599167346954346e-01 1.779389828443527222e-01 2.386257052421569824e-01
1.233000000000000000e+03 4.285473251342773438e+01 3.078930616378784180e+00 -1.103755354881286621e+00 1.644499450922012329e-01 -2.817916274070739746e-01 1.425677686929702759e-01
1.234000000000000000e+03 4.182880020141601562e+01 2.428401708602905273e+00 -1.603005409240722656e+00 -1.238551139831542969e-01 -5.180581212043762207e-01 2.536397278308868408e-01
1.235000000000000000e+03 4.441778564453125000e+01 1.459322094917297363e+00 -1.426309823989868164e+00 3.125124275684356689e-01 -3.341392278671264648e-01 1.475601941347122192e-01
1.236000000000000000e+03 4.526103210449218750e+01 1.234285235404968262e+00 -1.295716881752014160e+00 3.741197884082794189e-01 -2.764791250228881836e-01 -1.073747780174016953e-02
1.237000000000000000e+03 4.775375747680664062e+01 1.006890416145324707e+00 -7.253723144531250000e-01 2.147675454616546631e-01 -1.531814336776733398e-01 -4.571308493614196777e-01
1.238000000000000000e+03 4.692121505737304688e+01 9.928686022758483887e-01 -1.006406068801879883e+00 3.331443369388580322e-01 -2.019785046577453613e-01 -3.192547261714935303e-01
1.239000000000000000e+03 4.941914749145507812e+01 1.262340426445007324e+00 2.222104370594024658e-01 -2.868486195802688599e-02 5.805767327547073364e-02 -7.929508686065673828e-01
1.240000000000000000e+03 5.048360824584960938e+01 1.366673350334167480e+00 1.276476860046386719e+00 -2.050630375742912292e-02 3.767911493778228760e-01 -1.095571160316467285e+00
1.241000000000000000e+03 5.109395980834960938e+01 1.436120271682739258e+00 1.914686560630798340e+00 2.579022347927093506e-01 6.517766118049621582e-01 -1.373237252235412598e+00
1.242000000000000000e+03 5.163801574707031250e+01 1.516324520111083984e+00 2.644140958786010742e+00 1.336281418800354004e+00 1.194126725196838379e+00 -2.228628635406494141e+00
1.243000000000000000e+03 5.202767562866210938e+01 1.608851790428161621e+00 2.755983829498291016e+00 2.855129480361938477e+00 1.683333992958068848e+00 -2.964060068130493164e+00
1.244000000000000000e+03 5.241473007202148438e+01 1.683419823646545410e+00 2.368171453475952148e+00 5.031442642211914062e+00 2.219884157180786133e+00 -3.575939178466796875e+00
1.245000000000000000e+03 5.259546661376953125e+01 1.743090152740478516e+00 1.545439243316650391e+00 6.772389411926269531e+00 2.495348691940307617e+00 -3.058393001556396484e+00
1.246000000000000000e+03 5.269812011718750000e+01 -1.620300769805908203e+00 -1.072720170021057129e+00 1.524199581146240234e+01 4.250782966613769531e+00 7.210247516632080078e+00
1.247000000000000000e+03 5.189404296875000000e+01 -1.780524969100952148e+00 9.023719429969787598e-01 7.262842178344726562e+00 2.449564218521118164e+00 3.337385654449462891e+00
1.248000000000000000e+03 5.135333633422851562e+01 -2.213867902755737305e+00 1.861698150634765625e+00 5.212459564208984375e+00 2.122247219085693359e+00 2.369380712509155273e+00
1.249000000000000000e+03 5.130264282226562500e+01 -1.922114253044128418e+00 1.391033411026000977e+00 4.446448802947998047e+00 1.751244664192199707e+00 1.964224457740783691e+00
1.250000000000000000e+03 5.110319900512695312e+01 -1.943885684013366699e+00 1.160016059875488281e+00 3.504871606826782227e+00 1.399466276168823242e+00 1.349717140197753906e+00
1.251000000000000000e+03 5.101142501831054688e+01 -2.192132472991943359e+00 1.761679053306579590e+00 3.603766202926635742e+00 1.609633564949035645e+00 1.391342282295227051e+00
1.252000000000000000e+03 4.913248825073242188e+01 -2.561574935913085938e+00 3.990267813205718994e-01 -1.057811081409454346e-01 8.797369897365570068e-02 -6.921468973159790039e-01
1.253000000000000000e+03 4.521479415893554688e+01 -3.685474157333374023e+00 6.039478629827499390e-02 -7.526141405105590820e-01 -2.076658010482788086e-01 -1.014803424477577209e-01
1.254000000000000000e+03 4.449874877929687500e+01 -2.470365047454833984e+00 -6.861345171928405762e-01 -1.835718154907226562e-01 -2.609119117259979248e-01 9.461057931184768677e-02
1.255000000000000000e+03 4.054203796386718750e+01 -1.289522409439086914e+00 -6.328535676002502441e-01 7.669007778167724609e-02 -1.668490618467330933e-01 7.599681615829467773e-02
1.256000000000000000e+03 4.120592117309570312e+01 -1.711200714111328125e+00 -5.845974683761596680e-01 1.058144420385360718e-01 -1.436349153518676758e-01 7.705038040876388550e-02
1.257000000000000000e+03 4.205152130126953125e+01 -2.092330694198608398e+00 -5.821735262870788574e-01 -6.771517451852560043e-03 -1.766835153102874756e-01 8.262801915407180786e-02
1.258000000000000000e+03 3.857607650756835938e+01 -1.569739341735839844e+00 -5.368626713752746582e-01 2.135347723960876465e-01 -9.699836373329162598e-02 2.482812851667404175e-02
1.259000000000000000e+03 3.867242813110351562e+01 -2.918688952922821045e-01 -7.376406788825988770e-01 1.727792769670486450e-01 -1.694584190845489502e-01 1.576661504805088043e-02
1.260000000000000000e+03 3.353004455566406250e+01 -2.495861768722534180e+00 -4.806686043739318848e-01 -2.143980190157890320e-02 -1.506325155496597290e-01 -3.257605433464050293e-01
1.261000000000000000e+03 3.609223175048828125e+01 -2.250749826431274414e+00 -4.449572563171386719e-01 1.431315392255783081e-01 -9.054771065711975098e-02 -2.099480032920837402e-01
1.262000000000000000e+03 3.505081939697265625e+01 -1.897113800048828125e+00 -5.471256375312805176e-01 5.292707681655883789e-02 -1.482595801353454590e-01 -3.035730719566345215e-01
1.263000000000000000e+03 3.668112182617187500e+01 -3.401766061782836914e+00 -2.841696739196777344e-01 3.694341778755187988e-01 2.557935193181037903e-02 -9.953249245882034302e-02
1.264000000000000000e+03 3.718964385986328125e+01 -9.618971347808837891e-01 -7.041908502578735352e-01 1.018848493695259094e-01 -1.806918084621429443e-01 -6.903719156980514526e-02
1.265000000000000000e+03 3.926118087768554688e+01 -4.352741718292236328e+00 1.143463924527168274e-01 2.167369574308395386e-01 9.932500123977661133e-02 2.104946225881576538e-01
1.266000000000000000e+03 3.185951423645019531e+01 -3.093568801879882812e+00 -3.649825453758239746e-01 -1.696984916925430298e-01 -1.604043096303939819e-01 -1.570193469524383545e-01
1.267000000000000000e+03 3.099180221557617188e+01 -3.366230726242065430e+00 -1.031885445117950439e-01 -6.565967798233032227e-01 -2.279355973005294800e-01 -5.142262578010559082e-02
1.268000000000000000e+03 3.012445068359375000e+01 -3.410454511642456055e+00 2.716920971870422363e-01 -1.228763759136199951e-01 4.464471712708473206e-02 -1.521512567996978760e-01
1.269000000000000000e+03 2.869691276550292969e+01 -3.056146860122680664e+00 4.747688472270965576e-01 9.248370528221130371e-01 4.198817610740661621e-01 -8.509884476661682129e-01
1.270000000000000000e+03 2.934104537963867188e+01 -3.192185878753662109e+00 2.977062761783599854e-01 -5.855010151863098145e-01 -8.633841574192047119e-02 1.573581695556640625e-01
1.271000000000000000e+03 3.153254127502441406e+01 -5.939292907714843750e+00 -1.031100191175937653e-02 -4.961971938610076904e-01 -1.519524604082107544e-01 -3.120193183422088623e-01
1.272000000000000000e+03 2.603579902648925781e+01 -1.314276504516601562e+01 -1.535657882690429688e+00 -4.671584665775299072e-01 -6.008449196815490723e-01 -7.345799803733825684e-01
1.273000000000000000e+03 1.744046592712402344e+01 -9.772592544555664062e+00 1.038187555968761444e-02 2.965730726718902588e-01 9.208647906780242920e-02 -7.821273803710937500e-02
1.274000000000000000e+03 1.743427658081054688e+01 -4.188720226287841797e+00 -2.236878313124179840e-02 3.704235255718231201e-01 1.044164299964904785e-01 1.155573800206184387e-01
1.275000000000000000e+03 1.595761394500732422e+01 -1.853500604629516602e+00 -1.228745505213737488e-01 2.160899043083190918e-01 2.796460501849651337e-02 -1.264054328203201294e-02
1.276000000000000000e+03 1.920738410949707031e+01 -1.620893359184265137e+00 -8.435836434364318848e-02 -1.774109601974487305e-01 -7.853079587221145630e-02 2.908181846141815186e-01
1.277000000000000000e+03 1.898678207397460938e+01 -4.487338960170745850e-01 -3.012794256210327148e-01 5.652487277984619141e-02 -7.342636585235595703e-02 -4.199640452861785889e-02
1.278000000000000000e+03 1.958837699890136719e+01 -6.195926666259765625e-01 -3.900438547134399414e-02 1.186896581202745438e-02 -8.140626363456249237e-03 1.838743090629577637e-01
1.279000000000000000e+03 1.814623451232910156e+01 -1.172821044921875000e+00 -3.164012730121612549e-01 2.058573067188262939e-02 -8.874466270208358765e-02 1.052231863141059875e-01
1.280000000000000000e+03 1.665036010742187500e+01 -6.066051125526428223e-01 -2.546641230583190918e-01 3.215979039669036865e-01 2.008013613522052765e-02 -1.797160208225250244e-01
1.281000000000000000e+03 1.359430980682373047e+01 -1.154070258140563965e+00 -2.603339254856109619e-01 1.207993105053901672e-01 -4.186038300395011902e-02 -8.668842166662216187e-02
1.282000000000000000e+03 1.579787158966064453e+01 -2.860499143600463867e+00 -1.514692441560328007e-03 4.195611923933029175e-02 1.213242858648300171e-02 -1.182637140154838562e-01
1.283000000000000000e+03 1.431677055358886719e+01 -1.048586010932922363e+00 -2.147543579339981079e-01 -1.989626884460449219e-01 -1.241151168942451477e-01 -1.492998152971267700e-01
1.284000000000000000e+03 1.134431362152099609e+01 -1.573698043823242188e+00 -1.791024357080459595e-01 -1.694930344820022583e-01 -1.045786440372467041e-01 -1.515155285596847534e-01
1.285000000000000000e+03 1.057617855072021484e+01 -1.728614091873168945e+00 -1.507520973682403564e-01 4.759873822331428528e-02 -3.094601072371006012e-02 -8.884423971176147461e-02
1.286000000000000000e+03 5.510480499267578125e+01 -2.325351715087890625e+01 1.683385491371154785e+00 7.766355991363525391e+00 2.834922313690185547e+00 2.665373802185058594e+00
1.287000000000000000e+03 7.347457885742187500e+01 -1.815685081481933594e+01 8.614048957824707031e-01 7.233137130737304688e+00 2.428362607955932617e+00 -1.465142846107482910e+00
1.288000000000000000e+03 6.512961578369140625e+01 -2.309204292297363281e+01 2.803453922271728516e+00 1.105026340484619141e+01 4.156115055084228516e+00 -4.184330463409423828e+00
1.289000000000000000e+03 4.447960662841796875e+01 -3.892562627792358398e+00 -1.919588893651962280e-01 -4.031048715114593506e-01 -1.785191297531127930e-01 1.572093516588211060e-01
1.290000000000000000e+03 5.256926727294921875e+01 -7.513976573944091797e+00 2.223873138427734375e-01 7.999060153961181641e+00 2.466434240341186523e+00 -3.715550601482391357e-01
1.291000000000000000e+03 3.987147140502929688e+01 -1.250755405426025391e+01 -5.751959085464477539e-01 3.376895561814308167e-02 -1.624280810356140137e-01 2.108954936265945435e-01
1.292000000000000000e+03 3.701591110229492188e+01 -1.036886787414550781e+01 1.014223098754882812e-01 9.689056277275085449e-01 3.210983872413635254e-01 -1.321328878402709961e-01
1.293000000000000000e+03 3.712538909912109375e+01 -7.838339805603027344e+00 1.218676343560218811e-01 1.414606571197509766e+00 4.609422683715820312e-01 6.346791237592697144e-02
1.294000000000000000e+03 5.620711517333984375e+01 -3.178944015502929688e+01 1.069460749626159668e+00 9.294735908508300781e+00 3.109259128570556641e+00 2.041092872619628906e+00
1.295000000000000000e+03 1.588315010070800781e+01 -1.687054824829101562e+01 9.759293496608734131e-02 4.640559852123260498e-01 1.684946715831756592e-01 -2.137915641069412231e-01
1.296000000000000000e+03 1.388883495330810547e+01 -2.796472740173339844e+01 -5.985106155276298523e-02 -4.428458213806152344e-01 -1.508090645074844360e-01 -2.324694842100143433e-01
1.297000000000000000e+03 7.812798976898193359e+00 -1.387006378173828125e+01 -1.917234063148498535e-01 -2.000534236431121826e-01 -1.175330504775047302e-01 -2.054075896739959717e-01
1.298000000000000000e+03 1.754942321777343750e+01 1.794821929931640625e+01 -5.350024104118347168e-01 -1.511863768100738525e-01 -2.058566510677337646e-01 2.949480116367340088e-01
1.299000000000000000e+03 1.958186912536621094e+01 4.007710933685302734e+00 -6.587371826171875000e-01 -1.140795126557350159e-01 -2.318450063467025757e-01 2.363802492618560791e-01
1.300000000000000000e+03 9.375287055969238281e+00 9.842364311218261719e+00 -4.258659780025482178e-01 -5.862300992012023926e-01 -3.036288321018218994e-01 3.824130892753601074e-01
1.301000000000000000e+03 1.007562732696533203e+01 1.557169437408447266e+01 3.748789131641387939e-01 4.861249327659606934e-01 2.583011388778686523e-01 4.023144245147705078e-01
1.302000000000000000e+03 3.899702453613281250e+01 -1.867583656311035156e+01 1.661357581615447998e-01 2.012487798929214478e-01 1.102153584361076355e-01 -1.566973328590393066e-01
1.303000000000000000e+03 3.973680114746093750e+01 -2.115499877929687500e+01 7.760378718376159668e-02 7.397814989089965820e-01 2.452155798673629761e-01 2.161063998937606812e-01
1.304000000000000000e+03 3.496735000610351562e+01 -2.874683570861816406e+01 1.439810395240783691e-01 1.522138565778732300e-01 8.885847032070159912e-02 -4.707767814397811890e-02
1.305000000000000000e+03 3.019737052917480469e+01 -1.731681442260742188e+01 2.986404001712799072e-01 5.636157393455505371e-01 2.586768269538879395e-01 3.220726251602172852e-01
1.306000000000000000e+03 2.424184226989746094e+01 -3.013830184936523438e+01 1.474225819110870361e-01 1.879502385854721069e-01 1.006118431687355042e-01 -2.006119340658187866e-01
1.307000000000000000e+03 2.495170974731445312e+01 -3.594061660766601562e+01 5.025335028767585754e-02 -4.803969338536262512e-02 6.640969659201800823e-04 4.878725484013557434e-02
1.308000000000000000e+03 1.280414772033691406e+01 -3.382299423217773438e+01 -3.131410852074623108e-02 -3.573526442050933838e-01 -1.166000291705131531e-01 -9.800368547439575195e-02
1.309000000000000000e+03 1.302695178985595703e+01 -3.241680526733398438e+01 -7.888731360435485840e-02 -5.368409752845764160e-01 -1.847184896469116211e-01 -1.763221174478530884e-01
1.310000000000000000e+03 1.598352813720703125e+01 -2.748771095275878906e+01 -6.082575395703315735e-02 -3.133700788021087646e-01 -1.122587546706199646e-01 -2.009170949459075928e-01
1.311000000000000000e+03 1.412473583221435547e+01 3.462147521972656250e+01 5.765112861990928650e-02 -2.800857461988925934e-02 8.892766200006008148e-03 4.773061722517013550e-02
1.312000000000000000e+03 1.525643920898437500e+01 3.405389785766601562e+01 -4.839763790369033813e-02 -3.344922140240669250e-02 -2.455405890941619873e-02 7.879183441400527954e-02
1.313000000000000000e+03 1.948995208740234375e+01 3.206612777709960938e+01 -1.474060863256454468e-01 -3.587446212768554688e-01 -1.518452167510986328e-01 1.166677549481391907e-01
1.314000000000000000e+03 2.265719223022460938e+01 2.432058906555175781e+01 1.185859814286231995e-01 2.043405026197433472e-01 9.687794744968414307e-02 1.913286894559860229e-01
1.315000000000000000e+03 1.446217918395996094e+01 2.168784332275390625e+01 3.683449625968933105e-01 2.308607399463653564e-01 1.797617077827453613e-01 5.145593285560607910e-01
1.316000000000000000e+03 1.303784370422363281e+01 2.270962333679199219e+01 2.868954837322235107e-01 5.967663228511810303e-02 1.039716303348541260e-01 2.094742208719253540e-01
1.317000000000000000e+03 6.595658302307128906e+00 2.555282783508300781e+01 -3.163582086563110352e-01 -7.395779490470886230e-01 -3.167808353900909424e-01 4.002541303634643555e-01
1.318000000000000000e+03 7.115093231201171875e+01 1.647967338562011719e+01 9.849461913108825684e-01 6.849277973175048828e+00 2.350267171859741211e+00 -2.099221467971801758e+00
1.319000000000000000e+03 7.280552673339843750e+01 1.153811359405517578e+01 1.707787156105041504e+00 1.283913421630859375e+01 4.364076614379882812e+00 1.152681946754455566e+00
1.320000000000000000e+03 6.439792633056640625e+01 6.261254310607910156e+00 -2.396969556808471680e+00 8.859868049621582031e-01 -4.532948136329650879e-01 -8.759584277868270874e-02
1.321000000000000000e+03 6.080290985107421875e+01 1.480553913116455078e+01 7.299216985702514648e-01 1.251894569396972656e+01 3.974660158157348633e+00 1.415002226829528809e+00
1.322000000000000000e+03 6.208479690551757812e+01 1.857822036743164062e+01 3.512402772903442383e+00 8.507096290588378906e+00 3.605849742889404297e+00 4.836645603179931641e+00
1.323000000000000000e+03 3.143885040283203125e+01 2.463210487365722656e+01 1.066670008003711700e-02 6.120597124099731445e-01 1.868179291486740112e-01 -2.125795185565948486e-02
1.324000000000000000e+03 3.232650756835937500e+01 1.673666572570800781e+01 5.176296234130859375e-01 1.022607326507568359e+00 4.620710611343383789e-01 2.940277755260467529e-01
1.325000000000000000e+03 2.771967887878417969e+01 1.430468750000000000e+01 1.184475049376487732e-02 1.237576231360435486e-01 4.068071022629737854e-02 1.582111120223999023e-01
1.326000000000000000e+03 2.222124290466308594e+01 2.170718002319335938e+01 1.318509783595800400e-02 -4.816121235489845276e-02 -1.049283519387245178e-02 -1.300823967903852463e-02
1.327000000000000000e+03 4.770552062988281250e+01 3.006549263000488281e+01 1.047324299812316895e+00 3.382132053375244141e+00 1.328836917877197266e+00 -8.378156423568725586e-01
1.328000000000000000e+03 4.607650756835937500e+01 2.627654457092285156e+01 3.452388942241668701e-01 3.327995538711547852e+00 1.101970314979553223e+00 2.586603164672851562e-01
1.329000000000000000e+03 4.344828414916992188e+01 2.240055084228515625e+01 2.654112875461578369e-01 5.625320672988891602e-01 2.483830004930496216e-01 5.480095744132995605e-01
1.330000000000000000e+03 3.581328201293945312e+01 2.520571136474609375e+01 4.122568070888519287e-01 1.716623783111572266e+00 6.386641860008239746e-01 -6.944404244422912598e-01
1.331000000000000000e+03 6.575363922119140625e+01 2.758264541625976562e+01 1.835096955299377441e+00 4.871696472167968750e+00 2.012037992477416992e+00 1.275995492935180664e+00
1.332000000000000000e+03 5.974057769775390625e+01 2.352606582641601562e+01 -4.662053585052490234e+00 4.891163408756256104e-01 -1.251881122589111328e+00 -1.667614839971065521e-02
1.333000000000000000e+03 5.496110153198242188e+01 3.410012054443359375e+01 2.292641699314117432e-01 2.741580009460449219e+00 8.912532329559326172e-01 1.099208235740661621e+00
1.334000000000000000e+03 7.932117462158203125e+01 -9.620538711547851562e+00 -8.805360645055770874e-02 9.240091323852539062e+00 2.745611190795898438e+00 -6.529421806335449219e-01
1.335000000000000000e+03 6.604053497314453125e+01 -9.471142768859863281e+00 2.705904960632324219e+00 8.821043968200683594e+00 3.458084583282470703e+00 -4.365745067596435547e+00
1.336000000000000000e+03 6.391611480712890625e+01 -5.628883361816406250e+00 1.776221752166748047e+00 1.088532161712646484e+01 3.798463106155395508e+00 -1.696290850639343262e+00
1.337000000000000000e+03 4.091419219970703125e+01 -2.886084747314453125e+01 7.170308232307434082e-01 2.059731960296630859e+00 8.330287933349609375e-01 1.259412169456481934e+00
1.338000000000000000e+03 6.040086746215820312e+01 -2.120744705200195312e+00 4.503401756286621094e+00 1.255367279052734375e+01 5.117122173309326172e+00 -6.020642280578613281e+00
1.339000000000000000e+03 5.466465759277343750e+01 -8.890685081481933594e+00 -4.100723564624786377e-01 9.221661090850830078e-01 1.536281257867813110e-01 -3.873290419578552246e-01
1.340000000000000000e+03 4.985082626342773438e+01 -3.757044076919555664e+00 3.265524864196777344e+00 2.671645164489746094e+00 1.781151056289672852e+00 1.303220629692077637e+00
1.341000000000000000e+03 5.170525360107421875e+01 -1.826906204223632812e+00 1.275332093238830566e+00 6.821447372436523438e+00 2.429033756256103516e+00 2.781092882156372070e+00
1.342000000000000000e+03 5.288526535034179688e+01 -1.562165856361389160e+00 -4.772093892097473145e-01 1.582247543334960938e+01 4.603579998016357422e+00 7.262415409088134766e+00
1.343000000000000000e+03 5.208487319946289062e+01 -1.774434924125671387e+00 9.322469234466552734e-01 1.027279090881347656e+01 3.361511230468750000e+00 3.719781875610351562e+00
1.344000000000000000e+03 5.324355697631835938e+01 -1.630256891250610352e+00 1.015877485275268555e+00 1.735214424133300781e+01 5.510406494140625000e+00 6.520296096801757812e+00
1.345000000000000000e+03 5.250325012207031250e+01 -1.668246269226074219e+00 -2.330268174409866333e-02 1.394285297393798828e+01 4.175865173339843750e+00 5.555688381195068359e+00
1.346000000000000000e+03 5.229764938354492188e+01 -1.757436513900756836e+00 1.937668472528457642e-01 1.175951004028320312e+01 3.585983037948608398e+00 4.810467720031738281e+00
1.347000000000000000e+03 5.302879714965820312e+01 -1.689150214195251465e+00 8.903192281723022461e-01 1.693363571166992188e+01 5.347186565399169922e+00 7.442298412322998047e+00
1.348000000000000000e+03 5.150931549072265625e+01 -1.866284370422363281e+00 1.494298458099365234e+00 5.176556110382080078e+00 2.001256465911865234e+00 2.292209863662719727e+00
1.349000000000000000e+03 4.996369934082031250e+01 1.357751488685607910e+00 7.575432658195495605e-01 -1.847379356622695923e-01 1.718416064977645874e-01 -9.176725149154663086e-01
1.350000000000000000e+03 5.055686187744140625e+01 2.017106294631958008e+00 1.510170936584472656e+00 1.706290543079376221e-01 5.042399764060974121e-01 -1.633678913116455078e+00
1.351000000000000000e+03 5.129927444458007812e+01 2.269239187240600586e+00 1.853754281997680664e+00 1.294836521148681641e+00 9.445772171020507812e-01 -2.201352596282958984e+00
1.352000000000000000e+03 5.183069610595703125e+01 1.561857581138610840e+00 2.655344963073730469e+00 1.956254720687866211e+00 1.383479952812194824e+00 -2.504033088684082031e+00
1.353000000000000000e+03 5.088701248168945312e+01 1.409031867980957031e+00 1.694267392158508301e+00 1.217120885848999023e-01 5.447938442230224609e-01 -1.243339300155639648e+00
1.354000000000000000e+03 5.145320892333984375e+01 1.460878252983093262e+00 2.516544580459594727e+00 7.946457862854003906e-01 9.933571219444274902e-01 -1.800896167755126953e+00
1.355000000000000000e+03 5.157038879394531250e+01 1.795407414436340332e+00 2.209963798522949219e+00 1.475396990776062012e+00 1.105608224868774414e+00 -2.092393636703491211e+00
1.356000000000000000e+03 5.062924575805664062e+01 1.663372993469238281e+00 1.521965980529785156e+00 5.437948182225227356e-02 4.729036390781402588e-01 -1.408702731132507324e+00
1.357000000000000000e+03 5.222253799438476562e+01 1.654692292213439941e+00 2.598880290985107422e+00 4.071522712707519531e+00 2.001120805740356445e+00 -3.189000129699707031e+00
1.358000000000000000e+03 5.118164062500000000e+01 1.803208112716674805e+00 2.178324937820434570e+00 7.965243458747863770e-01 8.924548029899597168e-01 -1.989785790443420410e+00
1.359000000000000000e+03 5.328567504882812500e+01 2.004415512084960938e+00 1.444957703351974487e-01 1.055240345001220703e+01 3.209069728851318359e+00 -3.211913704872131348e-01
1.360000000000000000e+03 5.074787139892578125e+01 5.190510272979736328e+00 -2.059395790100097656e+00 -2.732290923595428467e-01 -6.997874975204467773e-01 -1.877862095832824707e+00
1.361000000000000000e+03 4.205192947387695312e+01 -3.372255563735961914e+00 -3.656048327684402466e-02 1.010743826627731323e-01 1.935416832566261292e-02 -6.802347302436828613e-02
1.362000000000000000e+03 3.892383956909179688e+01 -7.282904982566833496e-01 -6.291310787200927734e-01 2.483858913183212280e-01 -1.142235472798347473e-01 6.164489313960075378e-03
1.363000000000000000e+03 4.010033035278320312e+01 -1.978094339370727539e+00 -5.292886495590209961e-01 1.860323399305343628e-01 -1.029769033193588257e-01 -1.223525311797857285e-02
1.364000000000000000e+03 4.781691741943359375e+01 -2.876749038696289062e+00 2.921451628208160400e-01 -8.574443459510803223e-01 -1.695897430181503296e-01 -9.799485802650451660e-01
1.365000000000000000e+03 4.742400741577148438e+01 -7.894345283508300781e+00 -5.692910552024841309e-01 9.362366199493408203e-01 1.100836545228958130e-01 1.535829067230224609e+00
1.366000000000000000e+03 5.093946075439453125e+01 -3.333273172378540039e+00 3.526566982269287109e+00 5.374407768249511719e+00 2.670292377471923828e+00 2.468417882919311523e+00
1.367000000000000000e+03 4.996298599243164062e+01 -2.867668628692626953e+00 1.962146759033203125e+00 1.758934736251831055e+00 1.116324424743652344e+00 3.639766275882720947e-01
1.368000000000000000e+03 4.764243698120117188e+01 -6.471885681152343750e+00 4.758716747164726257e-02 3.372992277145385742e-01 1.154659241437911987e-01 7.723194956779479980e-01
1.369000000000000000e+03 5.256421279907226562e+01 -4.830719470977783203e+00 1.266456842422485352e+00 1.897883796691894531e+01 6.073588848114013672e+00 1.660387396812438965e+00
1.370000000000000000e+03 5.042100143432617188e+01 -2.595691442489624023e+00 2.012075662612915039e+00 2.522442102432250977e+00 1.360355257987976074e+00 9.325441122055053711e-01
1.371000000000000000e+03 1.293163681030273438e+01 2.574634313583374023e+00 -2.110801190137863159e-01 -2.484532445669174194e-02 -7.077763229608535767e-02 2.253091186285018921e-01
1.372000000000000000e+03 1.205571556091308594e+01 3.290913105010986328e+00 -2.104974091053009033e-01 -9.856805205345153809e-02 -9.271963685750961304e-02 1.996186375617980957e-01
1.373000000000000000e+03 1.061990737915039062e+01 2.924706220626831055e+00 -1.059937551617622375e-01 -9.758435934782028198e-02 -6.107343360781669617e-02 8.850706368684768677e-02
1.374000000000000000e+03 9.961006164550781250e+00 2.721126079559326172e+00 -6.636393070220947266e-02 -7.571209967136383057e-02 -4.262280836701393127e-02 5.550065264105796814e-02
1.375000000000000000e+03 1.505930805206298828e+01 -9.443262219429016113e-01 -2.871147096157073975e-01 2.069211155176162720e-01 -2.405807934701442719e-02 -1.192893609404563904e-01
1.376000000000000000e+03 1.285807991027832031e+01 -1.277619957923889160e+00 -2.078593224287033081e-01 -1.869191825389862061e-01 -1.184335500001907349e-01 -1.715970039367675781e-01
1.377000000000000000e+03 1.461884403228759766e+01 -3.649062395095825195e+00 -9.216480888426303864e-03 6.888421624898910522e-02 1.790032163262367249e-02 -1.150268018245697021e-01
1.378000000000000000e+03 1.679553985595703125e+01 -2.931971549987792969e+00 -1.379592530429363251e-02 1.897492110729217529e-01 5.278598517179489136e-02 6.954250484704971313e-02
1.379000000000000000e+03 4.593381404876708984e+00 -2.634348869323730469e+00 -1.760489679872989655e-02 -4.771945625543594360e-02 -1.959730498492717743e-02 -4.650728777050971985e-02
1.380000000000000000e+03 6.890189647674560547e+00 -2.579573631286621094e+00 -4.869849607348442078e-02 1.555678434669971466e-02 -9.942513890564441681e-03 -5.759685114026069641e-02
1.381000000000000000e+03 5.409439563751220703e+00 -1.892953276634216309e+00 -3.744387626647949219e-02 -4.684979096055030823e-02 -2.528810128569602966e-02 -4.210774227976799011e-02
1.382000000000000000e+03 9.121935844421386719e+00 -3.195826292037963867e+00 -4.068209975957870483e-02 -1.357592176645994186e-02 -1.627740636467933655e-02 -9.454600512981414795e-02
1.383000000000000000e+03 9.100914001464843750e+00 -2.511254072189331055e+00 -9.850503504276275635e-02 -1.062450334429740906e-01 -6.142501905560493469e-02 -1.266237944364547729e-01
1.384000000000000000e+03 8.354678153991699219e+00 -2.527852296829223633e+00 -6.632860749959945679e-02 1.480552460998296738e-02 -1.545692514628171921e-02 -8.155815303325653076e-02
1.385000000000000000e+03 6.149650573730468750e+00 -1.881828904151916504e+00 -4.648999124765396118e-02 2.461314946413040161e-02 -6.563053000718355179e-03 -3.517257049679756165e-02
1.386000000000000000e+03 7.624157428741455078e+00 -2.545140981674194336e+00 -6.938103586435317993e-02 -8.599115908145904541e-02 -4.661165922880172729e-02 -9.573992341756820679e-02
1.387000000000000000e+03 2.809229135513305664e+00 -4.903326034545898438e+00 2.313045086339116096e-03 -3.681179508566856384e-02 -1.034962479025125504e-02 -1.379314996302127838e-02
1.388000000000000000e+03 3.933152854442596436e-01 -2.185151338577270508e+00 -2.525682793930172920e-03 2.096567302942276001e-03 -1.287346822209656239e-04 -6.078655133023858070e-04
1.389000000000000000e+03 4.792544841766357422e-01 -3.557399988174438477e+00 1.234585070051252842e-03 -5.620480049401521683e-03 -1.315768458880484104e-03 -2.338090213015675545e-03
1.390000000000000000e+03 5.378900170326232910e-01 -4.953883171081542969e+00 2.295853337273001671e-04 -7.374900858849287033e-03 -2.143594669178128242e-03 -5.751915741711854935e-04
1.391000000000000000e+03 9.302552223205566406e+00 2.617099523544311523e+00 -3.017647936940193176e-02 -6.260846555233001709e-02 -2.783548273146152496e-02 2.043948695063591003e-02
1.392000000000000000e+03 7.896944522857666016e+00 2.633795499801635742e+00 -8.362848311662673950e-03 -4.082128033041954041e-02 -1.475523784756660461e-02 -1.467384304851293564e-02
1.393000000000000000e+03 7.151163578033447266e+00 2.664721250534057617e+00 -9.797194041311740875e-03 -2.888210117816925049e-02 -1.160378847271203995e-02 -2.853887155652046204e-02
1.394000000000000000e+03 6.388555049896240234e+00 2.692806959152221680e+00 -4.366698209196329117e-03 -2.152398228645324707e-02 -7.767204195261001587e-03 -4.210645332932472229e-02
1.395000000000000000e+03 5.621961116790771484e+00 2.712812185287475586e+00 -2.356538316234946251e-03 -1.094230823218822479e-02 -3.989654127508401871e-03 -4.845308512449264526e-02
1.396000000000000000e+03 1.626105904579162598e+00 7.628162384033203125e+00 -3.047522529959678650e-02 2.523173764348030090e-02 -1.573046203702688217e-03 4.631296545267105103e-02
1.397000000000000000e+03 4.832434177398681641e+00 3.535577774047851562e+00 -4.090130701661109924e-02 -6.805242504924535751e-03 -1.431196462363004684e-02 -4.522478953003883362e-02
1.398000000000000000e+03 1.231221437454223633e+00 3.159044265747070312e+00 -4.395495343487709761e-04 4.612481966614723206e-02 1.370558049529790878e-02 -3.553667291998863220e-02
1.399000000000000000e+03 2.633806467056274414e+00 1.958446621894836426e+00 2.382428199052810669e-02 9.876798838376998901e-03 1.011032424867153168e-02 -4.684963449835777283e-02
1.400000000000000000e+03 1.901815414428710938e+00 2.907872676849365234e+00 2.263445639982819557e-03 2.640621922910213470e-02 8.600899949669837952e-03 -4.431081190705299377e-02
1.401000000000000000e+03 1.897568702697753906e+01 -1.027251601219177246e+00 1.151421442627906799e-01 2.010637074708938599e-01 9.486175328493118286e-02 7.882657647132873535e-02
1.402000000000000000e+03 1.822333145141601562e+01 -4.393793642520904541e-01 -1.273208111524581909e-01 9.169375151395797729e-02 -1.068812049925327301e-02 -5.476617068052291870e-02
1.403000000000000000e+03 3.576206207275390625e+01 -1.578087806701660156e+00 -6.431718468666076660e-01 6.071843206882476807e-03 -1.911299973726272583e-01 -1.577752232551574707e-01
1.404000000000000000e+03 3.681618881225585938e+01 -1.911049723625183105e+00 -6.071897149085998535e-01 1.441480368375778198e-01 -1.389124989509582520e-01 -9.232275933027267456e-02
1.405000000000000000e+03 3.463593673706054688e+01 -3.066683769226074219e+00 -3.402866125106811523e-01 5.502806603908538818e-02 -8.557756245136260986e-02 -3.000298738479614258e-01
1.406000000000000000e+03 3.978185272216796875e+01 -3.514366149902343750e+00 -3.278233483433723450e-02 2.125707715749740601e-01 5.393652990460395813e-02 9.435696899890899658e-02
1.407000000000000000e+03 3.790052795410156250e+01 -6.371619105339050293e-01 -6.295499801635742188e-01 2.146306186914443970e-01 -1.244758069515228271e-01 -7.559093087911605835e-02
1.408000000000000000e+03 3.821329498291015625e+01 -1.116484045982360840e+00 -6.965939998626708984e-01 1.997177749872207642e-01 -1.490628719329833984e-01 -3.447496332228183746e-03
1.409000000000000000e+03 3.270048141479492188e+01 -2.795023202896118164e+00 -4.916655421257019043e-01 -3.215608000755310059e-01 -2.439679056406021118e-01 -1.605475097894668579e-01
1.410000000000000000e+03 3.689220046997070312e+01 -6.862604618072509766e+00 1.723352074623107910e-01 1.079022884368896484e+00 3.754074275493621826e-01 7.860802859067916870e-02
1.411000000000000000e+03 1.609375762939453125e+01 3.216703891754150391e+00 -6.976344585418701172e-01 6.453298777341842651e-02 -1.899304389953613281e-01 4.352051019668579102e-01
1.412000000000000000e+03 1.276659297943115234e+01 4.138919353485107422e+00 -3.382519483566284180e-01 -1.806612461805343628e-01 -1.556739658117294312e-01 3.231503069400787354e-01
1.413000000000000000e+03 1.357193756103515625e+01 3.538551092147827148e+00 -3.581438064575195312e-01 -7.144700735807418823e-02 -1.288772374391555786e-01 3.998524844646453857e-01
1.414000000000000000e+03 1.613830566406250000e+01 4.093794822692871094e+00 -5.817654132843017578e-01 5.465208366513252258e-02 -1.581339985132217407e-01 5.324435234069824219e-01
1.415000000000000000e+03 1.131732559204101562e+01 3.144381284713745117e+00 -1.652133911848068237e-01 -1.002241298556327820e-01 -7.963125407695770264e-02 1.564506441354751587e-01
1.416000000000000000e+03 5.452009582519531250e+01 1.635431885719299316e+00 2.650907993316650391e+00 9.278441429138183594e+00 3.578804731369018555e+00 4.589037418365478516e+00
1.417000000000000000e+03 5.341968154907226562e+01 4.157000064849853516e+00 -9.251385331153869629e-01 5.034855842590332031e+00 1.232915282249450684e+00 4.777387380599975586e-01
1.418000000000000000e+03 5.657089996337890625e+01 1.615267515182495117e+00 3.801790714263916016e+00 2.688586950302124023e+00 1.947113275527954102e+00 1.941765695810317993e-01
1.419000000000000000e+03 5.321089553833007812e+01 5.176834583282470703e+00 -2.184577226638793945e+00 3.980502605438232422e+00 5.387776494026184082e-01 8.974464535713195801e-01
1.420000000000000000e+03 5.414697647094726562e+01 2.358436107635498047e+00 7.559823393821716309e-01 8.976718902587890625e+00 2.919810533523559570e+00 2.305033445358276367e+00
1.421000000000000000e+03 2.715428924560546875e+01 2.078220367431640625e+00 -9.937127828598022461e-01 1.572080999612808228e-01 -2.509514093399047852e-01 2.176325470209121704e-01
1.422000000000000000e+03 2.704394149780273438e+01 1.297616720199584961e+00 -1.209696888923645020e+00 7.822830229997634888e-02 -3.394405543804168701e-01 2.432152777910232544e-01
1.423000000000000000e+03 2.099418449401855469e+01 2.856585741043090820e+00 -1.092319369316101074e+00 -1.125063076615333557e-01 -3.614476919174194336e-01 2.412839382886886597e-01
1.424000000000000000e+03 2.553636169433593750e+01 1.677045941352844238e+00 -1.150487780570983887e+00 -4.497062414884567261e-02 -3.586375117301940918e-01 3.304385840892791748e-01
1.425000000000000000e+03 3.083842658996582031e+01 5.371191501617431641e-01 -1.341548681259155273e+00 3.711713254451751709e-01 -2.911131978034973145e-01 -1.586564630270004272e-01
1.426000000000000000e+03 2.498583984375000000e+01 2.684195518493652344e+00 -8.771981000900268555e-01 -5.183848366141319275e-02 -2.787109911441802979e-01 2.963988482952117920e-01
1.427000000000000000e+03 2.869267654418945312e+01 1.974734544754028320e+00 -1.027498364448547363e+00 3.191002905368804932e-01 -2.125194221735000610e-01 8.095195144414901733e-02
1.428000000000000000e+03 2.039284896850585938e+01 3.859077215194702148e+00 -7.054311037063598633e-01 -1.271773874759674072e-01 -2.497825473546981812e-01 2.195717692375183105e-01
1.429000000000000000e+03 1.944660758972167969e+01 3.241241693496704102e+00 -9.412566423416137695e-01 -1.319391131401062012e-01 -3.219587206840515137e-01 2.547795176506042480e-01
1.430000000000000000e+03 2.270449066162109375e+01 3.258382558822631836e+00 -8.195245265960693359e-01 -1.325353384017944336e-01 -2.856179773807525635e-01 2.565255165100097656e-01
1.431000000000000000e+03 2.423335647583007812e+01 2.914254426956176758e+00 -8.592976927757263184e-01 -8.546766638755798340e-02 -2.834295928478240967e-01 2.796972692012786865e-01
1.432000000000000000e+03 2.953066635131835938e+01 3.874826431274414062e+00 -4.212582409381866455e-01 5.452044606208801270e-01 3.718386963009834290e-02 7.768364250659942627e-02
1.433000000000000000e+03 2.876245307922363281e+01 5.344778537750244141e+00 6.531035900115966797e-02 7.641460895538330078e-01 2.488369345664978027e-01 -2.871736139059066772e-02
1.434000000000000000e+03 2.643205833435058594e+01 2.214785575866699219e+00 -9.552063345909118652e-01 6.710249185562133789e-02 -2.664311528205871582e-01 2.651373744010925293e-01
1.435000000000000000e+03 2.132622909545898438e+01 4.844231128692626953e+00 -3.278679549694061279e-01 -1.307257711887359619e-01 -1.375781148672103882e-01 1.624896377325057983e-01
1.436000000000000000e+03 3.188656044006347656e+01 1.502401471138000488e+00 -1.639290332794189453e+00 2.831816971302032471e-01 -4.068326056003570557e-01 3.542778640985488892e-02
1.437000000000000000e+03 3.172389411926269531e+01 3.211548089981079102e+00 -4.241752922534942627e-01 3.670180961489677429e-02 -1.162420436739921570e-01 1.371274292469024658e-01
1.438000000000000000e+03 1.792969894409179688e+01 5.113364696502685547e+00 -3.489170670509338379e-01 1.693667471408843994e-01 -5.386509373784065247e-02 3.607108294963836670e-01
1.439000000000000000e+03 1.427770805358886719e+01 -1.878947496414184570e+00 -1.821606904268264771e-01 1.309783458709716797e-01 -1.535470224916934967e-02 -5.307184159755706787e-02
1.440000000000000000e+03 1.065316772460937500e+01 -2.372307777404785156e+00 -1.254399418830871582e-01 -1.320016384124755859e-01 -7.723247259855270386e-02 -1.567537933588027954e-01
1.441000000000000000e+03 1.284275150299072266e+01 -1.954886913299560547e+00 -1.646247506141662598e-01 8.111827820539474487e-02 -2.505194209516048431e-02 -7.488972693681716919e-02
1.442000000000000000e+03 1.597536849975585938e+01 -5.320225715637207031e+00 -1.797573640942573547e-02 1.760125309228897095e-01 4.741103574633598328e-02 4.510559886693954468e-02
1.443000000000000000e+03 4.063728332519531250e+01 -2.493298292160034180e+00 -3.218839168548583984e-01 1.587683558464050293e-01 -4.893467202782630920e-02 1.038604881614446640e-02
1.444000000000000000e+03 4.401011657714843750e+01 -3.205609798431396484e+00 -2.710800766944885254e-01 -1.412173360586166382e-01 -1.236892193555831909e-01 3.266675025224685669e-02
1.445000000000000000e+03 4.373677444458007812e+01 -2.409628152847290039e+00 -6.438436508178710938e-01 -1.530799120664596558e-01 -2.390770614147186279e-01 6.717119365930557251e-02
1.446000000000000000e+03 3.253482055664062500e+01 1.648688316345214844e+00 -1.818395137786865234e+00 3.132148087024688721e-01 -4.515540897846221924e-01 1.707213348709046841e-03
1.447000000000000000e+03 3.080585670471191406e+01 4.064045429229736328e+00 -1.767018809914588928e-02 1.754974871873855591e-01 4.734819009900093079e-02 -1.068156734108924866e-01
1.448000000000000000e+03 3.028520393371582031e+01 3.308752536773681641e+00 -6.345632076263427734e-01 4.818377792835235596e-01 -4.581763967871665955e-02 -1.375083066523075104e-02
1.449000000000000000e+03 1.796199607849121094e+01 4.230872154235839844e+00 -6.106675267219543457e-01 6.071047857403755188e-02 -1.649871021509170532e-01 3.656572401523590088e-01
1.450000000000000000e+03 1.711162376403808594e+01 4.974767208099365234e+00 -4.672815799713134766e-01 1.842020750045776367e-01 -8.492385596036911011e-02 4.756131172180175781e-01
1.451000000000000000e+03 1.744540214538574219e+01 5.771041393280029297e+00 -1.235326081514358521e-01 2.611165940761566162e-01 4.127519577741622925e-02 3.963855206966400146e-01
1.452000000000000000e+03 1.511715698242187500e+01 6.672399520874023438e+00 -2.901780903339385986e-01 9.549202397465705872e-03 -8.418866991996765137e-02 2.369340062141418457e-01
1.453000000000000000e+03 4.698646545410156250e+01 1.967068076133728027e+00 -6.641908288002014160e-01 5.164731740951538086e-01 -4.431528970599174500e-02 -6.382072567939758301e-01
1.454000000000000000e+03 4.559228897094726562e+01 3.042921304702758789e+00 -8.084449768066406250e-01 9.239242076873779297e-01 3.464378044009208679e-02 -4.512733817100524902e-01
1.455000000000000000e+03 4.540679550170898438e+01 2.181444644927978516e+00 -1.098948240280151367e+00 6.557704210281372070e-01 -1.329533457756042480e-01 -1.949229240417480469e-01
1.456000000000000000e+03 4.485228729248046875e+01 -4.961917877197265625e+00 8.763718418776988983e-03 -5.322407484054565430e-01 -1.570431143045425415e-01 1.998503953218460083e-01
1.457000000000000000e+03 4.591551589965820312e+01 -5.803705692291259766e+00 -3.664531409740447998e-01 -1.331713557243347168e+00 -5.094500184059143066e-01 8.379935622215270996e-01
1.458000000000000000e+03 4.702777862548828125e+01 -2.900769233703613281e+00 -5.840376019477844238e-02 -9.737498164176940918e-01 -3.096460700035095215e-01 -8.010140061378479004e-01
1.459000000000000000e+03 4.695897674560546875e+01 -5.469163894653320312e+00 6.147643327713012695e-01 -1.052911400794982910e+00 -1.314441114664077759e-01 4.471424221992492676e-01
1.460000000000000000e+03 3.504129409790039062e+01 -4.678778648376464844e+00 -5.906091630458831787e-02 8.672601729631423950e-02 8.299530483782291412e-03 -2.240937799215316772e-01
1.461000000000000000e+03 3.290948867797851562e+01 -3.631702184677124023e+00 -2.362004816532135010e-01 -1.436187922954559326e-01 -1.139457821846008301e-01 -2.814701795578002930e-01
1.462000000000000000e+03 3.202172470092773438e+01 -3.927963018417358398e+00 -1.137867867946624756e-01 -4.831524789333343506e-01 -1.790817826986312866e-01 -1.383593082427978516e-01
1.463000000000000000e+03 3.104627990722656250e+01 -4.207184314727783203e+00 -2.337152510881423950e-02 -3.122051954269409180e-01 -1.006730124354362488e-01 -2.795357406139373779e-01
1.464000000000000000e+03 1.814859771728515625e+01 -1.984830498695373535e+00 1.579729467630386353e-01 4.927427768707275391e-01 1.952147185802459717e-01 2.363622188568115234e-02
1.465000000000000000e+03 1.505902671813964844e+01 -1.878256320953369141e+00 -1.060702651739120483e-01 -1.571297496557235718e-01 -7.896000146865844727e-02 -1.785982400178909302e-01
1.466000000000000000e+03 4.268239593505859375e+01 2.086967706680297852e+00 -1.609025239944458008e+00 9.357873350381851196e-02 -4.546339809894561768e-01 2.803389728069305420e-01
1.467000000000000000e+03 4.366508483886718750e+01 8.629969596862792969e+00 9.579375982284545898e-01 1.969238996505737305e+00 8.781529664993286133e-01 -5.466724038124084473e-01
1.468000000000000000e+03 4.103797912597656250e+01 3.671070098876953125e+00 -5.368682146072387695e-01 -7.863376736640930176e-01 -3.969617784023284912e-01 -1.689737588167190552e-01
1.469000000000000000e+03 4.100296783447265625e+01 2.756688594818115234e+00 -1.982527971267700195e+00 -2.141169011592864990e-01 -6.589934825897216797e-01 -1.595044583082199097e-01
1.470000000000000000e+03 4.306385040283203125e+01 4.041787147521972656e+00 -8.033978343009948730e-01 4.231829643249511719e-01 -1.140644550323486328e-01 5.513770505785942078e-02
1.471000000000000000e+03 3.891814422607421875e+01 4.084596633911132812e+00 4.836886823177337646e-01 3.422714471817016602e-01 2.477880269289016724e-01 6.199695467948913574e-01
1.472000000000000000e+03 3.951239395141601562e+01 3.365390300750732422e+00 5.177890658378601074e-01 -1.231508851051330566e+00 -2.141159623861312866e-01 -1.730018258094787598e-01
1.473000000000000000e+03 4.863732910156250000e+01 6.343118190765380859e+00 1.727434515953063965e+00 1.920998334884643555e+00 1.094529867172241211e+00 -1.651549696922302246e+00
1.474000000000000000e+03 4.928357315063476562e+01 1.946293830871582031e+00 4.280745387077331543e-01 9.903054684400558472e-02 1.581315249204635620e-01 -1.234284996986389160e+00
1.475000000000000000e+03 4.670156478881835938e+01 6.362525463104248047e+00 8.734561800956726074e-01 2.084404945373535156e+00 8.873583674430847168e-01 -1.440862417221069336e+00
1.476000000000000000e+03 4.374135589599609375e+01 2.735790967941284180e+00 -1.205972909927368164e+00 4.533084928989410400e-01 -2.257993370294570923e-01 6.233701854944229126e-02
1.477000000000000000e+03 3.986200714111328125e+01 -2.371447753906250000e+01 4.405714273452758789e-01 2.993932723999023438e+00 1.030351281166076660e+00 9.227247238159179688e-01
1.478000000000000000e+03 4.868582916259765625e+01 -3.031613349914550781e+01 1.567979335784912109e+00 3.091358423233032227e+00 1.397801280021667480e+00 -1.844981074333190918e+00
1.479000000000000000e+03 4.856468963623046875e+01 -2.646068382263183594e+01 -7.374826073646545410e-01 1.985759854316711426e+00 3.744831681251525879e-01 -1.418835520744323730e+00
1.480000000000000000e+03 4.729457473754882812e+01 2.627522087097167969e+01 6.774711012840270996e-01 3.154654264450073242e+00 1.149637579917907715e+00 2.290337532758712769e-02
1.481000000000000000e+03 5.228016662597656250e+01 2.955459403991699219e+01 1.001684784889221191e+00 6.500064373016357422e+00 2.250524759292602539e+00 -4.247383475303649902e-01
1.482000000000000000e+03 4.743779373168945312e+01 2.882457733154296875e+01 1.001819729804992676e+00 3.292414903640747070e+00 1.288270354270935059e+00 -8.226040601730346680e-01
1.483000000000000000e+03 1.857947731018066406e+01 -2.646829032897949219e+01 6.106562018394470215e-01 2.826376445591449738e-02 1.916759908199310303e-01 -5.961290001869201660e-02
1.484000000000000000e+03 1.817606353759765625e+01 -2.251746559143066406e+01 -8.153839409351348877e-02 -8.612232655286788940e-02 -5.029821395874023438e-02 -3.451469540596008301e-01
1.485000000000000000e+03 3.189432144165039062e+01 3.114579582214355469e+01 2.942377328872680664e-01 7.728307843208312988e-01 3.201205432415008545e-01 -1.666497290134429932e-01
1.486000000000000000e+03 4.755955123901367188e+01 -1.270979499816894531e+01 8.188007026910781860e-02 4.859624862670898438e+00 1.482451558113098145e+00 1.477452993392944336e+00
1.487000000000000000e+03 5.008475112915039062e+01 -8.233382225036621094e+00 -8.140828460454940796e-02 5.417484760284423828e+00 1.600823044776916504e+00 3.105319023132324219e+00
1.488000000000000000e+03 3.303350830078125000e+01 1.545706558227539062e+01 3.100891113281250000e-01 4.789981245994567871e-01 2.367261797189712524e-01 1.407135277986526489e-01
1.489000000000000000e+03 3.111635017395019531e+01 1.615748977661132812e+01 5.824859738349914551e-01 1.024365663528442383e+00 4.820555150508880615e-01 6.010441184043884277e-01
1.490000000000000000e+03 6.032347488403320312e+01 3.592707824707031250e+01 -1.665905237197875977e+00 4.103159904479980469e-01 -3.766767680644989014e-01 -1.770049035549163818e-01
1.491000000000000000e+03 6.247934722900390625e+01 3.364006423950195312e+01 1.162723228335380554e-01 2.827656030654907227e+00 8.831785321235656738e-01 -9.973024725914001465e-01
1.492000000000000000e+03 4.960747528076171875e+01 -3.488318252563476562e+01 1.126935958862304688e+00 4.709177494049072266e+00 1.750833988189697266e+00 1.298508644104003906e+00
1.493000000000000000e+03 4.261872863769531250e+01 -4.105714416503906250e+01 1.153717488050460815e-01 4.557644128799438477e-01 1.713408529758453369e-01 -1.932903975248336792e-01
1.494000000000000000e+03 3.918518829345703125e+01 -3.993605041503906250e+01 -1.939880698919296265e-01 1.175701856613159180e+00 2.945141196250915527e-01 -7.663540542125701904e-02
1.495000000000000000e+03 3.832517623901367188e+01 -3.351839828491210938e+01 8.232303857803344727e-01 3.164298772811889648e+00 1.196258783340454102e+00 3.338808119297027588e-01
1.496000000000000000e+03 5.260794067382812500e+01 -3.363731384277343750e+01 1.457461953163146973e+00 4.692297458648681641e+00 1.844927906990051270e+00 7.042086124420166016e-01
1.497000000000000000e+03 4.959420394897460938e+01 -2.977087402343750000e+01 1.257038354873657227e+00 2.792583227157592773e+00 1.214886426925659180e+00 -8.568099737167358398e-01
1.498000000000000000e+03 5.767759323120117188e+01 4.128216552734375000e+01 -8.572974801063537598e-02 1.281345963478088379e+00 3.586848676204681396e-01 1.525391787290573120e-01
1.499000000000000000e+03 1.977638435363769531e+01 2.924288177490234375e+01 -4.422738403081893921e-02 -5.561658143997192383e-01 -1.801179647445678711e-01 1.071575954556465149e-01
1.500000000000000000e+03 5.744339752197265625e+01 3.551785278320312500e+01 -1.487154603004455566e+00 3.106203973293304443e-01 -3.529602885246276855e-01 3.784178569912910461e-02
1.501000000000000000e+03 1.598053932189941406e+01 -2.300811767578125000e+01 -5.453439056873321533e-02 -3.674530386924743652e-01 -1.265962272882461548e-01 -2.969297468662261963e-01
1.502000000000000000e+03 1.834321022033691406e+01 -2.534526443481445312e+01 3.080211281776428223e-01 8.022058755159378052e-03 9.481295943260192871e-02 -2.558602690696716309e-01
1.503000000000000000e+03 4.373249816894531250e+01 -2.760097122192382812e+01 -1.516706109046936035e+00 -2.068040072917938232e-01 -5.170530080795288086e-01 2.509807348251342773e-01
1.504000000000000000e+03 4.088111877441406250e+01 -3.419100999832153320e+00 -6.539195775985717773e-02 3.229686245322227478e-02 -9.928528219461441040e-03 4.232292622327804565e-02
1.505000000000000000e+03 3.216225814819335938e+01 -1.083479213714599609e+01 -4.744645059108734131e-01 -1.101705133914947510e-01 -1.753905117511749268e-01 -2.013547904789447784e-02
1.506000000000000000e+03 3.583015060424804688e+01 -9.224688529968261719e+00 1.470940113067626953e-01 5.256589651107788086e-01 2.018258869647979736e-01 -2.670973306521773338e-03
1.507000000000000000e+03 2.175015830993652344e+01 1.930839157104492188e+01 4.018252342939376831e-02 7.073234766721725464e-02 3.327446058392524719e-02 -7.528724521398544312e-02
1.508000000000000000e+03 2.167152786254882812e+01 1.656568527221679688e+01 -1.685533821582794189e-01 -4.123707488179206848e-02 -6.293714046478271484e-02 4.974532499909400940e-02
1.509000000000000000e+03 3.321885681152343750e+01 2.321686935424804688e+01 3.164027351886034012e-03 1.130180835723876953e+00 3.400034308433532715e-01 3.977170959115028381e-02
1.510000000000000000e+03 4.253461837768554688e+01 -2.770463943481445312e+01 -5.010213851928710938e-01 6.762829422950744629e-01 5.257846787571907043e-02 5.340120792388916016e-01
1.511000000000000000e+03 2.082755661010742188e+01 3.219439315795898438e+01 -2.691558375954627991e-02 -4.595675691962242126e-02 -2.186170220375061035e-02 -2.950489521026611328e-02
1.512000000000000000e+03 3.206796264648437500e+01 1.394696998596191406e+01 9.335156530141830444e-02 4.580720365047454834e-01 1.654270738363265991e-01 3.228581547737121582e-01
1.513000000000000000e+03 2.955462837219238281e+01 9.910850524902343750e+00 3.426545858383178711e-01 1.060944557189941406e+00 4.210797250270843506e-01 4.474908411502838135e-01
1.514000000000000000e+03 3.576017379760742188e+01 1.747017669677734375e+01 3.592226505279541016e-01 3.758751749992370605e-01 2.205293476581573486e-01 -2.313557118177413940e-01
1.515000000000000000e+03 3.764852905273437500e+01 -6.107947349548339844e+00 1.982914507389068604e-01 1.005193352699279785e+00 3.610454201698303223e-01 3.377174139022827148e-01
1.516000000000000000e+03 1.995112991333007812e+01 1.908328628540039062e+01 -6.205734238028526306e-02 -4.302486032247543335e-02 -3.152466192841529846e-02 -1.469487790018320084e-02
1.517000000000000000e+03 3.517011260986328125e+01 -1.242964267730712891e+01 -5.212785601615905762e-01 2.460797131061553955e-01 -8.255966007709503174e-02 1.683320105075836182e-01
1.518000000000000000e+03 3.706292343139648438e+01 -4.056411743164062500e+00 -1.954998075962066650e-01 4.275830984115600586e-01 6.962499022483825684e-02 -7.263528555631637573e-02
1.519000000000000000e+03 3.696308517456054688e+01 -5.401575088500976562e+00 8.386486023664474487e-02 6.474856138229370117e-01 2.194051444530487061e-01 -3.055961802601814270e-02
1.520000000000000000e+03 4.465607833862304688e+01 -1.454472923278808594e+01 -8.900977969169616699e-01 2.067136764526367188e+00 3.531116843223571777e-01 1.471095085144042969e+00
1.521000000000000000e+03 4.410232543945312500e+01 -1.347038745880126953e+01 -1.386546850204467773e+00 6.223971247673034668e-01 -2.292449027299880981e-01 3.428978323936462402e-01
1.522000000000000000e+03 3.000693702697753906e+01 2.855421829223632812e+01 3.060919344425201416e-01 2.354474514722824097e-01 1.624618172645568848e-01 -1.681779921054840088e-01
1.523000000000000000e+03 3.185176658630371094e+01 2.189243125915527344e+01 -2.855072170495986938e-02 1.036754608154296875e+00 3.024611771106719971e-01 1.947165653109550476e-02
1.524000000000000000e+03 3.749790573120117188e+01 2.304147338867187500e+01 1.243537142872810364e-01 5.218380689620971680e-01 1.938575357198715210e-01 -3.412974178791046143e-01
1.525000000000000000e+03 3.075588035583496094e+01 2.747706413269042969e+01 1.708429306745529175e-01 3.456763029098510742e-01 1.549557745456695557e-01 -1.547536402940750122e-01
1.526000000000000000e+03 3.317149353027343750e+01 3.188709259033203125e+01 1.874187588691711426e-01 1.027272105216979980e+00 3.644072711467742920e-01 -8.916651457548141479e-02
1.527000000000000000e+03 4.653709030151367188e+01 -1.211951923370361328e+01 2.068872213363647461e+00 4.747455120086669922e+00 2.044898271560668945e+00 3.074038028717041016e+00
1.528000000000000000e+03 4.730075454711914062e+01 -1.402473545074462891e+01 -1.156582474708557129e+00 4.451069831848144531e+00 9.883462190628051758e-01 1.899089336395263672e+00
1.529000000000000000e+03 3.196578979492187500e+01 -2.723043251037597656e+01 2.771085500717163086e-01 3.081794381141662598e-01 1.755864024162292480e-01 -2.541896104812622070e-01
1.530000000000000000e+03 2.630700111389160156e+01 -3.374489593505859375e+01 6.353202462196350098e-02 1.824085861444473267e-01 7.378218322992324829e-02 -7.727350294589996338e-02
1.531000000000000000e+03 2.061690330505371094e+01 1.275388431549072266e+01 2.775102620944380760e-03 -1.945363134145736694e-01 -5.752836540341377258e-02 6.271634995937347412e-02
1.532000000000000000e+03 4.593125534057617188e+01 -1.413394165039062500e+01 -1.097035646438598633e+00 3.753197908401489258e+00 7.968486547470092773e-01 1.915376067161560059e+00
1.533000000000000000e+03 2.102934265136718750e+01 2.077820014953613281e+01 8.916188031435012817e-02 2.990469709038734436e-02 3.571997210383415222e-02 -9.442000091075897217e-02
1.534000000000000000e+03 2.040698432922363281e+01 2.516869163513183594e+01 5.776838064193725586e-01 1.322435587644577026e-01 2.129781991243362427e-01 4.525921940803527832e-01
1.535000000000000000e+03 1.854381561279296875e+01 2.493419647216796875e+01 8.002968430519104004e-01 6.145557761192321777e-01 4.244557917118072510e-01 6.365609765052795410e-01
1.536000000000000000e+03 4.480078887939453125e+01 -3.038734197616577148e+00 -4.431682229042053223e-01 -5.054339170455932617e-01 -2.845806479454040527e-01 -5.074998363852500916e-02
1.537000000000000000e+03 4.712661361694335938e+01 -3.619415998458862305e+00 7.391124367713928223e-01 -1.059385299682617188e+00 -9.608186781406402588e-02 -4.947996437549591064e-01
1.538000000000000000e+03 4.677565765380859375e+01 -6.816894531250000000e+00 -9.568619728088378906e-01 -2.069953441619873047e+00 -9.080446362495422363e-01 1.408971190452575684e+00
1.539000000000000000e+03 2.139016342163085938e+01 2.786966514587402344e+01 2.894730269908905029e-01 7.733827084302902222e-02 1.100433915853500366e-01 4.284761250019073486e-01
1.540000000000000000e+03 2.094392395019531250e+01 2.854464721679687500e+01 1.036660671234130859e-01 7.991915917955338955e-04 3.133957833051681519e-02 3.575187921524047852e-01
1.541000000000000000e+03 2.053973388671875000e+01 1.131231117248535156e+01 3.195125982165336609e-02 -6.120053678750991821e-02 -8.774782530963420868e-03 8.804728835821151733e-02
1.542000000000000000e+03 2.551842880249023438e+01 1.578625202178955078e+01 -1.887184232473373413e-01 2.052414929494261742e-03 -5.599980056285858154e-02 7.691533118486404419e-02
1.543000000000000000e+03 2.107411193847656250e+01 2.189226913452148438e+01 1.063437759876251221e-01 9.409324079751968384e-02 6.013110652565956116e-02 -1.548728998750448227e-02
1.544000000000000000e+03 3.884069824218750000e+01 -3.049847221374511719e+01 7.581093907356262207e-01 3.071030616760253906e+00 1.148742079734802246e+00 1.010362744331359863e+00
1.545000000000000000e+03 3.322285461425781250e+01 1.940838432312011719e+01 1.247096657752990723e-01 1.034402608871459961e+00 3.477336764335632324e-01 1.252870112657546997e-01
1.546000000000000000e+03 3.190963745117187500e+01 1.927764129638671875e+01 -2.520980313420295715e-03 1.147315263748168945e+00 3.434382975101470947e-01 4.528876021504402161e-02
1.547000000000000000e+03 3.306275939941406250e+01 2.186618995666503906e+01 -1.113419327884912491e-02 1.054013967514038086e+00 3.128639459609985352e-01 2.398825623095035553e-02
1.548000000000000000e+03 3.309403228759765625e+01 2.061415863037109375e+01 1.213994622230529785e-02 1.031402587890625000e+00 3.130627870559692383e-01 2.546486631035804749e-02
1.549000000000000000e+03 5.117447280883789062e+01 -1.086478042602539062e+01 -3.117202818393707275e-01 3.618313789367675781e+00 9.919780492782592773e-01 8.910973072052001953e-01
1.550000000000000000e+03 5.215957260131835938e+01 -8.835348129272460938e+00 -9.926064014434814453e-01 5.424885749816894531e+00 1.329683899879455566e+00 1.081941723823547363e+00
1.551000000000000000e+03 3.985217285156250000e+01 -2.659335374832153320e+00 -3.332172036170959473e-01 1.376764029264450073e-01 -5.866223946213722229e-02 6.504376232624053955e-02
1.552000000000000000e+03 4.376895523071289062e+01 -4.292062759399414062e+00 1.930604875087738037e-01 1.787800528109073639e-02 6.328155100345611572e-02 -7.627927511930465698e-02
1.553000000000000000e+03 3.590842056274414062e+01 -1.336042308807373047e+01 -6.758073568344116211e-01 3.495295643806457520e-01 -9.788333624601364136e-02 3.473436459898948669e-02
1.554000000000000000e+03 3.681882858276367188e+01 -1.264442634582519531e+01 -5.301814675331115723e-01 4.995177388191223145e-01 -9.199115447700023651e-03 5.843974184244871140e-03
1.555000000000000000e+03 4.954061508178710938e+01 -3.977032852172851562e+01 -7.504294514656066895e-01 3.554018020629882812e+00 8.410765528678894043e-01 5.633502602577209473e-01
1.556000000000000000e+03 4.912179946899414062e+01 -2.749986457824707031e+01 -3.948743045330047607e-01 1.744006514549255371e+00 4.047396779060363770e-01 -1.311418056488037109e+00
1.557000000000000000e+03 3.968090057373046875e+01 -3.630491638183593750e+01 3.995849564671516418e-02 1.820441722869873047e+00 5.581200718879699707e-01 -4.491149783134460449e-01
1.558000000000000000e+03 4.665531158447265625e+01 -4.105109786987304688e+01 -2.096636146306991577e-01 1.740604281425476074e+00 4.592822194099426270e-01 2.965207993984222412e-01
1.559000000000000000e+03 5.815731811523437500e+01 2.031273078918457031e+01 2.218572050333023071e-01 3.691161870956420898e+00 1.173905730247497559e+00 -2.870720326900482178e-01
1.560000000000000000e+03 3.891419219970703125e+01 -2.769924545288085938e+01 1.006426736712455750e-01 3.097426414489746094e+00 9.594207406044006348e-01 1.062561869621276855e+00
1.561000000000000000e+03 3.718299484252929688e+01 -3.265237808227539062e+01 1.009350895881652832e+00 1.928768038749694824e+00 8.814356923103332520e-01 6.400707960128784180e-01
1.562000000000000000e+03 3.925030517578125000e+01 -3.439091491699218750e+01 5.772821307182312012e-01 3.435978412628173828e+00 1.203978180885314941e+00 -4.764699935913085938e-01
1.563000000000000000e+03 5.232008743286132812e+01 -3.238093566894531250e+01 1.852948188781738281e+00 4.478893280029296875e+00 1.899552464485168457e+00 7.216118574142456055e-01
1.564000000000000000e+03 3.110465812683105469e+01 1.180215644836425781e+01 4.095394313335418701e-01 6.688100099563598633e-01 3.235048353672027588e-01 4.717611670494079590e-01
1.565000000000000000e+03 3.171732902526855469e+01 1.281649971008300781e+01 5.102498829364776611e-02 5.404206514358520508e-01 1.774336844682693481e-01 4.194085597991943359e-01
1.566000000000000000e+03 4.785274887084960938e+01 -2.538418769836425781e+01 -9.020151495933532715e-01 2.139808654785156250e+00 3.713380396366119385e-01 -1.317002296447753906e+00
1.567000000000000000e+03 4.795261764526367188e+01 -2.341337776184082031e+01 5.943570137023925781e-01 1.881189227104187012e+00 7.426638603210449219e-01 -1.252219557762145996e+00
1.568000000000000000e+03 6.669622039794921875e+01 2.906668472290039062e+01 1.372111320495605469e+00 5.063177585601806641e+00 1.930586695671081543e+00 8.111287951469421387e-01
1.569000000000000000e+03 3.938001251220703125e+01 -2.547241783142089844e+01 1.118692636489868164e+00 4.002213478088378906e+00 1.536271810531616211e+00 1.790272831916809082e+00
1.570000000000000000e+03 3.954030609130859375e+01 -2.697137832641601562e+01 1.894226819276809692e-01 3.054513454437255859e+00 9.731808304786682129e-01 1.047314882278442383e+00
1.571000000000000000e+03 3.249895477294921875e+01 -3.040239715576171875e+01 5.075388550758361816e-01 4.070869684219360352e-01 2.743877470493316650e-01 -2.281120270490646362e-01
1.572000000000000000e+03 2.898274803161621094e+01 7.929276943206787109e+00 1.310513615608215332e-01 1.191151142120361328e+00 3.966607749462127686e-01 1.990615129470825195e-01
1.573000000000000000e+03 2.596917724609375000e+01 3.192488670349121094e+00 -6.813983917236328125e-01 4.677494987845420837e-02 -1.903870403766632080e-01 2.509791553020477295e-01
1.574000000000000000e+03 2.836762428283691406e+01 -2.340715789794921875e+01 2.290833443403244019e-01 6.345332264900207520e-01 2.590849697589874268e-01 -1.450290977954864502e-01
1.575000000000000000e+03 3.848421478271484375e+01 -2.962683486938476562e+01 3.957155346870422363e-01 2.586251974105834961e+00 8.945902585983276367e-01 7.595859169960021973e-01
1.576000000000000000e+03 3.616464233398437500e+01 -2.842871856689453125e+01 2.077108919620513916e-01 3.320499062538146973e-01 1.619282364845275879e-01 2.731473147869110107e-01
1.577000000000000000e+03 3.587271499633789062e+01 -1.528365230560302734e+01 -8.271511793136596680e-01 5.717636272311210632e-02 -2.309924364089965820e-01 1.254069209098815918e-01
1.578000000000000000e+03 3.689960098266601562e+01 -1.607432937622070312e+01 -2.650128304958343506e-01 1.670479029417037964e-01 -2.938948012888431549e-02 -6.485809385776519775e-02
1.579000000000000000e+03 2.773329353332519531e+01 -2.444459915161132812e+01 2.591798901557922363e-01 3.901466429233551025e-01 1.947979629039764404e-01 -1.438160389661788940e-01
1.580000000000000000e+03 4.865833663940429688e+01 -1.535362911224365234e+01 -1.919033050537109375e+00 3.296399831771850586e+00 4.132100343704223633e-01 1.657320618629455566e+00
1.581000000000000000e+03 5.135290527343750000e+01 -1.602219581604003906e+01 -3.671403884887695312e+00 -8.177809417247772217e-02 -1.125954627990722656e+00 -4.031403958797454834e-01
1.582000000000000000e+03 3.474407577514648438e+01 -1.152087402343750000e+01 -2.926248908042907715e-01 2.102645188570022583e-01 -2.470810711383819580e-02 2.091970443725585938e-01
1.583000000000000000e+03 3.121840667724609375e+01 -1.467193031311035156e+01 -6.292274594306945801e-01 3.017249703407287598e-01 -9.825075417757034302e-02 8.049390465021133423e-02
1.584000000000000000e+03 3.866360473632812500e+01 -2.644191551208496094e+01 1.247589588165283203e+00 2.850325107574462891e+00 1.229374408721923828e+00 1.724201679229736328e+00
1.585000000000000000e+03 3.828233718872070312e+01 -1.256223773956298828e+01 -5.742449164390563965e-01 5.648187398910522461e-01 -2.827861113473773003e-03 -5.474617332220077515e-02
1.586000000000000000e+03 3.007463836669921875e+01 -1.479053211212158203e+01 -4.690947234630584717e-01 1.742354780435562134e-01 -8.845777064561843872e-02 -7.436898304149508476e-04
1.587000000000000000e+03 3.031439208984375000e+01 -1.608721923828125000e+01 -8.890223503112792969e-02 3.574051558971405029e-01 8.055087178945541382e-02 1.578611284494400024e-01
1.588000000000000000e+03 4.361595916748046875e+01 -2.665802574157714844e+01 8.279591798782348633e-02 4.454816877841949463e-01 1.584832817316055298e-01 3.984707593917846680e-01
1.589000000000000000e+03 3.863152313232421875e+01 -2.858675956726074219e+01 2.774131298065185547e-01 2.709221839904785156e+00 8.959905505180358887e-01 1.095568895339965820e+00
1.590000000000000000e+03 2.779542541503906250e+01 -2.062977027893066406e+01 1.725125610828399658e-01 4.375159144401550293e-01 1.830085366964340210e-01 2.587693370878696442e-02
1.591000000000000000e+03 4.004723739624023438e+01 -1.412979030609130859e+01 -1.002232551574707031e+00 3.189404308795928955e-01 -2.049876153469085693e-01 -3.780205845832824707e-01
1.592000000000000000e+03 2.890184783935546875e+01 -2.100832176208496094e+01 4.596161842346191406e-02 7.399337291717529297e-01 2.357686012983322144e-01 1.000183969736099243e-01
1.593000000000000000e+03 3.007345008850097656e+01 -2.702054595947265625e+01 2.588700056076049805e-01 4.068038165569305420e-01 1.997021436691284180e-01 -2.796747982501983643e-01
1.594000000000000000e+03 3.939569854736328125e+01 -1.987018394470214844e+01 9.972536563873291016e-02 2.494087368249893188e-01 1.047402247786521912e-01 -5.255517549812793732e-03
1.595000000000000000e+03 4.053288269042968750e+01 -1.871681022644042969e+01 3.328545689582824707e-01 6.063287258148193359e-01 2.817550003528594971e-01 -1.145163327455520630e-01
1.596000000000000000e+03 2.892894172668457031e+01 -1.705286407470703125e+01 -2.041709981858730316e-02 1.851491779088973999e-01 4.941962286829948425e-02 1.032634638249874115e-03
1.597000000000000000e+03 2.855949974060058594e+01 -1.813568115234375000e+01 1.638652980327606201e-01 3.023181259632110596e-01 1.398550271987915039e-01 1.201735511422157288e-01
1.598000000000000000e+03 5.396875000000000000e+01 2.639002609252929688e+01 1.777324080467224121e+00 8.965034484863281250e+00 3.222707509994506836e+00 -2.630317449569702148e+00
1.599000000000000000e+03 5.121081161499023438e+01 2.821348953247070312e+01 1.275062084197998047e+00 5.333155155181884766e+00 1.982465267181396484e+00 -8.320549130439758301e-01
1.600000000000000000e+03 4.447035598754882812e+01 -1.734906005859375000e+01 2.421703189611434937e-01 2.985065698623657227e+00 9.681708216667175293e-01 6.945841908454895020e-01
1.601000000000000000e+03 4.726183319091796875e+01 -1.783091735839843750e+01 9.517030119895935059e-01 5.484107494354248047e+00 1.930743098258972168e+00 1.940543055534362793e+00
1.602000000000000000e+03 3.088992691040039062e+01 -2.812181854248046875e+01 2.133101671934127808e-01 3.639023602008819580e-01 1.731637567281723022e-01 -2.884121239185333252e-01
1.603000000000000000e+03 6.257666778564453125e+01 2.516811752319335938e+01 2.642356872558593750e+00 7.088964939117431641e+00 2.919396638870239258e+00 4.137735843658447266e+00
1.604000000000000000e+03 6.506156158447265625e+01 2.603274917602539062e+01 2.239151716232299805e+00 4.980979442596435547e+00 2.166039466857910156e+00 1.507975459098815918e+00
1.605000000000000000e+03 2.768857002258300781e+01 1.062428665161132812e+01 3.224938511848449707e-01 3.966627120971679688e-01 2.157469540834426880e-01 1.793534308671951294e-01
1.606000000000000000e+03 1.145392990112304688e+01 -1.256189727783203125e+01 4.429765045642852783e-03 3.071774356067180634e-02 1.054425258189439774e-02 -5.327823385596275330e-02
1.607000000000000000e+03 9.748836517333984375e+00 -1.160299587249755859e+01 -4.821377247571945190e-02 -1.320886462926864624e-01 -5.409072712063789368e-02 -1.171975508332252502e-01
1.608000000000000000e+03 1.369120502471923828e+01 6.777109146118164062e+00 -1.035178780555725098e+00 -2.847054600715637207e-01 -3.959652781486511230e-01 4.608598947525024414e-01
1.609000000000000000e+03 2.855673789978027344e+01 1.303809356689453125e+01 1.480300128459930420e-01 3.566335439682006836e-01 1.513990610837936401e-01 2.769981622695922852e-01
1.610000000000000000e+03 2.856251716613769531e+01 1.119890689849853516e+01 2.870169579982757568e-01 5.191864967346191406e-01 2.418610304594039917e-01 2.343405187129974365e-01
1.611000000000000000e+03 6.230523300170898438e+01 2.115900993347167969e+01 -2.481102705001831055e+00 5.942804336547851562e+00 1.038510441780090332e+00 3.475003004074096680e+00
1.612000000000000000e+03 6.102360153198242188e+01 2.111388206481933594e+01 -1.638245582580566406e+00 5.707052707672119141e+00 1.220642209053039551e+00 2.797303438186645508e+00
1.613000000000000000e+03 2.958770179748535156e+01 1.916269421577453613e+00 -1.119986176490783691e+00 3.929382264614105225e-01 -2.181143760681152344e-01 8.137167990207672119e-02
1.614000000000000000e+03 2.390790176391601562e+01 -1.697387886047363281e+01 -3.074796199798583984e-01 -2.856200337409973145e-01 -1.779298931360244751e-01 -4.041922390460968018e-01
1.615000000000000000e+03 1.620598602294921875e+01 -3.971601104736328125e+01 6.863067150115966797e-01 3.022899031639099121e-01 2.965790033340454102e-01 -3.229068219661712646e-01
1.616000000000000000e+03 1.399469566345214844e+01 -3.807946014404296875e+01 2.983924150466918945e-01 1.457904130220413208e-01 1.332548558712005615e-01 -1.837228238582611084e-01
1.617000000000000000e+03 6.097845458984375000e+01 2.387288856506347656e+01 -8.594158887863159180e-01 3.111856460571289062e+00 6.757321357727050781e-01 2.106682062149047852e+00
1.618000000000000000e+03 2.654136085510253906e+01 -3.598845672607421875e+01 1.084267422556877136e-01 2.382748574018478394e-01 1.040104776620864868e-01 7.919125258922576904e-02
1.619000000000000000e+03 2.514847564697265625e+01 -3.816719436645507812e+01 2.212319225072860718e-01 6.664074212312698364e-02 8.636179566383361816e-02 1.190924718976020813e-01
1.620000000000000000e+03 5.303865432739257812e+01 3.419939041137695312e+01 -4.209921658039093018e-01 4.352576255798339844e+00 1.179475188255310059e+00 -7.724946737289428711e-02
1.621000000000000000e+03 4.685193252563476562e+01 3.185416984558105469e+01 7.812681794166564941e-01 3.006428480148315430e+00 1.136309027671813965e+00 -9.491879940032958984e-01
1.622000000000000000e+03 5.167606735229492188e+01 3.160466957092285156e+01 7.692951560020446777e-01 5.006963253021240234e+00 1.732877492904663086e+00 -5.699791908264160156e-01
1.623000000000000000e+03 5.981062698364257812e+01 2.234383392333984375e+01 -2.676746606826782227e+00 2.573158502578735352e+00 -3.107646293938159943e-02 2.301339387893676758e+00
1.624000000000000000e+03 5.443707275390625000e+01 2.358698272705078125e+01 -1.790440559387207031e+00 5.602112293243408203e+00 1.143501520156860352e+00 -2.107055902481079102e+00
1.625000000000000000e+03 6.578671264648437500e+01 -1.698829841613769531e+01 -2.213919401168823242e+00 4.071750164031982422e+00 5.573492646217346191e-01 5.803527832031250000e-01
1.626000000000000000e+03 6.399410247802734375e+01 -1.632540702819824219e+01 -2.786164999008178711e+00 6.755249023437500000e+00 1.190725207328796387e+00 2.153662741184234619e-01
1.627000000000000000e+03 6.353756713867187500e+01 3.434123611450195312e+01 -8.441358208656311035e-01 3.633472919464111328e+00 8.368011713027954102e-01 2.666849456727504730e-02
1.628000000000000000e+03 5.372801208496093750e+01 3.527349090576171875e+01 -8.184063434600830078e-01 3.940711498260498047e+00 9.366915225982666016e-01 4.081902801990509033e-01
1.629000000000000000e+03 2.540717697143554688e+01 -3.096250724792480469e+01 1.553591489791870117e-01 1.961220502853393555e-01 1.054443567991256714e-01 -1.678037643432617188e-01
1.630000000000000000e+03 1.439532089233398438e+01 -1.415530872344970703e+01 1.952891498804092407e-01 4.540778994560241699e-01 1.948101073503494263e-01 -2.363282591104507446e-01
1.631000000000000000e+03 2.937530136108398438e+01 -9.850629806518554688e+00 -5.331128835678100586e-01 -1.152026414871215820e+00 -5.055418014526367188e-01 -5.110476613044738770e-01
1.632000000000000000e+03 2.774178504943847656e+01 -1.197364234924316406e+01 -1.250206947326660156e+00 -6.679880619049072266e-01 -5.754585266113281250e-01 -7.833343744277954102e-01
1.633000000000000000e+03 6.103719711303710938e+01 2.244631195068359375e+01 -3.163273572921752930e+00 4.919252872467041016e+00 5.267938375473022461e-01 3.277936697006225586e+00
1.634000000000000000e+03 6.533272552490234375e+01 2.861870384216308594e+01 1.441044449806213379e+00 5.686246395111083984e+00 2.138187408447265625e+00 1.611407995223999023e+00
1.635000000000000000e+03 6.361868286132812500e+01 2.938037681579589844e+01 2.581568807363510132e-02 6.987050533294677734e+00 2.103859901428222656e+00 2.589620351791381836e-01
1.636000000000000000e+03 6.506620788574218750e+01 2.969793319702148438e+01 7.535993456840515137e-01 6.706589698791503906e+00 2.238056659698486328e+00 9.954541921615600586e-01
1.637000000000000000e+03 2.630907440185546875e+01 -3.479531478881835938e+01 8.415572345256805420e-02 2.028549462556838989e-01 8.610320091247558594e-02 3.627360612154006958e-02
1.638000000000000000e+03 5.605988311767578125e+01 2.314890289306640625e+01 -2.576768159866333008e+00 3.007957935333251953e+00 1.293569058179855347e-01 -1.709412217140197754e+00
1.639000000000000000e+03 1.346640205383300781e+01 -3.107513427734375000e+01 -1.707938909530639648e-01 -6.063218116760253906e-01 -2.331347167491912842e-01 -2.712144255638122559e-01
1.640000000000000000e+03 1.131140899658203125e+01 -3.681302642822265625e+01 1.771996170282363892e-01 -1.576074659824371338e-01 5.877648945897817612e-03 -2.108505666255950928e-01
1.641000000000000000e+03 2.772284126281738281e+01 -2.547974777221679688e+01 2.743641436100006104e-01 3.674682080745697021e-01 1.925497055053710938e-01 -1.494059115648269653e-01
1.642000000000000000e+03 2.067280197143554688e+01 -4.064270019531250000e+01 7.055068612098693848e-01 6.758704036474227905e-02 2.319281697273254395e-01 1.095594242215156555e-01
1.643000000000000000e+03 6.172407913208007812e+01 4.561625480651855469e+00 -8.484462499618530273e-01 5.787519454956054688e+00 1.481721997261047363e+00 -1.534399390220642090e+00
1.644000000000000000e+03 6.240205383300781250e+01 -7.593115568161010742e-01 2.017345666885375977e+00 8.194037437438964844e+00 3.063415050506591797e+00 -8.257850408554077148e-01
1.645000000000000000e+03 6.083884811401367188e+01 9.140412330627441406e+00 -5.252661705017089844e-01 7.522490024566650391e+00 2.099167108535766602e+00 -9.873120188713073730e-01
1.646000000000000000e+03 6.067411422729492188e+01 1.207039546966552734e+01 8.862470388412475586e-01 1.115021610260009766e+01 3.610938787460327148e+00 -1.279969096183776855e+00
1.647000000000000000e+03 1.311417484283447266e+01 -2.929635429382324219e+01 -1.737616807222366333e-01 -4.310723543167114258e-01 -1.814502179622650146e-01 -2.261475175619125366e-01
1.648000000000000000e+03 1.565777301788330078e+01 -2.048006629943847656e+01 -4.806247651576995850e-01 -6.479421257972717285e-01 -3.385700881481170654e-01 -4.712846279144287109e-01
1.649000000000000000e+03 1.360300827026367188e+01 -2.199962043762207031e+01 -4.794366657733917236e-01 -2.686582803726196289e-01 -2.244284898042678833e-01 -4.204024076461791992e-01
1.650000000000000000e+03 1.098627090454101562e+01 -3.835847091674804688e+01 2.441934794187545776e-01 -1.846193820238113403e-01 1.787222735583782196e-02 -1.347355842590332031e-01
1.651000000000000000e+03 1.723819160461425781e+01 -1.104436874389648438e+00 -1.738724261522293091e-01 1.617505550384521484e-01 -3.636560169979929924e-03 -1.230614334344863892e-01
1.652000000000000000e+03 7.230871582031250000e+01 -1.237156295776367188e+01 -2.735110998153686523e+00 2.998621165752410889e-01 -7.305746674537658691e-01 -1.077921152114868164e+00
1.653000000000000000e+03 7.220745849609375000e+01 -1.354387760162353516e+01 -9.494920372962951660e-01 1.245044708251953125e+00 8.866580575704574585e-02 -9.928114414215087891e-01
1.654000000000000000e+03 2.133168411254882812e+01 -2.710808563232421875e+01 6.122948527336120605e-01 2.664657235145568848e-01 2.636281847953796387e-01 -3.131944835186004639e-01
1.655000000000000000e+03 1.029449558258056641e+01 -3.302951431274414062e+01 -1.140074357390403748e-01 -2.360432147979736328e-01 -1.050151959061622620e-01 -2.323760539293289185e-01
1.656000000000000000e+03 1.158312129974365234e+01 -3.351953125000000000e+01 -7.526178658008575439e-02 -2.869176864624023438e-01 -1.086538508534431458e-01 -2.035563588142395020e-01
1.657000000000000000e+03 1.484509086608886719e+01 -2.546715927124023438e+01 1.378203779458999634e-01 -4.546054303646087646e-01 -9.503550827503204346e-02 -2.861903309822082520e-01
1.658000000000000000e+03 1.258613872528076172e+01 -2.466341209411621094e+01 5.201416835188865662e-02 -3.679316043853759766e-01 -9.477522969245910645e-02 -2.871513068675994873e-01
1.659000000000000000e+03 2.318531990051269531e+01 -2.538884735107421875e+01 3.714710772037506104e-01 1.678892821073532104e-01 1.618081033229827881e-01 -1.221194490790367126e-01
1.660000000000000000e+03 2.493959999084472656e+01 -3.472629547119140625e+01 1.058907527476549149e-02 -9.162698686122894287e-02 -2.431137301027774811e-02 -7.421282585710287094e-03
1.661000000000000000e+03 2.690688896179199219e+01 -3.151764488220214844e+01 1.938638538122177124e-01 2.020081579685211182e-01 1.187616065144538879e-01 -1.965413987636566162e-01
1.662000000000000000e+03 5.266026306152343750e+01 -6.160313606262207031e+00 1.093361139297485352e+00 1.280988979339599609e+01 4.170975208282470703e+00 -1.159324765205383301e+00
1.663000000000000000e+03 5.278758239746093750e+01 -3.507475137710571289e+00 3.243571996688842773e+00 2.180887222290039062e+01 7.515733718872070312e+00 6.040178298950195312e+00
1.664000000000000000e+03 1.692751884460449219e+01 -6.982716083526611328e+00 -4.059512168169021606e-02 4.173595607280731201e-01 1.130293309688568115e-01 -1.217447314411401749e-02
1.665000000000000000e+03 1.536205291748046875e+01 -1.085544395446777344e+01 -8.710369467735290527e-02 2.952618300914764404e-01 6.244743615388870239e-02 -9.851573035120964050e-03
1.666000000000000000e+03 2.965157890319824219e+01 -8.560351371765136719e+00 -6.243480741977691650e-02 -1.158476233482360840e+00 -3.662733137607574463e-01 -2.214194089174270630e-01
1.667000000000000000e+03 6.136363601684570312e+01 -6.182750701904296875e+00 5.270388126373291016e-01 1.335836791992187500e+01 4.165621757507324219e+00 -2.876274287700653076e-01
1.668000000000000000e+03 6.450347137451171875e+01 -2.851416015625000000e+01 1.808228611946105957e+00 7.091758251190185547e+00 2.669996023178100586e+00 -3.649364233016967773e+00
1.669000000000000000e+03 2.892794799804687500e+01 -1.602002906799316406e+01 -2.262526154518127441e-01 8.710337430238723755e-02 -4.174477234482765198e-02 -2.733506821095943451e-02
1.670000000000000000e+03 3.220185470581054688e+01 -4.736480236053466797e+00 -1.023034472018480301e-02 -3.549328148365020752e-01 -1.095489487051963806e-01 -3.464046418666839600e-01
1.671000000000000000e+03 5.575389480590820312e+01 -9.673627853393554688e+00 -2.506796598434448242e+00 1.871494948863983154e-01 -6.958941817283630371e-01 3.942415416240692139e-01
1.672000000000000000e+03 5.650564193725585938e+01 -1.119067955017089844e+01 -1.729209303855895996e+00 5.490322709083557129e-01 -3.540530800819396973e-01 -8.187077045440673828e-01
1.673000000000000000e+03 2.636431503295898438e+01 -1.455144023895263672e+01 -7.892320752143859863e-01 -4.199041128158569336e-01 -3.627408444881439209e-01 -3.860900998115539551e-01
1.674000000000000000e+03 7.358998870849609375e+01 -2.412050437927246094e+01 1.524781584739685059e+00 1.222541141510009766e+01 4.125057697296142578e+00 2.268355131149291992e+00
1.675000000000000000e+03 7.284737396240234375e+01 -2.516399765014648438e+01 8.701331615447998047e-01 5.891393184661865234e+00 2.028457880020141602e+00 2.382148504257202148e+00
1.676000000000000000e+03 5.308571243286132812e+01 2.545402908325195312e+01 7.886369228363037109e-01 5.733053684234619141e+00 1.956507205963134766e+00 -8.344024419784545898e-01
1.677000000000000000e+03 4.875371932983398438e+01 1.968598175048828125e+01 -1.704585194587707520e+00 2.987445294857025146e-01 -4.217521846294403076e-01 -7.357391119003295898e-01
1.678000000000000000e+03 1.953106307983398438e+01 3.366471099853515625e+01 4.892457276582717896e-02 -1.349791735410690308e-01 -2.581638097763061523e-02 4.148876294493675232e-03
1.679000000000000000e+03 1.958638763427734375e+01 3.054287719726562500e+01 -1.426865607500076294e-01 -5.965283513069152832e-01 -2.217644751071929932e-01 2.034215033054351807e-01
1.680000000000000000e+03 6.973375701904296875e+01 -1.207347297668457031e+01 -4.683935344219207764e-01 3.670168519020080566e-01 -3.041299618780612946e-02 -1.381957769393920898e+00
1.681000000000000000e+03 6.852355957031250000e+01 -1.165098857879638672e+01 2.142994642257690430e+00 2.170917034149169922e+00 1.294173479080200195e+00 -2.174076557159423828e+00
1.682000000000000000e+03 1.881974411010742188e+01 -1.403956699371337891e+01 -3.067146837711334229e-01 1.298703700304031372e-01 -5.305328965187072754e-02 -1.192274838685989380e-01
1.683000000000000000e+03 1.645187377929687500e+01 -1.038103771209716797e+01 -4.020943865180015564e-02 2.574635744094848633e-01 6.517624109983444214e-02 -9.945470839738845825e-03
1.684000000000000000e+03 3.073027038574218750e+01 -7.970225334167480469e+00 -5.913910269737243652e-02 -5.691856145858764648e-01 -1.884974092245101929e-01 -3.041648566722869873e-01
1.685000000000000000e+03 3.131954765319824219e+01 -7.327678680419921875e+00 -1.183132901787757874e-01 -6.282927393913269043e-01 -2.239818125963211060e-01 -3.498606383800506592e-01
1.686000000000000000e+03 1.938756752014160156e+01 2.596956825256347656e+01 4.805827140808105469e-01 4.329689443111419678e-01 2.740654945373535156e-01 4.840086698532104492e-01
1.687000000000000000e+03 6.838571929931640625e+01 -2.612567710876464844e+01 -3.638929605484008789e+00 7.638161778450012207e-01 -8.625339865684509277e-01 9.248802065849304199e-02
1.688000000000000000e+03 1.203048515319824219e+01 2.042463302612304688e+01 1.654288321733474731e-01 2.232663780450820923e-01 1.166085675358772278e-01 3.935474455356597900e-01
1.689000000000000000e+03 8.273708343505859375e+00 2.348906326293945312e+01 -3.559076786041259766e-01 -2.857261300086975098e-01 -1.924901455640792847e-01 2.513302564620971680e-01
1.690000000000000000e+03 6.511831665039062500e+01 -6.257178306579589844e+00 9.145551323890686035e-01 1.282604598999023438e+01 4.122180461883544922e+00 -6.838370561599731445e-01
1.691000000000000000e+03 7.817546844482421875e+01 1.656448936462402344e+01 -1.200008857995271683e-02 6.829861164093017578e+00 2.045358419418334961e+00 8.888505697250366211e-01
1.692000000000000000e+03 7.565685272216796875e+01 1.503977775573730469e+01 4.894821941852569580e-01 7.705198764801025391e+00 2.458404302597045898e+00 1.166165828704833984e+00
1.693000000000000000e+03 5.572027206420898438e+01 7.615664958953857422e+00 -9.365717172622680664e-01 8.430577278137207031e+00 2.248201847076416016e+00 -4.081690013408660889e-01
1.694000000000000000e+03 6.578564453125000000e+01 6.422065734863281250e+00 -3.047820329666137695e+00 -2.196337282657623291e-01 -9.802361726760864258e-01 6.296565532684326172e-01
1.695000000000000000e+03 4.556228256225585938e+01 1.670461082458496094e+01 -1.261444985866546631e-01 1.477301001548767090e+00 4.053469598293304443e-01 2.560186088085174561e-01
1.696000000000000000e+03 6.491751098632812500e+01 -1.009980106353759766e+01 5.878400206565856934e-01 9.258281707763671875e+00 2.953836441040039062e+00 -1.154645442962646484e+00
1.697000000000000000e+03 6.234436798095703125e+01 1.981526374816894531e+01 5.974508523941040039e-01 6.708035469055175781e+00 2.191645860671997070e+00 3.562379121780395508e+00
1.698000000000000000e+03 9.014205932617187500e+00 -2.316639328002929688e+01 3.280472159385681152e-01 1.446221023797988892e-02 1.027528271079063416e-01 -9.512691199779510498e-02
1.699000000000000000e+03 6.587042808532714844e-01 -2.470993232727050781e+01 1.636578887701034546e-02 -4.759356975555419922e-01 -1.378709673881530762e-01 6.358114536851644516e-03
1.700000000000000000e+03 5.236136436462402344e+00 -2.077358627319335938e+01 1.197060048580169678e-01 -3.521075844764709473e-02 2.534857578575611115e-02 -9.712912887334823608e-02
1.701000000000000000e+03 7.414546203613281250e+01 -1.068153953552246094e+01 -1.819436550140380859e+00 2.850013971328735352e+00 3.091732263565063477e-01 3.357645869255065918e-01
1.702000000000000000e+03 7.719979286193847656e+00 3.535000991821289062e+01 2.393823713064193726e-01 -5.928417667746543884e-03 7.003618776798248291e-02 3.018633276224136353e-02
1.703000000000000000e+03 1.138672924041748047e+01 3.542474746704101562e+01 3.391708135604858398e-01 2.843732386827468872e-02 1.102824434638023376e-01 1.116059273481369019e-01
1.704000000000000000e+03 7.831671142578125000e+01 -2.775869178771972656e+01 -1.605879068374633789e-01 8.293806076049804688e+00 2.439965486526489258e+00 -2.418349832296371460e-01
1.705000000000000000e+03 5.498535537719726562e+01 -3.476147842407226562e+01 9.866777062416076660e-01 6.961468696594238281e+00 2.384443998336791992e+00 2.949798405170440674e-01
1.706000000000000000e+03 7.068823242187500000e+01 6.547213554382324219e+00 -2.226251512765884399e-01 5.433800220489501953e+00 1.563352584838867188e+00 1.998322129249572754e+00
1.707000000000000000e+03 7.123001861572265625e+01 8.243309974670410156e+00 1.646384000778198242e+00 7.158333778381347656e+00 2.641415357589721680e+00 2.810621261596679688e+00
1.708000000000000000e+03 7.315575408935546875e+01 8.850318908691406250e+00 9.088934659957885742e-01 8.957591056823730469e+00 2.959945440292358398e+00 -1.123872026801109314e-02
1.709000000000000000e+03 6.170311737060546875e+01 -2.412017822265625000e+01 1.215945363044738770e+00 2.765808820724487305e+00 1.194526195526123047e+00 -2.625905573368072510e-01
1.710000000000000000e+03 5.365989303588867188e+01 -8.054937362670898438e+00 4.811207950115203857e-01 4.342270374298095703e+00 1.447017312049865723e+00 -1.480781078338623047e+00
1.711000000000000000e+03 5.946201324462890625e+00 2.669052886962890625e+01 -1.714625507593154907e-01 -1.054174065589904785e+00 -3.676909804344177246e-01 2.890636622905731201e-01
1.712000000000000000e+03 7.135218048095703125e+01 1.843486213684082031e+01 -1.466101169586181641e+00 5.972732543945312500e+00 1.351989388465881348e+00 -7.444047927856445312e-01
1.713000000000000000e+03 1.477836704254150391e+01 3.838098907470703125e+01 1.183479800820350647e-01 -4.344659671187400818e-02 2.247041463851928711e-02 1.159360632300376892e-01
1.714000000000000000e+03 6.156949996948242188e+01 1.739878273010253906e+01 2.630214929580688477e+00 1.119757747650146484e+01 4.148337841033935547e+00 4.828613758087158203e+00
1.715000000000000000e+03 2.022074890136718750e+01 1.546614170074462891e+01 -2.499091327190399170e-01 -3.990882635116577148e-01 -1.946992129087448120e-01 2.239128947257995605e-01
1.716000000000000000e+03 2.164479446411132812e+01 1.542679214477539062e+01 -2.229627966880798340e-01 -2.387724258005619049e-02 -7.405201345682144165e-02 9.653128683567047119e-02
1.717000000000000000e+03 5.921563720703125000e+01 -2.709203338623046875e+01 -1.667300820350646973e+00 1.637955904006958008e+00 -8.803508244454860687e-03 8.362478017807006836e-01
1.718000000000000000e+03 6.751269531250000000e+01 3.702809095382690430e+00 6.380901932716369629e-01 1.564109563827514648e+00 6.606599688529968262e-01 2.184695720672607422e+00
1.719000000000000000e+03 7.046690368652343750e+01 6.849329471588134766e-01 1.118698596954345703e+00 1.596570014953613281e+00 8.145806193351745605e-01 1.191416263580322266e+00
1.720000000000000000e+03 5.887782669067382812e+01 -1.008977794647216797e+01 -2.807495832443237305e+00 1.417656779289245605e+00 -4.169517159461975098e-01 7.010117769241333008e-01
1.721000000000000000e+03 2.616889953613281250e+00 2.169251441955566406e+01 7.399317808449268341e-03 -5.670790076255798340e-01 -1.679039150476455688e-01 -3.296418488025665283e-02
1.722000000000000000e+03 7.043644714355468750e+01 1.946197319030761719e+01 -2.511756658554077148e+00 4.155833244323730469e+00 4.932229816913604736e-01 -6.772945523262023926e-01
1.723000000000000000e+03 6.822492599487304688e+00 1.323226737976074219e+01 5.747880786657333374e-02 -2.158157229423522949e-01 -4.750107601284980774e-02 4.087165296077728271e-01
1.724000000000000000e+03 7.325717926025390625e+01 1.317344856262207031e+01 1.340058803558349609e+00 1.112867546081542969e+01 3.740620374679565430e+00 4.964141547679901123e-01
1.725000000000000000e+03 7.214949798583984375e+01 1.255403041839599609e+01 6.876782178878784180e-01 1.447196960449218750e+01 4.547894477844238281e+00 4.373763203620910645e-01
1.726000000000000000e+03 7.371553039550781250e+01 -2.080541801452636719e+01 5.369321107864379883e-01 1.327408599853515625e+01 4.143305301666259766e+00 -1.274690389633178711e+00
1.727000000000000000e+03 7.927619171142578125e+01 -1.660060119628906250e+01 -1.057922244071960449e-01 9.748236656188964844e+00 2.892733335494995117e+00 4.823012650012969971e-01
1.728000000000000000e+03 6.062956619262695312e+01 8.147668838500976562e+00 -1.025708436965942383e+00 6.694546222686767578e+00 1.700651407241821289e+00 -7.907062172889709473e-01
1.729000000000000000e+03 6.232944869995117188e+01 9.211881637573242188e+00 6.857948303222656250e-01 2.981676101684570312e+00 1.100241303443908691e+00 -1.786114454269409180e+00
1.730000000000000000e+03 6.279933929443359375e+01 6.891807079315185547e+00 -1.747581958770751953e+00 4.015326023101806641e+00 6.803231239318847656e-01 -1.244779229164123535e+00
1.731000000000000000e+03 6.433743953704833984e+00 3.124904441833496094e+01 1.162385754287242889e-02 -2.375341355800628662e-01 -6.777308136224746704e-02 2.225746586918830872e-02
1.732000000000000000e+03 6.006348800659179688e+01 -3.884986114501953125e+01 -1.564178943634033203e+00 -2.501718699932098389e-01 -5.443052053451538086e-01 -4.963035285472869873e-01
1.733000000000000000e+03 4.982416152954101562e+01 5.798267841339111328e+00 -1.102113127708435059e+00 5.196254849433898926e-01 -1.747462898492813110e-01 -1.275548696517944336e+00
1.734000000000000000e+03 4.530831527709960938e+01 -2.606793403625488281e+01 -3.821892440319061279e-01 1.473278880119323730e+00 3.273268938064575195e-01 -4.473517239093780518e-01
1.735000000000000000e+03 4.684956359863281250e+01 -1.913533782958984375e+01 8.528515100479125977e-01 6.998003482818603516e+00 2.355256557464599609e+00 1.798629999160766602e+00
1.736000000000000000e+03 6.556588745117187500e+01 1.293681859970092773e-01 1.480366110801696777e+00 4.330229282379150391e+00 1.743178606033325195e+00 1.564279198646545410e+00
1.737000000000000000e+03 6.645110321044921875e+01 -1.531168842315673828e+01 -2.254778623580932617e+00 2.626353502273559570e+00 1.114724874496459961e-01 7.555840015411376953e-01
1.738000000000000000e+03 6.475666046142578125e+01 -1.884211158752441406e+01 4.994414746761322021e-01 8.615631103515625000e+00 2.734521627426147461e+00 7.956423759460449219e-01
1.739000000000000000e+03 6.158919143676757812e+01 -2.215280151367187500e+01 2.704475164413452148e+00 4.067102432250976562e+00 2.031473398208618164e+00 -5.688316822052001953e-01
1.740000000000000000e+03 2.729867362976074219e+01 9.053117752075195312e+00 3.135813772678375244e-01 4.172104001045227051e-01 2.192375361919403076e-01 1.202953234314918518e-01
1.741000000000000000e+03 6.149135971069335938e+01 -2.530060577392578125e+01 2.586417496204376221e-01 1.034275650978088379e+00 3.878752291202545166e-01 -1.312919408082962036e-01
1.742000000000000000e+03 4.752616500854492188e+01 2.217236328125000000e+01 2.066844701766967773e-02 1.812452793121337891e+00 5.499363541603088379e-01 7.620746642351150513e-02
1.743000000000000000e+03 7.939236450195312500e+01 -2.217528533935546875e+01 5.488044768571853638e-02 6.990358352661132812e+00 2.113571643829345703e+00 1.401820499449968338e-02
1.744000000000000000e+03 5.138452529907226562e+01 -2.486877441406250000e+00 3.024774074554443359e+00 6.480293750762939453e+00 2.851520299911499023e+00 2.720018148422241211e+00
1.745000000000000000e+03 5.332400894165039062e+01 -1.838809609413146973e+00 1.857339143753051758e-01 1.958710670471191406e+01 5.931852340698242188e+00 8.041511535644531250e+00
1.746000000000000000e+03 1.334920406341552734e+01 1.827955818176269531e+01 6.566014289855957031e-01 3.136256635189056396e-01 2.910681366920471191e-01 4.562066793441772461e-01
1.747000000000000000e+03 1.183911418914794922e+01 2.148179054260253906e+01 6.077080219984054565e-02 1.156591773033142090e-01 5.292899534106254578e-02 3.447233140468597412e-01
1.748000000000000000e+03 6.537871551513671875e+01 -8.345515251159667969e+00 2.519206762313842773e+00 1.310608196258544922e+01 4.687586784362792969e+00 -3.357107162475585938e+00
1.749000000000000000e+03 4.941126632690429688e+01 -3.175808429718017578e+00 2.022343158721923828e+00 5.568647384643554688e-01 7.737623453140258789e-01 1.331229656934738159e-01
1.750000000000000000e+03 6.662779998779296875e+01 -3.583597564697265625e+01 4.010629653930664062e-01 5.663705348968505859e+00 1.819430470466613770e+00 -2.539916634559631348e-01
1.751000000000000000e+03 6.334676361083984375e+01 -1.906907081604003906e+01 4.754562973976135254e-01 7.062247276306152344e+00 2.261311054229736328e+00 -6.652984619140625000e-01
1.752000000000000000e+03 5.318965911865234375e+01 -9.427253723144531250e+00 -1.400098681449890137e+00 4.555640697479248047e+00 9.466625452041625977e-01 -1.789831817150115967e-01
1.753000000000000000e+03 5.715272903442382812e+01 8.766558647155761719e+00 -9.436255693435668945e-02 8.656494140625000000e+00 2.568639516830444336e+00 -3.363682925701141357e-01
1.754000000000000000e+03 5.175909423828125000e+01 5.792936325073242188e+00 -4.284983634948730469e+00 -4.176322817802429199e-01 -1.410784840583801270e+00 -1.485523700714111328e+00
1.755000000000000000e+03 7.759320068359375000e+01 -1.487711429595947266e+01 -5.978613495826721191e-01 9.158185958862304688e+00 2.568097591400146484e+00 8.162184953689575195e-01
1.756000000000000000e+03 1.689127326011657715e+00 -1.163962078094482422e+01 8.932816796004772186e-03 -5.655969679355621338e-02 -1.428806409239768982e-02 8.796839043498039246e-03
1.757000000000000000e+03 6.140296554565429688e+01 -3.949743270874023438e+01 -1.407211899757385254e+00 -4.339999556541442871e-01 -5.523635745048522949e-01 6.517606228590011597e-02
1.758000000000000000e+03 2.032596969604492188e+01 2.700176048278808594e+01 2.855223715305328369e-01 1.123778223991394043e-01 1.193700581789016724e-01 4.030413329601287842e-01
1.759000000000000000e+03 7.552132010459899902e-01 3.203744506835937500e+01 -1.041598967276513577e-03 -1.054895520210266113e+00 -3.167811334133148193e-01 4.992863535881042480e-02
1.760000000000000000e+03 7.490601062774658203e+00 2.174510765075683594e+01 -4.150370880961418152e-02 -3.276008665561676025e-01 -1.107313781976699829e-01 1.034834831953048706e-01
1.761000000000000000e+03 1.844811439514160156e+01 2.213661575317382812e+01 3.701953291893005371e-01 2.382418662309646606e-01 1.825311630964279175e-01 1.937969326972961426e-01
1.762000000000000000e+03 5.330763626098632812e+01 -1.254470062255859375e+01 -9.327166080474853516e-01 2.263570308685302734e+00 3.992560803890228271e-01 -1.417987585067749023e+00
1.763000000000000000e+03 1.831480026245117188e+01 3.375566482543945312e+01 3.470580652356147766e-02 -2.438743114471435547e-01 -6.275055557489395142e-02 8.979361504316329956e-02
1.764000000000000000e+03 1.830610656738281250e+01 3.229861831665039062e+01 -2.353795170783996582e-01 -3.204542398452758789e-01 -1.667501330375671387e-01 2.257020473480224609e-01
1.765000000000000000e+03 6.840832233428955078e+00 3.401996994018554688e+01 3.293975293636322021e-01 -8.927218616008758545e-02 7.203759998083114624e-02 9.307707846164703369e-02
1.766000000000000000e+03 3.944429159164428711e+00 3.600260162353515625e+01 9.884202480316162109e-02 -6.416477560997009277e-01 -1.628417223691940308e-01 -8.729077875614166260e-03
1.767000000000000000e+03 7.255735015869140625e+01 -1.482006549835205078e+01 -6.200909018516540527e-01 2.780934333801269531e+00 6.482530236244201660e-01 -9.286373853683471680e-01
1.768000000000000000e+03 2.052947616577148438e+01 7.436815738677978516e+00 3.654340505599975586e-01 -4.771973192691802979e-02 9.531429409980773926e-02 1.998521089553833008e-01
1.769000000000000000e+03 1.714290809631347656e+01 3.375195312500000000e+01 -8.814588934183120728e-02 -1.596715301275253296e-01 -7.434522360563278198e-02 1.367128789424896240e-01
1.770000000000000000e+03 6.682454681396484375e+01 -2.651411819458007812e+01 -2.488333940505981445e+00 5.547564983367919922e+00 9.177692532539367676e-01 -2.261743783950805664e+00
1.771000000000000000e+03 1.795606422424316406e+01 3.642804336547851562e+01 1.479157805442810059e-01 -1.096089929342269897e-01 1.149203442037105560e-02 5.000003427267074585e-02
1.772000000000000000e+03 4.395254898071289062e+01 3.670960664749145508e+00 -8.051576614379882812e-01 6.128554344177246094e-01 -5.769067630171775818e-02 -7.477137446403503418e-02
1.773000000000000000e+03 4.682263565063476562e+01 3.919341802597045898e+00 -3.868455886840820312e-01 1.380045056343078613e+00 2.979598343372344971e-01 -1.073804974555969238e+00
1.774000000000000000e+03 1.504273033142089844e+01 3.675120544433593750e+01 1.520716547966003418e-01 -8.350935578346252441e-02 2.056868933141231537e-02 1.295329332351684570e-01
1.775000000000000000e+03 1.622788238525390625e+01 1.838849449157714844e+01 -4.686717689037322998e-01 -1.489566266536712646e-01 -1.852885186672210693e-01 2.351830601692199707e-01
1.776000000000000000e+03 3.447341918945312500e+01 2.276038551330566406e+01 -2.390851825475692749e-02 1.198371291160583496e+00 3.523388504981994629e-01 -4.625233262777328491e-02
1.777000000000000000e+03 2.205685806274414062e+01 3.084351539611816406e+01 7.571588456630706787e-02 2.458614408969879150e-01 9.647320210933685303e-02 6.503075361251831055e-02
1.778000000000000000e+03 2.082953834533691406e+01 2.957569122314453125e+01 -1.700497418642044067e-02 -3.737045824527740479e-02 -1.631262898445129395e-02 2.344070523977279663e-01
1.779000000000000000e+03 1.702896881103515625e+01 2.283395576477050781e+01 7.501337528228759766e-01 3.162779808044433594e-01 3.199235200881958008e-01 4.004466533660888672e-01
1.780000000000000000e+03 1.439235591888427734e+01 2.289627075195312500e+01 6.680802106857299805e-01 1.205725297331809998e-01 2.365958243608474731e-01 3.041568100452423096e-01
1.781000000000000000e+03 8.175846934318542480e-01 2.905654144287109375e+01 -1.488993037492036819e-02 -7.707828283309936523e-01 -2.357018291950225830e-01 8.163217455148696899e-02
1.782000000000000000e+03 3.949140310287475586e+00 2.883709144592285156e+01 -5.589600652456283569e-02 -6.929318904876708984e-01 -2.246483713388442993e-01 2.109944075345993042e-01
1.783000000000000000e+03 5.045876502990722656e+00 2.781636047363281250e+01 -1.343479603528976440e-01 -8.863874077796936035e-01 -3.062205910682678223e-01 1.730822473764419556e-01
1.784000000000000000e+03 5.568386554718017578e+00 4.264673233032226562e+00 -9.054167568683624268e-02 -2.615143172442913055e-02 -3.500793129205703735e-02 -2.303429134190082550e-02
1.785000000000000000e+03 1.314669704437255859e+01 2.158705329895019531e+01 2.208938598632812500e-01 1.596664488315582275e-01 1.141680926084518433e-01 4.210146069526672363e-01
1.786000000000000000e+03 1.166592311859130859e+01 2.262535476684570312e+01 -7.547093182802200317e-02 3.451111540198326111e-02 -1.228794362396001816e-02 1.160082519054412842e-01
1.787000000000000000e+03 6.947705268859863281e+00 2.292087364196777344e+01 -1.348441541194915771e-01 -3.884301781654357910e-01 -1.569823026657104492e-01 1.375927478075027466e-01
1.788000000000000000e+03 1.457608413696289062e+01 2.052009010314941406e+01 1.666838377714157104e-01 2.228991985321044922e-01 1.168749108910560608e-01 5.316767096519470215e-01
1.789000000000000000e+03 7.106243133544921875e+01 -1.490959644317626953e+01 -4.917432367801666260e-01 1.486164927482604980e+00 2.983265221118927002e-01 -2.365278720855712891e+00
1.790000000000000000e+03 6.758785247802734375e+01 -1.370487403869628906e+01 -8.446730971336364746e-01 2.281217336654663086e+00 4.309632480144500732e-01 -1.233762860298156738e+00
1.791000000000000000e+03 3.737071990966796875e+01 3.372732543945312500e+01 1.875768303871154785e-01 5.293765664100646973e-01 2.150860130786895752e-01 2.904832065105438232e-01
1.792000000000000000e+03 6.401836395263671875e+01 -2.384687423706054688e+01 1.530138492584228516e+00 7.003612041473388672e+00 2.560125112533569336e+00 -1.713473200798034668e+00
1.793000000000000000e+03 6.501055908203125000e+01 -2.728646469116210938e+01 -1.838200330734252930e+00 7.653380393981933594e+00 1.744554042816162109e+00 -2.057260274887084961e+00
1.794000000000000000e+03 3.672731018066406250e+01 2.137704086303710938e+01 2.335134334862232208e-02 7.383796572685241699e-01 2.285192906856536865e-01 -3.448688387870788574e-01
1.795000000000000000e+03 7.806410980224609375e+01 -2.489670753479003906e+01 9.965410083532333374e-02 8.104212760925292969e+00 2.461160182952880859e+00 -5.659422874450683594e-01
1.796000000000000000e+03 7.528884887695312500e+01 -2.433819961547851562e+01 9.273915290832519531e-01 9.046160697937011719e+00 2.992065906524658203e+00 -1.769631654024124146e-01
1.797000000000000000e+03 5.389532089233398438e+01 -2.485571861267089844e+01 -7.744555473327636719e-01 3.237574100494384766e+00 7.389355301856994629e-01 1.769629240036010742e+00
1.798000000000000000e+03 6.543134307861328125e+01 -4.967637538909912109e+00 7.884809374809265137e-01 9.911606788635253906e+00 3.210026264190673828e+00 1.209030389785766602e+00
1.799000000000000000e+03 4.558107376098632812e+01 9.173993110656738281e+00 2.021332502365112305e+00 4.323574066162109375e+00 1.903472065925598145e+00 -2.378292083740234375e+00
1.800000000000000000e+03 4.469575881958007812e+01 1.119341564178466797e+01 1.039170145988464355e+00 5.379712104797363281e+00 1.925664663314819336e+00 -1.600526332855224609e+00
1.801000000000000000e+03 5.216127777099609375e+01 1.983815670013427734e+00 1.985410094261169434e+00 3.809203386306762695e+00 1.738384127616882324e+00 -2.788261413574218750e+00
1.802000000000000000e+03 7.117479705810546875e+01 -8.502165675163269043e-01 -5.184344649314880371e-01 3.559555113315582275e-01 -4.874367639422416687e-02 -1.472325436770915985e-02
1.803000000000000000e+03 3.616650772094726562e+01 3.484667205810546875e+01 1.294310390949249268e-02 7.926593422889709473e-01 2.416807413101196289e-01 2.222054749727249146e-01
1.804000000000000000e+03 7.300424957275390625e+01 -4.749986529350280762e-01 -1.690980792045593262e-01 3.883434295654296875e+00 1.114300847053527832e+00 -1.382762551307678223e+00
1.805000000000000000e+03 6.923396301269531250e+01 1.183105945587158203e+00 1.110251545906066895e+00 1.741413116455078125e+00 8.554994463920593262e-01 1.856882095336914062e+00
1.806000000000000000e+03 6.303135681152343750e+01 -3.817221832275390625e+01 -1.861997723579406738e+00 4.681524932384490967e-01 -4.181535542011260986e-01 -6.908860057592391968e-02
1.807000000000000000e+03 5.373588943481445312e+01 3.220814228057861328e+00 -5.069918036460876465e-01 6.838362216949462891e+00 1.899411082267761230e+00 5.575881600379943848e-01
1.808000000000000000e+03 5.420936965942382812e+01 6.526652812957763672e+00 -1.978446483612060547e+00 5.410549640655517578e+00 1.029631018638610840e+00 7.392176985740661621e-01
1.809000000000000000e+03 7.772599792480468750e+01 3.305224609375000000e+01 5.584639683365821838e-02 7.165730953216552734e+00 2.166473150253295898e+00 6.127631664276123047e-02
1.810000000000000000e+03 7.914605712890625000e+01 3.606110382080078125e+01 -3.548864647746086121e-02 7.577054023742675781e+00 2.262469768524169922e+00 8.369022980332374573e-03
1.811000000000000000e+03 7.942608642578125000e+01 -2.080298805236816406e+01 1.118370443582534790e-01 7.216244697570800781e+00 2.198424577713012695e+00 1.994016915559768677e-01
1.812000000000000000e+03 7.942392730712890625e+01 -2.783018684387207031e+01 -7.733371853828430176e-02 8.507358551025390625e+00 2.529007434844970703e+00 -1.061860769987106323e-01
1.813000000000000000e+03 7.727163696289062500e+01 -3.837751007080078125e+01 -2.491189911961555481e-02 7.690589427947998047e+00 2.299703359603881836e+00 -7.576423697173595428e-03
1.814000000000000000e+03 7.922471618652343750e+01 -3.469377136230468750e+01 3.114972636103630066e-02 8.179588317871093750e+00 2.463221311569213867e+00 3.323746472597122192e-02
1.815000000000000000e+03 7.469683074951171875e+01 -2.661721611022949219e+01 -1.085540056228637695e+00 8.093298912048339844e+00 2.102327823638916016e+00 6.944558024406433105e-01
1.816000000000000000e+03 7.605678558349609375e+01 -2.847606277465820312e+01 -5.148853063583374023e-01 7.796585559844970703e+00 2.184509992599487305e+00 2.842670679092407227e-01
1.817000000000000000e+03 7.931745910644531250e+01 -3.052780342102050781e+01 -4.290952906012535095e-02 8.519720077514648438e+00 2.543043136596679688e+00 5.332490429282188416e-02
1.818000000000000000e+03 7.765364074707031250e+01 -3.438654708862304688e+01 5.976522713899612427e-02 7.652828693389892578e+00 2.313778162002563477e+00 2.323748171329498291e-02
1.819000000000000000e+03 7.782174682617187500e+01 -3.303713226318359375e+01 1.185066923499107361e-01 7.684754371643066406e+00 2.340978384017944336e+00 1.502560973167419434e-01
1.820000000000000000e+03 7.584165191650390625e+01 -3.832076644897460938e+01 -3.609006851911544800e-02 7.369100093841552734e+00 2.199903011322021484e+00 -2.967291176319122314e-01
1.821000000000000000e+03 7.669091796875000000e+01 -3.945643234252929688e+01 -3.351194038987159729e-02 7.736537456512451172e+00 2.310907602310180664e+00 -1.347299069166183472e-01
1.822000000000000000e+03 7.820022583007812500e+01 1.521370506286621094e+01 1.337617784738540649e-01 6.383916854858398438e+00 1.955303549766540527e+00 8.085132837295532227e-01
1.823000000000000000e+03 7.940590667724609375e+01 1.529334735870361328e+01 2.802858361974358559e-03 5.688176155090332031e+00 1.707293748855590820e+00 3.174034655094146729e-01
1.824000000000000000e+03 7.937715148925781250e+01 2.221209907531738281e+01 -4.200428351759910583e-02 8.288335800170898438e+00 2.473899602890014648e+00 4.559623450040817261e-02
1.825000000000000000e+03 7.784352111816406250e+01 3.168338203430175781e+01 4.794527590274810791e-02 7.162428379058837891e+00 2.163112163543701172e+00 -8.837317116558551788e-03
1.826000000000000000e+03 7.806693267822265625e+01 2.755543518066406250e+01 4.739144071936607361e-02 7.400835990905761719e+00 2.234468221664428711e+00 -1.969856619834899902e-01
1.827000000000000000e+03 7.935658264160156250e+01 2.776838111877441406e+01 -1.163164968602359295e-03 7.765751838684082031e+00 2.329376697540283203e+00 -7.231683284044265747e-02
1.828000000000000000e+03 7.813412475585937500e+01 2.480215263366699219e+01 -3.217962384223937988e-02 7.659688949584960938e+00 2.288252830505371094e+00 -1.864282786846160889e-01
1.829000000000000000e+03 7.814265441894531250e+01 2.342723464965820312e+01 -1.351209431886672974e-01 7.756429672241210938e+00 2.286392688751220703e+00 -1.007217690348625183e-01
1.830000000000000000e+03 7.316617584228515625e+01 1.656439781188964844e+01 -1.941228508949279785e-01 8.699321746826171875e+00 2.551559686660766602e+00 6.016733646392822266e-01
1.831000000000000000e+03 7.681384277343750000e+01 1.914396667480468750e+01 -4.872406125068664551e-01 7.555033206939697266e+00 2.120337724685668945e+00 7.351967096328735352e-01
1.832000000000000000e+03 7.568440246582031250e+01 1.079973888397216797e+01 1.156736731529235840e+00 7.494568347930908203e+00 2.595391511917114258e+00 -1.705612838268280029e-01
1.833000000000000000e+03 7.814778900146484375e+01 9.931840896606445312e+00 2.079112082719802856e-01 5.872838973999023438e+00 1.824225068092346191e+00 -4.023390710353851318e-01
1.834000000000000000e+03 7.938684844970703125e+01 9.800156593322753906e+00 5.091838166117668152e-02 4.877851486206054688e+00 1.478630900382995605e+00 -2.112909257411956787e-01
1.835000000000000000e+03 7.487472534179687500e+01 -1.727991294860839844e+01 -8.082395792007446289e-02 7.875278949737548828e+00 2.338336467742919922e+00 4.817387759685516357e-01
1.836000000000000000e+03 7.923471069335937500e+01 -1.377097034454345703e+01 -9.759759157896041870e-02 1.098168754577636719e+01 3.265227079391479492e+00 1.717499792575836182e-01
1.837000000000000000e+03 7.943603515625000000e+01 -1.942510414123535156e+01 -1.829014532268047333e-02 7.882218837738037109e+00 2.359178543090820312e+00 3.373842835426330566e-01
1.838000000000000000e+03 7.693977355957031250e+01 -2.294265556335449219e+01 7.199977040290832520e-01 8.507310867309570312e+00 2.768192529678344727e+00 -1.626883447170257568e-01
1.839000000000000000e+03 7.944737243652343750e+01 -6.851120948791503906e+00 1.171681731939315796e-01 6.817454338073730469e+00 2.080386877059936523e+00 -2.901169657707214355e-01
1.840000000000000000e+03 7.951895904541015625e+01 -5.511971950531005859e+00 7.042804360389709473e-02 6.361117362976074219e+00 1.929463624954223633e+00 -2.657410874962806702e-02
1.841000000000000000e+03 7.792477416992187500e+01 3.247545659542083740e-02 -2.496977299451828003e-01 7.700862884521484375e+00 2.235349655151367188e+00 8.793630637228488922e-03
1.842000000000000000e+03 7.935309600830078125e+01 1.408628225326538086e+00 -1.579450257122516632e-02 7.911662578582763672e+00 2.368760347366333008e+00 -6.588762998580932617e-02
1.843000000000000000e+03 7.801963806152343750e+01 8.547084808349609375e+00 1.443568766117095947e-01 6.152027606964111328e+00 1.888915300369262695e+00 -6.791800260543823242e-01
1.844000000000000000e+03 7.801432800292968750e+01 2.893026351928710938e+01 3.933393955230712891e-02 7.286219596862792969e+00 2.197666168212890625e+00 -1.543882340192794800e-01
1.845000000000000000e+03 7.477519226074218750e+01 3.887504577636718750e+01 -1.575788557529449463e-01 6.676365375518798828e+00 1.955635905265808105e+00 1.969329416751861572e-01
1.846000000000000000e+03 7.407375335693359375e+01 3.704949188232421875e+01 -8.909216523170471191e-02 6.372290134429931641e+00 1.884959340095520020e+00 2.767606675624847412e-01
1.847000000000000000e+03 7.828989410400390625e+01 1.126072120666503906e+01 3.052959442138671875e-01 5.712538719177246094e+00 1.805350422859191895e+00 -1.160274147987365723e-01
1.848000000000000000e+03 7.810314941406250000e+01 1.470149397850036621e+00 -2.426578998565673828e-01 7.497109889984130859e+00 2.176335573196411133e+00 -2.416400760412216187e-01
1.849000000000000000e+03 7.814302062988281250e+01 2.825478315353393555e+00 -1.185751259326934814e-01 7.273395538330078125e+00 2.146446228027343750e+00 -4.367654919624328613e-01
1.850000000000000000e+03 7.525222015380859375e+01 -2.680561304092407227e+00 -1.150724012404680252e-02 8.699377059936523438e+00 2.606360912322998047e+00 -9.648984670639038086e-01
1.851000000000000000e+03 7.582142639160156250e+01 -5.439181327819824219e+00 1.484821081161499023e+00 1.219104194641113281e+01 4.102758884429931641e+00 -1.535217046737670898e+00
1.852000000000000000e+03 7.769683837890625000e+01 -4.788419246673583984e+00 5.955809354782104492e-01 9.023406982421875000e+00 2.885696411132812500e+00 3.338607400655746460e-02
1.853000000000000000e+03 7.607742309570312500e+01 -1.500366401672363281e+01 -8.027352690696716309e-01 7.711047172546386719e+00 2.072493553161621094e+00 8.935453891754150391e-01
1.854000000000000000e+03 7.569415283203125000e+01 -1.844381332397460938e+01 3.456715941429138184e-01 8.656657218933105469e+00 2.700698614120483398e+00 9.737600088119506836e-01
1.855000000000000000e+03 7.826712036132812500e+01 -2.057316207885742188e+01 2.314205616712570190e-01 8.086446762084960938e+00 2.495360374450683594e+00 5.267947912216186523e-01
1.856000000000000000e+03 7.792096710205078125e+01 -9.355778694152832031e+00 5.746573582291603088e-02 9.349627494812011719e+00 2.822128057479858398e+00 -1.639550566673278809e+00
1.857000000000000000e+03 1.947577095031738281e+01 7.089685916900634766e+00 3.392123878002166748e-01 1.114928275346755981e-01 1.352115571498870850e-01 1.927836537361145020e-01
1.858000000000000000e+03 5.377134323120117188e+01 -3.382714843750000000e+01 1.362129569053649902e+00 5.458864688873291016e+00 2.046298265457153320e+00 8.326862454414367676e-01
1.859000000000000000e+03 5.571284103393554688e+01 -2.969305419921875000e+01 9.520252943038940430e-01 6.346091270446777344e+00 2.189435005187988281e+00 1.626291394233703613e+00
1.860000000000000000e+03 5.669052124023437500e+01 -3.043319129943847656e+01 1.613514661788940430e+00 8.489030838012695312e+00 3.030763626098632812e+00 3.059632062911987305e+00
1.861000000000000000e+03 4.494614028930664062e+01 2.142862129211425781e+01 -3.749370872974395752e-01 1.515024781227111816e+00 3.420263230800628662e-01 6.644463539123535156e-01
1.862000000000000000e+03 2.172377586364746094e+01 1.092769432067871094e+01 2.004425078630447388e-01 -5.073728039860725403e-02 4.491156712174415588e-02 2.372927814722061157e-01
1.863000000000000000e+03 1.588488388061523438e+01 2.066842651367187500e+01 2.323315143585205078e-01 1.193152517080307007e-01 1.054940298199653625e-01 4.410209953784942627e-01
1.864000000000000000e+03 3.929322814941406250e+01 3.758918762207031250e+01 3.386273384094238281e-01 7.902188897132873535e-01 3.386538624763488770e-01 -1.390369087457656860e-01
1.865000000000000000e+03 3.710905838012695312e+01 3.641374588012695312e+01 2.309256196022033691e-01 6.533468961715698242e-01 2.652817666530609131e-01 2.018945962190628052e-01
1.866000000000000000e+03 7.488307189941406250e+01 -4.701624870300292969e+00 1.502385616302490234e+00 1.254585742950439453e+01 4.214472770690917969e+00 -3.035450220108032227e+00
1.867000000000000000e+03 2.087318229675292969e+01 1.820773696899414062e+01 -1.188463196158409119e-01 -5.497242882847785950e-02 -5.214562639594078064e-02 -1.507166307419538498e-02
1.868000000000000000e+03 5.931270217895507812e+01 1.235307693481445312e+01 1.697477102279663086e+00 9.131227493286132812e+00 3.248611211776733398e+00 -1.659079492092132568e-01
1.869000000000000000e+03 5.471737670898437500e+01 9.045228004455566406e+00 9.074250459671020508e-01 1.061569023132324219e+01 3.456934452056884766e+00 1.338615775108337402e+00
1.870000000000000000e+03 7.544366455078125000e+01 -6.798665046691894531e+00 7.190712094306945801e-01 1.418209648132324219e+01 4.470350265502929688e+00 -1.221537947654724121e+00
1.871000000000000000e+03 7.532326507568359375e+01 -8.187203407287597656e+00 6.053297519683837891e-01 1.340249443054199219e+01 4.202347278594970703e+00 1.547075062990188599e-01
1.872000000000000000e+03 6.441791534423828125e+01 -4.459275722503662109e+00 1.654667139053344727e+00 9.933190345764160156e+00 3.476357221603393555e+00 -5.137795805931091309e-01
1.873000000000000000e+03 5.863013839721679688e+01 -3.853715133666992188e+01 -1.180633187294006348e+00 1.404609084129333496e+00 6.719275563955307007e-02 8.063291758298873901e-02
1.874000000000000000e+03 6.555548095703125000e+01 -1.115591526031494141e+01 -8.810877054929733276e-02 7.493184566497802734e+00 2.221522808074951172e+00 -1.508987784385681152e+00
1.875000000000000000e+03 3.551910400390625000e+01 2.096842956542968750e+01 5.411779135465621948e-02 8.772593736648559570e-01 2.794131636619567871e-01 -1.870563924312591553e-01
1.876000000000000000e+03 8.409878730773925781e+00 1.317720890045166016e+01 1.262298971414566040e-01 -1.943468600511550903e-01 -2.043508738279342651e-02 3.989809453487396240e-01
1.877000000000000000e+03 8.587785720825195312e+00 1.229490375518798828e+01 -5.396257340908050537e-02 -2.180652171373367310e-01 -8.160834014415740967e-02 4.148073494434356689e-01
1.878000000000000000e+03 4.643025588989257812e+01 1.800452804565429688e+01 -1.052385807037353516e+00 5.635191798210144043e-01 -1.466599851846694946e-01 -1.624386161565780640e-01
1.879000000000000000e+03 9.068010330200195312e+00 1.660047531127929688e+01 4.730359911918640137e-01 -9.877538308501243591e-03 1.389475315809249878e-01 2.831963896751403809e-01
1.880000000000000000e+03 2.211987113952636719e+01 1.287407207489013672e+01 2.466358430683612823e-02 -8.189574629068374634e-02 -1.716964878141880035e-02 1.091054156422615051e-01
1.881000000000000000e+03 5.034788131713867188e+01 2.904496574401855469e+01 1.310804605484008789e+00 4.358022689819335938e+00 1.700648188591003418e+00 -6.674674749374389648e-01
1.882000000000000000e+03 1.420136165618896484e+01 4.595568656921386719e+00 -4.145946204662322998e-01 -7.772253453731536865e-02 -1.476951390504837036e-01 5.398147106170654297e-01
1.883000000000000000e+03 1.704130172729492188e+01 4.148824214935302734e+00 -6.124098896980285645e-01 1.045897677540779114e-01 -1.523460447788238525e-01 4.974271059036254883e-01
1.884000000000000000e+03 9.857371330261230469e+00 8.138571739196777344e+00 -4.590336084365844727e-01 -4.200069606304168701e-01 -2.637121677398681641e-01 3.193429410457611084e-01
1.885000000000000000e+03 7.893876075744628906e+00 3.412900209426879883e+00 -8.906744420528411865e-02 -5.887652561068534851e-02 -4.438319057226181030e-02 2.867242437787353992e-04
1.886000000000000000e+03 7.323471832275390625e+01 -1.320201396942138672e+01 -1.342683911323547363e+00 2.290268182754516602e+00 2.842752635478973389e-01 -3.553546965122222900e-02
1.887000000000000000e+03 4.460737228393554688e+01 2.303538322448730469e+01 6.506613492965698242e-01 1.501812338829040527e+00 6.457421183586120605e-01 8.823227286338806152e-01
1.888000000000000000e+03 4.412705230712890625e+01 3.192956352233886719e+01 1.002626895904541016e+00 1.642785787582397461e+00 7.936238050460815430e-01 -1.269641041755676270e+00
1.889000000000000000e+03 3.392150878906250000e+01 2.836377143859863281e+01 3.006317317485809326e-01 1.591117262840270996e+00 5.675247311592102051e-01 -2.004788219928741455e-01
1.890000000000000000e+03 5.489367675781250000e+01 1.170733642578125000e+01 7.178131341934204102e-01 1.046391582489013672e+01 3.354518651962280273e+00 -7.354972362518310547e-01
1.891000000000000000e+03 5.536296844482421875e+01 1.482941341400146484e+01 1.948782324790954590e+00 6.985030651092529297e+00 2.680144071578979492e+00 -1.223438382148742676e+00
1.892000000000000000e+03 4.495495223999023438e+01 3.298783874511718750e+01 5.255383253097534180e-01 2.376688241958618164e+00 8.706679344177246094e-01 -1.080140113830566406e+00
1.893000000000000000e+03 5.656856155395507812e+01 -2.697392082214355469e+01 -1.467414736747741699e+00 5.755632877349853516e+00 1.286465406417846680e+00 1.617793560028076172e+00
1.894000000000000000e+03 4.681401443481445312e+01 2.016929817199707031e+01 -8.554801344871520996e-01 1.026489853858947754e+00 5.130289122462272644e-02 5.265378355979919434e-01
1.895000000000000000e+03 5.908457946777343750e+01 1.117601203918457031e+01 1.230379939079284668e+00 8.654435157775878906e+00 2.965444564819335938e+00 -2.624966800212860107e-01
1.896000000000000000e+03 5.179981613159179688e+01 1.699719238281250000e+01 1.769989609718322754e+00 2.856582403182983398e+00 1.387971520423889160e+00 -2.416737079620361328e+00
1.897000000000000000e+03 5.015574645996093750e+01 -3.095841026306152344e+01 1.305383563041687012e+00 3.791672945022583008e+00 1.529116988182067871e+00 -5.439687371253967285e-01
1.898000000000000000e+03 6.757244110107421875e+01 -3.285913085937500000e+01 1.262755155563354492e+00 6.530152797698974609e+00 2.337872505187988281e+00 -1.456664919853210449e+00
1.899000000000000000e+03 6.706248474121093750e+01 -3.028987312316894531e+01 2.366126775741577148e+00 5.681041240692138672e+00 2.414150476455688477e+00 -1.838771581649780273e+00
1.900000000000000000e+03 6.266271209716796875e+01 -7.635597229003906250e+00 1.864898800849914551e+00 1.041820144653320312e+01 3.684930324554443359e+00 -1.038541078567504883e+00
1.901000000000000000e+03 6.450741577148437500e+01 -7.362232685089111328e+00 1.969937324523925781e+00 1.231852722167968750e+01 4.286539554595947266e+00 -2.016741514205932617e+00
1.902000000000000000e+03 4.187089920043945312e+01 1.102068901062011719e+01 9.852720499038696289e-01 1.189586758613586426e+00 6.524576544761657715e-01 -8.115001320838928223e-01
1.903000000000000000e+03 3.430099487304687500e+01 3.359022903442382812e+01 7.056640833616256714e-02 1.028356552124023438e+00 3.296768665313720703e-01 8.095794916152954102e-02
1.904000000000000000e+03 2.849170875549316406e+01 3.190754508972167969e+01 3.685987293720245361e-01 3.264144659042358398e-01 2.085039615631103516e-01 4.436501860618591309e-02
1.905000000000000000e+03 1.353871726989746094e+01 -1.329017734527587891e+01 1.165705546736717224e-01 1.736691296100616455e-01 8.707190304994583130e-02 -1.503761261701583862e-01
1.906000000000000000e+03 1.538118934631347656e+01 -1.454043579101562500e+01 1.060745567083358765e-01 4.303453564643859863e-01 1.609259694814682007e-01 -2.114406228065490723e-01
1.907000000000000000e+03 7.822882843017578125e+01 -3.034437179565429688e+00 -6.990157812833786011e-02 7.880749702453613281e+00 2.343254566192626953e+00 4.639911353588104248e-01
1.908000000000000000e+03 4.361306762695312500e+01 1.412261867523193359e+01 3.653962612152099609e-01 2.618767976760864258e+00 8.952492475509643555e-01 -6.020604372024536133e-01
1.909000000000000000e+03 3.834053802490234375e+01 1.003673362731933594e+01 -3.525538146495819092e-01 -1.394867062568664551e+00 -5.242262482643127441e-01 6.913223266601562500e-01
1.910000000000000000e+03 6.655641174316406250e+01 -6.510356068611145020e-01 1.767847537994384766e+00 3.373972177505493164e+00 1.542545914649963379e+00 1.869911193847656250e+00
1.911000000000000000e+03 6.323114776611328125e+01 -2.049723863601684570e+00 2.179627180099487305e+00 8.772183418273925781e+00 3.285542964935302734e+00 -3.695113360881805420e-01
1.912000000000000000e+03 3.506484985351562500e+01 2.808903694152832031e+01 1.542379707098007202e-01 2.368173122406005859e+00 7.567232847213745117e-01 -5.103754997253417969e-02
1.913000000000000000e+03 5.629965209960937500e+01 -2.834695816040039062e+01 9.631229937076568604e-02 6.218115806579589844e+00 1.894328355789184570e+00 1.708538889884948730e+00
1.914000000000000000e+03 7.809963989257812500e+01 -7.876042842864990234e+00 5.898146629333496094e-01 8.798323631286621094e+00 2.816441535949707031e+00 -1.171115994453430176e+00
1.915000000000000000e+03 7.424270629882812500e+01 -1.450359106063842773e+00 -3.004377782344818115e-01 6.481178760528564453e+00 1.854222297668457031e+00 -1.396413445472717285e+00
1.916000000000000000e+03 7.345829010009765625e+01 -2.345308065414428711e+00 1.266084074974060059e+00 5.112213611602783203e+00 1.913489341735839844e+00 -2.238749504089355469e+00
1.917000000000000000e+03 6.967617797851562500e+01 -3.377252197265625000e+01 1.201920151710510254e+00 5.083460807800292969e+00 1.885614275932312012e+00 -1.152939319610595703e+00
1.918000000000000000e+03 7.165597534179687500e+01 -2.927424812316894531e+01 4.160237610340118408e-01 3.229732036590576172e+00 1.093726754188537598e+00 1.142265677452087402e+00
1.919000000000000000e+03 6.406282043457031250e+01 -2.638208580017089844e+01 -2.043227195739746094e+00 6.699448108673095703e+00 1.396866202354431152e+00 -2.225068569183349609e+00
1.920000000000000000e+03 3.620922851562500000e+01 2.244992446899414062e+01 3.152550011873245239e-02 9.397214651107788086e-01 2.913740873336791992e-01 -3.116529285907745361e-01
1.921000000000000000e+03 4.576528930664062500e+01 3.223639297485351562e+01 6.324874758720397949e-01 2.687154531478881836e+00 9.958925843238830566e-01 -1.062364816665649414e+00
1.922000000000000000e+03 6.738813018798828125e+01 -1.170876312255859375e+01 1.300067186355590820e+00 3.758323431015014648e+00 1.517517209053039551e+00 -1.978182435035705566e+00
1.923000000000000000e+03 7.089127349853515625e+01 -1.354459762573242188e+01 -4.734779298305511475e-01 3.287528455257415771e-01 -4.341752454638481140e-02 -2.209338903427124023e+00
1.924000000000000000e+03 4.391445541381835938e+01 1.553420257568359375e+01 1.025545746088027954e-01 2.188521862030029297e+00 6.873229742050170898e-01 -3.755318224430084229e-01
1.925000000000000000e+03 5.149846649169921875e+01 1.876097679138183594e+01 -5.677291154861450195e-01 3.286005258560180664e+00 8.154827952384948730e-01 -1.903655290603637695e+00
1.926000000000000000e+03 5.252795410156250000e+01 1.786606597900390625e+01 7.851998209953308105e-01 3.927590608596801758e+00 1.413837075233459473e+00 -2.245435714721679688e+00
1.927000000000000000e+03 5.354202270507812500e+01 1.687719345092773438e+01 1.233605265617370605e+00 4.780830860137939453e+00 1.804330825805664062e+00 -2.500463008880615234e+00
1.928000000000000000e+03 5.612437438964843750e+01 1.134562492370605469e+01 1.202206611633300781e+00 8.927534103393554688e+00 3.038922309875488281e+00 -1.034894138574600220e-01
1.929000000000000000e+03 5.150591373443603516e+00 -1.744796371459960938e+01 -1.207502037286758423e-01 -4.955756366252899170e-01 -1.848977506160736084e-01 -1.753349900245666504e-01
1.930000000000000000e+03 5.788073539733886719e+00 -1.612799263000488281e+01 -1.407733857631683350e-01 -4.175448417663574219e-01 -1.674954593181610107e-01 -2.332621812820434570e-01
1.931000000000000000e+03 1.550682353973388672e+01 -1.563392543792724609e+01 1.560900211334228516e-01 6.047666072845458984e-01 2.282570004463195801e-01 -2.906410694122314453e-01
1.932000000000000000e+03 1.717515563964843750e+01 -1.155872726440429688e+01 -7.792402058839797974e-02 2.712909281253814697e-01 5.801007151603698730e-02 -9.401601739227771759e-03
1.933000000000000000e+03 5.537777709960937500e+01 -1.930972862243652344e+01 5.913448929786682129e-01 6.296459674835205078e+00 2.066341400146484375e+00 -8.538570404052734375e-01
1.934000000000000000e+03 5.650526428222656250e+01 -1.687349128723144531e+01 -1.707954257726669312e-01 4.120938777923583984e+00 1.185043096542358398e+00 8.564928174018859863e-02
1.935000000000000000e+03 5.080801773071289062e+01 -2.539699745178222656e+01 -2.796034812927246094e+00 1.095752641558647156e-01 -8.059378862380981445e-01 -1.406626552343368530e-01
1.936000000000000000e+03 9.136870384216308594e+00 -2.819927024841308594e+01 -1.341187506914138794e-01 -1.554067581892013550e-01 -8.685765415430068970e-02 -1.676278561353683472e-01
1.937000000000000000e+03 5.201043701171875000e+01 -2.546390914916992188e+01 -2.806446075439453125e+00 5.126674175262451172e-01 -6.881335973739624023e-01 3.485859334468841553e-01
1.938000000000000000e+03 5.341213607788085938e+01 -1.448731994628906250e+01 -1.001617431640625000e+00 1.795146226882934570e+00 2.380586713552474976e-01 -1.766824483871459961e+00
1.939000000000000000e+03 5.341855621337890625e+01 -1.647048377990722656e+01 -1.344296574592590332e+00 1.086624145507812500e+00 -7.730174809694290161e-02 -8.239802718162536621e-01
1.940000000000000000e+03 1.553353404998779297e+01 -2.635790252685546875e+01 1.125362589955329895e-01 -4.242752790451049805e-01 -9.352170675992965698e-02 -2.333988100290298462e-01
1.941000000000000000e+03 6.338303089141845703e-01 -2.615712165832519531e+01 -1.134450361132621765e-02 -4.607632756233215332e-01 -1.416323333978652954e-01 7.953487336635589600e-03
1.942000000000000000e+03 6.532768249511718750e+00 -2.314543533325195312e+01 2.542631030082702637e-01 6.162257120013237000e-02 9.476570039987564087e-02 -9.335207939147949219e-02
1.943000000000000000e+03 1.420905208587646484e+01 -2.375074005126953125e+01 3.107003169134259224e-03 -4.721048772335052490e-01 -1.406993716955184937e-01 -3.781171143054962158e-01
1.944000000000000000e+03 1.296586132049560547e+01 -2.318929100036621094e+01 -1.588971614837646484e-01 -3.207992017269134521e-01 -1.439089030027389526e-01 -3.260807096958160400e-01
1.945000000000000000e+03 1.994571685791015625e+00 -1.565548133850097656e+01 -3.605092689394950867e-02 -1.345167309045791626e-01 -5.117029696702957153e-02 -5.776537209749221802e-02
1.946000000000000000e+03 6.669629216194152832e-01 -1.612510108947753906e+01 1.793494913727045059e-03 -3.530909121036529541e-02 -1.005467865616083145e-02 -1.645284704864025116e-02
1.947000000000000000e+03 1.808409690856933594e+01 -1.865990638732910156e+01 -2.271805256605148315e-01 2.541250362992286682e-02 -6.053040549159049988e-02 -5.637068152427673340e-01
1.948000000000000000e+03 4.105587005615234375e+01 -2.117958641052246094e+01 3.533828854560852051e-01 1.411441922187805176e+00 5.294474363327026367e-01 6.496460437774658203e-01
1.949000000000000000e+03 4.689896392822265625e+01 -2.633615875244140625e+01 -6.318853497505187988e-01 2.097374439239501953e+00 4.396466910839080811e-01 -1.332641601562500000e+00
1.950000000000000000e+03 5.536339569091796875e+01 -2.198369598388671875e+01 1.029779911041259766e+00 9.358150482177734375e+00 3.116379261016845703e+00 1.593170881271362305e+00
1.951000000000000000e+03 5.678529739379882812e+01 -1.970042037963867188e+01 1.139566421508789062e+00 5.352591991424560547e+00 1.947647571563720703e+00 5.086293816566467285e-01
1.952000000000000000e+03 5.521070098876953125e+01 -2.771960449218750000e+01 -8.513741493225097656e-01 5.530528545379638672e+00 1.403746366500854492e+00 1.298201441764831543e+00
1.953000000000000000e+03 1.573612332344055176e+00 -4.001659774780273438e+01 9.585682302713394165e-03 -6.553211212158203125e-01 -1.937206238508224487e-01 -1.007369533181190491e-02
1.954000000000000000e+03 5.511307716369628906e-01 3.760583496093750000e+01 3.056221641600131989e-02 -1.177646994590759277e+00 -3.441254496574401855e-01 -2.259950712323188782e-02
1.955000000000000000e+03 2.060413837432861328e+00 3.683510208129882812e+01 4.674911871552467346e-02 -9.642176032066345215e-01 -2.752405405044555664e-01 -6.631679832935333252e-02
1.956000000000000000e+03 7.755951881408691406e-01 3.493260955810546875e+01 1.103415619581937790e-03 -1.179067611694335938e+00 -3.533892631530761719e-01 5.922909826040267944e-03
1.957000000000000000e+03 8.195001482963562012e-01 2.751276779174804688e+01 -1.735975965857505798e-02 -6.596055030822753906e-01 -2.030895799398422241e-01 5.678094178438186646e-02
1.958000000000000000e+03 6.800462007522583008e-01 2.606202125549316406e+01 -2.093927562236785889e-02 -5.749476552009582520e-01 -1.787660866975784302e-01 2.049919776618480682e-02
1.959000000000000000e+03 7.953178286552429199e-01 -3.589262390136718750e+01 5.094055086374282837e-03 -5.727280378341674805e-01 -1.702902019023895264e-01 -2.123297192156314850e-02
1.960000000000000000e+03 1.996774435043334961e+00 -3.276660537719726562e+01 -1.491103135049343109e-02 -4.485270380973815918e-01 -1.390314251184463501e-01 -4.985388740897178650e-02
1.961000000000000000e+03 5.505915284156799316e-01 2.329879570007324219e+01 -6.307560019195079803e-03 -5.753489136695861816e-01 -1.744969487190246582e-01 -1.234409864991903305e-02
1.962000000000000000e+03 2.341065406799316406e+00 2.692663955688476562e+01 -7.223952561616897583e-02 -6.591258645057678223e-01 -2.194096148014068604e-01 1.081793755292892456e-01
1.963000000000000000e+03 5.542104244232177734e+00 3.420426940917968750e+01 2.238511294126510620e-01 -4.047148227691650391e-01 -5.425910279154777527e-02 4.194276034832000732e-02
1.964000000000000000e+03 2.928971767425537109e+00 -2.867173767089843750e+01 -3.689242154359817505e-02 -3.282589316368103027e-01 -1.095454022288322449e-01 -5.137131549417972565e-03
1.965000000000000000e+03 5.437777042388916016e+00 -2.373751449584960938e+01 1.098313257098197937e-01 -8.206113427877426147e-02 8.331055752933025360e-03 -1.079086773097515106e-02
1.966000000000000000e+03 1.619324684143066406e+00 -1.030082988739013672e+01 -5.569696426391601562e-03 -5.173632502555847168e-02 -1.719180680811405182e-02 4.868741147220134735e-03
1.967000000000000000e+03 6.991860866546630859e-01 -2.323973655700683594e+01 3.276704344898462296e-03 -4.699955880641937256e-01 -1.400156617164611816e-01 -1.693186163902282715e-02
1.968000000000000000e+03 2.663163423538208008e+00 -3.653439712524414062e+01 1.244959328323602676e-02 -5.253667235374450684e-01 -1.538751274347305298e-01 -7.949741929769515991e-02
1.969000000000000000e+03 5.810528397560119629e-01 2.052082633972167969e+01 1.747705275192856789e-03 -6.472837924957275391e-01 -1.936608254909515381e-01 -9.513323195278644562e-03
1.970000000000000000e+03 6.501979827880859375e-01 1.909735107421875000e+01 1.047958247363567352e-02 -6.544737219810485840e-01 -1.931982487440109253e-01 3.702601185068488121e-03
1.971000000000000000e+03 6.895905733108520508e-01 1.477479743957519531e+01 4.493960179388523102e-03 -4.793125391006469727e-01 -1.424455791711807251e-01 5.666803568601608276e-02
1.972000000000000000e+03 6.331518888473510742e-01 1.336994171142578125e+01 -4.942958476021885872e-04 -3.532756865024566650e-01 -1.061309874057769775e-01 6.187360361218452454e-02
1.973000000000000000e+03 5.347380042076110840e-01 7.781949520111083984e+00 -6.430816370993852615e-03 9.459684789180755615e-02 2.644981071352958679e-02 1.670312322676181793e-02
1.974000000000000000e+03 5.210674405097961426e-01 6.380089759826660156e+00 -5.044993478804826736e-03 1.204556599259376526e-01 3.462320193648338318e-02 1.218594261445105076e-03
1.975000000000000000e+03 7.021006345748901367e-01 -1.751181793212890625e+01 -2.141812816262245178e-02 -1.086376458406448364e-01 -3.901673108339309692e-02 -4.453250393271446228e-02
1.976000000000000000e+03 5.553837299346923828e+00 -4.047104263305664062e+01 7.687105983495712280e-02 -4.749356210231781006e-01 -1.194193735718727112e-01 -7.598277181386947632e-02
1.977000000000000000e+03 4.252567768096923828e+00 -3.893718338012695312e+01 5.722587183117866516e-02 -5.295788049697875977e-01 -1.417058855295181274e-01 -9.413956105709075928e-02
1.978000000000000000e+03 3.457168579101562500e+00 -3.484135437011718750e+01 -5.820309161208570004e-04 -4.510961174964904785e-01 -1.355034410953521729e-01 -1.024828553199768066e-01
1.979000000000000000e+03 2.069169282913208008e+00 -3.409426879882812500e+01 3.333136191940866411e-06 -4.790922105312347412e-01 -1.437266618013381958e-01 -5.932435393333435059e-02
1.980000000000000000e+03 1.946879982948303223e+00 -3.141832160949707031e+01 -6.606894545257091522e-03 -4.190455079078674316e-01 -1.276957243680953979e-01 -3.492140397429466248e-02
1.981000000000000000e+03 1.875400304794311523e+00 -2.601438713073730469e+01 7.329624146223068237e-03 -3.827184140682220459e-01 -1.126166358590126038e-01 1.998084224760532379e-02
1.982000000000000000e+03 1.905469655990600586e+00 -2.453697776794433594e+01 1.427832804620265961e-02 -3.776994347572326660e-01 -1.090263351798057556e-01 7.596324197947978973e-03
1.983000000000000000e+03 2.133862257003784180e+00 -2.137078094482421875e+01 5.891299247741699219e-02 -3.349431157112121582e-01 -8.280903846025466919e-02 -1.027510166168212891e-01
1.984000000000000000e+03 7.108278870582580566e-01 -1.891398429870605469e+01 -2.135034650564193726e-03 -2.176676690578460693e-01 -6.594081223011016846e-02 -6.087257713079452515e-02
1.985000000000000000e+03 6.232934951782226562e+00 -9.394543647766113281e+00 1.577878743410110474e-02 -1.655643880367279053e-01 -4.493568092584609985e-02 -6.135118380188941956e-02
1.986000000000000000e+03 5.654039978981018066e-01 -1.195302391052246094e+01 -6.244034506380558014e-03 9.204518282786011696e-04 -1.597074791789054871e-03 3.911947831511497498e-03
1.987000000000000000e+03 3.125586271286010742e+00 -1.386512851715087891e+01 -4.564020410180091858e-02 -1.766816228628158569e-01 -6.669654697179794312e-02 -3.298364579677581787e-02
1.988000000000000000e+03 2.592667579650878906e+00 -7.543595314025878906e+00 1.339431572705507278e-02 -5.586117878556251526e-02 -1.274005882441997528e-02 -6.590255536139011383e-03
1.989000000000000000e+03 3.907572746276855469e+00 -2.673665523529052734e+00 -1.923026330769062042e-02 5.790316965430974960e-03 -4.031983669847249985e-03 -1.487666368484497070e-02
1.990000000000000000e+03 1.495310902595520020e+00 -3.347467660903930664e+00 2.401226083748042583e-04 -3.010639455169439316e-03 -8.311550482176244259e-04 -5.311484448611736298e-03
1.991000000000000000e+03 5.154616832733154297e-01 4.937493324279785156e+00 -3.291596192866563797e-03 1.090211719274520874e-01 3.171887248754501343e-02 -1.056836079806089401e-02
1.992000000000000000e+03 3.428859949111938477e+00 4.593230724334716797e+00 -5.038324743509292603e-02 4.859461914747953415e-03 -1.365713588893413544e-02 -2.971600182354450226e-02
1.993000000000000000e+03 1.672553539276123047e+00 1.034734249114990234e+01 -2.600156888365745544e-02 -9.920284897089004517e-02 -3.756132721900939941e-02 1.256953030824661255e-01
1.994000000000000000e+03 5.563588142395019531e-01 1.057050037384033203e+01 -6.489810999482870102e-03 -7.538684457540512085e-02 -2.456299588084220886e-02 4.711895063519477844e-02
1.995000000000000000e+03 1.899900078773498535e+00 1.304630279541015625e+01 6.256747990846633911e-03 -2.960988283157348633e-01 -8.695261925458908081e-02 1.730622798204421997e-01
1.996000000000000000e+03 1.716033339500427246e+00 2.044803047180175781e+01 1.394757628440856934e-02 -5.903769731521606445e-01 -1.729288101196289062e-01 -2.169357053935527802e-02
1.997000000000000000e+03 1.907489180564880371e+00 1.903460121154785156e+01 3.391381353139877319e-02 -5.760440230369567871e-01 -1.626390665769577026e-01 8.142760954797267914e-03
1.998000000000000000e+03 1.806217074394226074e+00 2.430407714843750000e+01 -2.232439815998077393e-02 -6.015756130218505859e-01 -1.871700137853622437e-01 -8.663371205329895020e-03
1.999000000000000000e+03 4.396735000610351562e+01 -1.987379074096679688e+01 1.216378927230834961e+00 2.377777576446533203e+00 1.078246951103210449e+00 7.724364399909973145e-01
2.000000000000000000e+03 5.656012725830078125e+01 -2.084037017822265625e+01 1.432979106903076172e+00 6.186173915863037109e+00 2.285745859146118164e+00 9.367083907127380371e-01
2.001000000000000000e+03 4.700079345703125000e+01 -2.425113487243652344e+01 -5.688561797142028809e-01 2.973152160644531250e+00 7.212888002395629883e-01 -7.475577592849731445e-01
2.002000000000000000e+03 3.420767211914062500e+01 1.345056629180908203e+01 7.205116748809814453e-02 -9.191518649458885193e-03 1.885789446532726288e-02 1.245752051472663879e-01
2.003000000000000000e+03 3.427844619750976562e+01 1.236058139801025391e+01 -2.669358253479003906e-01 6.881966441869735718e-02 -5.943484976887702942e-02 4.903108347207307816e-03
2.004000000000000000e+03 3.314833450317382812e+01 1.361311435699462891e+01 6.785905361175537109e-02 3.727151155471801758e-01 1.321722567081451416e-01 2.537243962287902832e-01
2.005000000000000000e+03 4.065690231323242188e+01 7.665112972259521484e+00 -1.202228590846061707e-01 -4.280945658683776855e-01 -1.644952297210693359e-01 4.378732740879058838e-01
2.006000000000000000e+03 3.874902343750000000e+01 1.168919754028320312e+01 4.022545218467712402e-01 -6.191837191581726074e-01 -6.507875025272369385e-02 -1.856113672256469727e-01
2.007000000000000000e+03 3.832729339599609375e+01 1.288581848144531250e+01 4.628374576568603516e-01 -4.429796636104583740e-01 5.957337096333503723e-03 -2.835964560508728027e-01
2.008000000000000000e+03 3.694474411010742188e+01 1.245121097564697266e+01 2.516768872737884521e-02 -3.652657866477966309e-01 -1.020294278860092163e-01 4.764085263013839722e-02
2.009000000000000000e+03 5.972769546508789062e+01 5.666638612747192383e-01 1.981999397277832031e+00 6.638770103454589844e+00 2.586230754852294922e+00 -2.948602676391601562e+00
2.010000000000000000e+03 5.770457077026367188e+01 1.860825419425964355e+00 2.224087476730346680e+00 3.979386568069458008e+00 1.861042261123657227e+00 -1.436239838600158691e+00
2.011000000000000000e+03 4.081553268432617188e+01 1.806482505798339844e+01 9.296719729900360107e-02 6.983149647712707520e-01 2.373846471309661865e-01 -4.689747095108032227e-01
2.012000000000000000e+03 2.361179733276367188e+01 1.581669139862060547e+01 -1.530465781688690186e-01 1.037864610552787781e-01 -1.477803476154804230e-02 3.554306551814079285e-02
2.013000000000000000e+03 6.027568817138671875e+01 1.647716712951660156e+01 2.060215950012207031e+00 9.844209671020507812e+00 3.571327686309814453e+00 2.358980894088745117e+00
2.014000000000000000e+03 6.629229736328125000e+01 2.651210594177246094e+01 2.162700653076171875e+00 4.562705516815185547e+00 2.017621755599975586e+00 8.897904157638549805e-01
2.015000000000000000e+03 6.772158813476562500e+01 2.071782875061035156e+01 -3.946321487426757812e+00 1.077423468232154846e-01 -1.151573657989501953e+00 4.762974753975868225e-02
2.016000000000000000e+03 5.214553070068359375e+01 -2.380314111709594727e+00 3.007738113403320312e+00 1.196450042724609375e+01 4.491671562194824219e+00 3.804801225662231445e+00
2.017000000000000000e+03 5.266134643554687500e+01 -1.922501087188720703e+00 5.780541896820068359e-01 1.631423950195312500e+01 5.067688465118408203e+00 6.203927516937255859e+00
2.018000000000000000e+03 5.091778564453125000e+01 -1.972151637077331543e+00 1.001563429832458496e+00 2.800316333770751953e+00 1.140563964843750000e+00 9.445853233337402344e-01
2.019000000000000000e+03 5.077903747558593750e+01 -2.382777214050292969e+00 2.022361516952514648e+00 2.756823778152465820e+00 1.433755517005920410e+00 1.487566590309143066e+00
2.020000000000000000e+03 5.257619857788085938e+01 2.321959257125854492e+00 8.347720503807067871e-01 6.611833095550537109e+00 2.233981609344482422e+00 -2.541435718536376953e+00
2.021000000000000000e+03 5.127877044677734375e+01 1.434615492820739746e+00 2.207114219665527344e+00 4.981645941734313965e-01 8.115836381912231445e-01 -1.635732173919677734e+00
2.022000000000000000e+03 5.089001846313476562e+01 2.199200391769409180e+00 1.765663504600524902e+00 6.139355897903442383e-01 7.138797044754028320e-01 -2.013509750366210938e+00
2.023000000000000000e+03 5.021244049072265625e+01 1.957677364349365234e+00 1.280609369277954102e+00 6.947968155145645142e-02 4.050267338752746582e-01 -1.571004390716552734e+00
2.024000000000000000e+03 1.034043407440185547e+01 3.719728469848632812e+00 -1.907150745391845703e-01 -1.259895563125610352e-01 -9.501139074563980103e-02 1.060885041952133179e-01
2.025000000000000000e+03 3.955474090576171875e+01 -1.583805084228515625e+00 -5.336698293685913086e-01 1.599887013435363770e-01 -1.121043339371681213e-01 5.287544429302215576e-02
2.026000000000000000e+03 5.193659210205078125e+01 2.203393220901489258e+00 1.875582933425903320e+00 3.138216495513916016e+00 1.504139780998229980e+00 -2.680474042892456055e+00
2.027000000000000000e+03 4.986203002929687500e+01 2.499783039093017578e+00 8.934613466262817383e-01 2.744671404361724854e-01 3.503785431385040283e-01 -1.982862114906311035e+00
2.028000000000000000e+03 4.879404449462890625e+01 -6.626679897308349609e+00 5.039712190628051758e-01 2.716774940490722656e+00 9.662238359451293945e-01 2.231976270675659180e+00
2.029000000000000000e+03 5.153190612792968750e+01 -4.952963352203369141e+00 3.133811473846435547e+00 1.041575431823730469e+01 4.064869880676269531e+00 3.029394149780273438e+00
2.030000000000000000e+03 4.797605514526367188e+01 -3.572235584259033203e+00 1.293259024620056152e+00 -7.341074347496032715e-01 1.677454710006713867e-01 -4.509572088718414307e-01
2.031000000000000000e+03 5.132109069824218750e+01 -2.895263195037841797e+00 3.235788583755493164e+00 6.801668643951416016e+00 3.011237144470214844e+00 2.641312122344970703e+00
2.032000000000000000e+03 3.753672790527343750e+01 -1.537820100784301758e+00 -5.503169894218444824e-01 2.415703684091567993e-01 -9.262398630380630493e-02 -1.003025397658348083e-01
2.033000000000000000e+03 3.911769104003906250e+01 -2.581803083419799805e+00 -3.052119314670562744e-01 2.863689363002777100e-01 -5.652900319546461105e-03 1.628374308347702026e-02
2.034000000000000000e+03 9.659314155578613281e+00 5.731431007385253906e+00 -3.673733770847320557e-01 -2.315676361322402954e-01 -1.796822994947433472e-01 1.540934443473815918e-01
2.035000000000000000e+03 1.197406005859375000e+01 4.246792793273925781e+00 -3.090833425521850586e-01 -2.114116102457046509e-01 -1.561484783887863159e-01 2.703319787979125977e-01
2.036000000000000000e+03 1.355084609985351562e+01 -1.885604262351989746e+00 -1.333061903715133667e-01 -1.679146736860275269e-01 -9.036625921726226807e-02 -1.855500638484954834e-01
2.037000000000000000e+03 1.490930175781250000e+01 -2.773202657699584961e+00 -5.190702527761459351e-02 6.372134387493133545e-02 3.544296370819211006e-03 -1.036660280078649521e-02
2.038000000000000000e+03 5.398462295532226562e+00 -3.464426994323730469e+00 -2.773240394890308380e-02 -6.622201204299926758e-02 -2.818632312119007111e-02 -5.405450612306594849e-02
2.039000000000000000e+03 6.422772884368896484e+00 -4.050390720367431641e+00 -1.631356216967105865e-02 -8.967656642198562622e-02 -3.179703652858734131e-02 -7.390633225440979004e-02
2.040000000000000000e+03 5.341611862182617188e+00 -2.694027185440063477e+00 -2.764904126524925232e-02 7.216056343168020248e-03 -6.129895802587270737e-03 -3.590720891952514648e-02
2.041000000000000000e+03 7.642926216125488281e+00 -3.232034444808959961e+00 -3.663813695311546326e-02 -4.464350640773773193e-03 -1.233074627816677094e-02 -8.125024288892745972e-02
2.042000000000000000e+03 1.076998901367187500e+01 -3.067211866378784180e+00 -5.115918442606925964e-02 -9.263338288292288780e-04 -1.562565565109252930e-02 -8.942662179470062256e-02
2.043000000000000000e+03 7.002148151397705078e+00 -3.902528524398803711e+00 -1.972482912242412567e-02 -2.395797893404960632e-02 -1.310484204441308975e-02 -8.568524569272994995e-02
2.044000000000000000e+03 6.138535499572753906e+00 -2.636757373809814453e+00 -4.288712143898010254e-02 -6.700691580772399902e-02 -3.296821191906929016e-02 -6.664264947175979614e-02
2.045000000000000000e+03 5.288182258605957031e+00 -4.135989665985107422e+00 5.076446104794740677e-03 -6.479536741971969604e-02 -1.791567541658878326e-02 -5.259629338979721069e-02
2.046000000000000000e+03 6.930868625640869141e+00 -3.267234325408935547e+00 -3.971052542328834534e-02 -8.740250021219253540e-02 -3.813390806317329407e-02 -8.716229349374771118e-02
2.047000000000000000e+03 6.188979625701904297e+00 -3.385230064392089844e+00 -2.536735497415065765e-02 -7.752532837912440300e-04 -7.842782884836196899e-03 -5.615492165088653564e-02
2.048000000000000000e+03 2.261488914489746094e+00 -2.763278007507324219e+00 -4.403105936944484711e-03 -1.748136803507804871e-02 -6.565341725945472717e-03 -4.892685916274785995e-03
2.049000000000000000e+03 3.657210111618041992e+00 -8.683367729187011719e+00 2.082541957497596741e-02 -9.167821705341339111e-02 -2.125583775341510773e-02 -1.110923755913972855e-02
2.050000000000000000e+03 1.594110250473022461e+00 -6.252039432525634766e+00 7.675048429518938065e-03 -3.014264628291130066e-02 -6.740279030054807663e-03 -3.973513375967741013e-03
2.051000000000000000e+03 1.213337326049804688e+01 -2.069341897964477539e+00 -1.443804651498794556e-01 -1.611891537904739380e-01 -9.167088568210601807e-02 -1.744037419557571411e-01
2.052000000000000000e+03 1.281107997894287109e+01 3.381359338760375977e+00 -2.778535187244415283e-01 -1.346291601657867432e-01 -1.237448081374168396e-01 3.049715161323547363e-01
2.053000000000000000e+03 6.376685142517089844e+00 3.488261938095092773e+00 -6.372867524623870850e-02 -2.841412462294101715e-02 -2.764284051954746246e-02 -2.982593886554241180e-02
2.054000000000000000e+03 7.149104118347167969e+00 3.450547933578491211e+00 -7.246174663305282593e-02 -4.743170365691184998e-02 -3.596803545951843262e-02 -2.028259262442588806e-02
2.055000000000000000e+03 8.614876747131347656e+00 2.609911441802978516e+00 -2.251277677714824677e-02 -4.652210325002670288e-02 -2.071046456694602966e-02 6.212397012859582901e-03
2.056000000000000000e+03 9.229065895080566406e+00 3.290646553039550781e+00 -1.051615476608276367e-01 -8.186376839876174927e-02 -5.610759556293487549e-02 3.925056383013725281e-02
2.057000000000000000e+03 4.078428268432617188e+00 3.593431234359741211e+00 -2.911901846528053284e-02 -3.007651073858141899e-03 -9.638001210987567902e-03 -4.643039777874946594e-02
2.058000000000000000e+03 3.342854022979736328e+00 2.824864387512207031e+00 4.938122350722551346e-03 8.212400600314140320e-03 3.945156931877136230e-03 -5.556570366024971008e-02
2.059000000000000000e+03 4.097079277038574219e+00 2.771646261215209961e+00 3.103517927229404449e-03 1.579980598762631416e-03 1.405049581080675125e-03 -5.572172254323959351e-02
2.060000000000000000e+03 4.858102798461914062e+00 2.735493183135986328e+00 1.961382804438471794e-03 -7.549590896815061569e-03 -1.676462357863783836e-03 -5.372373014688491821e-02
2.061000000000000000e+03 5.597342967987060547e+00 3.505316019058227539e+00 -4.896084591746330261e-02 -2.177309244871139526e-02 -2.122018113732337952e-02 -4.094511643052101135e-02
2.062000000000000000e+03 4.485419094562530518e-01 3.512048721313476562e+00 1.490744645707309246e-03 7.587688416242599487e-02 2.321028895676136017e-02 -1.411706954240798950e-02
2.063000000000000000e+03 6.200573921203613281e+00 5.032626152038574219e+00 -1.580515205860137939e-01 -4.878831654787063599e-02 -6.205194815993309021e-02 5.941801238805055618e-03
2.064000000000000000e+03 1.503011989593505859e+01 -4.889198780059814453e+00 6.483421474695205688e-02 1.757426410913467407e-01 7.217305898666381836e-02 -5.254262685775756836e-02
2.065000000000000000e+03 3.820268630981445312e+01 -2.936733961105346680e+00 -3.633102178573608398e-01 3.956239819526672363e-01 9.694127365946769714e-03 3.755116462707519531e-02
2.066000000000000000e+03 3.376308059692382812e+01 -3.345263481140136719e+00 -3.502213358879089355e-01 -1.969421654939651489e-01 -1.641490608453750610e-01 -1.955724507570266724e-01
2.067000000000000000e+03 3.774990463256835938e+01 -3.505672693252563477e+00 -2.473199516534805298e-01 3.693706095218658447e-01 3.661520034074783325e-02 9.732379578053951263e-03
2.068000000000000000e+03 3.561327362060546875e+01 -4.054831981658935547e+00 -2.076558470726013184e-01 3.092693388462066650e-01 3.048405051231384277e-02 -2.067587226629257202e-01
2.069000000000000000e+03 1.523198795318603516e+01 3.979167699813842773e+00 -5.310686826705932617e-01 4.052835702896118164e-02 -1.471621096134185791e-01 5.190011858940124512e-01
2.070000000000000000e+03 1.517741489410400391e+01 4.881185054779052734e+00 -4.455566406250000000e-01 1.504364330321550369e-02 -1.291538923978805542e-01 5.888052582740783691e-01
2.071000000000000000e+03 1.308011817932128906e+01 6.038130760192871094e+00 -5.769513845443725586e-01 -4.161272048950195312e-01 -2.979235649108886719e-01 4.369832277297973633e-01
2.072000000000000000e+03 2.790080261230468750e+01 2.022301912307739258e+00 -1.035917520523071289e+00 2.369605153799057007e-01 -2.396871000528335571e-01 1.606703698635101318e-01
2.073000000000000000e+03 2.135299301147460938e+01 4.232615947723388672e+00 -5.927456021308898926e-01 -1.382824927568435669e-01 -2.193084359169006348e-01 1.926747709512710571e-01
2.074000000000000000e+03 2.194389152526855469e+01 3.403934717178344727e+00 -8.383365869522094727e-01 -1.268681883811950684e-01 -2.895614206790924072e-01 2.375546395778656006e-01
2.075000000000000000e+03 2.079855728149414062e+01 6.421578407287597656e+00 1.172497645020484924e-01 -7.972370833158493042e-02 1.125781796872615814e-02 1.419707983732223511e-01
2.076000000000000000e+03 2.571691322326660156e+01 2.436856746673583984e+00 -9.381760954856872559e-01 1.572419889271259308e-03 -2.809810936450958252e-01 2.823727130889892578e-01
2.077000000000000000e+03 2.347001457214355469e+01 3.103661060333251953e+00 -8.365451097488403320e-01 -1.095154657959938049e-01 -2.838181853294372559e-01 2.813938260078430176e-01
2.078000000000000000e+03 2.867170715332031250e+01 2.969005584716796875e+00 -8.201409578323364258e-01 3.696337044239044189e-01 -1.351521611213684082e-01 1.468159407377243042e-01
2.079000000000000000e+03 2.420665931701660156e+01 6.098277568817138672e+00 3.894986212253570557e-02 -1.338057518005371094e-01 -2.845676615834236145e-02 1.718800812959671021e-01
2.080000000000000000e+03 2.718680000305175781e+01 2.813223123550415039e+00 -7.930995225906372070e-01 2.209107279777526855e-01 -1.716566383838653564e-01 2.223468571901321411e-01
2.081000000000000000e+03 2.763875770568847656e+01 3.886668443679809570e+00 -4.606573283672332764e-01 3.308200538158416748e-01 -3.895118087530136108e-02 1.861575692892074585e-01
2.082000000000000000e+03 2.857715988159179688e+01 4.072837829589843750e+00 -3.488578498363494873e-01 4.253453314304351807e-01 2.294624410569667816e-02 1.203824132680892944e-01
2.083000000000000000e+03 2.072906494140625000e+01 4.530737876892089844e+00 -4.834861457347869873e-01 -1.237683668732643127e-01 -1.821763515472412109e-01 1.832182854413986206e-01
2.084000000000000000e+03 2.524619483947753906e+01 3.506828308105468750e+00 -6.388597488403320312e-01 -1.023794338107109070e-02 -1.947292983531951904e-01 2.510026395320892334e-01
2.085000000000000000e+03 2.445267105102539062e+01 3.782376527786254883e+00 -5.637362599372863770e-01 -7.851222902536392212e-02 -1.926745474338531494e-01 2.589838504791259766e-01
2.086000000000000000e+03 2.023691177368164062e+01 5.201248168945312500e+00 -2.723751664161682129e-01 -6.697510927915573120e-02 -1.018050834536552429e-01 1.858431547880172729e-01
2.087000000000000000e+03 1.936163139343261719e+01 4.761931419372558594e+00 -4.294704198837280273e-01 -3.660655766725540161e-02 -1.398230940103530884e-01 2.516497671604156494e-01
2.088000000000000000e+03 1.141041278839111328e+01 -2.213809728622436523e+00 -1.241125985980033875e-01 4.196247458457946777e-02 -2.464503794908523560e-02 -8.426358550786972046e-02
2.089000000000000000e+03 1.412859821319580078e+01 -2.663043022155761719e+00 -7.478793710470199585e-02 -6.757386028766632080e-02 -4.270853847265243530e-02 -1.760638058185577393e-01
2.090000000000000000e+03 1.284950828552246094e+01 -2.612830400466918945e+00 -9.785088151693344116e-02 -1.594622582197189331e-01 -7.719394564628601074e-02 -1.778658032417297363e-01
2.091000000000000000e+03 1.418265247344970703e+01 -4.485614299774169922e+00 1.969341188669204712e-02 -1.775777153670787811e-02 5.806920817121863365e-04 -6.380258500576019287e-02
2.092000000000000000e+03 3.310596084594726562e+01 -4.458532333374023438e+00 -1.423857063055038452e-01 -2.530369460582733154e-01 -1.186267957091331482e-01 -2.182660102844238281e-01
2.093000000000000000e+03 1.835093116760253906e+01 6.509945869445800781e+00 1.389241516590118408e-01 2.597469687461853027e-01 1.196013316512107849e-01 2.983030378818511963e-01
2.094000000000000000e+03 1.621543121337890625e+01 4.999615192413330078e+00 -4.782997071743011475e-01 1.133295968174934387e-01 -1.094910353422164917e-01 5.631092786788940430e-01
2.095000000000000000e+03 4.777306365966796875e+01 1.950583577156066895e+00 -4.481599032878875732e-01 4.130429029464721680e-01 -1.053510326892137527e-02 -8.059211969375610352e-01
2.096000000000000000e+03 4.782925415039062500e+01 2.918618440628051758e+00 -2.346902042627334595e-01 7.366147041320800781e-01 1.505773514509201050e-01 -1.290157437324523926e+00
2.097000000000000000e+03 4.616933059692382812e+01 -3.645720481872558594e+00 2.396887093782424927e-01 -1.043437004089355469e+00 -2.411245107650756836e-01 -2.479356527328491211e-01
2.098000000000000000e+03 3.210718536376953125e+01 -6.724028110504150391e+00 1.410810649394989014e-01 -3.447868227958679199e-01 -6.111172959208488464e-02 -3.028715848922729492e-01
2.099000000000000000e+03 3.396414184570312500e+01 -4.200974464416503906e+00 -1.536432802677154541e-01 -4.999142512679100037e-02 -6.109041348099708557e-02 -2.770885229110717773e-01
2.100000000000000000e+03 9.925214767456054688e+00 -3.157012701034545898e+00 -8.660042285919189453e-02 -1.074116453528404236e-01 -5.820361897349357605e-02 -1.507558971643447876e-01
2.101000000000000000e+03 4.208880233764648438e+01 4.502029895782470703e+00 -3.911039233207702637e-01 -1.902411133050918579e-01 -1.744035184383392334e-01 1.467770636081695557e-01
2.102000000000000000e+03 4.194886779785156250e+01 3.427034378051757812e+00 -1.105578780174255371e+00 -1.243519708514213562e-01 -3.689792156219482422e-01 2.889645658433437347e-02
2.103000000000000000e+03 4.286665725708007812e+01 6.302398681640625000e+00 -1.998549886047840118e-02 7.289212346076965332e-01 2.126807123422622681e-01 1.381204724311828613e-01
2.104000000000000000e+03 3.983699417114257812e+01 4.629973888397216797e+00 1.469649970531463623e-01 -9.623916149139404297e-01 -2.446279823780059814e-01 3.694760501384735107e-01
2.105000000000000000e+03 4.459613418579101562e+01 2.434753417968750000e+00 -1.115323066711425781e+00 5.378259420394897461e-01 -1.732491403818130493e-01 -5.655717477202415466e-02
2.106000000000000000e+03 4.528567123413085938e+01 4.993369102478027344e+00 -2.793954014778137207e-01 1.496202945709228516e+00 3.650422692298889160e-01 -5.448660850524902344e-01
2.107000000000000000e+03 4.981261444091796875e+01 3.327070951461791992e+00 5.734065771102905273e-01 6.107698082923889160e-01 3.552528917789459229e-01 -2.358021736145019531e+00
2.108000000000000000e+03 4.856563568115234375e+01 1.943938493728637695e+00 -2.111602388322353363e-02 2.539210915565490723e-01 6.984151899814605713e-02 -1.071984052658081055e+00
2.109000000000000000e+03 3.052425956726074219e+01 1.663529157638549805e+00 -1.315679907798767090e+00 4.683772027492523193e-01 -2.541908025741577148e-01 -5.323716253042221069e-02
2.110000000000000000e+03 3.974603271484375000e+01 -2.868209075927734375e+01 6.155733019113540649e-02 3.163091659545898438e+00 9.673947095870971680e-01 8.894129395484924316e-01
2.111000000000000000e+03 4.437945938110351562e+01 1.834656333923339844e+01 -8.511061668395996094e-01 1.542600274085998535e+00 2.074482291936874390e-01 6.918686907738447189e-03
2.112000000000000000e+03 5.869654464721679688e+01 2.296266317367553711e+00 1.300100922584533691e+00 5.827087402343750000e+00 2.138156652450561523e+00 -1.829439520835876465e+00
2.113000000000000000e+03 3.213003540039062500e+01 -1.417132663726806641e+01 -6.912223100662231445e-01 2.976736724376678467e-01 -1.180645823478698730e-01 2.994754612445831299e-01
2.114000000000000000e+03 3.370186233520507812e+01 -1.182153892517089844e+01 -4.124421477317810059e-01 1.322801858186721802e-01 -8.404859155416488647e-02 2.203827053308486938e-01
2.115000000000000000e+03 3.246837997436523438e+01 2.687069702148437500e+01 2.238126546144485474e-01 9.898247718811035156e-01 3.640912175178527832e-01 -1.357933133840560913e-01
2.116000000000000000e+03 4.578300476074218750e+01 7.264615058898925781e+00 8.795228004455566406e-01 2.832083940505981445e+00 1.113481998443603516e+00 -1.463394403457641602e+00
2.117000000000000000e+03 4.479636764526367188e+01 8.015502929687500000e+00 7.790014743804931641e-01 2.693619966506958008e+00 1.041786432266235352e+00 -7.483522295951843262e-01
2.118000000000000000e+03 1.663526153564453125e+01 -2.423447799682617188e+01 7.019311934709548950e-02 -2.735017240047454834e-01 -6.099257618188858032e-02 -2.985240817070007324e-01
2.119000000000000000e+03 1.121332645416259766e+01 -2.576405715942382812e+01 -1.207131985574960709e-02 -2.382442951202392578e-01 -7.509468495845794678e-02 -2.522610723972320557e-01
2.120000000000000000e+03 1.194014263153076172e+01 -3.204434204101562500e+01 -1.592416763305664062e-01 -3.504499793052673340e-01 -1.529074907302856445e-01 -2.139739692211151123e-01
2.121000000000000000e+03 5.297935867309570312e+01 -2.555052280426025391e+00 4.625415325164794922e+00 2.128021621704101562e+01 7.771689414978027344e+00 7.210911750793457031e+00
2.122000000000000000e+03 4.874542999267578125e+01 3.601392269134521484e+00 4.737580940127372742e-02 8.822036981582641602e-01 2.788738608360290527e-01 -1.967317938804626465e+00
2.123000000000000000e+03 4.734170913696289062e+01 2.758689308166503906e+01 8.437002301216125488e-01 3.474567174911499023e+00 1.295480251312255859e+00 -4.807543158531188965e-01
2.124000000000000000e+03 5.118714904785156250e+01 2.998505973815917969e+01 1.182535767555236816e+00 4.885781288146972656e+00 1.820495128631591797e+00 -9.945950508117675781e-01
2.125000000000000000e+03 3.965399169921875000e+01 1.936231613159179688e+01 9.813924878835678101e-02 3.716510534286499023e-01 1.409370899200439453e-01 -4.025728404521942139e-01
2.126000000000000000e+03 3.055516815185546875e+01 1.346967792510986328e+01 8.124335110187530518e-02 7.375364899635314941e-01 2.456339597702026367e-01 4.787224829196929932e-01
2.127000000000000000e+03 5.223389434814453125e+01 2.855079841613769531e+01 1.271446228027343750e+00 5.877761840820312500e+00 2.144762516021728516e+00 -1.062898874282836914e+00
2.128000000000000000e+03 5.220403289794921875e+01 3.054589080810546875e+01 7.987951040267944336e-01 5.704689025878906250e+00 1.951045274734497070e+00 -1.630843728780746460e-01
2.129000000000000000e+03 4.114990615844726562e+01 -2.252045822143554688e+01 5.343735814094543457e-01 1.932214975357055664e+00 7.399765849113464355e-01 1.240103721618652344e+00
2.130000000000000000e+03 4.101180267333984375e+01 -2.365399932861328125e+01 7.453869581222534180e-01 1.816680788993835449e+00 7.686203122138977051e-01 1.474706053733825684e+00
2.131000000000000000e+03 2.997328376770019531e+01 -4.341939449310302734e+00 3.241218253970146179e-02 -5.390261411666870117e-01 -1.519841849803924561e-01 -2.306570261716842651e-01
2.132000000000000000e+03 2.977653121948242188e+01 -2.892632293701171875e+01 2.744368612766265869e-01 3.732713758945465088e-01 1.943124681711196899e-01 -2.932972609996795654e-01
2.133000000000000000e+03 3.925218582153320312e+01 -1.495111274719238281e+01 -7.201490998268127441e-01 4.269375801086425781e-01 -8.796344697475433350e-02 -2.973527908325195312e-01
2.134000000000000000e+03 3.339012145996093750e+01 1.823711395263671875e+01 3.364996314048767090e-01 7.627236843109130859e-01 3.297669887542724609e-01 1.517473459243774414e-01
2.135000000000000000e+03 6.810222625732421875e+01 4.858456134796142578e+00 4.814684092998504639e-01 1.632475256919860840e+00 6.341831088066101074e-01 2.318302869796752930e+00
2.136000000000000000e+03 6.737106323242187500e+01 5.215105414390563965e-01 1.564861416816711426e+00 2.515517950057983398e+00 1.224113821983337402e+00 1.962116003036499023e+00
2.137000000000000000e+03 4.457906341552734375e+01 -2.657143020629882812e+01 -2.227776646614074707e-01 6.731370687484741211e-01 1.351078152656555176e-01 -3.839571774005889893e-01
2.138000000000000000e+03 4.136800765991210938e+01 -2.661468315124511719e+01 1.498575359582901001e-01 2.030913114547729492e+00 6.542311906814575195e-01 1.131896853446960449e+00
2.139000000000000000e+03 4.086897277832031250e+01 6.104376316070556641e+00 -3.151093423366546631e-02 -6.368695497512817383e-01 -2.005141377449035645e-01 5.924039483070373535e-01
2.140000000000000000e+03 3.493378829956054688e+01 -1.426193714141845703e+01 -7.930508852005004883e-01 1.472152862697839737e-02 -2.334987968206405640e-01 1.179534122347831726e-01
2.141000000000000000e+03 7.173151397705078125e+01 2.288194149732589722e-01 7.483055591583251953e-01 1.784896254539489746e+00 7.599605321884155273e-01 -4.301504790782928467e-01
2.142000000000000000e+03 7.063864135742187500e+01 4.674469947814941406e+00 3.423612564802169800e-02 4.179525375366210938e+00 1.264128327369689941e+00 1.767207264900207520e+00
2.143000000000000000e+03 6.491195678710937500e+01 3.085918235778808594e+01 6.953495144844055176e-01 5.720673084259033203e+00 1.924806833267211914e+00 2.745194137096405029e-01
2.144000000000000000e+03 9.101606369018554688e+00 -4.554157257080078125e+00 1.770944707095623016e-02 -6.921505182981491089e-02 -1.545168180018663406e-02 -1.007785350084304810e-01
2.145000000000000000e+03 1.095142459869384766e+01 -1.123665428161621094e+01 -5.216922238469123840e-02 2.112502790987491608e-02 -9.313258342444896698e-03 -1.400114595890045166e-01
2.146000000000000000e+03 2.768652343750000000e+01 6.773543357849121094e+00 2.460599839687347412e-01 4.572619497776031494e-01 2.109965831041336060e-01 1.277673393487930298e-01
2.147000000000000000e+03 2.559237670898437500e+01 4.342807292938232422e+00 -3.320817053318023682e-01 3.005476668477058411e-02 -9.060808271169662476e-02 2.474720329046249390e-01
2.148000000000000000e+03 1.792155075073242188e+01 -1.278991985321044922e+01 -8.617109805345535278e-02 1.681366413831710815e-01 2.458966150879859924e-02 -5.746323731727898121e-04
2.149000000000000000e+03 6.173944091796875000e+01 6.838361740112304688e+00 -1.206131577491760254e+00 5.526941299438476562e+00 1.296242833137512207e+00 -1.707665681838989258e+00
2.150000000000000000e+03 5.232946777343750000e+01 2.617265129089355469e+01 1.543783307075500488e+00 5.533057689666748047e+00 2.123052358627319336e+00 -1.013106346130371094e+00
2.151000000000000000e+03 4.943234634399414062e+01 2.391438102722167969e+01 3.192034661769866943e-01 3.128130197525024414e+00 1.034200072288513184e+00 -5.323098897933959961e-01
2.152000000000000000e+03 3.251760482788085938e+01 2.972836494445800781e+01 3.145053088665008545e-01 9.391642808914184570e-01 3.761008679866790771e-01 -2.080537825822830200e-01
2.153000000000000000e+03 6.273171997070312500e+01 -5.667757987976074219e+00 1.598444819450378418e+00 1.178616619110107422e+01 4.015383243560791016e+00 -1.026882767677307129e+00
2.154000000000000000e+03 1.085633754730224609e+01 7.443728446960449219e+00 -6.217437386512756348e-01 -4.624048173427581787e-01 -3.252445757389068604e-01 4.285469651222229004e-01
2.155000000000000000e+03 5.564464187622070312e+01 3.567968606948852539e+00 1.215929910540580750e-02 6.287461280822753906e+00 1.889886140823364258e+00 1.484436392784118652e+00
2.156000000000000000e+03 6.630987548828125000e+01 -1.346100711822509766e+01 -1.302770376205444336e+00 4.647700786590576172e+00 1.003479123115539551e+00 -3.462929129600524902e-01
2.157000000000000000e+03 6.037815856933593750e+01 1.078386688232421875e+01 1.538308978080749512e+00 9.436269760131835938e+00 3.292373657226562500e+00 -1.354216456413269043e+00
2.158000000000000000e+03 5.630779266357421875e+01 1.395753860473632812e+01 2.280320882797241211e+00 7.676429748535156250e+00 2.987025260925292969e+00 -5.923433899879455566e-01
2.159000000000000000e+03 4.764311981201171875e+01 -2.737197494506835938e+01 -4.326727390289306641e-01 2.065280914306640625e+00 4.897824525833129883e-01 -1.438130974769592285e+00
2.160000000000000000e+03 4.843808364868164062e+01 -2.826848983764648438e+01 6.793367862701416016e-02 2.202562570571899414e+00 6.811488866806030273e-01 -1.397761821746826172e+00
2.161000000000000000e+03 6.874260711669921875e+01 5.747244834899902344e+00 1.015663594007492065e-01 2.046755075454711914e+00 6.444963812828063965e-01 2.644196271896362305e+00
2.162000000000000000e+03 5.054907989501953125e+01 1.960832595825195312e+01 -1.032102346420288086e+00 2.789759874343872070e+00 5.272973179817199707e-01 -1.949093580245971680e+00
2.163000000000000000e+03 6.522013092041015625e+01 3.704555511474609375e+01 -6.537754535675048828e-01 4.194261074066162109e+00 1.062145709991455078e+00 8.941225707530975342e-02
2.164000000000000000e+03 6.363110351562500000e+01 -2.164516067504882812e+01 2.712777376174926758e+00 7.737598896026611328e+00 3.135113000869750977e+00 -1.812688708305358887e+00
2.165000000000000000e+03 1.687334823608398438e+01 -2.567259979248046875e+01 2.385711371898651123e-01 -2.606711387634277344e-01 -6.629994604736566544e-03 -2.531950771808624268e-01
2.166000000000000000e+03 2.050260162353515625e+01 1.417985343933105469e+01 -2.716142497956752777e-02 -3.343361616134643555e-01 -1.084492728114128113e-01 8.551032096147537231e-02
2.167000000000000000e+03 2.354684638977050781e+01 1.288872623443603516e+01 2.048325538635253906e-02 6.897997111082077026e-03 8.214375935494899750e-03 1.174306347966194153e-01
2.168000000000000000e+03 7.485851287841796875e+01 1.646274805068969727e+00 -3.732423186302185059e-01 6.249423503875732422e+00 1.762854337692260742e+00 -6.418216228485107422e-01
2.169000000000000000e+03 4.726838302612304688e+01 5.309220314025878906e+00 1.143836826086044312e-01 1.932410836219787598e+00 6.140383481979370117e-01 -1.227782130241394043e+00
2.170000000000000000e+03 6.050442886352539062e+01 -4.023095071315765381e-01 2.423841714859008789e+00 8.614320755004882812e+00 3.311448574066162109e+00 -3.376100540161132812e+00
2.171000000000000000e+03 6.006620025634765625e+01 2.066431283950805664e+00 7.829020023345947266e-01 6.609861373901367188e+00 2.217828989028930664e+00 -2.053054571151733398e+00
2.172000000000000000e+03 5.053194427490234375e+01 3.808054685592651367e+00 2.858756184577941895e-01 3.284694850444793701e-01 1.843035221099853516e-01 -2.448462247848510742e+00
2.173000000000000000e+03 5.221711349487304688e+01 4.842925071716308594e+00 -7.764934897422790527e-01 1.500829100608825684e+00 2.173006981611251831e-01 -3.283202648162841797e-01
2.174000000000000000e+03 7.401020812988281250e+01 -3.868666839599609375e+01 -1.151695400476455688e-01 6.545354843139648438e+00 1.929055571556091309e+00 -3.668600320816040039e-01
2.175000000000000000e+03 7.453628540039062500e+01 -3.316868972778320312e+01 3.846425116062164307e-01 6.269076824188232422e+00 1.996115684509277344e+00 1.847928315401077271e-01
2.176000000000000000e+03 7.402648162841796875e+01 -3.552471923828125000e+01 4.010916054248809814e-01 6.258511066436767578e+00 1.997880935668945312e+00 -2.129353433847427368e-01
2.177000000000000000e+03 7.810771942138671875e+01 1.930199241638183594e+01 -1.988400220870971680e-01 7.534741401672363281e+00 2.200770378112792969e+00 6.101302504539489746e-01
2.178000000000000000e+03 7.329559326171875000e+01 1.769619369506835938e+01 -1.120093464851379395e+00 7.779916763305664062e+00 1.997946977615356445e+00 4.329007863998413086e-01
2.179000000000000000e+03 7.377138519287109375e+01 -2.597389221191406250e+01 -2.043562412261962891e+00 8.608499526977539062e+00 1.969481229782104492e+00 6.904782056808471680e-01
2.180000000000000000e+03 7.748045349121093750e+01 3.570382308959960938e+01 2.074234420433640480e-03 7.233823776245117188e+00 2.170769453048706055e+00 1.171574965119361877e-01
2.181000000000000000e+03 7.618897247314453125e+01 3.272362899780273438e+01 1.132624745368957520e-01 6.719312667846679688e+00 2.049772500991821289e+00 8.122183382511138916e-02
2.182000000000000000e+03 7.687629699707031250e+01 -2.503857231140136719e+01 2.949632331728935242e-02 8.415851593017578125e+00 2.533604383468627930e+00 -6.923610568046569824e-01
2.183000000000000000e+03 7.813721466064453125e+01 -2.891056823730468750e+01 -2.182316035032272339e-01 8.165566444396972656e+00 2.384200572967529297e+00 4.440613836050033569e-02
2.184000000000000000e+03 7.629705810546875000e+01 -3.005022430419921875e+01 -2.536521553993225098e-01 7.414396762847900391e+00 2.148223400115966797e+00 3.675255477428436279e-01
2.185000000000000000e+03 7.449809265136718750e+01 -2.504570770263671875e+01 -3.078980743885040283e-02 8.800338745117187500e+00 2.630864858627319336e+00 -4.138375222682952881e-01
2.186000000000000000e+03 7.815942382812500000e+01 -2.191484260559082031e+01 4.032287597656250000e-01 7.949903964996337891e+00 2.505939722061157227e+00 2.147394716739654541e-01
2.187000000000000000e+03 7.621730804443359375e+01 -2.376203536987304688e+01 8.650272488594055176e-01 9.029270172119140625e+00 2.968289375305175781e+00 -3.451938033103942871e-01
2.188000000000000000e+03 7.645217895507812500e+01 -3.273299789428710938e+01 1.333767473697662354e-01 7.182924747467041016e+00 2.194890499114990234e+00 1.877449899911880493e-01
2.189000000000000000e+03 7.600065612792968750e+01 -3.398831939697265625e+01 2.697658538818359375e-01 6.964298725128173828e+00 2.170219421386718750e+00 1.040433719754219055e-01
2.190000000000000000e+03 7.513494873046875000e+01 -4.060380935668945312e+01 -1.230169311165809631e-01 7.159137725830078125e+00 2.110836267471313477e+00 -2.487306892871856689e-01
2.191000000000000000e+03 7.812554168701171875e+01 2.205455017089843750e+01 -1.762395352125167847e-01 7.794981479644775391e+00 2.285622596740722656e+00 9.736694395542144775e-02
2.192000000000000000e+03 7.678524017333984375e+01 2.055022811889648438e+01 -5.155047178268432617e-01 7.539820671081542969e+00 2.107294797897338867e+00 4.243238568305969238e-01
2.193000000000000000e+03 7.569527435302734375e+01 2.313943099975585938e+01 -5.281867980957031250e-01 7.005042552947998047e+00 1.943056702613830566e+00 -2.996928989887237549e-01
2.194000000000000000e+03 7.687755584716796875e+01 2.193311309814453125e+01 -4.656573832035064697e-01 7.466725349426269531e+00 2.100320339202880859e+00 3.539644926786422729e-02
2.195000000000000000e+03 7.695883941650390625e+01 1.512092971801757812e+01 2.577811479568481445e-01 7.088663578033447266e+00 2.203933477401733398e+00 1.072741866111755371e+00
2.196000000000000000e+03 7.824586486816406250e+01 1.387556457519531250e+01 1.622395068407058716e-01 6.015354156494140625e+00 1.853278160095214844e+00 5.996497869491577148e-01
2.197000000000000000e+03 7.474150085449218750e+01 1.328637886047363281e+01 1.225356817245483398e+00 8.819471359252929688e+00 3.013448476791381836e+00 7.899718880653381348e-01
2.198000000000000000e+03 7.666925048828125000e+01 8.745512962341308594e+00 3.595282137393951416e-01 6.953551769256591797e+00 2.193923950195312500e+00 -7.259792089462280273e-01
2.199000000000000000e+03 7.688671112060546875e+01 2.461790084838867188e+01 -1.617065221071243286e-01 7.221164226531982422e+00 2.117837190628051758e+00 -2.948648333549499512e-01
2.200000000000000000e+03 7.810665130615234375e+01 2.617959213256835938e+01 -2.020581252872943878e-02 7.524245738983154297e+00 2.251211881637573242e+00 -2.245859056711196899e-01
2.201000000000000000e+03 7.794089508056640625e+01 3.030705261230468750e+01 8.299306780099868774e-02 7.211468219757080078e+00 2.188338518142700195e+00 -7.432898133993148804e-02
2.202000000000000000e+03 7.525283813476562500e+01 2.970350074768066406e+01 2.874065339565277100e-01 6.404623508453369141e+00 2.007609128952026367e+00 -1.429966092109680176e-01
2.203000000000000000e+03 7.800850677490234375e+01 -1.208532047271728516e+01 -6.578777432441711426e-01 9.689473152160644531e+00 2.709478616714477539e+00 -3.407962620258331299e-01
2.204000000000000000e+03 7.786038970947265625e+01 -1.646264076232910156e+01 -1.296875625848770142e-01 8.965653419494628906e+00 2.650789737701416016e+00 1.070814847946166992e+00
2.205000000000000000e+03 7.588718414306640625e+01 -1.956000137329101562e+01 7.472159266471862793e-01 9.057844161987304688e+00 2.941517829895019531e+00 8.610708713531494141e-01
2.206000000000000000e+03 7.831078338623046875e+01 -6.521006584167480469e+00 3.862151801586151123e-01 8.375458717346191406e+00 2.628502130508422852e+00 -5.634166002273559570e-01
2.207000000000000000e+03 7.553472900390625000e+01 3.701593399047851562e+00 -3.508929908275604248e-01 6.716677188873291016e+00 1.909735321998596191e+00 -6.623365283012390137e-01
2.208000000000000000e+03 7.586094665527343750e+01 3.680221939086914062e+01 -4.111664369702339172e-02 6.806596279144287109e+00 2.029643774032592773e+00 2.137815654277801514e-01
2.209000000000000000e+03 7.794161987304687500e+01 -1.531639218330383301e+00 -2.239419370889663696e-01 7.884959697723388672e+00 2.298305273056030273e+00 2.569784820079803467e-01
2.210000000000000000e+03 7.794412231445312500e+01 7.097336292266845703e+00 3.854515263810753822e-03 6.500660896301269531e+00 1.951354622840881348e+00 -7.574617862701416016e-01
2.211000000000000000e+03 7.653713226318359375e+01 5.581380844116210938e+00 -1.814826875925064087e-01 6.959657192230224609e+00 2.033452272415161133e+00 -8.530825972557067871e-01
2.212000000000000000e+03 7.703761291503906250e+01 -2.182382965087890625e+01 7.470614314079284668e-01 8.461121559143066406e+00 2.762454748153686523e+00 2.126473188400268555e-01
2.213000000000000000e+03 7.764765167236328125e+01 -1.336796855926513672e+01 -6.901003718376159668e-01 9.382546424865722656e+00 2.607733726501464844e+00 1.511397361755371094e-01
2.214000000000000000e+03 7.577988433837890625e+01 3.543317031860351562e+01 1.561619108542799950e-03 6.755804061889648438e+00 2.027209758758544922e+00 1.965836286544799805e-01
2.215000000000000000e+03 7.503879547119140625e+01 3.100104713439941406e+01 2.612233757972717285e-01 6.348650932312011719e+00 1.982962250709533691e+00 -3.748038038611412048e-02
2.216000000000000000e+03 7.641032409667968750e+01 3.137377548217773438e+01 1.821055263280868530e-01 6.766240119934082031e+00 2.084503650665283203e+00 -1.317039784044027328e-02
2.217000000000000000e+03 7.686528015136718750e+01 1.018293190002441406e+01 5.450053811073303223e-01 6.785554409027099609e+00 2.199167966842651367e+00 -4.897986352443695068e-01
2.218000000000000000e+03 7.654584503173828125e+01 7.179698467254638672e+00 4.677326977252960205e-02 6.939393043518066406e+00 2.095849990844726562e+00 -9.082328677177429199e-01
2.219000000000000000e+03 7.486267089843750000e+01 -3.801789879798889160e-01 -6.283919811248779297e-01 6.905040740966796875e+00 1.882994651794433594e+00 -9.440758228302001953e-01
2.220000000000000000e+03 7.760499572753906250e+01 3.439548873901367188e+01 -2.180011477321386337e-03 7.178242206573486328e+00 2.152818679809570312e+00 7.815165817737579346e-02
2.221000000000000000e+03 7.387164306640625000e+01 4.705640316009521484e+00 -3.040575087070465088e-01 6.384860992431640625e+00 1.824241042137145996e+00 -1.475182324647903442e-01
2.222000000000000000e+03 7.701882171630859375e+01 2.789984464645385742e+00 -2.518055737018585205e-01 7.057224750518798828e+00 2.041625738143920898e+00 -5.407748818397521973e-01
2.223000000000000000e+03 7.678192138671875000e+01 4.074937820434570312e+00 -2.609068751335144043e-01 6.966693401336669922e+00 2.011735916137695312e+00 -7.051628828048706055e-01
2.224000000000000000e+03 7.521531677246093750e+01 -1.361011123657226562e+01 -1.541847586631774902e+00 6.915534019470214844e+00 1.612105965614318848e+00 7.034107446670532227e-01
2.225000000000000000e+03 7.647515869140625000e+01 -2.069219779968261719e+01 7.781111001968383789e-01 8.851996421813964844e+00 2.889032125473022461e+00 7.190713286399841309e-01
2.226000000000000000e+03 7.596487426757812500e+01 -1.027426815032958984e+01 -1.173086166381835938e+00 9.298328399658203125e+00 2.437572717666625977e+00 -1.098937749862670898e+00
2.227000000000000000e+03 7.649914550781250000e+01 -1.931856632232666016e+00 -3.235155642032623291e-01 8.133378028869628906e+00 2.342958688735961914e+00 -1.266404837369918823e-01
2.228000000000000000e+03 4.742692184448242188e+01 -1.535310268402099609e+01 -1.749907255172729492e+00 3.869920253753662109e+00 6.360039114952087402e-01 1.625119209289550781e+00
2.229000000000000000e+03 2.117127990722656250e+01 2.321646118164062500e+01 2.373557835817337036e-01 1.153706982731819153e-01 1.058179438114166260e-01 1.720008403062820435e-01
2.230000000000000000e+03 2.152856826782226562e+01 2.459470367431640625e+01 3.873625993728637695e-01 1.646590232849121094e-01 1.656064838171005249e-01 3.743152320384979248e-01
2.231000000000000000e+03 6.495743560791015625e+01 -2.530164337158203125e+01 -1.481250405311584473e+00 7.472447395324707031e+00 1.797359108924865723e+00 -2.432332515716552734e+00
2.232000000000000000e+03 4.414590835571289062e+01 3.425424575805664062e+01 3.853399157524108887e-01 1.768778800964355469e+00 6.462355852127075195e-01 -9.196246862411499023e-01
2.233000000000000000e+03 3.050620079040527344e+01 -8.812008857727050781e+00 -3.104768693447113037e-01 -6.649256944656372070e-01 -2.926207780838012695e-01 -2.997247576713562012e-01
2.234000000000000000e+03 6.589733123779296875e+01 -2.770093154907226562e+01 -1.341717243194580078e+00 6.687800407409667969e+00 1.603824973106384277e+00 -2.079625368118286133e+00
2.235000000000000000e+03 6.699990081787109375e+01 -2.769395446777343750e+01 -3.979613780975341797e-01 5.465057373046875000e+00 1.520128726959228516e+00 -2.257991075515747070e+00
2.236000000000000000e+03 3.839765167236328125e+01 -1.421745967864990234e+01 -7.696262001991271973e-01 5.137510895729064941e-01 -7.676254212856292725e-02 -3.044707179069519043e-01
2.237000000000000000e+03 3.916013717651367188e+01 -1.334063148498535156e+01 -1.109659433364868164e+00 5.126445889472961426e-01 -1.791044622659683228e-01 -8.712230622768402100e-02
2.238000000000000000e+03 2.860109901428222656e+01 -2.501688766479492188e+01 2.612739503383636475e-01 4.913513660430908203e-01 2.257875949144363403e-01 -1.639469563961029053e-01
2.239000000000000000e+03 2.902484512329101562e+01 -2.771941184997558594e+01 2.232151925563812256e-01 3.784732520580291748e-01 1.805065274238586426e-01 -2.474779635667800903e-01
2.240000000000000000e+03 2.214874029159545898e+00 3.226018905639648438e+01 6.778357177972793579e-02 -8.701770901679992676e-01 -2.407180666923522949e-01 1.320751458406448364e-01
2.241000000000000000e+03 5.418243885040283203e+00 3.263777160644531250e+01 1.687225401401519775e-01 -4.350515902042388916e-01 -7.989870756864547729e-02 1.247844249010086060e-01
2.242000000000000000e+03 3.050723314285278320e+00 2.802459907531738281e+01 -9.657463431358337402e-02 -7.219423651695251465e-01 -2.455551028251647949e-01 1.649941504001617432e-01
2.243000000000000000e+03 4.421963691711425781e+00 2.447087860107421875e+01 -1.215857788920402527e-01 -6.265137195587158203e-01 -2.244298458099365234e-01 5.332810804247856140e-02
2.244000000000000000e+03 3.239899158477783203e+00 2.980595970153808594e+01 -1.225764863193035126e-02 -7.615160346031188965e-01 -2.321320921182632446e-01 2.062334567308425903e-01
2.245000000000000000e+03 4.508583068847656250e+00 3.171781349182128906e+01 1.296813935041427612e-01 -6.099659204483032227e-01 -1.440853625535964966e-01 1.806624382734298706e-01
2.246000000000000000e+03 2.065880060195922852e+00 3.078204154968261719e+01 1.500404626131057739e-02 -8.292123675346374512e-01 -2.442625015974044800e-01 1.623246371746063232e-01
2.247000000000000000e+03 2.326732158660888672e+00 3.540693664550781250e+01 5.923378840088844299e-02 -9.288564324378967285e-01 -2.608867883682250977e-01 2.420586533844470978e-02
2.248000000000000000e+03 5.173094749450683594e+00 2.613700103759765625e+01 -2.216470390558242798e-01 -7.600721120834350586e-01 -2.945157587528228760e-01 1.496057361364364624e-01
2.249000000000000000e+03 6.331377029418945312e+00 3.275113296508789062e+01 1.657878905534744263e-01 -1.633985936641693115e-01 7.167856674641370773e-04 1.137973517179489136e-01
2.250000000000000000e+03 2.697105646133422852e+00 3.906198883056640625e+01 2.527732960879802704e-02 -9.406160116195678711e-01 -2.746016085147857666e-01 -7.186146080493927002e-02
2.251000000000000000e+03 3.896464824676513672e+00 -3.569495010375976562e+01 2.080292208120226860e-03 -4.574738740921020508e-01 -1.366180628538131714e-01 -1.184365972876548767e-01
2.252000000000000000e+03 1.803638815879821777e+00 -2.880807495117187500e+01 -5.423266906291246414e-03 -3.843903541564941406e-01 -1.169440895318984985e-01 7.561646634712815285e-04
2.253000000000000000e+03 3.098480701446533203e+00 -2.977454757690429688e+01 -2.691448107361793518e-02 -3.351479470729827881e-01 -1.086187288165092468e-01 -3.518057614564895630e-02
2.254000000000000000e+03 1.854487180709838867e+00 -3.011112022399902344e+01 -2.294232882559299469e-02 -4.007673859596252441e-01 -1.271129101514816284e-01 -1.797668635845184326e-02
2.255000000000000000e+03 1.612704992294311523e+00 2.177600860595703125e+01 7.156561128795146942e-03 -5.969518423080444336e-01 -1.769385784864425659e-01 -3.155536949634552002e-02
2.256000000000000000e+03 5.720669269561767578e+00 2.253925514221191406e+01 -4.937620460987091064e-02 -5.149127244949340820e-01 -1.692866683006286621e-01 7.413090765476226807e-02
2.257000000000000000e+03 3.511465311050415039e+00 2.192726135253906250e+01 2.464918186888098717e-03 -5.642915964126586914e-01 -1.685480028390884399e-01 -1.269256882369518280e-02
2.258000000000000000e+03 2.058776378631591797e+00 -1.989967918395996094e+01 1.796441152691841125e-02 -2.700574100017547607e-01 -7.562790066003799438e-02 -1.551333963871002197e-01
2.259000000000000000e+03 3.293144464492797852e+00 -1.511551189422607422e+01 -5.240912735462188721e-02 -1.808481216430664062e-01 -6.997717916965484619e-02 -5.407900363206863403e-02
2.260000000000000000e+03 6.037895679473876953e+00 -1.387249088287353516e+01 -1.010467931628227234e-01 -2.494737803936004639e-01 -1.051561757922172546e-01 -1.301274448633193970e-01
2.261000000000000000e+03 5.348036289215087891e+00 1.710064697265625000e+01 2.064370363950729370e-01 -3.810954093933105469e-01 -5.239751562476158142e-02 1.691039204597473145e-01
2.262000000000000000e+03 2.808613777160644531e+00 2.050387763977050781e+01 3.339325264096260071e-02 -5.588741898536682129e-01 -1.576442867517471313e-01 -1.526601798832416534e-02
2.263000000000000000e+03 5.270718097686767578e+00 1.134856128692626953e+01 -9.870342910289764404e-02 -1.788439154624938965e-01 -8.326420187950134277e-02 3.509410619735717773e-01
2.264000000000000000e+03 3.037061929702758789e+00 -2.444598579406738281e+01 3.894480317831039429e-02 -2.963313460350036621e-01 -7.721596211194992065e-02 8.453870192170143127e-03
2.265000000000000000e+03 4.856670379638671875e+00 -2.278122711181640625e+01 1.806646287441253662e-01 -1.608505845069885254e-01 5.944211035966873169e-03 -9.134564548730850220e-03
2.266000000000000000e+03 3.456748962402343750e+00 -1.633053779602050781e+01 -8.878007531166076660e-02 -2.325194031000137329e-01 -9.638984501361846924e-02 -1.203527674078941345e-01
2.267000000000000000e+03 2.674636363983154297e+00 -1.005059242248535156e+01 1.574231497943401337e-02 -8.329722285270690918e-02 -2.026647143065929413e-02 3.073858330026268959e-03
2.268000000000000000e+03 1.581894159317016602e+00 -8.966808319091796875e+00 1.127490866929292679e-02 -4.290434718132019043e-02 -9.488831274211406708e-03 4.642328713089227676e-03
2.269000000000000000e+03 6.588896274566650391e+00 -5.071608543395996094e+00 1.280086394399404526e-02 -1.020024418830871582e-01 -2.676047384738922119e-02 -7.553169876337051392e-02
2.270000000000000000e+03 2.837598800659179688e+00 8.871533393859863281e+00 -7.357530295848846436e-02 -6.171864643692970276e-02 -4.058818519115447998e-02 1.374162733554840088e-01
2.271000000000000000e+03 1.583814978599548340e+00 6.262510299682617188e+00 -2.263228595256805420e-02 5.484602600336074829e-02 9.664121083915233612e-03 6.260475609451532364e-03
2.272000000000000000e+03 2.073679208755493164e+00 1.443597316741943359e+01 2.422114089131355286e-02 -3.819364011287689209e-01 -1.073145791888237000e-01 1.627542227506637573e-01
2.273000000000000000e+03 3.713864803314208984e+00 1.541460990905761719e+01 1.017460823059082031e-01 -3.910751342773437500e-01 -8.679871261119842529e-02 2.193940877914428711e-01
2.274000000000000000e+03 4.202896595001220703e+00 -3.262068986892700195e+00 -1.768870279192924500e-02 -3.880321979522705078e-02 -1.694757677614688873e-02 -2.820840291678905487e-02
2.275000000000000000e+03 1.680492043495178223e+00 -4.768252849578857422e+00 -5.302669014781713486e-03 -2.581009455025196075e-02 -9.333828464150428772e-03 -1.576025784015655518e-02
2.276000000000000000e+03 2.776114702224731445e+00 1.020241355895996094e+01 -5.740090459585189819e-02 -1.150274798274040222e-01 -5.172851309180259705e-02 1.842861622571945190e-01
2.277000000000000000e+03 4.091050624847412109e+00 -1.216263771057128906e+01 -2.893169596791267395e-02 -1.769018620252609253e-01 -6.175006553530693054e-02 -3.008818812668323517e-02
2.278000000000000000e+03 2.618528366088867188e+00 -8.799977302551269531e+00 2.062309766188263893e-03 -7.458410412073135376e-02 -2.175653912127017975e-02 -9.884629398584365845e-03
2.279000000000000000e+03 4.808293342590332031e+00 -3.646646881103515625e+01 2.785678952932357788e-02 -4.492947757244110107e-01 -1.264313906431198120e-01 -1.365926861763000488e-01
2.280000000000000000e+03 2.256557703018188477e+00 -3.535967254638671875e+01 -5.392968188971281052e-03 -5.111039280891418457e-01 -1.549490690231323242e-01 -7.154484838247299194e-02
2.281000000000000000e+03 3.357459068298339844e+00 -3.373115921020507812e+01 -1.561782881617546082e-02 -4.320008754730224609e-01 -1.342856138944625854e-01 -9.479176253080368042e-02
2.282000000000000000e+03 4.622026920318603516e+00 -3.359732818603515625e+01 -2.285628020763397217e-02 -3.720172345638275146e-01 -1.184620484709739685e-01 -1.336559951305389404e-01
2.283000000000000000e+03 6.660357952117919922e+00 -2.465064239501953125e+01 5.500612407922744751e-02 -5.213534925132989883e-03 1.493777614086866379e-02 -3.002992086112499237e-02
2.284000000000000000e+03 3.270884990692138672e+00 -1.947578239440917969e+01 -1.628006994724273682e-02 -2.629864811897277832e-01 -8.377996832132339478e-02 -1.651506125926971436e-01
2.285000000000000000e+03 3.664268016815185547e+00 1.063054084777832031e+01 -7.013326883316040039e-02 -1.422281265258789062e-01 -6.370841711759567261e-02 2.448964715003967285e-01
2.286000000000000000e+03 3.163570404052734375e+00 1.263794708251953125e+01 -8.604045026004314423e-03 -2.419271320104598999e-01 -7.515935599803924561e-02 2.521018385887145996e-01
2.287000000000000000e+03 3.492595195770263672e+00 1.401902103424072266e+01 4.910397529602050781e-02 -3.246332108974456787e-01 -8.265876770019531250e-02 2.602375149726867676e-01
2.288000000000000000e+03 4.263287544250488281e+00 1.646486473083496094e+01 1.476523578166961670e-01 -4.139535725116729736e-01 -7.989036291837692261e-02 1.768486201763153076e-01
2.289000000000000000e+03 2.556835365295410156e+01 3.112073898315429688e+01 1.653735190629959106e-01 5.029416084289550781e-01 2.004945278167724609e-01 2.352640926837921143e-01
2.290000000000000000e+03 7.239313507080078125e+01 1.945570373535156250e+01 -2.033288955688476562e+00 6.934476375579833984e+00 1.470356106758117676e+00 -2.819457948207855225e-01
2.291000000000000000e+03 2.298482131958007812e+01 2.784920883178710938e+01 4.709694087505340576e-01 4.114319384098052979e-01 2.647204101085662842e-01 4.097909331321716309e-01
2.292000000000000000e+03 4.193627548217773438e+01 7.733499050140380859e+00 1.804992854595184326e-01 4.156007766723632812e-01 1.788300126791000366e-01 1.691218614578247070e-01
2.293000000000000000e+03 4.103208541870117188e+01 1.359378051757812500e+01 7.481138110160827637e-01 5.757144689559936523e-01 3.971484899520874023e-01 -9.230185151100158691e-01
2.294000000000000000e+03 5.759561157226562500e+01 -2.688706970214843750e+01 -1.695895314216613770e+00 5.654088973999023438e+00 1.187458038330078125e+00 1.638206243515014648e+00
2.295000000000000000e+03 5.363319015502929688e+01 -3.775212860107421875e+01 -5.117610096931457520e-01 4.288852691650390625e+00 1.133127450942993164e+00 6.350048184394836426e-01
2.296000000000000000e+03 5.708024215698242188e+01 -4.083629989624023438e+01 -1.365899443626403809e+00 2.809138298034667969e+00 4.329716265201568604e-01 -4.890038669109344482e-01
2.297000000000000000e+03 5.508713531494140625e+01 3.858177185058593750e+01 -7.662189602851867676e-01 2.298796892166137695e+00 4.597733616828918457e-01 6.577479839324951172e-01
2.298000000000000000e+03 3.432206726074218750e+01 2.070936203002929688e+01 2.696987800300121307e-02 1.002901792526245117e+00 3.089615106582641602e-01 -1.436833012849092484e-02
2.299000000000000000e+03 5.533264160156250000e+01 1.862111282348632812e+01 2.544093728065490723e-01 4.818992614746093750e+00 1.522020578384399414e+00 -2.044326543807983398e+00
2.300000000000000000e+03 5.328893280029296875e+01 1.885455131530761719e+01 -3.786982893943786621e-01 4.544049263000488281e+00 1.249605298042297363e+00 -2.362905025482177734e+00
2.301000000000000000e+03 5.300369262695312500e+01 -4.066590118408203125e+01 -1.464247703552246094e+00 4.330540657043457031e+00 8.598879575729370117e-01 3.591063022613525391e-01
2.302000000000000000e+03 2.153717994689941406e+01 9.771240234375000000e+00 3.663435280323028564e-01 -1.212222799658775330e-01 7.353637367486953735e-02 2.626581192016601562e-01
2.303000000000000000e+03 2.514406204223632812e+01 1.337031364440917969e+01 3.678716719150543213e-02 4.074252769351005554e-02 2.325890772044658661e-02 6.026642397046089172e-02
2.304000000000000000e+03 4.116815948486328125e+01 9.984255790710449219e+00 5.069857835769653320e-01 2.385444790124893188e-01 2.236590832471847534e-01 -3.781643807888031006e-01
2.305000000000000000e+03 3.662612152099609375e+01 1.394894504547119141e+01 3.510484695434570312e-01 -1.913806051015853882e-01 4.790035635232925415e-02 -2.057389169931411743e-01
2.306000000000000000e+03 3.532056045532226562e+01 1.627470779418945312e+01 4.156150519847869873e-01 2.423715144395828247e-01 1.973959803581237793e-01 -1.552850455045700073e-01
2.307000000000000000e+03 4.906538009643554688e+01 -9.495859146118164062e+00 4.460557103157043457e-01 4.929285049438476562e+00 1.612602233886718750e+00 3.143116712570190430e+00
2.308000000000000000e+03 5.011520385742187500e+01 -1.260566520690917969e+01 -8.807623386383056641e-02 2.875996589660644531e+00 8.363761305809020996e-01 7.351043224334716797e-01
2.309000000000000000e+03 2.415713691711425781e+01 -2.822205734252929688e+01 3.392888605594635010e-01 1.790670305490493774e-01 1.555067747831344604e-01 -2.249225527048110962e-01
2.310000000000000000e+03 2.253523826599121094e+01 -2.233569335937500000e+01 1.291905790567398071e-01 5.902410298585891724e-02 5.646440386772155762e-02 -2.424703985452651978e-01
2.311000000000000000e+03 7.486693572998046875e+01 -2.173800849914550781e+01 1.342036485671997070e+00 1.084473228454589844e+01 3.656030654907226562e+00 7.557963579893112183e-02
2.312000000000000000e+03 7.540476226806640625e+01 -2.272366333007812500e+01 1.261973142623901367e+00 9.861828804016113281e+00 3.337140560150146484e+00 5.312083289027214050e-02
2.313000000000000000e+03 3.360051345825195312e+01 -6.771026134490966797e+00 1.289374530315399170e-01 -4.702823609113693237e-02 2.457276359200477600e-02 -2.846578061580657959e-01
2.314000000000000000e+03 5.499982833862304688e+01 2.253842735290527344e+01 -1.998117566108703613e+00 4.655329704284667969e+00 7.971636056900024414e-01 -2.599299907684326172e+00
2.315000000000000000e+03 5.375860214233398438e+01 2.454615783691406250e+01 -6.520044803619384766e-01 6.235873222351074219e+00 1.675160646438598633e+00 -1.195064663887023926e+00
2.316000000000000000e+03 4.302936077117919922e+00 1.233078861236572266e+01 -2.496322803199291229e-02 -2.245609164237976074e-01 -7.485724240541458130e-02 3.038399219512939453e-01
2.317000000000000000e+03 5.603952026367187500e+01 1.020465469360351562e+01 1.055721640586853027e+00 9.386001586914062500e+00 3.132517099380493164e+00 2.600766420364379883e-01
2.318000000000000000e+03 4.816532516479492188e+01 -4.324926853179931641e+00 1.577142119407653809e+00 2.308854758739471436e-01 5.424082875251770020e-01 2.994937300682067871e-01
2.319000000000000000e+03 2.214119720458984375e+01 2.585076141357421875e+01 4.455199837684631348e-01 2.764562964439392090e-01 2.165928781032562256e-01 5.208023786544799805e-01
2.320000000000000000e+03 5.222271728515625000e+01 1.964762496948242188e+01 -8.312163949012756348e-01 4.159106254577636719e+00 9.983669519424438477e-01 -2.393889904022216797e+00
2.321000000000000000e+03 4.627666950225830078e+00 2.972485160827636719e+01 6.371073541231453419e-04 -6.850457191467285156e-01 -2.053225934505462646e-01 2.141092121601104736e-01
2.322000000000000000e+03 6.519576263427734375e+01 -1.362669563293457031e+01 -1.778740406036376953e+00 6.174953937530517578e+00 1.318863987922668457e+00 2.941904067993164062e-01
2.323000000000000000e+03 4.594046401977539062e+01 3.350504684448242188e+01 3.519396483898162842e-01 2.603972911834716797e+00 8.867738246917724609e-01 -9.594640135765075684e-01
2.324000000000000000e+03 6.286874294281005859e+00 2.407535743713378906e+01 -1.957888007164001465e-01 -5.675292611122131348e-01 -2.289954274892807007e-01 1.985727250576019287e-01
2.325000000000000000e+03 5.748903274536132812e+00 2.519753646850585938e+01 -1.582264006137847900e-01 -7.394979000091552734e-01 -2.693172991275787354e-01 1.808746010065078735e-01
2.326000000000000000e+03 4.909152603149414062e+01 2.969116973876953125e+01 1.132241249084472656e+00 3.691028833389282227e+00 1.446981072425842285e+00 -8.658881783485412598e-01
2.327000000000000000e+03 1.564876079559326172e+01 2.177178001403808594e+01 3.527106344699859619e-01 3.025845587253570557e-01 1.965885609388351440e-01 4.672146439552307129e-01
2.328000000000000000e+03 2.683486175537109375e+01 1.338865566253662109e+01 7.916030287742614746e-02 9.704679250717163086e-02 5.286213010549545288e-02 1.139633208513259888e-01
2.329000000000000000e+03 7.298338317871093750e+01 1.532341289520263672e+01 8.582378029823303223e-01 9.566568374633789062e+00 3.127441644668579102e+00 1.333439499139785767e-01
2.330000000000000000e+03 7.573287963867187500e+01 1.763463020324707031e+01 -4.197995364665985107e-01 7.711272239685058594e+00 2.187441825866699219e+00 1.087338328361511230e+00
2.331000000000000000e+03 1.645000076293945312e+01 -4.067751407623291016e+00 1.122621819376945496e-01 2.286008596420288086e-01 1.022589132189750671e-01 -1.280670287087559700e-03
2.332000000000000000e+03 1.437708187103271484e+01 -5.811801433563232422e+00 5.839694757014513016e-03 4.300466552376747131e-02 1.465330738574266434e-02 -5.300412699580192566e-02
2.333000000000000000e+03 1.025153446197509766e+01 -2.442067527770996094e+01 1.551046129316091537e-02 -1.006273478269577026e-01 -2.553506568074226379e-02 -2.506695985794067383e-01
2.334000000000000000e+03 2.534118461608886719e+01 -1.493416023254394531e+01 -8.523347377777099609e-01 -3.915116190910339355e-01 -3.731538951396942139e-01 -4.201761484146118164e-01
2.335000000000000000e+03 1.127131938934326172e+01 -3.511538696289062500e+01 2.250489033758640289e-02 -2.098305970430374146e-01 -5.619771406054496765e-02 -2.109334170818328857e-01
2.336000000000000000e+03 3.001563072204589844e+01 -1.364307308197021484e+01 -7.549411058425903320e-01 5.093294894322752953e-04 -2.263295352458953857e-01 -6.607413291931152344e-02
2.337000000000000000e+03 2.712018203735351562e+01 -1.899347114562988281e+01 1.453682035207748413e-01 1.321751177310943604e-01 8.326299488544464111e-02 -4.248664528131484985e-02
2.338000000000000000e+03 2.627705574035644531e+01 -1.754819297790527344e+01 -1.149920299649238586e-01 -7.724590599536895752e-02 -5.767137929797172546e-02 -1.917328387498855591e-01
2.339000000000000000e+03 3.152379798889160156e+01 2.635376167297363281e+01 7.152333855628967285e-02 5.988979935646057129e-01 2.011263966560363770e-01 -1.039639487862586975e-01
2.340000000000000000e+03 8.865726470947265625e+00 8.730512619018554688e+00 -4.614897072315216064e-01 -3.235019743442535400e-01 -2.354975044727325439e-01 2.849156558513641357e-01
2.341000000000000000e+03 8.683738708496093750e+00 4.173621654510498047e+00 -1.805185228586196899e-01 -9.920994937419891357e-02 -8.391854166984558105e-02 4.580271616578102112e-02
2.342000000000000000e+03 5.977463912963867188e+01 -1.898122215270996094e+01 1.168895602226257324e+00 4.839792728424072266e+00 1.802606463432312012e+00 2.795684635639190674e-01
2.343000000000000000e+03 6.212164306640625000e+01 -1.934448242187500000e+01 1.187649130821228027e+00 6.192792892456054688e+00 2.214132547378540039e+00 -7.746689915657043457e-01
2.344000000000000000e+03 9.323270797729492188e+00 2.080151367187500000e+01 8.596407622098922729e-02 -1.243008971214294434e-01 -1.150104589760303497e-02 1.330330222845077515e-01
2.345000000000000000e+03 1.320679378509521484e+01 1.931642723083496094e+01 2.571425139904022217e-01 3.707756102085113525e-01 1.883754432201385498e-01 4.778002500534057617e-01
2.346000000000000000e+03 5.539358139038085938e+01 -1.069823646545410156e+01 -2.162235498428344727e+00 1.147790312767028809e+00 -3.043335378170013428e-01 -1.106972098350524902e+00
2.347000000000000000e+03 3.841863632202148438e+01 -3.941667795181274414e+00 -1.015773192048072815e-01 4.259544312953948975e-01 9.731313586235046387e-02 1.217193081974983215e-01
2.348000000000000000e+03 3.888305282592773438e+01 -3.255664587020874023e+00 -2.295678257942199707e-01 2.411411851644515991e-01 3.472005017101764679e-03 1.046832054853439331e-01
2.349000000000000000e+03 1.474478054046630859e+01 -2.249981307983398438e+01 -1.394868493080139160e-01 -6.314130425453186035e-01 -2.312699705362319946e-01 -3.944514691829681396e-01
2.350000000000000000e+03 7.266498565673828125e+01 -1.622904968261718750e+01 -2.187498211860656738e-01 4.430100440979003906e+00 1.263405203819274902e+00 -9.218191504478454590e-01
2.351000000000000000e+03 4.155717849731445312e+01 -1.602230834960937500e+01 -1.769899874925613403e-01 3.361121416091918945e-01 4.773664474487304688e-02 -1.963167488574981689e-01
2.352000000000000000e+03 7.087905120849609375e+01 -3.696409606933593750e+01 7.835540175437927246e-02 5.675060749053955078e+00 1.726024866104125977e+00 -7.618124485015869141e-01
2.353000000000000000e+03 6.737981414794921875e+01 -3.731816864013671875e+01 -6.290062069892883301e-01 4.444954395294189453e+00 1.144784450531005859e+00 -6.700850129127502441e-01
2.354000000000000000e+03 5.050923919677734375e+01 2.475594902038574219e+01 3.731696307659149170e-01 4.093854427337646484e+00 1.340107202529907227e+00 -6.533085107803344727e-01
2.355000000000000000e+03 5.201538467407226562e+01 2.762826919555664062e+01 1.483330607414245605e+00 5.608811378479003906e+00 2.127642631530761719e+00 -9.710156321525573730e-01
2.356000000000000000e+03 2.167000579833984375e+01 -1.573278045654296875e+01 -4.531425833702087402e-01 -1.783019453287124634e-01 -1.894333511590957642e-01 -4.494648575782775879e-01
2.357000000000000000e+03 1.073281955718994141e+01 -3.156861877441406250e+01 -1.599202454090118408e-01 -2.625449895858764648e-01 -1.267395764589309692e-01 -2.143294960260391235e-01
2.358000000000000000e+03 1.346471118927001953e+01 -2.546774148941040039e+00 -1.174276620149612427e-01 5.494206398725509644e-02 -1.874567940831184387e-02 -5.493008345365524292e-02
2.359000000000000000e+03 2.829304885864257812e+01 -2.658129119873046875e+01 2.729699611663818359e-01 3.763574063777923584e-01 1.947982013225555420e-01 -2.104557305574417114e-01
2.360000000000000000e+03 5.590285110473632812e+01 8.900764465332031250e+00 5.879154205322265625e-01 8.234743118286132812e+00 2.646797657012939453e+00 1.107477024197578430e-01
2.361000000000000000e+03 5.953228759765625000e+01 8.338416099548339844e+00 -8.570751547813415527e-01 8.067528724670410156e+00 2.163136005401611328e+00 -7.966347336769104004e-01
2.362000000000000000e+03 1.982843589782714844e+01 -1.657579231262207031e+01 -2.551097869873046875e-01 -4.025543108582496643e-02 -8.860956132411956787e-02 -5.037081837654113770e-01
2.363000000000000000e+03 5.068007278442382812e+01 -3.200829315185546875e+01 1.590690970420837402e+00 4.213738441467285156e+00 1.741328835487365723e+00 5.498968064785003662e-02
2.364000000000000000e+03 5.119424819946289062e+01 -3.293936157226562500e+01 1.215337634086608887e+00 4.536636352539062500e+00 1.725592255592346191e+00 3.885973989963531494e-01
2.365000000000000000e+03 4.353577041625976562e+01 -1.494663906097412109e+01 -4.288216829299926758e-01 8.868456482887268066e-01 1.374071985483169556e-01 7.382203340530395508e-01
2.366000000000000000e+03 3.946649932861328125e+01 -1.641541290283203125e+01 -1.228007525205612183e-01 3.476608693599700928e-01 6.745803356170654297e-02 -2.560642361640930176e-01
2.367000000000000000e+03 2.817807579040527344e+01 -1.937431335449218750e+01 1.282677352428436279e-01 3.659643530845642090e-01 1.482696235179901123e-01 9.655696153640747070e-02
2.368000000000000000e+03 6.087922286987304688e+01 1.865613746643066406e+01 1.585608124732971191e+00 7.443689346313476562e+00 2.708789110183715820e+00 2.210836648941040039e+00
2.369000000000000000e+03 4.433387374877929688e+01 -1.860907936096191406e+01 8.002076745033264160e-01 2.798114061355590820e+00 1.079496502876281738e+00 4.330648481845855713e-01
2.370000000000000000e+03 2.897025108337402344e+01 -1.251144504547119141e+01 -9.477723240852355957e-01 -3.443513512611389160e-01 -3.876371085643768311e-01 -3.659840524196624756e-01
2.371000000000000000e+03 4.816893005371093750e+01 -3.813831329345703125e+01 -3.394658565521240234e-01 2.161507129669189453e+00 5.466123819351196289e-01 7.235828042030334473e-01
2.372000000000000000e+03 7.590723419189453125e+01 -4.081897735595703125e+00 6.061937808990478516e-01 9.526219367980957031e+00 3.039724111557006836e+00 -5.358299612998962402e-01
2.373000000000000000e+03 7.599079895019531250e+01 -5.852456092834472656e-01 -5.878904461860656738e-01 7.571382045745849609e+00 2.095047473907470703e+00 -4.570360481739044189e-01
2.374000000000000000e+03 3.805855941772460938e+01 -3.146629524230957031e+01 1.018200039863586426e+00 2.517429113388061523e+00 1.060688734054565430e+00 5.734562277793884277e-01
2.375000000000000000e+03 7.218582916259765625e+01 1.728772354125976562e+01 -9.568412899971008301e-01 8.064157485961914062e+00 2.132194757461547852e+00 -1.752451956272125244e-01
2.376000000000000000e+03 7.155120849609375000e+01 2.036872291564941406e+01 -1.926397085189819336e+00 5.836691379547119141e+00 1.173088312149047852e+00 -1.194904565811157227e+00
2.377000000000000000e+03 6.812453460693359375e+01 -1.265670967102050781e+01 -3.408038020133972168e-01 2.859468936920166016e+00 7.555995583534240723e-01 -1.566115498542785645e+00
2.378000000000000000e+03 6.609687805175781250e+01 -1.226720142364501953e+01 -4.710160791873931885e-01 5.553917884826660156e+00 1.524870514869689941e+00 -9.195942878723144531e-01
2.379000000000000000e+03 3.551737594604492188e+01 -8.255792617797851562e+00 2.028029412031173706e-01 4.885093867778778076e-01 2.073936909437179565e-01 -8.341999351978302002e-02
2.380000000000000000e+03 5.445709991455078125e+01 -3.241799926757812500e+01 1.736096739768981934e+00 5.957557678222656250e+00 2.308096408843994141e+00 1.076209306716918945e+00
2.381000000000000000e+03 5.511629104614257812e+01 -3.104020500183105469e+01 1.632876396179199219e+00 6.551458358764648438e+00 2.455300331115722656e+00 1.392346858978271484e+00
2.382000000000000000e+03 2.584691047668457031e+01 1.420728969573974609e+01 4.375841096043586731e-02 4.109631478786468506e-02 2.545641735196113586e-02 3.469062596559524536e-02
2.383000000000000000e+03 6.503108215332031250e+01 4.003162384033203125e+01 -5.354155898094177246e-01 3.545745372772216797e+00 9.030989408493041992e-01 -1.669868081808090210e-01
2.384000000000000000e+03 2.657435798645019531e+01 6.929234027862548828e+00 2.484424710273742676e-01 2.066022455692291260e-01 1.365134119987487793e-01 1.487106531858444214e-01
2.385000000000000000e+03 2.764150047302246094e+01 7.895219326019287109e+00 3.849312961101531982e-01 5.179847478866577148e-01 2.708748281002044678e-01 7.669723033905029297e-02
2.386000000000000000e+03 1.643428993225097656e+01 5.966015815734863281e+00 -1.629489213228225708e-01 2.384346872568130493e-01 2.264572866261005402e-02 4.567934572696685791e-01
2.387000000000000000e+03 1.917393112182617188e+01 2.001936721801757812e+01 2.692841924726963043e-02 -8.998416014946997166e-04 7.808573078364133835e-03 -5.838181241415441036e-04
2.388000000000000000e+03 1.893089294433593750e+01 1.883411979675292969e+01 -1.163005977869033813e-01 -8.450493961572647095e-02 -6.024166196584701538e-02 5.440959334373474121e-02
2.389000000000000000e+03 5.960478210449218750e+01 -2.418354415893554688e+01 6.458724737167358398e-01 2.800939559936523438e+00 1.034043669700622559e+00 1.438293814659118652e+00
2.390000000000000000e+03 6.352583312988281250e+01 -2.032248687744140625e+01 1.681780576705932617e+00 8.240560531616210938e+00 2.976702451705932617e+00 -1.154436230659484863e+00
2.391000000000000000e+03 2.609974098205566406e+01 -2.981553268432617188e+01 2.448112517595291138e-01 2.090916186571121216e-01 1.361708641052246094e-01 -2.406280636787414551e-01
2.392000000000000000e+03 2.576662826538085938e+01 -2.817514991760253906e+01 3.092505335807800293e-01 2.089495509862899780e-01 1.554600298404693604e-01 -2.182454317808151245e-01
2.393000000000000000e+03 6.375731658935546875e+01 -3.448746681213378906e+00 2.214487791061401367e+00 9.139739036560058594e+00 3.406268119812011719e+00 -5.078458786010742188e-01
2.394000000000000000e+03 6.249056243896484375e+01 -4.231033325195312500e+00 2.230343341827392578e+00 1.195774841308593750e+01 4.256427764892578125e+00 -2.173389911651611328e+00
2.395000000000000000e+03 3.541907882690429688e+01 2.350722122192382812e+01 1.051331055350601673e-03 1.284678101539611816e+00 3.857188224792480469e-01 -2.267017364501953125e-01
2.396000000000000000e+03 3.470267868041992188e+01 2.475226211547851562e+01 1.416781842708587646e-01 1.538786530494689941e+00 5.041394233703613281e-01 -1.371518522500991821e-01
2.397000000000000000e+03 5.219532012939453125e+00 3.076777076721191406e+01 7.166043668985366821e-02 -5.668454170227050781e-01 -1.485554873943328857e-01 1.259667575359344482e-01
2.398000000000000000e+03 6.181043624877929688e+00 2.137141036987304688e+01 2.589903026819229126e-02 -4.139775037765502930e-01 -1.164235398173332214e-01 6.556462496519088745e-02
2.399000000000000000e+03 1.427878093719482422e+01 -9.096608161926269531e+00 -1.241203583776950836e-02 1.244055554270744324e-01 3.359805792570114136e-02 -3.972399234771728516e-02
2.400000000000000000e+03 1.526997280120849609e+01 -1.355874824523925781e+01 2.295859344303607941e-02 3.510635495185852051e-01 1.122066453099250793e-01 -7.968471199274063110e-02
2.401000000000000000e+03 4.562284088134765625e+01 -1.890595626831054688e+01 1.164418578147888184e+00 4.309725284576416016e+00 1.642243146896362305e+00 7.116543650627136230e-01
2.402000000000000000e+03 4.311605834960937500e+01 -1.825460815429687500e+01 6.803098917007446289e-01 1.767603993415832520e+00 7.343741655349731445e-01 5.390419960021972656e-01
2.403000000000000000e+03 6.513150024414062500e+01 2.460685491561889648e+00 1.107380986213684082e+00 3.305157184600830078e+00 1.323761463165283203e+00 1.020343661308288574e+00
2.404000000000000000e+03 4.863862991333007812e+01 -1.043625831604003906e+01 1.595511674880981445e+00 4.418553352355957031e+00 1.804219484329223633e+00 2.853620529174804688e+00
2.405000000000000000e+03 2.073754692077636719e+01 -1.515576076507568359e+01 -4.380292296409606934e-01 -5.754879117012023926e-02 -1.486734002828598022e-01 -4.058000445365905762e-01
2.406000000000000000e+03 1.981399917602539062e+01 2.190862274169921875e+01 2.412783801555633545e-01 1.164501458406448364e-01 1.073185577988624573e-01 6.216168403625488281e-02
2.407000000000000000e+03 1.879101753234863281e+01 2.333872604370117188e+01 5.552693009376525879e-01 3.069842755794525146e-01 2.586760818958282471e-01 2.269599288702011108e-01
2.408000000000000000e+03 4.516439437866210938e+01 -2.391191482543945312e+01 2.174384295940399170e-01 2.394278526306152344e+00 7.835150957107543945e-01 4.802477061748504639e-01
2.409000000000000000e+03 6.060119247436523438e+01 7.010392665863037109e+00 -1.500444889068603516e+00 7.029893875122070312e+00 1.658834695816040039e+00 -1.199744939804077148e+00
2.410000000000000000e+03 1.810704803466796875e+01 3.506919860839843750e+01 8.863683789968490601e-02 -1.434506028890609741e-01 -1.644413173198699951e-02 4.163686186075210571e-02
2.411000000000000000e+03 5.471583175659179688e+01 -2.891384887695312500e+01 4.046278297901153564e-01 5.450294971466064453e+00 1.756476759910583496e+00 1.350954890251159668e+00
2.412000000000000000e+03 1.203795528411865234e+01 -2.875011062622070312e+01 -1.186712905764579773e-01 -3.343073427677154541e-01 -1.358935981988906860e-01 -1.988794058561325073e-01
2.413000000000000000e+03 3.439079666137695312e+01 -3.096962738037109375e+01 7.882254123687744141e-01 5.491192936897277832e-01 4.012034237384796143e-01 3.853230178356170654e-02
2.414000000000000000e+03 3.170693778991699219e+01 -2.921165657043457031e+01 3.042345046997070312e-01 3.821285963058471680e-01 2.059089243412017822e-01 -2.965895533561706543e-01
2.415000000000000000e+03 3.804059982299804688e+01 4.076967620849609375e+01 2.677480578422546387e-01 8.955470323562622070e-01 3.489885330200195312e-01 3.186049172654747963e-03
2.416000000000000000e+03 3.439909362792968750e+01 3.990979385375976562e+01 2.164965420961380005e-01 7.236635088920593262e-01 2.820480167865753174e-01 5.061042308807373047e-02
2.417000000000000000e+03 4.096929550170898438e+00 -2.181091880798339844e+01 1.681128144264221191e-01 -2.628222405910491943e-01 -2.841282449662685394e-02 -1.069611683487892151e-01
2.418000000000000000e+03 5.850808143615722656e+00 3.174344635009765625e+01 1.155568063259124756e-01 -3.502179384231567383e-01 -7.039834558963775635e-02 1.063906550407409668e-01
2.419000000000000000e+03 6.803598022460937500e+01 1.797031998634338379e+00 1.249957680702209473e+00 2.015449523925781250e+00 9.796221256256103516e-01 2.211540460586547852e+00
2.420000000000000000e+03 3.969995880126953125e+01 1.318695926666259766e+01 6.857362389564514160e-01 4.088439792394638062e-02 2.179861962795257568e-01 -6.888192296028137207e-01
2.421000000000000000e+03 8.985772132873535156e+00 -2.445702362060546875e+01 5.332271009683609009e-02 3.886979445815086365e-02 2.765775099396705627e-02 -1.780805587768554688e-01
2.422000000000000000e+03 1.105146217346191406e+01 -2.692318916320800781e+01 -4.029208794236183167e-02 -2.362626791000366211e-01 -8.296643197536468506e-02 -2.339138686656951904e-01
2.423000000000000000e+03 2.961481094360351562e+01 -1.171343898773193359e+01 -8.657307624816894531e-01 -4.904254972934722900e-01 -4.068468809127807617e-01 -3.244213163852691650e-01
2.424000000000000000e+03 5.857340240478515625e+01 2.225198936462402344e+01 -2.188278675079345703e+00 4.839511513710021973e-01 -5.112982392311096191e-01 1.984268277883529663e-01
2.425000000000000000e+03 2.286364936828613281e+01 3.016594505310058594e+01 1.800111085176467896e-01 3.972424864768981934e-01 1.731760799884796143e-01 1.638681590557098389e-01
2.426000000000000000e+03 2.185723495483398438e+01 2.977303695678710938e+01 7.470714300870895386e-02 2.222564667463302612e-01 8.908908069133758545e-02 1.920094490051269531e-01
2.427000000000000000e+03 4.438152313232421875e+01 1.698862457275390625e+01 -4.440845549106597900e-01 1.643810749053955078e+00 3.599178493022918701e-01 -1.091050431132316589e-01
2.428000000000000000e+03 4.198184204101562500e+01 1.796263694763183594e+01 -1.432608962059020996e-01 1.073684930801391602e+00 2.791272103786468506e-01 -3.973971307277679443e-01
2.429000000000000000e+03 3.672424316406250000e+01 -1.431833553314208984e+01 -7.017710208892822266e-01 3.809190392494201660e-01 -9.625560045242309570e-02 -1.636757999658584595e-01
2.430000000000000000e+03 4.251292037963867188e+01 -1.539167881011962891e+01 -4.271013736724853516e-01 4.578340649604797363e-01 9.219804778695106506e-03 1.469678431749343872e-01
2.431000000000000000e+03 2.196205711364746094e+01 1.760044670104980469e+01 -1.169258877635002136e-01 3.831910435110330582e-03 -3.392819315195083618e-02 3.773069009184837341e-02
2.432000000000000000e+03 4.339855575561523438e+01 1.156813621520996094e+01 1.228922486305236816e+00 2.532102108001708984e+00 1.128307461738586426e+00 -1.118063807487487793e+00
2.433000000000000000e+03 4.356156921386718750e+01 1.277566814422607422e+01 7.694675922393798828e-01 3.162012815475463867e+00 1.179444074630737305e+00 -1.107123255729675293e+00
2.434000000000000000e+03 5.084396362304687500e+01 3.278989791870117188e+01 5.591021180152893066e-01 4.338309288024902344e+00 1.469223380088806152e+00 -6.471636891365051270e-01
2.435000000000000000e+03 6.007940673828125000e+01 -1.738749122619628906e+01 -3.186849504709243774e-02 5.316278457641601562e+00 1.585323095321655273e+00 4.147853255271911621e-01
2.436000000000000000e+03 5.835566711425781250e+01 -1.916330718994140625e+01 1.257063984870910645e+00 4.674779415130615234e+00 1.779553055763244629e+00 5.775656104087829590e-01
2.437000000000000000e+03 6.348993301391601562e+01 2.373285102844238281e+01 -6.424114108085632324e-01 6.229266166687011719e+00 1.676056504249572754e+00 2.700886487960815430e+00
2.438000000000000000e+03 6.359492492675781250e+01 2.125421714782714844e+01 -2.920106410980224609e+00 5.102119445800781250e+00 6.546039581298828125e-01 3.755949974060058594e+00
2.439000000000000000e+03 2.668367767333984375e+01 1.018480396270751953e+01 3.866623640060424805e-01 2.580544054508209229e-01 1.934150308370590210e-01 1.322098225355148315e-01
2.440000000000000000e+03 5.448968887329101562e+01 2.090593528747558594e+01 -1.496981263160705566e+00 4.759816646575927734e+00 9.788506031036376953e-01 -2.666951417922973633e+00
2.441000000000000000e+03 5.983341979980468750e+01 9.551977157592773438e+00 1.189222335815429688e-01 7.702315330505371094e+00 2.346371173858642578e+00 -4.197314381599426270e-01
2.442000000000000000e+03 1.668919372558593750e+01 -1.540921497344970703e+01 6.572791934013366699e-02 2.476196438074111938e-01 9.400426596403121948e-02 -1.614064723253250122e-01
2.443000000000000000e+03 4.420767974853515625e+01 4.575449943542480469e+00 -5.891978740692138672e-01 9.985399246215820312e-01 1.228026077151298523e-01 -1.470610946416854858e-01
2.444000000000000000e+03 5.311599349975585938e+01 2.187283325195312500e+01 -1.471563458442687988e+00 5.098432064056396484e+00 1.088060498237609863e+00 -2.193025588989257812e+00
2.445000000000000000e+03 1.328887367248535156e+01 -2.628700828552246094e+01 5.864398181438446045e-02 -4.267812371253967285e-01 -1.104411780834197998e-01 -2.555257976055145264e-01
2.446000000000000000e+03 5.778964233398437500e+01 -2.329442024230957031e+01 9.864575266838073730e-01 4.738615512847900391e+00 1.717521905899047852e+00 1.472139954566955566e+00
2.447000000000000000e+03 1.267432212829589844e+01 -4.059870910644531250e+01 3.722046315670013428e-01 -7.674728333950042725e-02 8.863720297813415527e-02 -6.213879585266113281e-02
2.448000000000000000e+03 1.714907646179199219e+01 3.784154510498046875e+01 1.317290365695953369e-01 -7.404392957687377930e-02 1.730553060770034790e-02 6.198391690850257874e-02
2.449000000000000000e+03 1.659997367858886719e+01 3.475592803955078125e+01 5.106703564524650574e-02 -1.548825353384017944e-01 -3.114464879035949707e-02 1.039086431264877319e-01
2.450000000000000000e+03 7.139719390869140625e+01 -1.608801460266113281e+01 -6.406016945838928223e-01 2.107213258743286133e+00 4.399834871292114258e-01 -1.790754318237304688e+00
2.451000000000000000e+03 9.038325309753417969e+00 1.854438591003417969e+01 3.294734656810760498e-01 -6.616151332855224609e-02 7.899358123540878296e-02 1.721764951944351196e-01
2.452000000000000000e+03 4.228819847106933594e+00 1.948637580871582031e+01 9.187776595354080200e-02 -4.816671609878540039e-01 -1.169368177652359009e-01 3.686980530619621277e-02
2.453000000000000000e+03 3.455874252319335938e+01 1.958447647094726562e+01 1.827374696731567383e-01 7.722412943840026855e-01 2.864936292171478271e-01 -4.662266373634338379e-02
2.454000000000000000e+03 3.829860687255859375e+01 2.050590705871582031e+01 -4.890872538089752197e-02 4.647927284240722656e-01 1.247652024030685425e-01 -3.998497724533081055e-01
2.455000000000000000e+03 4.603891372680664062e+01 -2.293862152099609375e+01 5.708386301994323730e-01 3.525643825531005859e+00 1.228944778442382812e+00 2.588817477226257324e-01
2.456000000000000000e+03 4.027861404418945312e+01 -2.617177391052246094e+01 6.170473694801330566e-01 2.445681571960449219e+00 9.188186526298522949e-01 1.082338333129882812e+00
2.457000000000000000e+03 4.187887573242187500e+01 1.520973682403564453e+01 3.410848975181579590e-01 1.291015386581420898e+00 4.896301031112670898e-01 -8.620636463165283203e-01
2.458000000000000000e+03 3.991342163085937500e+01 1.204106903076171875e+01 6.554716229438781738e-01 -2.202357053756713867e-01 1.305707842111587524e-01 -6.169272065162658691e-01
2.459000000000000000e+03 4.725378036499023438e+01 2.357665824890136719e+01 3.799741864204406738e-01 2.325860738754272461e+00 8.117504715919494629e-01 1.036544069647789001e-01
2.460000000000000000e+03 4.559402084350585938e+01 1.916641616821289062e+01 -1.272300839424133301e+00 1.393609166145324707e+00 3.639250993728637695e-02 3.948857784271240234e-01
2.461000000000000000e+03 1.985211372375488281e+01 -2.522682380676269531e+01 3.325622379779815674e-01 1.926206201314926147e-01 1.575548499822616577e-01 -2.117628604173660278e-01
2.462000000000000000e+03 5.339491271972656250e+01 -3.600665283203125000e+01 8.462764620780944824e-01 4.730686187744140625e+00 1.673088788986206055e+00 5.705931186676025391e-01
2.463000000000000000e+03 6.734500122070312500e+01 2.203154563903808594e+01 -1.134984254837036133e+00 1.198637247085571289e+00 1.909591630101203918e-02 -4.007683992385864258e-01
2.464000000000000000e+03 7.475027465820312500e+01 -1.959829711914062500e+01 9.426146149635314941e-01 9.254703521728515625e+00 3.059195518493652344e+00 3.996368050575256348e-01
2.465000000000000000e+03 7.749629974365234375e+01 -1.919570350646972656e+01 2.458919286727905273e-01 8.532012939453125000e+00 2.633371353149414062e+00 9.935232400894165039e-01
2.466000000000000000e+03 6.645829772949218750e+01 3.332218551635742188e+01 9.751821309328079224e-02 5.072854042053222656e+00 1.551111578941345215e+00 7.508410811424255371e-01
2.467000000000000000e+03 6.488865661621093750e+01 3.204439926147460938e+01 5.832563638687133789e-01 5.104598045349121094e+00 1.706356287002563477e+00 5.634947419166564941e-01
2.468000000000000000e+03 1.004192733764648438e+01 1.754364395141601562e+01 4.863182306289672852e-01 2.181472778320312500e-01 2.113396525382995605e-01 2.641482651233673096e-01
2.469000000000000000e+03 4.420299911499023438e+01 6.941613197326660156e+00 4.720561206340789795e-01 1.718190789222717285e+00 6.570740938186645508e-01 -5.012941956520080566e-01
2.470000000000000000e+03 4.366099929809570312e+01 2.124872589111328125e+01 -3.538059890270233154e-01 1.109893918037414551e+00 2.268263846635818481e-01 7.149443030357360840e-01
2.471000000000000000e+03 5.788829421997070312e+01 1.884197044372558594e+01 1.102255940437316895e+00 4.986928939819335938e+00 1.826755404472351074e+00 -4.720829129219055176e-01
2.472000000000000000e+03 3.323601913452148438e+01 -3.178879737854003906e+01 6.950372457504272461e-01 4.453155994415283203e-01 3.421058356761932373e-01 1.613109000027179718e-02
2.473000000000000000e+03 7.440032958984375000e+01 -2.753565406799316406e+01 -8.705850243568420410e-01 7.330197811126708984e+00 1.937883853912353516e+00 8.187974095344543457e-01
2.474000000000000000e+03 7.313097381591796875e+01 -2.703792572021484375e+01 -1.544566035270690918e+00 6.576220512390136719e+00 1.509496331214904785e+00 2.257469415664672852e+00
2.475000000000000000e+03 6.132877349853515625e+01 -1.538700580596923828e+00 2.489209890365600586e+00 1.078857231140136719e+01 3.983334541320800781e+00 -2.324101209640502930e+00
2.476000000000000000e+03 4.913819885253906250e+01 2.151483917236328125e+01 -4.186272919178009033e-01 1.821957826614379883e+00 4.209991395473480225e-01 -9.960868358612060547e-01
2.477000000000000000e+03 4.814353561401367188e+01 -1.149972534179687500e+01 1.755245685577392578e+00 4.365225791931152344e+00 1.836141467094421387e+00 1.692680954933166504e+00
2.478000000000000000e+03 5.113652801513671875e+01 -8.359914779663085938e+00 -3.051989078521728516e-01 6.229284286499023438e+00 1.777225613594055176e+00 2.096815824508666992e+00
2.479000000000000000e+03 3.442868041992187500e+01 3.226659393310546875e+01 1.397770047187805176e-01 1.100428223609924316e+00 3.720615506172180176e-01 6.442717462778091431e-02
2.480000000000000000e+03 2.830419349670410156e+01 3.348857498168945312e+01 2.558976709842681885e-01 4.965771436691284180e-01 2.257424443960189819e-01 7.464046031236648560e-02
2.481000000000000000e+03 5.592487335205078125e+00 3.687589645385742188e+01 7.794605195522308350e-02 -3.976418673992156982e-01 -9.590873867273330688e-02 -3.033418580889701843e-02
2.482000000000000000e+03 6.225995635986328125e+01 2.250332450866699219e+01 -2.817492246627807617e+00 5.853257179260253906e+00 9.107294082641601562e-01 3.407982349395751953e+00
2.483000000000000000e+03 6.360271072387695312e+01 -8.195909500122070312e+00 2.241491079330444336e+00 1.005244636535644531e+01 3.688181400299072266e+00 -1.183453679084777832e+00
2.484000000000000000e+03 1.189985179901123047e+01 4.124857711791992188e+01 1.067480817437171936e-02 1.478679385036230087e-02 7.638480514287948608e-03 3.937419503927230835e-02
2.485000000000000000e+03 5.820590972900390625e+01 1.201283931732177734e+01 1.685113072395324707e+00 8.715003967285156250e+00 3.120035171508789062e+00 1.249794661998748779e-01
2.486000000000000000e+03 5.814651870727539062e+01 1.424786376953125000e+01 2.247239112854003906e+00 8.277289390563964844e+00 3.157358646392822266e+00 4.191321730613708496e-01
2.487000000000000000e+03 7.316947174072265625e+01 9.859377861022949219e+00 1.597356200218200684e+00 9.109690666198730469e+00 3.212114095687866211e+00 1.667073369026184082e-01
2.488000000000000000e+03 6.320603179931640625e+01 -2.265905952453613281e+01 2.927645444869995117e+00 6.180022239685058594e+00 2.732300281524658203e+00 -1.343824028968811035e+00
2.489000000000000000e+03 6.278756332397460938e+01 -2.567255401611328125e+01 -1.267156481742858887e+00 3.339137315750122070e+00 6.215942502021789551e-01 -1.948352575302124023e+00
2.490000000000000000e+03 7.414242553710937500e+01 -1.245550727844238281e+01 -1.742929935455322266e+00 4.226059913635253906e+00 7.449390888214111328e-01 8.476863503456115723e-01
2.491000000000000000e+03 3.610652542114257812e+01 -3.388774108886718750e+01 7.954038977622985840e-01 1.538286089897155762e+00 7.001069784164428711e-01 5.088006854057312012e-01
2.492000000000000000e+03 4.057444000244140625e+01 -1.759643173217773438e+01 2.343280762434005737e-01 4.316912591457366943e-01 1.998057961463928223e-01 -1.684910655021667480e-01
2.493000000000000000e+03 4.358682632446289062e+01 -2.107871055603027344e+01 1.182350873947143555e+00 2.314834833145141602e+00 1.049155712127685547e+00 1.001165747642517090e+00
2.494000000000000000e+03 1.470961666107177734e+01 1.944206809997558594e+01 1.574154347181320190e-01 1.391400396823883057e-01 8.896663784980773926e-02 5.204719305038452148e-01
2.495000000000000000e+03 5.199433517456054688e+01 3.350018310546875000e+01 5.567815154790878296e-02 4.213981628417968750e+00 1.280897974967956543e+00 -3.793046772480010986e-01
2.496000000000000000e+03 4.987142944335937500e+01 3.197307014465332031e+01 6.901831626892089844e-01 3.935377836227416992e+00 1.387668371200561523e+00 -7.792795300483703613e-01
2.497000000000000000e+03 7.450357055664062500e+01 6.612737655639648438e+00 -9.332386404275894165e-02 7.310658454895019531e+00 2.165200471878051758e+00 -5.656734704971313477e-01
2.498000000000000000e+03 7.243724822998046875e+01 -2.814862060546875000e+01 -2.063833028078079224e-01 4.410844326019287109e+00 1.261338353157043457e+00 1.907359719276428223e+00
2.499000000000000000e+03 7.036930847167968750e+01 -2.847851753234863281e+01 5.395405888557434082e-01 1.959851622581481934e+00 7.498176693916320801e-01 7.165355682373046875e-01
2.500000000000000000e+03 7.347971343994140625e+01 1.886890983581542969e+01 -1.313008904457092285e+00 7.480388164520263672e+00 1.850213766098022461e+00 3.824636936187744141e-01
2.501000000000000000e+03 2.707215499877929688e+01 -2.286569786071777344e+01 2.341641485691070557e-01 3.441963493824005127e-01 1.735081523656845093e-01 -6.976643949747085571e-02
2.502000000000000000e+03 2.580431938171386719e+01 -2.238952064514160156e+01 2.229534983634948730e-01 2.202921956777572632e-01 1.329737156629562378e-01 -1.125170588493347168e-01
2.503000000000000000e+03 4.214387416839599609e+00 -2.746926498413085938e+01 -4.131514951586723328e-02 -2.387651056051254272e-01 -8.402407169342041016e-02 -9.933559224009513855e-03
2.504000000000000000e+03 1.211823272705078125e+01 -1.076374816894531250e+01 -2.287385612726211548e-02 5.529881268739700317e-02 9.727487340569496155e-03 -8.262363821268081665e-02
2.505000000000000000e+03 1.470910167694091797e+01 -1.255068969726562500e+01 -7.231749594211578369e-02 3.689700067043304443e-01 8.899575471878051758e-02 -7.250235974788665771e-02
2.506000000000000000e+03 4.397747802734375000e+01 1.934015083312988281e+01 -9.622400999069213867e-01 1.400754332542419434e+00 1.315542608499526978e-01 3.269093632698059082e-01
2.507000000000000000e+03 8.048861503601074219e+00 1.576388168334960938e+01 3.784523308277130127e-01 -1.188939809799194336e-01 7.786750793457031250e-02 3.309129178524017334e-01
2.508000000000000000e+03 3.356119155883789062e+01 -9.406179428100585938e+00 -1.395747214555740356e-01 7.678930461406707764e-02 -1.883562281727790833e-02 -3.475672751665115356e-02
2.509000000000000000e+03 2.659112358093261719e+01 -3.268678283691406250e+01 1.114977002143859863e-01 2.325166612863540649e-01 1.032043099403381348e-01 -1.408850252628326416e-01
2.510000000000000000e+03 6.411633300781250000e+01 2.548086357116699219e+01 1.998149991035461426e+00 5.716438293457031250e+00 2.314376592636108398e+00 1.178856253623962402e+00
2.511000000000000000e+03 3.310844039916992188e+01 -1.353011798858642578e+01 -5.344260931015014648e-01 9.250817447900772095e-02 -1.325753778219223022e-01 3.083376586437225342e-01
2.512000000000000000e+03 3.665202713012695312e+01 -1.163602066040039062e+01 -4.418166279792785645e-01 5.139839053153991699e-01 2.165019139647483826e-02 7.328475266695022583e-02
2.513000000000000000e+03 8.451080322265625000e+00 1.129419326782226562e+01 -2.417174130678176880e-01 -2.475115358829498291e-01 -1.467686891555786133e-01 3.938186168670654297e-01
2.514000000000000000e+03 2.502577781677246094e+01 8.149561882019042969e+00 3.296848535537719727e-01 -6.124199926853179932e-02 8.053285628557205200e-02 1.359734982252120972e-01
2.515000000000000000e+03 6.797836303710937500e+01 -3.416785812377929688e+01 1.035045862197875977e+00 5.665059566497802734e+00 2.010031700134277344e+00 -1.231248378753662109e+00
2.516000000000000000e+03 6.976663970947265625e+01 -2.967504119873046875e+01 1.499729871749877930e+00 2.804492712020874023e+00 1.291266798973083496e+00 -3.447598218917846680e-01
2.517000000000000000e+03 2.181975936889648438e+01 1.424272823333740234e+01 -1.387044638395309448e-01 -8.647476136684417725e-02 -6.755376607179641724e-02 1.259792745113372803e-01
2.518000000000000000e+03 2.396444129943847656e+01 1.399794864654541016e+01 -3.263496607542037964e-02 5.476524308323860168e-02 6.639082916080951691e-03 4.341436550021171570e-02
2.519000000000000000e+03 5.009526443481445312e+01 -7.046181678771972656e+00 5.914881825447082520e-01 5.363751411437988281e+00 1.786571979522705078e+00 3.037625551223754883e+00
2.520000000000000000e+03 8.627733230590820312e+00 -3.401919937133789062e+01 -5.998854339122772217e-02 -2.632611393928527832e-01 -9.697490185499191284e-02 -2.249594628810882568e-01
2.521000000000000000e+03 7.286501884460449219e+00 -1.297143363952636719e+01 -1.315455138683319092e-01 -2.459661513566970825e-01 -1.132534965872764587e-01 -1.376490443944931030e-01
2.522000000000000000e+03 4.299477005004882812e+01 1.040562820434570312e+01 1.081150054931640625e+00 1.944111108779907227e+00 9.075783491134643555e-01 -7.976970076560974121e-01
2.523000000000000000e+03 6.558567047119140625e+01 -1.851640343666076660e+00 1.787076115608215332e+00 5.420097351074218750e+00 2.162152051925659180e+00 1.524568438529968262e+00
2.524000000000000000e+03 6.315268325805664062e+01 -1.225575065612792969e+01 -1.853781819343566895e+00 7.490942001342773438e+00 1.691148042678833008e+00 9.178406000137329102e-01
2.525000000000000000e+03 6.088133239746093750e+01 -1.079028129577636719e+01 -2.127071619033813477e+00 7.050235271453857422e+00 1.476949095726013184e+00 1.647055268287658691e+00
2.526000000000000000e+03 3.430148696899414062e+01 3.525766754150390625e+01 7.366017997264862061e-02 8.347175717353820801e-01 2.725133299827575684e-01 1.526681035757064819e-01
2.527000000000000000e+03 6.304079437255859375e+01 -4.157012939453125000e+01 -5.201408267021179199e-01 6.567617058753967285e-01 4.098626226186752319e-02 1.748490184545516968e-01
2.528000000000000000e+03 6.355438995361328125e+01 -3.976338577270507812e+01 -8.974121212959289551e-01 9.728496670722961426e-01 2.263125032186508179e-02 4.266767203807830811e-01
2.529000000000000000e+03 7.017926788330078125e+01 2.233493041992187500e+01 -1.236488699913024902e+00 3.962175846099853516e+00 8.177061676979064941e-01 -1.289447069168090820e+00
2.530000000000000000e+03 5.131307220458984375e+01 -3.526136779785156250e+01 1.090134739875793457e+00 4.117159843444824219e+00 1.562188386917114258e+00 7.346096038818359375e-01
2.531000000000000000e+03 1.508350849151611328e+01 5.797709941864013672e+00 -3.864283859729766846e-01 5.376306828111410141e-03 -1.143156290054321289e-01 5.468836426734924316e-01
2.532000000000000000e+03 5.150336837768554688e+01 -6.122043609619140625e+00 1.317866563796997070e+00 9.363453865051269531e+00 3.204396247863769531e+00 2.681741714477539062e+00
2.533000000000000000e+03 5.032605743408203125e+01 -4.354864120483398438e+00 3.555193662643432617e+00 3.957585573196411133e+00 2.253833770751953125e+00 2.220135927200317383e+00
2.534000000000000000e+03 5.186464309692382812e+01 -2.697626304626464844e+01 2.489050179719924927e-01 1.522788524627685547e+00 5.315080881118774414e-01 5.817956924438476562e-01
2.535000000000000000e+03 5.421644210815429688e+01 -2.692692375183105469e+01 -7.181126475334167480e-01 4.960046291351318359e+00 1.272580027580261230e+00 2.035256147384643555e+00
2.536000000000000000e+03 1.890488052368164062e+01 -1.960454368591308594e+01 -2.122814953327178955e-01 -2.866947650909423828e-02 -7.228528708219528198e-02 -5.443425774574279785e-01
2.537000000000000000e+03 7.124164581298828125e+01 2.311941719055175781e+01 -6.162843108177185059e-01 4.790516376495361328e+00 1.252269625663757324e+00 -1.225590109825134277e+00
2.538000000000000000e+03 4.957191085815429688e+01 -1.421747207641601562e+01 -8.336053490638732910e-01 2.455080032348632812e+00 4.864424169063568115e-01 9.772168397903442383e-01
2.539000000000000000e+03 5.975297546386718750e+01 1.522360801696777344e+01 1.981978058815002441e+00 9.722988128662109375e+00 3.511489868164062500e+00 1.484870076179504395e+00
2.540000000000000000e+03 6.284462738037109375e+01 -2.435067558288574219e+01 7.100778818130493164e-01 4.492262840270996094e+00 1.560702323913574219e+00 -1.273544311523437500e+00
2.541000000000000000e+03 5.699913787841796875e+01 -1.259674453735351562e+01 -1.177617192268371582e+00 1.914302706718444824e+00 2.210056632757186890e-01 -7.893130928277969360e-02
2.542000000000000000e+03 3.801427841186523438e+01 1.417644596099853516e+01 5.261324644088745117e-01 -1.133046224713325500e-01 1.238483488559722900e-01 -4.327586591243743896e-01
2.543000000000000000e+03 1.765288734436035156e+01 -1.484573936462402344e+01 -4.445676505565643311e-02 1.058996021747589111e-01 1.843285188078880310e-02 -2.190017849206924438e-01
2.544000000000000000e+03 5.347099304199218750e+01 4.099029159545898438e+01 -7.567341327667236328e-01 2.572029590606689453e+00 5.445886254310607910e-01 1.738105714321136475e-01
2.545000000000000000e+03 5.391020202636718750e+01 3.709427642822265625e+01 -8.963295817375183105e-01 2.945275068283081055e+00 6.146836280822753906e-01 5.125365257263183594e-01
2.546000000000000000e+03 2.124961090087890625e+01 -2.487889862060546875e+01 3.285841643810272217e-01 1.813140511512756348e-01 1.529694646596908569e-01 -1.517121046781539917e-01
2.547000000000000000e+03 1.932658386230468750e+01 -2.279495239257812500e+01 -2.886565402150154114e-02 5.585050582885742188e-02 8.095455355942249298e-03 -3.374855816364288330e-01
2.548000000000000000e+03 6.493635559082031250e+01 3.324521636962890625e+01 -8.766731619834899902e-02 5.039834976196289062e+00 1.485650300979614258e+00 5.326673388481140137e-01
2.549000000000000000e+03 5.617134857177734375e+01 -1.217156887054443359e+01 -1.229997515678405762e+00 1.390371322631835938e+00 4.811214655637741089e-02 -7.738582491874694824e-01
2.550000000000000000e+03 5.847789764404296875e+01 -1.234132099151611328e+01 -1.534808754920959473e+00 2.816483736038208008e+00 3.845024704933166504e-01 1.442505717277526855e+00
2.551000000000000000e+03 5.124865722656250000e+01 -2.888468360900878906e+01 9.177697300910949707e-01 2.699719190597534180e+00 1.085246682167053223e+00 -3.867303952574729919e-02
2.552000000000000000e+03 3.728141784667968750e+01 -3.497928237915039062e+01 4.731352329254150391e-01 1.776849865913391113e+00 6.749955415725708008e-01 5.223443508148193359e-01
2.553000000000000000e+03 3.806165313720703125e+01 -3.711457824707031250e+01 -7.668162882328033447e-02 1.804090023040771484e+00 5.182225108146667480e-01 1.951318979263305664e-01
2.554000000000000000e+03 6.789595794677734375e+01 -2.713618469238281250e+01 -1.367045402526855469e+00 3.418823480606079102e+00 6.155334115028381348e-01 -1.915456771850585938e+00
2.555000000000000000e+03 3.392074584960937500e+01 2.979745292663574219e+01 2.306313812732696533e-01 1.445710301399230957e+00 5.029025077819824219e-01 -9.531839936971664429e-02
2.556000000000000000e+03 6.315022659301757812e+01 -9.657790184020996094e+00 3.175352811813354492e-01 9.363910675048828125e+00 2.904433727264404297e+00 -1.664383858442306519e-01
2.557000000000000000e+03 7.915612697601318359e+00 2.044168281555175781e+01 9.498929232358932495e-02 -2.525840401649475098e-01 -4.727842286229133606e-02 1.061685010790824890e-01
2.558000000000000000e+03 2.081115722656250000e+01 3.079737854003906250e+01 -1.052166000008583069e-01 -5.579392611980438232e-02 -4.830315709114074707e-02 3.374376520514488220e-02
2.559000000000000000e+03 2.300044250488281250e+01 2.891204071044921875e+01 3.070138394832611084e-01 4.587558507919311523e-01 2.297309041023254395e-01 3.045814633369445801e-01
2.560000000000000000e+03 7.829359054565429688e+00 9.242712020874023438e+00 -3.880569040775299072e-01 -2.376473248004913330e-01 -1.877112686634063721e-01 2.854437828063964844e-01
2.561000000000000000e+03 5.557402420043945312e+01 6.400016784667968750e+00 -1.760950565338134766e+00 8.305815696716308594e+00 1.963459491729736328e+00 4.616189002990722656e-01
2.562000000000000000e+03 5.862701797485351562e+01 9.936233520507812500e+00 6.916626691818237305e-01 8.653985023498535156e+00 2.803694486618041992e+00 -2.195932269096374512e-01
2.563000000000000000e+03 2.949222564697265625e+01 1.359262371063232422e+01 1.544740945100784302e-01 5.267604589462280273e-01 2.043703496456146240e-01 4.277628064155578613e-01
2.564000000000000000e+03 4.220422267913818359e+00 2.701927375793457031e+01 -1.616222411394119263e-01 -7.140098214149475098e-01 -2.626896202564239502e-01 1.802070885896682739e-01
2.565000000000000000e+03 5.835667037963867188e+01 -2.621541595458984375e+01 -1.417959332466125488e+00 4.689033508300781250e+00 9.813222289085388184e-01 2.000391006469726562e+00
2.566000000000000000e+03 5.648235321044921875e+01 -2.447616386413574219e+01 -2.325749695301055908e-01 6.337448596954345703e+00 1.831462025642395020e+00 1.288908720016479492e+00
2.567000000000000000e+03 2.362538146972656250e+01 -2.368612289428710938e+01 2.783218324184417725e-01 1.243871599435806274e-01 1.208126991987228394e-01 -1.283042132854461670e-01
2.568000000000000000e+03 2.328387641906738281e+01 -1.596265888214111328e+01 -5.374438166618347168e-01 -2.954773008823394775e-01 -2.498763352632522583e-01 -4.834535419940948486e-01
2.569000000000000000e+03 6.522209930419921875e+01 -1.591411590576171875e+01 -3.361352920532226562e+00 5.846922397613525391e+00 7.456709146499633789e-01 8.797450661659240723e-01
2.570000000000000000e+03 6.178946304321289062e+01 -1.815181732177734375e+01 1.436715126037597656e-01 6.038064956665039062e+00 1.854520916938781738e+00 -1.889446377754211426e-01
2.571000000000000000e+03 5.100093078613281250e+01 -2.806616973876953125e+01 2.607040107250213623e-01 2.243701934814453125e+00 7.513217926025390625e-01 2.582241781055927277e-02
2.572000000000000000e+03 3.376127624511718750e+01 1.440455150604248047e+01 2.400377839803695679e-01 2.803713679313659668e-01 1.561227440834045410e-01 1.402746587991714478e-01
2.573000000000000000e+03 3.121346855163574219e+01 -1.246795940399169922e+01 -7.105457782745361328e-01 -3.368774894624948502e-03 -2.141743600368499756e-01 3.567220643162727356e-02
2.574000000000000000e+03 6.711760711669921875e+01 -2.896730232238769531e+01 1.116389036178588867e+00 5.646345615386962891e+00 2.028820276260375977e+00 -1.563785433769226074e+00
2.575000000000000000e+03 3.057085990905761719e+01 -3.010184860229492188e+01 3.529039025306701660e-01 3.583293259143829346e-01 2.133699655532836914e-01 -2.758764922618865967e-01
2.576000000000000000e+03 3.516717147827148438e+01 -3.244089889526367188e+01 9.240148067474365234e-01 9.256273508071899414e-01 5.548926591873168945e-01 3.819682300090789795e-01
2.577000000000000000e+03 1.582743072509765625e+01 -7.310878753662109375e+00 4.269181564450263977e-02 2.043958604335784912e-01 7.412630319595336914e-02 -1.300198584794998169e-02
2.578000000000000000e+03 5.551194000244140625e+01 -2.565896415710449219e+01 -2.029855728149414062e+00 5.855302333831787109e+00 1.147633910179138184e+00 1.604068636894226074e+00
2.579000000000000000e+03 5.534046554565429688e+01 -1.615894699096679688e+01 -1.238362789154052734e+00 3.842520475387573242e+00 7.812473177909851074e-01 -5.228447318077087402e-01
2.580000000000000000e+03 5.647034454345703125e+01 -2.329573440551757812e+01 9.337459802627563477e-01 5.654904842376708984e+00 1.976595163345336914e+00 8.177096247673034668e-01
2.581000000000000000e+03 3.658323669433593750e+01 1.820780754089355469e+01 3.064361214637756348e-01 3.781847059726715088e-01 2.053862512111663818e-01 -3.721065223217010498e-01
2.582000000000000000e+03 8.505124092102050781e+00 -1.216842746734619141e+01 -1.181437745690345764e-01 -1.471795290708541870e-01 -7.959698885679244995e-02 -1.177000105381011963e-01
2.583000000000000000e+03 4.377730846405029297e+00 -1.334666252136230469e+01 -3.753310814499855042e-02 -1.943725049495697021e-01 -6.957168877124786377e-02 -5.163228139281272888e-02
2.584000000000000000e+03 5.760585021972656250e+01 3.688409805297851562e+01 -9.869320988655090332e-01 5.568519830703735352e-01 -1.290240287780761719e-01 8.278420567512512207e-01
2.585000000000000000e+03 3.209974288940429688e+01 -3.850511169433593750e+01 1.688264459371566772e-01 8.459126949310302734e-01 3.044217526912689209e-01 2.650583982467651367e-01
2.586000000000000000e+03 5.625527572631835938e+01 -1.317004203796386719e+01 -9.241427779197692871e-01 2.206156730651855469e+00 3.846042156219482422e-01 -7.796696424484252930e-01
2.587000000000000000e+03 6.540922546386718750e+01 4.785752773284912109e+00 5.785685777664184570e-01 1.318290352821350098e+00 5.690576434135437012e-01 5.701636075973510742e-01
2.588000000000000000e+03 6.312126922607421875e+01 2.350443363189697266e+00 4.511517584323883057e-01 5.333616733551025391e+00 1.735430598258972168e+00 -3.577591180801391602e-01
2.589000000000000000e+03 5.862702178955078125e+01 2.114932441711425781e+01 -8.943481445312500000e-01 2.881358385086059570e+00 5.961030721664428711e-01 1.895734965801239014e-01
2.590000000000000000e+03 5.641554641723632812e+01 2.184494018554687500e+01 -2.571600675582885742e+00 2.903251647949218750e+00 9.949526190757751465e-02 -2.611886501312255859e+00
2.591000000000000000e+03 7.507662200927734375e+01 -1.149564838409423828e+01 -2.656207561492919922e+00 7.190381050109863281e+00 1.360252022743225098e+00 4.779054820537567139e-01
2.592000000000000000e+03 7.621295166015625000e+01 -1.254527950286865234e+01 -1.503051519393920898e+00 8.226020812988281250e+00 2.016891002655029297e+00 2.335098385810852051e-01
2.593000000000000000e+03 6.844409942626953125e+01 -3.557304000854492188e+01 4.211801290512084961e-01 5.421982288360595703e+00 1.752948760986328125e+00 -1.117999196052551270e+00
2.594000000000000000e+03 7.135509490966796875e+01 -3.225998687744140625e+01 1.439668536186218262e+00 4.504010677337646484e+00 1.783103823661804199e+00 -2.061065286397933960e-01
2.595000000000000000e+03 4.980891036987304688e+01 -1.520407199859619141e+01 -1.254807949066162109e+00 1.353849291801452637e+00 2.971239760518074036e-02 1.204525589942932129e+00
2.596000000000000000e+03 5.176518630981445312e+01 -1.430154991149902344e+01 -1.008598685264587402e+00 1.007075905799865723e+00 -4.568277217913419008e-04 -8.988379240036010742e-01
2.597000000000000000e+03 6.630519104003906250e+01 1.164637923240661621e+00 1.444564223289489746e+00 2.961242914199829102e+00 1.321742177009582520e+00 1.678264260292053223e+00
2.598000000000000000e+03 5.117793655395507812e+01 -2.375675201416015625e+00 2.391178607940673828e+00 5.140319347381591797e+00 2.259449481964111328e+00 1.876096248626708984e+00
2.599000000000000000e+03 5.209038543701171875e+01 2.656527519226074219e+00 1.131103634834289551e+00 3.879855155944824219e+00 1.503287672996520996e+00 -1.999622464179992676e+00
2.600000000000000000e+03 5.128727340698242188e+01 -3.954205513000488281e+00 4.107611179351806641e+00 8.670978546142578125e+00 3.833576917648315430e+00 2.951441764831542969e+00
2.601000000000000000e+03 5.209135055541992188e+01 -3.306656837463378906e+00 3.687019586563110352e+00 1.305796718597412109e+01 5.023496150970458984e+00 4.210650920867919922e+00
2.602000000000000000e+03 5.185012054443359375e+01 3.641489744186401367e+00 2.554005980491638184e-01 2.088443756103515625e+00 7.031532526016235352e-01 -1.407347798347473145e+00
2.603000000000000000e+03 5.243426513671875000e+01 -2.132828235626220703e+00 2.464917421340942383e+00 1.542077255249023438e+01 5.365706920623779297e+00 4.672057628631591797e+00
2.604000000000000000e+03 4.903804016113281250e+01 -4.185707092285156250e+00 2.408711671829223633e+00 9.656983017921447754e-01 1.012323021888732910e+00 9.344503283500671387e-01
2.605000000000000000e+03 4.906014633178710938e+01 -5.622214317321777344e+00 1.579704403877258301e+00 2.266996860504150391e+00 1.154010415077209473e+00 1.750159144401550293e+00
2.606000000000000000e+03 9.767668724060058594e+00 3.394225597381591797e+00 -1.279755383729934692e-01 -1.063794493675231934e-01 -7.030649483203887939e-02 6.263864040374755859e-02
2.607000000000000000e+03 5.075775527954101562e+01 3.070491790771484375e+00 9.733051061630249023e-01 5.759579539299011230e-01 4.647789001464843750e-01 -2.296910285949707031e+00
2.608000000000000000e+03 4.626823425292968750e+01 2.873974561691284180e+00 -7.323767542839050293e-01 9.279690384864807129e-01 5.867769196629524231e-02 -6.288238763809204102e-01
2.609000000000000000e+03 4.701247787475585938e+01 2.950877189636230469e+00 -6.006338596343994141e-01 8.721657991409301758e-01 8.145958185195922852e-02 -9.777557849884033203e-01
2.610000000000000000e+03 1.307395172119140625e+01 4.786345958709716797e+00 -3.839215338230133057e-01 -2.931014299392700195e-01 -2.031068950891494751e-01 4.002017974853515625e-01
2.611000000000000000e+03 1.229940509796142578e+01 5.204251766204833984e+00 -4.111313223838806152e-01 -2.823395431041717529e-01 -2.080412656068801880e-01 3.223008513450622559e-01
2.612000000000000000e+03 7.585384368896484375e+00 -4.662128925323486328e+00 1.094219274818897247e-02 -6.921368837356567383e-02 -1.748144812881946564e-02 -9.381494671106338501e-02
2.613000000000000000e+03 8.362455368041992188e+00 -3.216385126113891602e+00 -6.651812046766281128e-02 -9.440676867961883545e-02 -4.827746748924255371e-02 -1.197923794388771057e-01
2.614000000000000000e+03 8.355873107910156250e+00 -3.917942762374877930e+00 -6.978159304708242416e-03 -4.000027105212211609e-02 -1.409352850168943405e-02 -8.984685689210891724e-02
2.615000000000000000e+03 4.708831310272216797e+00 -3.752360105514526367e+00 -1.714422181248664856e-02 -1.362594775855541229e-02 -9.231050498783588409e-03 -4.592565074563026428e-02
2.616000000000000000e+03 7.648688316345214844e+00 -3.927266359329223633e+00 -4.459649696946144104e-02 -8.193011581897735596e-02 -3.795798495411872864e-02 -1.025896519422531128e-01
2.617000000000000000e+03 3.626236915588378906e+00 -6.378306865692138672e+00 1.207773201167583466e-02 -6.081971898674964905e-02 -1.462259609252214432e-02 -2.189746685326099396e-02
2.618000000000000000e+03 3.792274475097656250e+00 -5.303925991058349609e+00 -5.019736010581254959e-03 -4.978787526488304138e-02 -1.644228398799896240e-02 -3.963307291269302368e-02
2.619000000000000000e+03 3.402076482772827148e+00 -3.860469818115234375e+00 -5.439225584268569946e-03 -1.550386752933263779e-02 -6.282927934080362320e-03 -2.484485879540443420e-02
2.620000000000000000e+03 5.577964782714843750e+00 -5.090260982513427734e+00 9.866383858025074005e-03 -8.520387858152389526e-02 -2.260124869644641876e-02 -6.648676097393035889e-02
2.621000000000000000e+03 2.626897811889648438e+00 -6.261600971221923828e+00 8.455067290924489498e-04 -4.951659590005874634e-02 -1.460132747888565063e-02 -2.077745273709297180e-02
2.622000000000000000e+03 3.597592163085937500e+01 -3.325478553771972656e+00 -3.256231248378753662e-01 1.035720258951187134e-01 -6.661532819271087646e-02 -1.908376961946487427e-01
2.623000000000000000e+03 3.481203842163085938e+01 -3.920116424560546875e+00 -2.417537122964859009e-01 -6.832344084978103638e-02 -9.302314370870590210e-02 -2.350330501794815063e-01
2.624000000000000000e+03 5.036019134521484375e+01 -3.313830614089965820e+00 3.400413990020751953e+00 3.719264507293701172e+00 2.135903596878051758e+00 1.446419119834899902e+00
2.625000000000000000e+03 4.006326675415039062e+00 8.629570960998535156e+00 -1.312099397182464600e-01 -6.835115700960159302e-02 -5.986832827329635620e-02 1.653069704771041870e-01
2.626000000000000000e+03 7.539995670318603516e+00 4.894008636474609375e+00 -1.951931715011596680e-01 -8.301549404859542847e-02 -8.346260339021682739e-02 2.396661788225173950e-02
2.627000000000000000e+03 7.171594142913818359e+00 4.240389347076416016e+00 -1.383440047502517700e-01 -5.644836276769638062e-02 -5.843771249055862427e-02 3.083916613832116127e-03
2.628000000000000000e+03 8.599331855773925781e+00 3.366305589675903320e+00 -8.944895118474960327e-02 -6.860627979040145874e-02 -4.741656780242919922e-02 1.402123458683490753e-02
2.629000000000000000e+03 6.816069602966308594e+00 5.491056919097900391e+00 -2.166063338518142700e-01 -7.443689554929733276e-02 -8.731297403573989868e-02 4.113570973277091980e-02
2.630000000000000000e+03 4.780071735382080078e+00 5.086132049560546875e+00 -1.038361117243766785e-01 -2.143814414739608765e-02 -3.758227825164794922e-02 -6.913049146533012390e-03
2.631000000000000000e+03 2.593567371368408203e+00 4.876504421234130859e+00 -3.828545659780502319e-02 2.363090589642524719e-02 -4.396364558488130569e-03 -2.655403316020965576e-02
2.632000000000000000e+03 3.326313018798828125e+00 3.705643892288208008e+00 -2.072066627442836761e-02 9.908392094075679779e-03 -3.243681974709033966e-03 -4.771231859922409058e-02
2.633000000000000000e+03 2.694758653640747070e+00 6.138139724731445312e+00 -5.686698853969573975e-02 1.155583746731281281e-02 -1.359334494918584824e-02 1.257407944649457932e-02
2.634000000000000000e+03 2.552659034729003906e+00 3.812905073165893555e+00 -1.127223670482635498e-02 2.546568773686885834e-02 4.258035682141780853e-03 -4.556627199053764343e-02
2.635000000000000000e+03 3.763189697265625000e+01 -2.570873498916625977e+00 -4.245550334453582764e-01 2.078125923871994019e-01 -6.502272933721542358e-02 -3.566511720418930054e-02
2.636000000000000000e+03 3.704252624511718750e+01 -2.520747184753417969e+00 -4.190443158149719238e-01 3.300635516643524170e-01 -2.669422701001167297e-02 -1.018089056015014648e-01
2.637000000000000000e+03 1.053391170501708984e+01 5.022450923919677734e+00 -3.265332579612731934e-01 -2.084076404571533203e-01 -1.604822725057601929e-01 1.636735051870346069e-01
2.638000000000000000e+03 1.128811550140380859e+01 5.819078922271728516e+00 -4.430803060531616211e-01 -3.497777581214904785e-01 -2.378574162721633911e-01 2.676720321178436279e-01
2.639000000000000000e+03 2.206494903564453125e+01 4.147659778594970703e+00 -5.482202172279357910e-01 -1.525219976902008057e-01 -2.102226763963699341e-01 1.898084729909896851e-01
2.640000000000000000e+03 1.984357833862304688e+01 6.093236446380615234e+00 -8.460665121674537659e-03 1.341747771948575974e-02 1.487043802626430988e-03 1.833269745111465454e-01
2.641000000000000000e+03 3.631356048583984375e+01 -4.687836647033691406e+00 -8.913332223892211914e-02 3.142869770526885986e-01 6.754609942436218262e-02 -1.375613659620285034e-01
2.642000000000000000e+03 2.191582679748535156e+01 5.702405929565429688e+00 -5.890507996082305908e-02 -1.503679454326629639e-01 -6.278190761804580688e-02 1.434163898229598999e-01
2.643000000000000000e+03 2.282996177673339844e+01 4.071470737457275391e+00 -5.551342368125915527e-01 -1.369155049324035645e-01 -2.076149284839630127e-01 2.136632949113845825e-01
2.644000000000000000e+03 2.363330078125000000e+01 3.966523647308349609e+00 -5.344163775444030762e-01 -1.204811334609985352e-01 -1.964692622423171997e-01 2.257437705993652344e-01
2.645000000000000000e+03 2.468709373474121094e+01 4.703286647796630859e+00 -2.647545635700225830e-01 -7.056421041488647461e-02 -1.005956307053565979e-01 2.062816470861434937e-01
2.646000000000000000e+03 2.373645210266113281e+01 4.878004074096679688e+00 -2.642667889595031738e-01 -1.367000639438629150e-01 -1.202900558710098267e-01 1.956045627593994141e-01
2.647000000000000000e+03 2.787117958068847656e+01 2.920572280883789062e+00 -7.563173174858093262e-01 2.970266640186309814e-01 -1.377871930599212646e-01 1.652374565601348877e-01
2.648000000000000000e+03 2.637436866760253906e+01 3.930060863494873047e+00 -4.982909858226776123e-01 1.144565269351005554e-01 -1.151503399014472961e-01 2.327926754951477051e-01
2.649000000000000000e+03 1.387749290466308594e+01 5.378248214721679688e+00 -4.577860534191131592e-01 -2.604363262653350830e-01 -2.154667079448699951e-01 5.308896899223327637e-01
2.650000000000000000e+03 1.197063255310058594e+01 -3.305664300918579102e+00 -8.482137322425842285e-02 3.713822690770030022e-03 -2.433226443827152252e-02 -1.320749819278717041e-01
2.651000000000000000e+03 1.341088104248046875e+01 -4.087544441223144531e+00 -1.314470265060663223e-02 5.480086058378219604e-02 1.249684765934944153e-02 -1.094182655215263367e-01
2.652000000000000000e+03 1.152612113952636719e+01 -2.849753141403198242e+00 -7.583217322826385498e-02 -1.688003093004226685e-01 -7.338974624872207642e-02 -1.709838062524795532e-01
2.653000000000000000e+03 1.289348506927490234e+01 -4.747462272644042969e+00 7.073420565575361252e-03 -6.355972588062286377e-02 -1.694589108228683472e-02 -1.087692752480506897e-01
2.654000000000000000e+03 4.482500839233398438e+01 3.372406959533691406e+00 -8.891079425811767578e-01 8.865092992782592773e-01 -7.795975543558597565e-04 -2.278105467557907104e-01
2.655000000000000000e+03 4.511070632934570312e+01 6.354409694671630859e+00 2.690261900424957275e-01 1.920019388198852539e+00 6.567136645317077637e-01 -5.606482028961181641e-01
2.656000000000000000e+03 9.124232292175292969e+00 -3.884675502777099609e+00 -5.552832409739494324e-02 -9.117897599935531616e-02 -4.401219263672828674e-02 -1.397498548030853271e-01
2.657000000000000000e+03 9.964592933654785156e+00 -3.879717350006103516e+00 -2.396206837147474289e-03 -4.480540752410888672e-02 -1.416048407554626465e-02 -1.011698171496391296e-01
2.658000000000000000e+03 3.461689758300781250e+01 -6.077651977539062500e+00 5.537459254264831543e-02 3.424021601676940918e-02 2.688444219529628754e-02 -2.163851857185363770e-01
2.659000000000000000e+03 3.327226257324218750e+01 -5.324479579925537109e+00 9.446953982114791870e-02 -1.868668049573898315e-01 -2.771917916834354401e-02 -3.229722380638122559e-01
2.660000000000000000e+03 4.247335433959960938e+01 5.435001850128173828e+00 -2.446445226669311523e-01 2.294707745313644409e-01 -4.552127793431282043e-03 2.926834225654602051e-01
2.661000000000000000e+03 3.244105911254882812e+01 -5.495087623596191406e+00 5.174700170755386353e-02 -3.124492466449737549e-01 -7.821067422628402710e-02 -2.498440444469451904e-01
2.662000000000000000e+03 5.255244445800781250e+01 3.965943336486816406e+00 -7.951855659484863281e-01 3.959848403930664062e+00 9.493988752365112305e-01 -5.935005545616149902e-01
2.663000000000000000e+03 5.495605468750000000e+01 2.999402523040771484e+00 7.683978080749511719e-01 6.651532649993896484e+00 2.225979089736938477e+00 2.751260519027709961e+00
2.664000000000000000e+03 1.082069301605224609e+01 -3.783727645874023438e+00 -8.465587347745895386e-02 -8.499284833669662476e-02 -5.089461430907249451e-02 -1.781430691480636597e-01
2.665000000000000000e+03 4.100835037231445312e+01 4.761411190032958984e+00 -1.139638125896453857e-01 -6.482192873954772949e-01 -2.286549210548400879e-01 3.624449670314788818e-01
2.666000000000000000e+03 5.451118850708007812e+01 3.642846345901489258e+00 -5.087043642997741699e-01 7.020596027374267578e+00 1.953567504882812500e+00 1.763178586959838867e+00
2.667000000000000000e+03 5.429635620117187500e+01 5.339029788970947266e+00 -2.503596782684326172e+00 6.080364704132080078e+00 1.073030352592468262e+00 1.099128961563110352e+00
2.668000000000000000e+03 4.753039932250976562e+01 4.296926021575927734e+00 -4.249557554721832275e-01 1.369625329971313477e+00 2.834008634090423584e-01 -1.550806641578674316e+00
2.669000000000000000e+03 4.457639694213867188e+01 5.465766429901123047e+00 -1.625088155269622803e-01 1.394186735153198242e+00 3.695033788681030273e-01 -4.464716017246246338e-01
2.670000000000000000e+03 5.001005172729492188e+01 4.466395854949951172e+00 1.211508288979530334e-01 6.703432202339172363e-01 2.374482154846191406e-01 -2.712091684341430664e+00
2.671000000000000000e+03 4.937641906738281250e+01 2.684480428695678711e+00 3.721002936363220215e-01 3.557853400707244873e-01 2.183656841516494751e-01 -1.756280660629272461e+00
2.672000000000000000e+03 5.132954025268554688e+01 4.338767051696777344e+00 -2.344361841678619385e-01 4.986697733402252197e-01 7.927007973194122314e-02 -2.074906349182128906e+00
2.673000000000000000e+03 4.866316604614257812e+01 2.816473484039306641e+00 9.277934581041336060e-02 5.259351134300231934e-01 1.856143474578857422e-01 -1.527101039886474609e+00
2.674000000000000000e+03 4.927925491333007812e+01 4.992571830749511719e+00 -4.116395115852355957e-01 1.470693945884704590e+00 3.177163302898406982e-01 -2.498327255249023438e+00
2.675000000000000000e+03 3.117454719543457031e+01 -5.089683532714843750e+00 7.807258516550064087e-02 -4.706690609455108643e-01 -1.177789419889450073e-01 -1.893155425786972046e-01
2.676000000000000000e+03 1.193618965148925781e+01 6.698487281799316406e+00 -7.183656692504882812e-01 -4.148101210594177246e-01 -3.399527370929718018e-01 3.776434659957885742e-01
2.677000000000000000e+03 1.027980709075927734e+01 6.552027225494384766e+00 -4.866516888141632080e-01 -2.975066304206848145e-01 -2.352474927902221680e-01 2.108859419822692871e-01
2.678000000000000000e+03 2.600849342346191406e+01 5.173358917236328125e+00 -1.006034612655639648e-01 8.027702569961547852e-02 -6.097931414842605591e-03 1.949235349893569946e-01
2.679000000000000000e+03 4.870832824707031250e+01 -1.305891227722167969e+01 -1.103869006037712097e-01 3.532576799392700195e+00 1.026656985282897949e+00 1.208939552307128906e+00
2.680000000000000000e+03 4.854587554931640625e+01 -1.416597747802734375e+01 -9.332559704780578613e-01 3.401365041732788086e+00 7.404327392578125000e-01 1.260957717895507812e+00
2.681000000000000000e+03 6.201150131225585938e+01 -2.832497358322143555e+00 3.329406261444091797e+00 1.112063407897949219e+01 4.335011959075927734e+00 -2.012472391128540039e+00
2.682000000000000000e+03 4.243232727050781250e+01 -2.299365425109863281e+01 8.435257673263549805e-01 1.797443866729736328e+00 7.922908663749694824e-01 1.308562755584716797e+00
2.683000000000000000e+03 3.420021057128906250e+01 -1.302102279663085938e+01 -5.495229363441467285e-01 1.156062483787536621e-01 -1.301750093698501587e-01 2.305563241243362427e-01
2.684000000000000000e+03 5.040938568115234375e+01 2.728875350952148438e+01 1.394068002700805664e+00 4.185233592987060547e+00 1.673790454864501953e+00 -6.348544359207153320e-01
2.685000000000000000e+03 4.014612197875976562e+01 9.201205253601074219e+00 6.348655372858047485e-02 -7.074229717254638672e-01 -1.931809186935424805e-01 1.829884760081768036e-02
2.686000000000000000e+03 4.086816024780273438e+01 -1.499375820159912109e+01 -6.718782782554626465e-01 1.538757830858230591e-01 -1.554007381200790405e-01 -2.972245812416076660e-01
2.687000000000000000e+03 4.163984680175781250e+01 -2.561938095092773438e+01 7.238507866859436035e-01 1.577142238616943359e+00 6.902979016304016113e-01 1.204863309860229492e+00
2.688000000000000000e+03 4.722072601318359375e+01 2.494531440734863281e+01 7.644768357276916504e-01 2.696728467941284180e+00 1.038361549377441406e+00 1.836129724979400635e-01
2.689000000000000000e+03 5.064987182617187500e+01 2.119910812377929688e+01 -9.020931124687194824e-01 3.270933151245117188e+00 7.106519937515258789e-01 -1.665913224220275879e+00
2.690000000000000000e+03 1.108862972259521484e+01 4.108997344970703125e+00 -2.501362860202789307e-01 -1.852965205907821655e-01 -1.306298375129699707e-01 1.681866049766540527e-01
2.691000000000000000e+03 4.820876693725585938e+01 4.464214801788330078e+00 -1.563025861978530884e-01 1.392419457435607910e+00 3.708350658416748047e-01 -1.979166865348815918e+00
2.692000000000000000e+03 4.889760971069335938e+01 4.273982048034667969e+00 -9.866168349981307983e-02 1.196588397026062012e+00 3.293780088424682617e-01 -2.014824628829956055e+00
2.693000000000000000e+03 3.853273010253906250e+01 -2.403770685195922852e+00 -3.928157687187194824e-01 2.337795644998550415e-01 -4.771086573600769043e-02 2.053640969097614288e-02
2.694000000000000000e+03 6.212777328491210938e+01 1.249452710151672363e+00 1.016951560974121094e+00 6.687936782836914062e+00 2.311466455459594727e+00 -9.060364961624145508e-01
2.695000000000000000e+03 6.446969604492187500e+01 -9.431893825531005859e-01 1.773980617523193359e+00 6.187651634216308594e+00 2.388489723205566406e+00 8.665035963058471680e-01
2.696000000000000000e+03 4.828459548950195312e+01 5.378576755523681641e+00 -2.614350318908691406e-01 1.936568140983581543e+00 5.025399327278137207e-01 -1.649257898330688477e+00
2.697000000000000000e+03 4.643786621093750000e+01 4.827401161193847656e+00 -1.923170983791351318e-01 1.663841843605041504e+00 4.414574205875396729e-01 -1.075133323669433594e+00
2.698000000000000000e+03 5.302232360839843750e+01 2.762127161026000977e+00 1.202409937977790833e-01 6.670691967010498047e+00 2.037279844284057617e+00 -4.534542560577392578e-01
2.699000000000000000e+03 5.751580429077148438e+01 2.809077262878417969e+00 1.718590736389160156e+00 4.944038391113281250e+00 1.998788714408874512e+00 -2.619316577911376953e-01
2.700000000000000000e+03 5.913383865356445312e+01 1.439656496047973633e+00 1.833915352821350098e+00 5.981854915618896484e+00 2.344731092453002930e+00 -2.520198822021484375e+00
2.701000000000000000e+03 4.638746643066406250e+01 -4.519271373748779297e+00 7.116424441337585449e-01 -1.283836841583251953e+00 -1.716583073139190674e-01 6.348716467618942261e-02
2.702000000000000000e+03 1.885900688171386719e+01 5.588429450988769531e+00 -1.883529424667358398e-01 7.320478558540344238e-02 -3.454444929957389832e-02 2.647534012794494629e-01
2.703000000000000000e+03 4.959170150756835938e+01 -4.846466064453125000e+00 2.479167938232421875e+00 2.624645233154296875e+00 1.531143903732299805e+00 1.763034105300903320e+00
2.704000000000000000e+03 5.133589935302734375e+01 2.038806152343750000e+01 -9.319417476654052734e-01 3.594035625457763672e+00 7.986281514167785645e-01 -2.029534339904785156e+00
2.705000000000000000e+03 2.107477760314941406e+01 5.555189132690429688e+00 -1.525646448135375977e-01 -1.161281168460845947e-01 -8.060783147811889648e-02 1.538478434085845947e-01
2.706000000000000000e+03 3.569804382324218750e+01 -1.152529907226562500e+01 -2.869752943515777588e-01 5.083274841308593750e-01 6.640565395355224609e-02 7.891535013914108276e-02
2.707000000000000000e+03 3.230783462524414062e+01 2.518326568603515625e+01 2.318924851715564728e-02 9.231131076812744141e-01 2.838907241821289062e-01 1.264585368335247040e-02
2.708000000000000000e+03 3.198297309875488281e+01 -8.113976478576660156e+00 -1.034925058484077454e-01 -2.639785706996917725e-01 -1.102413237094879150e-01 -2.198610603809356689e-01
2.709000000000000000e+03 4.267910766601562500e+01 1.987292480468750000e+01 -4.588825702667236328e-01 9.590712785720825195e-01 1.500566154718399048e-01 3.131208419799804688e-01
2.710000000000000000e+03 3.958726501464843750e+01 1.725754165649414062e+01 2.860858142375946045e-01 4.682190716266632080e-01 2.262914776802062988e-01 -5.644445419311523438e-01
2.711000000000000000e+03 2.668126296997070312e+01 -2.016769790649414062e+01 1.476240009069442749e-01 1.846957504749298096e-01 9.969592094421386719e-02 -7.064410299062728882e-02
2.712000000000000000e+03 2.465806007385253906e+01 -1.754946327209472656e+01 -1.603925079107284546e-01 -2.471879571676254272e-01 -1.222741380333900452e-01 -3.656052052974700928e-01
2.713000000000000000e+03 3.419190979003906250e+01 2.177553558349609375e+01 -1.936297491192817688e-02 1.071895718574523926e+00 3.157598376274108887e-01 -2.103636972606182098e-02
2.714000000000000000e+03 3.618133544921875000e+01 -6.111282825469970703e+00 1.037977188825607300e-01 4.822026193141937256e-01 1.758000999689102173e-01 -9.430760145187377930e-02
2.715000000000000000e+03 3.554837036132812500e+01 -5.386771202087402344e+00 1.522963680326938629e-02 3.404796421527862549e-01 1.067127883434295654e-01 -2.192677259445190430e-01
2.716000000000000000e+03 2.656217956542968750e+01 7.863795757293701172e+00 3.115414083003997803e-01 1.804598420858383179e-01 1.476003825664520264e-01 1.308676600456237793e-01
2.717000000000000000e+03 3.188982200622558594e+01 1.502433681488037109e+01 1.504124253988265991e-01 7.148173451423645020e-01 2.595689296722412109e-01 2.324551194906234741e-01
2.718000000000000000e+03 6.352079772949218750e+01 1.028650104999542236e-01 1.312930107116699219e+00 6.572463035583496094e+00 2.365617990493774414e+00 1.660305559635162354e-01
2.719000000000000000e+03 7.692405700683593750e+01 1.778338432312011719e+01 -2.713507711887359619e-01 7.466520309448242188e+00 2.158550739288330078e+00 1.085605144500732422e+00
2.720000000000000000e+03 3.121254158020019531e+01 -1.363628005981445312e+01 -6.096393465995788574e-01 1.032119691371917725e-01 -1.519282162189483643e-01 1.924290210008621216e-01
2.721000000000000000e+03 4.205397415161132812e+01 1.910823249816894531e+01 -2.224129885435104370e-01 8.423030376434326172e-01 1.859669983386993408e-01 -4.020112752914428711e-02
2.722000000000000000e+03 4.314721679687500000e+01 1.808261489868164062e+01 -4.702387154102325439e-01 1.426412701606750488e+00 2.868521809577941895e-01 -1.410996317863464355e-01
2.723000000000000000e+03 9.316681861877441406e+00 7.191795349121093750e+00 -4.721573889255523682e-01 -2.744632661342620850e-01 -2.239861935377120972e-01 2.432484775781631470e-01
2.724000000000000000e+03 2.763922691345214844e+01 -2.928539848327636719e+01 2.751596570014953613e-01 2.671807706356048584e-01 1.627021282911300659e-01 -2.471035420894622803e-01
2.725000000000000000e+03 3.422816848754882812e+01 1.590397167205810547e+01 4.808854758739471436e-01 3.787170648574829102e-01 2.578807771205902100e-01 -1.255375146865844727e-02
2.726000000000000000e+03 3.772070693969726562e+01 -4.660851478576660156e+00 -2.636196464300155640e-02 5.496556162834167480e-01 1.569880992174148560e-01 1.061090528964996338e-01
2.727000000000000000e+03 3.727798461914062500e+01 -3.044584512710571289e+00 -3.833677172660827637e-01 3.436839580535888672e-01 -1.190512999892234802e-02 -8.186326175928115845e-02
2.728000000000000000e+03 4.235918426513671875e+01 9.163445472717285156e+00 8.053182959556579590e-01 1.243684887886047363e+00 6.147009730339050293e-01 -3.280286490917205811e-01
2.729000000000000000e+03 7.159195709228515625e+01 4.342942714691162109e+00 1.692750304937362671e-02 4.862096309661865234e+00 1.463707089424133301e+00 1.025785565376281738e+00
2.730000000000000000e+03 5.659064102172851562e+01 2.701984405517578125e+00 2.011433601379394531e+00 4.938363552093505859e+00 2.084939241409301758e+00 9.814963936805725098e-01
2.731000000000000000e+03 2.245905876159667969e+01 1.163575458526611328e+01 1.235779970884323120e-01 -3.576922416687011719e-02 2.634263224899768829e-02 1.709476858377456665e-01
2.732000000000000000e+03 2.362907600402832031e+01 1.174373531341552734e+01 2.164188027381896973e-01 -5.726226046681404114e-02 4.774696379899978638e-02 1.344718188047409058e-01
2.733000000000000000e+03 4.954401016235351562e+01 2.497037124633789062e+01 6.454700231552124023e-01 3.467725753784179688e+00 1.233958721160888672e+00 -4.356876313686370850e-01
2.734000000000000000e+03 4.194436645507812500e+01 6.324475288391113281e+00 -8.898565918207168579e-02 1.592367589473724365e-01 2.107533067464828491e-02 3.480174839496612549e-01
2.735000000000000000e+03 7.721756744384765625e+01 1.140133190155029297e+01 6.562782526016235352e-01 6.459100723266601562e+00 2.134613752365112305e+00 -4.576877877116203308e-02
2.736000000000000000e+03 7.720159149169921875e+01 1.250974941253662109e+01 6.333540081977844238e-01 6.603981018066406250e+00 2.171200513839721680e+00 4.089731276035308838e-01
2.737000000000000000e+03 7.726584625244140625e+01 -1.815135765075683594e+01 1.781229823827743530e-01 8.544539451599121094e+00 2.616798877716064453e+00 1.233011841773986816e+00
2.738000000000000000e+03 7.659503936767578125e+01 -1.753309631347656250e+01 7.394641637802124023e-02 8.614589691162109375e+00 2.606560707092285156e+00 1.178534626960754395e+00
2.739000000000000000e+03 7.727686309814453125e+01 -2.010556602478027344e+01 5.283153057098388672e-01 8.445027351379394531e+00 2.692002773284912109e+00 8.209799528121948242e-01
2.740000000000000000e+03 7.514952850341796875e+01 5.223921775817871094e+00 -3.096629977226257324e-01 6.852609157562255859e+00 1.962883949279785156e+00 -6.939939856529235840e-01
2.741000000000000000e+03 7.692003631591796875e+01 1.645104050636291504e+00 -3.551381230354309082e-01 7.152715682983398438e+00 2.039273262023925781e+00 -4.530166685581207275e-01
2.742000000000000000e+03 7.700325012207031250e+01 1.375708580017089844e+01 4.979963600635528564e-01 6.855482578277587891e+00 2.206043720245361328e+00 7.942135334014892578e-01
2.743000000000000000e+03 7.456879425048828125e+01 8.313433647155761719e+00 5.285040736198425293e-01 7.983618259429931641e+00 2.553636789321899414e+00 -5.978674292564392090e-01
2.744000000000000000e+03 7.569997406005859375e+01 -1.748633003234863281e+01 9.857885539531707764e-02 8.427246093750000000e+00 2.557747364044189453e+00 1.045813798904418945e+00
2.745000000000000000e+03 7.337739562988281250e+01 6.076676845550537109e+00 -3.912442028522491455e-01 7.039369106292724609e+00 1.994437456130981445e+00 5.738914385437965393e-02
2.746000000000000000e+03 7.485429382324218750e+01 9.882208824157714844e+00 9.638796448707580566e-01 8.114799499511718750e+00 2.723603725433349609e+00 -4.459327459335327148e-01
2.747000000000000000e+03 7.633676147460937500e+01 1.191533660888671875e+01 9.647167325019836426e-01 7.329824924468994141e+00 2.488362550735473633e+00 2.472570538520812988e-01
2.748000000000000000e+03 7.549345397949218750e+01 -1.661998558044433594e+01 -4.478427469730377197e-01 7.729623317718505859e+00 2.184534072875976562e+00 8.630873560905456543e-01
2.749000000000000000e+03 7.655732727050781250e+01 -1.644216537475585938e+01 -3.238239586353302002e-01 8.462620735168457031e+00 2.441638946533203125e+00 1.147845029830932617e+00
2.750000000000000000e+03 7.453733825683593750e+01 1.759187889099121094e+01 -7.448268532752990723e-01 8.019703865051269531e+00 2.182463169097900391e+00 9.821783304214477539e-01
2.751000000000000000e+03 7.694735717773437500e+01 1.645547866821289062e+01 2.170009166002273560e-02 7.239306926727294922e+00 2.178302049636840820e+00 1.142630577087402344e+00
2.752000000000000000e+03 7.432191467285156250e+01 1.513723945617675781e+01 5.811113119125366211e-01 8.787972450256347656e+00 2.810725212097167969e+00 1.059031724929809570e+00
2.753000000000000000e+03 7.664875030517578125e+01 3.784515261650085449e-01 -5.055633783340454102e-01 7.412243843078613281e+00 2.072004079818725586e+00 -3.578285574913024902e-01
2.754000000000000000e+03 7.566234588623046875e+01 2.188980484008789062e+01 -5.853248238563537598e-01 7.156813144683837891e+00 1.971446514129638672e+00 -5.303345620632171631e-02
2.755000000000000000e+03 7.404335784912109375e+01 1.989977264404296875e+01 -1.536480903625488281e+00 7.339120388031005859e+00 1.740791916847229004e+00 4.305801913142204285e-02
2.756000000000000000e+03 7.619730377197265625e+01 -2.217004966735839844e+01 1.083009481430053711e+00 9.227613449096679688e+00 3.093187093734741211e+00 1.537384390830993652e-01
2.757000000000000000e+03 7.384226989746093750e+01 3.522882461547851562e+01 7.867426425218582153e-02 6.196418762207031250e+00 1.882527947425842285e+00 2.840898334980010986e-01
2.758000000000000000e+03 7.471034240722656250e+01 3.229615402221679688e+01 2.887970805168151855e-01 6.305579662322998047e+00 1.978313088417053223e+00 1.079600602388381958e-01
2.759000000000000000e+03 7.705333709716796875e+01 -2.652789115905761719e+01 -4.671874940395355225e-01 8.319268226623535156e+00 2.355624198913574219e+00 -3.682016432285308838e-01
2.760000000000000000e+03 7.466280364990234375e+01 -2.867831230163574219e+01 -8.418975472450256348e-01 7.087750911712646484e+00 1.873755931854248047e+00 8.704239130020141602e-01
2.761000000000000000e+03 7.593071746826171875e+01 -2.535865020751953125e+01 -3.559561073780059814e-01 8.874381065368652344e+00 2.555527448654174805e+00 -7.127765417098999023e-01
2.762000000000000000e+03 7.727490997314453125e+01 -2.800081825256347656e+01 -3.875764906406402588e-01 8.066940307617187500e+00 2.303809165954589844e+00 -9.277592599391937256e-02
2.763000000000000000e+03 7.410951232910156250e+01 2.812581825256347656e+01 3.806452155113220215e-01 5.972593784332275391e+00 1.905971646308898926e+00 -3.338832557201385498e-01
2.764000000000000000e+03 7.320606231689453125e+01 2.406971549987792969e+01 -3.059284687042236328e-01 5.920844554901123047e+00 1.684474825859069824e+00 -8.637982606887817383e-01
2.765000000000000000e+03 7.677265930175781250e+01 2.732367515563964844e+01 4.803742840886116028e-02 6.969552993774414062e+00 2.105277061462402344e+00 -3.015139997005462646e-01
2.766000000000000000e+03 7.547835540771484375e+01 2.708346939086914062e+01 1.683719605207443237e-01 6.522982597351074219e+00 2.007406473159790039e+00 -3.870044946670532227e-01
2.767000000000000000e+03 7.184083557128906250e+01 -3.480001068115234375e+01 7.551955580711364746e-01 5.340779781341552734e+00 1.828792572021484375e+00 -6.449737548828125000e-01
2.768000000000000000e+03 7.397708129882812500e+01 -3.698292541503906250e+01 1.227298900485038757e-01 6.439068317413330078e+00 1.968539476394653320e+00 -4.145973920822143555e-01
2.769000000000000000e+03 7.573948669433593750e+01 -3.696426010131835938e+01 2.837276458740234375e-02 7.056209087371826172e+00 2.125374555587768555e+00 -2.384296059608459473e-01
2.770000000000000000e+03 7.657558441162109375e+01 3.002255058288574219e+01 1.385698765516281128e-01 6.811542510986328125e+00 2.085033655166625977e+00 -1.331762522459030151e-01
2.771000000000000000e+03 7.538887786865234375e+01 2.839536857604980469e+01 2.005611956119537354e-01 6.429095268249511719e+00 1.988896846771240234e+00 -2.762287855148315430e-01
2.772000000000000000e+03 7.478933715820312500e+01 -2.989893341064453125e+01 -6.859373301267623901e-02 6.663918495178222656e+00 1.978597521781921387e+00 7.201470732688903809e-01
2.773000000000000000e+03 7.645290374755859375e+01 -3.150516891479492188e+01 1.023326218128204346e-01 7.228512287139892578e+00 2.199253559112548828e+00 3.673498332500457764e-01
2.774000000000000000e+03 7.334671020507812500e+01 -3.414324188232421875e+01 6.768239140510559082e-01 5.830191135406494141e+00 1.952104568481445312e+00 -1.309052854776382446e-01
2.775000000000000000e+03 7.119419097900390625e+01 -3.900484085083007812e+01 -3.676924705505371094e-01 5.972764015197753906e+00 1.681521534919738770e+00 -4.913046360015869141e-01
2.776000000000000000e+03 2.265392112731933594e+01 6.579197883605957031e+00 1.665831357240676880e-01 -1.733890175819396973e-01 -2.041763393208384514e-03 1.420694291591644287e-01
2.777000000000000000e+03 3.536827468872070312e+01 -6.851636409759521484e+00 2.131714969873428345e-01 3.603412210941314697e-01 1.720538139343261719e-01 -1.750624328851699829e-01
2.778000000000000000e+03 3.323293304443359375e+01 -8.110900878906250000e+00 1.045674551278352737e-02 -3.976108878850936890e-02 -8.791302330791950226e-03 -1.606240123510360718e-01
2.779000000000000000e+03 4.606876754760742188e+01 -2.516470909118652344e+01 -3.686242997646331787e-01 2.248799324035644531e+00 5.640525221824645996e-01 -4.738481938838958740e-01
2.780000000000000000e+03 4.278504180908203125e+01 -1.925266647338867188e+01 7.122738361358642578e-01 1.779729247093200684e+00 7.476009130477905273e-01 4.844244718551635742e-01
2.781000000000000000e+03 2.698005294799804688e+01 -1.565928554534912109e+01 -4.785369634628295898e-01 -2.022491246461868286e-01 -2.042358219623565674e-01 -2.379570305347442627e-01
2.782000000000000000e+03 2.427894592285156250e+01 -1.535236167907714844e+01 -6.429826021194458008e-01 -3.681004345417022705e-01 -3.033249080181121826e-01 -4.414387941360473633e-01
2.783000000000000000e+03 2.235202789306640625e+01 -1.676616287231445312e+01 -3.822668492794036865e-01 -2.185769975185394287e-01 -1.802531480789184570e-01 -4.819247722625732422e-01
2.784000000000000000e+03 2.759523391723632812e+00 2.271383857727050781e+01 -4.658155143260955811e-03 -5.864461660385131836e-01 -1.773312985897064209e-01 -2.630970440804958344e-02
2.785000000000000000e+03 5.234731674194335938e+00 2.367437934875488281e+01 -8.953490108251571655e-02 -5.823255777359008789e-01 -2.015581429004669189e-01 7.051425427198410034e-02
2.786000000000000000e+03 4.081920146942138672e+00 -1.707517623901367188e+01 -1.073998063802719116e-01 -2.737182974815368652e-01 -1.143354251980781555e-01 -1.370170265436172485e-01
2.787000000000000000e+03 4.658242225646972656e+00 -1.458608722686767578e+01 -9.361431002616882324e-02 -2.880244851112365723e-01 -1.144916340708732605e-01 -9.487660229206085205e-02
2.788000000000000000e+03 4.528380393981933594e+00 2.227804756164550781e+01 -1.049897726625204086e-02 -5.368006825447082520e-01 -1.641898900270462036e-01 3.624787554144859314e-03
2.789000000000000000e+03 3.089096784591674805e+00 1.917414665222167969e+01 6.061623245477676392e-02 -5.228646397590637207e-01 -1.386745274066925049e-01 2.127195335924625397e-02
2.790000000000000000e+03 4.687969684600830078e+00 1.824566650390625000e+01 1.596067547798156738e-01 -4.405724704265594482e-01 -8.428971469402313232e-02 9.772519022226333618e-02
2.791000000000000000e+03 3.502339839935302734e+00 1.770999336242675781e+01 1.084137558937072754e-01 -4.731415212154388428e-01 -1.094183325767517090e-01 9.665904194116592407e-02
2.792000000000000000e+03 6.925986289978027344e+00 1.499813365936279297e+01 2.561944723129272461e-01 -2.293966412544250488e-01 8.039345964789390564e-03 3.471577167510986328e-01
2.793000000000000000e+03 3.117353439331054688e+00 -2.588823890686035156e+01 4.541981499642133713e-03 -2.959039509296417236e-01 -8.740859478712081909e-02 1.512402016669511795e-02
2.794000000000000000e+03 3.036694526672363281e+00 -2.737327575683593750e+01 -1.427630335092544556e-02 -3.122521936893463135e-01 -9.795854240655899048e-02 1.247245445847511292e-02
2.795000000000000000e+03 4.687053680419921875e+00 -2.460982704162597656e+01 6.930095702409744263e-02 -1.723925024271011353e-01 -3.092746250331401825e-02 8.206030353903770447e-03
2.796000000000000000e+03 5.522453308105468750e+00 -2.611483573913574219e+01 -2.329224161803722382e-02 -1.130739897489547729e-01 -4.090986773371696472e-02 -1.235828828066587448e-02
2.797000000000000000e+03 6.113519668579101562e+00 1.603901672363281250e+01 2.542517483234405518e-01 -3.161106109619140625e-01 -1.855765841901302338e-02 2.699531018733978271e-01
2.798000000000000000e+03 2.852067947387695312e+00 1.137709140777587891e+01 -3.307380899786949158e-02 -1.847068369388580322e-01 -6.533419340848922729e-02 2.211526036262512207e-01
2.799000000000000000e+03 3.982104778289794922e+00 3.411962509155273438e+01 1.282758265733718872e-01 -6.466425657272338867e-01 -1.555100083351135254e-01 6.791344285011291504e-02
2.800000000000000000e+03 3.708086013793945312e+00 -9.831496238708496094e+00 1.594203407876193523e-03 -1.158794686198234558e-01 -3.428557887673377991e-02 -1.994935981929302216e-02
2.801000000000000000e+03 2.785777807235717773e+00 -1.131427669525146484e+01 -1.064515113830566406e-02 -1.082125157117843628e-01 -3.565730154514312744e-02 -3.668614430353045464e-03
2.802000000000000000e+03 3.337558984756469727e+00 -3.102801513671875000e+01 -4.181808978319168091e-02 -3.573366701602935791e-01 -1.197464317083358765e-01 -5.986471474170684814e-02
2.803000000000000000e+03 3.933034181594848633e+00 -2.889049339294433594e+01 -5.373939871788024902e-02 -2.853103876113891602e-01 -1.017149314284324646e-01 -3.176333755254745483e-02
2.804000000000000000e+03 6.157793998718261719e+00 1.109820461273193359e+01 -1.434686481952667236e-01 -1.626557111740112305e-01 -9.183730185031890869e-02 3.612719476222991943e-01
2.805000000000000000e+03 6.215709209442138672e+00 -1.096951580047607422e+01 -1.231305208057165146e-02 -2.031580060720443726e-01 -6.464131921529769897e-02 -6.025980040431022644e-02
2.806000000000000000e+03 2.948471784591674805e+00 -1.259394073486328125e+01 -3.352664411067962646e-03 -1.248159781098365784e-01 -3.845059499144554138e-02 -9.281191043555736542e-03
2.807000000000000000e+03 7.052632331848144531e+00 -3.558456039428710938e+01 2.849009260535240173e-02 -3.289929628372192383e-01 -9.015086293220520020e-02 -1.981092244386672974e-01
2.808000000000000000e+03 4.736400604248046875e+00 -3.085738754272460938e+01 -6.703684478998184204e-02 -2.922965586185455322e-01 -1.078000217676162720e-01 -9.669061005115509033e-02
2.809000000000000000e+03 3.336988449096679688e+00 -3.244947814941406250e+01 -2.091846428811550140e-02 -3.917725980281829834e-01 -1.238073185086250305e-01 -8.585301786661148071e-02
2.810000000000000000e+03 5.419801712036132812e+00 -5.700103282928466797e+00 3.757126163691282272e-03 -8.936697244644165039e-02 -2.568295411765575409e-02 -6.307733803987503052e-02
2.811000000000000000e+03 2.747145175933837891e+00 7.484882354736328125e+00 -7.310408353805541992e-02 -9.996864944696426392e-03 -2.493028342723846436e-02 6.933244317770004272e-02
2.812000000000000000e+03 4.441897392272949219e+00 9.743474960327148438e+00 -1.402264535427093506e-01 -1.102767810225486755e-01 -7.515096664428710938e-02 2.398673444986343384e-01
2.813000000000000000e+03 2.468129539489746094e+01 1.258177089691162109e+01 1.513075828552246094e-01 3.299923241138458252e-02 5.529204383492469788e-02 5.831789970397949219e-02
2.814000000000000000e+03 5.235959529876708984e+00 3.859613418579101562e+01 1.491628237999975681e-03 -4.272477924823760986e-01 -1.277268528938293457e-01 -1.901776902377605438e-02
2.815000000000000000e+03 3.494027853012084961e+00 3.762506866455078125e+01 4.675822332501411438e-02 -7.670713067054748535e-01 -2.160939276218414307e-01 -7.203124929219484329e-03
2.816000000000000000e+03 1.323446369171142578e+01 2.044709968566894531e+01 1.614831835031509399e-01 2.602114975452423096e-01 1.265083998441696167e-01 5.313283205032348633e-01
2.817000000000000000e+03 4.933174896240234375e+01 -2.856695938110351562e+01 4.089175760746002197e-01 2.167632818222045898e+00 7.729650735855102539e-01 -1.024818897247314453e+00
2.818000000000000000e+03 5.051492309570312500e+01 -2.936444854736328125e+01 8.260568380355834961e-01 2.855486392974853516e+00 1.104462981224060059e+00 -3.298758864402770996e-01
2.819000000000000000e+03 2.876994132995605469e+01 -1.353354644775390625e+01 -7.820556163787841797e-01 -2.090779244899749756e-01 -2.973400652408599854e-01 -2.188347727060317993e-01
2.820000000000000000e+03 2.743516921997070312e+01 -1.457209968566894531e+01 -6.801810860633850098e-01 -2.137603014707565308e-01 -2.681824266910552979e-01 -2.867482602596282959e-01
2.821000000000000000e+03 7.548823547363281250e+01 1.258492946624755859e+01 1.092815637588500977e+00 7.832526206970214844e+00 2.677602529525756836e+00 5.268486738204956055e-01
2.822000000000000000e+03 3.582070159912109375e+01 -1.036805629730224609e+01 -7.102901488542556763e-02 5.056672096252441406e-01 1.303914636373519897e-01 1.398126929998397827e-01
2.823000000000000000e+03 3.387151718139648438e+01 -8.454055786132812500e+00 -2.122277580201625824e-02 1.273869816213846207e-02 -2.545223338529467583e-03 -1.434539258480072021e-01
2.824000000000000000e+03 8.879644393920898438e+00 3.689496612548828125e+01 9.929357469081878662e-02 3.517301753163337708e-02 4.033997654914855957e-02 6.936299800872802734e-02
2.825000000000000000e+03 6.707651519775390625e+01 2.806898117065429688e+01 1.661667704582214355e+00 4.760742664337158203e+00 1.926723122596740723e+00 9.100356101989746094e-01
2.826000000000000000e+03 6.678662109375000000e+01 2.533634185791015625e+01 1.447714328765869141e+00 3.445186376571655273e+00 1.467870235443115234e+00 4.604655504226684570e-01
2.827000000000000000e+03 1.110713672637939453e+01 1.850831604003906250e+01 4.031016826629638672e-01 3.357498943805694580e-01 2.216554731130599976e-01 3.342395126819610596e-01
2.828000000000000000e+03 1.189391803741455078e+01 1.945580863952636719e+01 2.847925126552581787e-01 3.229264020919799805e-01 1.823156774044036865e-01 3.948886692523956299e-01
2.829000000000000000e+03 5.976013565063476562e+01 2.106307411193847656e+01 -1.025514841079711914e+00 3.898756980895996094e+00 8.619726300239562988e-01 1.641610026359558105e+00
2.830000000000000000e+03 2.626039314270019531e+01 8.827555656433105469e+00 4.059731364250183105e-01 1.672999560832977295e-01 1.719819307327270508e-01 1.050723716616630554e-01
2.831000000000000000e+03 6.593246459960937500e+01 3.116563558578491211e+00 9.357414245605468750e-01 2.447365045547485352e+00 1.014931917190551758e+00 1.184343457221984863e+00
2.832000000000000000e+03 6.644767761230468750e+01 4.367869377136230469e+00 3.655696511268615723e-01 1.117303252220153809e+00 4.448618888854980469e-01 1.678789615631103516e+00
2.833000000000000000e+03 5.732162475585937500e+01 1.012087917327880859e+01 1.065699696540832520e+00 8.189000129699707031e+00 2.776409864425659180e+00 -3.166476264595985413e-02
2.834000000000000000e+03 4.488152694702148438e+01 -2.181171417236328125e+01 1.098473429679870605e+00 3.161720037460327148e+00 1.278058052062988281e+00 8.850266337394714355e-01
2.835000000000000000e+03 4.536732101440429688e+01 -2.042654037475585938e+01 1.433430314064025879e+00 4.117506027221679688e+00 1.665280818939208984e+00 7.460463047027587891e-01
2.836000000000000000e+03 2.456465339660644531e+01 -2.232610130310058594e+01 2.342577427625656128e-01 1.148360446095466614e-01 1.047281324863433838e-01 -1.216368451714515686e-01
2.837000000000000000e+03 5.756388092041015625e+01 -2.210663795471191406e+01 1.789510250091552734e+00 4.547675132751464844e+00 1.901155591011047363e+00 9.128571152687072754e-01
2.838000000000000000e+03 6.690856933593750000e+01 2.417055702209472656e+01 8.644030094146728516e-01 2.874951839447021484e+00 1.121806502342224121e+00 3.220442235469818115e-01
2.839000000000000000e+03 6.613275909423828125e+01 2.165135574340820312e+01 -1.150044083595275879e+00 3.349757194519042969e-01 -2.445205152034759521e-01 9.491080641746520996e-01
2.840000000000000000e+03 6.042993164062500000e+01 -2.491038322448730469e+01 -2.137679792940616608e-02 1.533282876014709473e+00 4.535718262195587158e-01 1.288330078125000000e+00
2.841000000000000000e+03 4.337662506103515625e+01 -2.461655807495117188e+01 6.623239517211914062e-01 1.516359329223632812e+00 6.536049842834472656e-01 1.018386363983154297e+00
2.842000000000000000e+03 1.664503288269042969e+01 -1.440802764892578125e+01 -2.012428455054759979e-02 3.545278310775756836e-01 1.003210619091987610e-01 -9.851238131523132324e-02
2.843000000000000000e+03 8.202750205993652344e+00 1.025617790222167969e+01 -3.267277181148529053e-01 -2.472161799669265747e-01 -1.721831709146499634e-01 3.302947580814361572e-01
2.844000000000000000e+03 7.406732082366943359e+00 1.168347072601318359e+01 -1.187521442770957947e-01 -1.909368485212326050e-01 -9.290669858455657959e-02 4.108418822288513184e-01
2.845000000000000000e+03 7.467887878417968750e+01 -1.836432838439941406e+01 3.770333230495452881e-01 8.638673782348632812e+00 2.704711914062500000e+00 4.438203275203704834e-01
2.846000000000000000e+03 2.245594406127929688e+01 -2.420949172973632812e+01 2.731252908706665039e-01 1.269007772207260132e-01 1.200078204274177551e-01 -1.766598373651504517e-01
2.847000000000000000e+03 1.406703376770019531e+01 -1.132017040252685547e+01 -2.497949451208114624e-02 2.286635637283325195e-01 6.110522150993347168e-02 -7.594553381204605103e-02
2.848000000000000000e+03 7.373683166503906250e+01 7.749902725219726562e+00 2.293631732463836670e-01 8.099828720092773438e+00 2.498757600784301758e+00 -1.550966501235961914e-01
2.849000000000000000e+03 6.453742980957031250e+01 2.471888160705566406e+01 9.092602133750915527e-01 5.046393871307373047e+00 1.786696195602416992e+00 1.731364607810974121e+00
2.850000000000000000e+03 2.972273826599121094e+01 3.153999328613281250e+01 3.620132505893707275e-01 4.396909773349761963e-01 2.405112683773040771e-01 -3.829075023531913757e-02
2.851000000000000000e+03 3.056344223022460938e+01 3.039089202880859375e+01 3.555980920791625977e-01 4.915131330490112305e-01 2.541333734989166260e-01 -1.506567746400833130e-01
2.852000000000000000e+03 3.710492324829101562e+01 -3.068102264404296875e+01 8.798929452896118164e-01 1.673456192016601562e+00 7.660047411918640137e-01 5.919734835624694824e-01
2.853000000000000000e+03 3.744464874267578125e+01 -2.963033103942871094e+01 6.000407934188842773e-01 1.694527268409729004e+00 6.883704066276550293e-01 6.935737133026123047e-01
2.854000000000000000e+03 6.921592712402343750e+01 -3.070800018310546875e+01 2.037687540054321289e+00 3.789595365524291992e+00 1.748184919357299805e+00 -9.934222698211669922e-01
2.855000000000000000e+03 5.165082931518554688e+01 -3.129871559143066406e+01 1.525031089782714844e+00 3.919589281082153320e+00 1.633386135101318359e+00 2.289030998945236206e-01
2.856000000000000000e+03 1.189913177490234375e+01 -2.709630584716796875e+01 -2.791726589202880859e-02 -3.273350596427917480e-01 -1.065756902098655701e-01 -2.261790335178375244e-01
2.857000000000000000e+03 1.279400634765625000e+01 -2.753588676452636719e+01 -4.905319586396217346e-02 -3.789723217487335205e-01 -1.284076571464538574e-01 -2.261479347944259644e-01
2.858000000000000000e+03 6.350549697875976562e+01 2.253403472900390625e+01 -1.696986198425292969e+00 5.140677452087402344e+00 1.033107399940490723e+00 3.206949710845947266e+00
2.859000000000000000e+03 6.463887023925781250e+01 2.375819206237792969e+01 6.638706475496292114e-02 4.442266464233398438e+00 1.352596163749694824e+00 1.702758312225341797e+00
2.860000000000000000e+03 3.585504913330078125e+01 1.990739250183105469e+01 1.094840690493583679e-01 7.123435735702514648e-01 2.465482950210571289e-01 -2.493906915187835693e-01
2.861000000000000000e+03 3.469814682006835938e+01 1.843185615539550781e+01 2.624589502811431885e-01 6.466650366783142090e-01 2.727372050285339355e-01 -9.296233206987380981e-02
2.862000000000000000e+03 5.951842117309570312e+01 -1.298968601226806641e+01 -1.455468416213989258e+00 4.379836082458496094e+00 8.773102760314941406e-01 1.592604756355285645e+00
2.863000000000000000e+03 6.008346176147460938e+01 -1.178677463531494141e+01 -2.039391994476318359e+00 5.468791961669921875e+00 1.028819918632507324e+00 2.334316968917846680e+00
2.864000000000000000e+03 3.052800559997558594e+01 -9.960573196411132812e+00 -5.318862199783325195e-01 -5.718938708305358887e-01 -3.311340510845184326e-01 -2.840343117713928223e-01
2.865000000000000000e+03 3.000844955444335938e+01 -1.262033462524414062e+01 -7.190980315208435059e-01 -1.663379967212677002e-01 -2.656308114528656006e-01 -1.127990242093801498e-02
2.866000000000000000e+03 5.135775756835937500e+01 -7.266036033630371094e+00 1.280215829610824585e-01 8.037625312805175781e+00 2.449694156646728516e+00 2.431093931198120117e+00
2.867000000000000000e+03 5.031489562988281250e+01 -5.995434761047363281e+00 1.847776770591735840e+00 5.678640842437744141e+00 2.257925271987915039e+00 3.086501598358154297e+00
2.868000000000000000e+03 1.520489978790283203e+01 -6.434679985046386719e+00 1.302852630615234375e-01 2.681094408035278320e-01 1.195184066891670227e-01 -5.100560933351516724e-02
2.869000000000000000e+03 1.336773014068603516e+01 -8.187765121459960938e+00 4.976221174001693726e-02 1.445344984531402588e-01 5.828901380300521851e-02 -8.652019500732421875e-02
2.870000000000000000e+03 7.082942962646484375e+01 2.131510353088378906e+01 -1.565699934959411621e+00 4.551053524017333984e+00 8.956061601638793945e-01 -1.188943862915039062e+00
2.871000000000000000e+03 7.188687133789062500e+01 2.216454696655273438e+01 -1.300347685813903809e+00 5.616626262664794922e+00 1.294883608818054199e+00 -1.163504481315612793e+00
2.872000000000000000e+03 1.883495903015136719e+01 -2.133594703674316406e+01 -2.276014089584350586e-01 8.190710097551345825e-03 -6.582320481538772583e-02 -3.818362653255462646e-01
2.873000000000000000e+03 1.783094978332519531e+01 -2.054010963439941406e+01 -3.870957195758819580e-01 -7.640168070793151855e-02 -1.390492171049118042e-01 -5.194078087806701660e-01
2.874000000000000000e+03 1.146881675720214844e+01 -9.683073997497558594e+00 1.181229855865240097e-02 3.686720505356788635e-02 1.460385136306285858e-02 -1.363372653722763062e-01
2.875000000000000000e+03 1.009294223785400391e+01 -2.698309326171875000e+01 -8.586354553699493408e-02 -1.719891279935836792e-01 -7.735580205917358398e-02 -2.012209892272949219e-01
2.876000000000000000e+03 1.124333381652832031e+01 -2.796041297912597656e+01 -1.097662448883056641e-01 -2.619964182376861572e-01 -1.115287914872169495e-01 -2.027818411588668823e-01
2.877000000000000000e+03 5.939942169189453125e+01 1.372468185424804688e+01 1.503484487533569336e+00 9.845986366271972656e+00 3.404841423034667969e+00 3.270476758480072021e-01
2.878000000000000000e+03 2.953717994689941406e+01 -3.357524871826171875e+01 2.844999730587005615e-01 4.249473810195922852e-01 2.128342092037200928e-01 -4.031094163656234741e-02
2.879000000000000000e+03 3.041014671325683594e+01 -3.193114852905273438e+01 4.015483260154724121e-01 4.077035188674926758e-01 2.427755594253540039e-01 -1.675607562065124512e-01
2.880000000000000000e+03 5.712750625610351562e+01 -1.580381965637207031e+01 -7.272170782089233398e-01 4.094060897827148438e+00 1.010053038597106934e+00 3.228636085987091064e-02
2.881000000000000000e+03 5.751010894775390625e+01 -1.172306156158447266e+01 -1.192812561988830566e+00 8.106460571289062500e-01 -1.146499440073966980e-01 5.296527147293090820e-01
2.882000000000000000e+03 5.279511642456054688e+01 -2.738772583007812500e+01 -2.342374771833419800e-01 2.734402894973754883e+00 7.500496506690979004e-01 1.218182206153869629e+00
2.883000000000000000e+03 1.595594501495361328e+01 -1.206152629852294922e+01 -4.437351226806640625e-02 2.707725763320922852e-01 6.791971623897552490e-02 -9.159127250313758850e-03
2.884000000000000000e+03 5.544987487792968750e+01 5.199563503265380859e+00 -1.675650954246520996e+00 7.015949249267578125e+00 1.602089524269104004e+00 1.027606964111328125e+00
2.885000000000000000e+03 5.818910598754882812e+01 7.299636840820312500e+00 -9.798742532730102539e-01 8.111874580383300781e+00 2.139600038528442383e+00 -7.139768600463867188e-01
2.886000000000000000e+03 6.426785278320312500e+01 -9.080396652221679688e+00 1.587765693664550781e+00 9.475857734680175781e+00 3.319087028503417969e+00 -1.039142847061157227e+00
2.887000000000000000e+03 6.370869827270507812e+01 -1.514620971679687500e+01 -2.635432720184326172e+00 6.963997840881347656e+00 1.298569560050964355e+00 9.000844359397888184e-01
2.888000000000000000e+03 5.557343006134033203e+00 -1.009409999847412109e+01 1.272542309015989304e-02 -1.465892791748046875e-01 -4.015915468335151672e-02 -4.952374845743179321e-02
2.889000000000000000e+03 5.000999832153320312e+01 -2.709011077880859375e+01 -6.016887426376342773e-01 1.411917567253112793e+00 2.430686503648757935e-01 -1.092577934265136719e+00
2.890000000000000000e+03 7.175041961669921875e+01 6.944786548614501953e+00 -2.221563458442687988e-01 6.933382034301757812e+00 2.013367652893066406e+00 1.131700277328491211e+00
2.891000000000000000e+03 6.862649536132812500e+01 3.025599241256713867e+00 9.428803920745849609e-01 2.115262746810913086e+00 9.174429178237915039e-01 2.278090953826904297e+00
2.892000000000000000e+03 5.435248184204101562e+01 1.783771514892578125e+01 5.935655236244201660e-01 5.086463928222656250e+00 1.704008817672729492e+00 -2.193477392196655273e+00
2.893000000000000000e+03 6.108197021484375000e+01 -1.246977901458740234e+01 -1.999517679214477539e+00 6.526662826538085938e+00 1.358143568038940430e+00 1.604880928993225098e+00
2.894000000000000000e+03 1.437093544006347656e+01 -2.664171981811523438e+01 3.991205617785453796e-02 -4.511709213256835938e-01 -1.233776584267616272e-01 -2.330300062894821167e-01
2.895000000000000000e+03 7.436215972900390625e+01 2.418448448181152344e+01 -4.021195173263549805e-01 6.360402107238769531e+00 1.787484765052795410e+00 -5.405076146125793457e-01
2.896000000000000000e+03 6.170963287353515625e+01 5.764107227325439453e+00 -1.409715414047241211e+00 5.673411846160888672e+00 1.279108881950378418e+00 -1.380277395248413086e+00
2.897000000000000000e+03 5.274678802490234375e+01 -1.063300132751464844e+01 -1.086114287376403809e+00 3.530181646347045898e+00 7.332202196121215820e-01 -2.960468232631683350e-01
2.898000000000000000e+03 5.509376144409179688e+01 -1.192710781097412109e+01 -1.229867339134216309e+00 1.787896037101745605e+00 1.674086451530456543e-01 -1.494016647338867188e+00
2.899000000000000000e+03 5.374057769775390625e+01 -2.809943389892578125e+01 -1.184706762433052063e-01 3.898771524429321289e+00 1.134090304374694824e+00 1.277761936187744141e+00
2.900000000000000000e+03 5.652056503295898438e+01 -2.567297554016113281e+01 -1.286122918128967285e+00 5.917217731475830078e+00 1.389328479766845703e+00 1.664191484451293945e+00
2.901000000000000000e+03 2.699806976318359375e+01 3.150074005126953125e+01 3.718472421169281006e-01 4.216038584709167480e-01 2.380353361368179321e-01 2.446869760751724243e-01
2.902000000000000000e+03 2.206313133239746094e+01 3.383420181274414062e+01 5.486378446221351624e-02 1.476929038763046265e-01 6.076700612902641296e-02 -3.676849603652954102e-02
2.903000000000000000e+03 4.940251541137695312e+01 3.090586853027343750e+01 9.895956516265869141e-01 3.926851987838745117e+00 1.474934339523315430e+00 -8.665640354156494141e-01
2.904000000000000000e+03 5.035506439208984375e+01 -1.396002388000488281e+01 -6.611606478691101074e-01 1.869340419769287109e+00 3.624539375305175781e-01 5.114883184432983398e-01
2.905000000000000000e+03 4.548564147949218750e+01 3.509186935424804688e+01 9.791176021099090576e-02 2.527516841888427734e+00 7.876285910606384277e-01 -8.635686039924621582e-01
2.906000000000000000e+03 8.372523307800292969e+00 7.776051044464111328e+00 -3.850820958614349365e-01 -2.376597374677658081e-01 -1.868225485086441040e-01 2.113035768270492554e-01
2.907000000000000000e+03 7.773267269134521484e+00 -2.452120018005371094e+01 2.965224348008632660e-02 3.673528879880905151e-02 1.991626061499118805e-02 -8.814828097820281982e-02
2.908000000000000000e+03 1.538258266448974609e+01 -2.425343322753906250e+01 9.180885553359985352e-02 -4.860807359218597412e-01 -1.182815581560134888e-01 -3.063857853412628174e-01
2.909000000000000000e+03 7.564930725097656250e+01 4.073246002197265625e+01 -7.186762988567352295e-02 7.025128364562988281e+00 2.085978269577026367e+00 1.793249994516372681e-01
2.910000000000000000e+03 3.118936061859130859e+00 3.088236999511718750e+01 4.436769708991050720e-02 -7.439520955085754395e-01 -2.098753154277801514e-01 2.131907194852828979e-01
2.911000000000000000e+03 5.762392425537109375e+01 3.737314462661743164e+00 2.075526863336563110e-01 6.394710063934326172e+00 1.980678796768188477e+00 -1.400313675403594971e-01
2.912000000000000000e+03 5.697890853881835938e+01 7.471536636352539062e+00 -8.429796695709228516e-01 8.203524589538574219e+00 2.208163499832153320e+00 -1.816728264093399048e-01
2.913000000000000000e+03 2.281393241882324219e+01 1.485278224945068359e+01 -1.470387876033782959e-01 2.661550603806972504e-02 -3.612698614597320557e-02 5.021388828754425049e-02
2.914000000000000000e+03 2.077209854125976562e+01 3.368784713745117188e+01 9.603801183402538300e-03 -2.682017162442207336e-02 -5.164911039173603058e-03 -3.645023703575134277e-02
2.915000000000000000e+03 2.059865379333496094e+01 3.506681823730468750e+01 1.207571998238563538e-01 1.853810809552669525e-02 4.178859293460845947e-02 -3.456620266661047935e-03
2.916000000000000000e+03 5.055329895019531250e+01 3.099165725708007812e+01 9.594482183456420898e-01 4.410231590270996094e+00 1.610903978347778320e+00 -6.909792423248291016e-01
2.917000000000000000e+03 5.112431716918945312e+01 3.486019134521484375e+01 -4.271265566349029541e-01 3.963091850280761719e+00 1.060789585113525391e+00 -4.262770116329193115e-01
2.918000000000000000e+03 1.426802062988281250e+01 -7.337650775909423828e+00 1.019464805722236633e-02 6.669443100690841675e-02 2.306672558188438416e-02 -1.566427201032638550e-02
2.919000000000000000e+03 5.169475555419921875e+01 -9.921776771545410156e+00 -6.534861326217651367e-01 4.514154911041259766e+00 1.158200621604919434e+00 9.963275790214538574e-01
2.920000000000000000e+03 6.770883941650390625e+01 -1.487512874603271484e+01 -1.538291573524475098e+00 9.987154603004455566e-01 -1.618728488683700562e-01 -1.081754684448242188e+00
2.921000000000000000e+03 6.879669189453125000e+01 -1.431645393371582031e+01 -9.380685687065124512e-01 6.438005566596984863e-01 -8.828040212392807007e-02 -2.353377819061279297e+00
2.922000000000000000e+03 7.263145446777343750e+01 2.131163024902343750e+01 -1.494118928909301758e+00 6.252012252807617188e+00 1.427367925643920898e+00 -6.015525460243225098e-01
2.923000000000000000e+03 5.527049255371093750e+01 1.672440910339355469e+01 1.343671321868896484e+00 5.647519111633300781e+00 2.097357273101806641e+00 -1.568585634231567383e+00
2.924000000000000000e+03 5.681255722045898438e+01 1.656673049926757812e+01 1.709736704826354980e+00 6.057519912719726562e+00 2.330177068710327148e+00 -6.588354110717773438e-01
2.925000000000000000e+03 2.404403114318847656e+01 -2.643956947326660156e+01 4.102189242839813232e-01 1.532896608114242554e-01 1.690525710582733154e-01 -1.552543193101882935e-01
2.926000000000000000e+03 2.490949821472167969e+01 -2.736996269226074219e+01 3.833002448081970215e-01 2.081173956394195557e-01 1.774252951145172119e-01 -1.973205059766769409e-01
2.927000000000000000e+03 6.666732788085937500e+01 3.824566650390625000e+01 -6.734903454780578613e-01 4.724256038665771484e+00 1.215229749679565430e+00 7.797580212354660034e-02
2.928000000000000000e+03 6.192208480834960938e+01 4.114471435546875000e+01 -1.284484118223190308e-01 2.196149826049804688e+00 6.203104257583618164e-01 -1.542403101921081543e-01
2.929000000000000000e+03 3.721598434448242188e+01 -3.818216323852539062e+01 -2.261908948421478271e-01 1.624265909194946289e+00 4.194225072860717773e-01 2.028059959411621094e-01
2.930000000000000000e+03 1.244364452362060547e+01 -9.010931015014648438e+00 -1.133141014724969864e-02 2.674992382526397705e-02 4.625554196536540985e-03 -7.590912282466888428e-02
2.931000000000000000e+03 3.846706771850585938e+01 1.933750152587890625e+01 1.552991271018981934e-01 3.977857828140258789e-01 1.659254729747772217e-01 -4.866085648536682129e-01
2.932000000000000000e+03 3.707768249511718750e+01 2.028104400634765625e+01 9.754297137260437012e-02 5.783672928810119629e-01 2.027730792760848999e-01 -3.611229062080383301e-01
2.933000000000000000e+03 6.823804473876953125e+01 2.862931823730468750e+01 1.431614398956298828e+00 4.324350833892822266e+00 1.726789593696594238e+00 5.423234105110168457e-01
2.934000000000000000e+03 6.904331970214843750e+01 2.954810142517089844e+01 1.146051049232482910e+00 4.819348812103271484e+00 1.789619922637939453e+00 4.678546488285064697e-01
2.935000000000000000e+03 6.824448394775390625e+01 -3.031149101257324219e+01 1.970058679580688477e+00 4.687431335449218750e+00 1.997246980667114258e+00 -1.384882926940917969e+00
2.936000000000000000e+03 1.383657741546630859e+01 -3.397034883499145508e+00 -1.739309541881084442e-02 -3.945829719305038452e-02 -1.705541834235191345e-02 -7.015006989240646362e-02
2.937000000000000000e+03 6.432351684570312500e+01 -1.171988296508789062e+01 -1.258311629295349121e+00 7.845043659210205078e+00 1.976019501686096191e+00 3.449575901031494141e-01
2.938000000000000000e+03 5.615946769714355469e+00 -1.271152114868164062e+01 -6.199746206402778625e-02 -2.366768717765808105e-01 -8.960229903459548950e-02 -7.693552970886230469e-02
2.939000000000000000e+03 5.201699733734130859e+00 -1.163676548004150391e+01 -1.476615294814109802e-02 -1.723544746637344360e-01 -5.613618716597557068e-02 -4.500407353043556213e-02
2.940000000000000000e+03 3.485565185546875000e+01 1.480399990081787109e+01 3.224469721317291260e-01 9.968295693397521973e-02 1.266389787197113037e-01 -4.117562621831893921e-02
2.941000000000000000e+03 4.176162719726562500e+01 -1.882723045349121094e+01 5.424658060073852539e-01 1.036794900894165039e+00 4.737782180309295654e-01 2.248141020536422729e-01
2.942000000000000000e+03 7.477219390869140625e+01 -1.562954616546630859e+01 -7.051594257354736328e-01 6.527482032775878906e+00 1.746696829795837402e+00 5.243260264396667480e-01
2.943000000000000000e+03 2.741466522216796875e+01 -1.772272300720214844e+01 -4.073764383792877197e-02 -2.623560838401317596e-02 -2.009197510778903961e-02 -1.068009287118911743e-01
2.944000000000000000e+03 2.789990997314453125e+01 -1.654289817810058594e+01 -1.597879528999328613e-01 -1.847542636096477509e-02 -5.347901210188865662e-02 -8.790720999240875244e-02
2.945000000000000000e+03 1.798010444641113281e+01 2.071606636047363281e+01 2.081507593393325806e-01 9.296796470880508423e-02 9.033561497926712036e-02 1.590173840522766113e-01
2.946000000000000000e+03 4.499616622924804688e+01 4.257173538208007812e+00 -5.331649780273437500e-01 1.094771146774291992e+00 1.684818416833877563e-01 -4.146289229393005371e-01
2.947000000000000000e+03 4.588853836059570312e+01 5.654233932495117188e+00 -4.241970181465148926e-02 2.022394895553588867e+00 5.939925312995910645e-01 -9.070979356765747070e-01
2.948000000000000000e+03 1.625933456420898438e+01 4.099720382690429688e+01 1.328430473804473877e-01 -1.124694570899009705e-02 3.647882863879203796e-02 3.328837081789970398e-02
2.949000000000000000e+03 2.643004226684570312e+01 -2.739069747924804688e+01 3.301473259925842285e-01 2.707110345363616943e-01 1.802575141191482544e-01 -1.958877146244049072e-01
2.950000000000000000e+03 7.183347225189208984e+00 -3.088474082946777344e+01 -1.123764067888259888e-01 -2.107172757387161255e-01 -9.692810475826263428e-02 -1.610372960567474365e-01
2.951000000000000000e+03 8.742786407470703125e+00 -3.554726409912109375e+01 5.057197809219360352e-02 -2.716675996780395508e-01 -6.632868200540542603e-02 -2.253347635269165039e-01
2.952000000000000000e+03 1.225126361846923828e+01 -2.595617485046386719e+01 1.668250001966953278e-02 -3.366106152534484863e-01 -9.597843885421752930e-02 -2.741292119026184082e-01
2.953000000000000000e+03 1.013164997100830078e+01 -2.572120475769042969e+01 -1.011880859732627869e-02 -1.314172297716140747e-01 -4.246081411838531494e-02 -2.391700446605682373e-01
2.954000000000000000e+03 5.197293472290039062e+01 2.115249252319335938e+01 -1.206169605255126953e+00 4.380212306976318359e+00 9.522128105163574219e-01 -2.130857706069946289e+00
2.955000000000000000e+03 2.315727806091308594e+01 -2.002288436889648438e+01 1.719975657761096954e-02 -4.415705427527427673e-02 -8.087188936769962311e-03 -3.405715823173522949e-01
2.956000000000000000e+03 6.722614288330078125e+01 -3.156774139404296875e+01 2.142873525619506836e+00 6.502026557922363281e+00 2.593470096588134766e+00 -2.217511653900146484e+00
2.957000000000000000e+03 6.840612030029296875e+01 -3.133052635192871094e+01 2.011602878570556641e+00 4.857792854309082031e+00 2.060818672180175781e+00 -1.247302174568176270e+00
2.958000000000000000e+03 5.353763961791992188e+01 2.286013793945312500e+01 -1.556878566741943359e+00 5.416176795959472656e+00 1.157789468765258789e+00 -1.904819726943969727e+00
2.959000000000000000e+03 5.544887924194335938e+01 2.140252685546875000e+01 -1.853926777839660645e+00 4.233671665191650391e+00 7.139233946800231934e-01 -2.708342313766479492e+00
2.960000000000000000e+03 4.865032196044921875e+01 2.859165954589843750e+01 1.194559454917907715e+00 3.682812929153442383e+00 1.463211655616760254e+00 -6.564487218856811523e-01
2.961000000000000000e+03 4.857329559326171875e+01 2.753935241699218750e+01 1.144074916839599609e+00 3.450694799423217773e+00 1.378430843353271484e+00 -5.011885762214660645e-01
2.962000000000000000e+03 4.123090744018554688e+01 1.626048660278320312e+01 2.263963371515274048e-01 9.255652427673339844e-01 3.455884754657745361e-01 -7.196595072746276855e-01
2.963000000000000000e+03 5.720732879638671875e+01 1.136793613433837891e+01 1.449867606163024902e+00 8.718209266662597656e+00 3.050423145294189453e+00 1.050644069910049438e-01
2.964000000000000000e+03 2.274892997741699219e+01 1.063677024841308594e+01 3.294053077697753906e-01 -1.129906550049781799e-01 6.492439657449722290e-02 1.950199455022811890e-01
2.965000000000000000e+03 2.277712821960449219e+01 9.573645591735839844e+00 3.264157474040985107e-01 -1.383631974458694458e-01 5.641576647758483887e-02 1.941777467727661133e-01
2.966000000000000000e+03 1.372198486328125000e+01 -2.502549552917480469e+01 5.460160970687866211e-02 -4.465585350990295410e-01 -1.175870820879936218e-01 -2.995740473270416260e-01
2.967000000000000000e+03 1.128484344482421875e+01 -3.009711837768554688e+01 -1.788578629493713379e-01 -2.839277982711791992e-01 -1.388356983661651611e-01 -2.008342742919921875e-01
2.968000000000000000e+03 6.008678913116455078e+00 -3.232668685913085938e+01 -7.256214320659637451e-02 -2.763077616691589355e-01 -1.046609729528427124e-01 -1.525021344423294067e-01
2.969000000000000000e+03 2.615341186523437500e+01 -2.126462554931640625e+01 2.129165828227996826e-01 1.693915426731109619e-01 1.146924346685409546e-01 -7.727232575416564941e-02
2.970000000000000000e+03 5.506130599975585938e+01 -1.437340259552001953e+01 -1.138466715812683105e+00 2.720446825027465820e+00 4.745940268039703369e-01 -1.121715426445007324e+00
2.971000000000000000e+03 5.609961318969726562e+01 -1.504756736755371094e+01 -8.308098316192626953e-01 3.361703872680664062e+00 7.592682242393493652e-01 -7.023108005523681641e-01
2.972000000000000000e+03 2.563226509094238281e+01 9.798142433166503906e+00 3.314508795738220215e-01 7.671219855546951294e-02 1.224489212036132812e-01 1.192175894975662231e-01
2.973000000000000000e+03 7.739398002624511719e+00 1.257466793060302734e+01 -2.175497077405452728e-02 -2.200098782777786255e-01 -7.252945750951766968e-02 4.347721934318542480e-01
2.974000000000000000e+03 4.997854232788085938e+00 1.538875198364257812e+01 1.649108082056045532e-01 -3.324593603610992432e-01 -5.026456341147422791e-02 2.751795947551727295e-01
2.975000000000000000e+03 3.535046005249023438e+01 1.363507461547851562e+01 2.221551537513732910e-01 -8.848530799150466919e-02 4.010095074772834778e-02 -9.357850067317485809e-03
2.976000000000000000e+03 3.938189315795898438e+01 1.432198333740234375e+01 6.422944664955139160e-01 8.167243748903274536e-02 2.171900719404220581e-01 -6.811730265617370605e-01
2.977000000000000000e+03 5.795340347290039062e+01 -2.018807983398437500e+01 1.581583380699157715e+00 4.884723186492919922e+00 1.939891934394836426e+00 8.334012627601623535e-01
2.978000000000000000e+03 5.901609802246093750e+01 -2.077626991271972656e+01 2.098889350891113281e+00 4.046568870544433594e+00 1.843637585639953613e+00 7.043789029121398926e-01
2.979000000000000000e+03 4.429466629028320312e+01 -2.451942062377929688e+01 4.048283994197845459e-01 1.750386953353881836e+00 6.465646028518676758e-01 5.308150053024291992e-01
2.980000000000000000e+03 5.705229949951171875e+01 1.495848560333251953e+01 2.151094436645507812e+00 7.275653839111328125e+00 2.828024387359619141e+00 -1.786417663097381592e-01
2.981000000000000000e+03 4.237821197509765625e+01 3.800425720214843750e+01 9.050206094980239868e-02 1.532760024070739746e+00 4.869786202907562256e-01 -5.235755443572998047e-01
2.982000000000000000e+03 2.000572967529296875e+01 2.072784614562988281e+01 1.023963913321495056e-01 5.134554579854011536e-02 4.612258076667785645e-02 -2.344631776213645935e-02
2.983000000000000000e+03 5.336320114135742188e+01 -3.143959426879882812e+01 1.748865008354187012e+00 4.624461650848388672e+00 1.911998033523559570e+00 8.213181495666503906e-01
2.984000000000000000e+03 5.010887145996093750e+01 -1.006818008422851562e+01 3.613270223140716553e-01 4.270304679870605469e+00 1.389489531517028809e+00 2.255950212478637695e+00
2.985000000000000000e+03 1.806157302856445312e+01 -2.395438194274902344e+01 6.350112706422805786e-02 -5.946078896522521973e-02 1.212101778946816921e-03 -3.311602771282196045e-01
2.986000000000000000e+03 5.239702224731445312e+01 -2.859305000305175781e+01 6.233528256416320801e-01 3.012202978134155273e+00 1.090666770935058594e+00 4.810924530029296875e-01
2.987000000000000000e+03 5.179287338256835938e+01 -3.695457839965820312e+01 -2.231422513723373413e-01 4.340792179107666016e+00 1.235294938087463379e+00 9.647196531295776367e-01
2.988000000000000000e+03 7.462453460693359375e+01 1.865526390075683594e+01 -1.092377185821533203e+00 7.756877899169921875e+00 1.999350309371948242e+00 6.278996467590332031e-01
2.989000000000000000e+03 4.300894546508789062e+01 1.903624725341796875e+01 -5.916485786437988281e-01 1.333771228790283203e+00 2.226368039846420288e-01 4.562449455261230469e-02
2.990000000000000000e+03 4.092565155029296875e+01 1.932835578918457031e+01 -8.088715374469757080e-02 5.940930247306823730e-01 1.539617627859115601e-01 -2.600020170211791992e-01
2.991000000000000000e+03 4.249931335449218750e+01 1.291129398345947266e+01 8.910762667655944824e-01 1.690497875213623047e+00 7.744722366333007812e-01 -9.772174954414367676e-01
2.992000000000000000e+03 4.065174102783203125e+01 1.468279743194580078e+01 6.336898803710937500e-01 6.394084692001342773e-01 3.819294869899749756e-01 -9.081720709800720215e-01
2.993000000000000000e+03 1.946251678466796875e+01 -2.391956520080566406e+01 1.066690683364868164e-01 8.933255821466445923e-02 5.880048871040344238e-02 -2.738324105739593506e-01
2.994000000000000000e+03 2.689985275268554688e+01 1.172474670410156250e+01 2.566576898097991943e-01 2.133353352546691895e-01 1.409979015588760376e-01 1.304457783699035645e-01
2.995000000000000000e+03 3.086894416809082031e+01 -3.318185043334960938e+01 4.430110156536102295e-01 4.707443118095397949e-01 2.741265892982482910e-01 2.398143522441387177e-02
2.996000000000000000e+03 4.870192337036132812e+01 3.289258575439453125e+01 4.781146943569183350e-01 3.556207180023193359e+00 1.210296511650085449e+00 -9.011417031288146973e-01
2.997000000000000000e+03 6.264032745361328125e+01 -1.121090030670166016e+01 -1.596369504928588867e+00 8.147065162658691406e+00 1.965208649635314941e+00 1.081834793090820312e+00
2.998000000000000000e+03 4.520191955566406250e+01 -1.567819881439208984e+01 -6.843647956848144531e-01 3.312347173690795898e+00 7.883946895599365234e-01 1.160776734352111816e+00
2.999000000000000000e+03 4.310916519165039062e+01 -1.637344360351562500e+01 1.062714159488677979e-01 1.249610781669616699e+00 4.067646563053131104e-01 3.744917511940002441e-01
3.000000000000000000e+03 5.977291107177734375e+01 1.855419921875000000e+01 1.349410772323608398e+00 6.833198070526123047e+00 2.454782724380493164e+00 1.352825522422790527e+00
3.001000000000000000e+03 5.975633621215820312e+01 1.976797103881835938e+01 3.616997003555297852e-01 5.288838386535644531e+00 1.695161461830139160e+00 1.088143825531005859e+00
3.002000000000000000e+03 6.390891075134277344e+00 1.771209144592285156e+01 2.696890830993652344e-01 -3.348784148693084717e-01 -1.955679804086685181e-02 1.598809808492660522e-01
3.003000000000000000e+03 8.150974273681640625e+00 1.754398536682128906e+01 3.747234046459197998e-01 -1.453208327293395996e-01 6.882076710462570190e-02 1.980790197849273682e-01
3.004000000000000000e+03 3.548239898681640625e+01 -3.026801490783691406e+01 8.336828947067260742e-01 5.972880721092224121e-01 4.292912781238555908e-01 2.718065083026885986e-01
3.005000000000000000e+03 3.185136795043945312e+01 4.137276077270507812e+01 1.904868930578231812e-01 6.524910926818847656e-01 2.528933882713317871e-01 1.742105744779109955e-02
3.006000000000000000e+03 1.948504257202148438e+01 -1.531995296478271484e+01 -3.356829285621643066e-01 4.547595977783203125e-02 -8.706209063529968262e-02 -3.639576733112335205e-01
3.007000000000000000e+03 1.916319465637207031e+01 -1.801940536499023438e+01 -1.666501611471176147e-01 -3.119547665119171143e-02 -5.935369059443473816e-02 -5.711894631385803223e-01
3.008000000000000000e+03 1.019989585876464844e+01 -2.827291297912597656e+01 -1.093505844473838806e-01 -2.153543084859848022e-01 -9.741146862506866455e-02 -1.920344829559326172e-01
3.009000000000000000e+03 9.399763107299804688e+00 -3.101964759826660156e+01 -1.541280895471572876e-01 -2.141472697257995605e-01 -1.104826107621192932e-01 -1.981249153614044189e-01
3.010000000000000000e+03 5.861800384521484375e+01 1.566050720214843750e+01 2.172646284103393555e+00 8.070827484130859375e+00 3.073041915893554688e+00 6.593961119651794434e-01
3.011000000000000000e+03 7.321629047393798828e+00 1.833827209472656250e+01 2.899015843868255615e-01 -2.575679421424865723e-01 9.700096212327480316e-03 1.381116211414337158e-01
3.012000000000000000e+03 9.482172966003417969e+00 -3.715275573730468750e+01 1.084190234541893005e-01 -2.640631794929504395e-01 -4.669324681162834167e-02 -1.928500384092330933e-01
3.013000000000000000e+03 5.163445281982421875e+01 2.093580961227416992e+00 2.064323902130126953e+00 2.257678508758544922e+00 1.296600699424743652e+00 -2.422190189361572266e+00
3.014000000000000000e+03 5.064751052856445312e+01 2.467103004455566406e+00 1.584349513053894043e+00 5.614479780197143555e-01 6.437392830848693848e-01 -2.052433252334594727e+00
3.015000000000000000e+03 9.047877311706542969e+00 4.970624446868896484e+00 -2.546738088130950928e-01 -1.441607177257537842e-01 -1.196503639221191406e-01 7.268780469894409180e-02
3.016000000000000000e+03 9.829648017883300781e+00 4.415439128875732422e+00 -2.287211418151855469e-01 -1.585944145917892456e-01 -1.161946728825569153e-01 1.036666631698608398e-01
3.017000000000000000e+03 4.659413814544677734e+00 -5.560514926910400391e+00 1.194307673722505569e-02 -6.655681878328323364e-02 -1.638412289321422577e-02 -3.951209038496017456e-02
3.018000000000000000e+03 9.185420989990234375e+00 -1.051445007324218750e+01 -1.275464333593845367e-02 -9.917960315942764282e-02 -3.358027338981628418e-02 -1.233451217412948608e-01
3.019000000000000000e+03 4.606604003906250000e+01 3.611032009124755859e+00 -6.214020252227783203e-01 1.123946309089660645e+00 1.507632732391357422e-01 -6.786233186721801758e-01
3.020000000000000000e+03 8.339871406555175781e+00 -4.645870208740234375e+00 -4.133897647261619568e-02 -8.311017602682113647e-02 -3.733474761247634888e-02 -1.241952478885650635e-01
3.021000000000000000e+03 4.910501003265380859e+00 -4.790914058685302734e+00 -1.563166081905364990e-02 -4.262768849730491638e-02 -1.747780479490756989e-02 -5.211701616644859314e-02
3.022000000000000000e+03 5.950663089752197266e+00 -4.521408557891845703e+00 -2.149370312690734863e-02 -3.359550237655639648e-02 -1.652676239609718323e-02 -6.839376688003540039e-02
3.023000000000000000e+03 3.611738920211791992e+00 -7.525523185729980469e+00 8.221311494708061218e-03 -8.547647297382354736e-02 -2.317654900252819061e-02 -2.868483588099479675e-02
3.024000000000000000e+03 4.099349021911621094e+00 4.359073638916015625e+00 -6.108102202415466309e-02 -2.087249886244535446e-03 -1.895048096776008606e-02 -3.471743315458297729e-02
3.025000000000000000e+03 4.809572696685791016e+00 4.313338279724121094e+00 -6.833016872406005859e-02 -1.489673834294080734e-02 -2.496807277202606201e-02 -3.119125217199325562e-02
3.026000000000000000e+03 6.377412319183349609e+00 4.298267841339111328e+00 -1.156889051198959351e-01 -4.704122245311737061e-02 -4.881903901696205139e-02 -9.519277140498161316e-03
3.027000000000000000e+03 5.294942378997802734e+00 6.572551727294921875e+00 -1.859674602746963501e-01 -5.013318359851837158e-02 -7.083018869161605835e-02 6.696688383817672729e-02
3.028000000000000000e+03 3.956946849822998047e+00 5.099501132965087891e+00 -7.513549923896789551e-02 -5.765746813267469406e-03 -2.427037432789802551e-02 -1.289915107190608978e-02
3.029000000000000000e+03 4.337005615234375000e+01 4.968943595886230469e+00 -3.867502808570861816e-01 5.845395326614379883e-01 5.933677777647972107e-02 -2.817501313984394073e-02
3.030000000000000000e+03 7.912099838256835938e+00 4.219105720520019531e+00 -1.572929322719573975e-01 -8.842848241329193115e-02 -7.371642440557479858e-02 1.798424869775772095e-02
3.031000000000000000e+03 8.186519622802734375e+00 5.547421455383300781e+00 -2.813911139965057373e-01 -1.324102431535720825e-01 -1.241404116153717041e-01 8.043418824672698975e-02
3.032000000000000000e+03 1.316778373718261719e+01 -3.102204799652099609e+00 -6.208814680576324463e-02 2.061147987842559814e-02 -1.244300045073032379e-02 -1.302257478237152100e-01
3.033000000000000000e+03 2.275625228881835938e+01 5.724995613098144531e+00 -7.844948768615722656e-02 -1.770196110010147095e-01 -7.664073258638381958e-02 1.636093705892562866e-01
3.034000000000000000e+03 2.695446205139160156e+01 3.436572074890136719e+00 -5.757043361663818359e-01 1.972465962171554565e-01 -1.135373115539550781e-01 2.220041006803512573e-01
3.035000000000000000e+03 2.205521583557128906e+01 4.905760765075683594e+00 -3.268945217132568359e-01 -1.545005738735198975e-01 -1.444185376167297363e-01 1.643785238265991211e-01
3.036000000000000000e+03 2.285150909423828125e+01 4.898850917816162109e+00 -2.715464234352111816e-01 -1.551529616117477417e-01 -1.280098110437393188e-01 1.657763719558715820e-01
3.037000000000000000e+03 2.502615928649902344e+01 5.591661453247070312e+00 -3.169536218047142029e-02 -4.660097137093544006e-02 -2.348889969289302826e-02 1.908213198184967041e-01
3.038000000000000000e+03 2.538508987426757812e+01 6.399247646331787109e+00 1.387832164764404297e-01 -1.564820297062397003e-03 4.116551950573921204e-02 1.723824292421340942e-01
3.039000000000000000e+03 2.349120712280273438e+01 6.470984935760498047e+00 1.185876950621604919e-01 -1.714500784873962402e-01 -1.585871353745460510e-02 1.578582078218460083e-01
3.040000000000000000e+03 2.749236869812011719e+01 5.641191959381103516e+00 3.294606134295463562e-02 3.941527903079986572e-01 1.281296610832214355e-01 1.545077413320541382e-01
3.041000000000000000e+03 1.268987846374511719e+01 -3.668804883956909180e+00 -1.715024188160896301e-02 -9.388089179992675781e-02 -3.330934047698974609e-02 -1.105686053633689880e-01
3.042000000000000000e+03 1.219212055206298828e+01 -2.715012073516845703e+00 -9.034382551908493042e-02 3.824683651328086853e-02 -1.562909781932830811e-02 -9.130108356475830078e-02
3.043000000000000000e+03 1.294960403442382812e+01 -5.934287071228027344e+00 6.224781274795532227e-03 -2.582251839339733124e-02 -5.879321135580539703e-03 -9.724744409322738647e-02
3.044000000000000000e+03 5.047664642333984375e+01 -5.091955661773681641e+00 2.694254159927368164e+00 5.111110687255859375e+00 2.341609477996826172e+00 2.754114389419555664e+00
3.045000000000000000e+03 3.417879867553710938e+01 -5.132440567016601562e+00 -3.215361386537551880e-02 -4.102072864770889282e-02 -2.195230126380920410e-02 -2.659638524055480957e-01
3.046000000000000000e+03 1.109246921539306641e+01 -4.367663860321044922e+00 2.122146263718605042e-02 -3.541120141744613647e-02 -4.256921820342540741e-03 -1.075423434376716614e-01
3.047000000000000000e+03 1.549619865417480469e+01 -3.879029035568237305e+00 1.207347773015499115e-02 7.034746557474136353e-02 2.472628280520439148e-02 1.327023934572935104e-02
3.048000000000000000e+03 5.727594757080078125e+01 1.974441146850585938e+01 1.210108846426010132e-01 4.069002151489257812e+00 1.257003903388977051e+00 -1.212390899658203125e+00
3.049000000000000000e+03 9.242642402648925781e+00 -5.690351963043212891e+00 7.321565598249435425e-02 -8.700601011514663696e-02 -4.137106705456972122e-03 -1.161592006683349609e-01
3.050000000000000000e+03 9.867902755737304688e+00 -4.603728771209716797e+00 -3.820615634322166443e-02 -5.719792470335960388e-02 -2.862122282385826111e-02 -1.272785067558288574e-01
3.051000000000000000e+03 3.270775985717773438e+01 -7.448658943176269531e+00 -6.007503718137741089e-02 -3.352626562118530273e-01 -1.186013147234916687e-01 -2.661703526973724365e-01
3.052000000000000000e+03 3.173984336853027344e+01 -9.631634712219238281e+00 -3.487248420715332031e-01 -2.001273036003112793e-01 -1.646556407213211060e-01 -1.044103130698204041e-01
3.053000000000000000e+03 2.362042999267578125e+01 7.240178585052490234e+00 2.384004741907119751e-01 -1.588085144758224487e-01 2.387758716940879822e-02 1.667085140943527222e-01
3.054000000000000000e+03 5.016601943969726562e+01 2.890322208404541016e+00 7.680203914642333984e-01 1.616003513336181641e-01 2.788862287998199463e-01 -2.251048326492309570e+00
3.055000000000000000e+03 5.954044342041015625e+01 2.800439357757568359e+00 5.565173029899597168e-01 6.316646575927734375e+00 2.061949253082275391e+00 -1.876129984855651855e+00
3.056000000000000000e+03 1.498625659942626953e+01 -8.061665534973144531e+00 3.557731211185455322e-02 2.754563987255096436e-01 9.331011772155761719e-02 -4.302038997411727905e-02
3.057000000000000000e+03 3.345509338378906250e+01 -1.057117462158203125e+01 -3.100304007530212402e-01 4.153615608811378479e-02 -8.054827153682708740e-02 1.099958345293998718e-01
3.058000000000000000e+03 4.831158447265625000e+01 -7.408578395843505859e+00 -4.538854658603668213e-01 3.044030189514160156e+00 7.770434617996215820e-01 2.312344312667846680e+00
3.059000000000000000e+03 3.395051574707031250e+01 -7.619192123413085938e+00 9.718610346317291260e-02 2.685272367671132088e-03 2.996141277253627777e-02 -1.706431657075881958e-01
3.060000000000000000e+03 7.878819942474365234e+00 6.930687427520751953e+00 -3.590592145919799805e-01 -1.511734426021575928e-01 -1.530697941780090332e-01 1.473340690135955811e-01
3.061000000000000000e+03 4.802540969848632812e+01 3.743983983993530273e+00 -1.926320046186447144e-01 1.034156560897827148e+00 2.524573504924774170e-01 -1.499310016632080078e+00
3.062000000000000000e+03 1.590795707702636719e+01 -8.480656623840332031e+00 1.469745300710201263e-02 2.292396128177642822e-01 7.318112254142761230e-02 -2.709028124809265137e-02
3.063000000000000000e+03 4.315582656860351562e+01 7.415662288665771484e+00 3.398447930812835693e-01 1.444157600402832031e+00 5.352007150650024414e-01 -1.381396204233169556e-01
3.064000000000000000e+03 4.197727966308593750e+01 -1.981650161743164062e+01 6.071814894676208496e-01 1.408555746078491211e+00 6.047211289405822754e-01 4.339666664600372314e-01
3.065000000000000000e+03 3.293928146362304688e+01 -6.101277828216552734e+00 -5.497146770358085632e-02 -2.763140499591827393e-01 -9.938565641641616821e-02 -2.816507518291473389e-01
3.066000000000000000e+03 4.330617141723632812e+01 -1.728655052185058594e+01 3.416007161140441895e-01 1.601518988609313965e+00 5.829358696937561035e-01 3.795875906944274902e-01
3.067000000000000000e+03 2.133364486694335938e+01 -1.746945381164550781e+01 -2.446965575218200684e-01 -1.138348132371902466e-01 -1.075594127178192139e-01 -5.461661219596862793e-01
3.068000000000000000e+03 1.991527748107910156e+01 -1.876394653320312500e+01 -2.066389322280883789e-01 -2.805252745747566223e-02 -7.040744274854660034e-02 -5.764449238777160645e-01
3.069000000000000000e+03 6.883040618896484375e+01 2.461813735961914062e+01 6.442741155624389648e-01 3.049530029296875000e+00 1.108141183853149414e+00 -6.317132711410522461e-01
3.070000000000000000e+03 3.485582351684570312e+01 1.731448936462402344e+01 3.970631361007690430e-01 4.784277081489562988e-01 2.626472413539886475e-01 -7.191004604101181030e-02
3.071000000000000000e+03 6.553879547119140625e+01 2.502350234985351562e+01 1.298815369606018066e+00 4.315948486328125000e+00 1.684429168701171875e+00 9.746856689453125000e-01
3.072000000000000000e+03 6.848105621337890625e+01 2.266979789733886719e+01 -8.099985122680664062e-01 2.008603811264038086e+00 3.595815896987915039e-01 -9.831123352050781250e-01
3.073000000000000000e+03 5.068305587768554688e+01 -9.216866493225097656e+00 -5.316038131713867188e-01 4.940619945526123047e+00 1.322704911231994629e+00 2.442594289779663086e+00
3.074000000000000000e+03 5.102575683593750000e+01 -3.033662223815917969e+01 1.429510712623596191e+00 3.346050024032592773e+00 1.432668209075927734e+00 5.427944124676287174e-04
3.075000000000000000e+03 5.168420791625976562e+01 -2.813675498962402344e+01 1.854364275932312012e-01 2.667441844940185547e+00 8.558634519577026367e-01 2.671674787998199463e-01
3.076000000000000000e+03 5.761528015136718750e+01 -2.114122009277343750e+01 2.073989629745483398e+00 4.578224182128906250e+00 1.995664238929748535e+00 9.815884232521057129e-01
3.077000000000000000e+03 5.420044326782226562e+01 -1.356355571746826172e+01 -1.249328613281250000e+00 2.361078023910522461e+00 3.335248529911041260e-01 -1.513353824615478516e+00
3.078000000000000000e+03 4.475191497802734375e+01 2.008127021789550781e+01 -8.821059465408325195e-01 1.389904737472534180e+00 1.523396521806716919e-01 6.191149353981018066e-01
3.079000000000000000e+03 7.333588409423828125e+01 -3.208889770507812500e+01 7.254317998886108398e-01 5.541170120239257812e+00 1.879980683326721191e+00 3.767732679843902588e-01
3.080000000000000000e+03 5.775495147705078125e+01 -2.460132217407226562e+01 -6.918819248676300049e-02 4.738734245300292969e+00 1.400863885879516602e+00 1.355065345764160156e+00
3.081000000000000000e+03 6.066401672363281250e+01 1.222118139266967773e+00 1.089967012405395508e+00 7.197774887084960938e+00 2.486322402954101562e+00 -2.326809644699096680e+00
3.082000000000000000e+03 5.388413619995117188e+01 -1.138653182983398438e+01 -1.570365786552429199e+00 2.730434417724609375e+00 3.480205535888671875e-01 -1.221067905426025391e+00
3.083000000000000000e+03 6.262462997436523438e+01 -2.171580886840820312e+01 2.567652702331542969e+00 5.749086380004882812e+00 2.495021820068359375e+00 -8.734794259071350098e-01
3.084000000000000000e+03 6.591077423095703125e+01 2.285256576538085938e+01 -2.242552340030670166e-01 2.347796440124511719e+00 6.370623707771301270e-01 1.233863353729248047e+00
3.085000000000000000e+03 6.688052368164062500e+01 2.437358856201171875e+00 1.198809623718261719e+00 2.222433567047119141e+00 1.026372909545898438e+00 1.879522323608398438e+00
3.086000000000000000e+03 4.962765884399414062e+01 -1.105280017852783203e+01 7.598426938056945801e-01 3.767214775085449219e+00 1.358117222785949707e+00 1.663348317146301270e+00
3.087000000000000000e+03 4.967143630981445312e+01 -1.339282894134521484e+01 -4.186486303806304932e-01 2.854641914367675781e+00 7.307980060577392578e-01 8.861479759216308594e-01
3.088000000000000000e+03 3.853067398071289062e+01 1.822722244262695312e+01 2.523038983345031738e-01 3.702755570411682129e-01 1.867738366127014160e-01 -4.818111658096313477e-01
3.089000000000000000e+03 2.067684745788574219e+01 -2.363896942138671875e+01 1.289855390787124634e-01 1.409671455621719360e-01 8.098580688238143921e-02 -2.504517436027526855e-01
3.090000000000000000e+03 6.427655792236328125e+01 4.866044044494628906e+00 -3.888476490974426270e-01 2.263343095779418945e+00 5.623486042022705078e-01 -6.800996065139770508e-01
3.091000000000000000e+03 7.361989593505859375e+01 -2.916188049316406250e+01 -4.656636714935302734e-01 6.055757999420166016e+00 1.677028417587280273e+00 1.288897395133972168e+00
3.092000000000000000e+03 5.458926200866699219e+00 -2.765535354614257812e+01 -7.017236948013305664e-02 -1.718912422657012939e-01 -7.261908054351806641e-02 -4.700955376029014587e-02
3.093000000000000000e+03 5.788441085815429688e+01 4.825846195220947266e+00 -5.062628388404846191e-01 6.915722370147705078e+00 1.922837972640991211e+00 -4.887220263481140137e-01
3.094000000000000000e+03 2.637626838684082031e+01 6.029892921447753906e+00 8.149354159832000732e-02 1.422892808914184570e-01 6.713484972715377808e-02 1.699085235595703125e-01
3.095000000000000000e+03 5.978267669677734375e+01 1.733879661560058594e+01 2.355088710784912109e+00 7.681244373321533203e+00 3.010900020599365234e+00 1.392501115798950195e+00
3.096000000000000000e+03 5.938255310058593750e+01 7.127043247222900391e+00 -1.126355886459350586e+00 7.505642890930175781e+00 1.913786172866821289e+00 -7.952802777290344238e-01
3.097000000000000000e+03 5.681906890869140625e+01 6.229149818420410156e+00 -1.237638473510742188e+00 7.823549270629882812e+00 1.975773215293884277e+00 -2.801551818847656250e-01
3.098000000000000000e+03 5.837261581420898438e+01 8.581254005432128906e+00 -4.051584303379058838e-01 8.025425910949707031e+00 2.286080360412597656e+00 -3.180903494358062744e-01
3.099000000000000000e+03 2.226856231689453125e+01 3.225374221801757812e+01 -2.127447351813316345e-02 2.203057706356048584e-01 5.970938876271247864e-02 -3.404204733669757843e-03
3.100000000000000000e+03 2.378802490234375000e+01 3.254217910766601562e+01 5.905795842409133911e-02 3.974025547504425049e-01 1.369381546974182129e-01 8.305235207080841064e-02
3.101000000000000000e+03 3.482201004028320312e+01 -3.478488159179687500e+01 6.209453344345092773e-01 1.111376166343688965e+00 5.196964740753173828e-01 4.746269285678863525e-01
3.102000000000000000e+03 6.167985153198242188e+01 -1.171903419494628906e+01 -1.817002296447753906e+00 7.009035587310791016e+00 1.557609915733337402e+00 1.626209974288940430e+00
3.103000000000000000e+03 2.159639167785644531e+01 7.554356575012207031e+00 3.514932692050933838e-01 -1.186424791812896729e-01 6.985523551702499390e-02 1.705790311098098755e-01
3.104000000000000000e+03 2.174059104919433594e+01 6.575932502746582031e+00 1.292422413825988770e-01 -1.590224951505661011e-01 -8.934075944125652313e-03 1.485912203788757324e-01
3.105000000000000000e+03 4.257312011718750000e+01 -2.570283126831054688e+01 5.949938893318176270e-01 1.265763521194458008e+00 5.582271814346313477e-01 1.073272585868835449e+00
3.106000000000000000e+03 4.352136993408203125e+01 -2.566122245788574219e+01 3.632420003414154053e-01 1.124197125434875488e+00 4.462317228317260742e-01 6.777182221412658691e-01
3.107000000000000000e+03 7.404787540435791016e+00 8.309568405151367188e+00 -3.601398169994354248e-01 -1.600822508335113525e-01 -1.560666114091873169e-01 2.037726491689682007e-01
3.108000000000000000e+03 7.367956638336181641e+00 6.166572570800781250e+00 -2.720826864242553711e-01 -1.121937185525894165e-01 -1.152829229831695557e-01 7.974483072757720947e-02
3.109000000000000000e+03 2.500294685363769531e+01 -2.049770545959472656e+01 1.319730281829833984e-01 5.837536603212356567e-02 5.710451677441596985e-02 -1.843883246183395386e-01
3.110000000000000000e+03 2.388014221191406250e+01 1.064095211029052734e+01 2.734492719173431396e-01 -6.212547421455383301e-02 6.339713931083679199e-02 1.603896915912628174e-01
3.111000000000000000e+03 2.542501068115234375e+01 -1.808015632629394531e+01 -5.439208075404167175e-02 -1.525704711675643921e-01 -6.208876520395278931e-02 -2.274461090564727783e-01
3.112000000000000000e+03 4.235326766967773438e+01 -2.098668098449707031e+01 8.759512305259704590e-01 1.763947248458862305e+00 7.919695377349853516e-01 8.971382379531860352e-01
3.113000000000000000e+03 1.359220409393310547e+01 -6.612487792968750000e+00 9.765292704105377197e-02 1.237406060099601746e-01 6.641805917024612427e-02 -8.043281733989715576e-02
3.114000000000000000e+03 4.447852325439453125e+01 -2.558302497863769531e+01 1.734236031770706177e-01 1.389528512954711914e+00 4.688856303691864014e-01 2.937515676021575928e-01
3.115000000000000000e+03 7.105727386474609375e+01 1.940943837165832520e+00 7.823441028594970703e-01 2.739718437194824219e+00 1.056618809700012207e+00 8.382928967475891113e-01
3.116000000000000000e+03 7.242888641357421875e+01 1.484551310539245605e+00 2.922476828098297119e-01 3.908527612686157227e+00 1.260232567787170410e+00 -2.325021326541900635e-01
3.117000000000000000e+03 2.667759132385253906e+01 -2.880491065979003906e+01 3.096911609172821045e-01 2.689349055290222168e-01 1.735878288745880127e-01 -2.377065867185592651e-01
3.118000000000000000e+03 1.057628250122070312e+01 -4.881716251373291016e+00 -7.435549632646143436e-04 -9.285215288400650024e-02 -2.807871252298355103e-02 -1.371271610260009766e-01
3.119000000000000000e+03 1.039612770080566406e+01 -1.013491535186767578e+01 3.257750766351819038e-03 -8.351296186447143555e-02 -2.407656237483024597e-02 -1.062695235013961792e-01
3.120000000000000000e+03 2.588913726806640625e+01 -1.627803039550781250e+01 -2.937277853488922119e-01 -2.832155525684356689e-01 -1.730830073356628418e-01 -2.907857596874237061e-01
3.121000000000000000e+03 2.571394920349121094e+01 7.875831127166748047e+00 3.259367346763610840e-01 7.088091224431991577e-02 1.190452948212623596e-01 1.401608884334564209e-01
3.122000000000000000e+03 2.697721099853515625e+01 4.679326057434082031e+00 -1.785667985677719116e-01 2.631800472736358643e-01 2.538397163152694702e-02 2.126687318086624146e-01
3.123000000000000000e+03 7.570962524414062500e+01 1.638039398193359375e+01 -1.286521553993225098e-02 7.804784774780273438e+00 2.337575912475585938e+00 1.283036708831787109e+00
3.124000000000000000e+03 7.444749450683593750e+01 1.641059875488281250e+01 -4.875469207763671875e-02 8.263214111328125000e+00 2.464337825775146484e+00 1.096838951110839844e+00
3.125000000000000000e+03 7.420122528076171875e+01 -3.104803657531738281e+01 1.424511522054672241e-01 6.176337718963623047e+00 1.895636677742004395e+00 5.971329212188720703e-01
3.126000000000000000e+03 7.535275268554687500e+01 -3.202489471435546875e+01 2.546878755092620850e-01 6.733210563659667969e+00 2.096369504928588867e+00 3.622524142265319824e-01
3.127000000000000000e+03 2.496454429626464844e+01 -2.569722747802734375e+01 3.585225939750671387e-01 2.100348472595214844e-01 1.705672293901443481e-01 -1.327403634786605835e-01
3.128000000000000000e+03 7.546174621582031250e+01 -2.729009628295898438e+01 -8.986254334449768066e-01 8.101017951965332031e+00 2.160717725753784180e+00 1.616355031728744507e-01
3.129000000000000000e+03 2.020538520812988281e+01 -1.774804878234863281e+01 -2.092687636613845825e-01 -5.592645704746246338e-02 -7.955856621265411377e-02 -5.352783203125000000e-01
3.130000000000000000e+03 7.451613616943359375e+01 2.297536849975585938e+01 -5.031770467758178711e-01 6.546049118041992188e+00 1.812861561775207520e+00 -4.819387793540954590e-01
3.131000000000000000e+03 7.563434600830078125e+01 2.442494773864746094e+01 -1.515899896621704102e-01 6.798177242279052734e+00 1.993976116180419922e+00 -4.138866364955902100e-01
3.132000000000000000e+03 7.008003997802734375e+01 2.543864822387695312e+01 7.437109947204589844e-01 4.139995574951171875e+00 1.465111970901489258e+00 -7.309885025024414062e-01
3.133000000000000000e+03 7.555834960937500000e+01 2.575430107116699219e+01 -6.458388268947601318e-02 6.633319854736328125e+00 1.970620870590209961e+00 -4.315521717071533203e-01
3.134000000000000000e+03 7.329312133789062500e+01 2.046747970581054688e+01 -1.403566122055053711e+00 6.825103759765625000e+00 1.626461267471313477e+00 -3.790647983551025391e-01
3.135000000000000000e+03 7.386298370361328125e+01 1.074312496185302734e+01 1.983908414840698242e+00 9.161280632019042969e+00 3.343556880950927734e+00 4.413552880287170410e-01
3.136000000000000000e+03 7.469721984863281250e+01 1.162882137298583984e+01 1.660931348800659180e+00 8.908309936523437500e+00 3.170772314071655273e+00 3.486305773258209229e-01
3.137000000000000000e+03 7.533512115478515625e+01 7.525698184967041016e+00 1.099159196019172668e-01 7.324503898620605469e+00 2.230325937271118164e+00 -7.995641827583312988e-01
3.138000000000000000e+03 7.267224121093750000e+01 4.416626930236816406e+00 -2.665635943412780762e-01 5.705868721008300781e+00 1.631791472434997559e+00 4.319425523281097412e-01
3.139000000000000000e+03 7.421263122558593750e+01 3.152300596237182617e+00 -3.129243552684783936e-01 5.987437725067138672e+00 1.702354073524475098e+00 -4.902976751327514648e-01
3.140000000000000000e+03 7.602840423583984375e+01 2.377671957015991211e+00 -3.794122636318206787e-01 6.823233604431152344e+00 1.933146357536315918e+00 -6.109582781791687012e-01
3.141000000000000000e+03 7.504828643798828125e+01 1.957356452941894531e+01 -9.335078001022338867e-01 7.490099906921386719e+00 1.966977596282958984e+00 4.931727349758148193e-01
3.142000000000000000e+03 7.564913940429687500e+01 1.881882667541503906e+01 -7.881889343261718750e-01 7.681333541870117188e+00 2.067943334579467773e+00 8.362353444099426270e-01
3.143000000000000000e+03 7.546531677246093750e+01 8.752203941345214844e+00 5.850878953933715820e-01 7.384355068206787109e+00 2.390832901000976562e+00 -6.982804536819458008e-01
3.144000000000000000e+03 7.374465942382812500e+01 6.643986701965332031e-01 -2.179220020771026611e-01 5.142153263092041016e+00 1.477269411087036133e+00 -1.069015622138977051e+00
3.145000000000000000e+03 7.574898529052734375e+01 1.371206474304199219e+01 9.203380942344665527e-01 7.732667922973632812e+00 2.595901727676391602e+00 8.080107569694519043e-01
3.146000000000000000e+03 7.399333953857421875e+01 1.396816921234130859e+01 1.402861595153808594e+00 8.956746101379394531e+00 3.107882499694824219e+00 6.314037442207336426e-01
3.147000000000000000e+03 7.399070739746093750e+01 2.937500572204589844e+01 4.052249193191528320e-01 5.914899826049804688e+00 1.896037340164184570e+00 -1.353454887866973877e-01
3.148000000000000000e+03 7.550482177734375000e+01 2.063248443603515625e+01 -9.664608240127563477e-01 7.408782005310058594e+00 1.932696342468261719e+00 1.965893357992172241e-01
3.149000000000000000e+03 7.289357757568359375e+01 -3.016147041320800781e+01 4.600798487663269043e-01 5.040197849273681641e+00 1.650083303451538086e+00 1.175368309020996094e+00
3.150000000000000000e+03 7.416063690185546875e+01 3.363850784301757812e+01 1.708530932664871216e-01 6.195520877838134766e+00 1.909912228584289551e+00 2.181709557771682739e-01
3.151000000000000000e+03 7.276350402832031250e+01 3.272912216186523438e+01 3.590747714042663574e-01 5.851730823516845703e+00 1.863241672515869141e+00 2.749387621879577637e-01
3.152000000000000000e+03 7.603938293457031250e+01 -2.643002700805664062e+01 -6.934627890586853027e-01 8.346904754638671875e+00 2.296032667160034180e+00 -1.094381958246231079e-01
3.153000000000000000e+03 3.653386688232421875e+01 1.738843917846679688e+01 3.861829936504364014e-01 2.927878201007843018e-01 2.036912441253662109e-01 -3.258180916309356689e-01
3.154000000000000000e+03 3.918323135375976562e+01 1.530874538421630859e+01 5.768980979919433594e-01 2.223932892084121704e-01 2.397874146699905396e-01 -6.919349431991577148e-01
3.155000000000000000e+03 7.345442199707031250e+01 3.174552726745605469e+01 3.534722030162811279e-01 5.957787036895751953e+00 1.893377780914306641e+00 9.557684510946273804e-02
3.156000000000000000e+03 5.111715316772460938e+00 -2.927930831909179688e+01 -7.438481599092483521e-02 -2.333439439535140991e-01 -9.231862425804138184e-02 -6.279265135526657104e-02
3.157000000000000000e+03 3.840386390686035156e+00 -1.098919582366943359e+01 1.020063739269971848e-02 -1.330860555171966553e-01 -3.686562553048133850e-02 -1.315604709088802338e-02
3.158000000000000000e+03 7.277919769287109375e+01 7.309941291809082031e+00 1.717479228973388672e-01 7.665941715240478516e+00 2.351306915283203125e+00 4.091818332672119141e-01
3.159000000000000000e+03 7.400105285644531250e+01 9.229725837707519531e+00 9.550908207893371582e-01 8.461999893188476562e+00 2.825127363204956055e+00 -1.469369828701019287e-01
3.160000000000000000e+03 3.193626403808593750e+00 -2.308581733703613281e+01 8.091938495635986328e-02 -2.742418944835662842e-01 -5.799675732851028442e-02 -3.650135919451713562e-02
3.161000000000000000e+03 6.980503082275390625e+01 2.432084083557128906e+00 9.259755611419677734e-01 2.446767807006835938e+00 1.011823058128356934e+00 1.821147322654724121e+00
3.162000000000000000e+03 3.877856731414794922e+00 2.072333335876464844e+01 4.330651462078094482e-02 -5.190032720565795898e-01 -1.427090317010879517e-01 -7.940501673147082329e-04
3.163000000000000000e+03 4.764661788940429688e+00 1.335121059417724609e+01 4.205214604735374451e-02 -2.623534798622131348e-01 -6.609040498733520508e-02 3.303609788417816162e-01
3.164000000000000000e+03 6.829231739044189453e+00 1.916812133789062500e+01 1.846070885658264160e-01 -3.403309583663940430e-01 -4.671715945005416870e-02 9.638377279043197632e-02
3.165000000000000000e+03 4.978095054626464844e+00 2.103875541687011719e+01 4.850254207849502563e-02 -4.937714636325836182e-01 -1.335806697607040405e-01 2.771149761974811554e-02
3.166000000000000000e+03 2.502439308166503906e+01 1.080094909667968750e+01 3.344852030277252197e-01 1.399821881204843521e-02 1.045450195670127869e-01 1.161757111549377441e-01
3.167000000000000000e+03 7.273129940032958984e+00 -3.387680816650390625e+01 -4.620048776268959045e-02 -2.752332389354705811e-01 -9.643012285232543945e-02 -2.097115963697433472e-01
3.168000000000000000e+03 5.756327152252197266e+00 1.420248794555664062e+01 1.251617521047592163e-01 -2.881253063678741455e-01 -4.888906702399253845e-02 3.550861477851867676e-01
3.169000000000000000e+03 5.609714984893798828e+00 -3.510994338989257812e+01 1.596076530404388905e-03 -3.758549392223358154e-01 -1.122776567935943604e-01 -1.704948544502258301e-01
3.170000000000000000e+03 6.347728729248046875e+00 1.219194126129150391e+01 -5.039124563336372375e-02 -2.067358344793319702e-01 -7.713812589645385742e-02 4.057818949222564697e-01
3.171000000000000000e+03 5.848927974700927734e+00 1.013769149780273438e+01 -1.998579204082489014e-01 -1.393606662750244141e-01 -1.017655730247497559e-01 3.080098628997802734e-01
3.172000000000000000e+03 7.125713348388671875e+01 3.320742416381835938e+01 3.367485105991363525e-01 5.506763935089111328e+00 1.753053784370422363e+00 4.170026481151580811e-01
3.173000000000000000e+03 4.738774299621582031e+00 -8.640305519104003906e+00 1.234118547290563583e-02 -1.240035369992256165e-01 -3.349870443344116211e-02 -4.377458617091178894e-02
3.174000000000000000e+03 5.070245265960693359e+00 8.282652854919433594e+00 -2.051191180944442749e-01 -7.462661713361740112e-02 -8.392371982336044312e-02 1.715517491102218628e-01
3.175000000000000000e+03 3.839962244033813477e+00 6.086627483367919922e+00 -1.052467301487922668e-01 -1.293811202049255371e-02 -3.545545414090156555e-02 2.263354882597923279e-02
3.176000000000000000e+03 5.738476753234863281e+00 7.153928756713867188e+00 -2.310975790023803711e-01 -7.677453011274337769e-02 -9.236162900924682617e-02 1.159020662307739258e-01
3.177000000000000000e+03 5.115522384643554688e+01 2.350814247131347656e+01 -4.330795109272003174e-01 4.377022266387939453e+00 1.183182835578918457e+00 -1.082350015640258789e+00
3.178000000000000000e+03 6.082635402679443359e+00 -5.573778629302978516e+00 8.427890017628669739e-03 -5.417792499065399170e-02 -1.372501067817211151e-02 -6.421059370040893555e-02
3.179000000000000000e+03 4.581946372985839844e+00 -6.484357833862304688e+00 7.670406252145767212e-03 -8.844761550426483154e-02 -2.423316426575183868e-02 -4.870525747537612915e-02
3.180000000000000000e+03 4.191426086425781250e+01 -1.782656097412109375e+01 3.758268356323242188e-01 8.381507396697998047e-01 3.641932606697082520e-01 3.070830367505550385e-02
3.181000000000000000e+03 4.975716018676757812e+01 2.050698471069335938e+01 -6.516079306602478027e-01 2.193284034729003906e+00 4.625028073787689209e-01 -1.642938971519470215e+00
3.182000000000000000e+03 2.273194503784179688e+01 8.488368034362792969e+00 3.677454292774200439e-01 -1.616246402263641357e-01 6.183623522520065308e-02 1.983808875083923340e-01
3.183000000000000000e+03 6.784061908721923828e+00 -1.195859336853027344e+01 -5.504747852683067322e-02 -1.907439529895782471e-01 -7.373742759227752686e-02 -8.872693032026290894e-02
3.184000000000000000e+03 6.476788330078125000e+01 -1.496205806732177734e+01 -2.649477958679199219e+00 5.763271808624267578e+00 9.341381788253784180e-01 8.036112785339355469e-01
3.185000000000000000e+03 6.479898834228515625e+01 -1.271943855285644531e+01 -1.763372898101806641e+00 6.989158630371093750e+00 1.567735671997070312e+00 1.541968882083892822e-01
3.186000000000000000e+03 3.604026412963867188e+01 1.522503280639648438e+01 4.957060515880584717e-01 3.690963611006736755e-02 1.597847044467926025e-01 -2.296897172927856445e-01
3.187000000000000000e+03 6.061429595947265625e+01 -2.383246421813964844e+01 1.771939396858215332e+00 2.417557239532470703e+00 1.256848931312561035e+00 4.116877317428588867e-01
3.188000000000000000e+03 3.467332077026367188e+01 -1.046004486083984375e+01 -1.463014632463455200e-01 2.649875879287719727e-01 3.560583665966987610e-02 8.635862916707992554e-02
3.189000000000000000e+03 5.404509353637695312e+01 2.194206428527832031e+01 -1.835794091224670410e+00 5.189856052398681641e+00 1.006218552589416504e+00 -2.445752620697021484e+00
3.190000000000000000e+03 5.227585983276367188e+01 2.468223381042480469e+01 -5.484158918261528015e-02 5.407667160034179688e+00 1.605847597122192383e+00 -9.535921812057495117e-01
3.191000000000000000e+03 5.768689727783203125e+01 2.110276603698730469e+01 -1.023734450340270996e+00 2.303637266159057617e+00 3.839708566665649414e-01 -1.113443732261657715e+00
3.192000000000000000e+03 2.573828125000000000e+01 -2.658699989318847656e+01 3.477891683578491211e-01 2.073683738708496094e-01 1.665472686290740967e-01 -1.610332876443862915e-01
3.193000000000000000e+03 6.237558364868164062e+01 -2.055106353759765625e+01 2.263117074966430664e+00 5.480663299560546875e+00 2.323134183883666992e+00 -1.061971306800842285e+00
3.194000000000000000e+03 6.034650421142578125e+01 -2.247797584533691406e+01 2.248142957687377930e+00 3.319011688232421875e+00 1.670146346092224121e+00 4.681388437747955322e-01
3.195000000000000000e+03 6.066381454467773438e+01 -1.851572227478027344e+01 7.587521076202392578e-01 5.426339626312255859e+00 1.855527520179748535e+00 -7.312861084938049316e-02
3.196000000000000000e+03 8.985882759094238281e+00 -2.577238273620605469e+01 -5.980410054326057434e-02 -6.447353959083557129e-02 -3.728329017758369446e-02 -1.773506999015808105e-01
3.197000000000000000e+03 4.803985595703125000e+01 2.087255859375000000e+01 -4.492429792881011963e-01 1.083018183708190918e+00 1.901325732469558716e-01 -3.746573626995086670e-01
3.198000000000000000e+03 5.695348739624023438e+01 -1.413067340850830078e+01 -1.015943765640258789e+00 3.065107822418212891e+00 6.147492527961730957e-01 -1.310956031084060669e-01
3.199000000000000000e+03 1.968569374084472656e+01 -2.192888450622558594e+01 -9.946766495704650879e-02 2.521966956555843353e-02 -2.227439917623996735e-02 -3.834121227264404297e-01
3.200000000000000000e+03 4.955712890625000000e+01 2.802793693542480469e+01 1.282095074653625488e+00 3.913416624069213867e+00 1.558653473854064941e+00 -7.404174208641052246e-01
3.201000000000000000e+03 3.121959114074707031e+01 2.920853424072265625e+01 3.305834233760833740e-01 5.534865856170654297e-01 2.652209997177124023e-01 -1.987274289131164551e-01
3.202000000000000000e+03 3.094815063476562500e+01 3.259410095214843750e+01 2.668047249317169189e-01 6.451946496963500977e-01 2.735998034477233887e-01 -7.529973238706588745e-02
3.203000000000000000e+03 5.255537796020507812e+01 -1.349194717407226562e+01 -9.780693650245666504e-01 1.683634042739868164e+00 2.116694152355194092e-01 -1.059091329574584961e+00
3.204000000000000000e+03 2.683511352539062500e+01 3.315345764160156250e+01 1.842168271541595459e-01 4.139744639396667480e-01 1.794573962688446045e-01 1.025902181863784790e-01
3.205000000000000000e+03 2.328785896301269531e+01 3.446086120605468750e+01 9.574907273054122925e-02 2.415238022804260254e-01 1.011818647384643555e-01 -1.986211724579334259e-02
3.206000000000000000e+03 5.758373260498046875e+01 1.597830772399902344e+01 2.210863828659057617e+00 6.848469257354736328e+00 2.717799901962280273e+00 7.872558385133743286e-02
3.207000000000000000e+03 4.232342910766601562e+01 -1.690395927429199219e+01 2.776405513286590576e-01 8.100503683090209961e-01 3.263072669506072998e-01 1.807629913091659546e-01
3.208000000000000000e+03 5.085189056396484375e+01 2.575951576232910156e+01 1.023426890373229980e+00 4.373772144317626953e+00 1.619159698486328125e+00 -5.237396955490112305e-01
3.209000000000000000e+03 4.232980346679687500e+01 1.405332469940185547e+01 6.178579330444335938e-01 1.714814543724060059e+00 6.998017430305480957e-01 -1.015216231346130371e+00
3.210000000000000000e+03 2.866797637939453125e+01 -2.940716934204101562e+01 2.774098813533782959e-01 3.499730825424194336e-01 1.882148832082748413e-01 -2.724139988422393799e-01
3.211000000000000000e+03 1.869964218139648438e+01 -1.700770378112792969e+01 -1.641809642314910889e-01 1.192686031572520733e-03 -4.889648407697677612e-02 -4.938763082027435303e-01
3.212000000000000000e+03 4.092063522338867188e+01 1.177659988403320312e+01 7.643021345138549805e-01 3.176986277103424072e-01 3.246002495288848877e-01 -7.362548708915710449e-01
3.213000000000000000e+03 4.030237960815429688e+01 1.101745891571044922e+01 5.736136436462402344e-01 -2.160942554473876953e-01 1.072558164596557617e-01 -5.082913637161254883e-01
3.214000000000000000e+03 6.560371398925781250e+00 2.021759033203125000e+01 1.054275706410408020e-01 -3.686075210571289062e-01 -7.895398885011672974e-02 6.984479725360870361e-02
3.215000000000000000e+03 7.924623966217041016e+00 1.920794296264648438e+01 2.258125692605972290e-01 -2.084230035543441772e-01 5.216870922595262527e-03 1.165135651826858521e-01
3.216000000000000000e+03 6.235435485839843750e+01 -1.521756172180175781e+01 -2.325314044952392578e+00 6.865835189819335938e+00 1.362156271934509277e+00 8.836633563041687012e-01
3.217000000000000000e+03 6.966067504882812500e+01 5.150359153747558594e+00 1.790259480476379395e-01 3.463289976119995117e+00 1.092694759368896484e+00 2.283284425735473633e+00
3.218000000000000000e+03 7.229185485839843750e+01 5.711277961730957031e+00 -3.404455184936523438e-01 6.301449775695800781e+00 1.788301229476928711e+00 8.290737867355346680e-01
3.219000000000000000e+03 3.734762191772460938e+01 1.924028968811035156e+01 1.462717801332473755e-01 4.824755191802978516e-01 1.886241883039474487e-01 -4.056329131126403809e-01
3.220000000000000000e+03 3.672246170043945312e+01 -3.655647277832031250e+01 1.086465567350387573e-01 1.627555847167968750e+00 5.208607316017150879e-01 3.009825050830841064e-01
3.221000000000000000e+03 6.904272460937500000e+01 -3.242732620239257812e+01 1.982947707176208496e+00 4.727797031402587891e+00 2.013223409652709961e+00 -1.331922769546508789e+00
3.222000000000000000e+03 5.706542205810546875e+01 1.813933372497558594e+01 1.071765303611755371e+00 5.261801242828369141e+00 1.900069952011108398e+00 -8.310244679450988770e-01
3.223000000000000000e+03 5.636824798583984375e+01 1.918482398986816406e+01 3.721204996109008789e-01 4.478436946868896484e+00 1.455167293548583984e+00 -1.749961376190185547e+00
3.224000000000000000e+03 5.163663482666015625e+01 -1.257036876678466797e+01 -4.695328772068023682e-01 2.271434307098388672e+00 5.405704379081726074e-01 -3.006525635719299316e-01
3.225000000000000000e+03 2.808605003356933594e+01 -3.333276367187500000e+01 2.159610241651535034e-01 3.046707212924957275e-01 1.561895310878753662e-01 -6.091125681996345520e-02
3.226000000000000000e+03 2.857197570800781250e+01 -3.064147949218750000e+01 2.784419953823089600e-01 2.944864332675933838e-01 1.718785315752029419e-01 -2.441738396883010864e-01
3.227000000000000000e+03 5.240345001220703125e+01 3.544245147705078125e+01 -6.376298666000366211e-01 3.678693532943725586e+00 9.123190641403198242e-01 -5.894727632403373718e-02
3.228000000000000000e+03 4.976844406127929688e+01 3.407911682128906250e+01 -3.396293520927429199e-02 3.641281843185424805e+00 1.082195639610290527e+00 -7.567592859268188477e-01
3.229000000000000000e+03 2.749797630310058594e+01 -3.444835662841796875e+01 1.781420856714248657e-01 3.258308768272399902e-01 1.511918902397155762e-01 1.154239661991596222e-02
3.230000000000000000e+03 3.519268035888671875e+01 -3.859041976928710938e+01 -1.743470318615436554e-02 1.288635134696960449e+00 3.813601136207580566e-01 2.050264030694961548e-01
3.231000000000000000e+03 6.305899047851562500e+01 3.536158323287963867e+00 1.637483946979045868e-02 4.481557369232177734e+00 1.349379658699035645e+00 -8.859232068061828613e-01
3.232000000000000000e+03 6.520703125000000000e+01 1.241515636444091797e+00 1.137823700904846191e+00 4.106754779815673828e+00 1.573373556137084961e+00 1.100090026855468750e+00
3.233000000000000000e+03 2.609236335754394531e+01 1.264800262451171875e+01 1.731357574462890625e-01 1.098924204707145691e-01 8.490845561027526855e-02 6.863532215356826782e-02
3.234000000000000000e+03 4.894137954711914062e+01 3.569204330444335938e+01 -2.498577833175659180e-01 3.382446289062500000e+00 9.397765994071960449e-01 -6.755254268646240234e-01
3.235000000000000000e+03 5.170526885986328125e+01 2.533898735046386719e+01 5.859923958778381348e-01 5.107686519622802734e+00 1.708103656768798828e+00 -5.929440855979919434e-01
3.236000000000000000e+03 4.967190170288085938e+01 2.303621101379394531e+01 -1.167877241969108582e-01 3.042613983154296875e+00 8.777478933334350586e-01 -8.519877791404724121e-01
3.237000000000000000e+03 2.201949691772460938e+01 3.533976364135742188e+01 9.613417088985443115e-02 1.197787746787071228e-01 6.477388739585876465e-02 -5.948792770504951477e-02
3.238000000000000000e+03 5.611528396606445312e+01 1.750459861755371094e+01 1.296201705932617188e+00 5.554841518402099609e+00 2.055312871932983398e+00 -1.313255906105041504e+00
3.239000000000000000e+03 2.487238311767578125e+01 -1.893573570251464844e+01 8.926159702241420746e-03 -9.549339115619659424e-02 -2.597017027437686920e-02 -2.892532944679260254e-01
3.240000000000000000e+03 2.420397377014160156e+01 -2.475105857849121094e+01 3.210754394531250000e-01 1.634133309125900269e-01 1.453466266393661499e-01 -1.277150809764862061e-01
3.241000000000000000e+03 2.669185256958007812e+01 -2.589560890197753906e+01 3.110032677650451660e-01 3.049384057521820068e-01 1.847825050354003906e-01 -1.532678306102752686e-01
3.242000000000000000e+03 6.802729034423828125e+01 3.354024505615234375e+01 1.718884706497192383e-01 5.146729946136474609e+00 1.595585584640502930e+00 6.990587711334228516e-01
3.243000000000000000e+03 8.901330947875976562e+00 -3.249863433837890625e+01 -1.064094975590705872e-01 -2.278443872928619385e-01 -1.002761647105216980e-01 -2.208755910396575928e-01
3.244000000000000000e+03 1.003135776519775391e+01 -2.963378715515136719e+01 -1.588591635227203369e-01 -2.180069684982299805e-01 -1.130598410964012146e-01 -1.836967170238494873e-01
3.245000000000000000e+03 4.844575881958007812e+01 2.501308631896972656e+01 6.897642016410827637e-01 3.037633895874023438e+00 1.118219375610351562e+00 -1.735657453536987305e-01
3.246000000000000000e+03 4.844109344482421875e+01 2.377289581298828125e+01 4.002290964126586914e-01 2.698271989822387695e+00 9.295502901077270508e-01 -2.126769870519638062e-01
3.247000000000000000e+03 3.251727294921875000e+01 -1.220076656341552734e+01 -5.825415253639221191e-01 8.597775548696517944e-02 -1.489691287279129028e-01 2.189020812511444092e-01
3.248000000000000000e+03 3.575225067138671875e+01 1.835182571411132812e+01 2.982068657875061035e-01 4.867499768733978271e-01 2.354870438575744629e-01 -2.033446878194808960e-01
3.249000000000000000e+03 6.474087524414062500e+01 2.264414787292480469e+01 -9.950746893882751465e-01 3.720958948135375977e+00 8.177652955055236816e-01 2.294591188430786133e+00
3.250000000000000000e+03 6.575192260742187500e+01 2.396502304077148438e+01 5.074117779731750488e-01 3.465566873550415039e+00 1.191893577575683594e+00 1.164955854415893555e+00
3.251000000000000000e+03 4.353927612304687500e+01 -2.367839241027832031e+01 6.008086204528808594e-01 2.044004678726196289e+00 7.934440374374389648e-01 1.133297562599182129e+00
3.252000000000000000e+03 5.090866088867187500e+01 1.777987837791442871e+00 1.884410500526428223e+00 4.828968942165374756e-01 7.101922035217285156e-01 -1.675053834915161133e+00
3.253000000000000000e+03 5.023931884765625000e+01 2.460794687271118164e+00 1.299863338470458984e+00 3.935063630342483521e-02 4.017641842365264893e-01 -1.970874190330505371e+00
3.254000000000000000e+03 7.170176982879638672e+00 -6.298243045806884766e+00 2.178329601883888245e-02 -8.421044796705245972e-02 -1.872814446687698364e-02 -8.196428418159484863e-02
3.255000000000000000e+03 6.913813591003417969e+00 -4.471134185791015625e+00 -2.220739237964153290e-02 -5.527137592434883118e-02 -2.324363030493259430e-02 -8.783377707004547119e-02
3.256000000000000000e+03 6.327912807464599609e+00 -6.347550392150878906e+00 1.231570728123188019e-02 -1.206407174468040466e-01 -3.249750286340713501e-02 -8.751400560140609741e-02
3.257000000000000000e+03 5.477764129638671875e+00 -6.495088100433349609e+00 1.821253076195716858e-02 -7.615403085947036743e-02 -1.738245040178298950e-02 -4.595425352454185486e-02
3.258000000000000000e+03 4.631189823150634766e+00 -7.521305084228515625e+00 2.171741425991058350e-02 -8.880926668643951416e-02 -2.012755535542964935e-02 -3.025760687887668610e-02
3.259000000000000000e+03 6.089248657226562500e+00 6.069612026214599609e+00 -2.005464136600494385e-01 -6.591726839542388916e-02 -7.993910461664199829e-02 5.332836508750915527e-02
3.260000000000000000e+03 1.058306503295898438e+01 -6.669008731842041016e+00 -1.046948321163654327e-02 -6.724816560745239258e-02 -2.331529557704925537e-02 -1.105393618345260620e-01
3.261000000000000000e+03 8.764823913574218750e+00 6.345614910125732422e+00 -3.618699312210083008e-01 -1.896545141935348511e-01 -1.654573380947113037e-01 1.262751370668411255e-01
3.262000000000000000e+03 2.450078201293945312e+01 6.827900886535644531e+00 1.792846918106079102e-01 -1.117708012461662292e-01 2.025416865944862366e-02 1.503416597843170166e-01
3.263000000000000000e+03 2.360424232482910156e+01 5.728219509124755859e+00 -1.777026802301406860e-02 -1.472440510988235474e-01 -4.950429499149322510e-02 1.590679585933685303e-01
3.264000000000000000e+03 2.474113082885742188e+01 7.539349079132080078e+00 2.710208296775817871e-01 -7.451023906469345093e-02 5.895317718386650085e-02 1.595530658960342407e-01
3.265000000000000000e+03 1.221356868743896484e+01 -4.284820079803466797e+00 -1.007360871881246567e-02 6.662675179541110992e-03 -1.023280201479792595e-03 -1.206020116806030273e-01
3.266000000000000000e+03 1.361142158508300781e+01 -5.257522583007812500e+00 5.624368786811828613e-02 9.147410839796066284e-02 4.431533813476562500e-02 -7.649797201156616211e-02
3.267000000000000000e+03 1.155920219421386719e+01 -3.872318267822265625e+00 -1.579825393855571747e-02 -8.643139898777008057e-02 -3.066889755427837372e-02 -1.064052060246467590e-01
3.268000000000000000e+03 1.172945785522460938e+01 -5.844249248504638672e+00 -5.406407639384269714e-03 -6.382571905851364136e-02 -2.076963707804679871e-02 -1.136627197265625000e-01
3.269000000000000000e+03 5.657299804687500000e+01 3.800156354904174805e+00 7.012426108121871948e-02 6.298605442047119141e+00 1.910618901252746582e+00 8.250474929809570312e-01
3.270000000000000000e+03 9.647757530212402344e+00 -5.274960517883300781e+00 6.531320046633481979e-03 -8.070985972881317139e-02 -2.225356176495552063e-02 -1.299867630004882812e-01
3.271000000000000000e+03 1.273996067047119141e+01 -7.278482913970947266e+00 9.466549381613731384e-03 -1.472644228488206863e-02 -1.577967777848243713e-03 -7.156430184841156006e-02
3.272000000000000000e+03 1.169707202911376953e+01 -8.296494483947753906e+00 5.655989795923233032e-02 2.434209920465946198e-02 2.427059784531593323e-02 -1.127449497580528259e-01
3.273000000000000000e+03 1.169807624816894531e+01 -4.833296298980712891e+00 -1.215914823114871979e-02 -7.761286199092864990e-02 -2.693160250782966614e-02 -1.310463547706604004e-01
3.274000000000000000e+03 6.090958023071289062e+01 2.806611061096191406e+00 2.445013821125030518e-02 6.568139553070068359e+00 1.977776885032653809e+00 -1.778793692588806152e+00
3.275000000000000000e+03 6.207040023803710938e+01 -1.262607192993164062e+01 -2.127511739730834961e+00 7.225315093994140625e+00 1.529340982437133789e+00 1.526742458343505859e+00
3.276000000000000000e+03 5.246136093139648438e+01 3.249794483184814453e+00 1.513175815343856812e-01 4.437951564788818359e+00 1.376780629158020020e+00 -1.357669234275817871e+00
3.277000000000000000e+03 5.517759323120117188e+01 -1.323282527923583984e+01 -1.114929318428039551e+00 2.389847993850708008e+00 3.824756145477294922e-01 -1.267760634422302246e+00
3.278000000000000000e+03 1.329895210266113281e+01 -1.006123065948486328e+01 8.536276407539844513e-03 1.682990193367004395e-01 5.305058881640434265e-02 -8.146620541810989380e-02
3.279000000000000000e+03 2.813513374328613281e+01 -2.842077064514160156e+01 2.931085228919982910e-01 3.357172906398773193e-01 1.886477321386337280e-01 -2.637031376361846924e-01
3.280000000000000000e+03 6.309745025634765625e+01 1.157036423683166504e+00 1.031307339668273926e+00 6.353079795837402344e+00 2.215316057205200195e+00 -4.324056208133697510e-01
3.281000000000000000e+03 7.525311279296875000e+01 -2.585952186584472656e+01 -1.050701379776000977e+00 8.873508453369140625e+00 2.346842288970947266e+00 -8.821774274110794067e-03
3.282000000000000000e+03 2.560909652709960938e+01 7.159434318542480469e+00 2.329268902540206909e-01 1.300081796944141388e-02 7.377831637859344482e-02 1.460913866758346558e-01
3.283000000000000000e+03 2.549523925781250000e+01 8.566164970397949219e+00 3.303859233856201172e-01 2.775762416422367096e-02 1.074430644512176514e-01 1.412870287895202637e-01
3.284000000000000000e+03 2.143605995178222656e+01 -2.067845153808593750e+01 -8.041228353977203369e-02 1.306067313998937607e-02 -2.020548284053802490e-02 -4.148603677749633789e-01
3.285000000000000000e+03 7.094409942626953125e+01 -3.040282058715820312e+01 1.438792467117309570e+00 3.447433710098266602e+00 1.465867877006530762e+00 2.982648313045501709e-01
3.286000000000000000e+03 4.939548873901367188e+01 3.851350069046020508e+00 -1.928782649338245392e-02 8.586271405220031738e-01 2.518017888069152832e-01 -2.246355056762695312e+00
3.287000000000000000e+03 3.888937234878540039e+00 7.340178489685058594e+00 -1.252598166465759277e-01 -3.627029433846473694e-02 -4.845903068780899048e-02 8.636859804391860962e-02
3.288000000000000000e+03 7.282569122314453125e+01 2.303114891052246094e+01 -7.860388159751892090e-01 5.854443073272705078e+00 1.520521283149719238e+00 -7.757481932640075684e-01
3.289000000000000000e+03 5.743064880371093750e+01 2.212452316284179688e+01 -2.112470865249633789e+00 1.463044524192810059e+00 -1.948279291391372681e-01 -2.097156047821044922e+00
3.290000000000000000e+03 3.809650421142578125e+01 1.540909194946289062e+01 5.492625236511230469e-01 4.913530871272087097e-02 1.795193403959274292e-01 -5.146843791007995605e-01
3.291000000000000000e+03 3.965115356445312500e+01 1.822813034057617188e+01 2.043712586164474487e-01 4.590802192687988281e-01 1.990354508161544800e-01 -5.046884417533874512e-01
3.292000000000000000e+03 4.810620784759521484e+00 -1.066137886047363281e+01 -5.480798427015542984e-03 -1.655714958906173706e-01 -5.131568759679794312e-02 -3.104767017066478729e-02
3.293000000000000000e+03 5.664335632324218750e+01 4.993161201477050781e+00 -1.095340967178344727e+00 7.529440879821777344e+00 1.930230021476745605e+00 4.710265100002288818e-01
3.294000000000000000e+03 2.414569854736328125e+01 -1.948763084411621094e+01 2.565931156277656555e-02 -1.131387650966644287e-01 -2.624383568763732910e-02 -3.085222840309143066e-01
3.295000000000000000e+03 6.225242233276367188e+01 -2.325699424743652344e+01 2.453839302062988281e+00 4.433142662048339844e+00 2.066094636917114258e+00 -5.996778607368469238e-01
3.296000000000000000e+03 2.543720054626464844e+01 1.204697132110595703e+01 2.113203108310699463e-01 5.960293114185333252e-02 8.127697557210922241e-02 9.575881808996200562e-02
3.297000000000000000e+03 2.466411590576171875e+01 1.175676727294921875e+01 1.636726260185241699e-01 3.474951907992362976e-02 5.952664464712142944e-02 1.123630627989768982e-01
3.298000000000000000e+03 2.396007156372070312e+01 9.574929237365722656e+00 3.817739784717559814e-01 -9.285552054643630981e-02 8.667553961277008057e-02 1.553907692432403564e-01
3.299000000000000000e+03 3.468464279174804688e+01 -9.420309066772460938e+00 -5.272362008690834045e-02 1.938568651676177979e-01 4.233997315168380737e-02 3.795022517442703247e-02
3.300000000000000000e+03 2.591351127624511719e+01 -2.494218254089355469e+01 2.986209988594055176e-01 2.442054450511932373e-01 1.628479361534118652e-01 -1.173429489135742188e-01
3.301000000000000000e+03 4.003499984741210938e+01 -1.564897537231445312e+01 -4.296944737434387207e-01 3.299089074134826660e-01 -2.993566356599330902e-02 -3.430019915103912354e-01
3.302000000000000000e+03 7.278982543945312500e+01 2.948683977127075195e+00 5.075612291693687439e-02 4.918209075927734375e+00 1.490689635276794434e+00 1.146625727415084839e-02
3.303000000000000000e+03 7.017653656005859375e+01 -3.155006027221679688e+01 1.686143875122070312e+00 3.985869884490966797e+00 1.701604127883911133e+00 -5.841298699378967285e-01
3.304000000000000000e+03 7.355886077880859375e+01 2.232966423034667969e+01 -9.662505984306335449e-01 6.466760158538818359e+00 1.650152921676635742e+00 -6.680716872215270996e-01
3.305000000000000000e+03 7.428266906738281250e+01 2.553627014160156250e+01 5.523985624313354492e-02 6.157871723175048828e+00 1.863933444023132324e+00 -5.850583910942077637e-01
3.306000000000000000e+03 7.417575073242187500e+01 2.684832000732421875e+01 1.808001697063446045e-01 6.014878273010253906e+00 1.858703613281250000e+00 -4.466129839420318604e-01
3.307000000000000000e+03 6.883711242675781250e+01 2.775249290466308594e+01 1.461220026016235352e+00 4.319345474243164062e+00 1.734169602394104004e+00 2.448551356792449951e-01
3.308000000000000000e+03 7.280178070068359375e+01 2.664997863769531250e+01 4.121518731117248535e-01 5.478562355041503906e+00 1.767214179039001465e+00 -5.618747472763061523e-01
3.309000000000000000e+03 5.586559677124023438e+01 2.027862358093261719e+01 -7.609601616859436035e-01 4.028367996215820312e+00 9.802224040031433105e-01 -2.434838294982910156e+00
3.310000000000000000e+03 5.222062683105468750e+01 2.204558563232421875e+01 -1.169610500335693359e+00 4.704927444458007812e+00 1.060595154762268066e+00 -1.837795376777648926e+00
3.311000000000000000e+03 5.784268188476562500e+01 -1.743120574951171875e+01 2.703322470188140869e-01 4.744570255279541016e+00 1.504470705986022949e+00 3.494056165218353271e-01
3.312000000000000000e+03 6.698542785644531250e+01 2.313407325744628906e+01 1.199554372578859329e-02 1.850731611251831055e+00 5.588181614875793457e-01 2.858248353004455566e-01
3.313000000000000000e+03 6.785892486572265625e+01 2.374786376953125000e+01 5.284815430641174316e-01 2.593692064285278320e+00 9.366520643234252930e-01 -4.262658059597015381e-01
3.314000000000000000e+03 6.416313171386718750e+01 -1.421796798706054688e+01 -2.544216632843017578e+00 6.649652481079101562e+00 1.231630802154541016e+00 8.809446096420288086e-01
3.315000000000000000e+03 2.176194190979003906e+01 -2.308575057983398438e+01 1.513009816408157349e-01 1.302703320980072021e-01 8.447138965129852295e-02 -2.052290290594100952e-01
3.316000000000000000e+03 2.107221221923828125e+01 -2.212116432189941406e+01 8.459657430648803711e-03 7.322879880666732788e-02 2.450653724372386932e-02 -3.210190534591674805e-01
3.317000000000000000e+03 6.748448848724365234e+00 -2.754441261291503906e+01 -9.206716716289520264e-02 -1.224271506071090698e-01 -6.434829533100128174e-02 -8.217873424291610718e-02
3.318000000000000000e+03 6.673560142517089844e+00 -2.605922698974609375e+01 -3.613385930657386780e-02 -6.728949397802352905e-02 -3.102700784802436829e-02 -6.328205764293670654e-02
3.319000000000000000e+03 6.511128234863281250e+01 3.533003330230712891e+00 2.432710677385330200e-01 2.742887973785400391e+00 8.958476781845092773e-01 5.237190127372741699e-01
3.320000000000000000e+03 4.230243206024169922e+00 2.348522758483886719e+01 -5.534951761364936829e-02 -5.861949920654296875e-01 -1.924633383750915527e-01 2.172741852700710297e-02
3.321000000000000000e+03 6.013387680053710938e+01 -2.105264472961425781e+01 2.262277603149414062e+00 4.031975269317626953e+00 1.888275861740112305e+00 9.638357162475585938e-02
3.322000000000000000e+03 5.364346504211425781e+00 1.986421394348144531e+01 1.061899811029434204e-01 -4.351419508457183838e-01 -9.868559241294860840e-02 5.786000192165374756e-02
3.323000000000000000e+03 7.387196350097656250e+01 1.240267276763916016e+01 1.540982842445373535e+00 9.810183525085449219e+00 3.405349969863891602e+00 4.300611317157745361e-01
3.324000000000000000e+03 7.172335147857666016e+00 1.674604225158691406e+01 3.300662934780120850e-01 -2.453151345252990723e-01 2.542534843087196350e-02 2.322656363248825073e-01
3.325000000000000000e+03 5.780686378479003906e+00 -8.499946594238281250e+00 3.021328710019588470e-02 -1.210609599947929382e-01 -2.725430205464363098e-02 -4.078818857669830322e-02
3.326000000000000000e+03 1.225568103790283203e+01 -6.471200466156005859e+00 8.514706045389175415e-02 2.859070897102355957e-02 3.412133082747459412e-02 -1.063254103064537048e-01
3.327000000000000000e+03 1.231842803955078125e+01 -5.340498447418212891e+00 5.194365233182907104e-02 1.901192218065261841e-02 2.128667198121547699e-02 -9.974128752946853638e-02
3.328000000000000000e+03 6.049519729614257812e+01 5.805885791778564453e+00 -1.189212560653686523e+00 6.635859966278076172e+00 1.633994102478027344e+00 -1.365970730781555176e+00
3.329000000000000000e+03 6.017075347900390625e+01 3.504649639129638672e+00 -2.595765888690948486e-01 6.608507156372070312e+00 1.904679179191589355e+00 -1.619151949882507324e+00
3.330000000000000000e+03 7.231113433837890625e+01 3.143834686279296875e+01 4.870628416538238525e-01 5.570573329925537109e+00 1.817290782928466797e+00 2.431290000677108765e-01
3.331000000000000000e+03 4.981834411621093750e+01 2.615449523925781250e+01 1.142671465873718262e+00 3.792952060699462891e+00 1.480687141418457031e+00 -5.090236663818359375e-01
3.332000000000000000e+03 4.859064865112304688e+01 2.631596565246582031e+01 1.035548329353332520e+00 3.367998361587524414e+00 1.321063995361328125e+00 -3.516712188720703125e-01
3.333000000000000000e+03 6.417835712432861328e+00 8.786993980407714844e+00 -2.967251837253570557e-01 -1.223869025707244873e-01 -1.257336288690567017e-01 2.280759960412979126e-01
3.334000000000000000e+03 7.128706359863281250e+01 5.383832931518554688e+00 -2.825683653354644775e-01 5.266365051269531250e+00 1.495139002799987793e+00 1.425464391708374023e+00
3.335000000000000000e+03 7.026408386230468750e+01 3.583822488784790039e+00 5.209744572639465332e-01 3.209496259689331055e+00 1.119141221046447754e+00 1.781439781188964844e+00
3.336000000000000000e+03 1.117924308776855469e+01 -5.331964969635009766e+00 3.750082850456237793e-02 -2.183480747044086456e-02 4.699806217104196548e-03 -1.104984283447265625e-01
3.337000000000000000e+03 5.638970851898193359e+00 -7.454882144927978516e+00 1.685345545411109924e-02 -1.256620734930038452e-01 -3.264258429408073425e-02 -6.576247513294219971e-02
3.338000000000000000e+03 5.064353179931640625e+01 -1.175648117065429688e+01 -1.228691041469573975e-01 3.228133440017700195e+00 9.315792918205261230e-01 8.085923790931701660e-01
3.339000000000000000e+03 9.036036491394042969e+00 -2.704095077514648438e+01 -7.596044242382049561e-02 -1.281226128339767456e-01 -6.122491508722305298e-02 -1.714914739131927490e-01
3.340000000000000000e+03 5.900240325927734375e+01 -1.812925529479980469e+01 6.526190042495727539e-01 4.874144077301025391e+00 1.658028841018676758e+00 3.820188939571380615e-01
3.341000000000000000e+03 5.782151031494140625e+01 -1.331440639495849609e+01 -8.630866408348083496e-01 2.639995098114013672e+00 5.330725312232971191e-01 5.118047595024108887e-01
3.342000000000000000e+03 6.814549255371093750e+01 2.584611701965332031e+01 1.495508909225463867e+00 3.592176437377929688e+00 1.526305556297302246e+00 -1.013047154992818832e-02
3.343000000000000000e+03 2.313434410095214844e+01 -1.785314178466796875e+01 -1.749397665262222290e-01 -2.131024301052093506e-01 -1.164126545190811157e-01 -4.554148912429809570e-01
3.344000000000000000e+03 5.141630554199218750e+01 2.447679710388183594e+01 5.071516707539558411e-02 4.622044563293457031e+00 1.401827931404113770e+00 -8.115290403366088867e-01
3.345000000000000000e+03 2.826254844665527344e+01 -3.194648551940917969e+01 2.562883794307708740e-01 3.416809737682342529e-01 1.793908178806304932e-01 -1.643046289682388306e-01
3.346000000000000000e+03 7.941900730133056641e+00 -1.113196754455566406e+01 -2.674146369099617004e-02 -2.013094872236251831e-01 -6.841528415679931641e-02 -9.614253044128417969e-02
3.347000000000000000e+03 5.906026077270507812e+01 -2.291909790039062500e+01 1.774070739746093750e+00 3.346032619476318359e+00 1.536031007766723633e+00 1.103696346282958984e+00
3.348000000000000000e+03 5.928000640869140625e+01 -1.971358871459960938e+01 1.608693242073059082e+00 4.557031631469726562e+00 1.849717497825622559e+00 3.809305727481842041e-01
3.349000000000000000e+03 2.467768478393554688e+01 -2.337110519409179688e+01 2.489796727895736694e-01 1.701449006795883179e-01 1.257373690605163574e-01 -1.355713158845901489e-01
3.350000000000000000e+03 2.409267616271972656e+01 -2.117534446716308594e+01 1.325650811195373535e-01 3.138631582260131836e-02 4.918541759252548218e-02 -2.184098958969116211e-01
3.351000000000000000e+03 4.200280380249023438e+01 -2.394465637207031250e+01 6.910815238952636719e-01 1.875807523727416992e+00 7.700667381286621094e-01 1.426855564117431641e+00
3.352000000000000000e+03 7.123014068603515625e+01 -3.345269775390625000e+01 1.312161326408386230e+00 4.896580696105957031e+00 1.862622618675231934e+00 -6.117396950721740723e-01
3.353000000000000000e+03 7.222665405273437500e+01 2.379587554931640625e+01 -5.401648283004760742e-01 5.343378543853759766e+00 1.440964102745056152e+00 -9.733439683914184570e-01
3.354000000000000000e+03 2.849196243286132812e+01 -3.598488616943359375e+01 1.823028624057769775e-01 4.177431464195251465e-01 1.800137907266616821e-01 1.043615713715553284e-01
3.355000000000000000e+03 3.398840713500976562e+01 -3.326896286010742188e+01 7.774534821510314941e-01 8.153549432754516602e-01 4.778425097465515137e-01 2.521019876003265381e-01
3.356000000000000000e+03 2.532751464843750000e+01 3.299369049072265625e+01 1.747568696737289429e-01 4.272286593914031982e-01 1.805956661701202393e-01 8.540046960115432739e-02
3.357000000000000000e+03 3.259329986572265625e+01 3.331631469726562500e+01 1.644584685564041138e-01 8.294968605041503906e-01 2.981866002082824707e-01 -4.142569378018379211e-02
3.358000000000000000e+03 3.004662513732910156e+01 3.432058715820312500e+01 2.363925129175186157e-01 5.606549978256225586e-01 2.391142547130584717e-01 -5.854140035808086395e-03
3.359000000000000000e+03 1.976344490051269531e+01 -2.042559242248535156e+01 -2.371943891048431396e-01 2.767690271139144897e-02 -6.285524368286132812e-02 -5.007916688919067383e-01
3.360000000000000000e+03 2.088717842102050781e+01 -1.960925102233886719e+01 -1.320109367370605469e-01 -2.100675366818904877e-02 -4.590530693531036377e-02 -4.970989823341369629e-01
3.361000000000000000e+03 5.882961273193359375e+01 -1.414769363403320312e+01 -1.266573905944824219e+00 4.183789253234863281e+00 8.751646280288696289e-01 1.091386318206787109e+00
3.362000000000000000e+03 5.919108200073242188e+01 3.617687940597534180e+00 6.525214761495590210e-02 6.416065216064453125e+00 1.944395184516906738e+00 -1.389527440071105957e+00
3.363000000000000000e+03 5.803679656982421875e+01 6.058119297027587891e+00 -1.134704351425170898e+00 7.738582611083984375e+00 1.981163382530212402e+00 -4.734459817409515381e-01
3.364000000000000000e+03 6.727976226806640625e+01 3.157352066040039062e+01 8.400802612304687500e-01 4.920063495635986328e+00 1.728043198585510254e+00 9.050109386444091797e-01
3.365000000000000000e+03 6.790843200683593750e+01 2.949493789672851562e+01 1.357973456382751465e+00 4.635858058929443359e+00 1.798149466514587402e+00 8.990773558616638184e-01
3.366000000000000000e+03 6.355869293212890625e+01 -1.334548854827880859e+01 -2.190126419067382812e+00 7.217894077301025391e+00 1.508330225944519043e+00 1.018024563789367676e+00
3.367000000000000000e+03 6.269727706909179688e+01 -1.659892082214355469e+01 -1.497075438499450684e+00 6.889457702636718750e+00 1.617714762687683105e+00 1.042760908603668213e-01
3.368000000000000000e+03 8.915146827697753906e+00 -2.918502426147460938e+01 -1.310760080814361572e-01 -1.787101924419403076e-01 -9.293586015701293945e-02 -1.732789278030395508e-01
3.369000000000000000e+03 6.072406005859375000e+01 -1.361917018890380859e+01 -2.046911239624023438e+00 6.042373657226562500e+00 1.198638677597045898e+00 1.698747992515563965e+00
3.370000000000000000e+03 4.912906646728515625e+01 -1.202626037597656250e+01 4.549708068370819092e-01 3.759734869003295898e+00 1.264411687850952148e+00 1.330643773078918457e+00
3.371000000000000000e+03 6.804276466369628906e+00 9.712375640869140625e+00 -2.811551988124847412e-01 -1.374648064374923706e-01 -1.255860030651092529e-01 2.980078458786010742e-01
3.372000000000000000e+03 7.136334419250488281e+00 1.069447231292724609e+01 -2.327039539813995361e-01 -1.818960011005401611e-01 -1.243799850344657898e-01 3.770961165428161621e-01
3.373000000000000000e+03 6.011405181884765625e+01 -1.987654304504394531e+01 1.677227377891540527e+00 4.707980155944824219e+00 1.915562272071838379e+00 1.792709231376647949e-01
3.374000000000000000e+03 5.283962631225585938e+01 2.067903900146484375e+01 -1.203166365623474121e+00 4.623107910156250000e+00 1.025982499122619629e+00 -2.326409578323364258e+00
3.375000000000000000e+03 5.384316635131835938e+01 2.002190399169921875e+01 -9.492555260658264160e-01 4.842936515808105469e+00 1.168104410171508789e+00 -2.584310770034790039e+00
3.376000000000000000e+03 7.932308673858642578e+00 -2.721681404113769531e+01 -9.982509911060333252e-02 -1.006924882531166077e-01 -6.015527620911598206e-02 -1.343082636594772339e-01
3.377000000000000000e+03 4.718169021606445312e+01 3.547244644165039062e+01 -9.302307665348052979e-02 2.974639415740966797e+00 8.644848465919494629e-01 -8.363501429557800293e-01
3.378000000000000000e+03 5.762500000000000000e+01 1.705681419372558594e+01 1.863781690597534180e+00 6.208259582519531250e+00 2.421612262725830078e+00 -2.715486884117126465e-01
3.379000000000000000e+03 6.190760421752929688e+01 3.345685243606567383e+00 -2.840242385864257812e-01 5.784836292266845703e+00 1.650243639945983887e+00 -1.278313159942626953e+00
3.380000000000000000e+03 7.447626495361328125e+01 2.189635848999023438e+01 -1.052268147468566895e+00 6.912444114685058594e+00 1.758052825927734375e+00 -2.986012697219848633e-01
3.381000000000000000e+03 6.096718978881835938e+01 -1.570330524444580078e+01 -1.348236918449401855e+00 6.141138553619384766e+00 1.437870383262634277e+00 8.218213915824890137e-01
3.382000000000000000e+03 5.042391967773437500e+01 3.960105514526367188e+01 -8.628581166267395020e-01 3.167458534240722656e+00 6.913801431655883789e-01 -6.668530404567718506e-02
3.383000000000000000e+03 5.142996978759765625e+01 2.175867652893066406e+01 -8.688522577285766602e-01 4.084993362426757812e+00 9.648423194885253906e-01 -1.772802114486694336e+00
3.384000000000000000e+03 2.406080245971679688e+01 -1.848643875122070312e+01 -7.186947762966156006e-02 -1.517393290996551514e-01 -6.708264350891113281e-02 -3.429775238037109375e-01
3.385000000000000000e+03 8.648288726806640625e+00 -5.820729255676269531e+00 -1.437411457300186157e-02 -8.605069667100906372e-02 -3.012744337320327759e-02 -1.104202866554260254e-01
3.386000000000000000e+03 8.781323432922363281e+00 -7.291968822479248047e+00 2.510832063853740692e-02 -1.166325435042381287e-01 -2.745726704597473145e-02 -1.045397073030471802e-01
3.387000000000000000e+03 4.874050617218017578e+00 5.907515525817871094e+00 -1.464835405349731445e-01 -3.341426327824592590e-02 -5.396933853626251221e-02 3.206493705511093140e-02
3.388000000000000000e+03 7.966957569122314453e+00 -6.428565979003906250e+00 2.107917889952659607e-02 -1.137150377035140991e-01 -2.779075689613819122e-02 -1.029270887374877930e-01
3.389000000000000000e+03 8.061688423156738281e+00 -5.704633712768554688e+00 1.387000549584627151e-02 -9.642636775970458984e-02 -2.476690895855426788e-02 -1.004760190844535828e-01
3.390000000000000000e+03 7.346829414367675781e+00 -5.452135086059570312e+00 -6.382543127983808517e-03 -7.651669532060623169e-02 -2.486977167427539825e-02 -9.666202962398529053e-02
3.391000000000000000e+03 9.479380607604980469e+00 -6.367928504943847656e+00 -2.090792637318372726e-03 -9.764138609170913696e-02 -2.991965226829051971e-02 -1.063065379858016968e-01
3.392000000000000000e+03 1.020960998535156250e+01 -5.505049705505371094e+00 8.560287766158580780e-03 -6.172020360827445984e-02 -1.594797335565090179e-02 -1.081905588507652283e-01
3.393000000000000000e+03 6.547318935394287109e+00 6.704118251800537109e+00 -2.639183104038238525e-01 -8.422537893056869507e-02 -1.044431030750274658e-01 9.804499894380569458e-02
3.394000000000000000e+03 2.383258819580078125e+01 8.080998420715332031e+00 3.167187869548797607e-01 -1.502851545810699463e-01 4.993008449673652649e-02 1.548108160495758057e-01
3.395000000000000000e+03 1.091642951965332031e+01 -8.803037643432617188e+00 5.621867720037698746e-03 -5.753553286194801331e-02 -1.557410042732954025e-02 -9.664843231439590454e-02
3.396000000000000000e+03 5.433432579040527344e+00 9.225787162780761719e+00 -2.098662257194519043e-01 -9.326742589473724365e-02 -9.094009548425674438e-02 2.358530759811401367e-01
3.397000000000000000e+03 1.157742023468017578e+01 -6.846821784973144531e+00 9.047855623066425323e-03 -6.058360263705253601e-02 -1.546072494238615036e-02 -9.027794003486633301e-02
3.398000000000000000e+03 7.898812770843505859e+00 -8.131710052490234375e+00 3.568160906434059143e-02 -1.340806335210800171e-01 -2.951970696449279785e-02 -9.850358963012695312e-02
3.399000000000000000e+03 6.411576080322265625e+01 2.384335517883300781e+00 5.918594598770141602e-01 4.452579498291015625e+00 1.513331770896911621e+00 1.883020251989364624e-01
3.400000000000000000e+03 5.790751647949218750e+01 -1.501344776153564453e+01 -7.649963498115539551e-01 4.027554035186767578e+00 9.787673354148864746e-01 2.772801816463470459e-01
3.401000000000000000e+03 6.414609527587890625e+01 3.588585376739501953e+00 3.653154671192169189e-01 3.351509094238281250e+00 1.115047335624694824e+00 1.209600791335105896e-01
3.402000000000000000e+03 2.046595954895019531e+01 -2.124461746215820312e+01 -9.888896346092224121e-02 3.733963146805763245e-02 -1.846479997038841248e-02 -3.844955861568450928e-01
3.403000000000000000e+03 2.024135780334472656e+01 -2.263730812072753906e+01 2.164977788925170898e-02 8.015213161706924438e-02 3.054057247936725616e-02 -3.039049208164215088e-01
3.404000000000000000e+03 2.264414978027343750e+01 7.492949485778808594e+00 2.767441868782043457e-01 -2.003037482500076294e-01 2.293213456869125366e-02 1.658541858196258545e-01
3.405000000000000000e+03 6.954924774169921875e+01 2.345225524902343750e+01 -1.927128285169601440e-01 3.500636339187622070e+00 9.923771023750305176e-01 -1.241145014762878418e+00
3.406000000000000000e+03 6.216259002685546875e+01 -1.380473327636718750e+01 -2.184400558471679688e+00 6.874145984649658203e+00 1.406923651695251465e+00 1.277903437614440918e+00
3.407000000000000000e+03 6.006897354125976562e+01 -1.483316421508789062e+01 -1.414591193199157715e+00 5.467725753784179688e+00 1.215940356254577637e+00 1.062039971351623535e+00
3.408000000000000000e+03 7.820483684539794922e+00 -2.590215301513671875e+01 -3.781473636627197266e-02 -3.932037577033042908e-02 -2.314053289592266083e-02 -1.100925579667091370e-01
3.409000000000000000e+03 4.023888397216796875e+01 1.565809917449951172e+01 4.474301934242248535e-01 5.583173632621765137e-01 3.017242550849914551e-01 -7.802750468254089355e-01
3.410000000000000000e+03 4.050354766845703125e+01 1.704204940795898438e+01 1.982750892639160156e-01 6.900411248207092285e-01 2.664948701858520508e-01 -6.089624166488647461e-01
3.411000000000000000e+03 3.701103591918945312e+01 1.601079559326171875e+01 4.758783280849456787e-01 1.092903986573219299e-01 1.755506247282028198e-01 -3.862723410129547119e-01
3.412000000000000000e+03 2.488290596008300781e+01 9.280735969543457031e+00 3.799166381359100342e-01 -3.838977962732315063e-02 1.024580597877502441e-01 1.344934403896331787e-01
3.413000000000000000e+03 7.717232227325439453e+00 -9.168784141540527344e+00 1.659540832042694092e-02 -1.406424939632415771e-01 -3.721412643790245056e-02 -8.253527432680130005e-02
3.414000000000000000e+03 6.758473205566406250e+01 2.703127861022949219e+01 1.661624312400817871e+00 3.903996229171752930e+00 1.669686198234558105e+00 5.807765722274780273e-01
3.415000000000000000e+03 7.119625091552734375e+01 2.969568252563476562e+01 8.630409836769104004e-01 5.096499919891357422e+00 1.787862300872802734e+00 1.470046341419219971e-01
3.416000000000000000e+03 3.501754760742187500e+01 -3.647729873657226562e+01 2.556008398532867432e-01 1.268371582031250000e+00 4.571917355060577393e-01 4.648527801036834717e-01
3.417000000000000000e+03 3.207591247558593750e+01 -3.256077575683593750e+01 5.827807188034057617e-01 5.286921858787536621e-01 3.334418833255767822e-01 -7.944494485855102539e-03
3.418000000000000000e+03 7.144908142089843750e+01 3.178303480148315430e+00 3.035747706890106201e-01 3.987270832061767578e+00 1.287253618240356445e+00 9.115414619445800781e-01
3.419000000000000000e+03 7.249740600585937500e+01 3.019128990173339844e+01 5.758221745491027832e-01 5.494861125946044922e+00 1.821204900741577148e+00 6.928804516792297363e-02
3.420000000000000000e+03 7.375718688964843750e+01 3.058622932434082031e+01 4.112087786197662354e-01 5.988437652587890625e+00 1.919893860816955566e+00 3.702107816934585571e-02
3.421000000000000000e+03 5.679705047607421875e+01 2.072905731201171875e+01 -5.753896236419677734e-01 3.229602098464965820e+00 7.962636947631835938e-01 -1.972756266593933105e+00
3.422000000000000000e+03 7.303517913818359375e+01 2.530614471435546875e+01 -2.884668670594692230e-02 5.590898036956787109e+00 1.668615460395812988e+00 -6.655939817428588867e-01
3.423000000000000000e+03 7.260467529296875000e+00 -2.893729400634765625e+01 -1.058540642261505127e-01 -1.649771034717559814e-01 -8.124934881925582886e-02 -1.237866580486297607e-01
3.424000000000000000e+03 6.007929325103759766e+00 -3.100724411010742188e+01 -8.465197682380676270e-02 -2.553986310958862305e-01 -1.020151823759078979e-01 -1.251823902130126953e-01
3.425000000000000000e+03 7.066040802001953125e+01 2.423499870300292969e+01 -8.983559906482696533e-02 4.222072601318359375e+00 1.239671111106872559e+00 -1.026460409164428711e+00
3.426000000000000000e+03 2.317511177062988281e+01 -2.166955947875976562e+01 1.205525100231170654e-01 4.551334306597709656e-02 4.981975629925727844e-02 -2.409261912107467651e-01
3.427000000000000000e+03 9.971822738647460938e+00 -9.130168914794921875e+00 2.130734175443649292e-02 -5.166769400238990784e-02 -9.108105674386024475e-03 -1.285241246223449707e-01
3.428000000000000000e+03 1.034339523315429688e+01 -7.238491535186767578e+00 4.049500450491905212e-02 -9.843829274177551270e-02 -1.738298684358596802e-02 -1.123981848359107971e-01
3.429000000000000000e+03 6.946791076660156250e+01 2.664872360229492188e+01 1.129016518592834473e+00 3.902194261550903320e+00 1.509363174438476562e+00 -2.123434543609619141e-01
3.430000000000000000e+03 5.830109786987304688e+01 -1.613847160339355469e+01 -4.914371073246002197e-01 4.551150321960449219e+00 1.217913985252380371e+00 5.664101243019104004e-01
3.431000000000000000e+03 6.716374874114990234e+00 -8.637233734130859375e+00 2.718977816402912140e-02 -1.417123973369598389e-01 -3.435678780078887939e-02 -8.395533263683319092e-02
3.432000000000000000e+03 7.145761013031005859e+00 -1.016444492340087891e+01 1.244975812733173370e-02 -1.567663997411727905e-01 -4.329499229788780212e-02 -8.574195206165313721e-02
3.433000000000000000e+03 3.263346099853515625e+01 -8.930229187011718750e+00 -1.919149756431579590e-01 -2.781576514244079590e-01 -1.410217881202697754e-01 -1.607149690389633179e-01
3.434000000000000000e+03 2.085667610168457031e+01 -1.628933525085449219e+01 -3.465817868709564209e-01 -7.406359910964965820e-02 -1.261936128139495850e-01 -4.783450365066528320e-01
3.435000000000000000e+03 6.138473129272460938e+01 -1.694800186157226562e+01 -8.106799721717834473e-01 6.197583675384521484e+00 1.616071105003356934e+00 2.114797830581665039e-01
3.436000000000000000e+03 7.283595275878906250e+01 2.794901847839355469e+01 5.309794545173645020e-01 5.423212528228759766e+00 1.786257624626159668e+00 -3.200792372226715088e-01
3.437000000000000000e+03 5.915709495544433594e+00 -3.370318984985351562e+01 -3.220742568373680115e-02 -3.253138661384582520e-01 -1.072563901543617249e-01 -1.704433560371398926e-01
3.438000000000000000e+03 4.489418506622314453e+00 -3.473876953125000000e+01 -3.567655337974429131e-03 -4.147149920463562012e-01 -1.254847943782806396e-01 -1.315821558237075806e-01
3.439000000000000000e+03 7.213374328613281250e+01 -3.119681167602539062e+01 1.008026719093322754e+00 4.372317314147949219e+00 1.614103317260742188e+00 4.840293824672698975e-01
3.440000000000000000e+03 7.242891693115234375e+01 -3.298463058471679688e+01 9.317835569381713867e-01 5.076975822448730469e+00 1.802627921104431152e+00 -1.704647904261946678e-03
3.441000000000000000e+03 2.211894226074218750e+01 -1.878181457519531250e+01 -1.343180835247039795e-01 -1.138730719685554504e-01 -7.445734739303588867e-02 -4.764152169227600098e-01
3.442000000000000000e+03 2.184427070617675781e+01 -2.155648231506347656e+01 2.577174641191959381e-02 8.297526836395263672e-02 3.262410312891006470e-02 -2.922919690608978271e-01
3.443000000000000000e+03 6.953322601318359375e+01 3.350211715698242188e+01 2.886175811290740967e-01 5.364409923553466797e+00 1.695908308029174805e+00 6.154916882514953613e-01
3.444000000000000000e+03 6.792904663085937500e+01 3.500474548339843750e+01 -1.770117729902267456e-01 5.239329814910888672e+00 1.518695473670959473e+00 5.690134763717651367e-01
3.445000000000000000e+03 5.915589141845703125e+01 4.703793525695800781e+00 -6.526771783828735352e-01 6.928689002990722656e+00 1.882803559303283691e+00 -1.145524382591247559e+00
3.446000000000000000e+03 3.146604919433593750e+01 -3.461830902099609375e+01 4.491299986839294434e-01 6.133148670196533203e-01 3.187334835529327393e-01 1.668472141027450562e-01
3.447000000000000000e+03 3.419106674194335938e+01 3.112086105346679688e+01 2.169839590787887573e-01 1.221522450447082520e+00 4.315519332885742188e-01 1.218659896403551102e-02
3.448000000000000000e+03 2.718527603149414062e+01 3.489408493041992188e+01 1.818310767412185669e-01 4.497642815113067627e-01 1.894786059856414795e-01 2.541722543537616730e-02
3.449000000000000000e+03 7.077588653564453125e+01 2.753324317932128906e+01 9.492660760879516602e-01 4.747355937957763672e+00 1.708986520767211914e+00 -2.620391845703125000e-01
3.450000000000000000e+03 8.229350090026855469e+00 -2.837887954711914062e+01 -1.199833974242210388e-01 -1.443201452493667603e-01 -7.929106056690216064e-02 -1.429560631513595581e-01
3.451000000000000000e+03 6.356118679046630859e+00 -2.981552314758300781e+01 -1.132853999733924866e-01 -2.046934962272644043e-01 -9.539367258548736572e-02 -1.131792739033699036e-01
3.452000000000000000e+03 3.615020751953125000e+01 1.672309112548828125e+01 4.378899633884429932e-01 2.596332132816314697e-01 2.092569619417190552e-01 -2.641710042953491211e-01
3.453000000000000000e+03 2.942423439025878906e+01 -3.217695999145507812e+01 3.361484110355377197e-01 3.377755582332611084e-01 2.021771967411041260e-01 -1.224936172366142273e-01
3.454000000000000000e+03 4.695524215698242188e+01 4.087148284912109375e+01 -5.753628015518188477e-01 2.681919813156127930e+00 6.319670677185058594e-01 -1.913451254367828369e-01
3.455000000000000000e+03 3.630271530151367188e+01 1.899311828613281250e+01 2.419722378253936768e-01 5.440623760223388672e-01 2.358103841543197632e-01 -2.838690578937530518e-01
3.456000000000000000e+03 8.715650558471679688e+00 -6.478103160858154297e+00 3.660325706005096436e-02 -7.879962027072906494e-02 -1.265890989452600479e-02 -1.127966865897178650e-01
3.457000000000000000e+03 7.193953514099121094e+00 -7.117875099182128906e+00 3.049896843731403351e-02 -1.297381073236465454e-01 -2.977174147963523865e-02 -8.927000313997268677e-02
3.458000000000000000e+03 9.603515625000000000e+00 -7.245461940765380859e+00 4.658121988177299500e-02 -6.837026774883270264e-02 -6.536714266985654831e-03 -1.205919161438941956e-01
3.459000000000000000e+03 1.018277645111083984e+01 -6.150066375732421875e+00 6.310439109802246094e-02 -5.384292826056480408e-02 2.778440248221158981e-03 -1.371803879737854004e-01
3.460000000000000000e+03 1.053334808349609375e+01 -8.011251449584960938e+00 4.136804491281509399e-02 -3.093456104397773743e-02 3.130044555291533470e-03 -1.221321597695350647e-01
3.461000000000000000e+03 5.967104721069335938e+01 -1.609806060791015625e+01 -6.595803499221801758e-01 5.204114437103271484e+00 1.363360285758972168e+00 6.205757856369018555e-01
3.462000000000000000e+03 6.977697849273681641e+00 7.464410781860351562e+00 -3.068342804908752441e-01 -1.280772238969802856e-01 -1.304734498262405396e-01 1.536603569984436035e-01
3.463000000000000000e+03 1.190704059600830078e+01 -7.575734615325927734e+00 2.311008051037788391e-02 5.628196522593498230e-02 2.381761372089385986e-02 -1.075270920991897583e-01
3.464000000000000000e+03 1.115292167663574219e+01 -6.275611400604248047e+00 7.348052412271499634e-02 -2.732951939105987549e-02 1.384530123323202133e-02 -1.253654807806015015e-01
3.465000000000000000e+03 8.865087509155273438e+00 -9.344094276428222656e+00 2.216983214020729065e-02 -1.439002752304077148e-01 -3.651913255453109741e-02 -1.087304875254631042e-01
3.466000000000000000e+03 9.722070693969726562e+00 -8.174768447875976562e+00 2.400266937911510468e-02 -1.078630164265632629e-01 -2.515810355544090271e-02 -1.073551476001739502e-01
3.467000000000000000e+03 8.822105407714843750e+00 -8.240775108337402344e+00 3.555133938789367676e-02 -9.445893764495849609e-02 -1.767227798700332642e-02 -1.101085767149925232e-01
3.468000000000000000e+03 3.978800201416015625e+01 1.647257232666015625e+01 3.832800984382629395e-01 5.099635720252990723e-01 2.679730951786041260e-01 -6.852225661277770996e-01
3.469000000000000000e+03 3.882699966430664062e+01 1.614225196838378906e+01 4.440449774265289307e-01 2.969962358474731445e-01 2.223123610019683838e-01 -6.060518622398376465e-01
3.470000000000000000e+03 2.241674804687500000e+01 -2.083916282653808594e+01 9.582367725670337677e-03 -7.150974706746637821e-04 2.660181140527129173e-03 -3.392586112022399902e-01
3.471000000000000000e+03 6.481889247894287109e+00 -7.224528789520263672e+00 2.507189474999904633e-02 -9.170562773942947388e-02 -1.999012008309364319e-02 -6.430017948150634766e-02
3.472000000000000000e+03 6.920465850830078125e+01 3.098532295227050781e+01 9.044582247734069824e-01 4.888731956481933594e+00 1.737957119941711426e+00 6.413314342498779297e-01
3.473000000000000000e+03 7.087456512451171875e+01 3.130886459350585938e+01 6.719405055046081543e-01 5.232737541198730469e+00 1.771403312683105469e+00 3.534883558750152588e-01
3.474000000000000000e+03 7.184687042236328125e+01 2.845590591430664062e+01 7.186388373374938965e-01 5.039231777191162109e+00 1.727361202239990234e+00 -1.644777804613113403e-01
3.475000000000000000e+03 6.043468093872070312e+01 4.584514141082763672e+00 -7.721500992774963379e-01 6.513696670532226562e+00 1.722463965415954590e+00 -1.498023748397827148e+00
3.476000000000000000e+03 6.144063472747802734e+00 -3.735862731933593750e+01 5.510515719652175903e-02 -3.984358310699462891e-01 -1.029992029070854187e-01 -1.674768030643463135e-01
3.477000000000000000e+03 7.182699584960937500e+01 2.489850997924804688e+01 1.142155379056930542e-01 5.058881282806396484e+00 1.551928997039794922e+00 -9.452302455902099609e-01
3.478000000000000000e+03 7.140039062500000000e+01 2.620495033264160156e+01 5.114230513572692871e-01 4.706432819366455078e+00 1.565356850624084473e+00 -5.904359817504882812e-01
3.479000000000000000e+03 6.606056213378906250e+01 3.599355697631835938e+01 -6.603138446807861328e-01 4.865527629852294922e+00 1.261564254760742188e+00 2.533701956272125244e-01
3.480000000000000000e+03 5.298690319061279297e+00 1.235742282867431641e+01 -1.841902732849121094e-02 -2.185779362916946411e-01 -7.109908759593963623e-02 3.623837530612945557e-01
3.481000000000000000e+03 3.213864135742187500e+01 3.505519485473632812e+01 1.550295948982238770e-01 7.676617503166198730e-01 2.768073976039886475e-01 1.729063317179679871e-02
3.482000000000000000e+03 6.887901306152343750e+01 -3.707728576660156250e+01 -8.431968092918395996e-02 5.623853683471679688e+00 1.661860227584838867e+00 -9.987549781799316406e-01
3.483000000000000000e+03 7.171608734130859375e+01 3.518440628051757812e+01 5.381827056407928467e-02 5.806065082550048828e+00 1.757964968681335449e+00 3.924193382263183594e-01
3.484000000000000000e+03 7.181701660156250000e+01 3.721724319458007812e+01 -1.613934785127639771e-01 5.874577045440673828e+00 1.713955044746398926e+00 3.070106804370880127e-01
3.485000000000000000e+03 3.357637023925781250e+01 -3.565406417846679688e+01 3.799271285533905029e-01 9.432618021965026855e-01 3.969566822052001953e-01 3.234108090400695801e-01
3.486000000000000000e+03 3.276577758789062500e+01 -3.403329086303710938e+01 5.993944406509399414e-01 6.055433154106140137e-01 3.614813387393951416e-01 2.135314792394638062e-01
3.487000000000000000e+03 7.422642230987548828e+00 -3.230776977539062500e+01 -1.011095046997070312e-01 -2.448167800903320312e-01 -1.037778854370117188e-01 -1.839874088764190674e-01
3.488000000000000000e+03 6.772747039794921875e+01 3.053107452392578125e+01 9.629018306732177734e-01 5.020179748535156250e+00 1.794924378395080566e+00 7.997618913650512695e-01
3.489000000000000000e+03 6.642246246337890625e+01 3.007411766052246094e+01 1.292217969894409180e+00 4.903833866119384766e+00 1.858815431594848633e+00 1.044059634208679199e+00
3.490000000000000000e+03 3.655517196655273438e+01 -4.113641357421875000e+01 -1.811915487051010132e-01 1.270424723625183105e+00 3.267699480056762695e-01 4.789768904447555542e-02
3.491000000000000000e+03 7.636320114135742188e+00 4.136776733398437500e+01 -8.031266927719116211e-02 -1.667580455541610718e-01 -7.412121444940567017e-02 -5.504163447767496109e-03
3.492000000000000000e+03 7.630500793457031250e+00 3.919082260131835938e+01 -3.676266968250274658e-02 -1.581275165081024170e-01 -5.846705660223960876e-02 -1.125235855579376221e-02
3.493000000000000000e+03 3.189281654357910156e+01 -3.626651382446289062e+01 3.296891748905181885e-01 7.247043251991271973e-01 3.163180351257324219e-01 2.474886029958724976e-01
3.494000000000000000e+03 8.345293045043945312e+00 -4.157066345214843750e+01 1.943232417106628418e-01 -3.371775746345520020e-01 -4.285629838705062866e-02 -4.056121781468391418e-02
3.495000000000000000e+03 9.824231147766113281e+00 -3.984333419799804688e+01 2.247561812400817871e-01 -2.336726933717727661e-01 -2.674951450899243355e-03 -1.142149418592453003e-01
3.496000000000000000e+03 7.015571117401123047e+00 -7.838533878326416016e+00 2.683157660067081451e-02 -1.331706196069717407e-01 -3.190170973539352417e-02 -7.585106045007705688e-02
3.497000000000000000e+03 7.966252326965332031e+00 -7.236087799072265625e+00 2.735750190913677216e-02 -9.376250952482223511e-02 -1.992150209844112396e-02 -9.999906271696090698e-02
3.498000000000000000e+03 6.999094390869140625e+01 2.878023147583007812e+01 1.103918910026550293e+00 4.513417243957519531e+00 1.685200810432434082e+00 1.735201328992843628e-01
3.499000000000000000e+03 7.262107849121093750e+01 -3.624625015258789062e+01 3.809220790863037109e-01 5.890149116516113281e+00 1.881321430206298828e+00 -5.397968292236328125e-01
3.500000000000000000e+03 6.634460449218750000e+01 3.469005584716796875e+01 -3.399002850055694580e-01 4.912968635559082031e+00 1.371920585632324219e+00 5.517814159393310547e-01
3.501000000000000000e+03 2.898039054870605469e+01 3.631510162353515625e+01 1.676755249500274658e-01 5.415865778923034668e-01 2.127786278724670410e-01 2.307347580790519714e-02
3.502000000000000000e+03 5.279187393188476562e+01 -3.482084274291992188e+01 1.254555225372314453e+00 5.041698932647705078e+00 1.888876318931579590e+00 6.755415797233581543e-01
3.503000000000000000e+03 1.121371841430664062e+01 -7.745953559875488281e+00 3.497818857431411743e-02 -8.039012551307678223e-02 -1.362358219921588898e-02 -1.149804443120956421e-01
3.504000000000000000e+03 6.808464050292968750e+01 4.131520462036132812e+01 -4.852163791656494141e-01 4.701137065887451172e+00 1.264776229858398438e+00 1.618015021085739136e-02
3.505000000000000000e+03 6.951531982421875000e+01 3.708755874633789062e+01 -2.753968238830566406e-01 5.448079109191894531e+00 1.551804780960083008e+00 3.574406802654266357e-01
3.506000000000000000e+03 3.139803886413574219e+01 -3.124814987182617188e+01 4.573013782501220703e-01 3.997162878513336182e-01 2.571052908897399902e-01 -1.440462917089462280e-01
3.507000000000000000e+03 7.263165473937988281e+00 3.733469390869140625e+01 6.746476143598556519e-02 -1.241595819592475891e-01 -1.700844615697860718e-02 -8.577507920563220978e-03
3.508000000000000000e+03 1.952302932739257812e+01 3.964019012451171875e+01 1.882130801677703857e-01 5.996022839099168777e-03 5.826272815465927124e-02 8.449674583971500397e-03
3.509000000000000000e+03 1.975388336181640625e+01 3.620627975463867188e+01 1.310826689004898071e-01 -5.101193115115165710e-02 2.402122132480144501e-02 8.898003725335001945e-04
3.510000000000000000e+03 3.138902473449707031e+01 3.917070388793945312e+01 1.616444438695907593e-01 6.380277276039123535e-01 2.399016469717025757e-01 4.764624312520027161e-02
3.511000000000000000e+03 7.226717376708984375e+01 4.141897201538085938e+01 -2.888402938842773438e-01 6.063791275024414062e+00 1.732485175132751465e+00 6.782699376344680786e-02
3.512000000000000000e+03 2.757836723327636719e+01 4.127207946777343750e+01 1.537355631589889526e-01 4.455727934837341309e-01 1.797925084829330444e-01 -2.207197016105055809e-03
3.513000000000000000e+03 6.900917053222656250e+01 3.909557723999023438e+01 -4.588434696197509766e-01 5.161633968353271484e+00 1.410837173461914062e+00 1.071081012487411499e-01
3.514000000000000000e+03 7.194853973388671875e+01 3.929048156738281250e+01 -2.575098574161529541e-01 5.927493572235107422e+00 1.700995087623596191e+00 2.413550168275833130e-01
3.515000000000000000e+03 5.788831710815429688e+01 3.884008026123046875e+01 -1.809894889593124390e-01 9.912896156311035156e-01 2.430900484323501587e-01 4.930091798305511475e-01
3.516000000000000000e+03 1.198717498779296875e+01 3.756715774536132812e+01 6.393355131149291992e-02 5.173100531101226807e-02 3.469936549663543701e-02 1.300912201404571533e-01
3.517000000000000000e+03 2.798204803466796875e+01 3.868565368652343750e+01 1.439059525728225708e-01 4.876001775264739990e-01 1.894518435001373291e-01 6.123576778918504715e-03
3.518000000000000000e+03 2.316065216064453125e+01 4.098730850219726562e+01 1.649224311113357544e-01 1.930109411478042603e-01 1.073800101876258850e-01 -3.705064533278346062e-03
3.519000000000000000e+03 3.219739532470703125e+01 9.813502430915832520e-01 -1.676775217056274414e+00 3.502080738544464111e-01 -3.979701399803161621e-01 -4.757856726646423340e-01
3.520000000000000000e+03 3.149314880371093750e+01 7.066585421562194824e-01 -1.365139961242675781e+00 1.785040348768234253e-01 -3.559907972812652588e-01 -2.555280625820159912e-01
3.521000000000000000e+03 4.982036590576171875e+01 1.949823737144470215e+00 8.029036521911621094e-01 -6.401202641427516937e-03 2.389507293701171875e-01 -1.364798307418823242e+00
3.522000000000000000e+03 5.176659393310546875e+01 1.840529322624206543e+00 2.354914665222167969e+00 2.459762096405029297e+00 1.444403052330017090e+00 -2.726953744888305664e+00
3.523000000000000000e+03 5.339236831665039062e+01 -1.444194078445434570e+00 -2.150868415832519531e+00 1.699438285827636719e+01 4.453054428100585938e+00 5.902141571044921875e+00
3.524000000000000000e+03 5.361387252807617188e+01 -1.550823569297790527e+00 1.131220698356628418e+00 2.037945938110351562e+01 6.453203678131103516e+00 8.083868980407714844e+00
3.525000000000000000e+03 5.197158432006835938e+01 -2.060843944549560547e+00 2.326770067214965820e+00 9.438402175903320312e+00 3.529551506042480469e+00 3.410609722137451172e+00
3.526000000000000000e+03 5.070726776123046875e+01 -2.052408933639526367e+00 7.295414805412292480e-01 2.087773799896240234e+00 8.451945781707763672e-01 7.839413881301879883e-01
3.527000000000000000e+03 5.500349807739257812e+01 1.025580286979675293e+00 6.168130397796630859e+00 4.331306934356689453e+00 3.149831295013427734e+00 4.472559928894042969e+00
3.528000000000000000e+03 3.262247085571289062e+01 2.420641183853149414e+00 -1.010742425918579102e+00 -3.094415962696075439e-01 -3.960551917552947998e-01 6.312094330787658691e-01
3.529000000000000000e+03 3.012562561035156250e+01 1.260730648040771484e+01 4.076424986124038696e-02 7.132664918899536133e-01 2.262092232704162598e-01 3.881827294826507568e-01
3.530000000000000000e+03 5.512068176269531250e+01 -2.448399925231933594e+01 -1.264925580471754074e-02 5.845193862915039062e+00 1.749763369560241699e+00 1.778511881828308105e+00
3.531000000000000000e+03 1.060047721862792969e+01 2.125984573364257812e+01 6.051448732614517212e-02 -2.207493875175714493e-03 1.749209873378276825e-02 2.238793224096298218e-01
3.532000000000000000e+03 1.707349586486816406e+01 -1.646215438842773438e+01 6.982286274433135986e-02 5.382722616195678711e-02 3.709502890706062317e-02 -3.722434937953948975e-01
3.533000000000000000e+03 4.312381362915039062e+01 -3.416878938674926758e+00 -1.603889465332031250e-01 -4.702456668019294739e-02 -6.222405284643173218e-02 -2.250295877456665039e-02
3.534000000000000000e+03 5.310286712646484375e+01 2.718271255493164062e+01 1.546886086463928223e+00 7.902250766754150391e+00 2.834741115570068359e+00 -1.435832977294921875e+00
3.535000000000000000e+03 5.140434265136718750e+01 2.672512817382812500e+01 1.470616459846496582e+00 5.239076614379882812e+00 2.012907981872558594e+00 -8.037025332450866699e-01
3.536000000000000000e+03 6.156263732910156250e+01 8.461166381835937500e+00 -8.281159400939941406e-01 6.304272174835205078e+00 1.642846941947937012e+00 -1.597906708717346191e+00
3.537000000000000000e+03 6.070379257202148438e+01 1.752558135986328125e+01 2.800898790359497070e+00 9.003309249877929688e+00 3.541262626647949219e+00 2.992668867111206055e+00
3.538000000000000000e+03 6.961434173583984375e+01 6.204678058624267578e+00 -1.918018758296966553e-01 3.615890026092529297e+00 1.027226448059082031e+00 2.441613435745239258e+00
3.539000000000000000e+03 2.727535247802734375e+01 2.986640930175781250e+01 5.014815926551818848e-01 1.402718722820281982e-01 1.925260424613952637e-01 1.708278805017471313e-01
3.540000000000000000e+03 2.609674835205078125e+01 -3.710462951660156250e+01 1.581658869981765747e-01 1.221978813409805298e-01 8.410912752151489258e-02 8.665813505649566650e-02
3.541000000000000000e+03 1.499852943420410156e+01 -3.977113723754882812e+01 4.806738793849945068e-01 1.200503781437873840e-01 1.802172809839248657e-01 -1.999503374099731445e-01
3.542000000000000000e+03 1.662200355529785156e+01 -4.185733032226562500e+01 6.325301527976989746e-01 1.969303339719772339e-01 2.488381415605545044e-01 -4.466264322400093079e-02
3.543000000000000000e+03 1.252059745788574219e+01 -4.189001846313476562e+01 3.779609799385070801e-01 -6.691011041402816772e-02 9.331526607275009155e-02 -4.635711666196584702e-03
3.544000000000000000e+03 3.850920867919921875e+01 -3.572060394287109375e+01 -2.671686746180057526e-02 2.025928258895874023e+00 5.997634530067443848e-01 2.666989564895629883e-01
3.545000000000000000e+03 5.967589187622070312e+01 -3.957078552246093750e+01 -1.451506376266479492e+00 -5.413194298744201660e-01 -5.978477597236633301e-01 -4.860098958015441895e-01
3.546000000000000000e+03 5.298027038574218750e+01 -2.009744644165039062e+00 -6.753455400466918945e-01 1.721965789794921875e+01 4.963293552398681641e+00 7.104112625122070312e+00
3.547000000000000000e+03 5.353070831298828125e+01 -2.064121007919311523e+00 2.028426408767700195e+00 2.155191802978515625e+01 7.074102878570556641e+00 9.576320648193359375e+00
3.548000000000000000e+03 3.914067840576171875e+01 -1.168664932250976562e+00 -6.759690046310424805e-01 2.586563527584075928e-01 -1.251937896013259888e-01 -3.284218907356262207e-02
3.549000000000000000e+03 4.296550750732421875e+01 3.580838775634765625e+01 3.144053220748901367e-01 1.428412079811096191e+00 5.228452086448669434e-01 -7.405573129653930664e-01
3.550000000000000000e+03 7.394117736816406250e+01 -1.439996337890625000e+01 -9.446663856506347656e-01 4.619449138641357422e+00 1.102434754371643066e+00 4.130416214466094971e-01
3.551000000000000000e+03 6.265499496459960938e+01 -8.663730621337890625e+00 1.168780803680419922e+00 9.915534973144531250e+00 3.325294733047485352e+00 -2.950379550457000732e-01
3.552000000000000000e+03 6.301945114135742188e+01 4.744821548461914062e+00 -9.302933812141418457e-01 3.897458076477050781e+00 8.901494145393371582e-01 -1.126147747039794922e+00
3.553000000000000000e+03 5.612437820434570312e+01 1.575915527343750000e+01 1.950375795364379883e+00 6.513538837432861328e+00 2.539174318313598633e+00 -9.643508791923522949e-01
3.554000000000000000e+03 4.620877838134765625e+01 -1.534665966033935547e+01 -1.442625164985656738e+00 4.247920036315917969e+00 8.415884375572204590e-01 1.751018762588500977e+00
3.555000000000000000e+03 4.252597045898437500e+01 -2.670112991333007812e+01 5.396707728505134583e-02 8.445667028427124023e-01 2.695601284503936768e-01 1.077621221542358398e+00
3.556000000000000000e+03 3.199411201477050781e+01 2.036538362503051758e+00 -1.603303551673889160e+00 3.164947032928466797e-01 -3.860426545143127441e-01 1.319170892238616943e-01
3.557000000000000000e+03 5.138735580444335938e+01 -3.395528030395507812e+01 1.701304197311401367e+00 4.476205348968505859e+00 1.853252887725830078e+00 9.109451770782470703e-01
3.558000000000000000e+03 4.417564392089843750e+01 -1.611272239685058594e+01 -3.734183907508850098e-01 2.189800262451171875e+00 5.449146032333374023e-01 9.057888984680175781e-01
3.559000000000000000e+03 5.037034606933593750e+01 3.636758422851562500e+01 -5.770394206047058105e-01 3.488194227218627930e+00 8.733464479446411133e-01 -3.647902905941009521e-01
3.560000000000000000e+03 7.856517028808593750e+01 -5.341435432434082031e+00 3.889267146587371826e-01 7.801348209381103516e+00 2.457082509994506836e+00 -6.214474514126777649e-02
3.561000000000000000e+03 5.100221252441406250e+01 -1.335165214538574219e+01 -4.807554483413696289e-01 1.935190439224243164e+00 4.363304972648620605e-01 1.524292230606079102e-01
3.562000000000000000e+03 2.273140144348144531e+01 2.692228507995605469e+01 5.650775432586669922e-01 4.102753996849060059e-01 2.926058769226074219e-01 5.741509795188903809e-01
3.563000000000000000e+03 6.755270385742187500e+01 3.659505081176757812e+01 -4.062220454216003418e-01 4.993671894073486328e+00 1.376235008239746094e+00 3.177705705165863037e-01
3.564000000000000000e+03 5.196352386474609375e+01 1.901722192764282227e+00 2.331115722656250000e+00 2.832088708877563477e+00 1.548961281776428223e+00 -2.867471456527709961e+00
3.565000000000000000e+03 5.239941024780273438e+01 1.979401469230651855e+00 1.621963739395141602e+00 5.102259635925292969e+00 2.017266988754272461e+00 -2.733746767044067383e+00
3.566000000000000000e+03 6.416901588439941406e+00 3.585069274902343750e+01 1.411827504634857178e-01 -2.398676127195358276e-01 -2.960545755922794342e-02 -4.886690527200698853e-03
3.567000000000000000e+03 3.481861495971679688e+01 -7.668816089630126953e+00 7.337874174118041992e-02 1.903088092803955078e-01 7.910626381635665894e-02 -1.889624893665313721e-01
3.568000000000000000e+03 5.163657760620117188e+01 -2.402631044387817383e+00 2.820525169372558594e+00 7.057033538818359375e+00 2.963267564773559570e+00 3.157135963439941406e+00
3.569000000000000000e+03 5.176560592651367188e+01 -2.787296295166015625e+00 3.269057989120483398e+00 9.139844894409179688e+00 3.722670793533325195e+00 3.481185436248779297e+00
3.570000000000000000e+03 7.730579376220703125e+01 3.695715332031250000e+01 -5.658783391118049622e-02 7.268789291381835938e+00 2.163660526275634766e+00 1.011403426527976990e-01
3.571000000000000000e+03 7.300978088378906250e+01 1.409035491943359375e+01 1.150236129760742188e+00 1.131622695922851562e+01 3.739938974380493164e+00 1.138043403625488281e-01
3.572000000000000000e+03 5.832031631469726562e+01 3.195570707321166992e+00 6.171324849128723145e-01 5.785502910614013672e+00 1.920790672302246094e+00 -1.295854926109313965e+00
3.573000000000000000e+03 1.308949375152587891e+01 -3.920498657226562500e+01 3.008950650691986084e-01 1.905739121139049530e-02 9.598573297262191772e-02 -1.523130834102630615e-01
3.574000000000000000e+03 4.252695465087890625e+01 -2.469243431091308594e+01 7.218254208564758301e-01 1.507155179977416992e+00 6.686941385269165039e-01 1.138547897338867188e+00
3.575000000000000000e+03 7.750259399414062500e+01 -3.574810028076171875e+01 3.547615557909011841e-02 7.662245273590087891e+00 2.309316396713256836e+00 -2.417395735392346978e-04
3.576000000000000000e+03 6.859699249267578125e+01 -3.858497238159179688e+01 -8.042467832565307617e-01 5.145763397216796875e+00 1.302454948425292969e+00 -6.120735406875610352e-01
3.577000000000000000e+03 6.653120422363281250e+01 -3.954132843017578125e+01 -1.063621759414672852e+00 4.031334877014160156e+00 8.903139233589172363e-01 1.374943554401397705e-01
3.578000000000000000e+03 5.067333602905273438e+01 -2.953047513961791992e+00 2.757519721984863281e+00 3.541460037231445312e+00 1.889693975448608398e+00 1.966251611709594727e+00
3.579000000000000000e+03 7.562364959716796875e+01 -2.123099517822265625e+01 1.323661804199218750e+00 9.236535072326660156e+00 3.168059110641479492e+00 3.449801802635192871e-01
3.580000000000000000e+03 4.670629024505615234e+00 -3.230776214599609375e+01 -4.258667677640914917e-02 -3.438427150249481201e-01 -1.159288138151168823e-01 -1.157109588384628296e-01
3.581000000000000000e+03 3.853230285644531250e+01 -1.586744308471679688e+01 -3.519986271858215332e-01 3.454051911830902100e-01 -1.978031592443585396e-03 -2.421817481517791748e-01
3.582000000000000000e+03 4.727170562744140625e+01 3.348276138305664062e+01 3.180585205554962158e-01 3.069955110549926758e+00 1.016404151916503906e+00 -9.587869644165039062e-01
3.583000000000000000e+03 2.663322067260742188e+01 -2.397585868835449219e+01 2.920718789100646973e-01 3.372421562671661377e-01 1.887942105531692505e-01 -1.033330410718917847e-01
3.584000000000000000e+03 3.942053985595703125e+01 -2.963195419311523438e+01 5.359151959419250488e-01 3.187309503555297852e+00 1.116967439651489258e+00 1.109978318214416504e+00
3.585000000000000000e+03 4.346237659454345703e+00 -2.595837783813476562e+01 4.674006253480911255e-03 -2.084679156541824341e-01 -6.113817170262336731e-02 1.102334260940551758e-02
3.586000000000000000e+03 5.920600891113281250e+01 -4.051044845581054688e+01 -4.811649322509765625e-01 6.813071966171264648e-01 6.004267185926437378e-02 -6.927491426467895508e-01
3.587000000000000000e+03 6.061111068725585938e+01 -4.079109954833984375e+01 -4.364458024501800537e-01 1.424905359745025635e-01 -8.818658441305160522e-02 -1.308859437704086304e-01
3.588000000000000000e+03 5.155015945434570312e+01 -2.152267456054687500e+00 2.056309461593627930e+00 6.103853702545166016e+00 2.448049068450927734e+00 2.801116228103637695e+00
3.589000000000000000e+03 5.174686431884765625e+01 -2.144297599792480469e+00 2.449248313903808594e+00 7.537211894989013672e+00 2.995938062667846680e+00 2.901574850082397461e+00
3.590000000000000000e+03 6.475439453125000000e+01 3.578510284423828125e+01 -7.421945929527282715e-01 4.013652324676513672e+00 9.814373850822448730e-01 6.623928248882293701e-02
3.591000000000000000e+03 5.245829010009765625e+01 -2.595813035964965820e+00 3.510338306427001953e+00 1.644699668884277344e+01 5.987200736999511719e+00 4.828656196594238281e+00
3.592000000000000000e+03 5.889535522460937500e+01 -2.515563583374023438e+01 -1.525156944990158081e-01 3.521010160446166992e+00 1.010548353195190430e+00 1.960490107536315918e+00
3.593000000000000000e+03 6.104202651977539062e+01 -1.964407348632812500e+01 1.681220650672912598e+00 4.901815414428710938e+00 1.974910736083984375e+00 -2.764664590358734131e-01
3.594000000000000000e+03 6.577370452880859375e+01 -1.439107418060302734e+01 -2.347535610198974609e+00 4.714497566223144531e+00 7.100886702537536621e-01 2.596719861030578613e-01
3.595000000000000000e+03 1.105490684509277344e+01 2.016184997558593750e+01 1.802876293659210205e-01 1.624652743339538574e-01 1.028258726000785828e-01 2.772905826568603516e-01
3.596000000000000000e+03 5.511805725097656250e+01 4.228780746459960938e+00 -8.164405822753906250e-01 6.694827079772949219e+00 1.763515949249267578e+00 1.807218670845031738e+00
3.597000000000000000e+03 5.430430221557617188e+01 4.378429412841796875e+00 -1.429528474807739258e+00 6.343551158905029297e+00 1.474206805229187012e+00 1.139382243156433105e+00
3.598000000000000000e+03 2.955476760864257812e+01 2.942000150680541992e+00 -7.600533366203308105e-01 4.256222546100616455e-01 -1.003293320536613464e-01 6.776127964258193970e-02
3.599000000000000000e+03 3.800737762451171875e+01 -2.026698827743530273e+00 -5.401948094367980957e-01 3.105625212192535400e-01 -6.888969242572784424e-02 -3.066117316484451294e-02
3.600000000000000000e+03 3.416145706176757812e+01 2.620115661621093750e+01 2.991729378700256348e-01 1.591538548469543457e+00 5.672134757041931152e-01 -1.540738791227340698e-01
3.601000000000000000e+03 5.321550750732421875e+01 -2.930146408081054688e+01 9.402293562889099121e-01 3.918109655380249023e+00 1.457501649856567383e+00 8.444270491600036621e-01
3.602000000000000000e+03 3.128988647460937500e+01 -8.661292076110839844e+00 -2.890720665454864502e-01 -5.423127412796020508e-01 -2.494154423475265503e-01 -3.518870174884796143e-01
3.603000000000000000e+03 5.222787094116210938e+01 -1.167015075683593750e+01 -8.894475102424621582e-01 2.971539258956909180e+00 6.246274709701538086e-01 -3.211076855659484863e-01
3.604000000000000000e+03 2.188636779785156250e+01 2.877432823181152344e+01 2.045701593160629272e-01 1.833951771259307861e-01 1.163896024227142334e-01 2.996254563331604004e-01
3.605000000000000000e+03 2.510098075866699219e+01 3.523104858398437500e+01 1.048104017972946167e-01 3.746588230133056641e-01 1.438407748937606812e-01 7.586571387946605682e-03
3.606000000000000000e+03 1.946159172058105469e+01 3.500163650512695312e+01 1.060374155640602112e-01 -1.258070021867752075e-01 -5.930878221988677979e-03 2.017367258667945862e-02
3.607000000000000000e+03 5.281704711914062500e+01 2.372558021545410156e+01 -9.594708085060119629e-01 5.376924037933349609e+00 1.325235962867736816e+00 -1.356308221817016602e+00
3.608000000000000000e+03 4.235631561279296875e+01 1.196193504333496094e+01 9.737989902496337891e-01 1.609906911849975586e+00 7.751117348670959473e-01 -9.241310358047485352e-01
3.609000000000000000e+03 5.624989032745361328e+00 -2.480562210083007812e+01 6.880261003971099854e-02 -7.456035912036895752e-02 -1.727324677631258965e-03 -4.811305552721023560e-03
3.610000000000000000e+03 5.145692062377929688e+01 2.951017856597900391e+00 1.238195419311523438e+00 1.666238903999328613e+00 8.713303208351135254e-01 -2.249780893325805664e+00
3.611000000000000000e+03 6.045542716979980469e+00 7.923984527587890625e+00 -2.656298875808715820e-01 -8.740075677633285522e-02 -1.059091910719871521e-01 1.553851813077926636e-01
3.612000000000000000e+03 2.771026229858398438e+01 1.235789680480957031e+01 2.116221785545349121e-01 2.831040918827056885e-01 1.484178751707077026e-01 1.827948838472366333e-01
3.613000000000000000e+03 3.543539762496948242e+00 3.228078079223632812e+01 1.131885126233100891e-01 -7.114595770835876465e-01 -1.794813126325607300e-01 1.482309550046920776e-01
3.614000000000000000e+03 4.733440399169921875e+01 -4.356214046478271484e+00 9.911886453628540039e-01 -1.242195963859558105e+00 -7.530219852924346924e-02 -2.446963042020797729e-01
3.615000000000000000e+03 3.042713403701782227e+00 2.381398391723632812e+01 -4.587021842598915100e-02 -5.998412966728210449e-01 -1.937134563922882080e-01 -7.145202718675136566e-03
3.616000000000000000e+03 5.412250137329101562e+01 -3.017293739318847656e+01 1.288061499595642090e+00 4.935010433197021484e+00 1.866921544075012207e+00 1.037189602851867676e+00
3.617000000000000000e+03 2.201900672912597656e+01 2.732364654541015625e+01 3.777392804622650146e-01 2.312547862529754639e-01 1.826982200145721436e-01 4.631356894969940186e-01
3.618000000000000000e+03 3.516279983520507812e+01 2.195521354675292969e+01 -4.336535185575485229e-02 1.103920936584472656e+00 3.181666731834411621e-01 -1.585999280214309692e-01
3.619000000000000000e+03 4.176548004150390625e+00 -4.424931526184082031e+00 8.970291819423437119e-04 -5.741028487682342529e-02 -1.695397682487964630e-02 -3.474372252821922302e-02
3.620000000000000000e+03 1.343016052246093750e+01 4.254336357116699219e+00 -3.702857494354248047e-01 -2.100815474987030029e-01 -1.741101890802383423e-01 4.536543488502502441e-01
3.621000000000000000e+03 3.285308456420898438e+01 2.843021774291992188e+01 2.895240485668182373e-01 1.083392143249511719e+00 4.118748307228088379e-01 -1.980435848236083984e-01
3.622000000000000000e+03 3.181175994873046875e+01 2.801735687255859375e+01 2.852873504161834717e-01 7.403184175491333008e-01 3.076817393302917480e-01 -2.355012297630310059e-01
3.623000000000000000e+03 6.618498229980468750e+01 3.106426620483398438e+01 7.956934571266174316e-01 5.431053638458251953e+00 1.868024110794067383e+00 1.047601461410522461e+00
3.624000000000000000e+03 3.018347358703613281e+01 -3.532076263427734375e+01 3.128732442855834961e-01 5.324017405509948730e-01 2.535824775695800781e-01 1.325309723615646362e-01
3.625000000000000000e+03 4.176260757446289062e+01 -2.473003768920898438e+01 8.997582793235778809e-01 1.682140707969665527e+00 7.745696902275085449e-01 1.424345493316650391e+00
3.626000000000000000e+03 5.870643997192382812e+01 1.714332389831542969e+01 2.031969070434570312e+00 6.880000114440917969e+00 2.673590660095214844e+00 7.588361501693725586e-01
3.627000000000000000e+03 2.561368179321289062e+01 -2.344282913208007812e+01 2.750263214111328125e-01 1.958617568016052246e-01 1.412664353847503662e-01 -1.063090935349464417e-01
3.628000000000000000e+03 2.509809112548828125e+01 -2.418289375305175781e+01 3.163978755474090576e-01 2.054065614938735962e-01 1.565413326025009155e-01 -1.047363057732582092e-01
3.629000000000000000e+03 5.868472290039062500e+01 1.948454284667968750e+01 4.072615504264831543e-01 4.688301086425781250e+00 1.528668761253356934e+00 2.584129869937896729e-01
3.630000000000000000e+03 6.142339324951171875e+01 1.896588921546936035e+00 4.569490253925323486e-01 6.845400333404541016e+00 2.190704822540283203e+00 -1.467343211174011230e+00
3.631000000000000000e+03 6.148244476318359375e+01 3.232557773590087891e-01 1.169599771499633789e+00 7.974586009979248047e+00 2.743255615234375000e+00 -1.503944158554077148e+00
3.632000000000000000e+03 5.873319244384765625e+01 1.843238639831542969e+01 1.423110723495483398e+00 5.677114486694335938e+00 2.130067586898803711e+00 2.623698115348815918e-01
3.633000000000000000e+03 8.198674201965332031e+00 -3.014392089843750000e+01 -1.405489295721054077e-01 -1.941032707691192627e-01 -1.003956645727157593e-01 -1.690436005592346191e-01
3.634000000000000000e+03 2.136972618103027344e+01 3.722677612304687500e+01 1.416227370500564575e-01 8.573137223720550537e-02 6.820623576641082764e-02 -2.121478132903575897e-02
3.635000000000000000e+03 4.572395706176757812e+01 4.350871086120605469e+00 -4.780046343803405762e-01 1.446639060974121094e+00 2.905903458595275879e-01 -6.693112850189208984e-01
3.636000000000000000e+03 5.108350753784179688e+01 2.258556556701660156e+01 -6.542134284973144531e-01 3.872001647949218750e+00 9.653364419937133789e-01 -1.400607585906982422e+00
3.637000000000000000e+03 5.026147842407226562e+01 2.375852012634277344e+01 2.794843725860118866e-02 3.703075170516967773e+00 1.119307041168212891e+00 -8.979442119598388672e-01
3.638000000000000000e+03 5.098627471923828125e+01 -2.663306474685668945e+00 2.862894058227539062e+00 3.890493631362915039e+00 2.026016235351562500e+00 1.892857789993286133e+00
3.639000000000000000e+03 4.154747772216796875e+01 1.258741092681884766e+01 8.678223490715026855e-01 9.757378101348876953e-01 5.530680418014526367e-01 -9.798218607902526855e-01
3.640000000000000000e+03 3.744646072387695312e+01 1.712194061279296875e+01 4.219228923320770264e-01 2.437906861305236816e-01 1.997140794992446899e-01 -4.625170230865478516e-01
3.641000000000000000e+03 3.749158096313476562e+01 1.821648025512695312e+01 3.014151453971862793e-01 3.804690241813659668e-01 2.045652568340301514e-01 -4.561926722526550293e-01
3.642000000000000000e+03 3.853388214111328125e+01 1.710271644592285156e+01 3.952789604663848877e-01 3.373872339725494385e-01 2.197998613119125366e-01 -5.601738095283508301e-01
3.643000000000000000e+03 5.180757522583007812e+01 -2.957730484008789062e+01 1.044991731643676758e+00 3.272632598876953125e+00 1.295287251472473145e+00 2.693290412425994873e-01
3.644000000000000000e+03 6.856105041503906250e+01 3.232663726806640625e+01 4.817713499069213867e-01 5.168446540832519531e+00 1.695065379142761230e+00 7.197193503379821777e-01
3.645000000000000000e+03 7.675184631347656250e+01 -1.930576896667480469e+01 5.083262324333190918e-01 8.619153976440429688e+00 2.738244056701660156e+00 1.103926181793212891e+00
3.646000000000000000e+03 7.654344177246093750e+01 -1.839162826538085938e+01 2.739986777305603027e-01 8.753422737121582031e+00 2.708226442337036133e+00 1.147173166275024414e+00
3.647000000000000000e+03 2.726270294189453125e+01 -2.694321060180664062e+01 3.004217743873596191e-01 3.066061139106750488e-01 1.821083575487136841e-01 -1.899443864822387695e-01
3.648000000000000000e+03 2.723432731628417969e+01 -2.788815116882324219e+01 2.627019584178924561e-01 2.939417958259582520e-01 1.669931262731552124e-01 -2.331425994634628296e-01
3.649000000000000000e+03 2.617090415954589844e+01 -1.863330268859863281e+01 5.124642327427864075e-02 -2.502701431512832642e-02 7.865822874009609222e-03 -1.858945041894912720e-01
3.650000000000000000e+03 2.567302322387695312e+01 -1.959767341613769531e+01 1.197391599416732788e-01 -5.835510324686765671e-03 3.417109698057174683e-02 -1.440761387348175049e-01
3.651000000000000000e+03 2.430985641479492188e+01 8.733688354492187500e+00 3.307497501373291016e-01 -1.020157635211944580e-01 6.862019747495651245e-02 1.574484109878540039e-01
3.652000000000000000e+03 6.219068527221679688e+01 2.270416736602783203e+00 4.033743739128112793e-01 6.015708446502685547e+00 1.925724864006042480e+00 -1.074674963951110840e+00
3.653000000000000000e+03 4.713780403137207031e+00 -9.710674285888671875e+00 2.647347375750541687e-02 -1.399583518505096436e-01 -3.404546156525611877e-02 -2.603422105312347412e-02
3.654000000000000000e+03 3.643633270263671875e+01 -2.821905136108398438e+00 -4.576461613178253174e-01 1.643662154674530029e-01 -8.798398077487945557e-02 -1.596451103687286377e-01
3.655000000000000000e+03 4.793515396118164062e+01 -5.033084392547607422e+00 1.377947926521301270e+00 9.512580931186676025e-02 4.419220983982086182e-01 4.740142226219177246e-01
3.656000000000000000e+03 5.193090057373046875e+01 2.300827217102050781e+01 -8.624696135520935059e-01 4.865589618682861328e+00 1.200935959815979004e+00 -1.543645381927490234e+00
3.657000000000000000e+03 6.488182067871093750e+01 3.450089645385742188e+01 -6.108106970787048340e-01 4.628465175628662109e+00 1.205296397209167480e+00 2.073743641376495361e-01
3.658000000000000000e+03 7.574912261962890625e+01 -3.546172332763671875e+01 2.028579711914062500e-01 6.898714065551757812e+00 2.130471706390380859e+00 -1.161041781306266785e-01
3.659000000000000000e+03 6.410726928710937500e+01 1.155399680137634277e+00 1.209787607192993164e+00 5.194988727569580078e+00 1.921432971954345703e+00 5.994853973388671875e-01
3.660000000000000000e+03 5.847943878173828125e+01 -2.173488616943359375e+01 1.835539102554321289e+00 4.321310997009277344e+00 1.847055077552795410e+00 9.089711308479309082e-01
3.661000000000000000e+03 2.344252586364746094e+01 -2.260600852966308594e+01 1.743490993976593018e-01 9.759239107370376587e-02 8.158244937658309937e-02 -1.930101066827774048e-01
3.662000000000000000e+03 4.219191360473632812e+01 1.684701538085937500e+01 1.632255734875798225e-03 1.177939891815185547e+00 3.538716435432434082e-01 -5.749342441558837891e-01
3.663000000000000000e+03 4.320999145507812500e+01 1.701984214782714844e+01 -3.289994895458221436e-01 1.703081846237182617e+00 4.122247099876403809e-01 -3.801434934139251709e-01
3.664000000000000000e+03 4.284502029418945312e+01 1.598610401153564453e+01 5.150171369314193726e-02 1.636199593544006348e+00 5.063104033470153809e-01 -6.835429668426513672e-01
3.665000000000000000e+03 1.096088600158691406e+01 -7.137992858886718750e+00 3.597462549805641174e-02 -5.087348399683833122e-04 1.063976716250181198e-02 -1.186255961656570435e-01
3.666000000000000000e+03 6.127091598510742188e+01 -2.085394287109375000e+01 2.171976804733276367e+00 4.687249183654785156e+00 2.057767868041992188e+00 -3.073680400848388672e-01
3.667000000000000000e+03 5.926575469970703125e+01 5.914491176605224609e+00 -1.099770188331604004e+00 7.320062160491943359e+00 1.866087675094604492e+00 -1.055905938148498535e+00
3.668000000000000000e+03 9.372321128845214844e+00 3.871804952621459961e+00 -1.709240972995758057e-01 -1.090509146451950073e-01 -8.399250358343124390e-02 5.525039508938789368e-02
3.669000000000000000e+03 5.008251190185546875e+00 1.055521774291992188e+01 -1.298022270202636719e-01 -1.370613873004913330e-01 -8.005908131599426270e-02 2.981377243995666504e-01
3.670000000000000000e+03 1.071760082244873047e+01 -5.804437160491943359e+00 4.321015439927577972e-03 -8.557642996311187744e-02 -2.437662333250045776e-02 -1.098945140838623047e-01
3.671000000000000000e+03 4.905749320983886719e+00 7.312113285064697266e+00 -1.785806864500045776e-01 -5.335377156734466553e-02 -6.958033889532089233e-02 1.027010604739189148e-01
3.672000000000000000e+03 4.432137012481689453e+00 1.125885105133056641e+01 -7.147045433521270752e-02 -1.773877292871475220e-01 -7.465745508670806885e-02 3.002279698848724365e-01
3.673000000000000000e+03 7.431961059570312500e+01 2.083927917480468750e+01 -1.070081949234008789e+00 7.006343841552734375e+00 1.780878663063049316e+00 -8.203297108411788940e-02
3.674000000000000000e+03 5.676277637481689453e+00 5.529734134674072266e+00 -1.764258742332458496e-01 -4.336712881922721863e-02 -6.593789905309677124e-02 2.443448640406131744e-02
3.675000000000000000e+03 9.093163490295410156e+00 -5.154707908630371094e+00 -4.301885887980461121e-02 -6.919167190790176392e-02 -3.366316109895706177e-02 -1.248980760574340820e-01
3.676000000000000000e+03 8.477375984191894531e+00 -5.277290344238281250e+00 4.933616891503334045e-02 -7.884872704744338989e-02 -8.853767067193984985e-03 -1.003984361886978149e-01
3.677000000000000000e+03 1.115754413604736328e+01 -1.603091955184936523e-01 -3.178437948226928711e-01 -1.458646506071090698e-01 -1.391125321388244629e-01 -7.635843753814697266e-02
3.678000000000000000e+03 1.126386642456054688e+01 -8.940912485122680664e-01 -2.505880594253540039e-01 7.980477809906005859e-02 -5.123498290777206421e-02 -9.745278954505920410e-02
3.679000000000000000e+03 1.049932956695556641e+01 -1.051980972290039062e+00 -2.052248865365982056e-01 -1.413008868694305420e-01 -1.039577350020408630e-01 -9.871689975261688232e-02
3.680000000000000000e+03 1.279222297668457031e+01 -5.713624954223632812e-01 -3.143815696239471436e-01 1.204105913639068604e-01 -5.819129198789596558e-02 -1.250517368316650391e-01
3.681000000000000000e+03 1.264629268646240234e+01 1.541289687156677246e-01 -4.029505252838134766e-01 -1.991966813802719116e-01 -1.806441545486450195e-01 -8.652434498071670532e-02
3.682000000000000000e+03 1.190196800231933594e+01 -3.807745641097426414e-03 -3.580158948898315430e-01 1.180392801761627197e-01 -7.199298590421676636e-02 -1.121739372611045837e-01
3.683000000000000000e+03 1.202809429168701172e+01 -7.334445118904113770e-01 -2.672756016254425049e-01 -1.819450706243515015e-01 -1.347662061452865601e-01 -1.211610063910484314e-01
3.684000000000000000e+03 1.041281127929687500e+01 -3.140535950660705566e-01 -2.896540462970733643e-01 8.042576909065246582e-02 -6.276848167181015015e-02 -7.851249724626541138e-02
3.685000000000000000e+03 9.660583496093750000e+00 -3.871031999588012695e-01 -2.389819920063018799e-01 -1.094133108854293823e-01 -1.045185923576354980e-01 -3.648824989795684814e-02
3.686000000000000000e+03 8.901437759399414062e+00 -3.833611309528350830e-01 -1.657038480043411255e-01 7.833646237850189209e-02 -2.621021680533885956e-02 -3.298773616552352905e-02
3.687000000000000000e+03 8.142838478088378906e+00 -3.822377920150756836e-01 -1.241309493780136108e-01 -7.280794531106948853e-02 -5.908166617155075073e-02 -1.010341569781303406e-02
3.688000000000000000e+03 7.384317874908447266e+00 -3.816416263580322266e-01 -8.388116955757141113e-02 5.899116396903991699e-02 -7.467000279575586319e-03 -2.481572143733501434e-02
3.689000000000000000e+03 6.625857353210449219e+00 -3.809241652488708496e-01 -6.179441511631011963e-02 -5.396117269992828369e-02 -3.472667559981346130e-02 -1.177376601845026016e-03
3.690000000000000000e+03 5.867558479309082031e+00 -3.799938857555389404e-01 -3.488582745194435120e-02 4.428842291235923767e-02 2.820778172463178635e-03 -1.947046443819999695e-02
3.691000000000000000e+03 5.109274387359619141e+00 -3.788675963878631592e-01 -2.499575167894363403e-02 -4.019305482506752014e-02 -1.955664157867431641e-02 3.810394322499632835e-03
3.692000000000000000e+03 4.350872039794921875e+00 -3.776756227016448975e-01 -8.225585334002971649e-03 3.219624981284141541e-02 7.191198877990245819e-03 -1.400581188499927521e-02
3.693000000000000000e+03 3.592402935028076172e+00 -3.764508068561553955e-01 -5.033508408814668655e-03 -2.729570865631103516e-02 -9.698765352368354797e-03 4.808393307030200958e-03
3.694000000000000000e+03 2.834043025970458984e+00 -3.751347661018371582e-01 2.732472959905862808e-03 1.927788369357585907e-02 6.603106856346130371e-03 -7.524949498474597931e-03
3.695000000000000000e+03 2.077167272567749023e+00 -3.747134804725646973e-01 1.782873994670808315e-03 -1.412830594927072525e-02 -3.703629598021507263e-03 3.926010802388191223e-03
3.696000000000000000e+03 1.334073781967163086e+00 -3.800741434097290039e-01 2.484229160472750664e-03 7.600341923534870148e-03 3.025371348485350609e-03 -1.997982850298285484e-03
3.697000000000000000e+03 3.531542122364044189e-01 -9.606399536132812500e-01 2.332251286134123802e-03 1.401273300871253014e-03 1.120057306252419949e-03 -3.942914772778749466e-04
3.698000000000000000e+03 6.561777591705322266e-01 -4.032240808010101318e-01 -2.011235337704420090e-03 -3.867773106321692467e-03 -1.763702486641705036e-03 3.390100784599781036e-03
3.699000000000000000e+03 9.748202323913574219e+00 -1.127103209495544434e+00 -1.729610413312911987e-01 4.802687093615531921e-02 -3.748025000095367432e-02 -8.671466261148452759e-02
3.700000000000000000e+03 9.011062622070312500e+00 -1.123361110687255859e+00 -1.585038602352142334e-01 -9.247337281703948975e-02 -7.529316842555999756e-02 -7.266587764024734497e-02
3.701000000000000000e+03 8.274469375610351562e+00 -1.122237801551818848e+00 -1.164617985486984253e-01 5.323451384902000427e-02 -1.896818727254867554e-02 -5.852040275931358337e-02
3.702000000000000000e+03 7.537953376770019531e+00 -1.121641635894775391e+00 -9.405618160963058472e-02 -6.543560326099395752e-02 -4.784753546118736267e-02 -3.955838456749916077e-02
3.703000000000000000e+03 6.801498889923095703e+00 -1.120924115180969238e+00 -6.525426357984542847e-02 4.207299277186393738e-02 -6.954381708055734634e-03 -4.118967801332473755e-02
3.704000000000000000e+03 6.065205574035644531e+00 -1.119993925094604492e+00 -5.153497308492660522e-02 -4.882564768195152283e-02 -3.010818548500537872e-02 -2.049939148128032684e-02
3.705000000000000000e+03 5.328927040100097656e+00 -1.118867635726928711e+00 -3.212840482592582703e-02 3.190787509083747864e-02 -6.615863821934908628e-05 -2.824039757251739502e-02
3.706000000000000000e+03 4.592530727386474609e+00 -1.117675662040710449e+00 -2.246482670307159424e-02 -3.655170649290084839e-02 -1.770495995879173279e-02 -8.784571662545204163e-03
3.707000000000000000e+03 3.856066942214965820e+00 -1.116450786590576172e+00 -1.406376250088214874e-02 2.343465201556682587e-02 2.811266807839274406e-03 -1.568125933408737183e-02
3.708000000000000000e+03 3.119712829589843750e+00 -1.115134716033935547e+00 -6.796548143029212952e-03 -2.560778334736824036e-02 -9.721299633383750916e-03 -2.477075206115841866e-03
3.709000000000000000e+03 2.384842634201049805e+00 -1.114713430404663086e+00 -4.932279698550701141e-03 1.403504796326160431e-02 2.730830339714884758e-03 -5.346346646547317505e-03
3.710000000000000000e+03 1.663754701614379883e+00 -1.120074152946472168e+00 4.151065368205308914e-04 -1.395645737648010254e-02 -4.062405321747064590e-03 8.935894002206623554e-04
3.711000000000000000e+03 1.007864356040954590e+00 -1.143224120140075684e+00 1.475839759223163128e-03 5.973992869257926941e-03 2.234949730336666107e-03 7.448797696270048618e-04
3.712000000000000000e+03 5.314393234252929688e+01 1.393631100654602051e-01 4.141074371337890625e+01 1.225919818878173828e+01 1.610098266601562500e+01 1.957345390319824219e+01
3.713000000000000000e+03 5.315155029296875000e+01 1.214469522237777710e-01 3.418018341064453125e+01 2.712439727783203125e+01 1.839137458801269531e+01 2.723376083374023438e+01
3.714000000000000000e+03 5.316250991821289062e+01 1.053565070033073425e-01 2.861971092224121094e+01 3.910420227050781250e+01 2.031717300415039062e+01 2.890341377258300781e+01
3.715000000000000000e+03 5.317639160156250000e+01 9.170751273632049561e-02 2.293657112121582031e+01 5.045940780639648438e+01 2.201879310607910156e+01 2.730020904541015625e+01
3.716000000000000000e+03 5.319266510009765625e+01 8.102227002382278442e-02 1.809295272827148438e+01 5.920595169067382812e+01 2.318967056274414062e+01 2.322429466247558594e+01
3.717000000000000000e+03 5.321070861816406250e+01 7.370968163013458252e-02 1.507690715789794922e+01 6.526942443847656250e+01 2.410389900207519531e+01 1.737570953369140625e+01
3.718000000000000000e+03 5.322982788085937500e+01 7.004957646131515503e-02 1.434509277343750000e+01 6.856803131103515625e+01 2.487393760681152344e+01 1.047829341888427734e+01
3.719000000000000000e+03 5.324929428100585938e+01 7.018200308084487915e-02 1.487071132659912109e+01 6.849721527099609375e+01 2.501037979125976562e+01 3.866133213043212891e+00
3.720000000000000000e+03 5.326836395263671875e+01 7.410191744565963745e-02 1.848350334167480469e+01 6.647716522216796875e+01 2.548820114135742188e+01 -1.675721049308776855e+00
3.721000000000000000e+03 5.328630828857421875e+01 8.165929466485977173e-02 2.205691146850585938e+01 6.175959396362304688e+01 2.514495277404785156e+01 -5.960132122039794922e+00
3.722000000000000000e+03 5.330243301391601562e+01 9.256494790315628052e-02 2.731786346435546875e+01 5.717432022094726562e+01 2.534765434265136719e+01 -7.748742103576660156e+00
3.723000000000000000e+03 5.331612777709960938e+01 1.064015477895736694e-01 3.167971038818359375e+01 5.109084701538085938e+01 2.483116722106933594e+01 -8.010427474975585938e+00
3.724000000000000000e+03 5.332686996459960938e+01 1.226396039128303528e-01 3.557717132568359375e+01 4.692352294921875000e+01 2.475020790100097656e+01 -6.332372188568115234e+00
3.725000000000000000e+03 5.333423995971679688e+01 1.406577378511428833e-01 3.853276443481445312e+01 4.335704040527343750e+01 2.456694030761718750e+01 -3.161602973937988281e+00
3.726000000000000000e+03 5.333796310424804688e+01 1.597664505243301392e-01 3.948015594482421875e+01 4.068893814086914062e+01 2.405072784423828125e+01 4.295503795146942139e-01
3.727000000000000000e+03 5.333789825439453125e+01 1.792345046997070312e-01 3.969293594360351562e+01 4.132501983642578125e+01 2.430538558959960938e+01 4.126550197601318359e+00
3.728000000000000000e+03 5.333404159545898438e+01 1.983169168233871460e-01 3.769381713867187500e+01 4.263232421875000000e+01 2.409784317016601562e+01 8.354973793029785156e+00
3.729000000000000000e+03 5.332654190063476562e+01 2.162834703922271729e-01 3.490096282958984375e+01 4.475294494628906250e+01 2.389617156982421875e+01 1.095533084869384766e+01
3.730000000000000000e+03 5.331569290161132812e+01 2.324466258287429810e-01 3.115299415588378906e+01 5.002941131591796875e+01 2.435472106933593750e+01 1.245616436004638672e+01
3.731000000000000000e+03 5.330190277099609375e+01 2.461878508329391479e-01 2.584622764587402344e+01 5.437120056152343750e+01 2.406522941589355469e+01 1.262658119201660156e+01
3.732000000000000000e+03 5.328569793701171875e+01 2.569813430309295654e-01 2.098152923583984375e+01 5.910734558105468750e+01 2.402666282653808594e+01 1.065889263153076172e+01
3.733000000000000000e+03 5.326770401000976562e+01 2.644140124320983887e-01 1.656906318664550781e+01 6.299494171142578125e+01 2.386920166015625000e+01 6.680417060852050781e+00
3.734000000000000000e+03 5.324860763549804688e+01 2.682014703750610352e-01 1.279119491577148438e+01 6.474773406982421875e+01 2.326167869567871094e+01 1.183628678321838379e+00
3.735000000000000000e+03 5.322914123535156250e+01 2.681987881660461426e-01 1.078883838653564453e+01 6.400499725341796875e+01 2.243815040588378906e+01 -5.172648429870605469e+00
3.736000000000000000e+03 5.321004486083984375e+01 2.644060850143432617e-01 1.040044212341308594e+01 6.038980865478515625e+01 2.123707580566406250e+01 -1.146443939208984375e+01
3.737000000000000000e+03 5.319205474853515625e+01 2.569684386253356934e-01 1.144928646087646484e+01 5.403514099121093750e+01 1.964532852172851562e+01 -1.688162612915039062e+01
3.738000000000000000e+03 5.317585372924804688e+01 2.461704909801483154e-01 1.323020935058593750e+01 4.569146728515625000e+01 1.767650413513183594e+01 -2.058929252624511719e+01
3.739000000000000000e+03 5.316206741333007812e+01 2.324254661798477173e-01 1.518169021606445312e+01 3.596127700805664062e+01 1.534289073944091797e+01 -2.234166336059570312e+01
3.740000000000000000e+03 5.315122222900390625e+01 2.162593156099319458e-01 1.654422569274902344e+01 2.628545570373535156e+01 1.284890460968017578e+01 -2.206908988952636719e+01
3.741000000000000000e+03 5.314373016357421875e+01 1.982907056808471680e-01 1.717681884765625000e+01 1.640579414367675781e+01 1.007478427886962891e+01 -1.974366378784179688e+01
3.742000000000000000e+03 5.313987731933593750e+01 1.792072206735610962e-01 1.643819046020507812e+01 8.262069702148437500e+00 7.410078048706054688e+00 -1.601203536987304688e+01
3.743000000000000000e+03 5.313981246948242188e+01 1.597391366958618164e-01 1.428005504608154297e+01 1.751211524009704590e+00 4.809380054473876953e+00 -6.470457553863525391e+00
