# el_label, x, y, sXX, sYY, sZZ, sXY
1.000000000000000000e+00 6.456793975830078125e+01 -2.549663305282592773e+00 -1.444348573684692383e+00 -9.672415326349437237e-04 -4.335947334766387939e-01 -1.263449937105178833e-01
2.000000000000000000e+00 6.364788055419921875e+01 -1.922465801239013672e+00 -1.313672661781311035e+00 1.109824404120445251e-01 -3.608070909976959229e-01 8.095353096723556519e-02
3.000000000000000000e+00 6.769713592529296875e+01 -1.984575629234313965e+00 -9.966130256652832031e-01 -2.929593920707702637e-01 -3.868717253208160400e-01 -7.109699249267578125e-01
4.000000000000000000e+00 6.822712707519531250e+01 -1.574178576469421387e+00 -2.272188663482666016e+00 -6.949217319488525391e-01 -8.901330828666687012e-01 -9.596463441848754883e-01
5.000000000000000000e+00 6.290596771240234375e+01 -2.771442890167236328e+00 -1.031987071037292480e+00 1.932956464588642120e-02 -3.037972450256347656e-01 3.931338898837566376e-03
6.000000000000000000e+00 6.618161010742187500e+01 -1.577479243278503418e+00 -1.439584732055664062e+00 1.316206455230712891e-01 -3.923892080783843994e-01 -3.128716647624969482e-01
7.000000000000000000e+00 6.534030914306640625e+01 -1.694605469703674316e+00 -1.435121178627014160e+00 6.305628269910812378e-02 -4.116194546222686768e-01 -1.464781761169433594e-01
8.000000000000000000e+00 6.699713134765625000e+01 -1.458653092384338379e+00 -1.727226018905639648e+00 1.372626423835754395e-01 -4.769890308380126953e-01 -4.422565102577209473e-01
9.000000000000000000e+00 6.280186843872070312e+01 -2.037958621978759766e+00 -1.166580677032470703e+00 1.641899198293685913e-01 -3.007172346115112305e-01 2.047013342380523682e-01
1.000000000000000000e+01 6.449397277832031250e+01 -1.808873414993286133e+00 -1.392205119132995605e+00 1.155698969960212708e-01 -3.829905688762664795e-01 -4.037980735301971436e-02
1.100000000000000000e+01 6.702591705322265625e+01 -2.210401058197021484e+00 -1.125918984413146973e+00 5.776875093579292297e-02 -3.204450607299804688e-01 -3.784785270690917969e-01
1.200000000000000000e+01 6.539921569824218750e+01 -2.439048051834106445e+00 -1.509180784225463867e+00 1.447646599262952805e-02 -4.484112858772277832e-01 -1.859707981348037720e-01
1.300000000000000000e+01 6.622545623779296875e+01 -2.325574398040771484e+00 -1.447876811027526855e+00 -1.448141876608133316e-02 -4.387074708938598633e-01 -2.432279735803604126e-01
1.400000000000000000e+01 6.373691558837890625e+01 -2.659602880477905273e+00 -1.281150579452514648e+00 3.436466678977012634e-02 -3.740357756614685059e-01 -6.637708097696304321e-02
1.500000000000000000e+01 6.770880126953125000e+01 -1.393609881401062012e+00 -2.252947568893432617e+00 1.648455113172531128e-01 -6.264306306838989258e-01 -3.809202909469604492e-01
1.600000000000000000e+01 6.033466720581054688e+01 -2.416436433792114258e+00 -3.360542654991149902e-01 -2.475990206003189087e-01 -1.750959903001785278e-01 3.335056304931640625e-01
1.700000000000000000e+01 6.083705139160156250e+01 -3.081315755844116211e+00 -1.562287509441375732e-01 -3.308815509080886841e-02 -5.679507181048393250e-02 7.189866155385971069e-02
1.800000000000000000e+01 6.132072830200195312e+01 -2.729238271713256836e+00 -4.727488160133361816e-01 -1.720772706903517246e-03 -1.423408687114715576e-01 1.806724667549133301e-01
1.900000000000000000e+01 6.207274627685546875e+01 -2.883035898208618164e+00 -6.476963758468627930e-01 5.445690825581550598e-02 -1.779718399047851562e-01 7.512646168470382690e-02
2.000000000000000000e+01 6.203616333007812500e+01 -2.138557434082031250e+00 -1.063277125358581543e+00 1.232421919703483582e-01 -2.820104658603668213e-01 3.169607818126678467e-01
2.100000000000000000e+01 6.082216262817382812e+01 -2.267519950866699219e+00 -6.011732816696166992e-01 -7.908427715301513672e-02 -2.040772736072540283e-01 4.053132236003875732e-01
2.200000000000000000e+01 6.138168334960937500e+01 -2.176469326019287109e+00 -9.187712669372558594e-01 9.992153197526931763e-02 -2.456549257040023804e-01 3.484260737895965576e-01
2.300000000000000000e+01 6.486840057373046875e+01 -4.776134967803955078e+00 3.226607572287321091e-03 1.282829139381647110e-02 4.816469736397266388e-03 -3.465821593999862671e-02
2.400000000000000000e+01 6.544552612304687500e+01 -6.223004341125488281e+00 -7.584070554003119469e-04 1.315618008375167847e-01 3.924101963639259338e-02 -1.003144402056932449e-02
2.500000000000000000e+01 6.501365661621093750e+01 -8.068415641784667969e+00 -4.755385816097259521e-01 -7.643466442823410034e-02 -1.655919700860977173e-01 3.579318225383758545e-01
2.600000000000000000e+01 6.558510589599609375e+01 -7.863820552825927734e+00 -1.437960714101791382e-01 -9.329528361558914185e-02 -7.112740725278854370e-02 1.771402359008789062e-01
2.700000000000000000e+01 6.579475402832031250e+01 -1.094960403442382812e+01 -2.170405387878417969e+00 1.836540251970291138e-01 -5.960254073143005371e-01 7.931413650512695312e-01
2.800000000000000000e+01 5.886141586303710938e+01 -9.742053985595703125e+00 -3.646715164184570312e+00 -6.092056035995483398e-01 -1.276776194572448730e+00 -1.226311802864074707e+00
2.900000000000000000e+01 5.810385131835937500e+01 -9.952516555786132812e+00 -4.634390830993652344e+00 -4.695829749107360840e-01 -1.531192064285278320e+00 -8.358895778656005859e-01
3.000000000000000000e+01 5.729309844970703125e+01 -1.004090499877929688e+01 -4.961210727691650391e+00 -3.410043418407440186e-01 -1.590664505958557129e+00 2.982642315328121185e-02
3.100000000000000000e+01 5.357595062255859375e+01 -1.699975967407226562e+01 1.036278009414672852e+00 6.243082880973815918e-01 4.981758892536163330e-01 -6.866806149482727051e-01
3.200000000000000000e+01 5.447369003295898438e+01 -1.781606864929199219e+01 6.808183789253234863e-01 6.769085526466369629e-01 4.073180854320526123e-01 -5.993847846984863281e-01
3.300000000000000000e+01 5.431082153320312500e+01 -1.705085372924804688e+01 7.096028327941894531e-01 5.205717086791992188e-01 3.690523505210876465e-01 -4.984329044818878174e-01
3.400000000000000000e+01 5.529141616821289062e+01 -1.768647193908691406e+01 6.259805560111999512e-01 1.525278016924858093e-02 1.923699975013732910e-01 -3.826479315757751465e-01
3.500000000000000000e+01 6.499555969238281250e+01 -1.900232887268066406e+01 4.808910787105560303e-01 3.809018373489379883e+00 1.286972880363464355e+00 8.522093892097473145e-01
3.600000000000000000e+01 6.468221282958984375e+01 -1.830956459045410156e+01 9.465543031692504883e-01 3.160978555679321289e+00 1.232259869575500488e+00 9.659438729286193848e-01
3.700000000000000000e+01 6.409027099609375000e+01 -1.765480232238769531e+01 1.159852862358093262e+00 1.978860139846801758e+00 9.416138529777526855e-01 6.310632824897766113e-01
3.800000000000000000e+01 6.633364105224609375e+01 -1.671863746643066406e+01 2.644539594650268555e+00 1.722121119499206543e+00 1.309998273849487305e+00 1.600527286529541016e+00
3.900000000000000000e+01 6.586452484130859375e+01 -8.657586097717285156e+00 -5.916346907615661621e-01 -5.488969683647155762e-01 -3.421595096588134766e-01 5.603637695312500000e-01
4.000000000000000000e+01 6.106632614135742188e+01 -9.050780296325683594e+00 -1.674301028251647949e+00 3.230308294296264648e-01 -4.053810536861419678e-01 -4.278144240379333496e-01
4.100000000000000000e+01 6.042334365844726562e+01 -8.684946060180664062e+00 -1.235013961791992188e+00 -4.979804456233978271e-01 -5.198983550071716309e-01 -7.115219831466674805e-01
4.200000000000000000e+01 6.400117492675781250e+01 -5.703424453735351562e+00 -2.366161160171031952e-02 -5.326616019010543823e-02 -2.307833172380924225e-02 -2.259468846023082733e-02
4.300000000000000000e+01 6.080717086791992188e+01 -5.423413753509521484e+00 4.459999618120491505e-04 1.033282056450843811e-01 3.113226220011711121e-02 2.032352611422538757e-03
4.400000000000000000e+01 5.567666244506835938e+01 -1.095641040802001953e+01 -2.290306329727172852e+00 -4.295442700386047363e-01 -8.159552216529846191e-01 -1.708865761756896973e-01
4.500000000000000000e+01 5.566049957275390625e+01 -9.571432113647460938e+00 -2.495465755462646484e+00 -7.800419926643371582e-01 -9.826523661613464355e-01 1.010149002075195312e+00
4.600000000000000000e+01 5.384965896606445312e+01 -7.800563812255859375e+00 -7.029795646667480469e-01 -6.850719451904296875e-01 -4.164154529571533203e-01 6.452132463455200195e-01
4.700000000000000000e+01 4.742736816406250000e+01 -8.423551559448242188e+00 7.811444997787475586e-02 1.114752769470214844e+00 3.578601777553558350e-01 -8.877727389335632324e-02
4.800000000000000000e+01 5.334329605102539062e+01 -7.150201797485351562e+00 -5.503546595573425293e-01 -8.256246447563171387e-01 -4.127937853336334229e-01 5.886864662170410156e-01
4.900000000000000000e+01 4.751896286010742188e+01 -9.227192878723144531e+00 -1.551784761250019073e-02 1.019875407218933105e+00 3.013072609901428223e-01 -4.511418193578720093e-02
5.000000000000000000e+01 5.073357772827148438e+01 -1.534576416015625000e+01 -5.964500308036804199e-01 -9.671821445226669312e-02 -2.079504728317260742e-01 -6.066243052482604980e-01
5.100000000000000000e+01 5.070383834838867188e+01 -1.110591125488281250e+01 -7.462226748466491699e-01 1.235016211867332458e-01 -1.868163049221038818e-01 -4.503878355026245117e-01
5.200000000000000000e+01 5.240319824218750000e+01 -1.632855224609375000e+01 1.209728941321372986e-01 2.337630540132522583e-01 1.064207851886749268e-01 -4.294724762439727783e-01
5.300000000000000000e+01 5.125053024291992188e+01 -3.984426021575927734e+00 -1.054132953286170959e-01 -1.495047807693481445e-01 -7.647542655467987061e-02 2.265792340040206909e-01
5.400000000000000000e+01 4.624193954467773438e+01 -6.258403778076171875e+00 -8.928149938583374023e-02 1.188216432929039001e-01 8.862041868269443512e-03 -1.933951280079782009e-03
5.500000000000000000e+01 4.676590347290039062e+01 -6.907599449157714844e+00 1.794663444161415100e-02 3.629490137100219727e-01 1.142686903476715088e-01 -1.133181750774383545e-01
5.600000000000000000e+01 5.274298095703125000e+01 -4.037788867950439453e+00 -3.430679673328995705e-03 -1.772416979074478149e-01 -5.420171469449996948e-02 4.434372857213020325e-02
5.700000000000000000e+01 5.166931533813476562e+01 -1.958252429962158203e+00 -4.339098185300827026e-02 -3.961760923266410828e-02 -2.490257844328880310e-02 5.554903671145439148e-02
5.800000000000000000e+01 5.259923553466796875e+01 -2.418759822845458984e+00 -6.865095812827348709e-03 -3.973042592406272888e-02 -1.397865638136863708e-02 2.025064453482627869e-02
5.900000000000000000e+01 4.395409774780273438e+01 -3.682107210159301758e+00 -6.553412079811096191e-01 -1.469903625547885895e-02 -2.010120749473571777e-01 1.307251453399658203e-01
6.000000000000000000e+01 4.439788818359375000e+01 -2.489129543304443359e+00 -4.461232721805572510e-01 5.565333738923072815e-02 -1.171409785747528076e-01 -7.291395962238311768e-02
6.100000000000000000e+01 4.254430389404296875e+01 -3.056642770767211914e+00 -8.397339582443237305e-01 -1.116039678454399109e-01 -2.854013741016387939e-01 -2.764039114117622375e-02
6.200000000000000000e+01 4.206621932983398438e+01 -1.846707582473754883e+00 -3.778066039085388184e-01 -1.376008242368698120e-01 -1.546222269535064697e-01 1.317216642200946808e-02
6.300000000000000000e+01 4.004102706909179688e+01 -9.150044322013854980e-01 -1.562013328075408936e-01 -6.136870756745338440e-02 -6.527101248502731323e-02 1.135168001055717468e-01
6.400000000000000000e+01 4.093718719482421875e+01 -2.382137298583984375e+00 -5.036157369613647461e-01 -1.857917010784149170e-01 -2.068222463130950928e-01 9.945153445005416870e-02
6.500000000000000000e+01 3.957396697998046875e+01 -6.454085111618041992e-01 -9.923987090587615967e-02 -3.133872896432876587e-02 -3.917358070611953735e-02 1.044118031859397888e-01
6.600000000000000000e+01 3.780496597290039062e+01 -7.353929877281188965e-01 -1.944671124219894409e-01 4.088006541132926941e-02 -4.607611522078514099e-02 6.603026390075683594e-02
6.700000000000000000e+01 3.500075149536132812e+01 -1.833995938301086426e+00 -2.425008863210678101e-01 5.402704328298568726e-02 -5.654215440154075623e-02 -6.079568341374397278e-02
6.800000000000000000e+01 2.950911140441894531e+01 -4.943500518798828125e+00 -9.119000285863876343e-03 -2.292267382144927979e-01 -7.150372117757797241e-02 -2.577244676649570465e-02
6.900000000000000000e+01 2.966175842285156250e+01 -5.763308525085449219e+00 -3.798497607931494713e-03 -3.433077931404113770e-01 -1.041318923234939575e-01 -4.165096580982208252e-02
7.000000000000000000e+01 2.964702796936035156e+01 -7.445962429046630859e+00 -1.763045002007856965e-04 -5.609219670295715332e-01 -1.683294773101806641e-01 -5.929640308022499084e-02
7.100000000000000000e+01 2.948322296142578125e+01 -9.147272109985351562e+00 -1.600776761770248413e-01 -8.866667151451110840e-01 -3.140233159065246582e-01 -2.483172118663787842e-01
7.200000000000000000e+01 2.912004470825195312e+01 -9.933616638183593750e+00 -2.820249497890472412e-01 -7.350776791572570801e-01 -3.051307797431945801e-01 -3.707594871520996094e-01
7.300000000000000000e+01 2.740189933776855469e+01 -1.177972412109375000e+01 -5.024294853210449219e-01 -3.142889738082885742e-01 -2.450155317783355713e-01 -3.648641109466552734e-01
7.400000000000000000e+01 3.105547523498535156e+01 -1.592208480834960938e+01 -5.167365074157714844e-01 -2.867019772529602051e-01 -2.410315573215484619e-01 -2.931066751480102539e-01
7.500000000000000000e+01 2.672291564941406250e+01 -1.225682735443115234e+01 -5.832669138908386230e-01 -2.410853803157806396e-01 -2.473056912422180176e-01 -3.403637409210205078e-01
7.600000000000000000e+01 2.455812072753906250e+01 -1.333767032623291016e+01 -7.083653807640075684e-01 -9.766093641519546509e-02 -2.418079078197479248e-01 -2.369437217712402344e-01
7.700000000000000000e+01 2.335608100891113281e+01 -1.415271282196044922e+01 -6.494920849800109863e-01 -1.088493317365646362e-01 -2.275024205446243286e-01 -1.200225353240966797e-01
7.800000000000000000e+01 2.259845161437988281e+01 -1.375659179687500000e+01 -7.332579493522644043e-01 -7.865338027477264404e-02 -2.435733973979949951e-01 -3.921748697757720947e-02
7.900000000000000000e+01 2.500099945068359375e+01 -1.485352802276611328e+01 -5.031791925430297852e-01 -1.661199033260345459e-01 -2.007897198200225830e-01 -1.773920357227325439e-01
8.000000000000000000e+01 2.108763694763183594e+01 -1.319497203826904297e+01 -3.427844643592834473e-01 -8.934059739112854004e-02 -1.296375095844268799e-01 1.379839032888412476e-01
8.100000000000000000e+01 1.376145172119140625e+01 -1.392077541351318359e+01 7.797235995531082153e-02 1.010685935616493225e-01 5.371228605508804321e-02 -8.205275237560272217e-02
8.200000000000000000e+01 1.483186721801757812e+01 -1.064955234527587891e+01 -7.817652076482772827e-02 7.532152533531188965e-02 -8.564998861402273178e-04 5.312419030815362930e-03
8.300000000000000000e+01 1.529882335662841797e+01 -1.577602863311767578e+01 8.064223825931549072e-02 3.121448755264282227e-01 1.178361400961875916e-01 -1.346981078386306763e-01
8.400000000000000000e+01 1.572945308685302734e+01 -1.818727493286132812e+01 -9.583781473338603973e-03 -2.984861470758914948e-02 -1.182971894741058350e-02 -8.612679690122604370e-02
8.500000000000000000e+01 2.140643119812011719e+01 -2.581086540222167969e+01 2.667158246040344238e-01 9.990942478179931641e-02 1.099875792860984802e-01 -1.178786829113960266e-01
8.600000000000000000e+01 2.194830322265625000e+01 -2.792588233947753906e+01 3.449296057224273682e-01 1.860808432102203369e-01 1.593031287193298340e-01 -2.408699393272399902e-01
8.700000000000000000e+01 2.211412429809570312e+01 -2.697173690795898438e+01 3.856379687786102295e-01 7.653324306011199951e-02 1.386513710021972656e-01 -1.787287890911102295e-01
8.800000000000000000e+01 2.251562118530273438e+01 -2.847791290283203125e+01 2.639285624027252197e-01 1.623047292232513428e-01 1.278699785470962524e-01 -2.075936794281005859e-01
8.900000000000000000e+01 2.550453758239746094e+01 -3.284520721435546875e+01 -7.010832894593477249e-03 -3.366158008575439453e-01 -1.030879914760589600e-01 -4.437413066625595093e-02
9.000000000000000000e+01 2.463310432434082031e+01 -3.441296768188476562e+01 -3.956912551075220108e-03 -4.936103224754333496e-01 -1.492701768875122070e-01 -1.596248149871826172e-02
9.100000000000000000e+01 2.457920455932617188e+01 -3.709360122680664062e+01 -2.325754612684249878e-02 -5.272321105003356934e-01 -1.651468873023986816e-01 -8.428414911031723022e-02
9.200000000000000000e+01 2.407763862609863281e+01 -3.781777572631835938e+01 -4.236745089292526245e-02 -3.236654996871948242e-01 -1.098098903894424438e-01 -5.524411424994468689e-02
9.300000000000000000e+01 2.286680221557617188e+01 -3.895893478393554688e+01 1.941783428192138672e-01 -5.585315078496932983e-02 4.149755835533142090e-02 2.953326888382434845e-02
9.400000000000000000e+01 2.059384918212890625e+01 -3.990641021728515625e+01 5.550906062126159668e-01 5.064246430993080139e-02 1.817199140787124634e-01 1.877552121877670288e-01
9.500000000000000000e+01 1.717728424072265625e+01 -4.057130050659179688e+01 5.930981040000915527e-01 1.279710829257965088e-01 2.163207530975341797e-01 -1.049032583832740784e-01
9.600000000000000000e+01 1.445563125610351562e+01 -3.812300109863281250e+01 1.276449859142303467e-01 9.999594092369079590e-02 6.829227507114410400e-02 -1.255630105733871460e-01
9.700000000000000000e+01 1.394695758819580078e+01 -3.750834655761718750e+01 1.276788413524627686e-01 7.388018071651458740e-02 6.046770885586738586e-02 -9.470501542091369629e-02
9.800000000000000000e+01 1.300017929077148438e+01 -3.445830917358398438e+01 -6.217756308615207672e-03 -3.233232498168945312e-01 -9.886229783296585083e-02 -3.560861945152282715e-02
9.900000000000000000e+01 1.249600601196289062e+01 -3.626108169555664062e+01 5.826760455965995789e-02 -1.493747830390930176e-01 -2.733215503394603729e-02 -8.993119001388549805e-02
1.000000000000000000e+02 5.875454902648925781e+00 -2.243012809753417969e+01 1.112001463770866394e-01 -6.398885976523160934e-03 3.144037723541259766e-02 -3.264502063393592834e-02
1.010000000000000000e+02 3.708011806011199951e-01 -3.005071449279785156e+01 -8.658400620333850384e-04 -9.202521294355392456e-02 -2.786731533706188202e-02 -2.392548136413097382e-03
1.020000000000000000e+02 1.176981449127197266e+00 -3.484598922729492188e+01 -2.010058378800749779e-03 -1.847001165151596069e-01 -5.601305142045021057e-02 -3.284804895520210266e-02
1.030000000000000000e+02 4.275875687599182129e-01 -3.646091461181640625e+01 8.686782093718647957e-04 -2.365241646766662598e-01 -7.069664448499679565e-02 -1.286851987242698669e-02
1.040000000000000000e+02 1.353830718994140625e+01 -3.684044647216796875e+01 5.589554831385612488e-02 -2.911781193688511848e-03 1.589513011276721954e-02 -6.077088415622711182e-02
1.050000000000000000e+02 7.534496307373046875e+00 -3.916279220581054688e+01 9.207934886217117310e-02 -2.148040533065795898e-01 -3.681741282343864441e-02 -8.992239087820053101e-02
1.060000000000000000e+02 3.066870307922363281e+01 -4.914931774139404297e+00 -6.316351238638162613e-03 -2.243437469005584717e-01 -6.919802725315093994e-02 -1.410994231700897217e-01
1.070000000000000000e+02 1.470795726776123047e+01 -1.405257892608642578e+01 2.533451654016971588e-02 1.687785089015960693e-01 5.823390930891036987e-02 -6.552539020776748657e-02
1.080000000000000000e+02 1.143689918518066406e+01 -1.205725097656250000e+01 -9.703925251960754395e-02 1.365434750914573669e-02 -2.501547150313854218e-02 -3.460392728447914124e-02
1.090000000000000000e+02 1.239043426513671875e+01 -1.319012355804443359e+01 -1.872215047478675842e-02 1.146168075501918793e-02 -2.178141148760914803e-03 -9.266985580325126648e-03
1.100000000000000000e+02 1.727653312683105469e+01 -8.757163047790527344e+00 -1.050474587827920914e-02 2.771521173417568207e-02 5.163139663636684418e-03 9.831637144088745117e-03
1.110000000000000000e+02 1.719533157348632812e+01 -6.223756313323974609e+00 6.391272414475679398e-03 5.204863101243972778e-02 1.753197051584720612e-02 2.733289031311869621e-03
1.120000000000000000e+02 1.521218204498291016e+01 -1.509838700294494629e+00 -2.168939914554357529e-03 1.625502947717905045e-03 -1.630310580367222428e-04 -1.190973352640867233e-02
1.130000000000000000e+02 1.749345779418945312e+01 -4.606346607208251953e+00 1.215755473822355270e-02 3.979039564728736877e-02 1.558438502252101898e-02 7.263732608407735825e-03
1.140000000000000000e+02 1.213951301574707031e+01 -1.423437118530273438e+00 1.739499624818563461e-03 -6.653211079537868500e-03 -1.474113436415791512e-03 -1.242935750633478165e-02
1.150000000000000000e+02 9.064067840576171875e+00 -2.476753473281860352e+00 9.639565832912921906e-03 -5.623696371912956238e-03 1.204760745167732239e-03 -6.846923381090164185e-03
1.160000000000000000e+02 1.097045230865478516e+01 -1.272056961059570312e+01 -8.045040071010589600e-02 5.833571776747703552e-03 -2.238504961133003235e-02 9.354785084724426270e-03
1.170000000000000000e+02 7.473348140716552734e+00 -1.345421123504638672e+01 -7.756066322326660156e-02 -1.011857911944389343e-01 -5.362393334507942200e-02 -7.668546587228775024e-02
1.180000000000000000e+02 1.649238967895507812e+01 -5.369606614112854004e-01 -1.895517297089099884e-02 -2.392170972598250955e-05 -5.693728569895029068e-03 -1.027411501854658127e-02
1.190000000000000000e+02 1.662848663330078125e+01 -1.746886014938354492e+00 1.739805098623037338e-03 3.660536138340830803e-03 1.620102324523031712e-03 1.504710293374955654e-03
1.200000000000000000e+02 1.965378952026367188e+01 -5.694228410720825195e-01 -4.015636816620826721e-02 -2.955697104334831238e-02 -2.091400139033794403e-02 -4.917469993233680725e-02
1.210000000000000000e+02 9.795400619506835938e+00 -1.805120587348937988e+00 9.283617138862609863e-03 -2.739264164119958878e-03 1.963305985555052757e-03 -8.405213244259357452e-03
1.220000000000000000e+02 4.355564117431640625e+00 -1.873080372810363770e+00 9.367274120450019836e-03 -1.729744835756719112e-03 2.291258890181779861e-03 6.632886361330747604e-03
1.230000000000000000e+02 1.057054400444030762e+00 -1.062354469299316406e+01 4.123682447243481874e-04 5.496565625071525574e-02 1.661340706050395966e-02 9.995767846703529358e-03
1.240000000000000000e+02 4.776340484619140625e+00 -1.588750171661376953e+01 -5.426888167858123779e-02 -1.107264831662178040e-01 -4.949861019849777222e-02 -5.511198565363883972e-02
1.250000000000000000e+02 5.588707923889160156e+00 -1.706242179870605469e+01 -5.953901633620262146e-02 -2.144470214843750000e-01 -8.219581097364425659e-02 -1.012900397181510925e-01
1.260000000000000000e+02 5.963795185089111328e+00 -1.636421966552734375e+01 -7.458462566137313843e-02 -1.847127974033355713e-01 -7.778922468423843384e-02 -1.086084619164466858e-01
1.270000000000000000e+02 7.395483970642089844e+00 -1.445113277435302734e+01 -1.072453036904335022e-01 -1.290161162614822388e-01 -7.087842375040054321e-02 -1.124125421047210693e-01
1.280000000000000000e+02 8.565371513366699219e+00 -1.340940475463867188e+01 -9.696865826845169067e-02 -6.786594539880752563e-02 -4.945038259029388428e-02 -9.254378825426101685e-02
1.290000000000000000e+02 3.474809825420379639e-01 -9.104763984680175781e+00 -7.954605971463024616e-04 5.950130522251129150e-02 1.761175319552421570e-02 3.749081632122397423e-03
1.300000000000000000e+02 3.558559894561767578e+00 -1.960164189338684082e+00 7.349354214966297150e-03 9.374449728056788445e-04 2.486039884388446808e-03 7.490117568522691727e-03
1.310000000000000000e+02 1.081574320793151855e+00 -1.784119987487792969e+01 -5.759872030466794968e-03 1.562923751771450043e-02 2.960809739306569099e-03 -3.220469504594802856e-02
1.320000000000000000e+02 5.029794216156005859e+00 -1.942078208923339844e+01 8.664682973176240921e-04 -1.042637452483177185e-01 -3.101918287575244904e-02 -3.474460914731025696e-02
1.330000000000000000e+02 3.605311214923858643e-01 -2.441846847534179688e+01 1.050480757839977741e-03 -1.199913248419761658e-01 -3.568225353956222534e-02 1.602469128556549549e-03
1.340000000000000000e+02 3.588523268699645996e-01 -2.683340454101562500e+01 -5.033434717915952206e-04 -9.968599677085876465e-02 -3.005680255591869354e-02 3.384862793609499931e-03
1.350000000000000000e+02 7.688796043395996094e+00 -2.273197746276855469e+01 2.231559753417968750e-01 6.203222647309303284e-02 8.555646240711212158e-02 -8.255992084741592407e-02
1.360000000000000000e+02 1.749195098876953125e+00 -4.019732666015625000e+01 1.422372367233037949e-02 -2.882125377655029297e-01 -8.219664543867111206e-02 -1.825291663408279419e-02
1.370000000000000000e+02 2.427823638916015625e+01 -3.876076126098632812e+01 2.172088027000427246e-01 -3.125404119491577148e-01 -2.859948389232158661e-02 1.623459719121456146e-02
1.380000000000000000e+02 3.204874420166015625e+01 -2.789847183227539062e+01 3.710325062274932861e-01 1.524870842695236206e-01 1.570558696985244751e-01 -2.119727283716201782e-01
1.390000000000000000e+02 3.262400817871093750e+01 -2.741515159606933594e+01 4.108654856681823730e-01 2.872746288776397705e-01 2.094420343637466431e-01 -3.198933005332946777e-01
1.400000000000000000e+02 3.205957794189453125e+01 -2.683868789672851562e+01 3.056854307651519775e-01 2.441184669733047485e-01 1.649411618709564209e-01 -2.785726189613342285e-01
1.410000000000000000e+02 3.092246627807617188e+01 -2.571026229858398438e+01 2.506100535392761230e-01 1.836846470832824707e-01 1.302884072065353394e-01 -2.171405553817749023e-01
1.420000000000000000e+02 2.984428977966308594e+01 -2.448267555236816406e+01 1.455167531967163086e-01 1.110012531280517578e-01 7.695540040731430054e-02 -1.322966217994689941e-01
1.430000000000000000e+02 2.905343055725097656e+01 -2.212698745727539062e+01 -3.367098281159996986e-03 -2.443091422319412231e-01 -7.430287450551986694e-02 -2.508613653481006622e-02
1.440000000000000000e+02 2.915788841247558594e+01 -2.295596122741699219e+01 1.495343912392854691e-02 -1.374798268079757690e-01 -3.675791621208190918e-02 -2.884904295206069946e-02
1.450000000000000000e+02 2.937147712707519531e+01 -1.967892456054687500e+01 -6.960476189851760864e-02 -3.831094205379486084e-01 -1.358142495155334473e-01 -1.338180899620056152e-01
1.460000000000000000e+02 2.060216331481933594e+01 -1.466280841827392578e+01 -3.192539811134338379e-01 -5.340734124183654785e-02 -1.117983907461166382e-01 -8.930293470621109009e-02
1.470000000000000000e+02 4.116405868530273438e+01 -3.642803573608398438e+01 4.588145017623901367e-01 2.994143366813659668e-01 2.274686545133590698e-01 -3.600116968154907227e-01
1.480000000000000000e+02 4.221475982666015625e+01 -3.938271713256835938e+01 7.869149446487426758e-01 2.580583691596984863e-01 3.134920001029968262e-01 -5.398269370198249817e-02
1.490000000000000000e+02 4.220188903808593750e+01 -3.754507827758789062e+01 9.543745517730712891e-01 3.856918215751647949e-01 4.020198881626129150e-01 -4.091956019401550293e-01
1.500000000000000000e+02 4.295699310302734375e+01 -3.800894165039062500e+01 1.329614162445068359e+00 3.050205707550048828e-01 4.903903901576995850e-01 -2.236789762973785400e-01
1.510000000000000000e+02 4.399958419799804688e+01 -3.803746032714843750e+01 1.249297499656677246e+00 1.131762862205505371e-01 4.087421298027038574e-01 -4.271032661199569702e-02
1.520000000000000000e+02 4.576357650756835938e+01 -3.782944488525390625e+01 8.449748158454895020e-01 7.612983882427215576e-02 2.763313949108123779e-01 1.398154348134994507e-01
1.530000000000000000e+02 4.735052108764648438e+01 -3.812775039672851562e+01 7.074339389801025391e-01 1.828492246568202972e-02 2.177156656980514526e-01 8.730568736791610718e-02
1.540000000000000000e+02 5.642425155639648438e+01 -3.491778945922851562e+01 3.929613232612609863e-01 1.634927034378051758e+00 6.083664894104003906e-01 -5.217515230178833008e-01
1.550000000000000000e+02 5.576038742065429688e+01 -3.435739898681640625e+01 3.524647951126098633e-01 1.453158140182495117e+00 5.416868925094604492e-01 -2.597867846488952637e-01
1.560000000000000000e+02 5.103953170776367188e+01 -3.265082550048828125e+01 2.125269323587417603e-01 4.770994484424591064e-01 2.068879157304763794e-01 -2.284032404422760010e-01
1.570000000000000000e+02 5.781446456909179688e+01 -2.903357124328613281e+01 3.753371834754943848e-01 7.581952214241027832e-01 3.400597274303436279e-01 5.033342242240905762e-01
1.580000000000000000e+02 5.829667663574218750e+01 -2.836160850524902344e+01 4.288237690925598145e-01 7.277614474296569824e-01 3.469755649566650391e-01 5.423890948295593262e-01
1.590000000000000000e+02 5.772595977783203125e+01 -2.793047142028808594e+01 3.963629007339477539e-01 6.267929077148437500e-01 3.069467544555664062e-01 4.196464419364929199e-01
1.600000000000000000e+02 5.562957000732421875e+01 -2.415480232238769531e+01 7.876513153314590454e-02 1.210642009973526001e-01 5.994879826903343201e-02 1.746070683002471924e-01
1.610000000000000000e+02 5.488667678833007812e+01 -2.329376792907714844e+01 -1.819680258631706238e-02 -1.210515573620796204e-01 -4.177450761198997498e-02 -6.053640507161617279e-03
1.620000000000000000e+02 6.054459762573242188e+01 -2.630128669738769531e+01 -5.449630692601203918e-02 2.145907282829284668e-01 4.802832379937171936e-02 3.024635612964630127e-01
1.630000000000000000e+02 6.278435516357421875e+01 -2.567359352111816406e+01 -1.646689176559448242e-01 9.904104471206665039e-01 2.477224469184875488e-01 -2.808089256286621094e-01
1.640000000000000000e+02 6.535052490234375000e+01 -2.280165290832519531e+01 6.052888035774230957e-01 2.928669214248657227e+00 1.060187339782714844e+00 -1.104272365570068359e+00
1.650000000000000000e+02 6.494704437255859375e+01 -2.632791519165039062e+01 -4.480427801609039307e-01 1.752018690109252930e+00 3.911927640438079834e-01 -5.735671520233154297e-01
1.660000000000000000e+02 6.626750946044921875e+01 -2.410477066040039062e+01 3.667660653591156006e-01 1.009533286094665527e+00 4.128897786140441895e-01 -6.620300412178039551e-01
1.670000000000000000e+02 6.639855194091796875e+01 -2.511500740051269531e+01 -3.449966609477996826e-01 1.097304344177246094e+00 2.256923168897628784e-01 -3.893907368183135986e-01
1.680000000000000000e+02 6.509494781494140625e+01 -2.870875549316406250e+01 4.438597857952117920e-01 1.959010362625122070e+00 7.208610177040100098e-01 -9.263572096824645996e-01
1.690000000000000000e+02 6.620097351074218750e+01 -2.978894424438476562e+01 7.993681430816650391e-01 1.906087994575500488e+00 8.116368651390075684e-01 -5.772094130516052246e-01
1.700000000000000000e+02 6.776595306396484375e+01 -3.243912124633789062e+01 5.563436150550842285e-01 2.458521842956542969e+00 9.044595956802368164e-01 8.086190372705459595e-02
1.710000000000000000e+02 6.667953491210937500e+01 -3.270823669433593750e+01 2.794475853443145752e-01 2.584478616714477539e+00 8.591778278350830078e-01 -9.800951182842254639e-02
1.720000000000000000e+02 6.568643951416015625e+01 -3.405730056762695312e+01 1.087055504322052002e-01 2.459729433059692383e+00 7.705304622650146484e-01 2.061093002557754517e-01
1.730000000000000000e+02 6.530671691894531250e+01 -3.580271148681640625e+01 5.931810140609741211e-01 2.059023380279541016e+00 7.956613302230834961e-01 7.012509107589721680e-01
1.740000000000000000e+02 6.473040771484375000e+01 -3.660337448120117188e+01 6.465104222297668457e-01 1.165903449058532715e+00 5.437241792678833008e-01 7.233757376670837402e-01
1.750000000000000000e+02 6.754553222656250000e+01 -3.564270401000976562e+01 5.245812535285949707e-01 2.549164772033691406e+00 9.221237897872924805e-01 2.971195876598358154e-01
1.760000000000000000e+02 7.865970611572265625e+01 -3.781843185424804688e+01 2.415333688259124756e-02 6.634141921997070312e+00 1.997488617897033691e+00 1.088239848613739014e-01
1.770000000000000000e+02 7.960287475585937500e+01 -3.400622558593750000e+01 2.321216044947504997e-03 7.335458278656005859e+00 2.201333999633789062e+00 4.201550781726837158e-02
1.780000000000000000e+02 6.959902954101562500e+01 -2.613266181945800781e+01 -2.214335441589355469e+00 -1.462990976870059967e-02 -6.686895489692687988e-01 1.605508327484130859e-01
1.790000000000000000e+02 6.802440643310546875e+01 -2.575128173828125000e+01 -1.429915666580200195e+00 -1.002893447875976562e-01 -4.590615034103393555e-01 3.963055312633514404e-01
1.800000000000000000e+02 6.737740325927734375e+01 -2.523912048339843750e+01 -4.425235390663146973e-01 2.283963114023208618e-01 -6.423816829919815063e-02 5.566390231251716614e-02
1.810000000000000000e+02 5.743374633789062500e+01 -3.609782409667968750e+01 5.873386859893798828e-01 8.504670858383178711e-01 4.313417375087738037e-01 -6.743712425231933594e-01
1.820000000000000000e+02 5.831214141845703125e+01 -3.729300689697265625e+01 7.673410773277282715e-01 6.378632783889770508e-01 4.215613007545471191e-01 -6.582296490669250488e-01
1.830000000000000000e+02 5.893073654174804688e+01 -3.804273605346679688e+01 1.171057581901550293e+00 5.552453994750976562e-01 5.178909301757812500e-01 -5.309612154960632324e-01
1.840000000000000000e+02 5.990494537353515625e+01 -3.843650817871093750e+01 1.370095610618591309e+00 3.969138264656066895e-01 5.301028490066528320e-01 -3.402828276157379150e-01
1.850000000000000000e+02 5.786974716186523438e+01 -3.999008560180664062e+01 9.476234912872314453e-01 5.703392624855041504e-01 4.553888142108917236e-01 -2.065708935260772705e-01
1.860000000000000000e+02 6.397913360595703125e+01 -3.720326232910156250e+01 6.800272464752197266e-01 7.326006293296813965e-01 4.237883687019348145e-01 5.695529580116271973e-01
1.870000000000000000e+02 6.093535995483398438e+01 -3.832535552978515625e+01 1.314886689186096191e+00 7.720122486352920532e-02 4.176263809204101562e-01 -6.295781582593917847e-02
1.880000000000000000e+02 7.887152099609375000e+01 -3.065845108032226562e+01 -3.177515417337417603e-02 7.423318862915039062e+00 2.217463016510009766e+00 6.554686278104782104e-02
1.890000000000000000e+02 7.892728424072265625e+01 -1.936991119384765625e+01 -7.289985567331314087e-02 1.006732749938964844e+01 2.998328208923339844e+00 7.793647050857543945e-01
1.900000000000000000e+02 7.965516662597656250e+01 -2.277377891540527344e+01 1.663896068930625916e-02 7.978494167327880859e+00 2.398539781570434570e+00 1.801604330539703369e-01
1.910000000000000000e+02 7.964208221435546875e+01 -2.517780685424804688e+01 3.284925222396850586e-02 7.388694286346435547e+00 2.226463079452514648e+00 -2.561653964221477509e-03
1.920000000000000000e+02 7.963411712646484375e+01 -2.679729843139648438e+01 1.023337710648775101e-02 7.489388942718505859e+00 2.249886751174926758e+00 -4.996630176901817322e-02
1.930000000000000000e+02 7.252799224853515625e+01 -2.525702667236328125e+01 2.720926523208618164e+00 4.912889957427978516e+00 2.290144920349121094e+00 3.261926174163818359e+00
1.940000000000000000e+02 7.326245117187500000e+01 -2.512125396728515625e+01 2.057901620864868164e+00 8.138789176940917969e+00 3.059007167816162109e+00 2.817550182342529297e+00
1.950000000000000000e+02 7.038366699218750000e+01 -2.605012702941894531e+01 -1.251260280609130859e+00 3.160220012068748474e-02 -3.658974170684814453e-01 1.320107728242874146e-01
1.960000000000000000e+02 7.892722320556640625e+01 -1.856746292114257812e+01 -1.239776089787483215e-01 1.050218963623046875e+01 3.113463640213012695e+00 6.636917591094970703e-01
1.970000000000000000e+02 7.282427215576171875e+01 -1.890968704223632812e+01 -5.584615468978881836e-01 1.893441557884216309e+00 4.004940092563629150e-01 -1.433033049106597900e-01
1.980000000000000000e+02 7.893626403808593750e+01 -1.695390510559082031e+01 -1.898096948862075806e-01 1.111320304870605469e+01 3.277018070220947266e+00 2.756270468235015869e-01
1.990000000000000000e+02 7.963787841796875000e+01 -1.313003444671630859e+01 -4.330617934465408325e-02 1.058090019226074219e+01 3.161278247833251953e+00 -4.405145347118377686e-01
2.000000000000000000e+02 7.891866302490234375e+01 -1.132738113403320312e+01 -7.204448431730270386e-02 9.011778831481933594e+00 2.681920289993286133e+00 -1.482663035392761230e+00
2.010000000000000000e+02 7.426596069335937500e+01 -1.111686992645263672e+01 1.557634711265563965e+00 8.493762016296386719e+00 3.015419006347656250e+00 3.224544048309326172e+00
2.020000000000000000e+02 7.281183624267578125e+01 -1.132473659515380859e+01 7.111949920654296875e-01 8.304849863052368164e-01 4.625039994716644287e-01 1.004778265953063965e+00
2.030000000000000000e+02 7.136203002929687500e+01 -1.558551025390625000e+01 -8.683991432189941406e-01 -2.079962939023971558e-01 -3.229186236858367920e-01 1.209654211997985840e+00
2.040000000000000000e+02 7.026949310302734375e+01 -1.524160480499267578e+01 -3.200131058692932129e-01 -1.020339250564575195e+00 -4.021057188510894775e-01 1.650174379348754883e+00
2.050000000000000000e+02 6.877364349365234375e+01 -1.167123508453369141e+01 -4.181424140930175781e+00 -1.514057636260986328e+00 -1.708644509315490723e+00 1.994799017906188965e+00
2.060000000000000000e+02 6.685137939453125000e+01 -1.001403427124023438e+01 -1.719385623931884766e+00 -1.132710218429565430e+00 -8.556287288665771484e-01 1.389453411102294922e+00
2.070000000000000000e+02 7.526785278320312500e+01 -1.063969039916992188e+01 1.743473559617996216e-01 1.447358036041259766e+01 4.394378185272216797e+00 7.260066866874694824e-01
2.080000000000000000e+02 7.559350585937500000e+01 -9.890781402587890625e+00 2.106888055801391602e+00 1.572831916809082031e+01 5.350562095642089844e+00 2.378516942262649536e-01
2.090000000000000000e+02 7.504428863525390625e+01 -7.854912281036376953e+00 1.942602731287479401e-02 2.425389671325683594e+01 7.281996726989746094e+00 1.301161199808120728e-01
2.100000000000000000e+02 7.484244537353515625e+01 -3.775045156478881836e+00 9.706533551216125488e-01 1.306162548065185547e+01 4.209683418273925781e+00 -2.403188467025756836e+00
2.110000000000000000e+02 7.294804382324218750e+01 -1.163908720016479492e+00 -5.967490673065185547e-01 4.008218288421630859e+00 1.023440837860107422e+00 -1.342002868652343750e+00
2.120000000000000000e+02 7.306731414794921875e+01 -1.898885846138000488e+00 4.044377505779266357e-01 4.111068725585937500e+00 1.354651927947998047e+00 -1.875912189483642578e+00
2.130000000000000000e+02 7.965302276611328125e+01 1.253778696060180664e+00 -1.483916770666837692e-02 1.179847335815429688e+01 3.535090208053588867e+00 1.333085447549819946e-01
2.140000000000000000e+02 6.876609039306640625e+01 7.447008609771728516e+00 -1.717788100242614746e+00 -4.715929627418518066e-01 -6.568143367767333984e-01 -7.980129718780517578e-01
2.150000000000000000e+02 6.913668060302734375e+01 -7.114443778991699219e-01 -2.220281124114990234e+00 -3.050793409347534180e-01 -7.576081156730651855e-01 -2.853361964225769043e-01
2.160000000000000000e+02 6.471199798583984375e+01 7.368564605712890625e+00 1.427868008613586426e+00 8.665348887443542480e-01 6.883208751678466797e-01 -9.843409061431884766e-01
2.170000000000000000e+02 6.354350280761718750e+01 -1.218899965286254883e+00 -1.376033067703247070e+00 2.529331445693969727e-01 -3.369299769401550293e-01 1.372938007116317749e-01
2.180000000000000000e+02 6.538623809814453125e+01 6.429941654205322266e+00 1.625706106424331665e-01 5.322949886322021484e-01 2.084596902132034302e-01 -8.632960319519042969e-01
2.190000000000000000e+02 6.770588684082031250e+01 -6.684435009956359863e-01 -1.843525409698486328e+00 9.038635529577732086e-03 -5.503460168838500977e-01 -9.513936191797256470e-02
2.200000000000000000e+02 7.056510925292968750e+01 -9.485666155815124512e-01 -2.917037725448608398e+00 -3.500158339738845825e-02 -8.856117725372314453e-01 -3.097257316112518311e-01
2.210000000000000000e+02 7.873264312744140625e+01 3.801710510253906250e+01 6.164085119962692261e-03 5.308186531066894531e+00 1.594305157661437988e+00 -4.134434089064598083e-02
2.220000000000000000e+02 7.963329315185546875e+01 3.653252029418945312e+01 6.860407534986734390e-03 5.495754718780517578e+00 1.650784611701965332e+00 -1.930438168346881866e-02
2.230000000000000000e+02 7.960794830322265625e+01 2.933127593994140625e+01 -2.515530213713645935e-03 6.061933517456054688e+00 1.817825317382812500e+00 -3.906239941716194153e-02
2.240000000000000000e+02 7.964125823974609375e+01 2.210420417785644531e+01 -4.689137451350688934e-03 6.670096874237060547e+00 1.999622344970703125e+00 2.938391407951712608e-03
2.250000000000000000e+02 7.965470123291015625e+01 1.569795799255371094e+01 1.297832280397415161e-02 6.711265563964843750e+00 2.017273187637329102e+00 -4.368453100323677063e-02
2.260000000000000000e+02 7.962918090820312500e+01 8.481824874877929688e+00 -1.501343678683042526e-02 1.013793945312500000e+01 3.036877632141113281e+00 -1.916436702013015747e-01
2.270000000000000000e+02 7.892417907714843750e+01 4.529927730560302734e+00 -6.929740309715270996e-02 1.086874675750732422e+01 3.239834785461425781e+00 -2.039446532726287842e-01
2.280000000000000000e+02 7.893772125244140625e+01 1.899604225158691406e+01 4.352462012320756912e-03 6.583813667297363281e+00 1.976449847221374512e+00 3.183494508266448975e-02
2.290000000000000000e+02 7.888908386230468750e+01 2.620751190185546875e+01 -5.630189087241888046e-03 6.205121040344238281e+00 1.859847187995910645e+00 -1.051789373159408569e-01
2.300000000000000000e+02 7.863990020751953125e+01 3.278691101074218750e+01 1.668127439916133881e-02 5.555761814117431641e+00 1.671732902526855469e+00 -1.003012657165527344e-01
2.310000000000000000e+02 7.343042755126953125e+01 3.762158203125000000e+01 1.534422039985656738e-01 4.209228515625000000e+00 1.308801174163818359e+00 -1.563641875982284546e-01
2.320000000000000000e+02 7.177654266357421875e+01 3.799624633789062500e+01 2.049443721771240234e-01 3.890304088592529297e+00 1.228574514389038086e+00 -2.188390344381332397e-01
2.330000000000000000e+02 6.758070373535156250e+01 2.980285263061523438e+01 4.203306436538696289e-01 2.903177738189697266e+00 9.970525503158569336e-01 -4.797368049621582031e-01
2.340000000000000000e+02 6.883424377441406250e+01 2.082992744445800781e+01 3.736074641346931458e-02 2.334569454193115234e+00 7.115790843963623047e-01 -1.226154804229736328e+00
2.350000000000000000e+02 6.731305694580078125e+01 1.986347579956054688e+01 -4.126504063606262207e-01 4.463067650794982910e-01 1.009690668433904648e-02 -3.928415179252624512e-01
2.360000000000000000e+02 6.843350219726562500e+01 1.883798789978027344e+01 6.934000253677368164e-01 1.159556865692138672e+00 5.558871030807495117e-01 -9.524335861206054688e-01
2.370000000000000000e+02 6.898361968994140625e+01 1.829570960998535156e+01 1.071193575859069824e+00 1.489370465278625488e+00 7.681692242622375488e-01 -1.287963867187500000e+00
2.380000000000000000e+02 7.009328460693359375e+01 1.721468734741210938e+01 1.993501543998718262e+00 3.182932853698730469e+00 1.552930355072021484e+00 -2.428496599197387695e+00
2.390000000000000000e+02 7.183092498779296875e+01 1.446733951568603516e+01 1.122866034507751465e+00 1.001489830017089844e+01 3.341329097747802734e+00 -1.848293423652648926e+00
2.400000000000000000e+02 7.184945678710937500e+01 1.200875759124755859e+01 1.556022763252258301e-01 7.936494827270507812e+00 2.427628993988037109e+00 -8.765963464975357056e-02
2.410000000000000000e+02 7.178384399414062500e+01 1.119485950469970703e+01 3.985568284988403320e-01 7.141961097717285156e+00 2.262155294418334961e+00 4.458387196063995361e-01
2.420000000000000000e+02 7.155792999267578125e+01 1.040510272979736328e+01 2.206537872552871704e-01 4.882052898406982422e+00 1.530812025070190430e+00 7.771759629249572754e-01
2.430000000000000000e+02 7.117840576171875000e+01 9.675099372863769531e+00 -8.027439564466476440e-02 2.385417461395263672e+00 6.915429234504699707e-01 4.174477159976959229e-01
2.440000000000000000e+02 7.016107940673828125e+01 8.404127120971679688e+00 -1.292090058326721191e+00 -2.591991722583770752e-01 -4.653867781162261963e-01 -7.466096282005310059e-01
2.450000000000000000e+02 6.087500000000000000e+01 3.503528594970703125e+01 7.002417445182800293e-01 6.788901090621948242e-01 4.137395620346069336e-01 -5.379709005355834961e-01
2.460000000000000000e+02 5.821128082275390625e+01 3.740335845947265625e+01 9.428707361221313477e-01 5.362825393676757812e-01 4.437459707260131836e-01 1.384199857711791992e-01
2.470000000000000000e+02 6.027457427978515625e+01 3.548677444458007812e+01 8.522918820381164551e-01 4.521095454692840576e-01 3.913204371929168701e-01 -4.238787591457366943e-01
2.480000000000000000e+02 6.161492919921875000e+01 3.585577774047851562e+01 6.958441734313964844e-01 9.954007267951965332e-01 5.073734521865844727e-01 -4.532608389854431152e-01
2.490000000000000000e+02 6.237797927856445312e+01 3.327419281005859375e+01 7.457883358001708984e-01 1.411374211311340332e+00 6.471487879753112793e-01 -9.993090629577636719e-01
2.500000000000000000e+02 6.364444732666015625e+01 3.243113708496093750e+01 6.933339834213256836e-01 2.815307617187500000e+00 1.052592515945434570e+00 -6.194084882736206055e-01
2.510000000000000000e+02 6.336511230468750000e+01 3.159799575805664062e+01 4.125912189483642578e-01 3.155084133148193359e+00 1.070302605628967285e+00 -5.448100566864013672e-01
2.520000000000000000e+02 6.455979919433593750e+01 3.220087432861328125e+01 5.834806561470031738e-01 2.496338605880737305e+00 9.239457845687866211e-01 -4.028306007385253906e-01
2.530000000000000000e+02 6.331608963012695312e+01 3.084544372558593750e+01 3.801985830068588257e-02 2.735970020294189453e+00 8.321969509124755859e-01 -1.701495349407196045e-01
2.540000000000000000e+02 6.325880813598632812e+01 3.008098411560058594e+01 3.945172205567359924e-02 2.373942375183105469e+00 7.240182161331176758e-01 -8.904122561216354370e-02
2.550000000000000000e+02 6.320712661743164062e+01 2.778001213073730469e+01 7.186978310346603394e-02 2.383137226104736328e+00 7.365021109580993652e-01 9.081650525331497192e-02
2.560000000000000000e+02 6.387103652954101562e+01 2.778099441528320312e+01 2.266416251659393311e-01 2.323392868041992188e+00 7.650103569030761719e-01 1.656162589788436890e-01
2.570000000000000000e+02 6.303219604492187500e+01 2.628330993652343750e+01 5.039862990379333496e-01 2.236083030700683594e+00 8.220208287239074707e-01 7.434061765670776367e-01
2.580000000000000000e+02 6.308715820312500000e+01 2.551195526123046875e+01 6.895836591720581055e-01 1.750167131423950195e+00 7.319252490997314453e-01 6.578169465065002441e-01
2.590000000000000000e+02 6.371658325195312500e+01 1.966652679443359375e+01 -6.011872291564941406e-01 1.982445567846298218e-01 -1.208827942609786987e-01 1.576527506113052368e-01
2.600000000000000000e+02 6.179559326171875000e+01 2.477523040771484375e+01 9.340234994888305664e-01 8.302527070045471191e-01 5.292828679084777832e-01 8.350715041160583496e-01
2.610000000000000000e+02 6.042886352539062500e+01 2.403630065917968750e+01 4.692713022232055664e-01 2.222652584314346313e-01 2.074609696865081787e-01 3.518995940685272217e-01
2.620000000000000000e+02 5.654522705078125000e+01 2.388277244567871094e+01 2.812266051769256592e-01 3.090293109416961670e-01 1.770767718553543091e-01 -2.693623006343841553e-01
2.630000000000000000e+02 5.536209869384765625e+01 2.492421913146972656e+01 3.654810786247253418e-01 5.157645344734191895e-01 2.643736898899078369e-01 -3.990276753902435303e-01
2.640000000000000000e+02 5.305445098876953125e+01 2.728088569641113281e+01 2.543445527553558350e-01 1.169170618057250977e+00 4.270545542240142822e-01 -7.768170535564422607e-02
2.650000000000000000e+02 5.316172790527343750e+01 2.802573585510253906e+01 1.490605622529983521e-01 1.376543045043945312e+00 4.576810598373413086e-01 -9.440895915031433105e-02
2.660000000000000000e+02 5.390166473388671875e+01 2.872322845458984375e+01 1.993162557482719421e-02 1.508788585662841797e+00 4.586160778999328613e-01 8.530667051672935486e-03
2.670000000000000000e+02 5.396306228637695312e+01 3.110137748718261719e+01 1.756625026464462280e-01 1.864469885826110840e+00 6.120396852493286133e-01 3.331773877143859863e-01
2.680000000000000000e+02 5.208288574218750000e+01 3.899412536621093750e+01 5.947470068931579590e-01 5.549226999282836914e-01 3.449009060859680176e-01 8.029790222644805908e-02
2.690000000000000000e+02 4.254661560058593750e+01 3.642500686645507812e+01 6.153429746627807617e-01 1.660470850765705109e-02 1.895842999219894409e-01 7.998331636190414429e-02
2.700000000000000000e+02 4.360121917724609375e+01 3.467932128906250000e+01 5.198453068733215332e-01 -5.042259767651557922e-02 1.408268064260482788e-01 -1.817245152778923512e-03
2.710000000000000000e+02 4.051095199584960938e+01 3.932999420166015625e+01 5.476490855216979980e-01 1.050177216529846191e-01 1.958000510931015015e-01 7.358908653259277344e-02
2.720000000000000000e+02 3.759030532836914062e+01 3.603351211547851562e+01 5.778716206550598145e-01 1.267676055431365967e-01 2.113917618989944458e-01 3.660866245627403259e-02
2.730000000000000000e+02 3.752554321289062500e+01 3.349771881103515625e+01 6.887088418006896973e-01 2.484879493713378906e-01 2.811590433120727539e-01 3.176538646221160889e-01
2.740000000000000000e+02 3.830538177490234375e+01 3.399586486816406250e+01 8.728980422019958496e-01 1.892877668142318726e-01 3.186557590961456299e-01 2.981891632080078125e-01
2.750000000000000000e+02 4.003738784790039062e+01 3.538333892822265625e+01 6.943534016609191895e-01 1.740301847457885742e-01 2.605150640010833740e-01 1.701472550630569458e-01
2.760000000000000000e+02 4.187363815307617188e+01 3.349339675903320312e+01 3.250559568405151367e-01 5.140178371220827103e-03 9.905883669853210449e-02 -7.153192907571792603e-02
2.770000000000000000e+02 4.123835372924804688e+01 3.397000885009765625e+01 5.681798458099365234e-01 2.933509275317192078e-02 1.792544722557067871e-01 -8.693026006221771240e-02
2.780000000000000000e+02 4.217598342895507812e+01 3.482502365112304688e+01 6.235230565071105957e-01 -5.957372859120368958e-02 1.691847890615463257e-01 4.864968359470367432e-02
2.790000000000000000e+02 4.426009750366210938e+01 3.131090164184570312e+01 -6.319905817508697510e-02 -1.423057019710540771e-01 -6.165143102407455444e-02 1.009728386998176575e-01
2.800000000000000000e+02 4.521841812133789062e+01 3.000797462463378906e+01 -9.109978377819061279e-02 -2.060963511466979980e-01 -8.915884047746658325e-02 1.344923973083496094e-01
2.810000000000000000e+02 4.581793594360351562e+01 3.030078697204589844e+01 -3.668461740016937256e-02 5.628717597573995590e-03 -9.316770359873771667e-03 3.462374582886695862e-02
2.820000000000000000e+02 4.558777618408203125e+01 2.925984001159667969e+01 -6.528441607952117920e-02 -1.588218808174133301e-01 -6.723188608884811401e-02 1.011217162013053894e-01
2.830000000000000000e+02 4.584346389770507812e+01 2.761998176574707031e+01 -1.055687433108687401e-03 1.008190289139747620e-01 2.992900274693965912e-02 5.926011502742767334e-02
2.840000000000000000e+02 4.572117233276367188e+01 2.525770568847656250e+01 2.347987145185470581e-01 7.189818024635314941e-01 2.861341536045074463e-01 3.258069753646850586e-01
2.850000000000000000e+02 5.172702026367187500e+01 1.954431152343750000e+01 2.468448281288146973e-01 2.201097309589385986e-01 1.400863677263259888e-01 -1.344378441572189331e-01
2.860000000000000000e+02 5.366382980346679688e+01 2.633767127990722656e+01 2.930758893489837646e-01 1.274680137634277344e+00 4.703268110752105713e-01 -2.432818412780761719e-01
2.870000000000000000e+02 4.591037368774414062e+01 2.443523025512695312e+01 3.794527351856231689e-01 6.075703501701354980e-01 2.961069345474243164e-01 3.627986609935760498e-01
2.880000000000000000e+02 5.829333877563476562e+01 3.556292724609375000e+01 6.437479257583618164e-01 -8.910235762596130371e-02 1.663936674594879150e-01 9.254015982151031494e-02
2.890000000000000000e+02 5.693143081665039062e+01 3.683136367797851562e+01 8.427781462669372559e-01 4.906590580940246582e-01 4.000311791896820068e-01 2.919656932353973389e-01
2.900000000000000000e+02 5.655313873291015625e+01 3.509619903564453125e+01 7.542373538017272949e-01 5.116801261901855469e-01 3.797752559185028076e-01 5.349123477935791016e-01
2.910000000000000000e+02 5.597204971313476562e+01 3.726858139038085938e+01 7.468665838241577148e-01 6.377272605895996094e-01 4.153781533241271973e-01 2.680617272853851318e-01
2.920000000000000000e+02 3.119066047668457031e+01 3.683221435546875000e+01 4.345096945762634277e-01 -2.741858363151550293e-01 4.809715598821640015e-02 1.306616514921188354e-01
2.930000000000000000e+02 2.971128082275390625e+01 3.591834640502929688e+01 3.689607083797454834e-01 -3.034085035324096680e-01 1.966566033661365509e-02 1.936542838811874390e-01
2.940000000000000000e+02 2.883149337768554688e+01 2.946786689758300781e+01 -6.646747142076492310e-02 -5.300072431564331055e-01 -1.789424121379852295e-01 4.391381144523620605e-01
2.950000000000000000e+02 2.898176193237304688e+01 2.827575492858886719e+01 -3.935883343219757080e-01 -5.453161001205444336e-01 -2.816713452339172363e-01 4.889003932476043701e-01
2.960000000000000000e+02 2.910355949401855469e+01 2.717337226867675781e+01 -7.070468068122863770e-01 -5.644896030426025391e-01 -3.814609348773956299e-01 6.135671138763427734e-01
2.970000000000000000e+02 2.847949600219726562e+01 2.765693664550781250e+01 -5.791050195693969727e-01 -4.541075825691223145e-01 -3.099637925624847412e-01 5.315935611724853516e-01
2.980000000000000000e+02 3.077178764343261719e+01 2.540250778198242188e+01 -6.029758453369140625e-01 -1.197545170783996582e+00 -5.401563048362731934e-01 7.645370364189147949e-01
2.990000000000000000e+02 3.116182518005371094e+01 2.468160057067871094e+01 -4.026993513107299805e-01 -1.371272325515747070e+00 -5.321915149688720703e-01 6.255526542663574219e-01
3.000000000000000000e+02 3.171208000183105469e+01 2.491544151306152344e+01 -4.833377003669738770e-01 -9.867748618125915527e-01 -4.410337805747985840e-01 4.810333549976348877e-01
3.010000000000000000e+02 3.270629501342773438e+01 2.694726181030273438e+01 -3.611492514610290527e-01 -6.382330656051635742e-01 -2.998147010803222656e-01 3.230668902397155762e-01
3.020000000000000000e+02 3.528895568847656250e+01 2.730820083618164062e+01 -5.102258920669555664e-02 -5.689628124237060547e-01 -1.859956234693527222e-01 1.161195710301399231e-01
3.030000000000000000e+02 3.524947738647460938e+01 2.815414237976074219e+01 -2.223433367908000946e-02 -4.192754030227661133e-01 -1.324529200792312622e-01 4.602810740470886230e-02
3.040000000000000000e+02 3.545424270629882812e+01 2.983923149108886719e+01 1.997303217649459839e-02 -1.800890117883682251e-01 -4.803479090332984924e-02 1.848599128425121307e-02
3.050000000000000000e+02 3.595062255859375000e+01 3.145855331420898438e+01 1.165471971035003662e-01 5.775883421301841736e-02 5.229180678725242615e-02 1.193224713206291199e-01
3.060000000000000000e+02 3.689860534667968750e+01 3.285611724853515625e+01 4.415874779224395752e-01 2.457432150840759277e-01 2.061992138624191284e-01 3.046825230121612549e-01
3.070000000000000000e+02 2.258829498291015625e+01 3.795923233032226562e+01 1.831937283277511597e-01 -2.652463316917419434e-01 -2.461578324437141418e-02 6.662881374359130859e-02
3.080000000000000000e+02 2.112127113342285156e+01 3.626558303833007812e+01 1.320339441299438477e-01 -2.732805907726287842e-01 -4.237399622797966003e-02 6.149885430932044983e-02
3.090000000000000000e+02 2.621736526489257812e+01 2.904110336303710938e+01 1.974160671234130859e-01 8.540125191211700439e-02 8.484519273042678833e-02 4.122595489025115967e-01
3.100000000000000000e+02 1.998903656005859375e+01 3.308360290527343750e+01 -1.311836112290620804e-02 -3.967996537685394287e-01 -1.229754090309143066e-01 7.367358356714248657e-02
3.110000000000000000e+02 2.703225898742675781e+01 2.913059616088867188e+01 -1.020384356379508972e-01 -2.550784349441528320e-01 -1.071350648999214172e-01 4.550954103469848633e-01
3.120000000000000000e+02 1.690863990783691406e+01 3.630822372436523438e+01 1.145658642053604126e-01 -2.055643647909164429e-01 -2.729954943060874939e-02 1.248719319701194763e-01
3.130000000000000000e+02 1.112872409820556641e+01 3.481144332885742188e+01 2.935288250446319580e-01 4.498473368585109711e-03 8.940819650888442993e-02 1.160639896988868713e-02
3.140000000000000000e+02 1.504779911041259766e+01 3.419426727294921875e+01 4.388775676488876343e-02 -4.497602954506874084e-02 -3.264819388277828693e-04 5.300232768058776855e-02
3.150000000000000000e+02 1.651839828491210938e+01 3.470342254638671875e+01 3.358097374439239502e-02 -1.778897345066070557e-01 -4.329262673854827881e-02 1.349927037954330444e-01
3.160000000000000000e+02 1.726987266540527344e+01 3.288751602172851562e+01 -1.935354918241500854e-01 -1.974894106388092041e-01 -1.173074766993522644e-01 1.869810223579406738e-01
3.170000000000000000e+02 1.901341629028320312e+01 3.122627830505371094e+01 -2.627490758895874023e-01 -6.508223414421081543e-01 -2.740714251995086670e-01 3.620679080486297607e-01
3.180000000000000000e+02 1.965331077575683594e+01 2.969411659240722656e+01 -1.266049444675445557e-01 -9.873372912406921387e-01 -3.341826796531677246e-01 1.469780951738357544e-01
3.190000000000000000e+02 1.962916946411132812e+01 2.886256599426269531e+01 7.977898232638835907e-03 -8.301513195037841797e-01 -2.466520220041275024e-01 5.238364264369010925e-02
3.200000000000000000e+02 1.960727119445800781e+01 2.807061958312988281e+01 1.423280569724738598e-03 -6.881816983222961426e-01 -2.060275226831436157e-01 6.049579754471778870e-02
3.210000000000000000e+02 2.270189857482910156e+01 2.361223220825195312e+01 3.469418734312057495e-02 -3.316390216350555420e-01 -8.908344805240631104e-02 8.271005004644393921e-03
3.220000000000000000e+02 1.758982849121093750e+01 2.452791595458984375e+01 8.404726386070251465e-01 3.900800943374633789e-01 3.691658079624176025e-01 5.341649651527404785e-01
3.230000000000000000e+02 1.691917610168457031e+01 2.415089225769042969e+01 9.442133903503417969e-01 3.106648921966552734e-01 3.764634728431701660e-01 5.061953663825988770e-01
3.240000000000000000e+02 1.371465969085693359e+01 2.154761123657226562e+01 1.103385761380195618e-01 1.381395310163497925e-01 7.454343140125274658e-02 3.527433872222900391e-01
3.250000000000000000e+02 1.452840518951416016e+01 1.915250778198242188e+01 -1.294679045677185059e-01 7.590628415346145630e-02 -1.606848835945129395e-02 3.293050229549407959e-01
3.260000000000000000e+02 1.709457206726074219e+01 1.975610542297363281e+01 -2.120404690504074097e-01 -4.412584006786346436e-02 -7.684989273548126221e-02 1.462848782539367676e-01
3.270000000000000000e+02 1.677584838867187500e+01 1.861524391174316406e+01 -5.161320567131042480e-01 -1.104257106781005859e-01 -1.879673302173614502e-01 1.813453435897827148e-01
3.280000000000000000e+02 2.260975074768066406e+01 1.957517814636230469e+01 -8.537826687097549438e-02 -5.601074695587158203e-01 -1.936457157135009766e-01 1.425351947546005249e-01
3.290000000000000000e+02 2.508833122253417969e+01 1.635882568359375000e+01 -4.257053434848785400e-01 -3.021794855594635010e-01 -2.183654457330703735e-01 3.362452387809753418e-01
3.300000000000000000e+02 2.650148010253906250e+01 1.473418331146240234e+01 -4.016226828098297119e-01 -1.576006710529327393e-01 -1.677670031785964966e-01 1.682193577289581299e-01
3.310000000000000000e+02 2.101173782348632812e+01 1.547713375091552734e+01 -1.736347526311874390e-01 -2.233062833547592163e-01 -1.190823093056678772e-01 1.142733171582221985e-01
3.320000000000000000e+02 1.999857139587402344e+01 1.019959259033203125e+01 3.750423714518547058e-02 -7.626076787710189819e-02 -1.162696070969104767e-02 3.872336447238922119e-02
3.330000000000000000e+02 1.967460632324218750e+01 9.428496360778808594e+00 1.194792166352272034e-01 6.244575604796409607e-02 5.457749217748641968e-02 1.078939214348793030e-01
3.340000000000000000e+02 1.716366195678710938e+01 7.289614677429199219e+00 3.109421730041503906e-01 1.136894747614860535e-01 1.273894906044006348e-01 1.839729696512222290e-01
3.350000000000000000e+02 1.967495536804199219e+01 3.308425426483154297e+00 -4.338515996932983398e-01 -8.483561128377914429e-02 -1.556061655282974243e-01 1.554128527641296387e-01
3.360000000000000000e+02 2.186223602294921875e+01 2.648127079010009766e+00 -5.354093313217163086e-01 -9.082882851362228394e-02 -1.878714561462402344e-01 1.861132979393005371e-01
3.370000000000000000e+02 2.562586021423339844e+01 1.601636886596679688e+00 -6.505751013755798340e-01 -2.588183991611003876e-02 -2.029370963573455811e-01 2.235373854637145996e-01
3.380000000000000000e+02 2.711746978759765625e+01 1.195574045181274414e+00 -7.041404843330383301e-01 4.656942561268806458e-02 -1.972713172435760498e-01 1.650388687849044800e-01
3.390000000000000000e+02 2.980830574035644531e+01 2.006656408309936523e+00 -6.546027660369873047e-01 2.729700803756713867e-01 -1.144898086786270142e-01 1.481616031378507614e-02
3.400000000000000000e+02 3.247973632812500000e+01 2.070264101028442383e+00 -9.658353328704833984e-01 5.367053300142288208e-02 -2.736494243144989014e-01 2.510456740856170654e-01
3.410000000000000000e+02 3.256655883789062500e+01 1.369186639785766602e+00 -1.218423962593078613e+00 1.558794528245925903e-01 -3.187633752822875977e-01 -9.457772225141525269e-02
3.420000000000000000e+02 1.023882770538330078e+01 3.639785003662109375e+01 1.557210385799407959e-01 9.347575902938842773e-02 7.475904375314712524e-02 1.067083105444908142e-01
3.430000000000000000e+02 8.963469505310058594e+00 3.623804473876953125e+01 1.488028615713119507e-01 9.807688742876052856e-02 7.406391948461532593e-02 5.884599313139915466e-02
3.440000000000000000e+02 8.709920883178710938e+00 3.519004821777343750e+01 3.187965452671051025e-01 1.209890618920326233e-01 1.319356709718704224e-01 8.390146493911743164e-02
3.450000000000000000e+02 1.312754917144775391e+01 3.616534805297851562e+01 1.616150885820388794e-01 -4.246233031153678894e-02 3.574582561850547791e-02 8.677100390195846558e-02
3.460000000000000000e+02 1.225647687911987305e+00 3.695586776733398438e+01 5.655247252434492111e-03 -7.017021775245666504e-01 -2.088140845298767090e-01 -5.336502101272344589e-03
3.470000000000000000e+02 1.295549631118774414e+00 3.849849319458007812e+01 -4.284635069780051708e-04 -6.807636618614196777e-01 -2.043576389551162720e-01 -1.520031969994306564e-02
3.480000000000000000e+02 3.684153258800506592e-01 3.394367599487304688e+01 4.660252481698989868e-03 -7.670817971229553223e-01 -2.287264615297317505e-01 1.391760725528001785e-02
3.490000000000000000e+02 1.011904239654541016e+00 3.210568618774414062e+01 8.112620562314987183e-03 -5.988668203353881836e-01 -1.772262603044509888e-01 7.582612335681915283e-02
3.500000000000000000e+02 7.953994274139404297e+00 3.388142776489257812e+01 3.686546683311462402e-01 2.074973732233047485e-01 1.728456169366836548e-01 2.204895019531250000e-01
3.510000000000000000e+02 6.359160900115966797e+00 3.101734352111816406e+01 2.599207125604152679e-02 -1.598520278930664062e-01 -4.015798494219779968e-02 1.551913376897573471e-02
3.520000000000000000e+02 3.386101424694061279e-01 3.152799606323242188e+01 -1.464774366468191147e-03 -6.087788939476013184e-01 -1.830730885267257690e-01 3.230206295847892761e-02
3.530000000000000000e+02 3.161945044994354248e-01 2.674419212341308594e+01 -4.149690270423889160e-03 -1.598621606826782227e-01 -4.920355603098869324e-02 1.756560616195201874e-02
3.540000000000000000e+02 5.865101814270019531e+00 2.715245246887207031e+01 -1.242342963814735413e-01 -9.034043550491333008e-01 -3.082915842533111572e-01 2.022787630558013916e-01
3.550000000000000000e+02 4.884816169738769531e+00 2.669038772583007812e+01 -1.777026802301406860e-01 -5.453115701675415039e-01 -2.169042825698852539e-01 1.511605232954025269e-01
3.560000000000000000e+02 3.656703233718872070e-01 2.034667968750000000e+01 1.598374103195965290e-03 -2.278372645378112793e-01 -6.787166744470596313e-02 -1.117600221186876297e-02
3.570000000000000000e+02 1.029677987098693848e+00 1.539279747009277344e+01 6.574753206223249435e-03 -2.191612869501113892e-01 -6.377595663070678711e-02 2.988645620644092560e-02
3.580000000000000000e+02 1.148785591125488281e+00 8.150952339172363281e+00 -7.812853902578353882e-03 2.234132960438728333e-02 4.358543083071708679e-03 2.130421064794063568e-02
3.590000000000000000e+02 1.159982323646545410e+00 5.700517654418945312e+00 -5.800815299153327942e-03 4.142872989177703857e-02 1.068837381899356842e-02 -4.286915995180606842e-03
3.600000000000000000e+02 1.080288600921630859e+01 2.045593976974487305e+00 1.514661032706499100e-02 -2.617242746055126190e-02 -3.307745093479752541e-03 2.864727750420570374e-02
3.610000000000000000e+02 1.276689624786376953e+01 3.090438604354858398e+00 -1.135599017143249512e-01 -4.380115866661071777e-02 -4.720831662416458130e-02 1.216258555650711060e-01
3.620000000000000000e+02 1.133341026306152344e+01 2.854928970336914062e+00 -5.446671694517135620e-02 -4.361864924430847168e-02 -2.942560985684394836e-02 5.856204405426979065e-02
3.630000000000000000e+02 1.219713878631591797e+01 2.334323406219482422e+00 -4.074327275156974792e-02 -1.928270049393177032e-02 -1.800779066979885101e-02 7.095361500978469849e-02
3.640000000000000000e+02 1.366742420196533203e+01 2.641961574554443359e+00 -1.342733055353164673e-01 -1.069297268986701965e-02 -4.348988085985183716e-02 1.405723690986633301e-01
3.650000000000000000e+02 1.442319774627685547e+01 2.830088138580322266e+00 -1.955564171075820923e-01 8.684635162353515625e-03 -5.606153234839439392e-02 1.743068397045135498e-01
3.660000000000000000e+02 1.683760643005371094e+01 3.208560228347778320e+00 -3.861469328403472900e-01 1.789551414549350739e-02 -1.104754209518432617e-01 2.090672403573989868e-01
3.670000000000000000e+02 1.848676300048828125e+01 6.364224910736083984e+00 2.679113112390041351e-02 6.947664171457290649e-02 2.888033166527748108e-02 1.338121294975280762e-01
3.680000000000000000e+02 3.347656631469726562e+01 1.942614912986755371e+00 -1.714143514633178711e+00 -3.616242706775665283e-01 -6.227303147315979004e-01 7.393251061439514160e-01
3.690000000000000000e+02 2.926548576354980469e+01 6.642118930816650391e+00 6.526587903499603271e-02 1.040728569030761719e+00 3.317983150482177734e-01 -4.180230572819709778e-02
3.700000000000000000e+02 2.934691238403320312e+01 8.539923667907714844e+00 1.828635632991790771e-01 1.071435570716857910e+00 3.762897551059722900e-01 2.927063703536987305e-01
3.710000000000000000e+02 3.047559738159179688e+01 1.059356594085693359e+01 3.370729982852935791e-01 8.827975392341613770e-01 3.659611642360687256e-01 5.418102145195007324e-01
3.720000000000000000e+02 3.143269348144531250e+01 1.181534671783447266e+01 -5.150398239493370056e-03 4.490223824977874756e-01 1.331615895032882690e-01 3.325857520103454590e-01
3.730000000000000000e+02 2.967062759399414062e+01 1.562368774414062500e+01 3.105576634407043457e-01 2.216519415378570557e-01 1.596628725528717041e-01 3.305084407329559326e-01
3.740000000000000000e+02 2.955729675292968750e+01 1.337736797332763672e+01 -2.158650010824203491e-01 5.340906381607055664e-01 9.546769410371780396e-02 4.075193703174591064e-01
3.750000000000000000e+02 3.105226325988769531e+01 1.596240043640136719e+01 5.026701688766479492e-01 8.571132421493530273e-01 4.079350233078002930e-01 5.540151000022888184e-01
3.760000000000000000e+02 2.928860855102539062e+01 1.119956302642822266e+01 1.064869686961174011e-01 5.883724689483642578e-01 2.084578275680541992e-01 2.497233450412750244e-01
3.770000000000000000e+02 2.812837409973144531e+01 1.537449932098388672e+01 -5.026761889457702637e-01 -2.162104099988937378e-02 -1.572891771793365479e-01 7.922367751598358154e-02
3.780000000000000000e+02 2.732761192321777344e+01 1.538984680175781250e+01 -6.738535761833190918e-01 -1.346734538674354553e-02 -2.061962783336639404e-01 1.123472899198532104e-01
3.790000000000000000e+02 2.649686622619628906e+01 1.547406864166259766e+01 -7.443065047264099121e-01 -1.474042087793350220e-01 -2.675132155418395996e-01 2.115783244371414185e-01
3.800000000000000000e+02 2.022061347961425781e+01 1.259472274780273438e+01 -2.081593265756964684e-04 -1.900945603847503662e-01 -5.709081515669822693e-02 -1.503354404121637344e-03
3.810000000000000000e+02 2.398693275451660156e+01 1.748672676086425781e+01 -2.943436205387115479e-01 -2.869356870651245117e-01 -1.743837893009185791e-01 2.892564237117767334e-01
3.820000000000000000e+02 2.339305877685546875e+01 1.806580543518066406e+01 -2.687209248542785645e-01 -3.783555626869201660e-01 -1.941229403018951416e-01 2.800762057304382324e-01
3.830000000000000000e+02 2.245029830932617188e+01 2.037951850891113281e+01 -3.562482446432113647e-02 -5.627915263175964355e-01 -1.795249134302139282e-01 4.948542639613151550e-02
3.840000000000000000e+02 1.957700729370117188e+01 2.728224372863769531e+01 3.276056796312332153e-02 -4.620317816734313965e-01 -1.287813633680343628e-01 8.957300335168838501e-02
3.850000000000000000e+02 2.280315017700195312e+01 2.606072807312011719e+01 3.127137720584869385e-01 1.451992541551589966e-01 1.373739093542098999e-01 3.772858083248138428e-01
3.860000000000000000e+02 2.491224098205566406e+01 2.983856964111328125e+01 -3.510021045804023743e-02 3.487788140773773193e-01 9.410358220338821411e-02 3.129573166370391846e-01
3.870000000000000000e+02 1.945927047729492188e+01 3.051310157775878906e+01 -2.283049672842025757e-01 -9.267033338546752930e-01 -3.465024828910827637e-01 2.975578308105468750e-01
3.880000000000000000e+02 3.259460067749023438e+01 1.223523521423339844e+01 -5.595352649688720703e-01 6.982228159904479980e-02 -1.469139009714126587e-01 1.583231240510940552e-01
3.890000000000000000e+02 3.482278823852539062e+01 1.223625469207763672e+01 -1.543005347251892090e+00 -2.457112818956375122e-01 -5.366150140762329102e-01 3.576176762580871582e-01
3.900000000000000000e+02 3.602731704711914062e+01 1.193084144592285156e+01 -1.786121249198913574e+00 -6.884790062904357910e-01 -7.423800826072692871e-01 9.003671407699584961e-01
3.910000000000000000e+02 3.777325439453125000e+01 1.035422897338867188e+01 -1.196494340896606445e+00 -1.414597988128662109e+00 -7.833276987075805664e-01 1.244822263717651367e+00
3.920000000000000000e+02 4.481450271606445312e+01 1.252706146240234375e+01 -2.022020751610398293e-03 4.675213992595672607e-01 1.396498084068298340e-01 9.099852293729782104e-02
3.930000000000000000e+02 3.938560867309570312e+01 7.515512943267822266e+00 -1.600515544414520264e-01 -6.806527972221374512e-01 -2.522113025188446045e-01 3.900379538536071777e-01
3.940000000000000000e+02 3.930872344970703125e+01 5.091325283050537109e+00 5.134288221597671509e-02 3.662931919097900391e-01 1.252908259630203247e-01 1.452348381280899048e-01
3.950000000000000000e+02 4.260240173339843750e+01 1.963822364807128906e+00 -9.209310412406921387e-01 1.502087805420160294e-02 -2.717730700969696045e-01 -1.734197954647243023e-03
3.960000000000000000e+02 4.610392379760742188e+01 9.659880399703979492e-01 -6.955463290214538574e-01 -5.187567323446273804e-03 -2.102201730012893677e-01 1.336621940135955811e-01
3.970000000000000000e+02 4.945608901977539062e+01 1.285846352577209473e+00 -1.283315539360046387e+00 1.646488904953002930e-02 -3.800551891326904297e-01 3.944639563560485840e-01
3.980000000000000000e+02 5.036286926269531250e+01 5.778628826141357422e+00 -1.643734097480773926e+00 -1.571437418460845947e-01 -5.402633547782897949e-01 4.928499758243560791e-01
3.990000000000000000e+02 5.090772628784179688e+01 2.312281608581542969e+00 -1.585423588752746582e+00 8.721633814275264740e-03 -4.730105996131896973e-01 7.972039580345153809e-01
4.000000000000000000e+02 4.636968994140625000e+01 2.291269540786743164e+00 -8.952832221984863281e-01 -9.603119641542434692e-02 -2.973943054676055908e-01 2.304680794477462769e-01
4.010000000000000000e+02 4.737612152099609375e+01 3.165367841720581055e+00 -1.021059870719909668e+00 -2.361394613981246948e-01 -3.771598041057586670e-01 3.909008800983428955e-01
4.020000000000000000e+02 4.806119918823242188e+01 7.048492908477783203e+00 -1.078652381896972656e+00 -9.587072730064392090e-01 -6.112079024314880371e-01 1.029325962066650391e+00
4.030000000000000000e+02 4.593766403198242188e+01 8.311287879943847656e+00 -8.197885751724243164e-01 -6.628658175468444824e-01 -4.447963237762451172e-01 6.983846426010131836e-01
4.040000000000000000e+02 4.151135253906250000e+01 6.949805736541748047e+00 -4.915871620178222656e-01 -3.337358236312866211e-01 -2.475969046354293823e-01 5.680480003356933594e-01
4.050000000000000000e+02 4.546846008300781250e+01 9.893916130065917969e+00 -4.954603016376495361e-01 -6.927340626716613770e-01 -3.564583063125610352e-01 5.660377144813537598e-01
4.060000000000000000e+02 4.399298095703125000e+01 1.052534580230712891e+01 -5.152489542961120605e-01 -1.036350056529045105e-01 -1.856651902198791504e-01 5.593767166137695312e-01
4.070000000000000000e+02 3.873780441284179688e+01 9.049329757690429688e+00 -6.828905344009399414e-01 -1.536517739295959473e+00 -6.658224463462829590e-01 9.409262537956237793e-01
4.080000000000000000e+02 3.959757232666015625e+01 3.295443296432495117e+00 -3.351991996169090271e-02 -3.946622014045715332e-01 -1.284546405076980591e-01 -2.820856869220733643e-01
4.090000000000000000e+02 3.923224258422851562e+01 3.662440061569213867e+00 1.478942930698394775e-01 -5.199329182505607605e-02 2.877029776573181152e-02 4.434244707226753235e-03
4.100000000000000000e+02 3.846697998046875000e+01 3.506107330322265625e+00 6.091762781143188477e-01 8.421825766563415527e-01 4.354076683521270752e-01 9.300116300582885742e-01
4.110000000000000000e+02 6.108600616455078125e+01 1.151751327514648438e+01 3.599584698677062988e-01 3.295703411102294922e+00 1.096698522567749023e+00 -7.637823224067687988e-01
4.120000000000000000e+02 5.455025482177734375e+01 1.189709663391113281e+01 -2.355018397793173790e-03 -3.601945936679840088e-01 -1.087648794054985046e-01 4.222804680466651917e-02
4.130000000000000000e+02 6.075665283203125000e+01 1.349222183227539062e+01 1.276543140411376953e-01 2.870850563049316406e+00 8.995514512062072754e-01 -1.290260255336761475e-01
4.140000000000000000e+02 6.111043930053710938e+01 1.575811862945556641e+01 1.769309341907501221e-01 2.537256240844726562e+00 8.142561912536621094e-01 4.305832684040069580e-01
4.150000000000000000e+02 5.386569213867187500e+01 1.429227638244628906e+01 1.122564077377319336e-02 -1.287645548582077026e-01 -3.526167571544647217e-02 1.245009060949087143e-02
4.160000000000000000e+02 5.172179412841796875e+01 1.678405380249023438e+01 6.180856004357337952e-02 5.957619473338127136e-02 3.641542419791221619e-02 -5.897514149546623230e-02
4.170000000000000000e+02 5.285607147216796875e+01 1.561428356170654297e+01 5.265746265649795532e-02 2.700359188020229340e-02 2.389831654727458954e-02 -4.633276537060737610e-02
4.180000000000000000e+02 5.688480377197265625e+01 1.706739783287048340e+00 -2.614769220352172852e+00 -3.446269631385803223e-01 -8.878188133239746094e-01 5.124440193176269531e-01
4.190000000000000000e+02 5.860707092285156250e+01 1.455915451049804688e+00 -2.457185506820678711e+00 -4.903134703636169434e-01 -8.842496871948242188e-01 7.835525274276733398e-02
4.200000000000000000e+02 5.903239059448242188e+01 -7.506557703018188477e-01 -1.764647245407104492e+00 -1.073018431663513184e+00 -8.512997031211853027e-01 1.254301548004150391e+00
4.210000000000000000e+02 5.972480010986328125e+01 -1.619834303855895996e+00 -7.248429656028747559e-01 -5.845638513565063477e-01 -3.928220570087432861e-01 6.727254986763000488e-01
4.220000000000000000e+02 6.132386398315429688e+01 -1.560430288314819336e+00 -1.196173071861267090e+00 1.421492099761962891e-01 -3.162071406841278076e-01 4.695833623409271240e-01
4.230000000000000000e+02 7.965946960449218750e+01 -3.532769918441772461e+00 -4.631740599870681763e-02 7.488090515136718750e+00 2.232532024383544922e+00 5.341081023216247559e-01
4.240000000000000000e+02 7.964997100830078125e+01 -7.525125980377197266e+00 8.307431638240814209e-02 3.854592561721801758e+00 1.181300044059753418e+00 2.535418048501014709e-02
4.250000000000000000e+02 4.586094665527343750e+01 -2.836551666259765625e+01 5.479972958564758301e-01 1.790216863155364990e-01 2.181056886911392212e-01 -2.791681587696075439e-01
4.260000000000000000e+02 4.721100234985351562e+01 -2.922449874877929688e+01 5.268381237983703613e-01 3.470124602317810059e-01 2.621551752090454102e-01 -4.063321053981781006e-01
4.270000000000000000e+02 5.111425781250000000e+01 -2.510067176818847656e+01 3.899744749069213867e-01 1.015991419553756714e-01 1.474720835685729980e-01 -1.775527596473693848e-01
4.280000000000000000e+02 5.263735580444335938e+01 -2.490093994140625000e+01 -8.612019009888172150e-03 -1.038773357868194580e-02 -5.699925590306520462e-03 -4.604273289442062378e-02
4.290000000000000000e+02 4.780488204956054688e+01 -2.972153282165527344e+01 4.965890645980834961e-01 4.202460646629333496e-01 2.750505506992340088e-01 -4.309235811233520508e-01
4.300000000000000000e+02 4.836228179931640625e+01 -3.023776245117187500e+01 4.559527039527893066e-01 4.880046248435974121e-01 2.831872105598449707e-01 -4.510999023914337158e-01
4.310000000000000000e+02 4.993451309204101562e+01 -2.474527359008789062e+01 5.812301039695739746e-01 2.657279670238494873e-01 2.540874183177947998e-01 -3.609971106052398682e-01
4.320000000000000000e+02 4.818143081665039062e+01 -2.321654701232910156e+01 5.097265243530273438e-01 5.707910060882568359e-01 3.241552412509918213e-01 -5.266563296318054199e-01
4.330000000000000000e+02 4.434027481079101562e+01 -2.781136512756347656e+01 4.920569658279418945e-01 7.508787512779235840e-02 1.701434552669525146e-01 -1.724651306867599487e-01
4.340000000000000000e+02 4.644432830810546875e+01 -2.151877403259277344e+01 2.896704971790313721e-01 3.973220884799957275e-01 2.060977816581726074e-01 -4.146872758865356445e-01
4.350000000000000000e+02 4.677711486816406250e+01 -2.082934188842773438e+01 9.228557348251342773e-02 3.381568491458892822e-01 1.291327327489852905e-01 -2.507805824279785156e-01
4.360000000000000000e+02 4.689796447753906250e+01 -2.008421707153320312e+01 -2.691268362104892731e-02 -8.060915768146514893e-02 -3.225655481219291687e-02 -1.331100910902023315e-01
4.370000000000000000e+02 4.763190841674804688e+01 -1.775367546081542969e+01 -7.169109582901000977e-01 -7.573525905609130859e-01 -4.422790706157684326e-01 -5.984259843826293945e-01
4.380000000000000000e+02 4.396543502807617188e+01 -1.401816749572753906e+01 -1.267973542213439941e+00 -1.852523833513259888e-01 -4.359677731990814209e-01 -1.337885260581970215e-01
4.390000000000000000e+02 4.726894760131835938e+01 -1.853142929077148438e+01 -2.336888313293457031e-01 -6.580346822738647461e-01 -2.675170600414276123e-01 -3.467536568641662598e-01
4.400000000000000000e+02 4.976901245117187500e+01 -1.674434471130371094e+01 -8.422207236289978027e-01 3.754811361432075500e-02 -2.414017766714096069e-01 -2.955223321914672852e-01
4.410000000000000000e+02 5.043553161621093750e+01 -1.644160842895507812e+01 -9.055609107017517090e-01 -1.647997349500656128e-01 -3.211081922054290771e-01 -3.985526859760284424e-01
4.420000000000000000e+02 4.888558959960937500e+01 -3.076053810119628906e+01 3.767511546611785889e-01 5.851501226425170898e-01 2.885703742504119873e-01 -4.106251299381256104e-01
4.430000000000000000e+02 4.961515426635742188e+01 -3.114010620117187500e+01 3.381755650043487549e-01 4.974961876869201660e-01 2.507015168666839600e-01 -3.254711031913757324e-01
4.440000000000000000e+02 4.929751968383789062e+01 -3.332365036010742188e+01 2.791159786283969879e-02 6.400511413812637329e-02 2.757501229643821716e-02 -3.935022652149200439e-02
4.450000000000000000e+02 4.894326782226562500e+01 -3.516434860229492188e+01 5.013228952884674072e-02 -1.351454854011535645e-02 1.098532229661941528e-02 1.112057827413082123e-02
4.460000000000000000e+02 4.840107345581054688e+01 -3.568196105957031250e+01 9.851422905921936035e-02 2.366473199799656868e-03 3.026421181857585907e-02 3.750337287783622742e-02
4.470000000000000000e+02 4.781326675415039062e+01 -3.617563247680664062e+01 1.996683478355407715e-01 2.719369903206825256e-02 6.805861741304397583e-02 7.267073541879653931e-02
4.480000000000000000e+02 3.876015090942382812e+01 -3.651319885253906250e+01 4.719493389129638672e-01 -7.986670732498168945e-02 1.176247894763946533e-01 -2.318008989095687866e-01
4.490000000000000000e+02 2.801224327087402344e+01 -3.660338211059570312e+01 7.424321770668029785e-02 -2.241158038377761841e-01 -4.496177658438682556e-02 -3.145731613039970398e-02
4.500000000000000000e+02 4.067112731933593750e+01 -3.585233688354492188e+01 3.730650842189788818e-01 2.473865747451782227e-01 1.861355006694793701e-01 -3.126322627067565918e-01
4.510000000000000000e+02 3.957448959350585938e+01 -3.482156372070312500e+01 2.370154261589050293e-01 4.678387567400932312e-02 8.513978868722915649e-02 -1.732043474912643433e-01
4.520000000000000000e+02 3.936537170410156250e+01 -3.208351898193359375e+01 -7.629241794347763062e-02 -7.719689011573791504e-01 -2.544783949851989746e-01 -2.108537256717681885e-01
4.530000000000000000e+02 3.917618560791015625e+01 -3.279877471923828125e+01 -3.758784756064414978e-02 -6.115058660507202148e-01 -1.947281062602996826e-01 -1.707572191953659058e-01
4.540000000000000000e+02 3.992056655883789062e+01 -3.063507652282714844e+01 -1.468886137008666992e-01 -7.201414108276367188e-01 -2.601090073585510254e-01 -2.863907217979431152e-01
4.550000000000000000e+02 3.669083023071289062e+01 -2.780975914001464844e+01 -2.318370193243026733e-01 -1.881274729967117310e-01 -1.259893476963043213e-01 -2.057345360517501831e-01
4.560000000000000000e+02 3.825639343261718750e+01 -3.064020156860351562e+01 -4.891230165958404541e-02 -4.757809340953826904e-01 -1.574079692363739014e-01 -2.014071792364120483e-01
4.570000000000000000e+02 3.509220123291015625e+01 -2.983154487609863281e+01 3.613411262631416321e-02 7.324823178350925446e-03 1.303768064826726913e-02 -2.966334819793701172e-01
4.580000000000000000e+02 3.388506698608398438e+01 -2.836515617370605469e+01 4.599421620368957520e-01 1.474150568246841431e-01 1.822071671485900879e-01 -2.234611064195632935e-01
4.590000000000000000e+02 3.322853851318359375e+01 -2.795189285278320312e+01 5.368708968162536621e-01 2.533250451087951660e-01 2.370587885379791260e-01 -3.166416883468627930e-01
4.600000000000000000e+02 3.738885116577148438e+01 -2.740420532226562500e+01 -3.655770421028137207e-01 -3.575900495052337646e-01 -2.169501334428787231e-01 -3.468539118766784668e-01
4.610000000000000000e+02 4.031673812866210938e+01 -2.995159721374511719e+01 -1.025040075182914734e-01 -5.280754566192626953e-01 -1.891738325357437134e-01 -2.457526773214340210e-01
4.620000000000000000e+02 4.198078155517578125e+01 -2.816401672363281250e+01 1.554527282714843750e-01 -2.847417071461677551e-02 3.809357061982154846e-02 5.720732733607292175e-02
4.630000000000000000e+02 4.182637023925781250e+01 -2.402154159545898438e+01 -6.189044564962387085e-02 -1.801654100418090820e-01 -7.261675596237182617e-02 -5.205735564231872559e-01
4.640000000000000000e+02 3.962575149536132812e+01 -2.384772872924804688e+01 -3.109475038945674896e-02 -1.021476030349731445e+00 -3.157712519168853760e-01 -1.980736851692199707e-01
4.650000000000000000e+02 3.974379730224609375e+01 -1.967826461791992188e+01 3.027296662330627441e-01 4.450459480285644531e-01 2.243326902389526367e-01 -4.618379473686218262e-01
4.660000000000000000e+02 4.369823837280273438e+01 -1.336338996887207031e+01 -1.654239416122436523e+00 -1.644656807184219360e-01 -5.456115007400512695e-01 -3.036550879478454590e-01
4.670000000000000000e+02 4.095066833496093750e+01 -1.508971405029296875e+01 -7.200922369956970215e-01 2.433955110609531403e-02 -2.087257951498031616e-01 -1.839317828416824341e-01
4.680000000000000000e+02 3.946154785156250000e+01 -1.883860588073730469e+01 2.943339645862579346e-01 5.749396681785583496e-01 2.607820928096771240e-01 -4.753346145153045654e-01
4.690000000000000000e+02 4.060519027709960938e+01 -1.432952976226806641e+01 -8.239778876304626465e-01 1.326428353786468506e-01 -2.074005156755447388e-01 -1.325002312660217285e-01
4.700000000000000000e+02 3.715481185913085938e+01 -1.055569458007812500e+01 1.499856729060411453e-02 6.889722347259521484e-01 2.111912369728088379e-01 -1.272130906581878662e-01
4.710000000000000000e+02 3.698566436767578125e+01 -9.400663375854492188e+00 2.422515153884887695e-01 9.438959360122680664e-01 3.558442294597625732e-01 -2.683545053005218506e-01
4.720000000000000000e+02 3.770843887329101562e+01 -6.217084884643554688e+00 -1.369256805628538132e-02 3.637968897819519043e-01 1.050312966108322144e-01 2.936291694641113281e-02
4.730000000000000000e+02 3.522955703735351562e+01 -2.499868631362915039e+00 -2.564199566841125488e-01 9.814742207527160645e-02 -4.748175665736198425e-02 -8.790463209152221680e-02
4.740000000000000000e+02 5.413750076293945312e+01 3.190876388549804688e+01 3.251021206378936768e-01 1.704223275184631348e+00 6.087976098060607910e-01 5.345529317855834961e-01
4.750000000000000000e+02 5.445943450927734375e+01 3.267399597167968750e+01 4.373767673969268799e-01 1.390966415405273438e+00 5.485029220581054688e-01 6.394345760345458984e-01
4.760000000000000000e+02 4.518966293334960938e+01 2.408246803283691406e+01 4.321296811103820801e-01 6.549700498580932617e-01 3.261299133300781250e-01 4.720920324325561523e-01
4.770000000000000000e+02 4.462920761108398438e+01 2.356751060485839844e+01 5.561512112617492676e-01 5.799525380134582520e-01 3.408311307430267334e-01 5.263681411743164062e-01
4.780000000000000000e+02 4.263617324829101562e+01 2.222927665710449219e+01 9.617469310760498047e-01 2.215619683265686035e-01 3.549926877021789551e-01 3.783121705055236816e-01
4.790000000000000000e+02 4.202563858032226562e+01 2.134331893920898438e+01 6.695654392242431641e-01 1.975528299808502197e-01 2.601354718208312988e-01 2.377376854419708252e-01
4.800000000000000000e+02 4.099796295166015625e+01 2.186187362670898438e+01 7.646137475967407227e-01 3.258445486426353455e-02 2.391594499349594116e-01 1.236420273780822754e-01
4.810000000000000000e+02 3.848675918579101562e+01 2.263900947570800781e+01 -2.793810963630676270e-01 -3.556257486343383789e-01 -1.905020475387573242e-01 3.387857079505920410e-01
4.820000000000000000e+02 3.815102386474609375e+01 2.023588752746582031e+01 3.150328993797302246e-01 -5.365570783615112305e-01 -6.645724922418594360e-02 4.561723172664642334e-01
4.830000000000000000e+02 3.795471191406250000e+01 2.212901496887207031e+01 -1.759553328156471252e-02 -4.930830895900726318e-01 -1.532035917043685913e-01 3.394335210323333740e-01
4.840000000000000000e+02 4.484386062622070312e+01 1.333471107482910156e+01 3.374733030796051025e-02 7.115144133567810059e-01 2.235785275697708130e-01 1.223978921771049500e-01
4.850000000000000000e+02 4.516718673706054688e+01 1.493106174468994141e+01 8.863294124603271484e-02 8.088802099227905273e-01 2.692539393901824951e-01 2.459762841463088989e-01
4.860000000000000000e+02 3.282278060913085938e+01 1.900057411193847656e+01 1.552028357982635498e-01 -1.471524685621261597e-01 2.415108028799295425e-03 4.432422220706939697e-01
4.870000000000000000e+02 3.673175811767578125e+01 2.437311744689941406e+01 -4.844814836978912354e-01 -6.005165576934814453e-01 -3.254994153976440430e-01 5.282454490661621094e-01
4.880000000000000000e+02 3.545978546142578125e+01 2.647972106933593750e+01 -1.513730585575103760e-01 -7.603025436401367188e-01 -2.735026776790618896e-01 2.636148035526275635e-01
4.890000000000000000e+02 3.162204742431640625e+01 2.230190658569335938e+01 -2.259997650980949402e-02 -7.270861864089965820e-01 -2.249058634042739868e-01 1.016003489494323730e-01
4.900000000000000000e+02 3.035896873474121094e+01 1.587742424011230469e+01 6.476467251777648926e-01 6.862931847572326660e-01 4.001819789409637451e-01 6.195093393325805664e-01
4.910000000000000000e+02 6.577577209472656250e+01 2.106700706481933594e+01 -7.684800028800964355e-02 2.759834229946136475e-01 5.974062904715538025e-02 -1.881906837224960327e-01
4.920000000000000000e+02 6.436170196533203125e+01 2.049751281738281250e+01 -5.529229044914245605e-01 2.544544041156768799e-01 -8.954055607318878174e-02 2.378036826848983765e-01
4.930000000000000000e+02 6.191952896118164062e+01 1.897425460815429688e+01 7.005779445171356201e-02 1.151045680046081543e+00 3.663310408592224121e-01 3.814216852188110352e-01
4.940000000000000000e+02 6.198313140869140625e+01 1.795796203613281250e+01 3.661166429519653320e-01 1.445604085922241211e+00 5.435162186622619629e-01 6.899459958076477051e-01
4.950000000000000000e+02 5.373042297363281250e+01 1.666447067260742188e+01 1.795947849750518799e-01 1.577258557081222534e-01 1.011961922049522400e-01 -1.918195486068725586e-01
4.960000000000000000e+02 6.170945358276367188e+01 6.928132534027099609e+00 2.263167351484298706e-01 1.017937302589416504e+00 3.732762038707733154e-01 -4.993230402469635010e-01
4.970000000000000000e+02 6.405009460449218750e+01 7.836547374725341797e+00 1.310724020004272461e+00 1.168872833251953125e+00 7.438790798187255859e-01 -1.170629501342773438e+00
4.980000000000000000e+02 6.175833129882812500e+01 1.008745670318603516e+01 1.268329024314880371e+00 2.405224323272705078e+00 1.102066040039062500e+00 -1.529830932617187500e+00
4.990000000000000000e+02 1.550158596038818359e+01 2.352968025207519531e+01 8.392637968063354492e-01 1.484960764646530151e-01 2.963279783725738525e-01 3.322424590587615967e-01
5.000000000000000000e+02 1.238392925262451172e+01 2.278200340270996094e+01 5.368402600288391113e-02 1.909779757261276245e-02 2.183454670011997223e-02 1.113255694508552551e-01
5.010000000000000000e+02 9.933533668518066406e+00 2.306758689880371094e+01 -4.317560791969299316e-01 -6.719455868005752563e-02 -1.496851891279220581e-01 1.428783237934112549e-01
5.020000000000000000e+02 9.179042816162109375e+00 2.334879493713378906e+01 -5.085331797599792480e-01 -1.817583143711090088e-01 -2.070874422788619995e-01 2.516339123249053955e-01
5.030000000000000000e+02 7.337192535400390625e+00 2.481267738342285156e+01 -3.184087276458740234e-01 -3.880829215049743652e-01 -2.119475007057189941e-01 3.339457213878631592e-01
5.040000000000000000e+02 1.589150667190551758e+00 2.571883010864257812e+01 -3.388023003935813904e-02 -2.432113587856292725e-01 -8.312747627496719360e-02 3.723426908254623413e-02
5.050000000000000000e+02 1.459060573577880859e+01 -2.103564834594726562e+01 -4.349631667137145996e-01 -3.586125671863555908e-01 -2.380727231502532959e-01 -3.819372057914733887e-01
5.060000000000000000e+02 1.510327816009521484e+01 -2.047401046752929688e+01 -4.621985256671905518e-01 -5.729538798332214355e-01 -3.105457127094268799e-01 -4.339510798454284668e-01
5.070000000000000000e+02 1.490321636199951172e+01 -2.196695518493652344e+01 -1.946900784969329834e-01 -3.455552756786346436e-01 -1.620736122131347656e-01 -2.624109089374542236e-01
5.080000000000000000e+02 1.373232841491699219e+01 -2.228802108764648438e+01 -2.333801686763763428e-01 -2.591830492019653320e-01 -1.477689743041992188e-01 -2.454364597797393799e-01
5.090000000000000000e+02 1.544589328765869141e+01 -2.641318511962890625e+01 3.496928513050079346e-02 -3.096919655799865723e-01 -8.241680264472961426e-02 -1.876287758350372314e-01
5.100000000000000000e+02 1.356113719940185547e+01 -3.118127059936523438e+01 -1.260634064674377441e-01 -5.344355106353759766e-01 -1.981496661901473999e-01 -2.294505536556243896e-01
5.110000000000000000e+02 1.594656467437744141e+01 -2.787112426757812500e+01 -1.767302751541137695e-01 -2.567153871059417725e-01 -1.300337016582489014e-01 -2.140633016824722290e-01
5.120000000000000000e+02 1.963632583618164062e+01 -2.645352745056152344e+01 6.266853809356689453e-01 1.438355594873428345e-01 2.311562895774841309e-01 -1.501744985580444336e-01
5.130000000000000000e+02 2.050764465332031250e+01 -2.622738456726074219e+01 4.815300405025482178e-01 1.798309236764907837e-01 1.984082907438278198e-01 -1.756611615419387817e-01
5.140000000000000000e+02 1.312299823760986328e+01 -3.279763412475585938e+01 -4.270178452134132385e-02 -4.925358295440673828e-01 -1.605712771415710449e-01 -1.079761758446693420e-01
5.150000000000000000e+02 1.172981071472167969e+01 -3.255518341064453125e+01 -1.003761216998100281e-01 -2.966830134391784668e-01 -1.191177442669868469e-01 -1.493982523679733276e-01
5.160000000000000000e+02 9.979119300842285156e+00 -2.279494476318359375e+01 1.146960929036140442e-01 -4.264907911419868469e-03 3.312935680150985718e-02 -1.365943253040313721e-02
5.170000000000000000e+02 1.074233150482177734e+01 -2.267709350585937500e+01 3.244466334581375122e-02 -1.318432949483394623e-02 5.778099875897169113e-03 -2.665060013532638550e-02
5.180000000000000000e+02 1.149406528472900391e+01 -2.252835273742675781e+01 -6.061392277479171753e-02 -3.537197783589363098e-02 -2.879577130079269409e-02 -5.934298783540725708e-02
5.190000000000000000e+02 2.803118896484375000e+01 -1.123024845123291016e+01 -4.110234081745147705e-01 -3.963426649570465088e-01 -2.422098219394683838e-01 -3.673633933067321777e-01
5.200000000000000000e+02 3.100312805175781250e+01 -1.685187530517578125e+01 -3.837136030197143555e-01 -3.811524212360382080e-01 -2.294598072767257690e-01 -3.443834781646728516e-01
5.210000000000000000e+02 3.049095916748046875e+01 -1.748482704162597656e+01 -2.427951544523239136e-01 -4.010312557220458984e-01 -1.931479275226593018e-01 -2.869419157505035400e-01
5.220000000000000000e+02 3.384908294677734375e+01 -1.511801338195800781e+01 -1.292124509811401367e+00 -1.268877685070037842e-01 -4.257037043571472168e-01 -1.242117583751678467e-01
5.230000000000000000e+02 3.466511917114257812e+01 -1.512729740142822266e+01 -1.087090015411376953e+00 -6.817826628684997559e-02 -3.465805053710937500e-01 7.557356357574462891e-02
5.240000000000000000e+02 3.542134094238281250e+01 -1.526339244842529297e+01 -6.306294798851013184e-01 1.120685711503028870e-01 -1.555682718753814697e-01 1.067803241312503815e-02
5.250000000000000000e+02 3.864227676391601562e+01 -1.095947551727294922e+01 2.064219713211059570e-01 5.066921114921569824e-01 2.139342129230499268e-01 -3.243222236633300781e-01
5.260000000000000000e+02 3.625483322143554688e+01 -1.515724372863769531e+01 -4.896821677684783936e-01 3.751121163368225098e-01 -3.437101468443870544e-02 -1.487077027559280396e-01
5.270000000000000000e+02 3.799180603027343750e+01 -1.774202346801757812e+01 4.426344335079193115e-01 1.101177453994750977e+00 4.631435573101043701e-01 -6.603400111198425293e-01
5.280000000000000000e+02 4.704393386840820312e+01 -1.931083488464355469e+01 -8.050675690174102783e-02 -3.842981159687042236e-01 -1.394414603710174561e-01 -1.973962485790252686e-01
5.290000000000000000e+02 3.841716003417968750e+01 -1.842442893981933594e+01 3.612962067127227783e-01 1.105667829513549805e+00 4.400892257690429688e-01 -6.125620007514953613e-01
5.300000000000000000e+02 3.951991653442382812e+01 -2.147234153747558594e+01 5.329468101263046265e-02 1.654974073171615601e-01 6.563762575387954712e-02 -2.132756859064102173e-01
5.310000000000000000e+02 4.366199874877929688e+01 -2.692909622192382812e+01 2.968971133232116699e-01 1.298412531614303589e-01 1.280215084552764893e-01 -1.124017387628555298e-01
5.320000000000000000e+02 4.270280075073242188e+01 -2.773734092712402344e+01 3.991313576698303223e-01 5.817077681422233582e-02 1.371906399726867676e-01 4.817636683583259583e-02
5.330000000000000000e+02 4.013847732543945312e+01 -2.604117774963378906e+01 -2.471243888139724731e-01 -6.864202022552490234e-01 -2.800633907318115234e-01 -2.845994532108306885e-01
5.340000000000000000e+02 3.910273361206054688e+01 -2.577151107788085938e+01 -4.535502493381500244e-01 -1.241540312767028809e+00 -5.085271596908569336e-01 -6.271681785583496094e-01
5.350000000000000000e+02 1.475556659698486328e+01 6.645642280578613281e+00 -3.040466904640197754e-01 -8.207946084439754486e-03 -9.367638826370239258e-02 1.029466539621353149e-01
5.360000000000000000e+02 1.174947834014892578e+01 8.164127349853515625e+00 -3.241962492465972900e-01 -2.997646033763885498e-01 -1.871882677078247070e-01 3.078516721725463867e-01
5.370000000000000000e+02 9.895739555358886719e+00 1.078937530517578125e+01 -9.804626554250717163e-02 -4.430831670761108398e-01 -1.623388230800628662e-01 1.724133193492889404e-01
5.380000000000000000e+02 9.731750488281250000e+00 1.160044384002685547e+01 -2.446037717163562775e-02 -2.751552164554595947e-01 -8.988467603921890259e-02 8.051077276468276978e-02
5.390000000000000000e+02 9.761571884155273438e+00 1.325190067291259766e+01 9.954095818102359772e-03 2.539546415209770203e-02 1.060486771166324615e-02 6.255649775266647339e-02
5.400000000000000000e+02 9.702231407165527344e+00 1.242757034301757812e+01 5.408828146755695343e-03 -1.067631244659423828e-01 -3.040628693997859955e-02 5.556418001651763916e-02
5.410000000000000000e+02 1.027689266204833984e+01 1.628167152404785156e+01 3.008302748203277588e-01 2.838335931301116943e-01 1.753991544246673584e-01 2.505846321582794189e-01
5.420000000000000000e+02 9.717675209045410156e+00 2.248447036743164062e+01 -2.577321529388427734e-01 -1.343591511249542236e-01 -1.176273897290229797e-01 1.707517057657241821e-01
5.430000000000000000e+02 1.276120567321777344e+01 1.787230873107910156e+01 2.979164421558380127e-01 2.441092878580093384e-01 1.626077145338058472e-01 2.863622903823852539e-01
5.440000000000000000e+02 4.670469665527343750e+01 1.783555603027343750e+01 4.119269251823425293e-01 4.979117214679718018e-01 2.729516029357910156e-01 4.080406129360198975e-01
5.450000000000000000e+02 4.798950195312500000e+01 1.880389213562011719e+01 5.036745667457580566e-01 1.711661070585250854e-01 2.024521976709365845e-01 2.275693863630294800e-01
5.460000000000000000e+02 5.028408813476562500e+01 1.893029022216796875e+01 2.431535869836807251e-01 8.208101242780685425e-02 9.757038205862045288e-02 -6.831905245780944824e-02
5.470000000000000000e+02 5.433698654174804688e+01 1.603439521789550781e+01 1.858454793691635132e-01 1.643138974905014038e-01 1.050478145480155945e-01 -2.118662893772125244e-01
5.480000000000000000e+02 5.422187805175781250e+01 1.352786350250244141e+01 -3.170617157593369484e-03 -2.516807317733764648e-01 -7.645539939403533936e-02 3.867105394601821899e-02
5.490000000000000000e+02 5.486457061767578125e+01 1.386206436157226562e+01 8.935339748859405518e-02 4.944421350955963135e-02 4.163928329944610596e-02 -1.327008605003356934e-01
5.500000000000000000e+02 5.460950851440429688e+01 9.497052192687988281e+00 4.856491088867187500e-02 2.571117281913757324e-01 9.170299768447875977e-02 1.839443743228912354e-01
5.510000000000000000e+02 5.404686355590820312e+01 7.578723430633544922e+00 7.701784968376159668e-01 1.070591926574707031e+00 5.522311329841613770e-01 8.218801617622375488e-01
5.520000000000000000e+02 5.547771835327148438e+01 3.286086559295654297e+00 -1.542226910591125488e+00 -5.955080687999725342e-02 -4.805333018302917480e-01 3.904559016227722168e-01
5.530000000000000000e+02 5.441687774658203125e+01 1.933732748031616211e+00 -2.402432203292846680e+00 -1.217481866478919983e-01 -7.572541236877441406e-01 4.040777087211608887e-01
5.540000000000000000e+02 5.524219512939453125e+01 1.862370014190673828e+00 -2.583916902542114258e+00 -6.609113514423370361e-02 -7.950024604797363281e-01 3.892877101898193359e-01
5.550000000000000000e+02 5.061161422729492188e+01 3.880064010620117188e+00 -1.198697805404663086e+00 -1.400234848260879517e-01 -4.016163945198059082e-01 1.027254104614257812e+00
5.560000000000000000e+02 4.184120559692382812e+01 2.199072837829589844e+01 9.578444361686706543e-01 1.164337396621704102e-01 3.222834467887878418e-01 2.337921112775802612e-01
5.570000000000000000e+02 4.336497497558593750e+01 2.259284210205078125e+01 8.705480098724365234e-01 3.518023490905761719e-01 3.667051196098327637e-01 4.835003316402435303e-01
5.580000000000000000e+02 1.570759201049804688e+01 -1.736959266662597656e+01 8.950763382017612457e-03 1.396665573120117188e-01 4.458519443869590759e-02 -8.058209717273712158e-02
5.590000000000000000e+02 4.702980041503906250e+01 -1.234972000122070312e+01 -7.103157639503479004e-01 1.302517205476760864e-01 -1.740192174911499023e-01 -2.708908617496490479e-01
5.600000000000000000e+02 4.660583877563476562e+01 -1.178722381591796875e+01 -4.994637966156005859e-01 -1.658496558666229248e-01 -1.995940357446670532e-01 -2.785921692848205566e-01
5.610000000000000000e+02 7.046737670898437500e+01 -1.187370777130126953e+01 -2.335732698440551758e+00 1.652950607240200043e-02 -6.957609653472900391e-01 1.909439116716384888e-01
5.620000000000000000e+02 7.047010803222656250e+01 -1.601032829284667969e+01 -1.713889241218566895e+00 -1.244050860404968262e+00 -8.873820304870605469e-01 1.594238638877868652e+00
5.630000000000000000e+02 7.081691741943359375e+01 -1.664022445678710938e+01 -2.814100027084350586e+00 -1.402461409568786621e+00 -1.264968395233154297e+00 1.865300297737121582e+00
5.640000000000000000e+02 6.382432937622070312e+01 -2.167693328857421875e+01 5.654902458190917969e-01 2.273314237594604492e+00 8.516413569450378418e-01 -4.193163663148880005e-02
5.650000000000000000e+02 6.509515380859375000e+01 -2.204442596435546875e+01 3.609153330326080322e-01 3.654195308685302734e+00 1.204533219337463379e+00 -6.738973855972290039e-01
5.660000000000000000e+02 6.567852020263671875e+01 -1.503820610046386719e+01 -3.556254208087921143e-01 1.475596308708190918e+00 3.359912633895874023e-01 4.721870422363281250e-01
5.670000000000000000e+02 6.834335327148437500e+01 -1.575259113311767578e+01 2.350464612245559692e-01 1.252966523170471191e-01 1.081029325723648071e-01 1.073963761329650879e+00
5.680000000000000000e+02 6.819084930419921875e+01 -1.642074203491210938e+01 9.051385521888732910e-01 -8.005104213953018188e-02 2.475262582302093506e-01 4.053543508052825928e-01
5.690000000000000000e+02 7.127400970458984375e+01 -1.172732353210449219e+01 -1.177502512931823730e+00 -7.348541170358657837e-02 -3.752963840961456299e-01 7.308590412139892578e-02
5.700000000000000000e+02 5.477146911621093750e+01 -1.853066253662109375e+01 2.563725113868713379e-01 4.584299623966217041e-01 2.144407331943511963e-01 -3.669217228889465332e-01
5.710000000000000000e+02 5.518249511718750000e+01 -2.091158294677734375e+01 2.280983887612819672e-02 -2.967075705528259277e-01 -8.216932415962219238e-02 -1.439794991165399551e-02
5.720000000000000000e+02 5.898767852783203125e+01 -2.678741264343261719e+01 1.536158472299575806e-01 5.911667943000793457e-01 2.234347909688949585e-01 4.131236076354980469e-01
5.730000000000000000e+02 5.482720565795898438e+01 -2.412486267089843750e+01 1.062070392072200775e-02 -1.435605809092521667e-03 2.755529247224330902e-03 5.275327712297439575e-02
5.740000000000000000e+02 7.964733886718750000e+01 1.171494483947753906e+01 1.365047879517078400e-03 8.245100975036621094e+00 2.473939657211303711e+00 -1.888117343187332153e-01
5.750000000000000000e+02 3.656829071044921875e+01 -1.022504425048828125e+01 8.994114398956298828e-02 5.491759777069091797e-01 1.917351335287094116e-01 -1.373938322067260742e-01
5.760000000000000000e+02 3.809273147583007812e+01 -1.039011478424072266e+01 3.047994673252105713e-01 7.885127663612365723e-01 3.279936611652374268e-01 -4.803723990917205811e-01
5.770000000000000000e+02 4.807484817504882812e+01 -8.200709342956542969e+00 1.957890950143337250e-02 5.911333560943603516e-01 1.832136809825897217e-01 4.043848812580108643e-02
5.780000000000000000e+02 6.575460052490234375e+01 -3.242395401000976562e+01 3.179256990551948547e-02 2.342213630676269531e+00 7.122018933296203613e-01 -5.025344341993331909e-02
5.790000000000000000e+02 6.583840942382812500e+01 -3.166484069824218750e+01 2.656910419464111328e-01 2.632047653198242188e+00 8.693216443061828613e-01 -3.293664753437042236e-01
5.800000000000000000e+02 6.614233398437500000e+01 -3.645320129394531250e+01 4.590535461902618408e-01 2.265512704849243164e+00 8.173698186874389648e-01 3.442322015762329102e-01
5.810000000000000000e+02 6.983823394775390625e+01 -1.102427721023559570e+00 -3.096835851669311523e+00 1.434238813817501068e-02 -9.247480630874633789e-01 -2.905737161636352539e-01
5.820000000000000000e+02 6.793324279785156250e+01 7.235781669616699219e+00 -1.434499502182006836e+00 -2.651637196540832520e-01 -5.098989605903625488e-01 -6.043936610221862793e-01
5.830000000000000000e+02 6.896211242675781250e+01 6.643832206726074219e+00 -6.250029206275939941e-01 -3.350993096828460693e-01 -2.880306839942932129e-01 -5.497888922691345215e-01
5.840000000000000000e+02 4.989645004272460938e+01 1.837181663513183594e+01 9.786767512559890747e-02 3.191901743412017822e-02 3.893600776791572571e-02 -5.381340906023979187e-02
5.850000000000000000e+02 4.923363113403320312e+01 1.879273986816406250e+01 3.019765913486480713e-01 4.419976845383644104e-02 1.038529053330421448e-01 5.553869996219873428e-03
5.860000000000000000e+02 5.768789672851562500e+01 2.216378402709960938e+01 1.774559468030929565e-01 3.010677695274353027e-01 1.435571163892745972e-01 -1.689858585596084595e-01
5.870000000000000000e+02 2.014954185485839844e+01 1.101017189025878906e+01 5.274357274174690247e-03 -1.766968816518783569e-01 -5.142675712704658508e-02 7.680285722017288208e-03
5.880000000000000000e+02 2.148085594177246094e+01 1.145540142059326172e+01 4.129323363304138184e-02 -1.671216785907745361e-01 -3.774853050708770752e-02 3.611003234982490540e-02
5.890000000000000000e+02 3.144529151916503906e+01 1.753529548645019531e+01 2.053557336330413818e-01 9.554166197776794434e-01 3.482317030429840088e-01 4.176307022571563721e-01
5.900000000000000000e+02 6.530081939697265625e+01 2.000042533874511719e+01 -1.210518956184387207e+00 1.964795775711536407e-02 -3.572613000869750977e-01 -1.542237997055053711e-01
5.910000000000000000e+02 7.162503814697265625e+01 1.640415382385253906e+01 1.296169996261596680e+00 7.065464496612548828e+00 2.508490324020385742e+00 -2.113509654998779297e+00
5.920000000000000000e+02 6.706620788574218750e+01 2.769100189208984375e+01 4.328454434871673584e-01 2.582092523574829102e+00 9.044814109802246094e-01 -4.313861429691314697e-01
5.930000000000000000e+02 6.737684631347656250e+01 3.277072143554687500e+01 4.372896254062652588e-01 2.884582042694091797e+00 9.965615272521972656e-01 -3.840413093566894531e-01
5.940000000000000000e+02 5.320772552490234375e+01 3.036339569091796875e+01 1.688504368066787720e-01 1.478470325469970703e+00 4.941962361335754395e-01 2.136023938655853271e-01
5.950000000000000000e+02 4.581006622314453125e+01 2.601380157470703125e+01 4.347417503595352173e-02 5.132908225059509277e-01 1.670295000076293945e-01 1.408619284629821777e-01
5.960000000000000000e+02 1.160971546173095703e+01 1.698123550415039062e+01 4.730508327484130859e-01 3.108115494251251221e-01 2.351587265729904175e-01 3.608801960945129395e-01
5.970000000000000000e+02 1.222692108154296875e+01 1.740013122558593750e+01 3.599333167076110840e-01 2.216427475214004517e-01 1.744728237390518188e-01 3.043112456798553467e-01
5.980000000000000000e+02 2.254558563232421875e+01 2.282794952392578125e+01 1.669940073043107986e-03 -4.653310775756835938e-01 -1.390983462333679199e-01 -3.259671479463577271e-02
5.990000000000000000e+02 1.052320599555969238e+00 1.618767166137695312e+01 7.824086584150791168e-03 -2.368268519639968872e-01 -6.870082765817642212e-02 2.059415355324745178e-02
6.000000000000000000e+02 1.012057590484619141e+01 1.481613159179687500e+01 9.711799025535583496e-02 2.910694181919097900e-01 1.164562255144119263e-01 1.686012744903564453e-01
6.010000000000000000e+02 1.840776824951171875e+01 1.706563758850097656e+01 -3.711422979831695557e-01 -1.857661008834838867e-01 -1.670725196599960327e-01 2.440033853054046631e-01
6.020000000000000000e+02 1.124729990959167480e+00 8.973574638366699219e+00 -7.242147345095872879e-03 6.234297994524240494e-03 -3.023547760676592588e-04 3.006890043616294861e-02
6.030000000000000000e+02 4.351465988159179688e+01 2.405383825302124023e+00 -8.698699474334716797e-01 -1.432085596024990082e-02 -2.652572393417358398e-01 3.631153702735900879e-02
6.040000000000000000e+02 2.884619712829589844e+01 1.061080932617187500e+01 2.150769680738449097e-01 5.638033747673034668e-01 2.336640954017639160e-01 2.404376119375228882e-01
6.050000000000000000e+02 4.451028823852539062e+01 -2.714933967590332031e+01 4.319664835929870605e-01 1.241500303149223328e-01 1.668349504470825195e-01 -1.475394666194915771e-01
6.060000000000000000e+02 4.511186599731445312e+01 -2.806257438659667969e+01 4.974018335342407227e-01 1.117566302418708801e-01 1.827475428581237793e-01 -2.095850706100463867e-01
6.070000000000000000e+02 4.935411071777343750e+01 -3.261130905151367188e+01 9.322266094386577606e-03 2.314086407423019409e-01 7.221926748752593994e-02 -8.484403043985366821e-02
6.080000000000000000e+02 5.355671691894531250e+01 -3.422261047363281250e+01 3.577232956886291504e-01 7.675498127937316895e-01 3.375819325447082520e-01 -1.440072953701019287e-01
6.090000000000000000e+02 2.457083511352539062e+01 -3.198043441772460938e+01 -1.561472751200199127e-02 -4.185974895954132080e-01 -1.302636563777923584e-01 1.327112503349781036e-02
6.100000000000000000e+02 3.200385665893554688e+01 -3.088042831420898438e+01 7.547340542078018188e-02 8.091753721237182617e-02 4.691728577017784119e-02 -2.016092091798782349e-01
6.110000000000000000e+02 5.228014755249023438e+01 6.147187232971191406e+00 5.750212073326110840e-01 4.486173391342163086e-01 3.070915639400482178e-01 6.315984129905700684e-01
6.120000000000000000e+02 6.566625976562500000e+01 -4.659367561340332031e+00 2.081330167129635811e-03 3.226661682128906250e-02 1.030438393354415894e-02 -6.200050469487905502e-03
6.130000000000000000e+02 6.479763031005859375e+01 -5.540186882019042969e+00 -3.188614733517169952e-03 1.407603546977043152e-02 3.266226267442107201e-03 -3.890084475278854370e-02
6.140000000000000000e+02 6.484842681884765625e+01 -7.188845157623291016e+00 -1.333137452602386475e-01 -4.413503035902976990e-02 -5.323463305830955505e-02 1.000548228621482849e-01
6.150000000000000000e+02 6.160929107666015625e+01 -5.949858188629150391e+00 -3.261572448536753654e-03 7.476673461496829987e-03 1.264530234038829803e-03 4.354245215654373169e-02
6.160000000000000000e+02 6.106261825561523438e+01 -6.878394126892089844e+00 -4.592284187674522400e-02 1.042184457182884216e-01 1.748868077993392944e-02 -3.474703803658485413e-02
6.170000000000000000e+02 6.142094421386718750e+01 -7.536496639251708984e+00 -2.788134515285491943e-01 1.897344551980495453e-02 -7.795200496912002563e-02 -1.560849994421005249e-01
6.180000000000000000e+02 5.644546127319335938e+01 -9.958706855773925781e+00 -3.945710420608520508e+00 -6.233312487602233887e-01 -1.370712518692016602e+00 8.210273385047912598e-01
6.190000000000000000e+02 5.295561599731445312e+01 -6.424340248107910156e+00 -3.091498315334320068e-01 -9.069626927375793457e-01 -3.648337423801422119e-01 4.344725310802459717e-01
6.200000000000000000e+02 4.758016204833984375e+01 -1.000085353851318359e+01 -1.630152016878128052e-02 8.304190039634704590e-01 2.442352324724197388e-01 -7.053013890981674194e-02
6.210000000000000000e+02 5.275837326049804688e+01 -5.636560440063476562e+00 -9.884488582611083984e-02 -6.850331425666809082e-01 -2.351634055376052856e-01 2.013766914606094360e-01
6.220000000000000000e+02 5.290961456298828125e+01 -3.228218078613281250e+00 -1.842786441557109356e-03 -6.496055424213409424e-02 -2.004100196063518524e-02 2.548396214842796326e-02
6.230000000000000000e+02 5.287201690673828125e+01 -1.752144098281860352e+00 -1.114668603986501694e-02 -7.005886174738407135e-03 -5.445771850645542145e-03 1.585977384820580482e-03
6.240000000000000000e+02 5.352847671508789062e+01 -1.736299157142639160e+00 -8.372407173737883568e-04 7.925457321107387543e-03 2.126464853063225746e-03 1.856340444646775723e-03
6.250000000000000000e+02 5.226464843750000000e+01 -1.802296638488769531e+00 -1.297816261649131775e-02 -2.589421905577182770e-02 -1.166171487420797348e-02 9.374315850436687469e-03
6.260000000000000000e+02 5.022509002685546875e+01 -2.270163297653198242e+00 -1.435882002115249634e-01 -4.567509051412343979e-03 -4.444671422243118286e-02 1.138471886515617371e-01
6.270000000000000000e+02 4.884235382080078125e+01 -3.326621532440185547e+00 -2.814655601978302002e-01 7.290767878293991089e-02 -6.256736069917678833e-02 1.749991476535797119e-01
6.280000000000000000e+02 4.613501358032226562e+01 -2.784556150436401367e+00 -3.902337849140167236e-01 6.724871695041656494e-02 -9.689552336931228638e-02 -2.212649956345558167e-02
6.290000000000000000e+02 5.181723022460937500e+01 -3.724246263504028320e+00 -4.517377167940139771e-02 -1.489032059907913208e-01 -5.822309106588363647e-02 1.455114036798477173e-01
6.300000000000000000e+02 4.433069610595703125e+01 -4.640234947204589844e+00 -5.447118878364562988e-01 -1.119613423943519592e-01 -1.970019638538360596e-01 2.419300973415374756e-01
6.310000000000000000e+02 4.359394073486328125e+01 -2.264714479446411133e+00 -4.473644793033599854e-01 1.615934818983078003e-02 -1.293615400791168213e-01 -5.960143730044364929e-02
6.320000000000000000e+02 4.284752655029296875e+01 -3.899852514266967773e+00 -9.285989403724670410e-01 -1.219967007637023926e-01 -3.151786923408508301e-01 3.579592108726501465e-01
6.330000000000000000e+02 4.057009124755859375e+01 -1.266419291496276855e+00 -1.967991143465042114e-01 -8.241483569145202637e-02 -8.376418799161911011e-02 1.200445964932441711e-01
6.340000000000000000e+02 3.891343307495117188e+01 -2.853135824203491211e+00 -5.407553315162658691e-01 7.390620559453964233e-02 -1.400547474622726440e-01 5.585181340575218201e-02
6.350000000000000000e+02 3.905941772460937500e+01 -4.993462562561035156e-01 -1.062301918864250183e-01 -2.041975408792495728e-02 -3.799498453736305237e-02 9.136327356100082397e-02
6.360000000000000000e+02 3.847060012817382812e+01 -5.190431475639343262e-01 -1.372767537832260132e-01 7.975929416716098785e-03 -3.879024833440780640e-02 7.613082975149154663e-02
6.370000000000000000e+02 3.350883865356445312e+01 -2.408268213272094727e+00 -1.739581674337387085e-01 -1.211221329867839813e-02 -5.582111701369285583e-02 -1.275340616703033447e-01
6.380000000000000000e+02 3.571936416625976562e+01 -1.554813742637634277e+00 -2.506016790866851807e-01 7.434490323066711426e-02 -5.287703499197959900e-02 -2.666285261511802673e-02
6.390000000000000000e+02 3.642518997192382812e+01 -1.273847818374633789e+00 -2.536340653896331787e-01 7.597876340150833130e-02 -5.329659208655357361e-02 1.335602533072233200e-02
6.400000000000000000e+02 3.711875534057617188e+01 -9.963341951370239258e-01 -2.285354584455490112e-01 6.730989366769790649e-02 -4.836767166852951050e-02 3.957431763410568237e-02
6.410000000000000000e+02 3.189776611328125000e+01 -3.034661531448364258e+00 -8.375958353281021118e-02 -8.573146164417266846e-02 -5.084731429815292358e-02 -1.357276588678359985e-01
6.420000000000000000e+02 3.038180923461914062e+01 -3.671624898910522461e+00 -1.178764645010232925e-02 -1.294679641723632812e-01 -4.237668216228485107e-02 -9.077668190002441406e-02
6.430000000000000000e+02 2.862450790405273438e+01 -2.872449636459350586e+00 -8.487222949042916298e-04 1.165083143860101700e-02 3.240632824599742889e-03 -7.165112067013978958e-03
6.440000000000000000e+02 2.893892860412597656e+01 -3.490673542022705078e+00 8.359267376363277435e-03 -1.130209583789110184e-02 -8.828485151752829552e-04 -1.221046969294548035e-02
6.450000000000000000e+02 2.962532424926757812e+01 -8.295541763305664062e+00 -4.144761338829994202e-02 -7.425111532211303711e-01 -2.351876348257064819e-01 -1.046865284442901611e-01
6.460000000000000000e+02 2.716789817810058594e+01 -1.276084327697753906e+01 -5.303600430488586426e-01 -2.531846761703491211e-01 -2.350634187459945679e-01 -2.833802402019500732e-01
6.470000000000000000e+02 2.601183128356933594e+01 -1.266755199432373047e+01 -6.359318494796752930e-01 -1.801846772432327271e-01 -2.448349595069885254e-01 -3.152362108230590820e-01
6.480000000000000000e+02 2.037939453125000000e+01 -1.273752117156982422e+01 -1.957854628562927246e-01 -9.182290732860565186e-02 -8.628251403570175171e-02 1.159446686506271362e-01
6.490000000000000000e+02 1.916916656494140625e+01 -1.148982143402099609e+01 -9.344334155321121216e-02 -7.209441065788269043e-02 -4.966132342815399170e-02 8.157150447368621826e-02
6.500000000000000000e+02 1.859967041015625000e+01 -1.087968826293945312e+01 -8.168805390596389771e-02 -5.841915309429168701e-02 -4.203216359019279480e-02 7.236760109663009644e-02
6.510000000000000000e+02 1.310142230987548828e+01 -1.349081611633300781e+01 3.053420409560203552e-02 3.698959201574325562e-02 2.025713771581649780e-02 -4.026591405272483826e-02
6.520000000000000000e+02 1.406297588348388672e+01 -1.353108406066894531e+01 8.604090660810470581e-03 1.256304234266281128e-01 4.027035459876060486e-02 -5.989949405193328857e-02
6.530000000000000000e+02 1.712727355957031250e+01 -7.060576915740966797e+00 -3.700920846313238144e-03 5.246168002486228943e-02 1.462822780013084412e-02 8.589498465880751610e-04
6.540000000000000000e+02 1.731937980651855469e+01 -5.406616210937500000e+00 -5.194860976189374924e-03 4.731642454862594604e-02 1.263646874576807022e-02 5.030250642448663712e-03
6.550000000000000000e+02 1.772546577453613281e+01 -3.820062637329101562e+00 -5.610045045614242554e-03 3.427692502737045288e-02 8.600064553320407867e-03 1.215402688831090927e-02
6.560000000000000000e+02 1.728218650817871094e+01 -2.933807849884033203e+00 -1.811643945984542370e-03 1.827457919716835022e-02 4.938880912959575653e-03 3.602061478886753321e-04
6.570000000000000000e+02 1.713341712951660156e+01 -4.078426361083984375e-01 -7.492651231586933136e-03 8.018475957214832306e-03 1.577473303768783808e-04 1.532731926999986172e-03
6.580000000000000000e+02 1.770299720764160156e+01 -3.264749944210052490e-01 -2.305366657674312592e-02 5.764329805970191956e-03 -5.186801310628652573e-03 -1.304751820862293243e-02
6.590000000000000000e+02 1.776213264465332031e+01 -1.429376482963562012e+00 -1.492675300687551498e-02 8.950836025178432465e-03 -1.792775234207510948e-03 -6.475298199802637100e-03
6.600000000000000000e+02 2.029736137390136719e+01 -7.597647905349731445e-01 1.744607537984848022e-01 2.812463231384754181e-02 6.077561527490615845e-02 3.241529688239097595e-02
6.610000000000000000e+02 1.896592903137207031e+01 -4.160955548286437988e-01 -2.111118100583553314e-02 4.401357844471931458e-02 6.870719604194164276e-03 1.553770713508129120e-02
6.620000000000000000e+02 1.810787773132324219e+01 -9.106077551841735840e-01 3.345655743032693863e-03 1.755814068019390106e-02 6.271138787269592285e-03 1.255394052714109421e-02
6.630000000000000000e+02 1.578133583068847656e+01 -6.493528485298156738e-01 -9.943721815943717957e-03 3.184238914400339127e-03 -2.027845010161399841e-03 -9.841872379183769226e-03
6.640000000000000000e+02 1.365408611297607422e+01 -1.122689247131347656e+00 -4.824062809348106384e-03 -5.411385092884302139e-03 -3.070634324103593826e-03 -1.189426146447658539e-02
6.650000000000000000e+02 1.671027565002441406e+01 -5.294075965881347656e+00 9.831991046667098999e-03 3.487911447882652283e-02 1.341333240270614624e-02 5.486125010065734386e-04
6.660000000000000000e+02 1.136437225341796875e+01 -1.575086236000061035e+00 4.615177866071462631e-03 -2.930715447291731834e-03 5.053387722000479698e-04 -1.222811546176671982e-02
6.670000000000000000e+02 1.058297157287597656e+01 -1.720853447914123535e+00 7.052330300211906433e-03 -6.264829542487859726e-03 2.362502273172140121e-04 -1.069419644773006439e-02
6.680000000000000000e+02 9.008693695068359375e+00 -1.825064539909362793e+00 1.108969654887914658e-02 -5.147995427250862122e-03 1.782510429620742798e-03 -5.793135613203048706e-03
6.690000000000000000e+02 7.448407173156738281e+00 -1.836928486824035645e+00 1.311555784195661545e-02 -4.507022444158792496e-03 2.582560526207089424e-03 -3.841357829514890909e-04
6.700000000000000000e+02 5.897891998291015625e+00 -1.837755084037780762e+00 1.231020223349332809e-02 -3.347161225974559784e-03 2.688912209123373032e-03 4.036518279463052750e-03
6.710000000000000000e+02 5.127067089080810547e+00 -1.845027446746826172e+00 1.118564046919345856e-02 -7.856132579036056995e-04 3.120008390396833420e-03 5.901107098907232285e-03
6.720000000000000000e+02 4.513418674468994141e+00 -2.579950094223022461e+00 8.661253377795219421e-03 -9.765834547579288483e-04 2.305401023477315903e-03 7.994803600013256073e-03
6.730000000000000000e+02 2.735301971435546875e+00 -1.987200021743774414e+00 4.973361734300851822e-03 1.234343042597174644e-03 1.862311502918601036e-03 6.586074829101562500e-03
6.740000000000000000e+02 3.844358026981353760e-01 -1.902319788932800293e+00 4.702874575741589069e-04 2.472711494192481041e-03 8.828996797092258930e-04 1.198214828036725521e-03
6.750000000000000000e+02 4.434823691844940186e-01 -4.205660629272460938e+01 1.154631492681801319e-03 -3.393947780132293701e-01 -1.014720425009727478e-01 -1.297096023336052895e-03
6.760000000000000000e+02 5.542547106742858887e-01 -4.121074295043945312e+01 4.533401224762201309e-03 -3.352089524269104004e-01 -9.920267015695571899e-02 -5.068764556199312210e-03
6.770000000000000000e+02 5.545343160629272461e-01 -4.041248321533203125e+01 -4.691294394433498383e-03 -3.273607790470123291e-01 -9.961561858654022217e-02 -6.300725508481264114e-03
6.780000000000000000e+02 4.712044298648834229e-01 -3.883789062500000000e+01 -1.069837016984820366e-03 -3.020506501197814941e-01 -9.093614667654037476e-02 -1.265370473265647888e-02
6.790000000000000000e+02 5.039681792259216309e-01 -3.962434005737304688e+01 7.135679479688405991e-03 -3.178217411041259766e-01 -9.320581704378128052e-02 -6.539723835885524750e-03
6.800000000000000000e+02 4.523164033889770508e-01 -3.726111984252929688e+01 -3.208710986655205488e-04 -2.595335245132446289e-01 -7.795631885528564453e-02 -1.245195604860782623e-02
6.810000000000000000e+02 4.051316082477569580e-01 -3.565855026245117188e+01 -1.087837619706988335e-03 -2.115311771631240845e-01 -6.378570199012756348e-02 -1.275797747075557709e-02
6.820000000000000000e+02 3.923757374286651611e-01 -3.485883331298828125e+01 -2.743548247963190079e-05 -1.869242489337921143e-01 -5.608550459146499634e-02 -1.154041942209005356e-02
6.830000000000000000e+02 3.870489895343780518e-01 -3.406079101562500000e+01 -1.004494260996580124e-03 -1.639680117368698120e-01 -4.949175193905830383e-02 -1.054118294268846512e-02
6.840000000000000000e+02 3.850374817848205566e-01 -3.326156616210937500e+01 -2.092211652779951692e-04 -1.434529274702072144e-01 -4.309864714741706848e-02 -9.213921613991260529e-03
6.850000000000000000e+02 3.829379677772521973e-01 -3.246044158935546875e+01 -1.037667971104383469e-03 -1.254298985004425049e-01 -3.794027119874954224e-02 -7.962423376739025116e-03
6.860000000000000000e+02 1.159254789352416992e+00 -3.327774429321289062e+01 -3.041111165657639503e-03 -1.488024890422821045e-01 -4.555308073759078979e-02 -2.701913565397262573e-02
6.870000000000000000e+02 3.794233500957489014e-01 -3.165839195251464844e+01 -6.216805195435881615e-04 -1.106626912951469421e-01 -3.338531032204627991e-02 -6.149703171104192734e-03
6.880000000000000000e+02 3.665896356105804443e-01 -2.924530792236328125e+01 -7.978526409715414047e-04 -8.868528902530670166e-02 -2.684494294226169586e-02 -6.587728275917470455e-04
6.890000000000000000e+02 3.631674051284790039e-01 -2.844143867492675781e+01 -7.903251098468899727e-04 -8.933573961257934570e-02 -2.703781984746456146e-02 1.173184602521359921e-03
6.900000000000000000e+02 3.607460558414459229e-01 -2.763771438598632812e+01 -3.494510019663721323e-04 -9.322947263717651367e-02 -2.807367779314517975e-02 2.346421591937541962e-03
6.910000000000000000e+02 1.091084241867065430e+00 -2.846615028381347656e+01 -3.304186509922146797e-03 -9.260362386703491211e-02 -2.877234295010566711e-02 1.539564691483974457e-03
6.920000000000000000e+02 1.801704406738281250e+00 -2.609240722656250000e+01 -1.276501425309106708e-04 -8.962668478488922119e-02 -2.692630141973495483e-02 1.022317353636026382e-02
6.930000000000000000e+02 6.220933914184570312e+00 -2.149400138854980469e+01 8.161264657974243164e-02 5.841065198183059692e-02 4.200698807835578918e-02 -7.415632158517837524e-02
6.940000000000000000e+02 6.899737834930419922e+00 -2.278742599487304688e+01 1.536001563072204590e-01 5.443901196122169495e-02 6.241175159811973572e-02 -5.731579661369323730e-02
6.950000000000000000e+02 1.077805876731872559e+00 -2.524965667724609375e+01 2.021556487306952477e-03 -1.014629527926445007e-01 -2.983241900801658630e-02 7.346947677433490753e-03
6.960000000000000000e+02 3.730880022048950195e-01 -2.198717880249023438e+01 1.651623169891536236e-03 -1.031197980046272278e-01 -3.044045343995094299e-02 -7.821192033588886261e-03
6.970000000000000000e+02 1.113538026809692383e+00 -2.196715354919433594e+01 8.660586550831794739e-03 -8.744322508573532104e-02 -2.363479137420654297e-02 -2.124921977519989014e-02
6.980000000000000000e+02 3.738574981689453125e-01 -2.117165374755859375e+01 1.676935004070401192e-03 -8.262445032596588135e-02 -2.428425475955009460e-02 -1.145914662629365921e-02
6.990000000000000000e+02 1.055294990539550781e+00 -1.946264076232910156e+01 5.768578375864308327e-06 -2.887902781367301941e-02 -8.661977946758270264e-03 -3.992406651377677917e-02
7.000000000000000000e+02 5.117196559906005859e+00 -1.858359527587890625e+01 -1.598671451210975647e-02 -1.779035031795501709e-01 -5.816706642508506775e-02 -4.515344277024269104e-02
7.010000000000000000e+02 1.733819603919982910e+00 -1.859311294555664062e+01 -7.595993578433990479e-03 -2.039529569447040558e-02 -8.397386409342288971e-03 -5.309127643704414368e-02
7.020000000000000000e+02 3.599980473518371582e-01 -1.792974281311035156e+01 -9.264362161047756672e-04 4.038049280643463135e-02 1.183621678501367569e-02 -1.201511081308126450e-02
7.030000000000000000e+02 5.399835586547851562e+00 -1.610105323791503906e+01 -5.726955458521842957e-02 -1.523057520389556885e-01 -6.287259608507156372e-02 -7.649314403533935547e-02
7.040000000000000000e+02 3.647393882274627686e-01 -1.471067619323730469e+01 -5.026019061915576458e-04 9.957517683506011963e-02 2.972177229821681976e-02 -1.367299235425889492e-03
7.050000000000000000e+02 3.606429696083068848e-01 -1.390810394287109375e+01 -1.336607267148792744e-03 1.006928533315658569e-01 2.980687469244003296e-02 6.143850623629987240e-04
7.060000000000000000e+02 3.565007448196411133e-01 -1.310606098175048828e+01 2.915250370278954506e-04 9.801198542118072510e-02 2.949105203151702881e-02 1.957176951691508293e-03
7.070000000000000000e+02 3.533884882926940918e-01 -1.230482292175292969e+01 -1.193981384858489037e-03 9.269945323467254639e-02 2.745164185762405396e-02 2.835241379216313362e-03
7.080000000000000000e+02 3.516917228698730469e-01 -1.150424098968505859e+01 7.125196279957890511e-04 8.549518883228302002e-02 2.586231380701065063e-02 3.576098242774605751e-03
7.090000000000000000e+02 3.265130996704101562e+00 -1.264215755462646484e+01 -1.294029038399457932e-02 -1.293500512838363647e-02 -7.762589026242494583e-03 1.208556815981864929e-03
7.100000000000000000e+02 3.508037328720092773e-01 -1.070423126220703125e+01 -9.629946434870362282e-04 7.716465741395950317e-02 2.286049909889698029e-02 3.715101396664977074e-03
7.110000000000000000e+02 3.433491885662078857e-01 -8.305644035339355469e+00 9.102653712034225464e-04 5.085137486457824707e-02 1.552849169820547104e-02 3.717600135132670403e-03
7.120000000000000000e+02 3.369784355163574219e-01 -7.508319854736328125e+00 -6.489657098427414894e-04 4.247912392020225525e-02 1.254904828965663910e-02 3.343702061101794243e-03
7.130000000000000000e+02 3.299610316753387451e-01 -6.712278842926025391e+00 8.284465875476598740e-04 3.465855866670608521e-02 1.064610201865434647e-02 3.158799605444073677e-03
7.140000000000000000e+02 3.801317691802978516e+00 -2.752194881439208984e+00 6.279156077653169632e-03 -1.038834685459733009e-03 1.572096371091902256e-03 9.070537984371185303e-03
7.150000000000000000e+02 9.940407276153564453e-01 -6.685496807098388672e+00 -1.604011631570756435e-04 2.735763788223266602e-02 8.159170858561992645e-03 8.587210439145565033e-03
7.160000000000000000e+02 5.344696044921875000e+00 -3.181800365447998047e+00 9.165748022496700287e-03 -4.405530169606208801e-03 1.428065355867147446e-03 7.584567181766033173e-03
7.170000000000000000e+02 1.931391954421997070e+00 -1.932554841041564941e+00 3.025565994903445244e-03 2.864544745534658432e-03 1.767033128999173641e-03 5.466703325510025024e-03
7.180000000000000000e+02 7.957922363281250000e+01 -4.206140899658203125e+01 1.718541234731674194e-02 6.731923103332519531e+00 2.024732589721679688e+00 1.996737159788608551e-02
7.190000000000000000e+02 7.950753784179687500e+01 -4.121938705444335938e+01 -4.043352603912353516e-02 6.758777618408203125e+00 2.015503168106079102e+00 9.480068460106849670e-03
7.200000000000000000e+02 7.183374023437500000e+01 -3.940916824340820312e+01 3.816885054111480713e-01 3.990478515625000000e+00 1.311650037765502930e+00 2.481848299503326416e-01
7.210000000000000000e+02 5.157085037231445312e+01 -3.948167800903320312e+01 6.997009515762329102e-01 2.933013737201690674e-01 2.979007065296173096e-01 6.973610073328018188e-02
7.220000000000000000e+02 3.343693923950195312e+01 -3.791097640991210938e+01 3.054291903972625732e-01 -1.812290996313095093e-01 3.726002946496009827e-02 -1.771255433559417725e-01
7.230000000000000000e+02 1.355384063720703125e+01 -3.952655792236328125e+01 2.862945497035980225e-01 -2.255269885063171387e-02 7.912255823612213135e-02 -1.059757173061370850e-01
7.240000000000000000e+02 1.537330746650695801e+00 -4.200441741943359375e+01 8.486744947731494904e-03 -3.047888278961181641e-01 -8.889062702655792236e-02 -7.153379265218973160e-03
7.250000000000000000e+02 7.959234619140625000e+01 4.207772445678710938e+01 1.270183268934488297e-02 5.348188400268554688e+00 1.608267068862915039e+00 -1.438644248992204666e-02
7.260000000000000000e+02 7.952742004394531250e+01 4.125201034545898438e+01 -2.406484819948673248e-02 5.368718147277832031e+00 1.603395938873291016e+00 -8.132185786962509155e-03
7.270000000000000000e+02 7.858044433593750000e+01 3.875436782836914062e+01 4.251732025295495987e-03 5.256719112396240234e+00 1.578291177749633789e+00 -5.186505615711212158e-02
7.280000000000000000e+02 7.640142059326171875e+01 3.973274993896484375e+01 3.877450898289680481e-02 4.884939193725585938e+00 1.477114081382751465e+00 -8.557111024856567383e-02
7.290000000000000000e+02 7.950608062744140625e+01 3.965201568603515625e+01 1.600874587893486023e-03 5.376216888427734375e+00 1.613345384597778320e+00 -8.756330236792564392e-03
7.300000000000000000e+02 7.959204101562500000e+01 3.808783340454101562e+01 1.115737482905387878e-02 5.413384437561035156e+00 1.627362608909606934e+00 -1.481210533529520035e-02
7.310000000000000000e+02 7.963259124755859375e+01 3.731309509277343750e+01 -7.233090233057737350e-03 5.451532840728759766e+00 1.633289933204650879e+00 -1.797417365014553070e-02
7.320000000000000000e+02 7.960574340820312500e+01 3.497083663940429688e+01 1.136801578104496002e-02 5.584848403930664062e+00 1.678864836692810059e+00 -2.465289644896984100e-02
7.330000000000000000e+02 7.958647918701171875e+01 3.417848587036132812e+01 -1.045854669064283371e-02 5.632968425750732422e+00 1.686752915382385254e+00 -2.012793906033039093e-02
7.340000000000000000e+02 7.956510925292968750e+01 3.338379287719726562e+01 1.327609922736883163e-02 5.684890270233154297e+00 1.709449887275695801e+00 -2.861270867288112640e-02
7.350000000000000000e+02 7.956777191162109375e+01 3.176912117004394531e+01 4.244008567184209824e-03 5.817635536193847656e+00 1.746563792228698730e+00 -3.693025559186935425e-02
7.360000000000000000e+02 7.958483123779296875e+01 3.095370101928710938e+01 -2.924451604485511780e-03 5.893699645996093750e+00 1.767232537269592285e+00 -3.665584698319435120e-02
7.370000000000000000e+02 7.879736328125000000e+01 3.025502967834472656e+01 2.192088868468999863e-04 5.790778160095214844e+00 1.737299203872680664e+00 -1.157634556293487549e-01
7.380000000000000000e+02 7.962246704101562500e+01 2.772183036804199219e+01 -1.693412545137107372e-03 6.240280628204345703e+00 1.871576189994812012e+00 -3.728846460580825806e-02
7.390000000000000000e+02 7.962654113769531250e+01 2.691801452636718750e+01 -5.612793611362576485e-04 6.328238964080810547e+00 1.898303270339965820e+00 -3.511171042919158936e-02
7.400000000000000000e+02 7.962977600097656250e+01 2.611487770080566406e+01 -2.196848625317215919e-03 6.412435531616210938e+00 1.923071622848510742e+00 -3.194205462932586670e-02
7.410000000000000000e+02 7.963250732421875000e+01 2.531178665161132812e+01 -2.073376439511775970e-03 6.489560604095458984e+00 1.946246147155761719e+00 -2.736366912722587585e-02
7.420000000000000000e+02 7.963504028320312500e+01 2.450927162170410156e+01 -3.170647425577044487e-03 6.556941509246826172e+00 1.966131210327148438e+00 -2.149990014731884003e-02
7.430000000000000000e+02 7.890370178222656250e+01 2.459909439086914062e+01 -1.178267225623130798e-02 6.352985858917236328e+00 1.902360916137695312e+00 -7.995675504207611084e-02
7.440000000000000000e+02 7.963930511474609375e+01 2.290574455261230469e+01 -3.441089764237403870e-03 6.649499416351318359e+00 1.993817567825317383e+00 -6.340472027659416199e-03
7.450000000000000000e+02 7.964397430419921875e+01 2.050276947021484375e+01 -3.468063194304704666e-03 6.657430171966552734e+00 1.996188521385192871e+00 1.857089996337890625e-02
7.460000000000000000e+02 7.964461517333984375e+01 1.970062446594238281e+01 -8.105217129923403263e-04 6.630250453948974609e+00 1.988831877708435059e+00 2.306586690247058868e-02
7.470000000000000000e+02 7.964526367187500000e+01 1.889844703674316406e+01 1.065367017872631550e-03 6.599444866180419922e+00 1.980153083801269531e+00 2.256409078836441040e-02
7.480000000000000000e+02 7.964656829833984375e+01 1.809659767150878906e+01 3.633021609857678413e-03 6.576344013214111328e+00 1.973993182182312012e+00 1.689996011555194855e-02
7.490000000000000000e+02 7.894141387939453125e+01 1.819475173950195312e+01 1.848963089287281036e-02 6.601954460144042969e+00 1.986133217811584473e+00 1.462514139711856842e-02
7.500000000000000000e+02 7.965106964111328125e+01 1.649535369873046875e+01 9.121114388108253479e-03 6.616764068603515625e+00 1.987765431404113770e+00 -1.735981367528438568e-02
7.510000000000000000e+02 7.965966033935546875e+01 1.411087703704833984e+01 1.665648072957992554e-02 7.107429981231689453e+00 2.137225866317749023e+00 -1.061955839395523071e-01
7.520000000000000000e+02 7.965899658203125000e+01 1.331408691406250000e+01 9.344784542918205261e-03 7.419074058532714844e+00 2.228525638580322266e+00 -1.355512291193008423e-01
7.530000000000000000e+02 7.965502166748046875e+01 1.251582813262939453e+01 1.795904524624347687e-02 7.805696964263916016e+00 2.347096681594848633e+00 -1.701962947845458984e-01
7.540000000000000000e+02 7.897243499755859375e+01 1.268637847900390625e+01 4.973063617944717407e-02 7.681085586547851562e+00 2.319244861602783203e+00 -4.695645868778228760e-01
7.550000000000000000e+02 7.963729858398437500e+01 1.090944290161132812e+01 1.278742589056491852e-02 8.716908454895019531e+00 2.618908643722534180e+00 -2.079832255840301514e-01
7.560000000000000000e+02 7.962873840332031250e+01 1.010072517395019531e+01 -5.816867575049400330e-03 9.200325012207031250e+00 2.758352518081665039e+00 -2.121223211288452148e-01
7.570000000000000000e+02 7.888893127441406250e+01 1.025135040283203125e+01 7.160592358559370041e-03 8.764023780822753906e+00 2.631355524063110352e+00 -6.101345419883728027e-01
7.580000000000000000e+02 7.964054107666015625e+01 6.866302013397216797e+00 -1.885197311639785767e-02 1.094468975067138672e+01 3.277751207351684570e+00 -1.361952275037765503e-01
7.590000000000000000e+02 7.964208221435546875e+01 6.061091423034667969e+00 -8.281624875962734222e-03 1.126970100402832031e+01 3.378425836563110352e+00 -1.074440628290176392e-01
7.600000000000000000e+02 7.964145660400390625e+01 5.256669044494628906e+00 -1.818201690912246704e-02 1.153728771209716797e+01 3.455731630325317383e+00 -7.710763067007064819e-02
7.610000000000000000e+02 7.964108276367187500e+01 4.454030036926269531e+00 -8.348393253982067108e-03 1.174787616729736328e+01 3.521858215332031250e+00 -4.864954203367233276e-02
7.620000000000000000e+02 7.964219665527343750e+01 3.652482271194458008e+00 -2.355841547250747681e-02 1.189360141754150391e+01 3.561012744903564453e+00 -1.135563664138317108e-02
7.630000000000000000e+02 7.892691040039062500e+01 3.728057146072387695e+00 -6.843212991952896118e-02 1.100621891021728516e+01 3.281335830688476562e+00 -1.202934235334396362e-01
7.640000000000000000e+02 7.964964294433593750e+01 2.052319288253784180e+00 -3.237907588481903076e-02 1.193934345245361328e+01 3.572089433670043945e+00 7.976898550987243652e-02
7.650000000000000000e+02 7.965131378173828125e+01 -3.440283536911010742e-01 -1.733209565281867981e-02 1.104015254974365234e+01 3.306845903396606445e+00 2.849456667900085449e-01
7.660000000000000000e+02 7.896370697021484375e+01 5.552374720573425293e-01 -1.401080787181854248e-01 1.092324733734130859e+01 3.234941720962524414e+00 4.294102787971496582e-01
7.670000000000000000e+02 7.890495300292968750e+01 -5.706263542175292969e+00 2.272944450378417969e-01 7.187851905822753906e+00 2.224543809890747070e+00 8.857621550559997559e-01
7.680000000000000000e+02 7.965686035156250000e+01 -1.941483497619628906e+00 -1.130857039242982864e-02 9.552750587463378906e+00 2.862432718276977539e+00 4.421965479850769043e-01
7.690000000000000000e+02 7.454310607910156250e+01 -4.655677318572998047e+00 1.890961289405822754e+00 1.634276008605957031e+01 5.470116615295410156e+00 -5.125473976135253906e+00
7.700000000000000000e+02 7.966028594970703125e+01 -4.326418876647949219e+00 5.497331544756889343e-02 6.339871406555175781e+00 1.918453454971313477e+00 5.045712590217590332e-01
7.710000000000000000e+02 7.965319824218750000e+01 -5.119434833526611328e+00 2.666231803596019745e-02 5.320609569549560547e+00 1.604181528091430664e+00 4.199931919574737549e-01
7.720000000000000000e+02 7.826074218750000000e+01 -1.028384971618652344e+01 2.398477941751480103e-01 9.533354759216308594e+00 2.931960821151733398e+00 -1.855613350868225098e+00
7.730000000000000000e+02 7.967935180664062500e+01 -9.130754470825195312e+00 6.131799146533012390e-02 4.797625541687011719e+00 1.457682967185974121e+00 -3.592263758182525635e-01
7.740000000000000000e+02 7.450476837158203125e+01 -1.027064800262451172e+01 3.364022493362426758e+00 1.224663925170898438e+01 4.683198451995849609e+00 5.431132316589355469e+00
7.750000000000000000e+02 7.964513397216796875e+01 -1.153291320800781250e+01 -7.763256784528493881e-03 8.464954376220703125e+00 2.537157297134399414e+00 -5.773685574531555176e-01
7.760000000000000000e+02 7.889665222167968750e+01 -1.213167572021484375e+01 -1.385068744421005249e-01 9.705686569213867188e+00 2.870153903961181641e+00 -1.348172783851623535e+00
7.770000000000000000e+02 7.963791656494140625e+01 -1.233161926269531250e+01 -2.822045236825942993e-02 9.612923622131347656e+00 2.875411033630371094e+00 -5.278114676475524902e-01
7.780000000000000000e+02 7.964512634277343750e+01 -1.472816562652587891e+01 -5.153396353125572205e-02 1.183935832977294922e+01 3.536347389221191406e+00 -2.163470089435577393e-01
7.790000000000000000e+02 7.964503479003906250e+01 -1.553121280670166016e+01 -4.678710550069808960e-02 1.209829902648925781e+01 3.615453481674194336e+00 -1.053071320056915283e-01
7.800000000000000000e+02 7.894647979736328125e+01 -1.533459186553955078e+01 -2.185278534889221191e-01 1.122639083862304688e+01 3.302358865737915039e+00 -2.481175512075424194e-01
7.810000000000000000e+02 7.964340972900390625e+01 -1.633574295043945312e+01 -4.776239395141601562e-02 1.212021160125732422e+01 3.621734857559204102e+00 2.766567049548029900e-03
7.820000000000000000e+02 7.964183807373046875e+01 -1.714184951782226562e+01 -3.975792974233627319e-02 1.192791461944580078e+01 3.566447019577026367e+00 9.866084903478622437e-02
7.830000000000000000e+02 7.964121246337890625e+01 -1.794705963134765625e+01 -3.504578024148941040e-02 1.155208110809326172e+01 3.455110549926757812e+00 1.813360750675201416e-01
7.840000000000000000e+02 7.964103698730468750e+01 -1.955202484130859375e+01 -1.724740117788314819e-02 1.039632987976074219e+01 3.113724708557128906e+00 2.887494266033172607e-01
7.850000000000000000e+02 7.357701873779296875e+01 -2.194812774658203125e+01 2.137618698179721832e-02 1.035179233551025391e+01 3.111950635910034180e+00 4.082739651203155518e-01
7.860000000000000000e+02 7.357015991210937500e+01 -2.273904418945312500e+01 3.889246881008148193e-01 1.174800300598144531e+01 3.641078233718872070e+00 8.881213068962097168e-01
7.870000000000000000e+02 7.891541290283203125e+01 -2.584142684936523438e+01 7.062011957168579102e-02 7.553804874420166016e+00 2.287327527999877930e+00 -3.896423429250717163e-02
7.880000000000000000e+02 7.351416015625000000e+01 -2.353067588806152344e+01 1.273772239685058594e+00 1.338880252838134766e+01 4.398772716522216797e+00 2.449605226516723633e+00
7.890000000000000000e+02 7.720214843750000000e+01 -2.704607963562011719e+01 1.425945665687322617e-02 7.543415069580078125e+00 2.267302274703979492e+00 1.819978468120098114e-02
7.900000000000000000e+02 7.963534545898437500e+01 -2.598630142211914062e+01 2.289408119395375252e-03 7.416393756866455078e+00 2.225605010986328125e+00 -3.484152257442474365e-02
7.910000000000000000e+02 7.965647888183593750e+01 -2.840274429321289062e+01 -1.157500199042260647e-03 7.662802219390869141e+00 2.298493385314941406e+00 -4.375029727816581726e-02
7.920000000000000000e+02 7.965458679199218750e+01 -2.920114326477050781e+01 -1.576320827007293701e-02 7.711133956909179688e+00 2.308611154556274414e+00 -2.081861346960067749e-02
7.930000000000000000e+02 7.963890838623046875e+01 -2.999988365173339844e+01 -2.726895036175847054e-03 7.711557865142822266e+00 2.312649250030517578e+00 -2.141788834705948830e-03
7.940000000000000000e+02 7.962413024902343750e+01 -3.080220985412597656e+01 -1.037021446973085403e-02 7.677173614501953125e+00 2.300040960311889648e+00 1.342947501689195633e-02
7.950000000000000000e+02 7.961458587646484375e+01 -3.160619544982910156e+01 -4.881075583398342133e-03 7.613218784332275391e+00 2.282501459121704102e+00 2.862042374908924103e-02
7.960000000000000000e+02 7.884261322021484375e+01 -3.147088623046875000e+01 -2.853912673890590668e-02 7.335997104644775391e+00 2.192237377166748047e+00 9.913738071918487549e-02
7.970000000000000000e+02 7.960500335693359375e+01 -3.320671844482421875e+01 -2.345173386856913567e-03 7.433114528656005859e+00 2.229230642318725586e+00 4.309576004743576050e-02
7.980000000000000000e+02 7.959974670410156250e+01 -3.560465240478515625e+01 2.912454539909958839e-03 7.138115882873535156e+00 2.142308473587036133e+00 4.447541758418083191e-02
7.990000000000000000e+02 7.959042358398437500e+01 -3.640255355834960938e+01 -3.511767601594328880e-03 7.039993762969970703e+00 2.110944747924804688e+00 4.647279158234596252e-02
8.000000000000000000e+02 7.957357788085937500e+01 -3.719952011108398438e+01 6.772392895072698593e-03 6.950310230255126953e+00 2.087124824523925781e+00 4.100733995437622070e-02
8.010000000000000000e+02 7.954924774169921875e+01 -3.800267410278320312e+01 -1.388891134411096573e-03 6.873849868774414062e+00 2.061738252639770508e+00 3.783595561981201172e-02
8.020000000000000000e+02 7.952256774902343750e+01 -3.880593109130859375e+01 1.675522886216640472e-02 6.821715354919433594e+00 2.051541328430175781e+00 2.115461975336074829e-02
8.030000000000000000e+02 7.951905822753906250e+01 -4.041500473022460938e+01 3.868034482002258301e-02 6.765200614929199219e+00 2.041164398193359375e+00 -4.689317196607589722e-03
8.040000000000000000e+02 4.719139933586120605e-01 4.202082443237304688e+01 -1.587482285685837269e-03 -7.381234169006347656e-01 -2.219132781028747559e-01 -1.638538320548832417e-03
8.050000000000000000e+02 5.885356068611145020e-01 4.114134597778320312e+01 -2.816507592797279358e-03 -7.414688467979431152e-01 -2.232856005430221558e-01 -4.435997456312179565e-03
8.060000000000000000e+02 7.966341495513916016e+00 3.639849853515625000e+01 1.307011842727661133e-01 3.121627494692802429e-02 4.857523739337921143e-02 1.458944845944643021e-02
8.070000000000000000e+02 2.816807746887207031e+01 3.720668792724609375e+01 3.273802697658538818e-01 -2.849958539009094238e-01 1.271532010287046432e-02 1.571369767189025879e-01
8.080000000000000000e+02 4.172392272949218750e+01 4.141121292114257812e+01 5.755921006202697754e-01 1.181289330124855042e-01 2.081163078546524048e-01 2.125677280128002167e-02
8.090000000000000000e+02 7.843580627441406250e+01 3.954404449462890625e+01 1.922710798680782318e-02 5.190192699432373047e+00 1.562825918197631836e+00 -3.085933625698089600e-02
8.100000000000000000e+02 7.858886718750000000e+01 4.202764129638671875e+01 4.912683740258216858e-03 5.249864578247070312e+00 1.576433181762695312e+00 2.119577862322330475e-02
8.110000000000000000e+02 4.005463421344757080e-01 1.896275043487548828e+00 6.516892462968826294e-04 1.220060419291257858e-02 3.855687798932194710e-03 -5.135001149028539658e-03
8.120000000000000000e+02 2.842867136001586914e+00 1.905634403228759766e+00 1.378028839826583862e-02 5.167657509446144104e-03 5.684384144842624664e-03 -2.528257854282855988e-02
8.130000000000000000e+02 3.620148897171020508e-01 3.481562376022338867e+00 -1.452199503546580672e-04 3.753808513283729553e-02 1.121785957366228104e-02 -6.392640527337789536e-03
8.140000000000000000e+02 3.504563868045806885e-01 4.271890163421630859e+00 -4.908160190097987652e-04 5.111456662416458130e-02 1.518712565302848816e-02 -5.645922385156154633e-03
8.150000000000000000e+02 1.796258687973022461e+00 4.792921543121337891e+00 -1.028105802834033966e-02 2.616133727133274078e-02 4.764084238559007645e-03 -1.466456055641174316e-02
8.160000000000000000e+02 3.772899806499481201e-01 5.852565765380859375e+00 -9.634348680265247822e-04 6.696150451898574829e-02 1.979942061007022858e-02 -1.443652785383164883e-03
8.170000000000000000e+02 3.832716643810272217e-01 8.264494895935058594e+00 -2.025795169174671173e-03 4.880935326218605042e-02 1.403506752103567123e-02 7.574787363409996033e-03
8.180000000000000000e+02 3.771559298038482666e-01 9.075551986694335938e+00 -1.262246281839907169e-03 2.859197556972503662e-02 8.198918774724006653e-03 1.092707924544811249e-02
8.190000000000000000e+02 3.726621270179748535e-01 9.886804580688476562e+00 -1.344164717011153698e-03 1.762859872542321682e-03 1.256085379282012582e-04 1.374785415828227997e-02
8.200000000000000000e+02 3.683842420578002930e-01 1.069578456878662109e+01 -7.887964602559804916e-04 -3.087385185062885284e-02 -9.498794563114643097e-03 1.599175855517387390e-02
8.210000000000000000e+02 3.637807667255401611e-01 1.150073623657226562e+01 -3.947229415643960238e-04 -6.749213486909866333e-02 -2.036605775356292725e-02 1.725307665765285492e-02
8.220000000000000000e+02 1.089080214500427246e+00 1.142277622222900391e+01 -2.413414185866713524e-03 -7.275383174419403076e-02 -2.255017496645450592e-02 4.857223108410835266e-02
8.230000000000000000e+02 3.524403274059295654e-01 1.310626125335693359e+01 3.209020069334656000e-04 -1.458792388439178467e-01 -4.366749897599220276e-02 1.726195588707923889e-02
8.240000000000000000e+02 3.464581966400146484e-01 1.550810337066650391e+01 1.813035109080374241e-03 -2.439586222171783447e-01 -7.264367491006851196e-02 9.976072236895561218e-03
8.250000000000000000e+02 3.522756695747375488e-01 1.631006622314453125e+01 1.233097515068948269e-03 -2.624677121639251709e-01 -7.837038487195968628e-02 6.574965082108974457e-03
8.260000000000000000e+02 3.571003973484039307e-01 1.711472892761230469e+01 2.157162409275770187e-03 -2.723262906074523926e-01 -8.105073869228363037e-02 2.581004053354263306e-03
8.270000000000000000e+02 3.600090444087982178e-01 1.792207527160644531e+01 1.438811654224991798e-03 -2.731220424175262451e-01 -8.150497078895568848e-02 -1.332187908701598644e-03
8.280000000000000000e+02 3.624191582202911377e-01 1.873061370849609375e+01 2.104634186252951622e-03 -2.652284801006317139e-01 -7.893715053796768188e-02 -5.375988781452178955e-03
8.290000000000000000e+02 3.624884486198425293e-01 2.195654296875000000e+01 6.719586672261357307e-04 -1.742341518402099609e-01 -5.206865817308425903e-02 -1.280772220343351364e-02
8.300000000000000000e+02 3.576876521110534668e-01 2.275876998901367188e+01 -1.636272529140114784e-03 -1.473822742700576782e-01 -4.470556229352951050e-02 -1.147444453090429306e-02
8.310000000000000000e+02 1.567123055458068848e+00 2.645541191101074219e+01 -3.457411751151084900e-02 -2.637524306774139404e-01 -8.949796855449676514e-02 6.701487302780151367e-02
8.320000000000000000e+02 1.084625601768493652e+00 2.188585281372070312e+01 -9.150691912509500980e-04 -2.084584087133407593e-01 -6.281204521656036377e-02 -3.158703818917274475e-02
8.330000000000000000e+02 9.592334032058715820e-01 2.582144737243652344e+01 -1.539159752428531647e-02 -1.920660883188247681e-01 -6.223730742931365967e-02 2.704672887921333313e-02
8.340000000000000000e+02 3.207792639732360840e-01 2.594996643066406250e+01 -2.376841846853494644e-03 -1.242735832929611206e-01 -3.799512982368469238e-02 8.814821951091289520e-03
8.350000000000000000e+02 9.467092752456665039e-01 2.659165573120117188e+01 -1.322969514876604080e-02 -2.173393964767456055e-01 -6.917072832584381104e-02 4.503503441810607910e-02
8.360000000000000000e+02 9.982734918594360352e-01 2.892823028564453125e+01 -7.428537588566541672e-03 -3.669024407863616943e-01 -1.122992932796478271e-01 9.426865726709365845e-02
8.370000000000000000e+02 6.160143375396728516e+00 3.025185394287109375e+01 -1.269899774342775345e-03 -3.224908709526062012e-01 -9.712822735309600830e-02 1.984602538868784904e-03
8.380000000000000000e+02 3.397643566131591797e-01 3.072860145568847656e+01 4.203424323350191116e-03 -5.305974483489990234e-01 -1.579182147979736328e-01 3.351810574531555176e-02
8.390000000000000000e+02 3.424057364463806152e-01 3.233288955688476562e+01 4.967414308339357376e-03 -6.763032078742980957e-01 -2.014007270336151123e-01 2.591113001108169556e-02
8.400000000000000000e+02 1.048701405525207520e+00 3.290568161010742188e+01 1.566094718873500824e-02 -6.399648189544677734e-01 -1.872911602258682251e-01 6.047765538096427917e-02
8.410000000000000000e+02 3.527265191078186035e-01 3.313886642456054688e+01 5.375624750740826130e-04 -7.296087741851806641e-01 -2.187213599681854248e-01 2.101808786392211914e-02
8.420000000000000000e+02 3.995261490345001221e-01 3.554947662353515625e+01 5.061786156147718430e-03 -8.030145168304443359e-01 -2.393858134746551514e-01 2.921639010310173035e-03
8.430000000000000000e+02 4.076122343540191650e-01 3.635689163208007812e+01 -7.601204561069607735e-04 -8.056132793426513672e-01 -2.419120222330093384e-01 2.760069619398564100e-04
8.440000000000000000e+02 4.084013998508453369e-01 3.716298675537109375e+01 4.367666319012641907e-03 -8.004794716835021973e-01 -2.388335317373275757e-01 -4.614034201949834824e-03
8.450000000000000000e+02 4.141251146793365479e-01 3.796569442749023438e+01 -2.019545063376426697e-03 -7.906348705291748047e-01 -2.377963215112686157e-01 -5.252561531960964203e-03
8.460000000000000000e+02 4.447979629039764404e-01 3.876154708862304688e+01 5.886858794838190079e-03 -7.738947272300720215e-01 -2.304023653268814087e-01 -1.101443357765674591e-02
8.470000000000000000e+02 5.579499006271362305e-01 4.034138107299804688e+01 1.445237663574516773e-03 -7.483931779861450195e-01 -2.240843772888183594e-01 -6.353869102895259857e-03
8.480000000000000000e+02 9.370936393737792969e+00 1.838416337966918945e+00 4.087967053055763245e-02 -2.214877121150493622e-02 5.619269330054521561e-03 1.844114856794476509e-03
8.490000000000000000e+02 8.582662582397460938e+00 1.835596084594726562e+00 4.251687973737716675e-02 -1.504982635378837585e-02 8.240115828812122345e-03 -7.691384758800268173e-03
8.500000000000000000e+02 9.268412590026855469e+00 2.494570732116699219e+00 -3.597702016122639179e-04 -3.013310953974723816e-02 -9.147863835096359253e-03 2.510512946173548698e-03
8.510000000000000000e+02 7.776863098144531250e+00 1.843074917793273926e+00 3.919705003499984741e-02 -1.061901077628135681e-02 8.573411963880062103e-03 -1.521055772900581360e-02
8.520000000000000000e+02 5.319544792175292969e+00 1.883519411087036133e+00 2.888842113316059113e-02 -1.171803567558526993e-03 8.314984850585460663e-03 -2.837159298360347748e-02
8.530000000000000000e+02 4.465108394622802734e+00 2.699009418487548828e+00 3.432218451052904129e-03 8.665567147545516491e-04 1.289632520638406277e-03 -3.051634505391120911e-02
8.540000000000000000e+02 3.664129018783569336e+00 1.908780455589294434e+00 1.866719685494899750e-02 2.977651311084628105e-03 6.493454333394765854e-03 -2.782548032701015472e-02
8.550000000000000000e+02 1.207205772399902344e+00 1.890927672386169434e+00 3.843260230496525764e-03 1.191087719053030014e-02 4.726241342723369598e-03 -1.435317005962133408e-02
8.560000000000000000e+02 1.149838829040527344e+01 2.193478584289550781e+00 -8.322034962475299835e-03 -2.047518640756607056e-02 -8.639166131615638733e-03 4.478685185313224792e-02
8.570000000000000000e+02 1.120714187622070312e+01 8.757706642150878906e+00 -3.112598657608032227e-01 -3.203347027301788330e-01 -1.894783675670623779e-01 3.041162490844726562e-01
8.580000000000000000e+02 1.519389724731445312e+01 3.006381750106811523e+00 -2.581542730331420898e-01 1.511019282042980194e-02 -7.291322201490402222e-02 2.018214315176010132e-01
8.590000000000000000e+02 1.765552520751953125e+01 3.266870737075805664e+00 -4.083161652088165283e-01 -1.873171329498291016e-02 -1.281143575906753540e-01 2.025481611490249634e-01
8.600000000000000000e+02 1.912025260925292969e+01 3.746501207351684570e+00 -3.756588697433471680e-01 -6.265622377395629883e-02 -1.314945220947265625e-01 1.573347300291061401e-01
8.610000000000000000e+02 2.037083244323730469e+01 3.070988893508911133e+00 -4.827091693878173828e-01 -1.001066863536834717e-01 -1.748447567224502563e-01 1.395053416490554810e-01
8.620000000000000000e+02 2.151397705078125000e+01 3.580231904983520508e+00 -3.624874651432037354e-01 -1.117587089538574219e-01 -1.422738581895828247e-01 1.507096141576766968e-01
8.630000000000000000e+02 2.262473678588867188e+01 2.446845054626464844e+00 -5.588765740394592285e-01 -8.200647681951522827e-02 -1.922649145126342773e-01 2.070118188858032227e-01
8.640000000000000000e+02 2.413437080383300781e+01 2.028386592864990234e+00 -6.012184619903564453e-01 -6.715206056833267212e-02 -2.005111575126647949e-01 2.335063219070434570e-01
8.650000000000000000e+02 2.488215637207031250e+01 1.814063787460327148e+00 -6.296839118003845215e-01 -5.507288128137588501e-02 -2.054270356893539429e-01 2.278381735086441040e-01
8.660000000000000000e+02 2.637072372436523438e+01 1.394154310226440430e+00 -6.872068047523498535e-01 2.522889117244631052e-04 -2.060863524675369263e-01 1.891014426946640015e-01
8.670000000000000000e+02 2.812279319763183594e+01 1.627081871032714844e+00 -6.405233144760131836e-01 1.418982297182083130e-01 -1.495875269174575806e-01 1.056099608540534973e-01
8.680000000000000000e+02 3.052744865417480469e+01 4.405961990356445312e+00 4.901690036058425903e-02 1.765736788511276245e-01 6.767717748880386353e-02 -1.380954086780548096e-01
8.690000000000000000e+02 2.995664596557617188e+01 4.872281551361083984e+00 1.264847517013549805e-01 4.364791512489318848e-01 1.688891798257827759e-01 -1.880273222923278809e-01
8.700000000000000000e+02 2.860871696472167969e+01 8.197926282882690430e-01 -7.367318272590637207e-01 1.231871321797370911e-01 -1.840634047985076904e-01 6.370931863784790039e-02
8.710000000000000000e+02 2.934192085266113281e+01 6.371870040893554688e-01 -7.657106518745422363e-01 1.728615462779998779e-01 -1.778547316789627075e-01 -3.449327545240521431e-03
8.720000000000000000e+02 3.006086349487304688e+01 4.777384996414184570e-01 -7.513681650161743164e-01 1.668914109468460083e-01 -1.753430217504501343e-01 -3.943134844303131104e-02
8.730000000000000000e+02 3.085395812988281250e+01 2.277379274368286133e+00 -6.335110664367675781e-01 2.237467616796493530e-01 -1.229292899370193481e-01 1.540311612188816071e-02
8.740000000000000000e+02 3.284465408325195312e+01 2.378867626190185547e+00 -6.972313523292541504e-01 -2.562860250473022461e-01 -2.860552072525024414e-01 3.915038406848907471e-01
8.750000000000000000e+02 3.411200714111328125e+01 1.642157793045043945e+00 -3.358839511871337891e+00 -2.822921872138977051e-01 -1.092339515686035156e+00 6.601721048355102539e-01
8.760000000000000000e+02 3.187255668640136719e+01 2.467925548553466797e+00 -5.862601399421691895e-01 7.357452064752578735e-02 -1.538056880235671997e-01 1.238674297928810120e-01
8.770000000000000000e+02 2.668712234497070312e+01 1.988588929176330566e+00 -5.757156014442443848e-01 5.659220740199089050e-02 -1.557370275259017944e-01 1.806061118841171265e-01
8.780000000000000000e+02 2.859596061706542969e+01 6.512276172637939453e+00 1.619029641151428223e-01 6.545791029930114746e-01 2.449446171522140503e-01 3.693879023194313049e-02
8.790000000000000000e+02 2.923630142211914062e+01 7.355691909790039062e+00 7.230164110660552979e-02 1.046460390090942383e+00 3.356286287307739258e-01 1.034531220793724060e-01
8.800000000000000000e+02 2.967053794860839844e+01 9.229665756225585938e+00 2.368687689304351807e-01 1.058371186256408691e+00 3.885719776153564453e-01 4.440322816371917725e-01
8.810000000000000000e+02 3.556150817871093750e+01 1.252851200103759766e+01 -1.338182926177978516e+00 -6.104638576507568359e-01 -5.845940113067626953e-01 6.001690030097961426e-01
8.820000000000000000e+02 3.828546142578125000e+01 9.728569030761718750e+00 -9.838146567344665527e-01 -1.545154452323913574e+00 -7.586907148361206055e-01 1.152869462966918945e+00
8.830000000000000000e+02 3.910375213623046875e+01 8.313344001770019531e+00 -3.798703849315643311e-01 -1.216237306594848633e+00 -4.788323044776916504e-01 6.299070119857788086e-01
8.840000000000000000e+02 3.945696640014648438e+01 6.655282974243164062e+00 -9.490725398063659668e-02 -2.827932834625244141e-01 -1.133101582527160645e-01 2.381961196660995483e-01
8.850000000000000000e+02 4.032085037231445312e+01 2.956499099731445312e+00 -8.648169040679931641e-01 -3.384739756584167480e-01 -3.609872758388519287e-01 -7.169128060340881348e-01
8.860000000000000000e+02 3.803178405761718750e+01 3.066138744354248047e+00 1.660644292831420898e+00 1.140323638916015625e+00 8.402903676033020020e-01 1.167622327804565430e+00
8.870000000000000000e+02 3.857883071899414062e+01 3.293829917907714844e+00 6.453441977500915527e-01 2.255388647317886353e-01 2.612649202346801758e-01 4.706377983093261719e-01
8.880000000000000000e+02 4.187871551513671875e+01 2.252040624618530273e+00 -8.799113631248474121e-01 -8.871080353856086731e-03 -2.666347324848175049e-01 -1.031221169978380203e-02
8.890000000000000000e+02 4.326652908325195312e+01 1.729976296424865723e+00 -7.578908801078796387e-01 9.450822137296199799e-03 -2.245320230722427368e-01 8.861061930656433105e-02
8.900000000000000000e+02 4.392551040649414062e+01 1.500205755233764648e+00 -7.566277980804443359e-01 -2.592798089608550072e-03 -2.277661710977554321e-01 6.937610357999801636e-02
8.910000000000000000e+02 4.458226013183593750e+01 1.275609850883483887e+00 -6.831027269363403320e-01 2.942421473562717438e-03 -2.040480822324752808e-01 1.140572279691696167e-01
8.920000000000000000e+02 4.774015426635742188e+01 9.293875098228454590e-01 -8.663437366485595703e-01 4.390791524201631546e-03 -2.585858702659606934e-01 2.053433209657669067e-01
8.930000000000000000e+02 4.852186203002929688e+01 6.475532531738281250e+00 -1.690669298171997070e+00 -1.010174036026000977e+00 -8.102530241012573242e-01 1.113503456115722656e+00
8.940000000000000000e+02 5.104173660278320312e+01 3.673592567443847656e+00 -1.317298293113708496e+00 -1.688273623585700989e-02 -4.002542793750762939e-01 1.030645489692687988e+00
8.950000000000000000e+02 4.769430541992187500e+01 1.694416403770446777e+00 -9.637106060981750488e-01 -5.630622431635856628e-02 -3.060050606727600098e-01 3.052099347114562988e-01
8.960000000000000000e+02 5.112386322021484375e+01 5.763078212738037109e+00 -5.665728449821472168e-01 1.261501014232635498e-01 -1.321268230676651001e-01 4.492437839508056641e-01
8.970000000000000000e+02 5.289230346679687500e+01 6.556632995605468750e+00 1.170992374420166016e+00 7.663464546203613281e-01 5.812016725540161133e-01 8.942998647689819336e-01
8.980000000000000000e+02 5.606277465820312500e+01 1.786755919456481934e+00 -2.635998964309692383e+00 -1.535835117101669312e-01 -8.368747234344482422e-01 4.439742267131805420e-01
8.990000000000000000e+02 5.350312042236328125e+01 7.031869411468505859e+00 1.110350489616394043e+00 1.052122950553894043e+00 6.487420201301574707e-01 9.868609309196472168e-01
9.000000000000000000e+02 5.535656738281250000e+01 2.576714515686035156e+00 -2.016042947769165039e+00 -1.020603701472282410e-01 -6.354309916496276855e-01 4.106382727622985840e-01
9.010000000000000000e+02 6.069300842285156250e+01 -1.662575483322143555e+00 -1.037953376770019531e+00 -3.196210134774446487e-03 -3.123448789119720459e-01 5.421552658081054688e-01
9.020000000000000000e+02 6.015688705444335938e+01 -1.733464121818542480e+00 -7.848711609840393066e-01 -3.748241961002349854e-01 -3.479086160659790039e-01 5.936928391456604004e-01
9.030000000000000000e+02 6.197943496704101562e+01 -1.454602718353271484e+00 -1.298062086105346680e+00 2.410291582345962524e-01 -3.171098828315734863e-01 3.661111891269683838e-01
9.040000000000000000e+02 6.594933319091796875e+01 9.133351445198059082e-01 -1.192702531814575195e+00 2.379814386367797852e-01 -2.864163517951965332e-01 -1.141705289483070374e-01
9.050000000000000000e+02 6.522418975830078125e+01 -9.249292016029357910e-01 -1.420130610466003418e+00 2.039263248443603516e-01 -3.648613095283508301e-01 -1.169993802905082703e-01
9.060000000000000000e+02 6.437866973876953125e+01 -1.075028777122497559e+00 -1.404109477996826172e+00 2.002715319395065308e-01 -3.611513674259185791e-01 1.546576991677284241e-02
9.070000000000000000e+02 6.608048248291015625e+01 -8.021449446678161621e-01 -1.551091551780700684e+00 2.226742804050445557e-01 -3.985251784324645996e-01 -1.962044686079025269e-01
9.080000000000000000e+02 6.693433380126953125e+01 -7.097921967506408691e-01 -1.712267518043518066e+00 1.941811293363571167e-01 -4.554259181022644043e-01 -1.779407858848571777e-01
9.090000000000000000e+02 6.758856964111328125e+01 4.291023731231689453e+00 -6.361919641494750977e-02 -9.127838909626007080e-02 -4.646927863359451294e-02 -6.519373655319213867e-01
9.100000000000000000e+02 7.228058624267578125e+01 -3.151757419109344482e-01 -1.372752189636230469e+00 2.741980075836181641e+00 4.107683300971984863e-01 -1.706236839294433594e+00
9.110000000000000000e+02 7.384849548339843750e+01 -3.207775115966796875e+00 2.171767473220825195e+00 8.608644485473632812e+00 3.234123706817626953e+00 -4.032490730285644531e+00
9.120000000000000000e+02 7.730410003662109375e+01 -6.931993007659912109e+00 1.366338610649108887e+00 1.212490749359130859e+01 4.047373771667480469e+00 3.000542521476745605e-01
9.130000000000000000e+02 7.480342102050781250e+01 -5.427622318267822266e+00 1.929124832153320312e+00 2.145950698852539062e+01 7.016589641571044922e+00 -4.701030731201171875e+00
9.140000000000000000e+02 7.497252655029296875e+01 -6.228677749633789062e+00 1.249239206314086914e+00 2.515443038940429688e+01 7.921101093292236328e+00 -2.515438079833984375e+00
9.150000000000000000e+02 7.563513183593750000e+01 -7.049157619476318359e+00 1.193122863769531250e+00 2.061845207214355469e+01 6.543472766876220703e+00 -6.680625081062316895e-01
9.160000000000000000e+02 7.505089569091796875e+01 -8.691440582275390625e+00 1.840220570564270020e+00 2.467597579956054688e+01 7.954858779907226562e+00 2.445084333419799805e+00
9.170000000000000000e+02 7.351731872558593750e+01 -1.108951187133789062e+01 2.239485740661621094e+00 4.075595378875732422e+00 1.894524335861206055e+00 2.822622537612915039e+00
9.180000000000000000e+02 6.827995300292968750e+01 -1.486736106872558594e+01 -4.281675517559051514e-01 -2.354236394166946411e-01 -1.990773528814315796e-01 1.416152834892272949e+00
9.190000000000000000e+02 6.805336761474609375e+01 -1.117459964752197266e+01 -3.113764047622680664e+00 -1.627709865570068359e+00 -1.422442197799682617e+00 2.159459590911865234e+00
9.200000000000000000e+02 6.631053924560546875e+01 -9.371943473815917969e+00 -1.214828491210937500e+00 -9.008924961090087891e-01 -6.347162723541259766e-01 9.928608536720275879e-01
9.210000000000000000e+02 6.531433105468750000e+01 -8.954715728759765625e+00 -1.087005734443664551e+00 -9.026797860860824585e-02 -3.531821072101593018e-01 6.410208344459533691e-01
9.220000000000000000e+02 6.550940704345703125e+01 -5.421029567718505859e+00 -2.275385428220033646e-03 8.008161932229995728e-02 2.334186993539333344e-02 -1.131279021501541138e-02
9.230000000000000000e+02 4.656373214721679688e+01 -2.876419448852539062e+01 5.561971664428710938e-01 2.732242047786712646e-01 2.488264143466949463e-01 -3.504295647144317627e-01
9.240000000000000000e+02 4.940106582641601562e+01 -3.189521408081054688e+01 1.441333293914794922e-01 4.884121716022491455e-01 1.897636502981185913e-01 -2.282162308692932129e-01
9.250000000000000000e+02 4.721949386596679688e+01 -3.669732284545898438e+01 3.556971251964569092e-01 4.943508282303810120e-02 1.215396672487258911e-01 1.403464227914810181e-01
9.260000000000000000e+02 4.658122253417968750e+01 -3.725484848022460938e+01 6.081300377845764160e-01 8.986567705869674683e-02 2.093987166881561279e-01 1.476601511240005493e-01
9.270000000000000000e+02 4.518725585937500000e+01 -4.052431106567382812e+01 8.281708955764770508e-01 1.952587217092514038e-01 3.070288896560668945e-01 -5.738559365272521973e-02
9.280000000000000000e+02 4.487373733520507812e+01 -3.802801513671875000e+01 9.955897331237792969e-01 1.002872735261917114e-01 3.287630975246429443e-01 9.936463087797164917e-02
9.290000000000000000e+02 4.011618804931640625e+01 -3.539012908935546875e+01 3.085265159606933594e-01 1.513300091028213501e-01 1.379569470882415771e-01 -2.415087074041366577e-01
9.300000000000000000e+02 3.924905776977539062e+01 -3.407603073120117188e+01 7.147074490785598755e-02 -2.892556786537170410e-01 -6.533548235893249512e-02 -1.589205712080001831e-01
9.310000000000000000e+02 3.960183715820312500e+01 -3.135023307800292969e+01 -1.155246049165725708e-01 -8.263076543807983398e-01 -2.825496792793273926e-01 -2.678466737270355225e-01
9.320000000000000000e+02 4.076383972167968750e+01 -2.926632118225097656e+01 -3.302755951881408691e-02 -3.408492803573608398e-01 -1.121630519628524780e-01 -1.401551514863967896e-01
9.330000000000000000e+02 4.132322692871093750e+01 -2.865444755554199219e+01 5.471190437674522400e-02 -1.772151738405227661e-01 -3.675098344683647156e-02 -4.992271214723587036e-02
9.340000000000000000e+02 6.192427825927734375e+01 3.379973983764648438e+01 6.005437374114990234e-01 9.326586127281188965e-01 4.599606990814208984e-01 -7.082701325416564941e-01
9.350000000000000000e+02 6.291284942626953125e+01 3.280737686157226562e+01 7.614946961402893066e-01 2.519551277160644531e+00 9.843137860298156738e-01 -9.843068122863769531e-01
9.360000000000000000e+02 6.321071243286132812e+01 2.854773712158203125e+01 1.563539914786815643e-02 2.191920518875122070e+00 6.622667908668518066e-01 -1.430577691644430161e-02
9.370000000000000000e+02 6.316512680053710938e+01 2.701305198669433594e+01 2.323295772075653076e-01 2.566340923309326172e+00 8.396011590957641602e-01 3.970378637313842773e-01
9.380000000000000000e+02 6.238730621337890625e+01 2.522335052490234375e+01 8.558042645454406738e-01 1.440955281257629395e+00 6.890278458595275879e-01 9.160878062248229980e-01
9.390000000000000000e+02 6.113455200195312500e+01 2.437353324890136719e+01 7.851059436798095703e-01 5.080990791320800781e-01 3.879615068435668945e-01 5.819351673126220703e-01
9.400000000000000000e+02 5.893613815307617188e+01 2.351854515075683594e+01 -2.329113334417343140e-02 4.420564323663711548e-02 6.274353247135877609e-03 6.636116653680801392e-02
9.410000000000000000e+02 5.811925125122070312e+01 2.333300209045410156e+01 -2.696801535785198212e-02 6.117027997970581055e-02 1.026067882776260376e-02 -4.570965468883514404e-02
9.420000000000000000e+02 5.480742263793945312e+01 2.545326995849609375e+01 3.802485167980194092e-01 7.244136333465576172e-01 3.313986361026763916e-01 -4.955238699913024902e-01
9.430000000000000000e+02 5.431232070922851562e+01 2.598780822753906250e+01 3.422585129737854004e-01 1.173980474472045898e+00 4.548716843128204346e-01 -4.675954282283782959e-01
9.440000000000000000e+02 5.387442398071289062e+01 2.718329811096191406e+01 2.028134167194366455e-01 1.618468403816223145e+00 5.463845729827880859e-01 -2.492493987083435059e-01
9.450000000000000000e+02 5.390398406982421875e+01 3.029267883300781250e+01 8.052254468202590942e-02 1.765907883644104004e+00 5.539290904998779297e-01 1.256861686706542969e-01
9.460000000000000000e+02 5.360040664672851562e+01 3.310332489013671875e+01 3.970092236995697021e-01 1.181193232536315918e+00 4.734607338905334473e-01 3.167466521263122559e-01
9.470000000000000000e+02 5.489887619018554688e+01 3.338823699951171875e+01 5.366008281707763672e-01 1.066043615341186523e+00 4.807933568954467773e-01 6.420872211456298828e-01
9.480000000000000000e+02 5.540292358398437500e+01 3.405816268920898438e+01 6.136051416397094727e-01 8.138269782066345215e-01 4.282296299934387207e-01 6.119647026062011719e-01
9.490000000000000000e+02 5.762738037109375000e+01 3.552065277099609375e+01 8.731113672256469727e-01 3.357709050178527832e-01 3.626646697521209717e-01 2.278823107481002808e-01
9.500000000000000000e+02 5.897428894042968750e+01 3.585562896728515625e+01 7.312315702438354492e-01 1.933231055736541748e-01 2.773663997650146484e-01 -5.697482451796531677e-02
9.510000000000000000e+02 4.250981140136718750e+01 3.300135421752929688e+01 1.791289597749710083e-01 -2.325209602713584900e-02 4.676305875182151794e-02 -2.694206126034259796e-02
9.520000000000000000e+02 4.476081848144531250e+01 3.068589210510253906e+01 -9.177923947572708130e-02 -1.851483881473541260e-01 -8.307828754186630249e-02 1.262530982494354248e-01
9.530000000000000000e+02 4.579224777221679688e+01 2.844854354858398438e+01 -1.764631271362304688e-02 -4.033723473548889160e-02 -1.739506423473358154e-02 6.920893490314483643e-02
9.540000000000000000e+02 4.583642578125000000e+01 2.680788230895996094e+01 1.289636828005313873e-02 2.637082934379577637e-01 8.298140019178390503e-02 7.533767819404602051e-02
9.550000000000000000e+02 4.402434539794921875e+01 2.305828475952148438e+01 7.154847979545593262e-01 4.986540675163269043e-01 3.642416596412658691e-01 5.353303551673889160e-01
9.560000000000000000e+02 4.009142303466796875e+01 2.184522247314453125e+01 4.157846868038177490e-01 -8.824500441551208496e-02 9.826190769672393799e-02 1.433032304048538208e-01
9.570000000000000000e+02 3.785801696777343750e+01 2.319511795043945312e+01 -4.220460057258605957e-01 -4.914037287235260010e-01 -2.740349173545837402e-01 4.460830688476562500e-01
9.580000000000000000e+02 3.620722961425781250e+01 2.499733352661132812e+01 -4.767938256263732910e-01 -7.593922019004821777e-01 -3.708558082580566406e-01 5.487328767776489258e-01
9.590000000000000000e+02 3.576840591430664062e+01 2.569926643371582031e+01 -3.229235112667083740e-01 -8.560776710510253906e-01 -3.537003695964813232e-01 4.586565494537353516e-01
9.600000000000000000e+02 3.508887100219726562e+01 3.194015693664550781e+01 2.760281562805175781e-01 -1.210629343986511230e-01 4.648956656455993652e-02 1.707544922828674316e-01
9.610000000000000000e+02 3.637015533447265625e+01 3.218619537353515625e+01 2.575905323028564453e-01 1.791768372058868408e-01 1.310302168130874634e-01 2.078007459640502930e-01
9.620000000000000000e+02 3.916317749023437500e+01 3.427491378784179688e+01 1.071533441543579102e+00 1.684934347867965698e-01 3.720080554485321045e-01 1.958184540271759033e-01
9.630000000000000000e+02 3.994091415405273438e+01 3.429315567016601562e+01 1.008034348487854004e+00 1.456514000892639160e-01 3.461057245731353760e-01 7.097236346453428268e-03
9.640000000000000000e+02 2.971648597717285156e+01 2.664829063415527344e+01 -7.735526561737060547e-01 -7.585179209709167480e-01 -4.596211910247802734e-01 7.184810042381286621e-01
9.650000000000000000e+02 3.028123092651367188e+01 2.605816650390625000e+01 -7.270509600639343262e-01 -9.701331853866577148e-01 -5.091552138328552246e-01 7.772840261459350586e-01
9.660000000000000000e+02 3.142178726196289062e+01 2.390739250183105469e+01 -1.876996904611587524e-01 -1.278932452201843262e+00 -4.399896562099456787e-01 3.721974194049835205e-01
9.670000000000000000e+02 3.155990409851074219e+01 2.310776138305664062e+01 -6.190720200538635254e-02 -9.892773628234863281e-01 -3.153553605079650879e-01 1.826429218053817749e-01
9.680000000000000000e+02 3.224203872680664062e+01 1.984909629821777344e+01 3.090218454599380493e-02 -2.103721797466278076e-01 -5.384099856019020081e-02 2.433414757251739502e-01
9.690000000000000000e+02 3.158311271667480469e+01 1.990217781066894531e+01 1.521915104240179062e-02 -1.891749203205108643e-01 -5.218673124909400940e-02 8.600144088268280029e-02
9.700000000000000000e+02 3.156486892700195312e+01 1.911589241027832031e+01 3.222957020625472069e-03 4.912377521395683289e-02 1.570401899516582489e-02 1.108608618378639221e-01
9.710000000000000000e+02 3.153653144836425781e+01 1.832700347900390625e+01 5.964783206582069397e-02 4.153306186199188232e-01 1.424935460090637207e-01 1.838710904121398926e-01
9.720000000000000000e+02 2.891621208190917969e+01 1.544782829284667969e+01 -1.454175710678100586e-01 9.789803624153137207e-02 -1.425585895776748657e-02 1.424835324287414551e-01
9.730000000000000000e+02 2.571812629699707031e+01 1.580136013031005859e+01 -6.510328650474548340e-01 -2.682051062583923340e-01 -2.757713794708251953e-01 3.176393508911132812e-01
9.740000000000000000e+02 2.454183006286621094e+01 1.692965698242187500e+01 -3.193708360195159912e-01 -2.858149409294128418e-01 -1.815557330846786499e-01 2.932049036026000977e-01
9.750000000000000000e+02 2.290409660339355469e+01 1.877343750000000000e+01 -1.911268234252929688e-01 -4.848563969135284424e-01 -2.027949690818786621e-01 2.414000183343887329e-01
9.760000000000000000e+02 2.238950729370117188e+01 2.120084953308105469e+01 -1.526247244328260422e-02 -5.540878772735595703e-01 -1.708051115274429321e-01 -2.408493077382445335e-03
9.770000000000000000e+02 2.287189102172851562e+01 2.438839149475097656e+01 5.613449588418006897e-02 -1.214994043111801147e-01 -1.960947364568710327e-02 8.610769361257553101e-02
9.780000000000000000e+02 1.954470825195312500e+01 2.563740539550781250e+01 4.504740238189697266e-01 1.047732774168252945e-02 1.382854133844375610e-01 3.349291682243347168e-01
9.790000000000000000e+02 2.244698905944824219e+01 2.535014152526855469e+01 2.616288661956787109e-01 -2.923708781599998474e-02 6.971753388643264771e-02 3.341165482997894287e-01
9.800000000000000000e+02 2.372347450256347656e+01 2.657657814025878906e+01 2.839852571487426758e-01 6.476984620094299316e-01 2.795051038265228271e-01 4.213934242725372314e-01
9.810000000000000000e+02 2.309966468811035156e+01 2.514661979675292969e+01 1.259298026561737061e-01 1.429430395364761353e-01 8.066184818744659424e-02 1.816238164901733398e-01
9.820000000000000000e+02 2.405662727355957031e+01 2.727718734741210938e+01 3.965806961059570312e-01 7.944499850273132324e-01 3.573092222213745117e-01 5.456787943840026855e-01
9.830000000000000000e+02 6.788330841064453125e+01 1.938468360900878906e+01 4.080946445465087891e-01 8.636784553527832031e-01 3.815319240093231201e-01 -6.288229823112487793e-01
9.840000000000000000e+02 6.954213714599609375e+01 1.776360893249511719e+01 1.542140364646911621e+00 2.136112928390502930e+00 1.103475928306579590e+00 -1.782689332962036133e+00
9.850000000000000000e+02 7.062220764160156250e+01 1.663010025024414062e+01 2.251718759536743164e+00 4.823004245758056641e+00 2.122416973114013672e+00 -3.040693283081054688e+00
9.860000000000000000e+02 7.111744689941406250e+01 1.599769496917724609e+01 2.131586313247680664e+00 6.917850017547607422e+00 2.714830875396728516e+00 -3.428424835205078125e+00
9.870000000000000000e+02 7.157695007324218750e+01 1.528748130798339844e+01 1.773743152618408203e+00 9.186555862426757812e+00 3.288089752197265625e+00 -2.855048894882202148e+00
9.880000000000000000e+02 6.953214263916015625e+01 7.844110488891601562e+00 -1.676768302917480469e+00 -5.361392498016357422e-01 -6.638722419738769531e-01 -8.972557187080383301e-01
9.890000000000000000e+02 6.630754852294921875e+01 7.004797458648681641e+00 -1.733186990022659302e-01 -2.468148618936538696e-02 -5.940005555748939514e-02 -3.536791205406188965e-01
9.900000000000000000e+02 6.548152160644531250e+01 7.072804927825927734e+00 7.832354903221130371e-01 2.691185474395751953e-01 3.157061934471130371e-01 -5.610403418540954590e-01
9.910000000000000000e+02 6.178814697265625000e+01 8.875538825988769531e+00 8.168136477470397949e-01 1.603014707565307617e+00 7.259485125541687012e-01 -9.454576969146728516e-01
9.920000000000000000e+02 6.286844635009765625e+01 8.910810470581054688e+00 1.184696912765502930e+00 1.299621105194091797e+00 7.452954053878784180e-01 -1.231874823570251465e+00
9.930000000000000000e+02 6.135207748413085938e+01 1.078746700286865234e+01 8.805369734764099121e-01 3.297899246215820312e+00 1.253530859947204590e+00 -1.267432928085327148e+00
9.940000000000000000e+02 6.035421371459960938e+01 1.279477119445800781e+01 2.528071701526641846e-01 2.625210523605346680e+00 8.634052872657775879e-01 -2.897593379020690918e-01
9.950000000000000000e+02 6.085039138793945312e+01 1.422947978973388672e+01 7.827354222536087036e-02 2.786650896072387695e+00 8.594773411750793457e-01 6.783312559127807617e-02
9.960000000000000000e+02 6.096000289916992188e+01 1.499163818359375000e+01 1.076906248927116394e-01 2.711361646652221680e+00 8.457157015800476074e-01 2.332703471183776855e-01
9.970000000000000000e+02 6.297351074218750000e+01 1.927860450744628906e+01 -4.484596475958824158e-02 5.784108042716979980e-01 1.600694507360458374e-01 3.786278367042541504e-01
9.980000000000000000e+02 6.605161285400390625e+01 2.018014335632324219e+01 -1.155253767967224121e+00 -1.301143970340490341e-02 -3.504795730113983154e-01 -1.875592619180679321e-01
9.990000000000000000e+02 1.149623775482177734e+01 3.617753982543945312e+01 1.976819336414337158e-01 1.616421714425086975e-02 6.415384262800216675e-02 9.781012684106826782e-02
1.000000000000000000e+03 1.193091201782226562e+01 3.458723449707031250e+01 2.257419824600219727e-01 9.636799222789704800e-04 6.801170110702514648e-02 5.464439280331134796e-03
1.001000000000000000e+03 1.270865440368652344e+01 3.445074081420898438e+01 2.027688473463058472e-01 4.078296478837728500e-03 6.205414608120918274e-02 1.956215826794505119e-03
1.002000000000000000e+03 1.345015716552734375e+01 3.431259918212890625e+01 1.700846999883651733e-01 -2.248164266347885132e-03 5.035096034407615662e-02 -1.639238442294299603e-03
1.003000000000000000e+03 1.659099769592285156e+01 3.334721374511718750e+01 -1.140976995229721069e-01 -1.211013942956924438e-01 -7.055973261594772339e-02 1.313350945711135864e-01
1.004000000000000000e+03 1.790812110900878906e+01 3.239422988891601562e+01 -2.441884428262710571e-01 -2.986242175102233887e-01 -1.628437936305999756e-01 2.546455860137939453e-01
1.005000000000000000e+03 1.849108695983886719e+01 3.184563636779785156e+01 -2.730931043624877930e-01 -4.481959640979766846e-01 -2.163867205381393433e-01 3.108161091804504395e-01
1.006000000000000000e+03 1.947469711303710938e+01 2.651760673522949219e+01 2.224836200475692749e-01 -6.584073603153228760e-02 4.699286445975303650e-02 2.385207414627075195e-01
1.007000000000000000e+03 2.057393074035644531e+01 2.490565299987792969e+01 4.268841445446014404e-01 -1.786701977252960205e-01 7.446417957544326782e-02 3.177488446235656738e-01
1.008000000000000000e+03 1.399355697631835938e+01 2.307500648498535156e+01 4.949655532836914062e-01 6.994654983282089233e-02 1.694736331701278687e-01 1.976791322231292725e-01
1.009000000000000000e+03 1.320365142822265625e+01 2.289872169494628906e+01 2.722267210483551025e-01 4.208629205822944641e-02 9.429390728473663330e-02 1.465818434953689575e-01
1.010000000000000000e+03 1.154981327056884766e+01 2.278019905090332031e+01 -1.245994120836257935e-01 -7.709781057201325893e-04 -3.761111944913864136e-02 9.489054977893829346e-02
1.011000000000000000e+03 1.072852802276611328e+01 2.289003753662109375e+01 -2.832879424095153809e-01 -1.721090078353881836e-02 -9.014965593814849854e-02 9.772012382745742798e-02
1.012000000000000000e+03 6.286400318145751953e+00 2.591193389892578125e+01 -2.693279385566711426e-01 -7.971050739288330078e-01 -3.199298977851867676e-01 3.542044460773468018e-01
1.013000000000000000e+03 5.655284881591796875e+00 2.636718177795410156e+01 -2.187863439321517944e-01 -7.624393701553344727e-01 -2.943677306175231934e-01 2.286986559629440308e-01
1.014000000000000000e+03 6.021243095397949219e+00 2.947569847106933594e+01 3.023001598194241524e-03 -4.646330177783966064e-01 -1.384830027818679810e-01 -1.808861386962234974e-03
1.015000000000000000e+03 5.800730705261230469e+00 3.131197166442871094e+01 6.915136426687240601e-02 -2.376296520233154297e-01 -5.054348707199096680e-02 9.712605178356170654e-02
1.016000000000000000e+03 6.632946491241455078e+00 3.176312065124511719e+01 5.233384668827056885e-02 -6.558994296938180923e-03 1.373245567083358765e-02 6.389180570840835571e-02
1.017000000000000000e+03 7.406372547149658203e+00 3.318630218505859375e+01 2.071065604686737061e-01 1.891610920429229736e-01 1.188802942633628845e-01 1.927358210086822510e-01
1.018000000000000000e+03 9.372861862182617188e+00 3.473086929321289062e+01 5.145595073699951172e-01 1.180492416024208069e-01 1.897826343774795532e-01 1.615906953811645508e-01
1.019000000000000000e+03 2.306012535095214844e+01 -2.906805038452148438e+01 1.891879439353942871e-01 1.145378202199935913e-01 9.111773222684860229e-02 -1.476984173059463501e-01
1.020000000000000000e+03 2.399360275268554688e+01 -3.041168594360351562e+01 3.967220336198806763e-02 -1.131171882152557373e-01 -2.203349582850933075e-02 -9.147081524133682251e-03
1.021000000000000000e+03 2.434682846069335938e+01 -3.116839408874511719e+01 -2.891622483730316162e-03 -2.866446077823638916e-01 -8.686086535453796387e-02 2.554537728428840637e-02
1.022000000000000000e+03 2.535776901245117188e+01 -3.440281295776367188e+01 -5.913063418120145798e-03 -4.243879914283752441e-01 -1.290903240442276001e-01 -3.962005302309989929e-02
1.023000000000000000e+03 2.467386436462402344e+01 -3.523482894897460938e+01 3.395492967683821917e-04 -5.322783589363098145e-01 -1.595816463232040405e-01 -1.970153488218784332e-02
1.024000000000000000e+03 2.205399894714355469e+01 -3.944025802612304688e+01 3.122464418411254883e-01 -8.791455184109508991e-04 9.341019392013549805e-02 8.689067512750625610e-02
1.025000000000000000e+03 1.990329170227050781e+01 -4.016357040405273438e+01 5.972197055816650391e-01 7.038787752389907837e-02 2.002822756767272949e-01 1.291651427745819092e-01
1.026000000000000000e+03 1.912977218627929688e+01 -4.036547470092773438e+01 5.769832730293273926e-01 2.381362393498420715e-02 1.802390813827514648e-01 9.363209456205368042e-02
1.027000000000000000e+03 1.503037548065185547e+01 -3.870312881469726562e+01 2.008335739374160767e-01 1.210332140326499939e-01 9.656003117561340332e-02 -1.362803727388381958e-01
1.028000000000000000e+03 1.322538471221923828e+01 -3.609129333496093750e+01 2.830607630312442780e-02 -1.280322521924972534e-01 -2.991785295307636261e-02 -2.165813744068145752e-02
1.029000000000000000e+03 1.302793121337890625e+01 -3.362736892700195312e+01 -1.942496933043003082e-02 -4.055438935756683350e-01 -1.274906545877456665e-01 -6.014797091484069824e-02
1.030000000000000000e+03 1.261216259002685547e+01 -3.179774284362792969e+01 -1.189001575112342834e-01 -3.976373076438903809e-01 -1.549612432718276978e-01 -1.588735878467559814e-01
1.031000000000000000e+03 1.329765605926513672e+01 -3.197782135009765625e+01 -8.720444887876510620e-02 -5.407074689865112305e-01 -1.883735805749893188e-01 -1.731776744127273560e-01
1.032000000000000000e+03 1.437548351287841797e+01 -2.973545265197753906e+01 -1.894839853048324585e-01 -4.564579427242279053e-01 -1.937825828790664673e-01 -2.783445119857788086e-01
1.033000000000000000e+03 1.486447906494140625e+01 -2.907883644104003906e+01 -2.126273065805435181e-01 -4.041843712329864502e-01 -1.850434988737106323e-01 -2.779733538627624512e-01
1.034000000000000000e+03 1.654924201965332031e+01 -2.730421829223632812e+01 -1.166969463229179382e-01 -1.863701343536376953e-01 -9.092012792825698853e-02 -1.528313755989074707e-01
1.035000000000000000e+03 1.888494300842285156e+01 -2.657519912719726562e+01 3.579740226268768311e-01 -2.763326466083526611e-02 9.910222887992858887e-02 -2.590056695044040680e-02
1.036000000000000000e+03 1.807945251464843750e+01 -2.666165924072265625e+01 1.950829029083251953e-01 -1.616507954895496368e-02 5.367534607648849487e-02 -5.722888559103012085e-02
1.037000000000000000e+03 3.655184555053710938e+01 -1.592856788635253906e+01 -1.448874026536941528e-01 3.754099309444427490e-01 6.915676593780517578e-02 -2.211675941944122314e-01
1.038000000000000000e+03 3.704040527343750000e+01 -1.649777793884277344e+01 2.677744925022125244e-01 6.302121877670288086e-01 2.693960070610046387e-01 -4.263003170490264893e-01
1.039000000000000000e+03 3.909757995605468750e+01 -1.990513420104980469e+01 2.437181621789932251e-01 8.379353284835815430e-01 3.244960606098175049e-01 -4.580638706684112549e-01
1.040000000000000000e+03 3.878058242797851562e+01 -1.915128517150878906e+01 2.899923920631408691e-01 9.817120432853698730e-01 3.815113306045532227e-01 -5.300644040107727051e-01
1.041000000000000000e+03 3.936118316650390625e+01 -2.067821884155273438e+01 1.838284730911254883e-01 5.991060733795166016e-01 2.348803579807281494e-01 -3.340139091014862061e-01
1.042000000000000000e+03 3.957855224609375000e+01 -2.226815223693847656e+01 2.265103161334991455e-02 -2.509804964065551758e-01 -6.849884241819381714e-02 -1.492532491683959961e-01
1.043000000000000000e+03 3.960084533691406250e+01 -2.305879592895507812e+01 -8.996275253593921661e-03 -5.998894572257995605e-01 -1.826657205820083618e-01 -1.425306051969528198e-01
1.044000000000000000e+03 4.045442199707031250e+01 -2.668614768981933594e+01 -7.646517455577850342e-02 -5.937106609344482422e-01 -2.010527402162551880e-01 -2.203812748193740845e-01
1.045000000000000000e+03 3.802944183349609375e+01 -2.691051101684570312e+01 -4.500226080417633057e-01 -6.140744686126708984e-01 -3.192291259765625000e-01 -4.834090769290924072e-01
1.046000000000000000e+03 3.865506744384765625e+01 -3.173195648193359375e+01 -1.055963486433029175e-01 -5.055882334709167480e-01 -1.833553761243820190e-01 -2.255080044269561768e-01
1.047000000000000000e+03 3.596128082275390625e+01 -2.813506698608398438e+01 -4.948387295007705688e-02 -6.927210092544555664e-02 -3.562679514288902283e-02 -1.015355437994003296e-01
1.048000000000000000e+03 3.149519729614257812e+01 -2.627170181274414062e+01 2.756071984767913818e-01 2.087465822696685791e-01 1.453061401844024658e-01 -2.405845969915390015e-01
1.049000000000000000e+03 3.035898017883300781e+01 -2.512730598449707031e+01 2.177330553531646729e-01 1.633817702531814575e-01 1.143344491720199585e-01 -1.835580319166183472e-01
1.050000000000000000e+03 2.942430686950683594e+01 -2.375392723083496094e+01 6.728113442659378052e-02 -1.653522835113108158e-03 1.968828216195106506e-02 -6.737999618053436279e-02
1.051000000000000000e+03 2.916652679443359375e+01 -2.047953414916992188e+01 -3.721673414111137390e-02 -3.607217967510223389e-01 -1.193815618753433228e-01 -8.819887787103652954e-02
1.052000000000000000e+03 3.004845237731933594e+01 -1.817613792419433594e+01 -1.579537242650985718e-01 -3.919513225555419922e-01 -1.649715155363082886e-01 -2.267628312110900879e-01
1.053000000000000000e+03 3.158582878112792969e+01 -1.628594779968261719e+01 -5.072590708732604980e-01 -3.116464316844940186e-01 -2.456716448068618774e-01 -3.655101954936981201e-01
1.054000000000000000e+03 3.222666168212890625e+01 -1.573414802551269531e+01 -7.071434855461120605e-01 -2.503992617130279541e-01 -2.872628271579742432e-01 -3.519690632820129395e-01
1.055000000000000000e+03 1.531778717041015625e+01 1.846390914916992188e+01 -5.160477757453918457e-01 -2.493890002369880676e-02 -1.622960120439529419e-01 1.392100155353546143e-01
1.056000000000000000e+03 1.643044471740722656e+01 2.330381965637207031e+01 6.523323655128479004e-01 2.397171109914779663e-01 2.676148414611816406e-01 3.513706326484680176e-01
1.057000000000000000e+03 1.954183578491210938e+01 1.596839904785156250e+01 -1.896825730800628662e-01 -2.434896230697631836e-01 -1.299516558647155762e-01 1.921866238117218018e-01
1.058000000000000000e+03 1.938965606689453125e+01 1.700639343261718750e+01 -3.073825240135192871e-01 -1.742976009845733643e-01 -1.445040404796600342e-01 1.757743358612060547e-01
1.059000000000000000e+03 2.083522224426269531e+01 1.162429046630859375e+01 1.340847555547952652e-02 -1.712677627801895142e-01 -4.735778644680976868e-02 1.365439873188734055e-02
1.060000000000000000e+03 1.918478775024414062e+01 8.741407394409179688e+00 2.357539236545562744e-01 1.654670089483261108e-01 1.203662827610969543e-01 1.920143663883209229e-01
1.061000000000000000e+03 1.662279891967773438e+01 6.407160282135009766e+00 -1.103574782609939575e-02 1.073694601655006409e-01 2.890011295676231384e-02 1.852843761444091797e-01
1.062000000000000000e+03 1.639157485961914062e+01 7.011611461639404297e+00 1.713460534811019897e-01 6.330057978630065918e-02 7.039398699998855591e-02 1.253338754177093506e-01
1.063000000000000000e+03 1.421639347076416016e+01 3.492695331573486328e+00 -2.019222825765609741e-01 -2.561866492033004761e-02 -6.826228648424148560e-02 2.152644246816635132e-01
1.064000000000000000e+03 1.068494319915771484e+01 9.366240501403808594e+00 -2.872323393821716309e-01 -3.848540484905242920e-01 -2.016259133815765381e-01 3.098483085632324219e-01
1.065000000000000000e+03 1.022521972656250000e+01 1.003560638427734375e+01 -2.144221514463424683e-01 -4.696052074432373047e-01 -2.052081972360610962e-01 2.773712277412414551e-01
1.066000000000000000e+03 9.903411865234375000e+00 1.405631065368652344e+01 6.006228551268577576e-02 1.767991483211517334e-01 7.105842977762222290e-02 1.084861755371093750e-01
1.067000000000000000e+03 1.034468841552734375e+01 1.552475452423095703e+01 2.094793319702148438e-01 3.654130697250366211e-01 1.724677234888076782e-01 2.464101314544677734e-01
1.068000000000000000e+03 1.307403373718261719e+01 1.850137519836425781e+01 1.671108007431030273e-01 2.478897869586944580e-01 1.245001778006553650e-01 2.637807726860046387e-01
1.069000000000000000e+03 1.379005336761474609e+01 1.840639305114746094e+01 9.995725750923156738e-02 1.544104367494583130e-01 7.631030678749084473e-02 2.082030028104782104e-01
1.070000000000000000e+03 5.113214874267578125e+01 1.733727073669433594e+01 5.500717461109161377e-02 5.528715997934341431e-02 3.308830037713050842e-02 -5.871670320630073547e-02
1.071000000000000000e+03 5.229546356201171875e+01 1.620960426330566406e+01 5.788861215114593506e-02 5.256078764796257019e-02 3.313482180237770081e-02 -5.767419934272766113e-02
1.072000000000000000e+03 5.339163208007812500e+01 1.498264694213867188e+01 3.681301325559616089e-02 -2.651981078088283539e-02 3.087960416451096535e-03 -1.869681105017662048e-02
1.073000000000000000e+03 6.076329803466796875e+01 1.682425498962402344e+01 2.516285181045532227e-01 1.874815821647644043e+00 6.379333138465881348e-01 3.041648268699645996e-01
1.074000000000000000e+03 5.444182586669921875e+01 1.271507453918457031e+01 -1.261772960424423218e-02 -3.571404814720153809e-01 -1.109274700284004211e-01 4.454132169485092163e-02
1.075000000000000000e+03 5.460525894165039062e+01 1.028900337219238281e+01 3.312184661626815796e-02 -5.919876322150230408e-02 -7.823075167834758759e-03 1.032349541783332825e-01
1.076000000000000000e+03 5.457082748413085938e+01 8.740242004394531250e+00 3.103709816932678223e-01 7.239876389503479004e-01 3.103075921535491943e-01 4.537491798400878906e-01
1.077000000000000000e+03 5.475408554077148438e+01 8.017526626586914062e+00 6.212374567985534668e-01 6.738117337226867676e-01 3.885147571563720703e-01 6.033408045768737793e-01
1.078000000000000000e+03 5.185237884521484375e+01 5.550678730010986328e+00 -2.723316550254821777e-01 3.800570964813232422e-01 3.231763094663619995e-02 6.519758105278015137e-01
1.079000000000000000e+03 4.875254440307617188e+01 5.799305438995361328e+00 -1.767851591110229492e+00 -8.387865424156188965e-01 -7.819914221763610840e-01 8.571212887763977051e-01
1.080000000000000000e+03 4.756484985351562500e+01 7.636005878448486328e+00 -9.325374364852905273e-01 -8.314115405082702637e-01 -5.291846990585327148e-01 8.604241013526916504e-01
1.081000000000000000e+03 4.592882156372070312e+01 9.302392005920410156e+00 -7.249785065650939941e-01 -8.441168069839477539e-01 -4.707286059856414795e-01 7.440489530563354492e-01
1.082000000000000000e+03 4.486087799072265625e+01 1.174001884460449219e+01 -6.397442519664764404e-02 1.336016207933425903e-01 2.088815718889236450e-02 1.379860639572143555e-01
1.083000000000000000e+03 4.542223739624023438e+01 1.570858764648437500e+01 1.495197862386703491e-01 8.241348266601562500e-01 2.920963764190673828e-01 3.049323558807373047e-01
1.084000000000000000e+03 4.614682006835937500e+01 2.103820800781250000e+01 4.187002778053283691e-01 4.217438697814941406e-01 2.521332502365112305e-01 2.352494001388549805e-01
1.085000000000000000e+03 1.487253856658935547e+01 -1.507407188415527344e+01 9.174965322017669678e-02 2.479190975427627563e-01 1.019006222486495972e-01 -1.403227746486663818e-01
1.086000000000000000e+03 1.566210651397705078e+01 -1.899907112121582031e+01 -3.691756352782249451e-02 -2.672290503978729248e-01 -9.124398231506347656e-02 -1.319600790739059448e-01
1.087000000000000000e+03 1.406402301788330078e+01 -2.154401588439941406e+01 -3.544626832008361816e-01 -2.668204903602600098e-01 -1.863849610090255737e-01 -3.012839853763580322e-01
1.088000000000000000e+03 1.294159126281738281e+01 -2.218795776367187500e+01 -2.706957161426544189e-01 -1.750072687864303589e-01 -1.337108910083770752e-01 -2.022083252668380737e-01
1.089000000000000000e+03 9.203307151794433594e+00 -2.285841369628906250e+01 1.854885667562484741e-01 6.290385033935308456e-03 5.753368511795997620e-02 -1.933047920465469360e-02
1.090000000000000000e+03 5.721799373626708984e+00 -2.091266822814941406e+01 7.406330108642578125e-02 4.718989878892898560e-02 3.637595847249031067e-02 -5.623327195644378662e-02
1.091000000000000000e+03 5.300870895385742188e+00 -1.780180740356445312e+01 -3.773317486047744751e-02 -2.165749073028564453e-01 -7.629242539405822754e-02 -7.493475079536437988e-02
1.092000000000000000e+03 6.864553928375244141e+00 -1.505136013031005859e+01 -9.426030516624450684e-02 -1.486273109912872314e-01 -7.286628335714340210e-02 -1.093008741736412048e-01
1.093000000000000000e+03 7.967139244079589844e+00 -1.390440940856933594e+01 -1.278489977121353149e-01 -1.015040427446365356e-01 -6.880591064691543579e-02 -9.899520128965377808e-02
1.094000000000000000e+03 9.123863220214843750e+00 -1.287441062927246094e+01 -1.523225158452987671e-01 -8.239333331584930420e-02 -7.041475176811218262e-02 -8.365718275308609009e-02
1.095000000000000000e+03 6.405384063720703125e+01 -2.852348518371582031e+01 7.257384657859802246e-01 1.294650077819824219e+00 6.061165332794189453e-01 -1.015876531600952148e+00
1.096000000000000000e+03 6.459210968017578125e+01 -2.911398887634277344e+01 1.014760017395019531e+00 1.828159570693969727e+00 8.528758883476257324e-01 -1.282458305358886719e+00
1.097000000000000000e+03 6.624414825439453125e+01 -3.094307899475097656e+01 5.930139422416687012e-01 2.463477849960327148e+00 9.169475436210632324e-01 -5.364284515380859375e-01
1.098000000000000000e+03 6.560740661621093750e+01 -3.492809677124023438e+01 3.394668996334075928e-01 2.635233163833618164e+00 8.924100399017333984e-01 4.687794446945190430e-01
1.099000000000000000e+03 6.324765014648437500e+01 -3.754686355590820312e+01 7.135832905769348145e-01 3.342086970806121826e-01 3.143376111984252930e-01 4.643842279911041260e-01
1.100000000000000000e+03 6.254091644287109375e+01 -3.793869400024414062e+01 8.853681683540344238e-01 2.728532254695892334e-01 3.474664092063903809e-01 3.195946216583251953e-01
1.101000000000000000e+03 5.789058303833007812e+01 -3.662316894531250000e+01 6.333873271942138672e-01 6.593852639198303223e-01 3.878317773342132568e-01 -6.132783889770507812e-01
1.102000000000000000e+03 5.645272445678710938e+01 -3.199567222595214844e+01 1.096189022064208984e-01 1.381652474403381348e+00 4.473814070224761963e-01 1.996040195226669312e-01
1.103000000000000000e+03 5.666933059692382812e+01 -3.121211051940917969e+01 1.620105952024459839e-01 1.274837732315063477e+00 4.310545027256011963e-01 3.628273308277130127e-01
1.104000000000000000e+03 6.204119491577148438e+01 -2.660430908203125000e+01 -2.840857803821563721e-01 2.650746107101440430e-01 -5.703347269445657730e-03 -1.089636087417602539e-01
1.105000000000000000e+03 4.284158706665039062e+01 -2.017265081405639648e+00 -4.039291739463806152e-01 -2.488596737384796143e-02 -1.286445409059524536e-01 -4.788089543581008911e-02
1.106000000000000000e+03 4.609881210327148438e+01 -3.512692928314208984e+00 -4.252640306949615479e-01 9.745487570762634277e-02 -9.834274649620056152e-02 1.123863831162452698e-02
1.107000000000000000e+03 5.207329559326171875e+01 -5.013604164123535156e+00 -9.861195087432861328e-02 -3.464732170104980469e-01 -1.335255503654479980e-01 2.491194754838943481e-01
1.108000000000000000e+03 4.786001586914062500e+01 -1.074339866638183594e+01 -1.837808489799499512e-01 5.186996459960937500e-01 1.004756316542625427e-01 -2.423796802759170532e-01
1.109000000000000000e+03 4.595143508911132812e+01 -1.229596900939941406e+01 -7.474265098571777344e-01 -2.300791442394256592e-01 -2.932516932487487793e-01 -4.158433973789215088e-01
1.110000000000000000e+03 4.449184799194335938e+01 -1.310140800476074219e+01 -1.355687618255615234e+00 -1.913866251707077026e-01 -4.641222953796386719e-01 -4.346528351306915283e-01
1.111000000000000000e+03 4.289034652709960938e+01 -1.352582073211669922e+01 -1.810102224349975586e+00 -8.771145343780517578e-02 -5.693441033363342285e-01 -1.208774298429489136e-01
1.112000000000000000e+03 4.134375381469726562e+01 -1.386663627624511719e+01 -1.281134486198425293e+00 -1.559837758541107178e-01 -4.311354756355285645e-01 8.046617358922958374e-02
1.113000000000000000e+03 3.976306915283203125e+01 -1.208287715911865234e+01 -1.874191462993621826e-01 1.095260903239250183e-01 -2.336791530251502991e-02 3.367634862661361694e-02
1.114000000000000000e+03 3.921101379394531250e+01 -1.151435852050781250e+01 2.688502147793769836e-02 2.621702849864959717e-01 8.671659231185913086e-02 -1.576273888349533081e-01
1.115000000000000000e+03 3.896111297607421875e+01 -1.439793109893798828e+01 -7.214066386222839355e-01 6.031134724617004395e-01 -3.548794239759445190e-02 -1.799416542053222656e-01
1.116000000000000000e+03 3.761538314819335938e+01 -9.808933258056640625e+00 2.883374989032745361e-01 1.121597170829772949e+00 4.229803979396820068e-01 -4.387374520301818848e-01
1.117000000000000000e+03 3.722796630859375000e+01 -8.575717926025390625e+00 1.658481359481811523e-01 1.195306062698364258e+00 4.083462655544281006e-01 -2.290448099374771118e-01
1.118000000000000000e+03 3.801683425903320312e+01 -5.516379833221435547e+00 -1.641096919775009155e-01 1.163934841752052307e-01 -1.431486383080482483e-02 -6.754980981349945068e-02
1.119000000000000000e+03 3.796822357177734375e+01 -4.006078720092773438e+00 -4.254040718078613281e-01 1.413529813289642334e-01 -8.521533012390136719e-02 -8.117666095495223999e-02
1.120000000000000000e+03 3.694866561889648438e+01 -2.632227420806884766e+00 -3.634733259677886963e-01 1.468969434499740601e-01 -6.497290730476379395e-02 2.002255525439977646e-03
1.121000000000000000e+03 7.236104583740234375e+01 -1.828137779235839844e+01 -1.367252469062805176e+00 -6.248918920755386353e-02 -4.289225041866302490e-01 9.047863483428955078e-01
1.122000000000000000e+03 7.320645904541015625e+01 -1.960531806945800781e+01 2.493952661752700806e-01 5.325416088104248047e+00 1.672443389892578125e+00 -9.494295120239257812e-01
1.123000000000000000e+03 7.422509765625000000e+01 -2.275191497802734375e+01 9.501436948776245117e-01 1.040459918975830078e+01 3.406422853469848633e+00 1.743460416793823242e+00
1.124000000000000000e+03 7.185852050781250000e+01 -2.557152557373046875e+01 1.470773100852966309e+00 1.455290794372558594e+00 8.778191804885864258e-01 1.643151164054870605e+00
1.125000000000000000e+03 7.113913726806640625e+01 -2.584603500366210938e+01 6.566386669874191284e-02 7.495335936546325684e-01 2.445592284202575684e-01 6.628665924072265625e-01
1.126000000000000000e+03 6.879026794433593750e+01 -2.606250572204589844e+01 -2.251805543899536133e+00 -2.139646410942077637e-01 -7.397310733795166016e-01 3.597592711448669434e-01
1.127000000000000000e+03 6.681260681152343750e+01 -2.467943763732910156e+01 4.024248570203781128e-02 5.976940989494323730e-01 1.913809776306152344e-01 -3.000084161758422852e-01
1.128000000000000000e+03 6.575653839111328125e+01 -2.349218559265136719e+01 6.591420173645019531e-01 1.851459741592407227e+00 7.531805038452148438e-01 -1.005221843719482422e+00
1.129000000000000000e+03 6.488636779785156250e+01 -2.306317901611328125e+01 4.424999654293060303e-01 2.453586339950561523e+00 8.688258528709411621e-01 -4.871217012405395508e-01
1.130000000000000000e+03 6.498246765136718750e+01 -2.126331520080566406e+01 1.440388560295104980e-01 3.713779926300048828e+00 1.157345652580261230e+00 -1.603454798460006714e-01
1.131000000000000000e+03 6.531838989257812500e+01 -1.781188392639160156e+01 1.268285512924194336e+00 3.765744447708129883e+00 1.510208964347839355e+00 1.592774152755737305e+00
1.132000000000000000e+03 6.624688720703125000e+01 -1.552051639556884766e+01 2.025736719369888306e-01 1.583312511444091797e+00 5.357658863067626953e-01 9.148050546646118164e-01
1.133000000000000000e+03 6.890000152587890625e+01 -1.633588218688964844e+01 -1.950351521372795105e-02 1.597496867179870605e-01 4.207385331392288208e-02 5.485751628875732422e-01
1.134000000000000000e+03 5.518800735473632812e+01 -2.172935295104980469e+01 -1.285156048834323883e-02 -3.237595558166503906e-01 -1.009833365678787231e-01 -2.289640018716454506e-03
1.135000000000000000e+03 5.338961410522460938e+01 -2.464682006835937500e+01 -5.710777640342712402e-02 -6.753212306648492813e-03 -1.915829628705978394e-02 -3.247089311480522156e-02
1.136000000000000000e+03 4.835889816284179688e+01 -2.510675811767578125e+01 3.847483992576599121e-01 4.679748415946960449e-01 2.558169662952423096e-01 -3.363479375839233398e-01
1.137000000000000000e+03 4.715087127685546875e+01 -2.316899490356445312e+01 3.793833255767822266e-01 5.707502365112304688e-01 2.850400507450103760e-01 -3.839535415172576904e-01
1.138000000000000000e+03 4.022706985473632812e+01 -3.864079236984252930e+00 -8.162955641746520996e-01 -1.371484547853469849e-01 -2.860332131385803223e-01 -3.244488537311553955e-01
1.139000000000000000e+03 3.940489959716796875e+01 -2.373617649078369141e+00 -4.686900675296783447e-01 2.311781048774719238e-03 -1.399134844541549683e-01 1.316115856170654297e-01
1.140000000000000000e+03 3.888391876220703125e+01 -4.618903160095214844e+00 -3.800745904445648193e-01 -5.706588923931121826e-02 -1.311421394348144531e-01 -1.704379469156265259e-01
1.141000000000000000e+03 3.966880416870117188e+01 -1.799515366554260254e+00 -3.338811695575714111e-01 -4.033270478248596191e-02 -1.122641637921333313e-01 1.360634714365005493e-01
1.142000000000000000e+03 1.975127983093261719e+01 -1.248833537101745605e+00 -4.652483388781547546e-03 1.047054305672645569e-02 1.745417830534279346e-03 3.399617597460746765e-02
1.143000000000000000e+03 1.874149703979492188e+01 -9.644883871078491211e-01 7.782979519106447697e-04 -5.445898976176977158e-03 -1.400280278176069260e-03 -2.243345975875854492e-02
1.144000000000000000e+03 1.853907394409179688e+01 -2.335700988769531250e+00 -2.618401544168591499e-03 2.229407615959644318e-02 5.902702454477548599e-03 2.244403026998043060e-02
1.145000000000000000e+03 1.507949829101562500e+01 -8.099253773689270020e-01 -1.173534803092479706e-02 -3.061001887544989586e-03 -4.438905045390129089e-03 -1.073666103184223175e-02
1.146000000000000000e+03 1.657927894592285156e+01 -1.178526759147644043e+00 -1.102233654819428921e-03 1.812934526242315769e-03 2.132102526957169175e-04 -9.512705728411674500e-03
1.147000000000000000e+03 5.935525894165039062e+01 -1.248398423194885254e+00 -9.648573398590087891e-01 -8.439652919769287109e-01 -5.426467657089233398e-01 8.949412107467651367e-01
1.148000000000000000e+03 6.272119522094726562e+01 -1.345355272293090820e+00 -1.371495008468627930e+00 2.516641020774841309e-01 -3.359492719173431396e-01 2.699751853942871094e-01
1.149000000000000000e+03 5.962008285522460938e+01 -5.315619111061096191e-01 -2.137732744216918945e+00 -1.900838017463684082e-01 -6.983449459075927734e-01 8.930665254592895508e-01
1.150000000000000000e+03 5.320959091186523438e+01 -2.457159757614135742e+00 -5.793071468360722065e-04 -1.360401365673169494e-04 -2.146041806554421782e-04 9.248137474060058594e-03
1.151000000000000000e+03 4.530476379394531250e+01 1.092947959899902344e+00 -6.865305900573730469e-01 -8.153992705047130585e-03 -2.084053754806518555e-01 9.836173802614212036e-02
1.152000000000000000e+03 4.418743896484375000e+01 2.188789844512939453e+00 -7.888554334640502930e-01 -3.016590327024459839e-02 -2.457063943147659302e-01 1.028802320361137390e-01
1.153000000000000000e+03 4.560497665405273438e+01 5.709596157073974609e+00 -1.009022474288940430e+00 -3.372733891010284424e-01 -4.038887917995452881e-01 4.439179301261901855e-01
1.154000000000000000e+03 4.485335540771484375e+01 1.982248663902282715e+00 -8.166820406913757324e-01 -2.418272756040096283e-02 -2.522594332695007324e-01 1.061772927641868591e-01
1.155000000000000000e+03 4.008927536010742188e+01 5.783812999725341797e+00 -5.969959497451782227e-02 -2.039045840501785278e-01 -7.908125221729278564e-02 2.736511528491973877e-01
1.156000000000000000e+03 1.291915416717529297e+01 2.475855350494384766e+00 -7.677140086889266968e-02 -1.468191575258970261e-02 -2.743599377572536469e-02 9.642588347196578979e-02
1.157000000000000000e+03 1.272994899749755859e+01 6.332419395446777344e+00 -3.835887908935546875e-01 -2.368153035640716553e-01 -1.861212253570556641e-01 1.893383264541625977e-01
1.158000000000000000e+03 1.110484027862548828e+01 7.783245086669921875e+00 -3.233921527862548828e-01 -2.548299133777618408e-01 -1.734666228294372559e-01 2.583647072315216064e-01
1.159000000000000000e+03 1.044483280181884766e+01 3.285947322845458984e+00 -6.451239436864852905e-02 -5.401728302240371704e-02 -3.555890172719955444e-02 3.605263307690620422e-02
1.160000000000000000e+03 1.010747623443603516e+01 1.908048868179321289e+00 3.329947218298912048e-02 -2.352322824299335480e-02 2.932873088866472244e-03 1.231559831649065018e-02
1.161000000000000000e+03 1.063770008087158203e+01 2.684235811233520508e+00 -2.782865613698959351e-02 -3.994753584265708923e-02 -2.033285796642303467e-02 3.159023448824882507e-02
1.162000000000000000e+03 7.133570098876953125e+01 -8.875151872634887695e-01 -2.929711818695068359e+00 -9.059987217187881470e-02 -9.060934782028198242e-01 -2.636505067348480225e-01
1.163000000000000000e+03 7.037928771972656250e+01 -1.905988901853561401e-01 -1.821546196937561035e+00 4.299406707286834717e-02 -5.335656404495239258e-01 -2.653207480907440186e-01
1.164000000000000000e+03 1.437054157257080078e+01 -9.700753092765808105e-01 -6.872274912893772125e-03 -2.587650378700345755e-04 -2.139311982318758965e-03 -1.247201394289731979e-02
1.165000000000000000e+03 1.459725189208984375e+01 -2.404628276824951172e+00 1.160689047537744045e-03 1.812243717722594738e-03 8.918797830119729042e-04 -1.358638890087604523e-02
1.166000000000000000e+03 1.291008949279785156e+01 -1.272232294082641602e+00 -1.715908641926944256e-03 -2.333811251446604729e-03 -1.214916002936661243e-03 -1.319873239845037460e-02
1.167000000000000000e+03 1.707526969909667969e+01 -3.713218927383422852e+00 1.421673130244016647e-02 2.548113651573657990e-02 1.190936006605625153e-02 5.566092208027839661e-03
1.168000000000000000e+03 1.803658866882324219e+01 -3.040811061859130859e+00 2.390501089394092560e-02 2.864346839487552643e-02 1.576454378664493561e-02 1.153663825243711472e-02
1.169000000000000000e+03 7.157294464111328125e+01 -1.015184968709945679e-01 -9.761174917221069336e-01 9.725510478019714355e-01 -1.069927820935845375e-03 -1.193287134170532227e+00
1.170000000000000000e+03 6.892144775390625000e+01 -2.144336402416229248e-01 -1.907060980796813965e+00 -3.058822751045227051e-01 -6.638829708099365234e-01 -1.732795536518096924e-01
1.171000000000000000e+03 6.867023468017578125e+01 -1.074464440345764160e+00 -2.974198579788208008e+00 -5.038992762565612793e-01 -1.043429374694824219e+00 -4.810649752616882324e-01
1.172000000000000000e+03 6.755026245117187500e+01 1.238199397921562195e-01 -1.467822074890136719e+00 1.342686009593307972e-03 -4.399438202381134033e-01 -1.652211137115955353e-02
1.173000000000000000e+03 6.808786773681640625e+01 6.527454853057861328e+00 -6.554474234580993652e-01 -4.273560047149658203e-01 -3.248410224914550781e-01 -7.508712410926818848e-01
1.174000000000000000e+03 6.680024719238281250e+01 7.355732470750808716e-02 -1.435426235198974609e+00 1.531861871480941772e-01 -3.846720159053802490e-01 -6.647678464651107788e-02
1.175000000000000000e+03 1.192877864837646484e+01 -1.146496486663818359e+01 -5.959563702344894409e-02 1.873236335813999176e-02 -1.225898135453462601e-02 -4.548411816358566284e-02
1.176000000000000000e+03 1.029305553436279297e+01 -1.248042964935302734e+01 -1.685540974140167236e-01 -2.563768252730369568e-02 -5.825753509998321533e-02 -2.945861592888832092e-02
1.177000000000000000e+03 4.352280044555664062e+01 -2.761223602294921875e+01 5.429493188858032227e-01 8.624731004238128662e-02 1.887589991092681885e-01 -7.456988841295242310e-02
1.178000000000000000e+03 6.750796508789062500e+01 -1.639915466308593750e+01 1.689761638641357422e+00 3.847035467624664307e-01 6.223395466804504395e-01 6.740802526473999023e-01
1.179000000000000000e+03 4.926200485229492188e+01 -3.401268386840820312e+01 -2.005879022181034088e-02 -1.460459735244512558e-02 -1.039901655167341232e-02 -2.298167347908020020e-02
1.180000000000000000e+03 5.511170959472656250e+01 3.567050552368164062e+01 6.100733280181884766e-01 7.153322696685791016e-01 3.976216912269592285e-01 3.944558501243591309e-01
1.181000000000000000e+03 1.930418395996093750e+01 -1.035213351249694824e+00 6.013399735093116760e-02 1.011108979582786560e-02 2.107352577149868011e-02 8.182374760508537292e-03
1.182000000000000000e+03 5.025108337402343750e+01 -3.220499038696289062e+01 1.950660794973373413e-01 3.919239938259124756e-01 1.760970205068588257e-01 -2.984574735164642334e-01
1.183000000000000000e+03 5.049096679687500000e+01 -3.149679565429687500e+01 3.064751029014587402e-01 3.916616439819335938e-01 2.094410210847854614e-01 -3.046756684780120850e-01
1.184000000000000000e+03 3.870959854125976562e+01 -3.532448196411132812e+01 3.311989307403564453e-01 -1.606870293617248535e-01 5.115357413887977600e-02 -2.776438593864440918e-01
1.185000000000000000e+03 4.173688888549804688e+01 -3.696533203125000000e+01 5.032822489738464355e-01 3.563295602798461914e-01 2.578835487365722656e-01 -4.544982314109802246e-01
1.186000000000000000e+03 7.334009552001953125e+01 -2.427869987487792969e+01 2.819663047790527344e+00 1.120083427429199219e+01 4.206149101257324219e+00 3.891342163085937500e+00
1.187000000000000000e+03 7.893321990966796875e+01 -2.750246810913085938e+01 2.430819673463702202e-03 7.556313514709472656e+00 2.267623186111450195e+00 -9.584363549947738647e-02
1.188000000000000000e+03 3.427391052246093750e+01 -2.113262891769409180e+00 -2.103323936462402344e-01 3.120500594377517700e-02 -5.373821780085563660e-02 -1.036147773265838623e-01
1.189000000000000000e+03 3.954651641845703125e+01 -4.236781120300292969e+00 -5.683510899543762207e-01 -1.200990900397300720e-01 -2.065350562334060669e-01 -2.421697974205017090e-01
1.190000000000000000e+03 3.852599334716796875e+01 -1.256353020668029785e+00 -2.579894959926605225e-01 2.897190675139427185e-02 -6.870527565479278564e-02 1.080449298024177551e-01
1.191000000000000000e+03 3.596442794799804688e+01 -2.225051641464233398e+00 -2.928027212619781494e-01 1.128818690776824951e-01 -5.397625640034675598e-02 -3.228946030139923096e-02
1.192000000000000000e+03 3.270463943481445312e+01 -2.721491813659667969e+00 -1.265889853239059448e-01 -4.558785259723663330e-02 -5.165304988622665405e-02 -1.473881006240844727e-01
1.193000000000000000e+03 3.746574783325195312e+01 -6.988254070281982422e+00 2.184694819152355194e-02 6.573325991630554199e-01 2.037538588047027588e-01 3.673557564616203308e-02
1.194000000000000000e+03 4.126515197753906250e+01 -3.764486694335937500e+01 8.773521184921264648e-01 1.466451585292816162e-01 3.071991801261901855e-01 -3.092206120491027832e-01
1.195000000000000000e+03 1.881951570510864258e+00 -2.106774330139160156e+01 1.743614114820957184e-02 -6.888796389102935791e-02 -1.543554570525884628e-02 -4.622492194175720215e-02
1.196000000000000000e+03 5.235983848571777344e+00 -2.023786163330078125e+01 3.548342362046241760e-02 -1.791951805353164673e-02 5.269171670079231262e-03 -4.180912673473358154e-02
1.197000000000000000e+03 6.962651824951171875e+01 -1.625975990295410156e+01 -1.803178668022155762e+00 -7.742637395858764648e-01 -7.732326984405517578e-01 1.211025238037109375e+00
1.198000000000000000e+03 3.976908111572265625e+01 -2.534120750427246094e+01 -3.730621635913848877e-01 -1.099102020263671875e+00 -4.416492581367492676e-01 -4.467247724533081055e-01
1.199000000000000000e+03 2.729137229919433594e+01 2.852043724060058594e+01 -4.162387251853942871e-01 -3.268273174762725830e-01 -2.229198068380355835e-01 3.966509401798248291e-01
1.200000000000000000e+03 2.787873077392578125e+01 2.813412284851074219e+01 -5.756046772003173828e-01 -4.541118741035461426e-01 -3.089149594306945801e-01 4.881922900676727295e-01
1.201000000000000000e+03 5.839293289184570312e+01 2.257680702209472656e+01 1.557401269674301147e-01 1.938222497701644897e-01 1.048687100410461426e-01 1.243973383679986000e-03
1.202000000000000000e+03 5.727646636962890625e+01 2.344162178039550781e+01 1.260554492473602295e-01 1.244291737675666809e-01 7.514538615942001343e-02 -1.686766892671585083e-01
1.203000000000000000e+03 4.970704650878906250e+01 -2.583291053771972656e+01 3.745439350605010986e-01 3.795660734176635742e-01 2.262330055236816406e-01 -3.493738174438476562e-01
1.204000000000000000e+03 1.547939491271972656e+01 -1.978573226928710938e+01 -2.085590213537216187e-01 -5.819163322448730469e-01 -2.371426075696945190e-01 -3.036158978939056396e-01
1.205000000000000000e+03 6.357938385009765625e+01 -2.008755302429199219e+01 6.365097165107727051e-01 2.160550355911254883e+00 8.391180038452148438e-01 3.111915290355682373e-01
1.206000000000000000e+03 6.576857757568359375e+01 -1.720997238159179688e+01 2.251313447952270508e+00 3.147685527801513672e+00 1.619699716567993164e+00 2.132457256317138672e+00
1.207000000000000000e+03 5.111689376831054688e+01 -1.614450073242187500e+01 -7.656843662261962891e-01 -1.333789676427841187e-01 -2.697190046310424805e-01 -4.292354285717010498e-01
1.208000000000000000e+03 4.902418518066406250e+01 -1.687928962707519531e+01 -1.440949797630310059e+00 -2.171172946691513062e-01 -4.974201321601867676e-01 -3.613424301147460938e-01
1.209000000000000000e+03 6.670534133911132812e+00 -2.206261825561523438e+01 1.371055543422698975e-01 7.328380644321441650e-02 6.311681121587753296e-02 -8.644493669271469116e-02
1.210000000000000000e+03 6.941134929656982422e+00 -2.363097953796386719e+01 8.777140080928802490e-02 2.359308861196041107e-02 3.340934589505195618e-02 -1.595043390989303589e-02
1.211000000000000000e+03 2.083846282958984375e+01 -2.688706207275390625e+01 5.243654251098632812e-01 1.974050253629684448e-01 2.165311425924301147e-01 -2.719070613384246826e-01
1.212000000000000000e+03 3.523175811767578125e+01 -2.840375518798828125e+01 2.157583534717559814e-01 1.477225217968225479e-02 6.915917992591857910e-02 -1.241861954331398010e-01
1.213000000000000000e+03 4.095639038085937500e+01 -2.801436614990234375e+01 8.370647579431533813e-02 -3.771864473819732666e-01 -8.804398775100708008e-02 -9.268689155578613281e-02
1.214000000000000000e+03 4.830909347534179688e+01 -2.419899940490722656e+01 4.817690849304199219e-01 4.907411634922027588e-01 2.917530834674835205e-01 -4.151992499828338623e-01
1.215000000000000000e+03 3.799343872070312500e+01 -3.301764678955078125e+01 -1.552612613886594772e-02 -3.103005588054656982e-01 -9.774801135063171387e-02 -3.177781105041503906e-01
1.216000000000000000e+03 3.873741149902343750e+01 -3.346342849731445312e+01 6.372183095663785934e-03 -3.911817371845245361e-01 -1.154428720474243164e-01 -2.210126817226409912e-01
1.217000000000000000e+03 3.915210723876953125e+01 -2.920174598693847656e+01 5.961276963353157043e-02 -6.628273129463195801e-01 -1.809643656015396118e-01 -1.575291901826858521e-01
1.218000000000000000e+03 4.416693878173828125e+01 -3.911485671997070312e+01 9.343110918998718262e-01 2.340061664581298828e-01 3.504951894283294678e-01 -1.443112790584564209e-01
1.219000000000000000e+03 4.837829208374023438e+01 -3.687219238281250000e+01 4.297801852226257324e-01 3.409545868635177612e-02 1.391626894474029541e-01 1.189390793442726135e-01
1.220000000000000000e+03 4.015004730224609375e+01 -2.892285346984863281e+01 5.927824974060058594e-02 -5.394694805145263672e-01 -1.440573781728744507e-01 -1.349110603332519531e-01
1.221000000000000000e+03 3.773947906494140625e+01 -2.801461029052734375e+01 -1.189670190215110779e-01 -5.217840671539306641e-01 -1.922253221273422241e-01 -2.941243648529052734e-01
1.222000000000000000e+03 3.895364761352539062e+01 -3.101161956787109375e+01 -1.010715290904045105e-01 -5.906868577003479004e-01 -2.075275182723999023e-01 -1.960207223892211914e-01
1.223000000000000000e+03 3.449114227294921875e+01 -2.898977088928222656e+01 2.318034470081329346e-01 9.824112802743911743e-02 9.901337325572967529e-02 -2.129883766174316406e-01
1.224000000000000000e+03 5.039351272583007812e+01 -2.538369750976562500e+01 4.478309154510498047e-01 2.449241578578948975e-01 2.078265249729156494e-01 -2.911281883716583252e-01
1.225000000000000000e+03 4.877327346801757812e+01 -2.969223403930664062e+01 4.171101152896881104e-01 4.648856520652770996e-01 2.645987272262573242e-01 -3.662776350975036621e-01
1.226000000000000000e+03 5.166996765136718750e+01 -2.685337257385253906e+01 3.576985299587249756e-01 2.030877619981765747e-01 1.682358831167221069e-01 -2.398168742656707764e-01
1.227000000000000000e+03 5.030430984497070312e+01 -3.367559432983398438e+01 7.793458551168441772e-02 3.901646733283996582e-01 1.404297798871994019e-01 -1.028256490826606750e-01
1.228000000000000000e+03 4.985681915283203125e+01 -3.339438247680664062e+01 2.622271887958049774e-02 2.554298639297485352e-01 8.449577540159225464e-02 -1.107638403773307800e-01
1.229000000000000000e+03 4.761264801025390625e+01 -2.265777778625488281e+01 5.118129253387451172e-01 7.030004858970642090e-01 3.644440174102783203e-01 -5.657577514648437500e-01
1.230000000000000000e+03 4.764680099487304688e+01 -2.869199943542480469e+01 4.576625227928161621e-01 3.811009228229522705e-01 2.516290247440338135e-01 -3.524686098098754883e-01
1.231000000000000000e+03 5.555414199829101562e+01 -3.243963241577148438e+01 1.804672777652740479e-01 1.288093686103820801e+00 4.405682981014251709e-01 -3.720770403742790222e-02
1.232000000000000000e+03 4.905064773559570312e+01 -3.652043151855468750e+01 3.659979999065399170e-01 6.480495631694793701e-02 1.292408853769302368e-01 1.247034445405006409e-01
1.233000000000000000e+03 4.874882125854492188e+01 -2.376541137695312500e+01 5.534859895706176758e-01 5.261601209640502930e-01 3.238938152790069580e-01 -5.185424089431762695e-01
1.234000000000000000e+03 4.774070739746093750e+01 -2.369214057922363281e+01 4.315069317817687988e-01 5.522409677505493164e-01 2.951243817806243896e-01 -4.488819837570190430e-01
1.235000000000000000e+03 3.991932296752929688e+01 -3.618520355224609375e+01 4.462917447090148926e-01 7.925719767808914185e-02 1.576646864414215088e-01 -2.604698240756988525e-01
1.236000000000000000e+03 1.532622623443603516e+01 -2.293242645263671875e+01 -8.015277236700057983e-02 -3.069566190242767334e-01 -1.161328107118606567e-01 -2.322280406951904297e-01
1.237000000000000000e+03 1.528580570220947266e+01 -2.135091781616210938e+01 -2.736574411392211914e-01 -3.841313719749450684e-01 -1.973366439342498779e-01 -2.606872320175170898e-01
1.238000000000000000e+03 7.345698547363281250e+01 -2.036554145812988281e+01 4.106202721595764160e-01 8.758568763732910156e+00 2.750756740570068359e+00 -7.273503541946411133e-01
1.239000000000000000e+03 7.355917358398437500e+01 -2.115613174438476562e+01 2.983383536338806152e-01 9.942353248596191406e+00 3.072207450866699219e+00 4.306972399353981018e-02
1.240000000000000000e+03 6.739205932617187500e+01 -2.957018852233886719e+01 7.300653457641601562e-01 1.552695512771606445e+00 6.848282814025878906e-01 -2.633175253868103027e-01
1.241000000000000000e+03 7.038811492919921875e+01 -2.665745544433593750e+01 -3.891865611076354980e-01 6.213189363479614258e-01 6.963972002267837524e-02 9.494361877441406250e-01
1.242000000000000000e+03 7.965116119384765625e+01 -2.196915435791015625e+01 3.170214220881462097e-02 8.461001396179199219e+00 2.547811031341552734e+00 2.329953610897064209e-01
1.243000000000000000e+03 7.333812713623046875e+01 -2.603213119506835938e+01 9.104532003402709961e-02 6.706177711486816406e+00 2.039166927337646484e+00 1.678014516830444336e+00
1.244000000000000000e+03 6.460009002685546875e+01 -2.225483131408691406e+01 5.131653547286987305e-01 2.763281822204589844e+00 9.829341769218444824e-01 -3.904903531074523926e-01
1.245000000000000000e+03 6.498000335693359375e+01 -1.972859954833984375e+01 9.102960675954818726e-02 3.548175334930419922e+00 1.091761469841003418e+00 4.047903716564178467e-01
1.246000000000000000e+03 7.134184265136718750e+01 -1.714168930053710938e+01 -2.695161581039428711e+00 -1.464990735054016113e+00 -1.248045682907104492e+00 2.015523195266723633e+00
1.247000000000000000e+03 7.054206085205078125e+01 -1.255599403381347656e+01 -1.711562752723693848e+00 -3.156097531318664551e-01 -6.081517338752746582e-01 1.164111018180847168e+00
1.248000000000000000e+03 7.826942443847656250e+01 -1.516927909851074219e+01 -4.895883202552795410e-01 1.063656139373779297e+01 3.044091939926147461e+00 -3.661510348320007324e-01
1.249000000000000000e+03 6.279246139526367188e+01 -2.658066558837890625e+01 -1.461889594793319702e-01 7.488169670104980469e-01 1.807883977890014648e-01 -3.278395235538482666e-01
1.250000000000000000e+03 3.660076856613159180e-01 -2.035841560363769531e+01 6.826573517173528671e-04 -5.534853413701057434e-02 -1.639976352453231812e-02 -1.400922425091266632e-02
1.251000000000000000e+03 7.740294933319091797e+00 3.536639022827148438e+01 2.138705104589462280e-01 3.920195996761322021e-02 7.592174410820007324e-02 4.500625655055046082e-02
1.252000000000000000e+03 1.021341228485107422e+01 3.496654510498046875e+01 4.369689524173736572e-01 7.617539167404174805e-02 1.539433002471923828e-01 7.138948142528533936e-02
1.253000000000000000e+03 7.192815399169921875e+01 -2.630993461608886719e+01 6.602786779403686523e-01 3.299961090087890625e+00 1.188071966171264648e+00 2.494541645050048828e+00
1.254000000000000000e+03 7.186013031005859375e+01 -1.769650840759277344e+01 -2.188029527664184570e+00 -1.066972017288208008e+00 -9.765004515647888184e-01 1.590452790260314941e+00
1.255000000000000000e+03 6.700625610351562500e+01 -2.567771339416503906e+01 -7.686156630516052246e-01 8.535162806510925293e-01 2.547018975019454956e-02 -2.056247293949127197e-01
1.256000000000000000e+03 6.783219146728515625e+01 -1.554257297515869141e+01 1.332368999719619751e-01 3.236259222030639648e-01 1.370588392019271851e-01 1.346846818923950195e+00
1.257000000000000000e+03 6.496302032470703125e+01 -2.048788833618164062e+01 1.457362025976181030e-01 3.562201261520385742e+00 1.112381219863891602e+00 2.123594880104064941e-01
1.258000000000000000e+03 6.442733001708984375e+01 -2.144419860839843750e+01 4.582197964191436768e-01 2.940195322036743164e+00 1.019524574279785156e+00 -1.427620202302932739e-01
1.259000000000000000e+03 7.166819763183593750e+01 -1.620113372802734375e+01 -1.363586783409118652e+00 1.312604248523712158e-01 -3.696978986263275146e-01 8.773931860923767090e-01
1.260000000000000000e+03 6.426952362060546875e+01 -1.991339111328125000e+01 4.242027997970581055e-01 3.023722887039184570e+00 1.034377694129943848e+00 4.866600334644317627e-01
1.261000000000000000e+03 6.522286224365234375e+01 3.124832725524902344e+01 4.417684972286224365e-01 2.628049135208129883e+00 9.209452867507934570e-01 -4.155051708221435547e-01
1.262000000000000000e+03 1.135624694824218750e+01 -2.454845619201660156e+01 -8.388441056013107300e-03 -1.435513049364089966e-01 -4.558192566037178040e-02 -1.577689051628112793e-01
1.263000000000000000e+03 8.424003601074218750e+00 -2.285049629211425781e+01 2.398011237382888794e-01 2.253756858408451080e-02 7.870160788297653198e-02 -4.883169010281562805e-02
1.264000000000000000e+03 1.665755653381347656e+01 -8.941432952880859375e+00 -2.782808057963848114e-02 3.081493824720382690e-02 8.960575796663761139e-04 2.776496112346649170e-02
1.265000000000000000e+03 7.263410186767578125e+01 -2.613943099975585938e+01 1.662850752472877502e-02 5.582273006439208984e+00 1.679670453071594238e+00 2.376847505569458008e+00
1.266000000000000000e+03 1.557206726074218750e+01 -1.655712699890136719e+01 4.139420762658119202e-02 2.798216640949249268e-01 9.636476635932922363e-02 -1.040773466229438782e-01
1.267000000000000000e+03 1.911810493469238281e+01 -1.266756153106689453e+01 -1.487397104501724243e-01 -4.146949946880340576e-02 -5.706276372075080872e-02 6.905367225408554077e-02
1.268000000000000000e+03 7.830715942382812500e+01 -2.249917030334472656e+01 2.634454071521759033e-01 8.331554412841796875e+00 2.578499794006347656e+00 8.144074678421020508e-01
1.269000000000000000e+03 1.434796047210693359e+01 -1.445880794525146484e+01 8.987680822610855103e-02 1.759423315525054932e-01 7.974573969841003418e-02 -1.184994131326675415e-01
1.270000000000000000e+03 1.758035087585449219e+01 -9.550985336303710938e+00 -3.509587422013282776e-02 -1.740250363945960999e-02 -1.574951410293579102e-02 3.424121066927909851e-02
1.271000000000000000e+03 1.619152259826660156e+01 -1.635143852233886719e+01 4.774206504225730896e-02 1.196928396821022034e-01 5.023046955466270447e-02 -1.145213991403579712e-01
1.272000000000000000e+03 7.292110443115234375e+01 -1.800519752502441406e+01 -1.874540686607360840e+00 2.594443559646606445e+00 2.159708738327026367e-01 4.333914816379547119e-01
1.273000000000000000e+03 7.247991180419921875e+01 -1.738259696960449219e+01 -2.044028997421264648e+00 1.397780776023864746e+00 -1.938745081424713135e-01 7.240170240402221680e-01
1.274000000000000000e+03 6.727774810791015625e+01 -1.522496318817138672e+01 -1.730128526687622070e-01 6.312121748924255371e-01 1.374597847461700439e-01 1.096994519233703613e+00
1.275000000000000000e+03 6.685649108886718750e+01 -1.606920433044433594e+01 1.453894019126892090e+00 1.039768099784851074e+00 7.480986118316650391e-01 1.076168060302734375e+00
1.276000000000000000e+03 1.207041358947753906e+01 -1.238309764862060547e+01 -5.235388129949569702e-02 2.307679876685142517e-02 -8.783125318586826324e-03 -2.003614418208599091e-02
1.277000000000000000e+03 1.167159938812255859e+01 -1.297196483612060547e+01 -5.116226151585578918e-02 -9.745297575136646628e-06 -1.535160187631845474e-02 -3.427696647122502327e-03
1.278000000000000000e+03 7.204987335205078125e+01 -1.678325462341308594e+01 -2.057855844497680664e+00 6.649537682533264160e-01 -4.178706407546997070e-01 8.060904145240783691e-01
1.279000000000000000e+03 7.622168731689453125e+01 -2.372675514221191406e+01 1.071930289268493652e+00 8.110523223876953125e+00 2.754735946655273438e+00 8.641871809959411621e-01
1.280000000000000000e+03 6.433164978027343750e+01 -2.065877532958984375e+01 3.265640735626220703e-01 2.964728355407714844e+00 9.873877763748168945e-01 9.435390681028366089e-02
1.281000000000000000e+03 6.419898986816406250e+01 -1.925287818908691406e+01 6.977159380912780762e-01 2.609164476394653320e+00 9.920641183853149414e-01 6.895542144775390625e-01
1.282000000000000000e+03 6.351681518554687500e+01 -2.634312820434570312e+01 -2.336176931858062744e-01 1.338612914085388184e+00 3.314985930919647217e-01 -5.050218105316162109e-01
1.283000000000000000e+03 6.377776718139648438e+01 -2.697356414794921875e+01 -1.801343411207199097e-01 1.407261013984680176e+00 3.681380152702331543e-01 -5.875676274299621582e-01
1.284000000000000000e+03 1.083082103729248047e+01 -1.171045303344726562e+01 -7.601890712976455688e-02 -1.570378430187702179e-02 -2.751680649816989899e-02 -5.519209802150726318e-02
1.285000000000000000e+03 9.675993919372558594e+00 -1.212993049621582031e+01 -1.388311237096786499e-01 -7.967583090066909790e-02 -6.555208563804626465e-02 -5.436539649963378906e-02
1.286000000000000000e+03 3.673710227012634277e-01 -1.712438964843750000e+01 -1.534978626295924187e-03 6.425736844539642334e-02 1.881671696901321411e-02 -9.311079978942871094e-03
1.287000000000000000e+03 1.223513603210449219e+01 -2.236731147766113281e+01 -1.700226515531539917e-01 -7.302206754684448242e-02 -7.291341572999954224e-02 -1.165487617254257202e-01
1.288000000000000000e+03 6.145254898071289062e+01 3.442698669433593750e+01 5.264916419982910156e-01 7.541280388832092285e-01 3.841859102249145508e-01 -6.201778054237365723e-01
1.289000000000000000e+03 3.678546547889709473e-01 -1.551382541656494141e+01 -1.609912025742232800e-03 9.356941282749176025e-02 2.758785150945186615e-02 -3.782029496505856514e-03
1.290000000000000000e+03 1.113313436508178711e+00 -1.540322685241699219e+01 -5.326124839484691620e-03 5.511106550693511963e-02 1.493548229336738586e-02 -1.065980084240436554e-02
1.291000000000000000e+03 8.550741195678710938e+00 -1.231776142120361328e+01 -1.081401705741882324e-01 -6.200152263045310974e-02 -5.104250460863113403e-02 -4.705574363470077515e-02
1.292000000000000000e+03 5.249080276489257812e+01 2.812608146667480469e+01 1.799767762422561646e-01 1.174040317535400391e+00 4.062051177024841309e-01 2.519630640745162964e-02
1.293000000000000000e+03 1.272059154510498047e+01 -1.270700550079345703e+01 -3.513399511575698853e-02 3.904872760176658630e-02 1.174420351162552834e-03 -3.604093194007873535e-02
1.294000000000000000e+03 1.076673388481140137e+00 -2.605519866943359375e+01 -4.504055323195643723e-05 -9.827419370412826538e-02 -2.949577197432518005e-02 8.839069865643978119e-03
1.295000000000000000e+03 1.835318446159362793e+00 -2.196360778808593750e+01 2.006533183157444000e-02 -8.045435696840286255e-02 -1.811670884490013123e-02 -2.919194847345352173e-02
1.296000000000000000e+03 3.649271130561828613e-01 -2.361210632324218750e+01 1.049852115102112293e-03 -1.210139244794845581e-01 -3.598922118544578552e-02 -6.503675831481814384e-04
1.297000000000000000e+03 1.805078315734863281e+01 -1.025148487091064453e+01 -6.934341788291931152e-02 -4.848556220531463623e-02 -3.534869477152824402e-02 5.492758005857467651e-02
1.298000000000000000e+03 1.208772087097167969e+01 -2.387336158752441406e+01 -1.832471601665019989e-02 -1.823031306266784668e-01 -6.018835306167602539e-02 -1.805358380079269409e-01
1.299000000000000000e+03 9.975095748901367188e+00 -2.339719009399414062e+01 6.613961607217788696e-02 -1.468520704656839371e-02 1.543632335960865021e-02 -6.582918763160705566e-02
1.300000000000000000e+03 9.204449653625488281e+00 -2.347257423400878906e+01 1.044118553400039673e-01 7.621277123689651489e-03 3.360994160175323486e-02 -6.028942391276359558e-02
1.301000000000000000e+03 1.072814273834228516e+01 -2.330122375488281250e+01 1.508890464901924133e-02 -4.480691999197006226e-02 -8.915404789149761200e-03 -8.676091581583023071e-02
1.302000000000000000e+03 1.684162902832031250e+01 -1.610852050781250000e+01 1.643682643771171570e-02 4.767699539661407471e-02 1.923414692282676697e-02 -1.188665255904197693e-01
1.303000000000000000e+03 1.628703880310058594e+01 -1.910109901428222656e+01 -1.421541422605514526e-01 -1.898830533027648926e-01 -9.961115568876266479e-02 -2.834413945674896240e-01
1.304000000000000000e+03 1.695589828491210938e+01 -1.927317619323730469e+01 -2.031079083681106567e-01 -9.830511361360549927e-02 -9.042390435934066772e-02 -3.127186000347137451e-01
1.305000000000000000e+03 1.642985343933105469e+01 -1.725969505310058594e+01 5.534796044230461121e-03 3.182773664593696594e-02 1.120875962078571320e-02 -1.740898638963699341e-01
1.306000000000000000e+03 1.146503639221191406e+01 -2.320658874511718750e+01 -3.968552127480506897e-02 -7.988139241933822632e-02 -3.587007150053977966e-02 -1.226043328642845154e-01
1.307000000000000000e+03 6.387626647949218750e+00 -1.569276809692382812e+01 -7.920537143945693970e-02 -1.625595241785049438e-01 -7.252946496009826660e-02 -1.103576794266700745e-01
1.308000000000000000e+03 1.796241402626037598e+00 -1.289177417755126953e+01 -5.010853521525859833e-03 3.562264889478683472e-02 9.183539077639579773e-03 5.270518828183412552e-03
1.309000000000000000e+03 1.800844001770019531e+01 -2.577683830261230469e+01 1.881449669599533081e-01 -7.666113972663879395e-02 3.344514966011047363e-02 -1.661943346261978149e-01
1.310000000000000000e+03 6.304957866668701172e+00 -1.464707756042480469e+01 -7.232129573822021484e-02 -1.237209141254425049e-01 -5.881266668438911438e-02 -8.051592111587524414e-02
1.311000000000000000e+03 1.895012736320495605e+00 -1.611077308654785156e+01 -1.501179300248622894e-02 1.352854911237955093e-02 -4.449731495697051287e-04 -2.656704373657703400e-02
1.312000000000000000e+03 1.287547111511230469e+01 -2.311960220336914062e+01 -6.606151163578033447e-02 -2.302239686250686646e-01 -8.888564258813858032e-02 -2.121383845806121826e-01
1.313000000000000000e+03 1.646258735656738281e+01 -1.819750595092773438e+01 -4.723143950104713440e-02 -6.678569316864013672e-02 -3.420513868331909180e-02 -2.185360789299011230e-01
1.314000000000000000e+03 1.218694591522216797e+01 -2.313860511779785156e+01 -8.450885862112045288e-02 -1.514788419008255005e-01 -7.079631090164184570e-02 -1.817945986986160278e-01
1.315000000000000000e+03 6.387525939941406250e+01 2.563679695129394531e+01 5.610839128494262695e-01 1.788450956344604492e+00 7.048604488372802734e-01 2.689040601253509521e-01
1.316000000000000000e+03 8.506356239318847656e+00 2.377354621887207031e+01 -4.176993072032928467e-01 -3.005901575088500977e-01 -2.154868394136428833e-01 3.123705983161926270e-01
1.317000000000000000e+03 1.172932815551757812e+01 1.793167877197265625e+01 2.434855997562408447e-01 2.619302570819854736e-01 1.516247540712356567e-01 2.938605844974517822e-01
1.318000000000000000e+03 5.969554138183593750e+01 2.375570297241210938e+01 1.719404608011245728e-01 1.350565254688262939e-01 9.209909290075302124e-02 1.695093065500259399e-01
1.319000000000000000e+03 2.409363555908203125e+01 3.064849090576171875e+01 -3.910873830318450928e-02 2.184806168079376221e-01 5.381156504154205322e-02 2.524503767490386963e-01
1.320000000000000000e+03 1.971780967712402344e+01 3.173826217651367188e+01 -1.197886392474174500e-01 -5.627762675285339355e-01 -2.047694772481918335e-01 1.329814344644546509e-01
1.321000000000000000e+03 6.405618286132812500e+01 2.492862892150878906e+01 5.779649615287780762e-01 1.545625209808349609e+00 6.370770335197448730e-01 2.333011925220489502e-01
1.322000000000000000e+03 5.386838531494140625e+01 2.514627838134765625e+01 1.945651918649673462e-01 9.115310907363891602e-01 3.318288922309875488e-01 -1.889309585094451904e-01
1.323000000000000000e+03 5.596104431152343750e+01 3.464971542358398438e+01 6.814551353454589844e-01 6.429860591888427734e-01 3.973323404788970947e-01 5.808404088020324707e-01
1.324000000000000000e+03 6.336040115356445312e+01 2.471036529541015625e+01 5.658260583877563477e-01 1.383398652076721191e+00 5.847674012184143066e-01 3.979713618755340576e-01
1.325000000000000000e+03 3.176963615417480469e+01 1.586259555816650391e+01 2.753122746944427490e-01 5.143339633941650391e-01 2.368938624858856201e-01 3.829630613327026367e-01
1.326000000000000000e+03 3.122121429443359375e+01 1.679050827026367188e+01 6.480916142463684082e-01 1.148566484451293945e+00 5.389974117279052734e-01 7.047057747840881348e-01
1.327000000000000000e+03 1.881916427612304688e+01 2.536817932128906250e+01 5.217322707176208496e-01 3.055863678455352783e-01 2.481955885887145996e-01 4.049924314022064209e-01
1.328000000000000000e+03 1.326858711242675781e+01 3.771527051925659180e+00 -1.675855964422225952e-01 -6.316382437944412231e-02 -6.922482699155807495e-02 1.733833402395248413e-01
1.329000000000000000e+03 1.348038196563720703e+01 3.240024089813232422e+00 -1.506655365228652954e-01 -3.938522562384605408e-02 -5.701522901654243469e-02 1.606217771768569946e-01
1.330000000000000000e+03 1.559635925292968750e+01 6.816154479980468750e+00 -2.846166118979454041e-02 2.601187303662300110e-02 -7.349367369897663593e-04 8.230420202016830444e-02
1.331000000000000000e+03 1.123100280761718750e+01 5.632730960845947266e+00 -2.491418719291687012e-01 -1.491308212280273438e-01 -1.194818094372749329e-01 1.126162782311439514e-01
1.332000000000000000e+03 5.625776290893554688e+01 2.331497955322265625e+01 1.798155307769775391e-01 3.701287209987640381e-01 1.649832725524902344e-01 -2.969594001770019531e-01
1.333000000000000000e+03 4.757981491088867188e+01 2.944259834289550781e+01 3.124918416142463684e-02 3.916164934635162354e-01 1.268597096204757690e-01 9.695481508970260620e-02
1.334000000000000000e+03 5.321226882934570312e+01 2.955178833007812500e+01 8.606602996587753296e-02 1.482138752937316895e+00 4.704614579677581787e-01 1.161216795444488525e-01
1.335000000000000000e+03 6.356134033203125000e+01 2.039237785339355469e+01 -3.868594169616699219e-01 4.923538565635681152e-01 3.164833411574363708e-02 4.631512165069580078e-01
1.336000000000000000e+03 5.329247283935546875e+01 3.218596649169921875e+01 3.585954010486602783e-01 1.294287323951721191e+00 4.958648383617401123e-01 2.760514914989471436e-01
1.337000000000000000e+03 5.777059936523437500e+01 3.642123031616210938e+01 8.304202556610107422e-01 3.739314079284667969e-01 3.613055050373077393e-01 4.236738085746765137e-01
1.338000000000000000e+03 3.500678837299346924e-01 2.356054687500000000e+01 -9.654585737735033035e-04 -1.251216232776641846e-01 -3.782612457871437073e-02 -8.590854704380035400e-03
1.339000000000000000e+03 6.272363662719726562e+01 2.047363662719726562e+01 -3.117665648460388184e-01 8.400633931159973145e-01 1.584890484809875488e-01 5.587196350097656250e-01
1.340000000000000000e+03 5.443469238281250000e+01 2.475490379333496094e+01 2.239181995391845703e-01 8.230053782463073730e-01 3.140770792961120605e-01 -3.317185342311859131e-01
1.341000000000000000e+03 5.407206726074218750e+01 3.394838333129882812e+01 4.418591856956481934e-01 1.025595068931579590e+00 4.402363002300262451e-01 3.988775312900543213e-01
1.342000000000000000e+03 2.280042457580566406e+01 2.811087989807128906e+01 2.954857349395751953e-01 1.241789162158966064e-01 1.258993893861770630e-01 2.777969241142272949e-01
1.343000000000000000e+03 2.456500053405761719e+01 2.888064956665039062e+01 4.605302214622497559e-01 5.104798078536987305e-01 2.913030087947845459e-01 3.860789835453033447e-01
1.344000000000000000e+03 6.249739074707031250e+01 3.662663650512695312e+01 5.603309273719787598e-01 1.673810362815856934e+00 6.702423691749572754e-01 -4.675374031066894531e-01
1.345000000000000000e+03 1.232219886779785156e+01 3.559397506713867188e+01 1.834089159965515137e-01 -1.075833570212125778e-02 5.179517343640327454e-02 4.680667445063591003e-02
1.346000000000000000e+03 6.377505111694335938e+01 3.459886550903320312e+01 4.038675427436828613e-01 2.173420429229736328e+00 7.731863856315612793e-01 -5.245205163955688477e-01
1.347000000000000000e+03 6.217411041259765625e+01 3.513611602783203125e+01 5.320590138435363770e-01 1.456929445266723633e+00 5.966964960098266602e-01 -6.927196979522705078e-01
1.348000000000000000e+03 6.453640747070312500e+01 1.981298255920410156e+01 -9.420604109764099121e-01 4.670012742280960083e-02 -2.686080932617187500e-01 -4.188635200262069702e-02
1.349000000000000000e+03 6.309572601318359375e+01 2.200649070739746094e+01 -1.139102317392826080e-02 8.552557826042175293e-01 2.531594336032867432e-01 5.360049605369567871e-01
1.350000000000000000e+03 1.822840309143066406e+01 2.493580436706542969e+01 7.007120847702026367e-01 4.096982181072235107e-01 3.331230878829956055e-01 5.115703940391540527e-01
1.351000000000000000e+03 2.168493270874023438e+01 2.210694694519042969e+01 5.288525950163602829e-03 -3.453153669834136963e-01 -1.020080521702766418e-01 2.018181048333644867e-02
1.352000000000000000e+03 6.066224288940429688e+01 2.347177696228027344e+01 3.001475632190704346e-01 5.242387652397155762e-01 2.473158985376358032e-01 5.111558437347412109e-01
1.353000000000000000e+03 5.452869033813476562e+01 3.481278228759765625e+01 5.149595737457275391e-01 8.746076226234436035e-01 4.168701469898223877e-01 4.038361012935638428e-01
1.354000000000000000e+03 5.863619804382324219e+00 2.791564369201660156e+01 -2.272931672632694244e-02 -7.815824747085571289e-01 -2.412935346364974976e-01 6.945770978927612305e-02
1.355000000000000000e+03 6.389373397827148438e+01 2.851996040344238281e+01 9.193822741508483887e-02 2.397428274154663086e+00 7.468099594116210938e-01 1.779807917773723602e-02
1.356000000000000000e+03 5.994084548950195312e+01 2.315610885620117188e+01 1.804693043231964111e-01 3.301828205585479736e-01 1.531956493854522705e-01 3.660857975482940674e-01
1.357000000000000000e+03 5.919242858886718750e+01 2.286083793640136719e+01 1.329844295978546143e-01 2.389354407787322998e-01 1.115759536623954773e-01 2.073126733303070068e-01
1.358000000000000000e+03 6.402214813232421875e+01 2.999203681945800781e+01 8.151969313621520996e-02 2.597056150436401367e+00 8.035727739334106445e-01 -2.247173935174942017e-01
1.359000000000000000e+03 6.322729492187500000e+01 2.931401634216308594e+01 6.190984044224023819e-03 2.240632534027099609e+00 6.740470528602600098e-01 -3.915729373693466187e-02
1.360000000000000000e+03 5.592060852050781250e+01 3.607786560058593750e+01 7.013044953346252441e-01 6.188780665397644043e-01 3.960547745227813721e-01 3.769497573375701904e-01
1.361000000000000000e+03 5.501998519897460938e+01 2.430095672607421875e+01 2.470852285623550415e-01 5.868300795555114746e-01 2.501745820045471191e-01 -3.631267547607421875e-01
1.362000000000000000e+03 5.593796157836914062e+01 2.440087890625000000e+01 3.123213052749633789e-01 3.592676520347595215e-01 2.014766782522201538e-01 -3.470002710819244385e-01
1.363000000000000000e+03 6.415930938720703125e+01 3.072284889221191406e+01 2.671458721160888672e-01 2.732675790786743164e+00 8.999465107917785645e-01 -4.917518198490142822e-01
1.364000000000000000e+03 5.561848068237304688e+01 2.381746673583984375e+01 2.498782873153686523e-01 4.783053100109100342e-01 2.184550762176513672e-01 -3.270367383956909180e-01
1.365000000000000000e+03 6.462684631347656250e+01 2.918143844604492188e+01 1.719813495874404907e-01 2.535101413726806641e+00 8.121248483657836914e-01 -1.661673337221145630e-01
1.366000000000000000e+03 6.393502426147460938e+01 2.925572776794433594e+01 8.218617737293243408e-02 2.442652940750122070e+00 7.574517130851745605e-01 -1.259628683328628540e-01
1.367000000000000000e+03 5.390383911132812500e+01 2.950103950500488281e+01 4.114948213100433350e-03 1.574281096458435059e+00 4.735188186168670654e-01 3.723214566707611084e-02
1.368000000000000000e+03 6.265682220458984375e+01 3.394846725463867188e+01 3.798386454582214355e-01 1.897521257400512695e+00 6.832079887390136719e-01 -8.510220050811767578e-01
1.369000000000000000e+03 8.648102760314941406e+00 3.435454177856445312e+01 4.517619013786315918e-01 1.479924917221069336e-01 1.799263209104537964e-01 2.398937791585922241e-01
1.370000000000000000e+03 6.979997158050537109e+00 3.248564529418945312e+01 1.205636039376258850e-01 1.168898865580558777e-01 7.123604416847229004e-02 1.206009835004806519e-01
1.371000000000000000e+03 2.542462348937988281e+01 2.885267257690429688e+01 5.589440464973449707e-01 4.089995324611663818e-01 2.903830707073211670e-01 5.066788792610168457e-01
1.372000000000000000e+03 6.774598598480224609e+00 2.534728813171386719e+01 -3.288830816745758057e-01 -5.586292743682861328e-01 -2.662537097930908203e-01 3.896363973617553711e-01
1.373000000000000000e+03 7.912430286407470703e+00 2.428696250915527344e+01 -3.184186220169067383e-01 -3.202646076679229736e-01 -1.916049569845199585e-01 3.121118247509002686e-01
1.374000000000000000e+03 8.219223976135253906e+00 2.325257682800292969e+01 -3.275986611843109131e-01 -2.576664686203002930e-01 -1.755795478820800781e-01 2.041120082139968872e-01
1.375000000000000000e+03 6.083704757690429688e+01 1.037245178222656250e+01 9.248090982437133789e-01 2.232120990753173828e+00 9.470790624618530273e-01 -6.961981058120727539e-01
1.376000000000000000e+03 6.417994689941406250e+01 -3.368317186832427979e-01 -1.421146988868713379e+00 3.300142586231231689e-01 -3.273398280143737793e-01 2.877398952841758728e-02
1.377000000000000000e+03 6.712591552734375000e+01 7.086076259613037109e+00 -9.015738964080810547e-01 -1.449211537837982178e-01 -3.139485120773315430e-01 -4.283098578453063965e-01
1.378000000000000000e+03 1.918686485290527344e+01 3.241852951049804688e+01 -1.011922582983970642e-01 -4.651246070861816406e-01 -1.698950678110122681e-01 1.720090359449386597e-01
1.379000000000000000e+03 5.922691345214843750e+00 2.869610786437988281e+01 -1.614128425717353821e-02 -6.155959963798522949e-01 -1.895211786031723022e-01 2.250369079411029816e-02
1.380000000000000000e+03 1.025385856628417969e+00 2.971572875976562500e+01 6.994292489252984524e-04 -4.272665977478027344e-01 -1.279701441526412964e-01 9.734521806240081787e-02
1.381000000000000000e+03 1.622157478332519531e+01 2.381651687622070312e+01 9.402419328689575195e-01 2.217510491609573364e-01 3.485978841781616211e-01 4.263830780982971191e-01
1.382000000000000000e+03 2.188436889648437500e+01 2.296845245361328125e+01 6.427124887704849243e-02 -3.205894827842712402e-01 -7.689546793699264526e-02 6.952337920665740967e-02
1.383000000000000000e+03 2.098816394805908203e+00 3.595038604736328125e+01 2.401252835988998413e-02 -5.934224128723144531e-01 -1.708229631185531616e-01 1.136491820216178894e-02
1.384000000000000000e+03 1.857879829406738281e+01 3.301213836669921875e+01 -8.304625749588012695e-02 -3.805857598781585693e-01 -1.390895992517471313e-01 1.732832789421081543e-01
1.385000000000000000e+03 1.790553092956542969e+01 3.353520965576171875e+01 -5.585573986172676086e-02 -2.913205027580261230e-01 -1.041528731584548950e-01 1.680523008108139038e-01
1.386000000000000000e+03 1.157606840133666992e+00 3.450480270385742188e+01 1.536553353071212769e-02 -6.833916902542114258e-01 -2.004078477621078491e-01 2.993808686733245850e-02
1.387000000000000000e+03 1.475794124603271484e+01 2.328578758239746094e+01 6.868218183517456055e-01 9.785449504852294922e-02 2.354028820991516113e-01 2.591402232646942139e-01
1.388000000000000000e+03 1.722729110717773438e+01 3.407332229614257812e+01 -1.412201859056949615e-02 -2.265058010816574097e-01 -7.218834757804870605e-02 1.515327692031860352e-01
1.389000000000000000e+03 1.709911537170410156e+01 2.362523841857910156e+01 6.764188408851623535e-01 2.818819880485534668e-01 2.874902486801147461e-01 3.599288761615753174e-01
1.390000000000000000e+03 1.777072715759277344e+01 2.391748428344726562e+01 6.452689170837402344e-01 2.866480946540832520e-01 2.795750796794891357e-01 3.491397202014923096e-01
1.391000000000000000e+03 1.573945522308349609e+01 2.298645782470703125e+01 5.776064395904541016e-01 2.086182832717895508e-01 2.358674108982086182e-01 3.334964811801910400e-01
1.392000000000000000e+03 1.303506088256835938e+01 3.530072784423828125e+01 1.455323845148086548e-01 -1.655960455536842346e-02 3.869182989001274109e-02 5.555088818073272705e-02
1.393000000000000000e+03 1.567889881134033203e+01 3.549602508544921875e+01 7.759825140237808228e-02 -1.318614333868026733e-01 -1.627895422279834747e-02 1.152549460530281067e-01
1.394000000000000000e+03 1.586488437652587891e+01 3.378928375244140625e+01 -3.130398690700531006e-02 -7.797951996326446533e-02 -3.278505429625511169e-02 8.351655304431915283e-02
1.395000000000000000e+03 1.420407199859619141e+01 3.430303192138671875e+01 1.007463634014129639e-01 -3.428377956151962280e-02 1.993877626955509186e-02 2.453626692295074463e-02
1.396000000000000000e+03 1.625188946723937988e+00 3.112662887573242188e+01 1.535223796963691711e-02 -5.080038905143737793e-01 -1.477954983711242676e-01 1.286668181419372559e-01
1.397000000000000000e+03 1.387205314636230469e+01 3.504354858398437500e+01 1.109354570508003235e-01 -3.435217961668968201e-02 2.297498472034931183e-02 6.286732852458953857e-02
1.398000000000000000e+03 1.744817352294921875e+01 1.910164833068847656e+01 -3.096474707126617432e-01 -8.355794101953506470e-02 -1.179616227746009827e-01 1.180773973464965820e-01
1.399000000000000000e+03 1.148421955108642578e+01 2.192207336425781250e+01 -5.878959223628044128e-02 2.061165310442447662e-02 -1.145338173955678940e-02 2.216653972864151001e-01
1.400000000000000000e+03 7.567334651947021484e+00 2.371930313110351562e+01 -2.951773405075073242e-01 -3.220699727535247803e-01 -1.851741969585418701e-01 2.512009739875793457e-01
1.401000000000000000e+03 1.526948070526123047e+01 1.915981674194335938e+01 -2.537155747413635254e-01 -5.111340060830116272e-02 -9.144869446754455566e-02 2.605167925357818604e-01
1.402000000000000000e+03 3.229264914989471436e-01 2.833605384826660156e+01 -4.456658381968736649e-03 -2.842842638492584229e-01 -8.662228286266326904e-02 3.102656640112400055e-02
1.403000000000000000e+03 3.314427435398101807e-01 2.913444137573242188e+01 1.585937920026481152e-03 -3.635281026363372803e-01 -1.085826531052589417e-01 3.272055089473724365e-02
1.404000000000000000e+03 6.950489521026611328e+00 2.420252418518066406e+01 -2.357414960861206055e-01 -4.179200232028961182e-01 -1.960984617471694946e-01 2.675599157810211182e-01
1.405000000000000000e+03 2.034925651550292969e+01 2.891581153869628906e+01 -3.274200111627578735e-02 -5.845468640327453613e-01 -1.851866543292999268e-01 1.891067475080490112e-01
1.406000000000000000e+03 2.440675354003906250e+01 2.796092605590820312e+01 6.421059966087341309e-01 7.510847449302673340e-01 4.179572165012359619e-01 5.930171012878417969e-01
1.407000000000000000e+03 6.687094879150390625e+01 2.052501296997070312e+01 -5.008299350738525391e-01 4.150379300117492676e-01 -2.573760785162448883e-02 -5.106446146965026855e-01
1.408000000000000000e+03 6.203996658325195312e+01 2.414863586425781250e+01 5.248969197273254395e-01 1.034392595291137695e+00 4.677868485450744629e-01 6.798225641250610352e-01
1.409000000000000000e+03 2.119913291931152344e+01 1.376969051361083984e+01 -5.417439714074134827e-02 -2.158662676811218262e-01 -8.101219683885574341e-02 4.363181442022323608e-02
1.410000000000000000e+03 7.891855621337890625e+01 1.107724952697753906e+01 1.182886958122253418e-02 8.390439987182617188e+00 2.520680427551269531e+00 -5.870023369789123535e-01
1.411000000000000000e+03 7.185848999023437500e+01 1.281341075897216797e+01 1.209699511528015137e-01 8.368872642517089844e+00 2.546952724456787109e+00 -3.940152227878570557e-01
1.412000000000000000e+03 6.507791137695312500e+01 2.071241950988769531e+01 -5.183525681495666504e-01 1.725415587425231934e-01 -1.037433072924613953e-01 1.592134684324264526e-01
1.413000000000000000e+03 7.220950317382812500e+01 1.577117252349853516e+01 1.445316076278686523e+00 7.627995491027832031e+00 2.721993446350097656e+00 -1.488257408142089844e+00
1.414000000000000000e+03 6.854175567626953125e+01 1.982960510253906250e+01 3.091522306203842163e-02 1.809498667716979980e+00 5.521241426467895508e-01 -1.002136588096618652e+00
1.415000000000000000e+03 6.809522247314453125e+01 2.040536689758300781e+01 -9.817397594451904297e-02 1.685643196105957031e+00 4.762407839298248291e-01 -1.097370147705078125e+00
1.416000000000000000e+03 7.223270416259765625e+01 1.014468860626220703e+01 -2.877411842346191406e-01 5.522792339324951172e+00 1.570515275001525879e+00 -5.420984029769897461e-01
1.417000000000000000e+03 3.100373077392578125e+01 1.508254718780517578e+01 -6.493710726499557495e-02 6.591135859489440918e-01 1.782529503107070923e-01 4.120639562606811523e-01
1.418000000000000000e+03 7.186357879638671875e+01 1.362028598785400391e+01 2.972884178161621094e-01 9.424654960632324219e+00 2.916582822799682617e+00 -8.256767988204956055e-01
1.419000000000000000e+03 7.267687988281250000e+01 1.445049858093261719e+01 1.474374651908874512e+00 7.884601593017578125e+00 2.807692766189575195e+00 -1.522580504417419434e+00
1.420000000000000000e+03 7.505501270294189453e+00 -2.510726213455200195e+00 1.130650099366903305e-02 -5.064798984676599503e-03 1.872510416433215141e-03 -3.274118062108755112e-04
1.421000000000000000e+03 1.035854935646057129e+00 -8.250788688659667969e+00 -4.076090408489108086e-04 3.827608004212379456e-02 1.136054098606109619e-02 9.920756332576274872e-03
1.422000000000000000e+03 8.226923942565917969e+00 -1.833672642707824707e+00 1.270021963864564896e-02 -2.413545036688446999e-03 3.086002310737967491e-03 -2.525213407352566719e-03
1.423000000000000000e+03 8.338006019592285156e+00 -3.166547775268554688e+00 9.451023302972316742e-03 -8.829244412481784821e-03 1.865337108029052615e-04 -4.382383543998003006e-03
1.424000000000000000e+03 8.279664993286132812e+00 -2.500524282455444336e+00 1.038906443864107132e-02 -7.079048082232475281e-03 9.930047672241926193e-04 -4.067533183842897415e-03
1.425000000000000000e+03 6.671951770782470703e+00 -1.837006211280822754e+00 1.325089391320943832e-02 -1.891170861199498177e-03 3.407916985452175140e-03 2.443076809868216515e-03
1.426000000000000000e+03 6.737436294555664062e+00 -2.511022806167602539e+00 1.098843757063150406e-02 -5.906802136451005936e-03 1.524490537121891975e-03 2.033047610893845558e-03
1.427000000000000000e+03 5.235741615295410156e+00 -2.523651123046875000e+00 9.542215615510940552e-03 -3.790199523791670799e-03 1.725604757666587830e-03 6.566585972905158997e-03
1.428000000000000000e+03 3.251795768737792969e-01 -5.915721416473388672e+00 -5.441731773316860199e-04 2.727376297116279602e-02 8.018877357244491577e-03 2.816401422023773193e-03
1.429000000000000000e+03 3.259589672088623047e-01 -5.116137504577636719e+00 6.973148556426167488e-04 2.059075795114040375e-02 6.386421620845794678e-03 2.593743614852428436e-03
1.430000000000000000e+03 1.154810667037963867e+00 -1.909285664558410645e+00 1.139422645792365074e-03 3.101263660937547684e-03 1.272205845452845097e-03 3.207195550203323364e-03
1.431000000000000000e+03 3.775694370269775391e+00 -3.647518396377563477e+00 6.204529665410518646e-03 -1.582506811246275902e-03 1.386606832966208458e-03 1.135402172803878784e-02
1.432000000000000000e+03 3.689807951450347900e-01 -2.706608772277832031e+00 -1.340379239991307259e-04 5.391710903495550156e-03 1.577301882207393646e-03 1.587059232406318188e-03
1.433000000000000000e+03 3.345077037811279297e-01 -4.314116001129150391e+00 -4.165600694250315428e-04 1.457804162055253983e-02 4.248444456607103348e-03 2.289973432198166847e-03
1.434000000000000000e+03 9.859906196594238281e+00 -2.431078433990478516e+00 8.302297443151473999e-03 -7.443986367434263229e-03 2.574933459982275963e-04 -1.032606232911348343e-02
1.435000000000000000e+03 7.070838928222656250e+01 9.007906913757324219e+00 -6.728286147117614746e-01 6.514170765876770020e-01 -6.423474755138158798e-03 -2.065363675355911255e-01
1.436000000000000000e+03 7.175849151611328125e+01 9.354170799255371094e+00 -8.166552782058715820e-01 3.955369472503662109e+00 9.416142106056213379e-01 -1.350438594818115234e-01
1.437000000000000000e+03 1.779955482482910156e+01 1.755179595947265625e+01 -4.787241220474243164e-01 -1.704988926649093628e-01 -1.947669088840484619e-01 2.645108401775360107e-01
1.438000000000000000e+03 1.899665069580078125e+01 1.654027366638183594e+01 -2.730406224727630615e-01 -2.077055126428604126e-01 -1.442238390445709229e-01 2.183179855346679688e-01
1.439000000000000000e+03 3.218977737426757812e+01 1.906390190124511719e+01 8.638779073953628540e-02 -1.246657222509384155e-02 2.217636629939079285e-02 3.115843534469604492e-01
1.440000000000000000e+03 6.161901473999023438e+01 1.725186157226562500e+01 3.425852656364440918e-01 1.831256031990051270e+00 6.521523594856262207e-01 6.764119863510131836e-01
1.441000000000000000e+03 6.242141723632812500e+01 1.863602447509765625e+01 4.091370403766632080e-01 1.060111641883850098e+00 4.407746195793151855e-01 5.885980725288391113e-01
1.442000000000000000e+03 7.107956695556640625e+01 1.700281333923339844e+01 1.319233536720275879e+00 5.521224975585937500e+00 2.052137613296508789e+00 -2.323915243148803711e+00
1.443000000000000000e+03 6.818599700927734375e+01 5.784221649169921875e+00 -1.274618953466415405e-01 -3.340755701065063477e-01 -1.384612321853637695e-01 -6.882981061935424805e-01
1.444000000000000000e+03 1.725257873535156250e+01 -2.682620620727539062e+01 8.500718325376510620e-02 -7.872903347015380859e-02 1.883444376289844513e-03 -9.870618581771850586e-02
1.445000000000000000e+03 6.633424377441406250e+01 6.313304901123046875e+00 -9.748072922229766846e-02 9.874347597360610962e-03 -2.628191560506820679e-02 -8.109625577926635742e-01
1.446000000000000000e+03 6.029268264770507812e+01 1.531175804138183594e+01 2.288118153810501099e-01 2.168844699859619141e+00 7.192969322204589844e-01 9.342397004365921021e-02
1.447000000000000000e+03 6.132706069946289062e+01 1.651613044738769531e+01 2.418230175971984863e-01 2.219105005264282227e+00 7.382784485816955566e-01 5.977469682693481445e-01
1.448000000000000000e+03 6.088315963745117188e+01 1.221582984924316406e+01 1.973201036453247070e-01 3.025365352630615234e+00 9.668056368827819824e-01 -4.294912815093994141e-01
1.449000000000000000e+03 5.458743667602539062e+01 1.108853149414062500e+01 7.027476560324430466e-03 -2.534746229648590088e-01 -7.393414527177810669e-02 5.174104869365692139e-02
1.450000000000000000e+03 5.312542724609375000e+01 1.727340507507324219e+01 1.614678800106048584e-01 1.620758771896362305e-01 9.706312417984008789e-02 -1.791754513978958130e-01
1.451000000000000000e+03 7.055569458007812500e+01 1.758261871337890625e+01 1.166695117950439453e+00 4.286252021789550781e+00 1.635884165763854980e+00 -2.132920980453491211e+00
1.452000000000000000e+03 6.147574996948242188e+01 1.827715492248535156e+01 2.422587275505065918e-01 1.389648199081420898e+00 4.895721077919006348e-01 4.271555542945861816e-01
1.453000000000000000e+03 7.260436248779296875e+01 1.359470748901367188e+01 8.479201793670654297e-01 8.325029373168945312e+00 2.751884937286376953e+00 -1.441807031631469727e+00
1.454000000000000000e+03 6.108538055419921875e+01 1.756628036499023438e+01 2.318897992372512817e-01 1.651932954788208008e+00 5.651468038558959961e-01 3.828078508377075195e-01
1.455000000000000000e+03 6.947856903076171875e+01 6.607698649168014526e-02 -1.491564154624938965e+00 -1.348353028297424316e-01 -4.879198074340820312e-01 -1.352817118167877197e-01
1.456000000000000000e+03 3.200869369506835938e+01 2.408253860473632812e+01 -3.482781052589416504e-01 -9.367636442184448242e-01 -3.855125308036804199e-01 4.255264699459075928e-01
1.457000000000000000e+03 6.345351791381835938e+01 8.367022514343261719e+00 1.169568657875061035e+00 1.220286488533020020e+00 7.169565558433532715e-01 -1.174741744995117188e+00
1.458000000000000000e+03 6.308824920654296875e+01 7.769768238067626953e+00 9.068893194198608398e-01 1.102373003959655762e+00 6.027786731719970703e-01 -9.473161101341247559e-01
1.459000000000000000e+03 6.723532867431640625e+01 6.413496494293212891e+00 -4.339200556278228760e-01 -2.539617717266082764e-01 -2.063645422458648682e-01 -7.201508879661560059e-01
1.460000000000000000e+03 7.004600524902343750e+01 1.814580726623535156e+01 9.559823870658874512e-01 3.272843599319458008e+00 1.268647789955139160e+00 -1.852409124374389648e+00
1.461000000000000000e+03 6.008865356445312500e+01 1.457983589172363281e+01 2.115471810102462769e-01 2.240351438522338867e+00 7.355695962905883789e-01 -5.269643664360046387e-02
1.462000000000000000e+03 2.254261207580566406e+01 1.547288894653320312e+01 -2.350241392850875854e-01 -2.099820077419281006e-01 -1.335018426179885864e-01 1.211032122373580933e-01
1.463000000000000000e+03 5.986599349975585938e+01 1.389432334899902344e+01 2.738521993160247803e-01 2.113922595977783203e+00 7.163324356079101562e-01 -1.768431812524795532e-01
1.464000000000000000e+03 7.740045928955078125e+01 1.055549335479736328e+01 1.990076154470443726e-02 7.992157459259033203e+00 2.403617620468139648e+00 -1.163757562637329102e+00
1.465000000000000000e+03 7.255857086181640625e+01 1.277786731719970703e+01 3.486245274543762207e-01 8.092616081237792969e+00 2.532372236251831055e+00 -8.774880766868591309e-01
1.466000000000000000e+03 5.955253982543945312e+01 1.323791313171386719e+01 3.322138786315917969e-01 1.963032960891723633e+00 6.885740756988525391e-01 -2.048279792070388794e-01
1.467000000000000000e+03 6.903353118896484375e+01 1.925638961791992188e+01 5.055399537086486816e-01 2.082042455673217773e+00 7.762747406959533691e-01 -1.250039577484130859e+00
1.468000000000000000e+03 6.953871917724609375e+01 1.869840049743652344e+01 6.973583698272705078e-01 2.603441715240478516e+00 9.902400374412536621e-01 -1.552124619483947754e+00
1.469000000000000000e+03 5.517681121826171875e+01 1.207257556915283203e+01 2.478315308690071106e-02 2.877112291753292084e-02 1.606628298759460449e-02 2.276797778904438019e-02
1.470000000000000000e+03 6.228850173950195312e+01 9.469353675842285156e+00 1.280730128288269043e+00 1.640263438224792480e+00 8.762980699539184570e-01 -1.367422938346862793e+00
1.471000000000000000e+03 6.244108581542968750e+01 8.302739143371582031e+00 8.690394759178161621e-01 1.282143115997314453e+00 6.453548073768615723e-01 -9.963775277137756348e-01
1.472000000000000000e+03 3.000713539123535156e+01 1.245753860473632812e+01 -1.582032293081283569e-01 6.270158886909484863e-01 1.406437903642654419e-01 3.486921489238739014e-01
1.473000000000000000e+03 3.500445938110351562e+01 2.312081146240234375e+01 -2.501473724842071533e-01 -5.814731717109680176e-01 -2.494861632585525513e-01 3.973591625690460205e-01
1.474000000000000000e+03 3.035726356506347656e+01 1.503819274902343750e+01 -1.370709091424942017e-01 6.931171417236328125e-01 1.668138653039932251e-01 4.776786267757415771e-01
1.475000000000000000e+03 2.365707778930664062e+01 1.698962211608886719e+01 -2.907330393791198730e-01 -2.905910611152648926e-01 -1.743972301483154297e-01 2.599928975105285645e-01
1.476000000000000000e+03 3.005460929870605469e+01 9.919956207275390625e+00 3.281346857547760010e-01 9.805177450180053711e-01 3.925957381725311279e-01 5.081999897956848145e-01
1.477000000000000000e+03 2.722420692443847656e+01 3.007411766052246094e+01 1.459287554025650024e-01 -2.778005301952362061e-01 -3.956153243780136108e-02 5.356528162956237793e-01
1.478000000000000000e+03 2.242278480529785156e+01 2.202406311035156250e+01 -1.169160846620798111e-02 -5.390875339508056641e-01 -1.652337461709976196e-01 -2.836195379495620728e-02
1.479000000000000000e+03 2.835143661499023438e+01 2.873870849609375000e+01 -2.559897601604461670e-01 -4.659584760665893555e-01 -2.165844738483428955e-01 4.149317443370819092e-01
1.480000000000000000e+03 3.082329559326171875e+01 2.647133827209472656e+01 -5.542799234390258789e-01 -8.691195249557495117e-01 -4.270198345184326172e-01 5.503857731819152832e-01
1.481000000000000000e+03 3.023386573791503906e+01 2.714360046386718750e+01 -5.080609917640686035e-01 -7.545835375785827637e-01 -3.787933588027954102e-01 5.335963368415832520e-01
1.482000000000000000e+03 2.207217979431152344e+01 2.747428131103515625e+01 2.998653054237365723e-01 -7.192696630954742432e-02 6.838149577379226685e-02 3.686358630657196045e-01
1.483000000000000000e+03 2.178363418579101562e+01 2.025348091125488281e+01 -9.127820283174514771e-02 -4.137823283672332764e-01 -1.515181660652160645e-01 4.417575150728225708e-02
1.484000000000000000e+03 2.061424636840820312e+01 1.482403659820556641e+01 -9.566172212362289429e-02 -2.486443668603897095e-01 -1.032918244600296021e-01 8.321812748908996582e-02
1.485000000000000000e+03 3.565633392333984375e+01 2.249987411499023438e+01 -1.374510675668716431e-01 -5.789295434951782227e-01 -2.149141728878021240e-01 4.039803147315979004e-01
1.486000000000000000e+03 2.339738464355468750e+01 2.587199974060058594e+01 1.818242520093917847e-01 4.175642430782318115e-01 1.798165440559387207e-01 3.036506772041320801e-01
1.487000000000000000e+03 2.732471275329589844e+01 1.475920963287353516e+01 -4.240224361419677734e-01 -7.020146399736404419e-02 -1.482671648263931274e-01 1.816543042659759521e-01
1.488000000000000000e+03 2.223618507385253906e+01 1.402120304107666016e+01 -1.049032434821128845e-01 -2.057353705167770386e-01 -9.319158643484115601e-02 5.500545352697372437e-02
1.489000000000000000e+03 2.182367897033691406e+01 2.571377182006835938e+01 3.515647649765014648e-01 -1.331490427255630493e-01 6.552471220493316650e-02 3.984303474426269531e-01
1.490000000000000000e+03 2.311984062194824219e+01 2.672654342651367188e+01 3.524796664714813232e-01 2.990738451480865479e-01 1.954660564661026001e-01 4.197577834129333496e-01
1.491000000000000000e+03 2.961014938354492188e+01 2.774474334716796875e+01 -4.237843751907348633e-01 -6.513489484786987305e-01 -3.225399851799011230e-01 5.215097069740295410e-01
1.492000000000000000e+03 2.164301681518554688e+01 2.116969490051269531e+01 -3.794874250888824463e-02 -3.793699443340301514e-01 -1.251956075429916382e-01 1.174496673047542572e-02
1.493000000000000000e+03 2.207174110412597656e+01 2.375672340393066406e+01 1.196768209338188171e-01 -2.579660713672637939e-01 -4.148677363991737366e-02 1.311642676591873169e-01
1.494000000000000000e+03 2.200309562683105469e+01 1.940560722351074219e+01 -1.522408574819564819e-01 -4.139214456081390381e-01 -1.698486804962158203e-01 1.037834137678146362e-01
1.495000000000000000e+03 2.143223190307617188e+01 1.441412734985351562e+01 -1.046470254659652710e-01 -2.107534259557723999e-01 -9.462013840675354004e-02 6.320408731698989868e-02
1.496000000000000000e+03 3.163109588623046875e+01 2.149500656127929688e+01 1.225530519150197506e-03 -5.383083820343017578e-01 -1.611248552799224854e-01 8.009909838438034058e-02
1.497000000000000000e+03 3.237650680541992188e+01 2.238242912292480469e+01 -8.000612258911132812e-02 -6.933829188346862793e-01 -2.320167124271392822e-01 2.765626907348632812e-01
1.498000000000000000e+03 1.909013938903808594e+01 2.445617294311523438e+01 5.418982505798339844e-01 3.490022942423820496e-02 1.730395406484603882e-01 2.519091069698333740e-01
1.499000000000000000e+03 3.160825157165527344e+01 2.069381332397460938e+01 -5.185112822800874710e-03 -3.728619813919067383e-01 -1.134141236543655396e-01 7.592300325632095337e-02
1.500000000000000000e+03 3.240414428710937500e+01 2.149825477600097656e+01 -2.293991111218929291e-02 -5.483434200286865234e-01 -1.713849902153015137e-01 2.308109998703002930e-01
1.501000000000000000e+03 3.231214904785156250e+01 2.064880180358886719e+01 2.695490606129169464e-02 -3.818924129009246826e-01 -1.064812541007995605e-01 2.199876308441162109e-01
1.502000000000000000e+03 5.256788253784179688e+01 -8.698744773864746094e+00 -8.244837522506713867e-01 -2.867394685745239258e-01 -3.333669602870941162e-01 2.560276687145233154e-01
1.503000000000000000e+03 2.922185134887695312e+01 5.103015422821044922e+00 8.162906020879745483e-02 5.709549188613891602e-01 1.957751959562301636e-01 -8.584687858819961548e-02
1.504000000000000000e+03 2.786451530456542969e+01 1.005528807640075684e+00 -7.318666577339172363e-01 8.208949118852615356e-02 -1.949331611394882202e-01 1.019433811306953430e-01
1.505000000000000000e+03 2.110627555847167969e+01 2.853030443191528320e+00 -5.265337824821472168e-01 -8.282360434532165527e-02 -1.828072220087051392e-01 1.656420081853866577e-01
1.506000000000000000e+03 2.020209312438964844e+01 4.105543613433837891e+00 -2.881995141506195068e-01 -9.043962508440017700e-02 -1.135917380452156067e-01 1.314038038253784180e-01
1.507000000000000000e+03 2.454005241394042969e+01 2.701067924499511719e+00 -4.647386074066162109e-01 -5.945568531751632690e-02 -1.572582870721817017e-01 2.147549241781234741e-01
1.508000000000000000e+03 2.732485008239746094e+01 4.187751770019531250e+00 -1.884482055902481079e-01 2.040714174509048462e-01 4.686966538429260254e-03 1.713852584362030029e-01
1.509000000000000000e+03 2.082169151306152344e+01 3.823559045791625977e+00 -3.334620594978332520e-01 -9.861744195222854614e-02 -1.296238452196121216e-01 1.447315365076065063e-01
1.510000000000000000e+03 2.303774833679199219e+01 3.170294284820556641e+00 -4.108506143093109131e-01 -1.007878556847572327e-01 -1.534915417432785034e-01 1.950262784957885742e-01
1.511000000000000000e+03 2.338219070434570312e+01 2.240782737731933594e+00 -5.812668800354003906e-01 -8.747949451208114624e-02 -2.006239145994186401e-01 2.213120907545089722e-01
1.512000000000000000e+03 2.495774078369140625e+01 3.357201814651489258e+00 -3.377757072448730469e-01 -3.697414696216583252e-02 -1.124249622225761414e-01 2.084576785564422607e-01
1.513000000000000000e+03 2.953971481323242188e+01 1.310746192932128906e+00 -7.040079236030578613e-01 2.022822946310043335e-01 -1.505176872014999390e-01 1.371015422046184540e-02
1.514000000000000000e+03 2.835217475891113281e+01 2.266009807586669922e+00 -5.523770451545715332e-01 2.039029896259307861e-01 -1.045422181487083435e-01 7.848231494426727295e-02
1.515000000000000000e+03 2.063504219055175781e+01 4.808121204376220703e+00 -1.695123165845870972e-01 -9.931143373250961304e-02 -8.064712584018707275e-02 1.290087848901748657e-01
1.516000000000000000e+03 3.156156730651855469e+01 7.697246670722961426e-01 -8.818176984786987305e-01 1.467269361019134521e-01 -2.205272316932678223e-01 -1.644514650106430054e-01
1.517000000000000000e+03 3.067904663085937500e+01 3.317441701889038086e+00 -2.859985232353210449e-01 1.878134012222290039e-01 -2.945553883910179138e-02 -8.141580969095230103e-03
1.518000000000000000e+03 1.790301132202148438e+01 7.663537025451660156e+00 3.574629426002502441e-01 1.571350842714309692e-01 1.543793976306915283e-01 2.258857339620590210e-01
1.519000000000000000e+03 7.303877258300781250e+01 -3.747727870941162109e-01 -1.445814013481140137e+00 4.547922134399414062e+00 9.306323528289794922e-01 -1.431850194931030273e+00
1.520000000000000000e+03 7.208223724365234375e+01 -1.082375645637512207e+00 -1.354872345924377441e+00 1.555006504058837891e+00 6.004023924469947815e-02 -7.950552701950073242e-01
1.521000000000000000e+03 2.933783149719238281e+01 5.911995887756347656e+00 1.212980374693870544e-01 8.580499291419982910e-01 2.938044071197509766e-01 -1.637543141841888428e-01
1.522000000000000000e+03 2.869561004638671875e+01 3.568910360336303711e+00 -2.973262965679168701e-01 3.056522309780120850e-01 2.497773617506027222e-03 5.959204211831092834e-02
1.523000000000000000e+03 3.180505371093750000e+01 1.246296882629394531e+01 -3.224989771842956543e-01 3.463656604290008545e-01 7.160000037401914597e-03 3.429550230503082275e-01
1.524000000000000000e+03 4.824287033081054688e+01 -1.714687156677246094e+01 -1.432093858718872070e+00 -6.235228776931762695e-01 -6.166850328445434570e-01 -6.751691102981567383e-01
1.525000000000000000e+03 4.942962646484375000e+01 -1.600801467895507812e+01 -1.114737629890441895e+00 -1.473146826028823853e-01 -3.786157071590423584e-01 -5.682141780853271484e-01
1.526000000000000000e+03 4.874829864501953125e+01 -1.626004981994628906e+01 -9.590650200843811035e-01 -4.182257056236267090e-01 -4.131872057914733887e-01 -5.228331089019775391e-01
1.527000000000000000e+03 4.710552978515625000e+01 -2.206305885314941406e+01 3.938522338867187500e-01 7.529595494270324707e-01 3.440435230731964111e-01 -4.720436930656433105e-01
1.528000000000000000e+03 4.030525588989257812e+01 -2.291502761840820312e+01 1.512079127132892609e-02 -4.355815649032592773e-01 -1.261382400989532471e-01 -4.076810777187347412e-01
1.529000000000000000e+03 6.516898345947265625e+01 -1.020453262329101562e+01 -1.867758393287658691e+00 3.032220900058746338e-01 -4.693608880043029785e-01 6.702685356140136719e-01
1.530000000000000000e+03 5.954122543334960938e+01 -9.470716476440429688e+00 -2.559712409973144531e+00 -6.159288287162780762e-01 -9.526923298835754395e-01 -1.107474565505981445e+00
1.531000000000000000e+03 1.386933422088623047e+01 6.668426513671875000e+00 -5.825700759887695312e-01 -1.248547807335853577e-01 -2.122274637222290039e-01 2.171242237091064453e-01
1.532000000000000000e+03 1.301032924652099609e+01 6.993910789489746094e+00 -6.007724404335021973e-01 -2.816766500473022461e-01 -2.647347152233123779e-01 3.286729753017425537e-01
1.533000000000000000e+03 6.079663085937500000e+01 -8.068430900573730469e+00 -3.674562275409698486e-01 -1.072140783071517944e-01 -1.424010992050170898e-01 -3.241239190101623535e-01
1.534000000000000000e+03 5.818136978149414062e+01 -1.055984020233154297e+01 -3.349245309829711914e+00 -6.369923353195190430e-01 -1.195871233940124512e+00 -2.855060994625091553e-01
1.535000000000000000e+03 1.454010486602783203e+01 1.847787666320800781e+01 -2.541457116603851318e-01 -1.353363855741918087e-03 -7.664972543716430664e-02 1.187439188361167908e-01
1.536000000000000000e+03 1.315200233459472656e+01 1.989622879028320312e+01 -3.701440244913101196e-02 1.926007866859436035e-01 4.667591676115989685e-02 3.716450631618499756e-01
1.537000000000000000e+03 4.909159469604492188e+01 1.993316459655761719e+01 3.630804717540740967e-01 1.858905404806137085e-01 1.646912992000579834e-01 1.265903115272521973e-01
1.538000000000000000e+03 4.858362197875976562e+01 1.930119323730468750e+01 4.244297444820404053e-01 1.639081984758377075e-01 1.765013784170150757e-01 1.399950236082077026e-01
1.539000000000000000e+03 6.021988677978515625e+01 -9.440584182739257812e+00 -2.056375741958618164e+00 -3.075792193412780762e-01 -7.091864943504333496e-01 -6.947212815284729004e-01
1.540000000000000000e+03 4.868447494506835938e+01 -2.659520149230957031e+00 -2.652254700660705566e-01 4.400932043790817261e-02 -6.636484712362289429e-02 1.272108703851699829e-01
1.541000000000000000e+03 5.500279617309570312e+01 -8.982433319091796875e+00 -1.279211282730102539e+00 -6.903569102287292480e-01 -5.908704400062561035e-01 8.913271427154541016e-01
1.542000000000000000e+03 5.514256286621093750e+01 -1.018764877319335938e+01 -2.321734428405761719e+00 -2.803475856781005859e-01 -7.806246280670166016e-01 2.377042919397354126e-01
1.543000000000000000e+03 6.231167602539062500e+01 -5.139328479766845703e+00 9.079820476472377777e-03 -4.499460011720657349e-02 -1.077443454414606094e-02 3.314399719238281250e-02
1.544000000000000000e+03 2.558172225952148438e+01 -3.904433822631835938e+01 2.455624788999557495e-01 -3.706279993057250977e-01 -3.751965984702110291e-02 5.556435137987136841e-02
1.545000000000000000e+03 2.563167381286621094e+01 -3.621926498413085938e+01 -5.249425023794174194e-02 -3.872332870960235596e-01 -1.319182664155960083e-01 -5.185216665267944336e-02
1.546000000000000000e+03 5.164852905273437500e+01 -1.057819175720214844e+01 -9.335776567459106445e-01 6.490473449230194092e-02 -2.606018781661987305e-01 -3.122384250164031982e-01
1.547000000000000000e+03 5.901094818115234375e+01 -1.109838199615478516e+01 -2.442219734191894531e+00 -3.505245447158813477e-01 -8.378232717514038086e-01 -3.718191012740135193e-02
1.548000000000000000e+03 5.893901824951171875e+01 -1.041218280792236328e+01 -2.984686136245727539e+00 -4.683577716350555420e-01 -1.035913109779357910e+00 -3.589278459548950195e-01
1.549000000000000000e+03 3.960415267944335938e+01 -2.460501480102539062e+01 -2.597313523292541504e-01 -1.354381203651428223e+00 -4.842337667942047119e-01 -4.285121262073516846e-01
1.550000000000000000e+03 5.098699569702148438e+01 -2.145915269851684570e+00 -9.013903886079788208e-02 -2.469396591186523438e-02 -3.444990143179893494e-02 8.343962579965591431e-02
1.551000000000000000e+03 4.946289062500000000e+01 -2.455934286117553711e+00 -2.250556796789169312e-01 3.240511566400527954e-02 -5.779516696929931641e-02 1.337669044733047485e-01
1.552000000000000000e+03 5.271644973754882812e+01 -4.835748195648193359e+00 -1.685562729835510254e-02 -3.809023201465606689e-01 -1.193273812532424927e-01 7.996527850627899170e-02
1.553000000000000000e+03 1.374635982513427734e+01 -1.825548529624938965e+00 -8.326186216436326504e-04 -1.228988752700388432e-03 -6.184821831993758678e-04 -1.445583812892436981e-02
1.554000000000000000e+03 1.065954780578613281e+01 -2.343652725219726562e+00 6.669636350125074387e-03 -5.241580307483673096e-03 4.284167953301221132e-04 -1.237067673355340958e-02
1.555000000000000000e+03 1.222749519348144531e+01 -2.086968898773193359e+00 2.759036608040332794e-03 -3.918353468179702759e-03 -3.477950522210448980e-04 -1.481086760759353638e-02
1.556000000000000000e+03 1.448683834075927734e+01 -1.681157827377319336e+00 -3.177811624482274055e-03 -2.692157402634620667e-03 -1.760990708135068417e-03 -1.205696165561676025e-02
1.557000000000000000e+03 3.315471267700195312e+01 -2.911870384216308594e+01 1.810584515333175659e-01 2.042364627122879028e-01 1.155884712934494019e-01 -1.924094557762145996e-01
1.558000000000000000e+03 3.333765792846679688e+01 1.215743541717529297e+01 -7.445144653320312500e-01 -2.957850927487015724e-03 -2.242416888475418091e-01 7.828998565673828125e-02
1.559000000000000000e+03 3.201451873779296875e+01 1.325782680511474609e+01 -4.034485220909118652e-01 3.628820478916168213e-01 -1.216993946582078934e-02 4.165091216564178467e-01
1.560000000000000000e+03 6.095031356811523438e+01 -6.168231010437011719e+00 8.705619722604751587e-03 1.451665759086608887e-01 4.616165906190872192e-02 1.811494864523410797e-02
1.561000000000000000e+03 5.440914916992187500e+01 -8.400956153869628906e+00 -9.187657237052917480e-01 -6.490820646286010742e-01 -4.703543484210968018e-01 7.116614580154418945e-01
1.562000000000000000e+03 5.446431350708007812e+01 -9.544691085815429688e+00 -1.700242757797241211e+00 -3.213560283184051514e-01 -6.064796447753906250e-01 5.824966430664062500e-01
1.563000000000000000e+03 5.275352096557617188e+01 -7.479495048522949219e+00 -5.533416867256164551e-01 -5.624183416366577148e-01 -3.347280323505401611e-01 3.966323137283325195e-01
1.564000000000000000e+03 5.382287216186523438e+01 -8.924738883972167969e+00 -1.083227038383483887e+00 -4.425688087940216064e-01 -4.577387571334838867e-01 5.491219758987426758e-01
1.565000000000000000e+03 1.999639129638671875e+01 1.535520362854003906e+01 -1.086898297071456909e-01 -2.735228538513183594e-01 -1.146638020873069763e-01 1.324844509363174438e-01
1.566000000000000000e+03 2.034922981262207031e+01 1.411858558654785156e+01 -2.675096876919269562e-02 -2.355420887470245361e-01 -7.868791371583938599e-02 3.190525621175765991e-02
1.567000000000000000e+03 5.407945251464843750e+01 -2.429654502868652344e+01 -4.799941554665565491e-02 -1.188587397336959839e-02 -1.796558685600757599e-02 -1.944813877344131470e-02
1.568000000000000000e+03 6.012483978271484375e+01 -2.689349365234375000e+01 7.623492926359176636e-02 1.518482714891433716e-01 6.842496246099472046e-02 2.403338700532913208e-01
1.569000000000000000e+03 3.456932067871093750e+01 -1.440189552307128906e+01 -7.130995988845825195e-01 -7.523466646671295166e-02 -2.365002781152725220e-01 -1.584472954273223877e-01
1.570000000000000000e+03 1.923591613769531250e+01 -4.155551147460937500e+01 4.960186779499053955e-01 8.077518641948699951e-02 1.730381548404693604e-01 6.362189352512359619e-02
1.571000000000000000e+03 1.833680152893066406e+01 -4.056446838378906250e+01 5.734981894493103027e-01 4.903260618448257446e-02 1.867592483758926392e-01 2.181096188724040985e-02
1.572000000000000000e+03 4.683519744873046875e+01 1.887561607360839844e+01 3.929296135902404785e-01 4.040036797523498535e-01 2.390799969434738159e-01 2.736198902130126953e-01
1.573000000000000000e+03 4.577869796752929688e+01 -1.875462150573730469e+01 -3.110033273696899414e-01 -1.804642677307128906e-01 -1.474402844905853271e-01 -4.507881402969360352e-01
1.574000000000000000e+03 2.758419227600097656e+01 -2.388040924072265625e+01 1.404494494199752808e-01 -1.424537450075149536e-01 -6.012880476191639900e-04 -1.393339484930038452e-01
1.575000000000000000e+03 2.845316886901855469e+01 -2.307323074340820312e+01 5.929618701338768005e-02 -1.421785801649093628e-01 -2.486471831798553467e-02 -1.021660119295120239e-01
1.576000000000000000e+03 2.877348518371582031e+01 -2.397803497314453125e+01 1.349828988313674927e-01 -8.631347864866256714e-02 1.460082549601793289e-02 -1.187616661190986633e-01
1.577000000000000000e+03 3.859782791137695312e+01 -2.635023689270019531e+01 -4.868980646133422852e-01 -8.715194463729858398e-01 -4.075252413749694824e-01 -6.245634555816650391e-01
1.578000000000000000e+03 3.954219055175781250e+01 -2.642492294311523438e+01 -1.951200813055038452e-01 -8.425251841545104980e-01 -3.112935721874237061e-01 -2.846159338951110840e-01
1.579000000000000000e+03 5.606259536743164062e+01 -1.762084770202636719e+01 5.199859142303466797e-01 -7.563175261020660400e-02 1.333062499761581421e-01 -3.513739407062530518e-01
1.580000000000000000e+03 3.931613540649414062e+01 -3.028825569152832031e+01 -4.483214020729064941e-02 -6.413272619247436523e-01 -2.058478146791458130e-01 -1.704681515693664551e-01
1.581000000000000000e+03 3.049799156188964844e+01 -1.651582527160644531e+01 -4.035737514495849609e-01 -3.178262114524841309e-01 -2.164199948310852051e-01 -2.737525999546051025e-01
1.582000000000000000e+03 3.933183288574218750e+01 -1.249631118774414062e+01 -4.545691311359405518e-01 3.451623916625976562e-01 -3.282201662659645081e-02 1.256744284182786942e-02
1.583000000000000000e+03 3.973492050170898438e+01 -2.959489822387695312e+01 1.337380427867174149e-02 -6.056098937988281250e-01 -1.776708364486694336e-01 -1.536544114351272583e-01
1.584000000000000000e+03 2.915499305725097656e+01 -2.593030166625976562e+01 2.645163834095001221e-01 -3.440485894680023193e-02 6.903345882892608643e-02 -1.384942531585693359e-01
1.585000000000000000e+03 1.101905250549316406e+01 1.654622840881347656e+01 4.039559662342071533e-01 4.209910631179809570e-01 2.474841028451919556e-01 3.496398031711578369e-01
1.586000000000000000e+03 3.371097564697265625e+01 -2.982676887512207031e+01 1.088485792279243469e-01 1.510855406522750854e-01 7.798023521900177002e-02 -2.596229910850524902e-01
1.587000000000000000e+03 4.105705642700195312e+01 -2.352093124389648438e+01 -8.841391652822494507e-02 -3.096813857555389404e-01 -1.194285973906517029e-01 -5.273266434669494629e-01
1.588000000000000000e+03 4.393270111083984375e+01 -2.626532936096191406e+01 2.194787263870239258e-01 1.375980526208877563e-01 1.071230322122573853e-01 -1.998302787542343140e-01
1.589000000000000000e+03 3.827045822143554688e+01 -1.145757579803466797e+01 -1.273469328880310059e-01 5.999310612678527832e-01 1.417752355337142944e-01 -2.067649811506271362e-01
1.590000000000000000e+03 3.989709854125976562e+01 -2.698321342468261719e+01 -8.811484277248382568e-02 -6.934919357299804688e-01 -2.344820350408554077e-01 -2.239023000001907349e-01
1.591000000000000000e+03 3.752687835693359375e+01 -1.710135269165039062e+01 4.141505956649780273e-01 9.058674573898315430e-01 3.960054218769073486e-01 -6.034594178199768066e-01
1.592000000000000000e+03 3.737245559692382812e+01 -1.557244968414306641e+01 -4.298745095729827881e-01 7.570436000823974609e-01 9.815072268247604370e-02 -2.372497022151947021e-01
1.593000000000000000e+03 2.690668106079101562e+01 -1.377136611938476562e+01 -5.192109346389770508e-01 -2.195901870727539062e-01 -2.216403484344482422e-01 -2.241342514753341675e-01
1.594000000000000000e+03 2.901019668579101562e+01 -1.865383148193359375e+01 -1.565425693988800049e-01 -3.393860757350921631e-01 -1.487785875797271729e-01 -1.760322451591491699e-01
1.595000000000000000e+03 3.858185577392578125e+01 -2.877495574951171875e+01 1.697753369808197021e-02 -6.270661354064941406e-01 -1.830265820026397705e-01 -2.053289413452148438e-01
1.596000000000000000e+03 2.906133842468261719e+01 -2.129814910888671875e+01 -1.977417059242725372e-02 -3.137118518352508545e-01 -1.000458002090454102e-01 -4.866575822234153748e-02
1.597000000000000000e+03 2.834857559204101562e+01 -2.214822006225585938e+01 -5.665189120918512344e-03 -1.993959993124008179e-01 -6.151835620403289795e-02 -8.387604355812072754e-02
1.598000000000000000e+03 1.231108188629150391e+01 7.536638736724853516e+00 -4.172838330268859863e-01 -3.065614998340606689e-01 -2.171535938978195190e-01 3.286875784397125244e-01
1.599000000000000000e+03 2.967028999328613281e+01 -1.890885734558105469e+01 -1.056630462408065796e-01 -3.878021240234375000e-01 -1.480395495891571045e-01 -1.802031993865966797e-01
1.600000000000000000e+03 3.808682250976562500e+01 -1.679861450195312500e+01 1.043541654944419861e-01 8.151590824127197266e-01 2.758539617061614990e-01 -3.547133207321166992e-01
1.601000000000000000e+03 3.901442337036132812e+01 -2.692535591125488281e+01 -1.675897240638732910e-01 -8.843603134155273438e-01 -3.155850172042846680e-01 -3.569250702857971191e-01
1.602000000000000000e+03 2.737917137145996094e+01 1.410686779022216797e+01 -2.174947857856750488e-01 -2.241116017103195190e-02 -7.197178155183792114e-02 2.275889217853546143e-01
1.603000000000000000e+03 3.093178749084472656e+01 1.124400615692138672e+01 3.907237350940704346e-01 7.370628118515014648e-01 3.383359611034393311e-01 4.846213459968566895e-01
1.604000000000000000e+03 2.834230804443359375e+01 -2.124953460693359375e+01 -4.126595333218574524e-02 -2.523984313011169434e-01 -8.809931576251983643e-02 -8.943752199411392212e-02
1.605000000000000000e+03 2.883896636962890625e+01 7.955722332000732422e+00 1.714502573013305664e-01 8.824247121810913086e-01 3.161624968051910400e-01 1.809007376432418823e-01
1.606000000000000000e+03 3.092760276794433594e+01 -2.672994804382324219e+01 2.859520614147186279e-01 1.265618056058883667e-01 1.237541586160659790e-01 -2.103135436773300171e-01
1.607000000000000000e+03 3.904415130615234375e+01 -1.806276893615722656e+01 3.042284250259399414e-01 6.720174551010131836e-01 2.928737699985504150e-01 -4.429472982883453369e-01
1.608000000000000000e+03 5.697499084472656250e+01 -3.044959068298339844e+01 2.916198670864105225e-01 1.086644291877746582e+00 4.134792387485504150e-01 4.629583358764648438e-01
1.609000000000000000e+03 1.024394035339355469e+01 2.152344703674316406e+01 -9.157050400972366333e-02 -7.039728760719299316e-02 -4.859033599495887756e-02 1.885531395673751831e-01
1.610000000000000000e+03 2.945152854919433594e+01 -1.787573242187500000e+01 -2.203482836484909058e-01 -3.435426652431488037e-01 -1.691672801971435547e-01 -2.195196896791458130e-01
1.611000000000000000e+03 3.299477005004882812e+01 -1.530404567718505859e+01 -1.013611555099487305e+00 -2.041461914777755737e-01 -3.653273284435272217e-01 -3.089076280593872070e-01
1.612000000000000000e+03 2.910074806213378906e+01 -1.212608337402343750e+01 -3.837136626243591309e-01 -3.879968225955963135e-01 -2.315131425857543945e-01 -2.146021723747253418e-01
1.613000000000000000e+03 4.619091415405273438e+01 -1.977658081054687500e+01 -8.612851798534393311e-02 -4.969725757837295532e-02 -4.074773192405700684e-02 -4.045624136924743652e-01
1.614000000000000000e+03 3.999195861816406250e+01 -2.049954414367675781e+01 2.699103653430938721e-01 2.348196655511856079e-01 1.514190137386322021e-01 -4.721607565879821777e-01
1.615000000000000000e+03 5.582578659057617188e+01 -2.174589729309082031e+01 3.809352219104766846e-02 -8.099833130836486816e-02 -1.287144329398870468e-02 2.479149587452411652e-02
1.616000000000000000e+03 5.509778594970703125e+01 -2.254040336608886719e+01 8.466862142086029053e-03 -2.474592924118041992e-01 -7.169772684574127197e-02 -7.813395932316780090e-03
1.617000000000000000e+03 5.071903610229492188e+01 -2.620745658874511719e+01 3.322581648826599121e-01 2.556828856468200684e-01 1.763823032379150391e-01 -3.015914559364318848e-01
1.618000000000000000e+03 4.027237701416015625e+01 -2.212618827819824219e+01 6.568244099617004395e-02 -1.882528066635131836e-01 -3.677110746502876282e-02 -4.288118183612823486e-01
1.619000000000000000e+03 5.355613327026367188e+01 -2.549676704406738281e+01 1.599082052707672119e-01 6.127432361245155334e-02 6.635475903749465942e-02 2.059858525171875954e-03
1.620000000000000000e+03 5.186184310913085938e+01 -2.503537368774414062e+01 1.400954127311706543e-01 6.838959525339305401e-04 4.223379492759704590e-02 -6.176524981856346130e-02
1.621000000000000000e+03 3.149154853820800781e+01 -2.730639457702636719e+01 3.311522603034973145e-01 1.450089812278747559e-01 1.428483724594116211e-01 -2.276604473590850830e-01
1.622000000000000000e+03 3.035222244262695312e+01 -2.614535331726074219e+01 2.634608447551727295e-01 9.830142557621002197e-02 1.085286810994148254e-01 -1.779751032590866089e-01
1.623000000000000000e+03 1.556098365783691406e+01 -3.931757736206054688e+01 1.871164590120315552e-01 1.443389654159545898e-01 9.943663328886032104e-02 -1.894499063491821289e-01
1.624000000000000000e+03 3.205608367919921875e+01 1.663956046104431152e+00 -1.005236268043518066e+00 1.639747023582458496e-01 -2.523784637451171875e-01 -1.758017204701900482e-02
1.625000000000000000e+03 3.224567413330078125e+01 2.874714136123657227e+00 -3.000616431236267090e-01 -6.274071335792541504e-02 -1.088407039642333984e-01 1.956189870834350586e-01
1.626000000000000000e+03 4.210663986206054688e+01 -1.359612846374511719e+01 -1.728093266487121582e+00 -1.634019911289215088e-01 -5.674485564231872559e-01 1.282356828451156616e-01
1.627000000000000000e+03 5.516719818115234375e+01 -1.693802261352539062e+01 4.637527465820312500e-01 8.092048019170761108e-02 1.634019762277603149e-01 -3.104471564292907715e-01
1.628000000000000000e+03 4.697056579589843750e+01 -1.745812606811523438e+01 -8.087458610534667969e-01 -3.773643672466278076e-01 -3.558330535888671875e-01 -3.816878497600555420e-01
1.629000000000000000e+03 4.566958618164062500e+01 -1.651207542419433594e+01 -7.613686323165893555e-01 -1.807894408702850342e-01 -2.826474308967590332e-01 -1.779291033744812012e-01
1.630000000000000000e+03 2.988734436035156250e+01 1.088813877105712891e+01 2.599465847015380859e-01 7.219770550727844238e-01 2.945770919322967529e-01 3.650709092617034912e-01
1.631000000000000000e+03 2.945404434204101562e+01 1.024443244934082031e+01 2.433347553014755249e-01 7.549657821655273438e-01 2.994901537895202637e-01 3.455111384391784668e-01
1.632000000000000000e+03 4.933314895629882812e+01 -2.428775978088378906e+01 6.403139233589172363e-01 4.293430745601654053e-01 3.208971023559570312e-01 -4.722247719764709473e-01
1.633000000000000000e+03 4.823648452758789062e+01 -2.919998550415039062e+01 4.420266449451446533e-01 4.143841564655303955e-01 2.569232285022735596e-01 -3.769201040267944336e-01
1.634000000000000000e+03 3.110066223144531250e+01 3.907256841659545898e+00 -1.278076134622097015e-02 1.325321495532989502e-01 3.592541813850402832e-02 -3.652505949139595032e-02
1.635000000000000000e+03 3.166920471191406250e+01 3.391185045242309570e+00 -1.456811279058456421e-01 1.964729093015193939e-02 -3.781015053391456604e-02 2.697969041764736176e-02
1.636000000000000000e+03 2.766688728332519531e+01 2.397243261337280273e+00 -5.243215560913085938e-01 1.468679308891296387e-01 -1.132360994815826416e-01 1.389345824718475342e-01
1.637000000000000000e+03 3.012618637084960938e+01 3.739725828170776367e+00 -1.901440173387527466e-01 3.190263211727142334e-01 3.866469487547874451e-02 -5.223101750016212463e-02
1.638000000000000000e+03 8.177293777465820312e+00 1.211617469787597656e+01 -3.057709336280822754e-02 -1.092350780963897705e-01 -4.194365069270133972e-02 2.047542482614517212e-01
1.639000000000000000e+03 9.371474266052246094e+00 1.060645866394042969e+01 -1.654829680919647217e-01 -2.756986320018768311e-01 -1.323544681072235107e-01 1.835293918848037720e-01
1.640000000000000000e+03 4.958835220336914062e+01 2.052658653259277344e+01 3.719009757041931152e-01 2.303171604871749878e-01 1.806654334068298340e-01 9.091772139072418213e-02
1.641000000000000000e+03 5.498806381225585938e+01 -1.930349349975585938e+01 1.203861162066459656e-01 1.060455814003944397e-01 6.792950630187988281e-02 -1.664148867130279541e-01
1.642000000000000000e+03 5.562131118774414062e+01 -1.923186683654785156e+01 2.424490004777908325e-01 4.388438165187835693e-02 8.590001612901687622e-02 -3.144668638706207275e-01
1.643000000000000000e+03 1.121509265899658203e+01 1.755551719665527344e+01 2.362764477729797363e-01 2.928113937377929688e-01 1.587263494729995728e-01 2.449089884757995605e-01
1.644000000000000000e+03 1.015493965148925781e+01 9.083852767944335938e+00 -2.520886957645416260e-01 -3.211933076381683350e-01 -1.719845980405807495e-01 2.240426689386367798e-01
1.645000000000000000e+03 5.307597351074218750e+01 -1.574592018127441406e+01 -2.371233850717544556e-01 4.123077392578125000e-01 5.255530402064323425e-02 -6.020665764808654785e-01
1.646000000000000000e+03 5.300276947021484375e+01 -1.669531822204589844e+01 8.212147355079650879e-01 3.017431497573852539e-01 3.368873596191406250e-01 -5.868896245956420898e-01
1.647000000000000000e+03 3.408398056030273438e+01 1.216497230529785156e+01 -1.011589646339416504e+00 1.234259083867073059e-02 -2.997741103172302246e-01 7.305106520652770996e-02
1.648000000000000000e+03 3.339880752563476562e+01 1.289879798889160156e+01 -6.592925786972045898e-01 3.416402637958526611e-02 -1.875385642051696777e-01 2.674174606800079346e-01
1.649000000000000000e+03 4.960256576538085938e+01 5.878733634948730469e+00 -2.156194686889648438e+00 -6.550847887992858887e-01 -8.433838486671447754e-01 9.054910540580749512e-01
1.650000000000000000e+03 4.667746353149414062e+01 -1.827426338195800781e+01 -4.560936391353607178e-01 -3.980124294757843018e-01 -2.562318146228790283e-01 -4.225713014602661133e-01
1.651000000000000000e+03 3.626492691040039062e+01 1.302493095397949219e+01 -7.306680083274841309e-01 -8.509074449539184570e-01 -4.744726419448852539e-01 6.206162571907043457e-01
1.652000000000000000e+03 3.399540710449218750e+01 1.283043289184570312e+01 -9.202846884727478027e-01 -1.057348325848579407e-01 -3.078058660030364990e-01 3.749386072158813477e-01
1.653000000000000000e+03 2.023244476318359375e+01 9.063514709472656250e+00 2.021325975656509399e-01 -6.972169131040573120e-02 3.972327336668968201e-02 1.211787909269332886e-01
1.654000000000000000e+03 5.511764907836914062e+01 -2.010228538513183594e+01 1.577247865498065948e-02 -1.656897068023681641e-01 -4.497516900300979614e-02 -5.643022805452346802e-02
1.655000000000000000e+03 6.960990142822265625e+01 -1.192163085937500000e+01 -4.021933555603027344e+00 -7.807363867759704590e-01 -1.440800905227661133e+00 1.090075969696044922e+00
1.656000000000000000e+03 5.708347320556640625e+01 -2.744850921630859375e+01 3.056504130363464355e-01 5.567952990531921387e-01 2.587337195873260498e-01 3.282650411128997803e-01
1.657000000000000000e+03 8.951252937316894531e+00 1.237742996215820312e+01 -7.630190812051296234e-03 -1.183286309242248535e-01 -3.778764605522155762e-02 1.562588065862655640e-01
1.658000000000000000e+03 2.466843986511230469e+01 1.477089977264404297e+01 -2.865247428417205811e-01 -1.892671436071395874e-01 -1.427375674247741699e-01 1.000976487994194031e-01
1.659000000000000000e+03 2.027152061462402344e+01 1.336832809448242188e+01 4.612029588315635920e-04 -1.903242021799087524e-01 -5.695890262722969055e-02 -1.959523418918251991e-03
1.660000000000000000e+03 2.417476272583007812e+01 1.644989585876464844e+01 -3.494123518466949463e-01 -2.432387918233871460e-01 -1.777953505516052246e-01 2.699990570545196533e-01
1.661000000000000000e+03 1.305532741546630859e+01 -3.528520202636718750e+01 -9.677820838987827301e-03 -2.405453324317932129e-01 -7.506694644689559937e-02 -1.714498177170753479e-02
1.662000000000000000e+03 1.273767948150634766e+01 -3.915807342529296875e+01 2.163880020380020142e-01 -8.598573505878448486e-02 3.912068158388137817e-02 -8.433800190687179565e-02
1.663000000000000000e+03 4.696817779541015625e+01 -2.819683647155761719e+01 4.558217525482177734e-01 3.282152712345123291e-01 2.352111041545867920e-01 -3.161871433258056641e-01
1.664000000000000000e+03 2.531146621704101562e+01 -3.187911224365234375e+01 4.017691127955913544e-03 -2.885232567787170410e-01 -8.535167574882507324e-02 -6.116827949881553650e-02
1.665000000000000000e+03 2.465064620971679688e+01 -3.281412887573242188e+01 -5.469724070280790329e-03 -4.523566365242004395e-01 -1.373479068279266357e-01 -6.516325287520885468e-03
1.666000000000000000e+03 1.605980873107910156e+01 1.839525413513183594e+01 -6.317640542984008789e-01 -1.015394851565361023e-01 -2.199910581111907959e-01 2.021875679492950439e-01
1.667000000000000000e+03 2.033089637756347656e+01 1.701848793029785156e+01 -2.758028507232666016e-01 -1.853844821453094482e-01 -1.383561939001083374e-01 1.311902701854705811e-01
1.668000000000000000e+03 1.858584594726562500e+01 8.146843910217285156e+00 3.306362628936767578e-01 1.871861368417739868e-01 1.553467214107513428e-01 2.330600768327713013e-01
1.669000000000000000e+03 1.964529800415039062e+01 8.318345069885253906e+00 2.466054558753967285e-01 6.726513616740703583e-03 7.599958777427673340e-02 1.261329948902130127e-01
1.670000000000000000e+03 4.671100234985351562e+01 -2.709090423583984375e+01 3.786220252513885498e-01 3.285773396492004395e-01 2.121598124504089355e-01 -2.703461349010467529e-01
1.671000000000000000e+03 5.574621963500976562e+01 -2.004930496215820312e+01 1.388329267501831055e-01 -2.814515680074691772e-02 3.320632874965667725e-02 -1.868318915367126465e-01
1.672000000000000000e+03 2.568670272827148438e+01 -3.747127914428710938e+01 5.242383480072021484e-02 -3.394148647785186768e-01 -8.609730750322341919e-02 2.534550242125988007e-02
1.673000000000000000e+03 1.843794250488281250e+01 3.337816238403320312e+00 -4.202874302864074707e-01 -4.703202471137046814e-02 -1.401958465576171875e-01 1.735247373580932617e-01
1.674000000000000000e+03 5.256389617919921875e+01 -1.514575862884521484e+01 -4.789621531963348389e-01 2.801794707775115967e-01 -5.963480472564697266e-02 -7.209115028381347656e-01
1.675000000000000000e+03 5.186223602294921875e+01 -1.573526763916015625e+01 -4.075550138950347900e-01 1.466024965047836304e-01 -7.828575372695922852e-02 -5.697690248489379883e-01
1.676000000000000000e+03 4.592219161987304688e+01 -2.214669418334960938e+01 3.739391863346099854e-01 2.049303799867630005e-01 1.736608743667602539e-01 -4.562228322029113770e-01
1.677000000000000000e+03 4.620167541503906250e+01 -2.640153312683105469e+01 3.474156856536865234e-01 3.087045848369598389e-01 1.968360692262649536e-01 -2.474226504564285278e-01
1.678000000000000000e+03 5.581598663330078125e+01 -2.088569450378417969e+01 5.298427492380142212e-02 -8.353486657142639160e-02 -9.165178053081035614e-03 -6.324119120836257935e-02
1.679000000000000000e+03 3.663464736938476562e+01 1.147431755065917969e+01 -1.673428893089294434e+00 -1.024219989776611328e+00 -8.092946410179138184e-01 1.198897361755371094e+00
1.680000000000000000e+03 3.729007720947265625e+01 1.287792015075683594e+01 -6.833204627037048340e-01 -8.936318755149841309e-01 -4.730857014656066895e-01 5.787533521652221680e-01
1.681000000000000000e+03 2.355792045593261719e+01 -2.971197128295898438e+01 9.806197881698608398e-02 2.126073651015758514e-02 3.579681366682052612e-02 -7.835481315851211548e-02
1.682000000000000000e+03 1.381463146209716797e+01 1.915786361694335938e+01 -9.638332575559616089e-02 1.789134591817855835e-01 2.475904114544391632e-02 3.525028526782989502e-01
1.683000000000000000e+03 1.248228836059570312e+01 2.193477630615234375e+01 3.965120017528533936e-02 7.118038088083267212e-02 3.324947506189346313e-02 2.642183303833007812e-01
1.684000000000000000e+03 1.720007896423339844e+01 1.799485206604003906e+01 -5.907842516899108887e-01 -1.473358571529388428e-01 -2.214360386133193970e-01 2.498075664043426514e-01
1.685000000000000000e+03 1.864325904846191406e+01 1.992519950866699219e+01 -1.718214750289916992e-01 -5.271239206194877625e-02 -6.736015528440475464e-02 5.777354165911674500e-02
1.686000000000000000e+03 1.900620651245117188e+01 7.619512081146240234e+00 2.228931933641433716e-01 7.502095401287078857e-02 8.937424421310424805e-02 1.300516575574874878e-01
1.687000000000000000e+03 4.676048660278320312e+01 3.112593650817871094e+01 9.646814316511154175e-02 2.208779454231262207e-01 9.520382434129714966e-02 -2.428237162530422211e-02
1.688000000000000000e+03 3.989698791503906250e+01 5.113643646240234375e+00 4.427799209952354431e-02 -1.585320234298706055e-01 -3.427620604634284973e-02 1.667273193597793579e-01
1.689000000000000000e+03 1.598614597320556641e+01 1.981450462341308594e+01 -1.549526154994964600e-01 -1.796369813382625580e-02 -5.187489464879035950e-02 2.361870706081390381e-01
1.690000000000000000e+03 2.102285003662109375e+01 1.309508323669433594e+01 -9.876365773379802704e-03 -2.156629264354705811e-01 -6.766178458929061890e-02 1.185569353401660919e-02
1.691000000000000000e+03 2.019890213012695312e+01 1.181026840209960938e+01 1.931659993715584278e-03 -2.004825323820114136e-01 -5.956526100635528564e-02 2.837096326402388513e-05
1.692000000000000000e+03 1.882427406311035156e+01 -2.574943161010742188e+01 2.828266024589538574e-01 3.277048468589782715e-02 9.467913210391998291e-02 -2.135648876428604126e-01
1.693000000000000000e+03 1.751588249206542969e+01 4.024198055267333984e+00 -3.207018971443176270e-01 1.560408901423215866e-02 -9.152934700250625610e-02 2.182776480913162231e-01
1.694000000000000000e+03 1.767909812927246094e+01 6.027718544006347656e+00 -5.231535434722900391e-02 1.055850461125373840e-01 1.598090678453445435e-02 1.704966276884078979e-01
1.695000000000000000e+03 2.549110984802246094e+01 -3.522354125976562500e+01 -9.855775162577629089e-03 -4.368473291397094727e-01 -1.340109258890151978e-01 -5.727149546146392822e-02
1.696000000000000000e+03 2.470954322814941406e+01 -3.611503982543945312e+01 -4.063628986477851868e-02 -5.917507410049438477e-01 -1.897161155939102173e-01 -5.115343630313873291e-02
1.697000000000000000e+03 3.678442764282226562e+01 2.233204841613769531e+01 -9.514712542295455933e-02 -5.630007386207580566e-01 -1.974443644285202026e-01 3.894414305686950684e-01
1.698000000000000000e+03 1.824928092956542969e+01 7.064674377441406250e+00 1.667502671480178833e-01 1.135112047195434570e-01 8.407843858003616333e-02 1.467682570219039917e-01
1.699000000000000000e+03 3.132123947143554688e+01 2.572284698486328125e+01 -5.434841513633728027e-01 -9.633383750915527344e-01 -4.520467519760131836e-01 5.343320369720458984e-01
1.700000000000000000e+03 9.461273193359375000e+00 1.554786014556884766e+01 2.420586645603179932e-01 8.147864043712615967e-02 9.706119447946548462e-02 2.051038593053817749e-01
1.701000000000000000e+03 1.950345039367675781e+01 1.942840003967285156e+01 -2.190826684236526489e-01 -1.069354787468910217e-01 -9.780544787645339966e-02 4.025543481111526489e-02
1.702000000000000000e+03 1.783530426025390625e+01 1.853754997253417969e+01 -3.994286954402923584e-01 -7.890293002128601074e-02 -1.434994935989379883e-01 1.103198155760765076e-01
1.703000000000000000e+03 3.221536254882812500e+01 2.324296379089355469e+01 -1.960223764181137085e-01 -8.398446440696716309e-01 -3.107601106166839600e-01 3.429379463195800781e-01
1.704000000000000000e+03 4.650815200805664062e+01 2.682544708251953125e+01 4.747483879327774048e-02 3.742392361164093018e-01 1.265142261981964111e-01 2.013067007064819336e-01
1.705000000000000000e+03 1.830356788635253906e+01 1.803132820129394531e+01 -4.375554323196411133e-01 -1.008590385317802429e-01 -1.615243405103683472e-01 1.560823619365692139e-01
1.706000000000000000e+03 1.883646583557128906e+01 1.752435111999511719e+01 -3.719551861286163330e-01 -1.386842131614685059e-01 -1.531918197870254517e-01 1.754909902811050415e-01
1.707000000000000000e+03 1.282879829406738281e+01 -3.088477516174316406e+01 -1.445704102516174316e-01 -3.978910744190216064e-01 -1.627384424209594727e-01 -1.731988042593002319e-01
1.708000000000000000e+03 1.382152366638183594e+01 5.029018402099609375e+00 -2.332105934619903564e-01 -1.399554908275604248e-01 -1.119498237967491150e-01 2.449870556592941284e-01
1.709000000000000000e+03 1.585822200775146484e+01 3.831587076187133789e+00 -2.909281253814697266e-01 3.036089614033699036e-02 -7.817016541957855225e-02 2.559607625007629395e-01
1.710000000000000000e+03 1.230245018005371094e+01 -3.539462280273437500e+01 8.855467662215232849e-03 -2.094414681196212769e-01 -6.017580255866050720e-02 -9.346204251050949097e-02
1.711000000000000000e+03 4.493357849121093750e+01 1.780700683593750000e+01 2.830243706703186035e-01 4.878564178943634033e-01 2.312642335891723633e-01 2.223200052976608276e-01
1.712000000000000000e+03 4.484428024291992188e+01 1.591843891143798828e+01 1.791726797819137573e-01 6.147089004516601562e-01 2.381644695997238159e-01 2.515968680381774902e-01
1.713000000000000000e+03 2.138089942932128906e+01 -2.739597320556640625e+01 3.858649432659149170e-01 1.925414502620697021e-01 1.735219210386276245e-01 -2.746828794479370117e-01
1.714000000000000000e+03 2.283744239807128906e+01 -2.661598396301269531e+01 3.056864738464355469e-01 -1.215369789861142635e-03 9.134133160114288330e-02 -1.091811954975128174e-01
1.715000000000000000e+03 4.030501937866210938e+01 9.256731033325195312e+00 -8.129588365554809570e-01 -5.116019845008850098e-01 -3.973682522773742676e-01 7.666144967079162598e-01
1.716000000000000000e+03 2.090394592285156250e+01 1.237563896179199219e+01 5.688231904059648514e-03 -1.911985874176025391e-01 -5.565310642123222351e-02 -1.285622362047433853e-03
1.717000000000000000e+03 2.125163078308105469e+01 -3.968397903442382812e+01 4.506644010543823242e-01 4.694909229874610901e-02 1.492840498685836792e-01 1.366719305515289307e-01
1.718000000000000000e+03 9.018019676208496094e+00 1.330220127105712891e+01 5.190494284033775330e-02 -3.066790290176868439e-02 6.371112074702978134e-03 1.626738160848617554e-01
1.719000000000000000e+03 3.676854705810546875e+01 3.419205856323242188e+01 6.099392771720886230e-01 7.523426413536071777e-02 2.055520713329315186e-01 1.457669436931610107e-01
1.720000000000000000e+03 1.063033866882324219e+01 1.726538276672363281e+01 2.712227702140808105e-01 2.063964754343032837e-01 1.432857662439346313e-01 1.692185848951339722e-01
1.721000000000000000e+03 2.361873626708984375e+01 -3.982152175903320312e+01 3.006269037723541260e-01 -1.590508073568344116e-01 4.247282817959785461e-02 2.969716151710599661e-04
1.722000000000000000e+03 9.957109451293945312e+00 2.544810533523559570e+00 -1.228049583733081818e-02 -3.549929708242416382e-02 -1.433393731713294983e-02 1.610765233635902405e-02
1.723000000000000000e+03 2.042605400085449219e+01 -4.078543090820312500e+01 4.662819504737854004e-01 2.747436054050922394e-02 1.481269001960754395e-01 8.969140797853469849e-02
1.724000000000000000e+03 2.228750801086425781e+01 -4.044929122924804688e+01 3.786212801933288574e-01 -8.451666682958602905e-02 8.823138475418090820e-02 -9.777444414794445038e-03
1.725000000000000000e+03 7.753242492675781250e+00 2.531966209411621094e+00 3.607878461480140686e-03 -1.708177477121353149e-02 -4.042169079184532166e-03 -1.624379679560661316e-02
1.726000000000000000e+03 1.392704677581787109e+01 -3.043188858032226562e+01 -1.628481596708297729e-01 -5.014592409133911133e-01 -1.992922276258468628e-01 -2.599584162235260010e-01
1.727000000000000000e+03 1.324223232269287109e+01 -3.004055595397949219e+01 -1.498046964406967163e-01 -3.959395885467529297e-01 -1.637232899665832520e-01 -1.939066499471664429e-01
1.728000000000000000e+03 2.458275985717773438e+01 -3.017064857482910156e+01 1.206809431314468384e-01 -1.764472723007202148e-01 -1.672989875078201294e-02 -8.134465664625167847e-02
1.729000000000000000e+03 5.516380691528320312e+01 7.334058284759521484e+00 6.512043476104736328e-01 3.048467934131622314e-01 2.868153452873229980e-01 5.109410881996154785e-01
1.730000000000000000e+03 2.347082901000976562e+01 -3.834155654907226562e+01 7.714245468378067017e-02 -6.098968535661697388e-02 4.845831543207168579e-03 -4.583249613642692566e-02
1.731000000000000000e+03 1.968390083312988281e+01 -4.102930068969726562e+01 5.241603255271911621e-01 7.999949902296066284e-02 1.812479496002197266e-01 7.680906355381011963e-02
1.732000000000000000e+03 1.538825130462646484e+01 -2.845985794067382812e+01 -2.124724984169006348e-01 -3.304460048675537109e-01 -1.628755629062652588e-01 -2.560618519783020020e-01
1.733000000000000000e+03 1.490011310577392578e+01 -2.805729103088378906e+01 -1.275859028100967407e-01 -3.434515893459320068e-01 -1.413112431764602661e-01 -2.039298564195632935e-01
1.734000000000000000e+03 5.970362854003906250e+01 9.566082000732421875e+00 6.731772422790527344e-01 1.279614090919494629e+00 5.858373641967773438e-01 -1.359942257404327393e-01
1.735000000000000000e+03 2.678161430358886719e+01 -2.214870262145996094e+01 6.947436835616827011e-03 -1.624530106782913208e-01 -4.665167257189750671e-02 -1.403447091579437256e-01
1.736000000000000000e+03 4.312626647949218750e+01 3.246717453002929688e+01 4.534631222486495972e-02 -6.340765208005905151e-02 -5.418401211500167847e-03 2.405516244471073151e-02
1.737000000000000000e+03 3.904286956787109375e+01 3.547431182861328125e+01 6.626467108726501465e-01 2.040774524211883545e-01 2.600172460079193115e-01 1.044609919190406799e-01
1.738000000000000000e+03 1.381246089935302734e+01 -2.933043670654296875e+01 -1.574165225028991699e-01 -3.948695063591003418e-01 -1.656858026981353760e-01 -2.104256451129913330e-01
1.739000000000000000e+03 5.189949798583984375e+01 1.815424323081970215e+00 -1.987909793853759766e+00 1.841578818857669830e-02 -5.908482074737548828e-01 6.902754902839660645e-01
1.740000000000000000e+03 1.222411632537841797e+01 -3.449200820922851562e+01 -2.605262398719787598e-02 -2.721755802631378174e-01 -8.946845680475234985e-02 -9.562745690345764160e-02
1.741000000000000000e+03 2.542910194396972656e+01 -3.368818283081054688e+01 -1.060420763678848743e-03 -3.847777843475341797e-01 -1.157514676451683044e-01 -4.279962554574012756e-02
1.742000000000000000e+03 1.243240547180175781e+01 -3.268532180786132812e+01 -9.166047722101211548e-02 -3.725172877311706543e-01 -1.392533332109451294e-01 -1.372648924589157104e-01
1.743000000000000000e+03 1.229080104827880859e+01 -3.358151626586914062e+01 -4.430519789457321167e-02 -3.282710313796997070e-01 -1.117728650569915771e-01 -1.156921833753585815e-01
1.744000000000000000e+03 1.611604309082031250e+01 -4.006883621215820312e+01 4.399746656417846680e-01 1.637951135635375977e-01 1.811309307813644409e-01 -1.618985235691070557e-01
1.745000000000000000e+03 3.921977996826171875e+01 2.212021255493164062e+01 9.283583611249923706e-02 -1.812801212072372437e-01 -2.653328329324722290e-02 2.208947092294692993e-01
1.746000000000000000e+03 2.171089744567871094e+01 -2.641154861450195312e+01 3.511399924755096436e-01 6.614918261766433716e-02 1.251867562532424927e-01 -1.222200468182563782e-01
1.747000000000000000e+03 1.305059242248535156e+01 -3.775784301757812500e+01 1.359333246946334839e-01 -6.010023504495620728e-02 2.274992503225803375e-02 -8.422908186912536621e-02
1.748000000000000000e+03 1.350759124755859375e+01 -3.849088287353515625e+01 1.944276094436645508e-01 -1.687215268611907959e-02 5.326663702726364136e-02 -1.008602008223533630e-01
1.749000000000000000e+03 3.728583145141601562e+01 2.378158760070800781e+01 -4.411955177783966064e-01 -5.328674316406250000e-01 -2.922188937664031982e-01 4.884422421455383301e-01
1.750000000000000000e+03 3.722068405151367188e+01 1.093724346160888672e+01 -1.429955482482910156e+00 -1.260086536407470703e+00 -8.070126175880432129e-01 1.257495641708374023e+00
1.751000000000000000e+03 3.717698669433593750e+01 1.190609264373779297e+01 -1.213566064834594727e+00 -9.436835050582885742e-01 -6.471748352050781250e-01 7.942227125167846680e-01
1.752000000000000000e+03 1.321679306030273438e+01 -2.476554107666015625e+01 7.032573688775300980e-03 -2.782275676727294922e-01 -8.135849982500076294e-02 -1.976854056119918823e-01
1.753000000000000000e+03 2.463892745971679688e+01 -3.362000656127929688e+01 1.213772848132066429e-04 -4.652200639247894287e-01 -1.395296007394790649e-01 -1.180897653102874756e-02
1.754000000000000000e+03 4.451213455200195312e+01 1.966163635253906250e+01 3.561355173587799072e-01 4.120119512081146240e-01 2.304442524909973145e-01 1.961173117160797119e-01
1.755000000000000000e+03 4.732344055175781250e+01 1.838530921936035156e+01 5.099655389785766602e-01 3.373290896415710449e-01 2.541883885860443115e-01 3.497303724288940430e-01
1.756000000000000000e+03 4.495231246948242188e+01 1.100083065032958984e+01 -2.039021849632263184e-01 -2.517450153827667236e-01 -1.366941481828689575e-01 2.993096709251403809e-01
1.757000000000000000e+03 4.482209396362304688e+01 1.032483291625976562e+01 -4.540474414825439453e-01 -3.814236223697662354e-01 -2.506413161754608154e-01 5.007491111755371094e-01
1.758000000000000000e+03 4.365610504150390625e+01 2.196785163879394531e+01 6.828257441520690918e-01 3.743538558483123779e-01 3.171538710594177246e-01 3.335328996181488037e-01
1.759000000000000000e+03 3.712392425537109375e+01 3.512119293212890625e+01 6.313133835792541504e-01 8.922702074050903320e-02 2.161621302366256714e-01 9.349707514047622681e-02
1.760000000000000000e+03 4.560618972778320312e+01 1.754831695556640625e+01 2.880142629146575928e-01 5.716779232025146484e-01 2.579076588153839111e-01 2.886500656604766846e-01
1.761000000000000000e+03 4.617607116699218750e+01 1.718813896179199219e+01 3.313519358634948730e-01 6.465457677841186523e-01 2.933692932128906250e-01 4.130405485630035400e-01
1.762000000000000000e+03 4.324856948852539062e+01 1.063207721710205078e+01 -5.693021416664123535e-01 -1.246828809380531311e-01 -2.081955075263977051e-01 6.383228898048400879e-01
1.763000000000000000e+03 3.565584182739257812e+01 3.066807365417480469e+01 5.646828562021255493e-02 -6.184066459536552429e-02 -1.611713785678148270e-03 5.583041906356811523e-02
1.764000000000000000e+03 4.625586700439453125e+01 2.352275276184082031e+01 4.613609015941619873e-01 4.642133712768554688e-01 2.776722908020019531e-01 3.327026069164276123e-01
1.765000000000000000e+03 3.863332748413085938e+01 3.691896438598632812e+01 5.444145202636718750e-01 1.365562528371810913e-01 2.042912393808364868e-01 7.482467591762542725e-02
1.766000000000000000e+03 3.803719329833984375e+01 3.508687973022460938e+01 6.884983777999877930e-01 1.624093949794769287e-01 2.552723288536071777e-01 9.396107494831085205e-02
1.767000000000000000e+03 7.489192199707031250e+01 -9.537476539611816406e+00 3.584509849548339844e+00 2.104181671142578125e+01 7.387897491455078125e+00 5.255712032318115234e+00
1.768000000000000000e+03 3.444391250610351562e+01 2.816559028625488281e+01 -7.520820945501327515e-02 -4.828741550445556641e-01 -1.674247086048126221e-01 1.474038958549499512e-01
1.769000000000000000e+03 3.734157943725585938e+01 2.275704002380371094e+01 -2.340188175439834595e-01 -5.108150243759155273e-01 -2.234501540660858154e-01 3.826624155044555664e-01
1.770000000000000000e+03 4.555958175659179688e+01 2.323212432861328125e+01 4.930388033390045166e-01 4.996012747287750244e-01 2.977920174598693848e-01 3.523647785186767578e-01
1.771000000000000000e+03 4.493662261962890625e+01 2.288049316406250000e+01 5.637341737747192383e-01 4.999412894248962402e-01 3.191026449203491211e-01 3.982719480991363525e-01
1.772000000000000000e+03 3.824306106567382812e+01 1.073561382293701172e+01 -1.082259178161621094e+00 -1.145669817924499512e+00 -6.683787107467651367e-01 9.539790749549865723e-01
1.773000000000000000e+03 4.371360015869140625e+01 3.190156173706054688e+01 -2.580452710390090942e-02 -1.045965030789375305e-01 -3.912030905485153198e-02 6.518404185771942139e-02
1.774000000000000000e+03 4.322526168823242188e+01 3.352975082397460938e+01 3.325204253196716309e-01 -6.061723083257675171e-02 8.157095313072204590e-02 -3.719138354063034058e-02
1.775000000000000000e+03 6.305646514892578125e+01 -2.734327507019042969e+01 9.450357407331466675e-02 7.399151325225830078e-01 2.503256201744079590e-01 -4.678338766098022461e-01
1.776000000000000000e+03 5.357738876342773438e+01 1.995056748390197754e+00 -2.283411026000976562e+00 -7.371371239423751831e-02 -7.071374058723449707e-01 5.569410324096679688e-01
1.777000000000000000e+03 5.136321640014648438e+01 4.170074462890625000e+00 -1.214097976684570312e+00 1.242981478571891785e-01 -3.269399404525756836e-01 1.040145277976989746e+00
1.778000000000000000e+03 5.450843048095703125e+01 2.648301362991333008e+00 -1.968121290206909180e+00 -2.517017908394336700e-02 -5.979874730110168457e-01 4.819250404834747314e-01
1.779000000000000000e+03 4.442997741699218750e+01 3.237016296386718750e+01 1.300149410963058472e-01 -6.155935674905776978e-02 2.053667418658733368e-02 -1.483191270381212234e-02
1.780000000000000000e+03 4.540575027465820312e+01 3.103009223937988281e+01 2.322848513722419739e-02 -4.429868236184120178e-02 -6.321059074252843857e-03 2.451936341822147369e-02
1.781000000000000000e+03 3.531474304199218750e+01 2.900031089782714844e+01 -3.731552045792341232e-03 -3.008771240711212158e-01 -9.138260036706924438e-02 1.421546190977096558e-02
1.782000000000000000e+03 3.771028900146484375e+01 1.133427810668945312e+01 -1.180959343910217285e+00 -1.064132213592529297e+00 -6.735274791717529297e-01 9.324858188629150391e-01
1.783000000000000000e+03 4.654737091064453125e+01 2.766348648071289062e+01 2.045884355902671814e-02 2.760598659515380859e-01 8.895561099052429199e-02 1.582246571779251099e-01
1.784000000000000000e+03 7.892684936523437500e+01 -1.373556518554687500e+01 -2.286817580461502075e-01 1.072963523864746094e+01 3.150285959243774414e+00 -8.270161747932434082e-01
1.785000000000000000e+03 3.460935592651367188e+01 1.299246692657470703e+01 -7.436655759811401367e-01 -3.676969408988952637e-01 -3.334087431430816650e-01 5.332080125808715820e-01
1.786000000000000000e+03 4.156225967407226562e+01 3.554795837402343750e+01 6.309219598770141602e-01 1.909052766859531403e-02 1.950037479400634766e-01 1.283118426799774170e-01
1.787000000000000000e+03 4.070478439331054688e+01 3.466775131225585938e+01 7.908408641815185547e-01 4.992608726024627686e-02 2.522300779819488525e-01 2.372043766081333160e-02
1.788000000000000000e+03 4.653201293945312500e+01 2.858716773986816406e+01 -2.506045438349246979e-02 1.967407315969467163e-01 5.150408670306205750e-02 1.209639310836791992e-01
1.789000000000000000e+03 3.937152862548828125e+01 5.819664478302001953e+00 -3.399363532662391663e-02 6.004400178790092468e-02 7.815110497176647186e-03 1.184297874569892883e-01
1.790000000000000000e+03 3.675767517089843750e+01 2.336967849731445312e+01 -3.437947630882263184e-01 -5.516824126243591309e-01 -2.686431407928466797e-01 4.445243775844573975e-01
1.791000000000000000e+03 3.476754760742187500e+01 3.101572036743164062e+01 1.541084498167037964e-01 -1.894298046827316284e-01 -1.059640478342771530e-02 1.383633315563201904e-01
1.792000000000000000e+03 4.270402145385742188e+01 3.416573715209960938e+01 4.997797310352325439e-01 -6.376818567514419556e-02 1.308034658432006836e-01 -3.038095682859420776e-02
1.793000000000000000e+03 3.349410247802734375e+01 2.206052398681640625e+01 -8.699832856655120850e-02 -5.863412618637084961e-01 -2.020018696784973145e-01 3.680704832077026367e-01
1.794000000000000000e+03 3.568610763549804688e+01 2.467510223388671875e+01 -4.190419018268585205e-01 -6.589823961257934570e-01 -3.234072923660278320e-01 4.233936965465545654e-01
1.795000000000000000e+03 4.575077819824218750e+01 1.646808242797851562e+01 2.380541115999221802e-01 7.809223532676696777e-01 3.056929409503936768e-01 3.800090253353118896e-01
1.796000000000000000e+03 4.380353546142578125e+01 3.294205474853515625e+01 2.250607758760452271e-01 -6.391117721796035767e-02 4.834488406777381897e-02 -2.758475579321384430e-02
1.797000000000000000e+03 4.538348770141601562e+01 8.831673622131347656e+00 -8.036893606185913086e-01 -5.262374877929687500e-01 -3.989780545234680176e-01 6.080694198608398438e-01
1.798000000000000000e+03 4.496668243408203125e+01 1.414037799835205078e+01 7.286066561937332153e-02 8.028789162635803223e-01 2.627218663692474365e-01 1.890165507793426514e-01
1.799000000000000000e+03 4.167545318603515625e+01 1.142737197875976562e+01 -5.432647466659545898e-01 -2.328815907239913940e-01 -2.328438907861709595e-01 5.804019570350646973e-01
1.800000000000000000e+03 5.445536804199218750e+01 1.473680305480957031e+01 1.291483789682388306e-01 5.606945976614952087e-02 5.556534975767135620e-02 -1.430669575929641724e-01
1.801000000000000000e+03 4.617243957519531250e+01 1.828408813476562500e+01 3.579792976379394531e-01 4.951427578926086426e-01 2.559366226196289062e-01 2.922468185424804688e-01
1.802000000000000000e+03 5.568860626220703125e+01 1.495158386230468750e+01 2.095055729150772095e-01 3.783623874187469482e-01 1.763603836297988892e-01 -2.665612995624542236e-01
1.803000000000000000e+03 5.678675842285156250e+01 1.080803871154785156e+01 3.437682092189788818e-01 5.752118229866027832e-01 2.756940126419067383e-01 1.948471814393997192e-01
1.804000000000000000e+03 5.542687225341796875e+01 8.966638565063476562e+00 4.333847165107727051e-01 2.909922897815704346e-01 2.173130959272384644e-01 5.643905997276306152e-01
1.805000000000000000e+03 5.536027145385742188e+01 9.682096481323242188e+00 2.073192894458770752e-01 3.717152774333953857e-01 1.737103611230850220e-01 4.289039373397827148e-01
1.806000000000000000e+03 4.519276809692382812e+01 1.672378540039062500e+01 2.395458519458770752e-01 6.142717003822326660e-01 2.561452686786651611e-01 2.683760821819305420e-01
1.807000000000000000e+03 4.421520614624023438e+01 1.345854854583740234e+01 6.284960359334945679e-02 3.819674849510192871e-01 1.334451287984848022e-01 2.054952830076217651e-01
1.808000000000000000e+03 4.407027816772460938e+01 1.115982532501220703e+01 -3.746598660945892334e-01 -5.305413901805877686e-02 -1.283141970634460449e-01 5.287700891494750977e-01
1.809000000000000000e+03 5.271239089965820312e+01 1.672998809814453125e+01 1.197593137621879578e-01 1.001192703843116760e-01 6.596357375383377075e-02 -1.159539148211479187e-01
1.810000000000000000e+03 4.435532379150390625e+01 1.429060649871826172e+01 9.254062175750732422e-02 5.134008526802062988e-01 1.817824393510818481e-01 1.831773817539215088e-01
1.811000000000000000e+03 5.052431869506835938e+01 1.786707305908203125e+01 6.715363264083862305e-02 5.081418529152870178e-02 3.539034724235534668e-02 -4.542251303791999817e-02
1.812000000000000000e+03 4.246456909179687500e+01 1.131587886810302734e+01 -5.076377391815185547e-01 -1.537566483020782471e-01 -1.984183043241500854e-01 6.032277345657348633e-01
1.813000000000000000e+03 4.456427001953125000e+01 1.511207294464111328e+01 1.307011842727661133e-01 5.907845497131347656e-01 2.164457142353057861e-01 2.097545266151428223e-01
1.814000000000000000e+03 4.702737045288085938e+01 8.195473670959472656e+00 -8.482163548469543457e-01 -7.572290897369384766e-01 -4.816336333751678467e-01 8.275916576385498047e-01
1.815000000000000000e+03 4.736833572387695312e+01 6.703120231628417969e+00 -1.326439976692199707e+00 -6.074985265731811523e-01 -5.801815390586853027e-01 8.523172140121459961e-01
1.816000000000000000e+03 5.151426696777343750e+01 1.787422752380371094e+01 1.195377558469772339e-01 1.113597378134727478e-01 6.926924735307693481e-02 -1.057573407888412476e-01
1.817000000000000000e+03 4.647071456909179688e+01 7.798975467681884766e+00 -9.292482733726501465e-01 -6.774674057960510254e-01 -4.820147156715393066e-01 7.681137323379516602e-01
1.818000000000000000e+03 4.646834182739257812e+01 8.740491867065429688e+00 -8.660925626754760742e-01 -7.947706580162048340e-01 -4.982589781284332275e-01 7.882787585258483887e-01
1.819000000000000000e+03 5.090273666381835938e+01 1.841204452514648438e+01 1.374951601028442383e-01 1.057333499193191528e-01 7.296855002641677856e-02 -1.006477624177932739e-01
1.820000000000000000e+03 5.211809158325195312e+01 1.731422233581542969e+01 1.075363084673881531e-01 1.117946133017539978e-01 6.579927355051040649e-02 -1.152590140700340271e-01
1.821000000000000000e+03 5.531516265869140625e+01 1.045478153228759766e+01 9.060242772102355957e-02 2.023095190525054932e-01 8.787358552217483521e-02 2.282528728246688843e-01
1.822000000000000000e+03 6.016111373901367188e+01 1.165786457061767578e+01 5.673857927322387695e-01 2.236986875534057617e+00 8.413117527961730957e-01 -4.871279895305633545e-01
1.823000000000000000e+03 5.329730987548828125e+01 1.611703872680664062e+01 1.224029585719108582e-01 8.081955462694168091e-02 6.096675619482994080e-02 -1.202119141817092896e-01
1.824000000000000000e+03 6.892474365234375000e+01 -1.287296962738037109e+01 -1.685888409614562988e+00 -1.271475672721862793e+00 -8.872092366218566895e-01 1.382639527320861816e+00
1.825000000000000000e+03 7.503690338134765625e+01 -7.046284675598144531e+00 4.044138491153717041e-01 2.446171569824218750e+01 7.459838867187500000e+00 -4.625062048435211182e-01
1.826000000000000000e+03 6.546293640136718750e+01 -7.040535449981689453e+00 -2.663742192089557648e-02 1.243323311209678650e-01 2.930847182869911194e-02 1.985083706676959991e-02
1.827000000000000000e+03 7.954370117187500000e+01 3.886541366577148438e+01 -2.933277748525142670e-03 5.391737937927246094e+00 1.616641521453857422e+00 -7.624420803040266037e-03
1.828000000000000000e+03 7.889864349365234375e+01 3.734908676147460938e+01 1.456439774483442307e-02 5.355116844177246094e+00 1.610904455184936523e+00 -4.972161352634429932e-02
1.829000000000000000e+03 7.962059020996093750e+01 3.575350189208984375e+01 -7.375568617135286331e-03 5.537283897399902344e+00 1.658972501754760742e+00 -1.626315340399742126e-02
1.830000000000000000e+03 7.873460388183593750e+01 3.439027404785156250e+01 1.448609866201877594e-02 5.455952167510986328e+00 1.641131520271301270e+00 -8.232519030570983887e-02
1.831000000000000000e+03 7.792835998535156250e+01 3.114112091064453125e+01 9.992572478950023651e-03 5.525712013244628906e+00 1.660711407661437988e+00 -1.802406013011932373e-01
1.832000000000000000e+03 7.955704498291015625e+01 3.258229064941406250e+01 -2.872553886845707893e-03 5.747656345367431641e+00 1.723435163497924805e+00 -3.392461687326431274e-02
1.833000000000000000e+03 7.882873535156250000e+01 2.943414306640625000e+01 5.413352046161890030e-03 5.873025417327880859e+00 1.763531565666198730e+00 -1.157867237925529480e-01
1.834000000000000000e+03 7.886785125732421875e+01 2.781766891479492188e+01 6.426479667425155640e-04 6.040906906127929688e+00 1.812464833259582520e+00 -1.153408735990524292e-01
1.835000000000000000e+03 7.961634826660156250e+01 2.852552604675292969e+01 1.139567932114005089e-03 6.150544643402099609e+00 1.845505237579345703e+00 -3.827187418937683105e-02
1.836000000000000000e+03 7.893540191650390625e+01 1.979860687255859375e+01 -5.438821390271186829e-03 6.572710990905761719e+00 1.970181703567504883e+00 3.129302337765693665e-02
1.837000000000000000e+03 7.964289855957031250e+01 2.130368804931640625e+01 -2.909156493842601776e-03 6.672171115875244141e+00 2.000778675079345703e+00 1.123524364084005356e-02
1.838000000000000000e+03 7.897906494140625000e+01 1.425723648071289062e+01 6.286690384149551392e-02 7.133699417114257812e+00 2.158969879150390625e+00 -3.048046231269836426e-01
1.839000000000000000e+03 7.965805053710937500e+01 1.490459442138671875e+01 1.120085734874010086e-02 6.871161937713623047e+00 2.064708709716796875e+00 -7.185827195644378662e-02
1.840000000000000000e+03 7.959780120849609375e+01 3.014109420776367188e+01 3.781521925702691078e-03 5.975058078765869141e+00 1.793651938438415527e+00 -3.882714733481407166e-02
1.841000000000000000e+03 7.875160980224609375e+01 3.108475303649902344e+01 1.084271073341369629e-02 5.704470157623291016e+00 1.714593887329101562e+00 -1.123267263174057007e-01
1.842000000000000000e+03 7.885140228271484375e+01 2.862355613708496094e+01 -2.215036889538168907e-03 5.957398414611816406e+00 1.786554932594299316e+00 -1.179351508617401123e-01
1.843000000000000000e+03 7.887962341308593750e+01 2.701201820373535156e+01 -5.588061641901731491e-03 6.123998641967773438e+00 1.835523128509521484e+00 -1.125901937484741211e-01
1.844000000000000000e+03 7.746448516845703125e+01 2.230939292907714844e+01 -7.326819002628326416e-02 6.219770431518554688e+00 1.843950629234313965e+00 -1.260953843593597412e-01
1.845000000000000000e+03 7.891597747802734375e+01 2.299736022949218750e+01 -1.628974080085754395e-02 6.468303203582763672e+00 1.935603976249694824e+00 -4.143636301159858704e-02
1.846000000000000000e+03 7.890989685058593750e+01 2.379779624938964844e+01 -1.648272573947906494e-02 6.416218757629394531e+00 1.919920802116394043e+00 -6.260100007057189941e-02
1.847000000000000000e+03 7.963726806640625000e+01 2.370739173889160156e+01 -3.541029756888747215e-03 6.610890388488769531e+00 1.982204794883728027e+00 -1.406132522970438004e-02
1.848000000000000000e+03 7.892224121093750000e+01 2.219793891906738281e+01 -1.886106841266155243e-02 6.510021209716796875e+00 1.947348117828369141e+00 -1.996245235204696655e-02
1.849000000000000000e+03 7.751142120361328125e+01 2.072458267211914062e+01 -5.464053899049758911e-02 6.368513584136962891e+00 1.894161939620971680e+00 -5.782419815659523010e-02
1.850000000000000000e+03 7.893246459960937500e+01 2.060025596618652344e+01 -1.316344179213047028e-02 6.559494018554687500e+00 1.963899135589599609e+00 2.093704976141452789e-02
1.851000000000000000e+03 7.208027648925781250e+01 1.689253044128417969e+01 8.748809695243835449e-01 6.623960494995117188e+00 2.249652385711669922e+00 -1.351328969001770020e+00
1.852000000000000000e+03 7.894935607910156250e+01 1.660003471374511719e+01 4.881365224719047546e-02 6.699426651000976562e+00 2.024471998214721680e+00 -7.619710266590118408e-02
1.853000000000000000e+03 7.894547271728515625e+01 1.739607048034667969e+01 3.396222740411758423e-02 6.636656761169433594e+00 2.001185655593872070e+00 -2.009234018623828888e-02
1.854000000000000000e+03 7.964849090576171875e+01 1.729542922973632812e+01 8.213043212890625000e-03 6.576621532440185547e+00 1.975450396537780762e+00 2.705733757466077805e-03
1.855000000000000000e+03 7.896800994873046875e+01 1.503500938415527344e+01 6.480437517166137695e-02 6.942308902740478516e+00 2.102133989334106445e+00 -2.246681004762649536e-01
1.856000000000000000e+03 7.898215484619140625e+01 1.347326183319091797e+01 6.459625065326690674e-02 7.385927200317382812e+00 2.235157012939453125e+00 -3.951176404953002930e-01
1.857000000000000000e+03 7.895002746582031250e+01 1.189035606384277344e+01 4.112852364778518677e-02 8.019511222839355469e+00 2.418191909790039062e+00 -5.440913438796997070e-01
1.858000000000000000e+03 7.344451141357421875e+01 9.106188774108886719e+00 -7.134005427360534668e-01 5.977581977844238281e+00 1.579254508018493652e+00 -1.070313215255737305e+00
1.859000000000000000e+03 7.754736328125000000e+01 1.143521404266357422e+01 1.133802011609077454e-01 7.795417785644531250e+00 2.372639417648315430e+00 -1.080244183540344238e+00
1.860000000000000000e+03 7.888005065917968750e+01 9.420365333557128906e+00 -2.567073889076709747e-02 9.142829895019531250e+00 2.735147953033447266e+00 -6.011038422584533691e-01
1.861000000000000000e+03 7.792539978027343750e+01 -3.608026885986328125e+01 1.453020144253969193e-02 6.532738208770751953e+00 1.964180588722229004e+00 1.979492306709289551e-01
1.862000000000000000e+03 7.960231018066406250e+01 -3.480570602416992188e+01 -3.972191363573074341e-03 7.237288475036621094e+00 2.169994831085205078e+00 4.497893899679183960e-02
1.863000000000000000e+03 7.964456939697265625e+01 -2.116434669494628906e+01 7.897164672613143921e-03 9.054502487182617188e+00 2.718719959259033203e+00 2.847105264663696289e-01
1.864000000000000000e+03 7.964089965820312500e+01 -2.035808563232421875e+01 3.206268185749650002e-03 9.718815803527832031e+00 2.916606664657592773e+00 2.983983159065246582e-01
1.865000000000000000e+03 7.964949035644531250e+01 -2.437514114379882812e+01 1.126446388661861420e-02 7.453299045562744141e+00 2.239369153976440430e+00 5.285665765404701233e-02
1.866000000000000000e+03 7.965454101562500000e+01 -2.357549095153808594e+01 4.102415964007377625e-02 7.643272399902343750e+00 2.305289030075073242e+00 1.065511032938957214e-01
1.867000000000000000e+03 7.898352050781250000e+01 -2.829644775390625000e+01 -3.242827951908111572e-02 7.556353092193603516e+00 2.257177352905273438e+00 -7.175899296998977661e-02
1.868000000000000000e+03 7.964363861083984375e+01 -2.760294914245605469e+01 -6.207583937793970108e-03 7.578785419464111328e+00 2.271773338317871094e+00 -5.153714492917060852e-02
1.869000000000000000e+03 7.896304321289062500e+01 -2.181933021545410156e+01 9.323524683713912964e-02 8.618563652038574219e+00 2.613539695739746094e+00 6.762138009071350098e-01
1.870000000000000000e+03 7.894351196289062500e+01 -1.453368949890136719e+01 -2.216277271509170532e-01 1.105309677124023438e+01 3.249440908432006836e+00 -5.360298752784729004e-01
1.871000000000000000e+03 7.964209747314453125e+01 -1.392806911468505859e+01 -4.897523671388626099e-02 1.133213043212890625e+01 3.384946584701538086e+00 -3.332740664482116699e-01
1.872000000000000000e+03 7.965913391113281250e+01 -1.073418903350830078e+01 1.235721539705991745e-02 7.193952083587646484e+00 2.161892652511596680e+00 -5.821616649627685547e-01
1.873000000000000000e+03 7.967416381835937500e+01 -9.932863235473632812e+00 6.087802723050117493e-02 5.902251243591308594e+00 1.788938760757446289e+00 -5.101072192192077637e-01
1.874000000000000000e+03 7.963639068603515625e+01 -6.719980716705322266e+00 5.965296551585197449e-02 4.043170928955078125e+00 1.230847120285034180e+00 1.902359426021575928e-01
1.875000000000000000e+03 7.963958740234375000e+01 -5.916083335876464844e+00 5.766636878252029419e-02 4.545923233032226562e+00 1.381076931953430176e+00 3.179984986782073975e-01
1.876000000000000000e+03 7.686206054687500000e+01 -5.184987783432006836e-01 -9.380338788032531738e-01 1.008681964874267578e+01 2.744635820388793945e+00 6.872956752777099609e-01
1.877000000000000000e+03 7.965338897705078125e+01 4.559877216815948486e-01 -4.709171503782272339e-02 1.150491714477539062e+01 3.437347650527954102e+00 2.120079547166824341e-01
1.878000000000000000e+03 7.882576751708984375e+01 3.590985107421875000e+01 8.377320133149623871e-03 5.402989864349365234e+00 1.623410105705261230e+00 -5.939904600381851196e-02
1.879000000000000000e+03 7.891491699218750000e+01 7.764117717742919922e+00 -5.688827857375144958e-02 9.877241134643554688e+00 2.946105957031250000e+00 -4.920013844966888428e-01
1.880000000000000000e+03 7.963539123535156250e+01 7.672897338867187500e+00 -8.499140851199626923e-03 1.056459712982177734e+01 3.166829586029052734e+00 -1.674027144908905029e-01
1.881000000000000000e+03 7.966004180908203125e+01 -2.737459897994995117e+00 -2.028031041845679283e-03 8.584999084472656250e+00 2.574891328811645508e+00 4.609192907810211182e-01
1.882000000000000000e+03 7.566481781005859375e+01 -8.588093757629394531e+00 2.524626731872558594e+00 1.939342117309570312e+01 6.575414657592773438e+00 1.552597999572753906e+00
1.883000000000000000e+03 7.966939544677734375e+01 -8.329037666320800781e+00 8.921156823635101318e-02 4.090883731842041016e+00 1.254028558731079102e+00 -1.799716651439666748e-01
1.884000000000000000e+03 7.950013732910156250e+01 4.044701385498046875e+01 1.370827015489339828e-02 5.373259067535400391e+00 1.616090178489685059e+00 4.544289782643318176e-03
1.885000000000000000e+03 7.758862304687500000e+01 3.897734069824218750e+01 3.076366148889064789e-02 5.062535285949707031e+00 1.527989625930786133e+00 -5.448042973875999451e-02
1.886000000000000000e+03 7.886837005615234375e+01 3.664256286621093750e+01 -8.420654572546482086e-03 5.377186775207519531e+00 1.610629796981811523e+00 -5.217619985342025757e-02
1.887000000000000000e+03 7.806401062011718750e+01 3.680410766601562500e+01 2.041905932128429413e-02 5.215507984161376953e+00 1.570778131484985352e+00 -6.829196214675903320e-02
1.888000000000000000e+03 7.714097595214843750e+01 3.111862754821777344e+01 3.127733618021011353e-02 5.345137119293212891e+00 1.612924337387084961e+00 -2.283878028392791748e-01
1.889000000000000000e+03 7.962593841552734375e+01 9.291404724121093750e+00 1.046888879500329494e-03 9.678057670593261719e+00 2.903731346130371094e+00 -2.088103294372558594e-01
1.890000000000000000e+03 7.889385986328125000e+01 8.590106010437011719e+00 -3.496798127889633179e-02 9.518070220947265625e+00 2.844930648803710938e+00 -5.567830204963684082e-01
1.891000000000000000e+03 7.893212127685546875e+01 6.141926288604736328e+00 -6.224648281931877136e-02 1.046977424621582031e+01 3.122258424758911133e+00 -3.497898280620574951e-01
1.892000000000000000e+03 7.820713043212890625e+01 4.582789897918701172e+00 -1.418884694576263428e-01 1.007324695587158203e+01 2.979407548904418945e+00 -3.488483130931854248e-01
1.893000000000000000e+03 7.894984436035156250e+01 2.133433580398559570e+00 -9.812522679567337036e-02 1.112396812438964844e+01 3.307752847671508789e+00 1.110437661409378052e-01
1.894000000000000000e+03 7.964540863037109375e+01 2.851362228393554688e+00 -1.127677410840988159e-02 1.196432590484619141e+01 3.585914850234985352e+00 2.685463801026344299e-02
1.895000000000000000e+03 7.827577972412109375e+01 1.401494026184082031e+00 -2.741482555866241455e-01 1.046406173706054688e+01 3.056974172592163086e+00 2.908673286437988281e-01
1.896000000000000000e+03 7.896100616455078125e+01 1.343227028846740723e+00 -1.264767497777938843e-01 1.106585311889648438e+01 3.281813144683837891e+00 2.608192861080169678e-01
1.897000000000000000e+03 7.965150451660156250e+01 -1.145166635513305664e+00 -5.047360062599182129e-02 1.039191532135009766e+01 3.102432489395141602e+00 3.718554675579071045e-01
1.898000000000000000e+03 7.500048828125000000e+01 -2.220237493515014648e+00 -7.465237379074096680e-01 1.037786006927490234e+01 2.889400959014892578e+00 -6.816749572753906250e-01
1.899000000000000000e+03 7.897666168212890625e+01 -2.606140613555908203e+00 -4.862324148416519165e-02 9.224878311157226562e+00 2.752876520156860352e+00 1.210899591445922852e+00
1.900000000000000000e+03 7.896770477294921875e+01 -1.829919576644897461e+00 -1.453225463628768921e-01 9.869456291198730469e+00 2.917240142822265625e+00 1.033573627471923828e+00
1.901000000000000000e+03 7.890074157714843750e+01 -6.535853862762451172e+00 3.298820257186889648e-01 6.899321079254150391e+00 2.168761014938354492e+00 5.254613161087036133e-01
1.902000000000000000e+03 7.897016906738281250e+01 -1.053378868103027344e+01 9.285198152065277100e-02 8.221187591552734375e+00 2.494211912155151367e+00 -1.456437468528747559e+00
1.903000000000000000e+03 7.826119232177734375e+01 -1.438226032257080078e+01 -4.977414309978485107e-01 1.058694839477539062e+01 3.026762008666992188e+00 -7.266942858695983887e-01
1.904000000000000000e+03 7.334671020507812500e+01 -1.867670249938964844e+01 -1.398413181304931641e+00 4.404304981231689453e+00 9.017674922943115234e-01 3.085509240627288818e-01
1.905000000000000000e+03 7.822377777099609375e+01 -1.920095825195312500e+01 -2.056842595338821411e-01 9.735250473022460938e+00 2.858869791030883789e+00 1.104991197586059570e+00
1.906000000000000000e+03 7.488372039794921875e+01 -2.100349044799804688e+01 4.643222987651824951e-01 8.618251800537109375e+00 2.724772214889526367e+00 1.342113614082336426e+00
1.907000000000000000e+03 7.419062042236328125e+01 -2.108265495300292969e+01 4.489900171756744385e-01 8.984376907348632812e+00 2.830010175704956055e+00 5.927329063415527344e-01
1.908000000000000000e+03 7.964125061035156250e+01 -1.874974250793457031e+01 -2.421066910028457642e-02 1.102814197540283203e+01 3.301179409027099609e+00 2.441985011100769043e-01
1.909000000000000000e+03 7.372772216796875000e+01 -1.942065048217773438e+01 -6.716982722282409668e-01 6.453103065490722656e+00 1.734421372413635254e+00 4.966319799423217773e-01
1.910000000000000000e+03 7.749218750000000000e+01 -1.824199867248535156e+01 -5.367763638496398926e-01 9.545374870300292969e+00 2.702579498291015625e+00 1.077513337135314941e+00
1.911000000000000000e+03 7.423439025878906250e+01 -2.192447662353515625e+01 4.629164338111877441e-01 9.942761421203613281e+00 3.121703386306762695e+00 1.013263106346130371e+00
1.912000000000000000e+03 7.895530700683593750e+01 -2.421612930297851562e+01 1.294933408498764038e-01 7.726330280303955078e+00 2.356747150421142578e+00 1.921713054180145264e-01
1.913000000000000000e+03 7.337561798095703125e+01 -2.682951927185058594e+01 -1.633816659450531006e-01 6.354344844818115234e+00 1.857288956642150879e+00 1.819959998130798340e+00
1.914000000000000000e+03 7.890390777587890625e+01 -2.667753982543945312e+01 1.121769472956657410e-02 7.547955989837646484e+00 2.267752170562744141e+00 -9.306090325117111206e-02
1.915000000000000000e+03 7.822099304199218750e+01 -2.747076797485351562e+01 -2.332425117492675781e-02 7.533102989196777344e+00 2.252933502197265625e+00 -8.213845640420913696e-02
1.916000000000000000e+03 7.897138977050781250e+01 -2.906696128845214844e+01 -3.450681641697883606e-02 7.535610675811767578e+00 2.250331163406372070e+00 -2.959627099335193634e-02
1.917000000000000000e+03 7.740520477294921875e+01 -3.040927886962890625e+01 -1.091707199811935425e-01 6.984575748443603516e+00 2.062621593475341797e+00 2.401818484067916870e-01
1.918000000000000000e+03 7.882065582275390625e+01 -3.227296829223632812e+01 -1.209758128970861435e-02 7.245945930480957031e+00 2.170154571533203125e+00 1.231643632054328918e-01
1.919000000000000000e+03 7.960872650146484375e+01 -3.240777206420898438e+01 -3.694641636684536934e-03 7.528991222381591797e+00 2.257589101791381836e+00 3.705661371350288391e-02
1.920000000000000000e+03 7.880036163330078125e+01 -3.386423492431640625e+01 2.329382841708138585e-04 7.063369274139404297e+00 2.119080781936645508e+00 1.412177383899688721e-01
1.921000000000000000e+03 7.880670166015625000e+01 -3.306729507446289062e+01 -9.083656594157218933e-03 7.157595157623291016e+00 2.144553422927856445e+00 1.327476054430007935e-01
1.922000000000000000e+03 7.879348754882812500e+01 -3.545219039916992188e+01 -1.859885407611727715e-03 6.891479492187500000e+00 2.066885948181152344e+00 1.342784166336059570e-01
1.923000000000000000e+03 7.852148437500000000e+01 -3.864643859863281250e+01 1.737740263342857361e-02 6.517054080963134766e+00 1.960329413414001465e+00 1.099611148238182068e-01
1.924000000000000000e+03 7.872319793701171875e+01 -3.701822662353515625e+01 9.237588383257389069e-03 6.725538253784179688e+00 2.020432710647583008e+00 1.256373673677444458e-01
1.925000000000000000e+03 7.772399902343750000e+01 -3.978125381469726562e+01 6.187150627374649048e-02 6.221878528594970703e+00 1.885125041007995605e+00 1.169958710670471191e-01
1.926000000000000000e+03 7.854058074951171875e+01 -3.947441101074218750e+01 4.973484948277473450e-02 6.465482234954833984e+00 1.954565167427062988e+00 6.585386395454406738e-02
1.927000000000000000e+03 7.952154541015625000e+01 -3.960949707031250000e+01 -1.471619028598070145e-02 6.780647754669189453e+00 2.029779434204101562e+00 2.516300790011882782e-02
1.928000000000000000e+03 7.856311798095703125e+01 -4.024276351928710938e+01 3.002246841788291931e-02 6.406512737274169922e+00 1.930960536003112793e+00 3.643085807561874390e-02
1.929000000000000000e+03 7.855062103271484375e+01 -4.198876953125000000e+01 1.490007271058857441e-03 6.516353130340576172e+00 1.955353021621704102e+00 -3.896290063858032227e-02
1.930000000000000000e+03 7.662799072265625000e+01 -5.263978481292724609e+00 1.222530364990234375e+00 1.377915096282958984e+01 4.500504493713378906e+00 8.456831574440002441e-01
1.931000000000000000e+03 7.898126220703125000e+01 -4.166173934936523438e+00 2.744574286043643951e-02 8.093319892883300781e+00 2.436229467391967773e+00 1.281708598136901855e+00
1.932000000000000000e+03 7.655344390869140625e+01 -8.738197326660156250e+00 2.028460979461669922e+00 1.469737529754638672e+01 5.017750740051269531e+00 -3.514726161956787109e-01
1.933000000000000000e+03 7.905283355712890625e+01 -8.962614059448242188e+00 2.940146625041961670e-01 6.770336627960205078e+00 2.119305372238159180e+00 -8.620094656944274902e-01
1.934000000000000000e+03 7.757048034667968750e+01 -2.473501586914062500e+01 4.164935946464538574e-01 7.838349342346191406e+00 2.476452827453613281e+00 2.948119938373565674e-01
1.935000000000000000e+03 5.910693740844726562e+01 -2.549833297729492188e+01 1.349575370550155640e-01 5.198392868041992188e-01 1.964390575885772705e-01 4.671904146671295166e-01
1.936000000000000000e+03 6.131582641601562500e+01 -2.653274726867675781e+01 -3.358216881752014160e-01 5.504263192415237427e-02 -8.423371613025665283e-02 9.344988316297531128e-02
1.937000000000000000e+03 6.403352355957031250e+01 -4.910235404968261719e+00 1.229232363402843475e-02 -2.910849824547767639e-02 -5.044851917773485184e-03 -3.045557811856269836e-02
1.938000000000000000e+03 7.422679901123046875e+01 -3.909477233886718750e+00 2.398069381713867188e+00 1.265513324737548828e+01 4.515960693359375000e+00 -4.815063476562500000e+00
1.939000000000000000e+03 7.741520690917968750e+01 -6.218991756439208984e+00 1.199676632881164551e+00 1.159841728210449219e+01 3.839427947998046875e+00 7.213090658187866211e-01
1.940000000000000000e+03 7.896923065185546875e+01 -3.386578083038330078e+00 -6.566189229488372803e-02 8.643959999084472656e+00 2.573489427566528320e+00 1.236465930938720703e+00
1.941000000000000000e+03 6.742787170410156250e+01 -1.061879158020019531e+01 -2.354704141616821289e+00 -1.428884387016296387e+00 -1.135076522827148438e+00 1.773418426513671875e+00
1.942000000000000000e+03 7.401242828369140625e+01 -1.697940349578857422e+00 -7.373085021972656250e-01 7.721031188964843750e+00 2.095116853713989258e+00 -1.574362039566040039e+00
1.943000000000000000e+03 7.205640411376953125e+01 -1.154174995422363281e+01 -3.571219742298126221e-01 4.115739166736602783e-01 1.633558049798011780e-02 2.822556793689727783e-01
1.944000000000000000e+03 7.354829406738281250e+01 -1.204255294799804688e+01 -2.465361952781677246e-01 5.528865814208984375e+00 1.584698915481567383e+00 2.514597415924072266e+00
1.945000000000000000e+03 7.286455535888671875e+01 -1.209835720062255859e+01 6.034964323043823242e-01 2.716707468032836914e+00 9.960611462593078613e-01 2.077569007873535156e+00
1.946000000000000000e+03 7.388550567626953125e+01 -1.028356790542602539e+00 -1.026503443717956543e+00 6.922284603118896484e+00 1.768734455108642578e+00 -1.486118555068969727e+00
1.947000000000000000e+03 7.344033813476562500e+01 -2.546128749847412109e+00 1.374606490135192871e+00 5.643784523010253906e+00 2.105517387390136719e+00 -2.857230901718139648e+00
1.948000000000000000e+03 6.889751434326171875e+01 -1.438262271881103516e+01 -4.275552630424499512e-01 -7.915189266204833984e-01 -3.657222688198089600e-01 1.763996005058288574e+00
1.949000000000000000e+03 7.136236572265625000e+01 -1.240755176544189453e+01 -8.407302498817443848e-01 3.230656981468200684e-01 -1.552993655204772949e-01 8.886771798133850098e-01
1.950000000000000000e+03 6.760886383056640625e+01 -1.178019618988037109e+01 -2.863604545593261719e+00 -6.923975348472595215e-01 -1.066800594329833984e+00 1.247417092323303223e+00
1.951000000000000000e+03 6.318451309204101562e+01 -5.031659126281738281e+00 1.180529687553644180e-02 -4.840213805437088013e-02 -1.097905263304710388e-02 -6.045766174793243408e-03
1.952000000000000000e+03 7.424312591552734375e+01 -2.353850841522216797e+00 -2.114722430706024170e-01 8.909133911132812500e+00 2.609298467636108398e+00 -1.822152853012084961e+00
1.953000000000000000e+03 6.692386627197265625e+01 -1.118974208831787109e+01 -2.447090148925781250e+00 -4.569326937198638916e-01 -8.712068796157836914e-01 1.229167580604553223e+00
1.954000000000000000e+03 7.828047180175781250e+01 -7.282100200653076172e+00 8.412266373634338379e-01 9.064498901367187500e+00 2.971717596054077148e+00 1.172740757465362549e-01
1.955000000000000000e+03 6.577269744873046875e+01 -9.770216941833496094e+00 -1.587412834167480469e+00 -2.239026874303817749e-01 -5.433946251869201660e-01 8.327721953392028809e-01
1.956000000000000000e+03 6.633208465576171875e+01 -1.049412536621093750e+01 -2.070814132690429688e+00 -3.457500338554382324e-01 -7.249692678451538086e-01 1.063979148864746094e+00
1.957000000000000000e+03 4.716372299194335938e+01 -1.122094631195068359e+01 -2.261668443679809570e-01 3.298673331737518311e-01 3.111014328896999359e-02 -1.599142253398895264e-01
1.958000000000000000e+03 1.932753682136535645e+00 3.424625015258789062e+01 3.126682341098785400e-02 -5.957875251770019531e-01 -1.693562120199203491e-01 5.387249961495399475e-02
1.959000000000000000e+03 3.853000998497009277e-01 3.474589538574218750e+01 3.678752982523292303e-04 -7.914825677871704102e-01 -2.373344004154205322e-01 9.851329028606414795e-03
1.960000000000000000e+03 3.384455442428588867e-01 2.993272209167480469e+01 -3.576007671654224396e-03 -4.482581317424774170e-01 -1.355502456426620483e-01 3.675726428627967834e-02
1.961000000000000000e+03 3.168944120407104492e-01 2.753988456726074219e+01 -9.180203196592628956e-04 -2.135039120912551880e-01 -6.432658433914184570e-02 2.314872108399868011e-02
1.962000000000000000e+03 1.670846343040466309e+00 2.870845413208007812e+01 -1.645323075354099274e-02 -3.713576793670654297e-01 -1.163432747125625610e-01 1.318426728248596191e-01
1.963000000000000000e+03 3.289957642555236816e-01 2.515659332275390625e+01 -3.033875487744808197e-03 -1.091298833489418030e-01 -3.364912793040275574e-02 2.274718834087252617e-03
1.964000000000000000e+03 3.395821750164031982e-01 2.436032104492187500e+01 -2.440274693071842194e-03 -1.105836480855941772e-01 -3.390717506408691406e-02 -4.453838337212800980e-03
1.965000000000000000e+03 4.668805599212646484e-01 -3.805176925659179688e+01 6.330834003165364265e-04 -2.809102833271026611e-01 -8.408316224813461304e-02 -1.209953986108303070e-02
1.966000000000000000e+03 1.386957168579101562e+00 -3.722096252441406250e+01 3.764848690479993820e-03 -2.427601516246795654e-01 -7.169859111309051514e-02 -3.716221079230308533e-02
1.967000000000000000e+03 3.650080561637878418e-01 2.115328788757324219e+01 -3.464792098384350538e-04 -2.018993049860000610e-01 -6.067373603582382202e-02 -1.234003622084856033e-02
1.968000000000000000e+03 2.518615961074829102e+00 2.183867073059082031e+01 -3.535959171131253242e-03 -2.634373605251312256e-01 -8.009199053049087524e-02 -3.888769447803497314e-02
1.969000000000000000e+03 1.017579793930053711e+00 2.427297019958496094e+01 -1.026977878063917160e-02 -1.784847378730773926e-01 -5.662635341286659241e-02 -7.735624909400939941e-03
1.970000000000000000e+03 3.724487066268920898e+00 2.569401550292968750e+01 -1.411359459161758423e-01 -3.984152078628540039e-01 -1.618653535842895508e-01 8.105577528476715088e-02
1.971000000000000000e+03 9.502918124198913574e-01 2.736635780334472656e+01 -1.319067552685737610e-02 -2.582234144210815430e-01 -8.142422884702682495e-02 6.577274948358535767e-02
1.972000000000000000e+03 9.695183038711547852e-01 2.814326667785644531e+01 -8.459044620394706726e-03 -3.073846399784088135e-01 -9.475310146808624268e-02 7.935646176338195801e-02
1.973000000000000000e+03 1.743554115295410156e+00 2.949943733215332031e+01 -7.348244078457355499e-03 -4.165124595165252686e-01 -1.271582096815109253e-01 1.474667936563491821e-01
1.974000000000000000e+03 2.553122520446777344e+00 3.315314483642578125e+01 5.694676563143730164e-02 -5.185992717742919922e-01 -1.384957581758499146e-01 1.037459969520568848e-01
1.975000000000000000e+03 1.203580975532531738e+00 3.531379318237304688e+01 1.071265619248151779e-02 -6.924726963043212891e-01 -2.045280039310455322e-01 1.726021617650985718e-02
1.976000000000000000e+03 1.933360457420349121e+00 3.759141159057617188e+01 9.028444066643714905e-03 -6.125123500823974609e-01 -1.810451745986938477e-01 -1.471219398081302643e-02
1.977000000000000000e+03 1.214420795440673828e+00 3.774688339233398438e+01 8.777455426752567291e-03 -6.949423551559448242e-01 -2.058494687080383301e-01 -1.612895168364048004e-02
1.978000000000000000e+03 2.681210279464721680e+00 3.948586273193359375e+01 1.187905319966375828e-03 -5.436043739318847656e-01 -1.627249419689178467e-01 -1.788106188178062439e-02
1.979000000000000000e+03 1.471719145774841309e+00 3.922688674926757812e+01 2.346661785850301385e-04 -6.621958017349243164e-01 -1.985883414745330811e-01 -1.678226143121719360e-02
1.980000000000000000e+03 4.998237490653991699e-01 3.954931640625000000e+01 -5.949244834482669830e-03 -7.585621476173400879e-01 -2.293534278869628906e-01 -7.835631258785724640e-03
1.981000000000000000e+03 1.675681948661804199e+00 3.998580932617187500e+01 -5.750180687755346298e-03 -6.304082274436950684e-01 -1.908475309610366821e-01 -1.979377679526805878e-02
1.982000000000000000e+03 1.921674847602844238e+00 4.080761337280273438e+01 -4.440429154783487320e-03 -6.101633310317993164e-01 -1.843811273574829102e-01 -1.636661775410175323e-02
1.983000000000000000e+03 1.677091240882873535e+00 4.186696243286132812e+01 -9.352836757898330688e-03 -6.313749551773071289e-01 -1.922183334827423096e-01 -9.946633130311965942e-03
1.984000000000000000e+03 2.784544467926025391e+00 2.977659988403320312e+01 -2.348436275497078896e-03 -4.354564249515533447e-01 -1.313414573669433594e-01 1.880853772163391113e-01
1.985000000000000000e+03 1.022461414337158203e+00 3.050440597534179688e+01 6.433152593672275543e-04 -4.856914877891540527e-01 -1.455144435167312622e-01 9.777382016181945801e-02
1.986000000000000000e+03 1.111590504646301270e+00 -3.007635116577148438e+01 -4.190235864371061325e-03 -1.000745743513107300e-01 -3.127944469451904297e-02 -8.213431574404239655e-03
1.987000000000000000e+03 1.286565661430358887e+00 -3.642096710205078125e+01 5.865821731276810169e-04 -2.231282740831375122e-01 -6.676250696182250977e-02 -3.768332302570343018e-02
1.988000000000000000e+03 3.696457147598266602e-01 -1.631846237182617188e+01 -9.744041017256677151e-04 8.189118653535842896e-02 2.427503466606140137e-02 -6.572399288415908813e-03
1.989000000000000000e+03 1.017005085945129395e+00 -7.465114593505859375e+00 1.120130647905170918e-03 3.283219411969184875e-02 1.018569711595773697e-02 9.457419626414775848e-03
1.990000000000000000e+03 3.541955053806304932e-01 -1.873588180541992188e+01 -1.022049807943403721e-03 1.047921180725097656e-02 2.837148727849125862e-03 -1.416158862411975861e-02
1.991000000000000000e+03 3.692343235015869141e-01 -2.280213165283203125e+01 1.937410095706582069e-03 -1.158660352230072021e-01 -3.417858853936195374e-02 -4.001545719802379608e-03
1.992000000000000000e+03 3.584594428539276123e-01 -2.522469520568847656e+01 1.803490304155275226e-04 -1.148137077689170837e-01 -3.439000993967056274e-02 3.080524504184722900e-03
1.993000000000000000e+03 3.645242452621459961e-01 1.953870773315429688e+01 8.103352156467735767e-04 -2.495827525854110718e-01 -7.463172823190689087e-02 -8.428149856626987457e-03
1.994000000000000000e+03 1.047774791717529297e+00 2.348230552673339844e+01 -7.189392112195491791e-03 -1.837909668684005737e-01 -5.729410424828529358e-02 -2.081347443163394928e-02
1.995000000000000000e+03 3.433498144149780273e-01 1.470820331573486328e+01 9.009185596369206905e-04 -2.171068489551544189e-01 -6.486177444458007812e-02 1.329987961798906326e-02
1.996000000000000000e+03 3.460245430469512939e-01 1.390767955780029297e+01 1.062641968019306660e-03 -1.835894584655761719e-01 -5.475804209709167480e-02 1.556576136499643326e-02
1.997000000000000000e+03 3.910482227802276611e-01 7.455832481384277344e+00 -1.396667445078492165e-03 6.131926178932189941e-02 1.797677762806415558e-02 3.892311593517661095e-03
1.998000000000000000e+03 3.920328319072723389e-01 6.649341106414794922e+00 -1.380212604999542236e-03 6.693511456251144409e-02 1.966647058725357056e-02 1.067783450707793236e-03
1.999000000000000000e+03 1.503218054771423340e+00 -3.944905471801757812e+01 1.129028480499982834e-02 -2.831710875034332275e-01 -8.156424015760421753e-02 -2.959976159036159515e-02
2.000000000000000000e+03 2.361033439636230469e+00 -3.711892318725585938e+01 6.096628494560718536e-03 -2.239504307508468628e-01 -6.535614281892776489e-02 -6.083543598651885986e-02
2.001000000000000000e+03 1.411472678184509277e+00 -3.875786972045898438e+01 5.152488593012094498e-03 -2.697070240974426270e-01 -7.936636358499526978e-02 -3.053034469485282898e-02
2.002000000000000000e+03 1.212448477745056152e+00 -3.562887954711914062e+01 -1.117176958359777927e-03 -2.037254124879837036e-01 -6.145277619361877441e-02 -3.491877019405364990e-02
2.003000000000000000e+03 1.874658226966857910e+00 -3.090824317932128906e+01 -1.000178325921297073e-02 -1.123743504285812378e-01 -3.671284019947052002e-02 -2.306165359914302826e-02
2.004000000000000000e+03 1.152462124824523926e+00 -3.248174285888671875e+01 -3.227165900170803070e-03 -1.333548575639724731e-01 -4.097460582852363586e-02 -2.276233024895191193e-02
2.005000000000000000e+03 3.751481175422668457e-01 -3.085559654235839844e+01 -1.003153971396386623e-03 -9.931801259517669678e-02 -3.009635023772716522e-02 -4.481378011405467987e-03
2.006000000000000000e+03 1.099850296974182129e+00 -2.926944160461425781e+01 -3.908852580934762955e-03 -9.503497183322906494e-02 -2.968314848840236664e-02 -2.661292441189289093e-03
2.007000000000000000e+03 1.125446200370788574e+00 -3.088178443908691406e+01 -4.130883608013391495e-03 -1.084753200411796570e-01 -3.378186002373695374e-02 -1.312301587313413620e-02
2.008000000000000000e+03 1.079044699668884277e+00 -2.685814094543457031e+01 -1.286787097342312336e-03 -9.511675685644149780e-02 -2.892106398940086365e-02 7.663574069738388062e-03
2.009000000000000000e+03 3.580991327762603760e-01 -2.602964019775390625e+01 2.885126450564712286e-04 -1.074039265513420105e-01 -3.213462233543395996e-02 3.523792140185832977e-03
2.010000000000000000e+03 1.813003420829772949e+00 -2.447573280334472656e+01 8.914940059185028076e-03 -9.050142765045166016e-02 -2.447594702243804932e-02 4.402368795126676559e-03
2.011000000000000000e+03 2.589301586151123047e+00 -2.369037818908691406e+01 2.287522330880165100e-02 -7.887710630893707275e-02 -1.680056378245353699e-02 -4.527582321316003799e-03
2.012000000000000000e+03 1.083847403526306152e+00 -2.443952369689941406e+01 3.759743412956595421e-03 -1.032497957348823547e-01 -2.984701655805110931e-02 3.812998766079545021e-03
2.013000000000000000e+03 3.206423044204711914e+00 -1.794770050048828125e+01 -2.920513413846492767e-02 -5.102693662047386169e-02 -2.406962215900421143e-02 -6.716728210449218750e-02
2.014000000000000000e+03 4.022585868835449219e+00 -2.004318237304687500e+01 2.760585211217403412e-02 -6.985087692737579346e-02 -1.267350744456052780e-02 -7.467968761920928955e-02
2.015000000000000000e+03 3.562024533748626709e-01 -1.954598045349121094e+01 1.557139476062729955e-04 -2.292811125516891479e-02 -6.831719074398279190e-03 -1.507478859275579453e-02
2.016000000000000000e+03 2.455673933029174805e+00 -1.992357254028320312e+01 1.059710327535867691e-02 -5.685415118932723999e-02 -1.387711428105831146e-02 -6.767831742763519287e-02
2.017000000000000000e+03 4.744190216064453125e+00 -1.760570526123046875e+01 -4.976918920874595642e-02 -1.420622467994689941e-01 -5.754942819476127625e-02 -6.728117913007736206e-02
2.018000000000000000e+03 1.804796099662780762e+00 -1.779185295104980469e+01 -1.340374536812305450e-02 -6.978934165090322495e-03 -6.114803720265626907e-03 -4.789077863097190857e-02
2.019000000000000000e+03 1.118881106376647949e+00 -1.621261787414550781e+01 -6.570692174136638641e-03 4.537883773446083069e-02 1.164244394749403000e-02 -1.785773411393165588e-02
2.020000000000000000e+03 1.101503968238830566e+00 -1.459990596771240234e+01 -5.113748367875814438e-03 6.115069240331649780e-02 1.681108213961124420e-02 -3.722459543496370316e-03
2.021000000000000000e+03 1.058902263641357422e+00 -1.141506195068359375e+01 -1.697947620414197445e-03 5.965336039662361145e-02 1.738662272691726685e-02 9.065938182175159454e-03
2.022000000000000000e+03 1.063322067260742188e+00 -1.220770835876464844e+01 -7.985637057572603226e-04 6.313712149858474731e-02 1.870156638324260712e-02 7.335350383073091507e-03
2.023000000000000000e+03 3.496515750885009766e-01 -9.904659271240234375e+00 8.800519281066954136e-04 6.840898841619491577e-02 2.078671194612979889e-02 3.959321416914463043e-03
2.024000000000000000e+03 1.054315209388732910e+00 -9.832566261291503906e+00 -8.811434381641447544e-04 4.962390661239624023e-02 1.462282985448837280e-02 1.031994726508855820e-02
2.025000000000000000e+03 4.691297054290771484e+00 -3.220080614089965820e+00 7.224774453788995743e-03 -3.508538007736206055e-03 1.114870887249708176e-03 8.834160864353179932e-03
2.026000000000000000e+03 3.272372961044311523e+00 -3.233818531036376953e+00 5.207413807511329651e-03 2.006802940741181374e-03 2.164265140891075134e-03 9.739395231008529663e-03
2.027000000000000000e+03 1.734961628913879395e+00 -3.593573570251464844e+00 2.192849991843104362e-03 7.216060999780893326e-03 2.822673181071877480e-03 8.368480950593948364e-03
2.028000000000000000e+03 9.755648374557495117e-01 -5.907518386840820312e+00 1.104747643694281578e-03 2.232854627072811127e-02 7.029988337308168411e-03 7.873046211898326874e-03
2.029000000000000000e+03 1.048715233802795410e+00 -3.531630516052246094e+00 4.465108213480561972e-04 8.796594105660915375e-03 2.772931708022952080e-03 5.478753242641687393e-03
2.030000000000000000e+03 3.502935767173767090e-01 -3.510697841644287109e+00 5.829679430462419987e-04 9.494926780462265015e-03 3.023368306457996368e-03 2.053732285276055336e-03
2.031000000000000000e+03 3.808430433273315430e-01 2.689410924911499023e+00 3.686090931296348572e-04 2.382318489253520966e-02 7.257538381963968277e-03 -6.186121609061956406e-03
2.032000000000000000e+03 4.491112232208251953e+00 1.899539470672607422e+00 2.367932163178920746e-02 5.260853213258087635e-04 7.261622231453657150e-03 -2.900687418878078461e-02
2.033000000000000000e+03 6.141241073608398438e+00 2.593994855880737305e+00 4.220036324113607407e-03 -6.002958863973617554e-03 -5.348767735995352268e-04 -2.727533876895904541e-02
2.034000000000000000e+03 3.566825687885284424e-01 5.062868118286132812e+00 -1.115234219469130039e-03 6.172651425004005432e-02 1.818338409066200256e-02 -3.694901242852210999e-03
2.035000000000000000e+03 1.202227711677551270e+00 6.498926162719726562e+00 -6.258361507207155228e-03 3.888563439249992371e-02 9.788182564079761505e-03 2.487037330865859985e-03
2.036000000000000000e+03 1.857912182807922363e+00 8.919808387756347656e+00 -1.761122234165668488e-02 -9.317295625805854797e-03 -8.078555576503276825e-03 4.610742256045341492e-02
2.037000000000000000e+03 2.543481111526489258e+00 1.138675212860107422e+01 -1.164586190134286880e-02 -8.094028383493423462e-02 -2.777584455907344818e-02 9.706484526395797729e-02
2.038000000000000000e+03 1.779785990715026855e+00 1.219058322906494141e+01 -1.330102910287678242e-03 -1.043091043829917908e-01 -3.169176355004310608e-02 7.643048465251922607e-02
2.039000000000000000e+03 1.051082491874694824e+00 1.302395820617675781e+01 1.309097977355122566e-03 -1.362982690334320068e-01 -4.049674794077873230e-02 4.810132086277008057e-02
2.040000000000000000e+03 1.072030782699584961e+00 1.222512340545654297e+01 -3.583108191378414631e-04 -1.042546182870864868e-01 -3.138387948274612427e-02 4.969457536935806274e-02
2.041000000000000000e+03 3.585776984691619873e-01 1.230394935607910156e+01 -3.640858722064876929e-06 -1.064833179116249084e-01 -3.194608911871910095e-02 1.765147596597671509e-02
2.042000000000000000e+03 1.028901815414428711e+00 1.381749725341796875e+01 3.410824807360768318e-03 -1.673105359077453613e-01 -4.916991293430328369e-02 4.451198875904083252e-02
2.043000000000000000e+03 1.017192125320434570e+00 1.460752677917480469e+01 5.575886927545070648e-03 -1.960360407829284668e-01 -5.713804438710212708e-02 3.772315010428428650e-02
2.044000000000000000e+03 1.744670629501342773e+00 1.606701087951660156e+01 1.751274429261684418e-02 -2.199101448059082031e-01 -6.071922183036804199e-02 3.607744351029396057e-02
2.045000000000000000e+03 1.065591931343078613e+00 1.699651908874511719e+01 8.246114477515220642e-03 -2.483067363500595093e-01 -7.201819121837615967e-02 1.019772421568632126e-02
2.046000000000000000e+03 1.072673797607421875e+00 1.781309890747070312e+01 8.726169355213642120e-03 -2.538686990737915039e-01 -7.354275882244110107e-02 -1.110826502554118633e-03
2.047000000000000000e+03 1.080485343933105469e+00 1.863240242004394531e+01 7.392706349492073059e-03 -2.528684437274932861e-01 -7.364272326231002808e-02 -1.140296645462512970e-02
2.048000000000000000e+03 1.797022461891174316e+00 1.938114547729492188e+01 1.503309421241283417e-02 -2.481791675090789795e-01 -6.994382292032241821e-02 -2.377639152109622955e-02
2.049000000000000000e+03 1.070031762123107910e+00 2.268574714660644531e+01 -3.603378310799598694e-03 -1.954766362905502319e-01 -5.972400680184364319e-02 -2.797642722725868225e-02
2.050000000000000000e+03 4.127241516113281250e+01 -1.605906963348388672e+00 -3.063004910945892334e-01 -1.481034159660339355e-01 -1.363211721181869507e-01 7.117027044296264648e-02
2.051000000000000000e+03 4.213532638549804688e+01 -3.573665857315063477e+00 -1.378465056419372559e+00 -1.773990243673324585e-01 -4.667592346668243408e-01 2.339159995317459106e-01
2.052000000000000000e+03 3.019160461425781250e+01 -9.319599151611328125e+00 -2.119167894124984741e-01 -5.552881956100463867e-01 -2.301615029573440552e-01 -1.810934096574783325e-01
2.053000000000000000e+03 3.040326499938964844e+01 -8.333586692810058594e+00 -9.676476567983627319e-02 -5.245940685272216797e-01 -1.864076554775238037e-01 -1.939448863267898560e-01
2.054000000000000000e+03 2.183269119262695312e+01 -1.355319404602050781e+01 -5.830143094062805176e-01 -7.273175567388534546e-02 -1.967238187789916992e-01 9.832756221294403076e-02
2.055000000000000000e+03 2.204565620422363281e+01 -1.528900814056396484e+01 -3.846633434295654297e-01 -1.150048524141311646e-01 -1.499004513025283813e-01 -1.439060270786285400e-01
2.056000000000000000e+03 4.091471099853515625e+01 -3.529653787612915039e+00 -1.303876876831054688e+00 -1.776970922946929932e-01 -4.444721937179565430e-01 -1.529265642166137695e-01
2.057000000000000000e+03 6.510654449462890625e+01 -2.973280525207519531e+01 9.682821035385131836e-01 2.600002527236938477e+00 1.070485353469848633e+00 -1.367647409439086914e+00
2.058000000000000000e+03 6.552466583251953125e+01 -3.038463973999023438e+01 6.478052735328674316e-01 2.878873825073242188e+00 1.058003664016723633e+00 -9.255909323692321777e-01
2.059000000000000000e+03 5.884318161010742188e+01 -2.773772239685058594e+01 5.594816207885742188e-01 6.551392674446105957e-01 3.643862605094909668e-01 5.374910831451416016e-01
2.060000000000000000e+03 5.948067855834960938e+01 -2.726199340820312500e+01 4.876820743083953857e-01 3.626049458980560303e-01 2.550860941410064697e-01 3.853096365928649902e-01
2.061000000000000000e+03 5.769109344482421875e+01 -3.869254302978515625e+01 9.319627285003662109e-01 5.868373513221740723e-01 4.556400179862976074e-01 -3.317943811416625977e-01
2.062000000000000000e+03 5.615015411376953125e+01 -3.355674743652343750e+01 1.759164929389953613e-01 1.674705505371093750e+00 5.551865696907043457e-01 -1.439133286476135254e-01
2.063000000000000000e+03 5.584239959716796875e+01 -3.565645980834960938e+01 4.762612581253051758e-01 1.106486797332763672e+00 4.748244285583496094e-01 -2.490749657154083252e-01
2.064000000000000000e+03 1.347536659240722656e+01 -1.065508651733398438e+01 -7.232132554054260254e-02 6.003799289464950562e-02 -3.684999886900186539e-03 -2.383792772889137268e-02
2.065000000000000000e+03 5.576474761962890625e+01 -2.260066223144531250e+01 2.353350445628166199e-02 -4.153193533420562744e-02 -5.399528890848159790e-03 9.292150288820266724e-02
2.066000000000000000e+03 4.087657928466796875e+01 -1.317388916015625000e+01 -1.242164611816406250e+00 -1.710093021392822266e-01 -4.239521920680999756e-01 3.241256773471832275e-01
2.067000000000000000e+03 4.030618286132812500e+01 -1.265979862213134766e+01 -5.584473609924316406e-01 -8.046278357505798340e-02 -1.916730403900146484e-01 2.556676864624023438e-01
2.068000000000000000e+03 4.718999099731445312e+01 -7.632280349731445312e+00 7.676681876182556152e-02 8.238635659217834473e-01 2.701891064643859863e-01 -1.830121725797653198e-01
2.069000000000000000e+03 6.690311431884765625e+01 -3.203357696533203125e+01 4.599122405052185059e-01 2.343742370605468750e+00 8.410963416099548340e-01 -2.564781606197357178e-01
2.070000000000000000e+03 2.449062728881835938e+01 -1.430740356445312500e+01 -5.680823326110839844e-01 -1.381534039974212646e-01 -2.118707150220870972e-01 -1.649487763643264771e-01
2.071000000000000000e+03 2.386715126037597656e+01 -1.362243652343750000e+01 -7.318499684333801270e-01 -8.238019049167633057e-02 -2.442690432071685791e-01 -1.725538522005081177e-01
2.072000000000000000e+03 4.027455139160156250e+01 -1.991114258766174316e+00 -3.997910618782043457e-01 -7.756352424621582031e-02 -1.432063728570938110e-01 1.337299197912216187e-01
2.073000000000000000e+03 4.212489700317382812e+01 -2.578899145126342773e+00 -5.964565277099609375e-01 -1.607317477464675903e-01 -2.271564900875091553e-01 -4.286297596991062164e-03
2.074000000000000000e+03 4.358531951904296875e+01 -4.252218723297119141e+00 -7.278619408607482910e-01 -1.288726776838302612e-01 -2.570203840732574463e-01 2.708841860294342041e-01
2.075000000000000000e+03 5.036140823364257812e+01 -7.894155979156494141e+00 -3.664323985576629639e-01 2.267586998641490936e-02 -1.031269580125808716e-01 1.979949772357940674e-01
2.076000000000000000e+03 6.127224349975585938e+01 -3.901998519897460938e+01 1.315122485160827637e+00 2.238786667585372925e-01 4.617003500461578369e-01 -7.613033056259155273e-02
2.077000000000000000e+03 6.176176834106445312e+01 -3.821066665649414062e+01 1.048870801925659180e+00 1.483789980411529541e-01 3.591749370098114014e-01 1.665421873331069946e-01
2.078000000000000000e+03 2.972043609619140625e+01 -1.023157787322998047e+01 -2.420769631862640381e-01 -6.020904183387756348e-01 -2.532502114772796631e-01 -2.014107555150985718e-01
2.079000000000000000e+03 5.628526306152343750e+01 -3.278209686279296875e+01 3.926436975598335266e-02 1.479958176612854004e+00 4.557667672634124756e-01 9.848068654537200928e-02
2.080000000000000000e+03 5.487517929077148438e+01 -3.390607833862304688e+01 3.513636291027069092e-01 1.053772330284118652e+00 4.215407967567443848e-01 -1.654187142848968506e-01
2.081000000000000000e+03 3.533388900756835938e+01 -1.436924266815185547e+01 -7.037647962570190430e-01 1.986903101205825806e-01 -1.515223532915115356e-01 -2.243968397378921509e-01
2.082000000000000000e+03 6.302952575683593750e+01 -3.844734954833984375e+01 1.021498799324035645e+00 4.122923314571380615e-01 4.301373362541198730e-01 3.978891968727111816e-01
2.083000000000000000e+03 1.974162483215332031e+01 -1.214467525482177734e+01 -1.296246200799942017e-01 -8.378084003925323486e-02 -6.402163207530975342e-02 9.595285356044769287e-02
2.084000000000000000e+03 2.008393096923828125e+01 -1.355524063110351562e+01 -2.563198506832122803e-01 -4.372084140777587891e-02 -9.001220762729644775e-02 4.445206001400947571e-02
2.085000000000000000e+03 1.724300384521484375e+01 -1.196892499923706055e+00 -4.272229038178920746e-03 1.112609170377254486e-02 2.056158613413572311e-03 3.197396406903862953e-03
2.086000000000000000e+03 4.767065048217773438e+01 -1.186561965942382812e+01 -6.539837718009948730e-01 2.979764342308044434e-01 -1.068021953105926514e-01 -3.986577987670898438e-01
2.087000000000000000e+03 5.618373107910156250e+01 -3.772735595703125000e+01 6.526972651481628418e-01 7.909814715385437012e-01 4.331036210060119629e-01 -3.168091177940368652e-01
2.088000000000000000e+03 5.273107147216796875e+01 1.964966177940368652e+00 -2.128943681716918945e+00 -5.355532467365264893e-02 -6.547496914863586426e-01 6.332786083221435547e-01
2.089000000000000000e+03 5.028506469726562500e+01 1.461848020553588867e+00 -1.519765138626098633e+00 4.697906225919723511e-02 -4.418358206748962402e-01 4.793303310871124268e-01
2.090000000000000000e+03 5.108622360229492188e+01 1.633389711380004883e+00 -1.819800257682800293e+00 6.705331057310104370e-02 -5.258240699768066406e-01 6.160786151885986328e-01
2.091000000000000000e+03 3.729692077636718750e+01 -7.784942626953125000e+00 3.473421186208724976e-02 9.624609351158142090e-01 2.991585433483123779e-01 -2.531471475958824158e-02
2.092000000000000000e+03 3.618082046508789062e+01 -9.191597938537597656e+00 1.857717335224151611e-01 4.820639789104461670e-01 2.003507167100906372e-01 -1.772617995738983154e-01
2.093000000000000000e+03 5.175754165649414062e+01 2.569408416748046875e+00 -1.704838752746582031e+00 5.194890499114990234e-02 -4.958669543266296387e-01 8.499425649642944336e-01
2.094000000000000000e+03 5.736714553833007812e+01 -2.972480010986328125e+01 3.371033072471618652e-01 8.698452711105346680e-01 3.620845675468444824e-01 5.146105289459228516e-01
2.095000000000000000e+03 5.641934585571289062e+01 -3.015279579162597656e+01 2.777952551841735840e-01 9.424546360969543457e-01 3.660749793052673340e-01 3.131310343742370605e-01
2.096000000000000000e+03 6.539772796630859375e+01 -3.766923522949218750e+01 6.617634892463684082e-01 1.623271584510803223e+00 6.855105161666870117e-01 4.334273636341094971e-01
2.097000000000000000e+03 6.353773498535156250e+01 -2.793141174316406250e+01 4.857284128665924072e-01 1.028886675834655762e+00 4.543845355510711670e-01 -7.296577692031860352e-01
2.098000000000000000e+03 6.339699554443359375e+01 -2.566796684265136719e+01 -2.080318778753280640e-01 1.266941308975219727e+00 3.176728487014770508e-01 -3.459832370281219482e-01
2.099000000000000000e+03 4.020009613037109375e+01 -1.865287780761718750e+01 2.533330917358398438e-01 2.764934003353118896e-01 1.589479595422744751e-01 -4.376602172851562500e-01
2.100000000000000000e+03 6.570472717285156250e+01 -3.322381210327148438e+01 8.394452184438705444e-02 2.277604579925537109e+00 7.084647417068481445e-01 3.683269023895263672e-02
2.101000000000000000e+03 6.657760620117187500e+01 -3.346552658081054688e+01 2.023354917764663696e-01 2.576447010040283203e+00 8.336347341537475586e-01 1.625367701053619385e-01
2.102000000000000000e+03 1.916655921936035156e+01 -1.764374613761901855e+00 4.484557732939720154e-02 2.030409872531890869e-02 1.954490318894386292e-02 5.273868329823017120e-03
2.103000000000000000e+03 1.750095176696777344e+01 -7.391693592071533203e-01 -1.204534061253070831e-02 -4.152303095906972885e-03 -4.859292879700660706e-03 -1.540044415742158890e-02
2.104000000000000000e+03 6.414620971679687500e+01 -2.755484008789062500e+01 1.753379032015800476e-02 1.428697824478149414e+00 4.338694810867309570e-01 -7.085336446762084961e-01
2.105000000000000000e+03 5.678869628906250000e+01 -2.938710594177246094e+01 3.138839304447174072e-01 8.220339417457580566e-01 3.407753705978393555e-01 3.673630654811859131e-01
2.106000000000000000e+03 6.419564819335937500e+01 -3.841916275024414062e+01 9.215302467346191406e-01 8.253499865531921387e-01 5.240640640258789062e-01 5.252935290336608887e-01
2.107000000000000000e+03 5.237389373779296875e+01 -3.272955322265625000e+01 2.722781896591186523e-01 6.028597354888916016e-01 2.625413835048675537e-01 -2.071475386619567871e-01
2.108000000000000000e+03 5.525957107543945312e+01 -3.316455841064453125e+01 2.729142308235168457e-01 1.153985142707824707e+00 4.280698001384735107e-01 -1.618841290473937988e-01
2.109000000000000000e+03 5.688326644897460938e+01 -3.556531524658203125e+01 5.631410479545593262e-01 1.259583711624145508e+00 5.468174219131469727e-01 -7.246799468994140625e-01
2.110000000000000000e+03 5.645829010009765625e+01 -3.627749252319335938e+01 4.627194404602050781e-01 1.103108406066894531e+00 4.697483777999877930e-01 -4.532543420791625977e-01
2.111000000000000000e+03 5.721560668945312500e+01 -2.864063835144042969e+01 3.484102189540863037e-01 7.067517638206481934e-01 3.165485858917236328e-01 4.291461408138275146e-01
2.112000000000000000e+03 5.718230056762695312e+01 -3.671252441406250000e+01 5.638760328292846680e-01 9.132729172706604004e-01 4.431446790695190430e-01 -6.045226454734802246e-01
2.113000000000000000e+03 3.049189949035644531e+01 -1.559501171112060547e+01 -5.121460556983947754e-01 -2.539346814155578613e-01 -2.298242300748825073e-01 -2.148302197456359863e-01
2.114000000000000000e+03 5.979959106445312500e+01 -2.583627319335937500e+01 1.648441702127456665e-01 4.208659827709197998e-01 1.757130473852157593e-01 4.980221390724182129e-01
2.115000000000000000e+03 6.649627685546875000e+01 -3.532891845703125000e+01 5.178785324096679688e-01 2.354117393493652344e+00 8.615987896919250488e-01 4.232970178127288818e-01
2.116000000000000000e+03 6.472128295898437500e+01 -2.720474624633789062e+01 -2.205320745706558228e-01 1.710659027099609375e+00 4.470380842685699463e-01 -7.063959240913391113e-01
2.117000000000000000e+03 6.744186401367187500e+01 -3.300540542602539062e+01 4.458347558975219727e-01 2.508245229721069336e+00 8.862239718437194824e-01 7.409704476594924927e-02
2.118000000000000000e+03 6.656912231445312500e+01 -3.432821655273437500e+01 3.870957791805267334e-01 2.523638248443603516e+00 8.732202053070068359e-01 3.264173567295074463e-01
2.119000000000000000e+03 3.054593276977539062e+01 -5.680761337280273438e+00 -1.273110322654247284e-02 -2.778215110301971436e-01 -8.716578036546707153e-02 -1.390744745731353760e-01
2.120000000000000000e+03 2.993894004821777344e+01 -3.212483167648315430e+00 -5.959149915724992752e-03 -1.156359016895294189e-01 -3.647851571440696716e-02 -5.386311188340187073e-02
2.121000000000000000e+03 6.439347076416015625e+01 -2.665356063842773438e+01 -3.164598047733306885e-01 1.601261258125305176e+00 3.854404389858245850e-01 -6.244984269142150879e-01
2.122000000000000000e+03 2.976802635192871094e+01 -3.994210004806518555e+00 1.868773996829986572e-02 -1.541087776422500610e-01 -4.062631353735923767e-02 -5.446647852659225464e-02
2.123000000000000000e+03 2.922973442077636719e+01 -4.188903808593750000e+00 3.441959619522094727e-03 -8.919736742973327637e-02 -2.572662197053432465e-02 -5.021147429943084717e-03
2.124000000000000000e+03 1.747303009033203125e+01 -1.061350345611572266e+01 -7.957626879215240479e-02 2.237626584246754646e-03 -2.320159226655960083e-02 4.554169997572898865e-02
2.125000000000000000e+03 1.467723655700683594e+01 -3.153030157089233398e+00 2.553988480940461159e-03 3.793559502810239792e-03 1.904264325276017189e-03 -1.259494107216596603e-02
2.126000000000000000e+03 3.114384269714355469e+01 -1.377422904968261719e+01 -5.064033269882202148e-01 -2.530827820301055908e-01 -2.278458327054977417e-01 -8.631091564893722534e-02
2.127000000000000000e+03 2.860759735107421875e+01 -1.061758899688720703e+01 -3.369329571723937988e-01 -5.029490590095520020e-01 -2.519645988941192627e-01 -3.786804676055908203e-01
2.128000000000000000e+03 2.644669151306152344e+01 -1.320050430297851562e+01 -5.820229053497314453e-01 -2.031463831663131714e-01 -2.355507910251617432e-01 -2.611854970455169678e-01
2.129000000000000000e+03 2.966214561462402344e+01 -6.609273433685302734e+00 -6.460918579250574112e-03 -4.491492509841918945e-01 -1.366830468177795410e-01 -5.358721688389778137e-02
2.130000000000000000e+03 3.119255638122558594e+01 -7.341781616210937500e+00 -4.279565066099166870e-02 -3.508595824241638184e-01 -1.180965676903724670e-01 -2.145204097032546997e-01
2.131000000000000000e+03 1.652899932861328125e+01 -6.119325160980224609e+00 -4.408380016684532166e-03 3.763829171657562256e-02 9.968973696231842041e-03 -2.682815538719296455e-03
2.132000000000000000e+03 4.515703201293945312e+01 -1.441552448272705078e+01 -1.017638206481933594e+00 -1.607779562473297119e-01 -3.535248339176177979e-01 -9.915716946125030518e-02
2.133000000000000000e+03 2.528488159179687500e+01 -1.302435684204101562e+01 -6.918837428092956543e-01 -1.427680850028991699e-01 -2.503955364227294922e-01 -2.740596532821655273e-01
2.134000000000000000e+03 1.635270118713378906e+01 -7.024059772491455078e+00 2.345503075048327446e-03 3.592306748032569885e-02 1.148057170212268829e-02 2.761203795671463013e-03
2.135000000000000000e+03 4.524606323242187500e+01 -1.274055957794189453e+01 -1.048188686370849609e+00 -2.677505612373352051e-01 -3.947817683219909668e-01 -4.437534511089324951e-01
2.136000000000000000e+03 4.696951293945312500e+01 -1.511755466461181641e+01 -8.925880789756774902e-01 -1.659027338027954102e-01 -3.175472319126129150e-01 -1.899563968181610107e-01
2.137000000000000000e+03 3.654998016357421875e+01 -7.629060268402099609e+00 8.503278344869613647e-02 6.267883777618408203e-01 2.135463356971740723e-01 -2.610349953174591064e-01
2.138000000000000000e+03 2.403236961364746094e+01 -1.475251865386962891e+01 -5.182588696479797363e-01 -1.446115374565124512e-01 -1.988611221313476562e-01 -1.582518815994262695e-01
2.139000000000000000e+03 3.612884521484375000e+01 -3.935144186019897461e+00 -2.964759171009063721e-01 1.972162872552871704e-01 -2.977788634598255157e-02 -1.344195306301116943e-01
2.140000000000000000e+03 3.677409362792968750e+01 -6.841744422912597656e+00 -2.224802039563655853e-02 5.171593427658081055e-01 1.484734117984771729e-01 -1.669264137744903564e-01
2.141000000000000000e+03 2.915936851501464844e+01 -1.099669837951660156e+01 -3.058820664882659912e-01 -5.192599296569824219e-01 -2.475425899028778076e-01 -2.754513919353485107e-01
2.142000000000000000e+03 3.717049407958984375e+01 -1.481576919555664062e+01 -5.936729311943054199e-01 6.891457438468933105e-01 2.864184230566024780e-02 -2.540377080440521240e-01
2.143000000000000000e+03 1.714374542236328125e+01 -7.911339282989501953e+00 1.685625524260103703e-03 4.816441237926483154e-02 1.495501212775707245e-02 2.916034776717424393e-03
2.144000000000000000e+03 3.043006515502929688e+01 -7.405424594879150391e+00 -2.188155427575111389e-02 -4.657742679119110107e-01 -1.462967544794082642e-01 -1.585246771574020386e-01
2.145000000000000000e+03 1.858408164978027344e+01 -1.198205280303955078e+01 -1.072729676961898804e-01 -3.303945064544677734e-02 -4.209372401237487793e-02 7.165925949811935425e-02
2.146000000000000000e+03 1.638587760925292969e+01 -7.998082637786865234e+00 -1.245119795203208923e-02 3.324683383107185364e-02 6.238690111786127090e-03 8.467336185276508331e-03
2.147000000000000000e+03 3.048338890075683594e+01 -6.538689613342285156e+00 -1.241633947938680649e-02 -3.685580193996429443e-01 -1.142923086881637573e-01 -1.400777846574783325e-01
2.148000000000000000e+03 1.650928306579589844e+01 -1.431240749359130859e+01 -3.348683565855026245e-02 1.013654470443725586e-01 2.036358229815959930e-02 -1.828396506607532501e-02
2.149000000000000000e+03 3.912802886962890625e+01 -1.848584651947021484e+00 -3.531851768493652344e-01 1.547402702271938324e-02 -1.013133451342582703e-01 1.184020861983299255e-01
2.150000000000000000e+03 3.666341018676757812e+01 -1.940593004226684570e+00 -2.947636246681213379e-01 1.096816584467887878e-01 -5.552459135651588440e-02 8.499821648001670837e-03
2.151000000000000000e+03 3.811956405639648438e+01 -4.779228687286376953e+00 -3.148735165596008301e-01 8.307933062314987183e-02 -6.953825801610946655e-02 -1.002905219793319702e-01
2.152000000000000000e+03 4.560410690307617188e+01 -1.333175849914550781e+01 -1.022682070732116699e+00 -1.372562944889068604e-01 -3.479814827442169189e-01 -2.641997635364532471e-01
2.153000000000000000e+03 4.502888488769531250e+01 -5.116134166717529297e+00 -3.777316510677337646e-01 -9.284687787294387817e-02 -1.411735564470291138e-01 1.752499788999557495e-01
2.154000000000000000e+03 4.566147994995117188e+01 -5.664680480957031250e+00 -2.013526707887649536e-01 -1.273169554769992828e-02 -6.422530859708786011e-02 1.040017232298851013e-01
2.155000000000000000e+03 4.557707214355468750e+01 -4.605007171630859375e+00 -4.102891981601715088e-01 5.516947433352470398e-02 -1.065359190106391907e-01 8.818610012531280518e-02
2.156000000000000000e+03 4.845457077026367188e+01 -9.730889320373535156e+00 -1.343488693237304688e-01 4.115910530090332031e-01 8.317265659570693970e-02 -1.971700787544250488e-01
2.157000000000000000e+03 4.634082412719726562e+01 -1.285464763641357422e+01 -8.488880991935729980e-01 -1.161527112126350403e-01 -2.895122468471527100e-01 -2.734126746654510498e-01
2.158000000000000000e+03 4.701380920410156250e+01 -2.862331151962280273e+00 -3.609024584293365479e-01 7.200026512145996094e-02 -8.667065948247909546e-02 3.457381948828697205e-02
2.159000000000000000e+03 3.770788192749023438e+01 -1.097486591339111328e+01 -5.500392615795135498e-02 7.712488770484924316e-01 2.148734778165817261e-01 -2.122673690319061279e-01
2.160000000000000000e+03 5.140422439575195312e+01 -6.035377979278564453e+00 -3.142634928226470947e-01 -2.277655899524688721e-01 -1.626087278127670288e-01 3.499090671539306641e-01
2.161000000000000000e+03 4.704327392578125000e+01 -3.507505178451538086e+00 -3.711554706096649170e-01 1.222708225250244141e-01 -7.466538995504379272e-02 6.570360809564590454e-02
2.162000000000000000e+03 3.881653976440429688e+01 -1.196639156341552734e+01 -2.718424201011657715e-01 4.775445461273193359e-01 6.171063706278800964e-02 -1.130870282649993896e-01
2.163000000000000000e+03 3.979170608520507812e+01 -1.306509399414062500e+01 -8.334699869155883789e-01 3.239370584487915039e-01 -1.528598815202713013e-01 7.081551849842071533e-02
2.164000000000000000e+03 4.525777053833007812e+01 -2.661041975021362305e+00 -4.372204542160034180e-01 7.736545056104660034e-02 -1.079564988613128662e-01 -6.519003957509994507e-02
2.165000000000000000e+03 4.319163131713867188e+01 -3.362169742584228516e+00 -8.820300102233886719e-01 -1.790707930922508240e-02 -2.699811160564422607e-01 9.147386252880096436e-02
2.166000000000000000e+03 3.862652206420898438e+01 -3.844527482986450195e+00 -4.927673935890197754e-01 8.136290311813354492e-02 -1.234213486313819885e-01 -5.874679237604141235e-02
2.167000000000000000e+03 3.731844329833984375e+01 -1.655057191848754883e+00 -2.943949699401855469e-01 9.184012562036514282e-02 -6.076645478606224060e-02 4.865316301584243774e-02
2.168000000000000000e+03 4.959950637817382812e+01 -3.040782451629638672e+00 -2.148399204015731812e-01 2.682911977171897888e-02 -5.640324205160140991e-02 1.859280914068222046e-01
2.169000000000000000e+03 4.786645507812500000e+01 -2.825674295425415039e+00 -3.182920217514038086e-01 6.459907442331314087e-02 -7.610788196325302124e-02 9.515358507633209229e-02
2.170000000000000000e+03 5.163682174682617188e+01 -2.896281242370605469e+00 -5.910730734467506409e-02 -7.593364268541336060e-02 -4.051228612661361694e-02 1.091259196400642395e-01
2.171000000000000000e+03 4.745624542236328125e+01 -5.408326148986816406e+00 -3.343625366687774658e-01 2.772919833660125732e-01 -1.712117157876491547e-02 1.410739123821258545e-01
2.172000000000000000e+03 5.631545257568359375e+01 3.196070671081542969e+00 -1.516000986099243164e+00 -1.786278039216995239e-01 -5.083886384963989258e-01 3.238915503025054932e-01
2.173000000000000000e+03 5.592225646972656250e+01 4.639378547668457031e+00 -6.796617507934570312e-01 -3.656620858237147331e-03 -2.049955129623413086e-01 2.773264646530151367e-01
2.174000000000000000e+03 5.619141387939453125e+01 2.496245145797729492e+00 -2.059838533401489258e+00 -1.783598512411117554e-01 -6.714595556259155273e-01 4.009019732475280762e-01
2.175000000000000000e+03 5.771200561523437500e+01 1.549157023429870605e+00 -2.497543334960937500e+00 -6.786884665489196777e-01 -9.528695344924926758e-01 3.710242807865142822e-01
2.176000000000000000e+03 5.432181167602539062e+01 5.981825351715087891e+00 1.266379058361053467e-01 4.186304807662963867e-01 1.635805219411849976e-01 3.613141775131225586e-01
2.177000000000000000e+03 5.362561798095703125e+01 2.702345609664916992e+00 -1.868550539016723633e+00 2.566299587488174438e-02 -5.528662800788879395e-01 5.865862369537353516e-01
2.178000000000000000e+03 6.143917083740234375e+00 1.866837263107299805e+00 3.284401819109916687e-02 -3.807726083323359489e-03 8.710887283086776733e-03 -2.607675082981586456e-02
2.179000000000000000e+03 2.021499872207641602e+00 5.490658283233642578e+00 -1.443784777075052261e-02 2.268880978226661682e-02 2.475288696587085724e-03 -6.956149358302354813e-03
2.180000000000000000e+03 1.080811738967895508e+00 4.946609497070312500e+00 -4.844774957746267319e-03 4.074525833129882812e-02 1.077014487236738205e-02 -1.043177582323551178e-02
2.181000000000000000e+03 1.878337025642395020e+00 3.468733310699462891e+00 -1.505417749285697937e-03 2.033193223178386688e-02 5.647954531013965607e-03 -2.219146303832530975e-02
2.182000000000000000e+03 3.613992214202880859e+00 2.741516113281250000e+00 3.469513962045311928e-03 4.526024218648672104e-03 2.398661570623517036e-03 -3.023463115096092224e-02
2.183000000000000000e+03 1.962771296501159668e+00 2.689980030059814453e+00 2.338003600016236305e-03 1.420316845178604126e-02 4.962351638823747635e-03 -2.353915758430957794e-02
2.184000000000000000e+03 2.023531675338745117e+00 1.895905375480651855e+00 8.756301365792751312e-03 8.625095710158348083e-03 5.214419215917587280e-03 -2.075984328985214233e-02
2.185000000000000000e+03 6.952511787414550781e+00 2.556994915008544922e+00 3.182162996381521225e-03 -1.114781480282545090e-02 -2.389695495367050171e-03 -2.240416780114173889e-02
2.186000000000000000e+03 6.962847709655761719e+00 1.853184103965759277e+00 3.717724978923797607e-02 -6.121639627963304520e-03 9.316683746874332428e-03 -2.276628091931343079e-02
2.187000000000000000e+03 5.312552452087402344e+00 2.643310785293579102e+00 3.035464556887745857e-03 -2.918633399531245232e-03 3.504933556541800499e-05 -2.960671484470367432e-02
2.188000000000000000e+03 3.233372497558593750e+01 9.588284492492675781e-01 -9.157303571701049805e-01 1.361752003431320190e-01 -2.338665574789047241e-01 -2.537413537502288818e-01
2.189000000000000000e+03 3.150931930541992188e+01 1.965246677398681641e+00 -7.821318507194519043e-01 2.185574024915695190e-01 -1.690723299980163574e-01 6.942579150199890137e-02
2.190000000000000000e+03 3.075068855285644531e+01 1.213290691375732422e+00 -8.233236670494079590e-01 2.258261889219284058e-01 -1.792492419481277466e-01 -6.146016344428062439e-02
2.191000000000000000e+03 1.964339256286621094e+01 4.450059413909912109e+00 -2.419414967298507690e-01 -6.400383263826370239e-02 -9.178359806537628174e-02 1.427719146013259888e-01
2.192000000000000000e+03 1.582555294036865234e+01 6.162371158599853516e+00 -1.445127874612808228e-01 7.228891551494598389e-02 -2.166716195642948151e-02 1.971287280321121216e-01
2.193000000000000000e+03 1.742727279663085938e+01 6.696954727172851562e+00 9.324680268764495850e-02 1.298767626285552979e-01 6.693706661462783813e-02 1.670067310333251953e-01
2.194000000000000000e+03 1.600482177734375000e+01 3.128957033157348633e+00 -3.200434148311614990e-01 3.049957938492298126e-02 -8.686315268278121948e-02 2.089728116989135742e-01
2.195000000000000000e+03 1.500207138061523438e+01 5.920656681060791016e+00 -2.594189643859863281e-01 -8.408143185079097748e-03 -8.034812659025192261e-02 2.495327889919281006e-01
2.196000000000000000e+03 4.562530136108398438e+01 -2.107891654968261719e+01 2.039142698049545288e-01 -4.945279797539114952e-04 6.102592498064041138e-02 -5.086982250213623047e-01
2.197000000000000000e+03 4.694839477539062500e+01 1.614471554756164551e+00 -8.809411525726318359e-01 -5.179293453693389893e-02 -2.798202335834503174e-01 2.365319132804870605e-01
2.198000000000000000e+03 4.691323089599609375e+01 8.801568746566772461e-01 -7.483266592025756836e-01 -4.805936478078365326e-03 -2.259397804737091064e-01 1.494867801666259766e-01
2.199000000000000000e+03 4.859371566772460938e+01 1.100624799728393555e+00 -1.047255039215087891e+00 1.361476629972457886e-02 -3.100920915603637695e-01 2.784782946109771729e-01
2.200000000000000000e+03 4.707120513916015625e+01 5.309098720550537109e+00 -1.229405164718627930e+00 -4.167171716690063477e-01 -4.938367009162902832e-01 5.488872528076171875e-01
2.201000000000000000e+03 4.343882751464843750e+01 -2.818212270736694336e+00 -5.936398506164550781e-01 -5.864046514034271240e-03 -1.798511594533920288e-01 -3.493960946798324585e-02
2.202000000000000000e+03 4.422818374633789062e+01 -3.092276573181152344e+00 -5.945839881896972656e-01 4.023366048932075500e-02 -1.663050949573516846e-01 -1.085521653294563293e-02
2.203000000000000000e+03 4.480633163452148438e+01 -4.057361602783203125e+00 -5.358851552009582520e-01 6.699482444673776627e-03 -1.587557047605514526e-01 8.036324381828308105e-02
2.204000000000000000e+03 4.821143341064453125e+01 -5.014047622680664062e+00 -3.260943889617919922e-01 2.291166782379150391e-01 -2.909331768751144409e-02 2.193962484598159790e-01
2.205000000000000000e+03 5.950054550170898438e+01 7.473636269569396973e-01 -2.486762523651123047e+00 -1.048823911696672440e-02 -7.491752505302429199e-01 3.006764352321624756e-01
2.206000000000000000e+03 6.501712036132812500e+01 -8.536839485168457031e-02 -1.409825801849365234e+00 3.072573244571685791e-01 -3.307705521583557129e-01 -6.999342888593673706e-02
2.207000000000000000e+03 6.591950988769531250e+01 5.532051622867584229e-02 -1.397389650344848633e+00 2.521318197250366211e-01 -3.435773253440856934e-01 -9.221860766410827637e-02
2.208000000000000000e+03 6.193758392333984375e+01 -7.641777396202087402e-01 -1.545761704444885254e+00 3.273721635341644287e-01 -3.655168712139129639e-01 3.775610029697418213e-01
2.209000000000000000e+03 6.316875457763671875e+01 1.600631624460220337e-01 -1.521692276000976562e+00 4.399328827857971191e-01 -3.245278000831604004e-01 1.157247126102447510e-01
2.210000000000000000e+03 6.403823852539062500e+01 -6.519008636474609375e+00 -1.064708158373832703e-01 -6.621920317411422729e-02 -5.180700495839118958e-02 1.752779819071292877e-02
2.211000000000000000e+03 3.110328483581542969e+01 -3.332923650741577148e+00 -4.420087113976478577e-02 -1.062732562422752380e-01 -4.514223709702491760e-02 -1.264056116342544556e-01
2.212000000000000000e+03 3.731469726562500000e+01 -4.728163242340087891e+00 -3.146760463714599609e-01 2.518897056579589844e-01 -1.883590035140514374e-02 -1.053934320807456970e-01
2.213000000000000000e+03 3.294569396972656250e+01 -3.419178724288940430e+00 -1.161543279886245728e-01 -4.387399926781654358e-02 -4.800849780440330505e-02 -1.756409853696823120e-01
2.214000000000000000e+03 3.214502716064453125e+01 -3.768082618713378906e+00 -6.817872077226638794e-02 -9.449552744626998901e-02 -4.880227521061897278e-02 -1.801358610391616821e-01
2.215000000000000000e+03 5.869501876831054688e+01 6.755050420761108398e-01 -3.110740423202514648e+00 -4.839347004890441895e-01 -1.078402519226074219e+00 3.669479191303253174e-01
2.216000000000000000e+03 5.702373886108398438e+01 2.415197610855102539e+00 -1.982641458511352539e+00 -3.707465529441833496e-01 -7.060163617134094238e-01 3.451239466667175293e-01
2.217000000000000000e+03 5.885643768310546875e+01 -9.104704856872558594e-02 -2.789520978927612305e+00 -7.570934295654296875e-01 -1.063984274864196777e+00 1.138862252235412598e+00
2.218000000000000000e+03 6.339286804199218750e+01 -5.329540967941284180e-01 -1.464204907417297363e+00 3.390984237194061279e-01 -3.375319242477416992e-01 1.399885863065719604e-01
2.219000000000000000e+03 6.020893096923828125e+01 -1.038158535957336426e+00 -1.580085396766662598e+00 -7.199641317129135132e-02 -4.956245422363281250e-01 7.573179006576538086e-01
2.220000000000000000e+03 4.109626007080078125e+01 2.600500583648681641e+00 -1.287231326103210449e+00 8.820801973342895508e-02 -3.597069978713989258e-01 -2.344324737787246704e-01
2.221000000000000000e+03 4.283311843872070312e+01 2.632682323455810547e+00 -7.952736616134643555e-01 -5.681152641773223877e-02 -2.556255459785461426e-01 3.290608583483844995e-04
2.222000000000000000e+03 3.953754043579101562e+01 4.578545570373535156e+00 1.625341922044754028e-01 2.031191289424896240e-01 1.096960008144378662e-01 1.591917574405670166e-01
2.223000000000000000e+03 4.211925125122070312e+01 2.887187242507934570e+00 -9.418850541114807129e-01 -7.245190441608428955e-03 -2.847390770912170410e-01 -8.989095687866210938e-02
2.224000000000000000e+03 4.236487960815429688e+01 3.520508527755737305e+00 -7.094944119453430176e-01 -1.723548620939254761e-01 -2.645547688007354736e-01 -1.087179258465766907e-01
2.225000000000000000e+03 3.192850303649902344e+01 -2.898513603210449219e+01 2.240544408559799194e-01 1.330843567848205566e-01 1.071416437625885010e-01 -1.597186326980590820e-01
2.226000000000000000e+03 4.877235031127929688e+01 5.020308494567871094e+00 -1.272400736808776855e+00 -6.436590552330017090e-01 -5.748179554939270020e-01 6.398218870162963867e-01
2.227000000000000000e+03 5.010459518432617188e+01 2.145417690277099609e+00 -1.444473266601562500e+00 -2.996284887194633484e-02 -4.423308372497558594e-01 6.822324991226196289e-01
2.228000000000000000e+03 4.930011367797851562e+01 1.998638033866882324e+00 -1.248918056488037109e+00 -4.710794240236282349e-02 -3.888078033924102783e-01 5.345717668533325195e-01
2.229000000000000000e+03 6.142980957031250000e+01 -5.289241790771484375e+00 -4.358285106718540192e-03 3.898410499095916748e-02 1.038774568587541580e-02 4.331265017390251160e-02
2.230000000000000000e+03 6.312668609619140625e+01 -5.870448112487792969e+00 -5.218219757080078125e-02 -6.985229998826980591e-02 -3.661035001277923584e-02 1.652138191275298595e-03
2.231000000000000000e+03 2.946339225769042969e+01 -3.442294359207153320e+00 3.732078475877642632e-03 -6.901681423187255859e-02 -1.958542130887508392e-02 -2.955803461372852325e-02
2.232000000000000000e+03 3.567889928817749023e+00 -4.194792556762695312e+01 2.873269282281398773e-02 -2.616539895534515381e-01 -6.987638771533966064e-02 -3.036721842363476753e-03
2.233000000000000000e+03 3.940402221679687500e+01 -3.770787429809570312e+01 6.009952425956726074e-01 -5.037865787744522095e-02 1.651849746704101562e-01 -2.183514386415481567e-01
2.234000000000000000e+03 1.811800384521484375e+01 -1.887745738029479980e+00 2.391122095286846161e-02 1.247150078415870667e-02 1.091481652110815048e-02 1.313269254751503468e-03
2.235000000000000000e+03 1.589583492279052734e+01 -1.318632245063781738e+00 -9.256061166524887085e-03 1.174852834083139896e-03 -2.424362581223249435e-03 -1.041900832206010818e-02
2.236000000000000000e+03 3.906848526000976562e+01 -1.210056304931640625e+00 -2.393795996904373169e-01 1.904002856463193893e-04 -7.175675779581069946e-02 1.191088706254959106e-01
2.237000000000000000e+03 4.048345947265625000e+01 -2.949798107147216797e+00 -7.831830382347106934e-01 -1.211020573973655701e-01 -2.712855339050292969e-01 1.160061731934547424e-01
2.238000000000000000e+03 3.961719894409179688e+01 -1.197935700416564941e+00 -2.215130776166915894e-01 -3.943312913179397583e-02 -7.828386127948760986e-02 1.228403374552726746e-01
2.239000000000000000e+03 1.136240959167480469e+01 -1.010802841186523438e+01 -4.667973890900611877e-02 -3.939183428883552551e-03 -1.518567651510238647e-02 -4.213485494256019592e-02
2.240000000000000000e+03 6.972121429443359375e+01 -4.859395325183868408e-01 -2.337316274642944336e+00 -1.849293857812881470e-01 -7.566736936569213867e-01 -3.249354362487792969e-01
2.241000000000000000e+03 1.114284420013427734e+01 3.525322914123535156e+00 -9.191440045833587646e-02 -6.980790197849273682e-02 -4.851669073104858398e-02 6.518131494522094727e-02
2.242000000000000000e+03 1.038420200347900391e+01 4.648170948028564453e+00 -1.494654864072799683e-01 -9.816297888755798340e-02 -7.428853958845138550e-02 6.046234816312789917e-02
2.243000000000000000e+03 4.443203735351562500e+01 2.861508846282958984e+00 -8.875038027763366699e-01 -5.953099951148033142e-02 -2.841104269027709961e-01 1.101171597838401794e-01
2.244000000000000000e+03 1.880062675476074219e+01 -1.432959437370300293e+00 -5.696462932974100113e-03 1.511010900139808655e-02 2.824093680828809738e-03 2.180818468332290649e-02
2.245000000000000000e+03 1.656196212768554688e+01 -2.275834083557128906e+00 -5.237620323896408081e-03 9.603801183402538300e-03 1.309854327701032162e-03 -8.120015263557434082e-03
2.246000000000000000e+03 3.844722366333007812e+01 -2.409394741058349609e+00 -4.004246294498443604e-01 7.369788736104965210e-02 -9.801802039146423340e-02 9.499123692512512207e-02
2.247000000000000000e+03 5.975275039672851562e+01 -1.075076699256896973e+00 -1.415310382843017578e+00 -4.929989874362945557e-01 -5.724927783012390137e-01 9.335430860519409180e-01
2.248000000000000000e+03 6.071750259399414062e+01 -9.610503911972045898e-01 -1.548221230506896973e+00 9.771438688039779663e-02 -4.351520240306854248e-01 6.028374433517456055e-01
2.249000000000000000e+03 6.136262130737304688e+01 2.380729293823242188e+01 4.395356476306915283e-01 7.090237140655517578e-01 3.445678055286407471e-01 6.249135732650756836e-01
2.250000000000000000e+03 1.055084419250488281e+01 2.219215011596679688e+01 -1.785836666822433472e-01 -5.097458884119987488e-02 -6.886747479438781738e-02 1.685236990451812744e-01
2.251000000000000000e+03 1.213345050811767578e+01 1.836132240295410156e+01 1.647707819938659668e-01 2.283553332090377808e-01 1.179378330707550049e-01 2.655121982097625732e-01
2.252000000000000000e+03 5.200411605834960938e+01 -2.308694601058959961e+00 -3.526991978287696838e-02 -5.640796571969985962e-02 -2.750336565077304840e-02 5.025634169578552246e-02
2.253000000000000000e+03 5.023037338256835938e+01 -2.828222990036010742e+00 -1.594054996967315674e-01 -1.541965268552303314e-02 -5.244754254817962646e-02 1.537058353424072266e-01
2.254000000000000000e+03 5.226409149169921875e+01 -3.122134208679199219e+00 -1.883879676461219788e-02 -1.104248091578483582e-01 -3.877907991409301758e-02 7.102765142917633057e-02
2.255000000000000000e+03 4.374888610839843750e+01 3.062400102615356445e+00 -8.087801337242126465e-01 -9.429893642663955688e-02 -2.709237337112426758e-01 7.328705489635467529e-02
2.256000000000000000e+03 4.497560882568359375e+01 4.656651496887207031e+00 -9.322113394737243652e-01 -2.326173037290573120e-01 -3.494485914707183838e-01 2.911997735500335693e-01
2.257000000000000000e+03 4.248703765869140625e+01 5.649084091186523438e+00 -5.642537474632263184e-01 -3.029254674911499023e-01 -2.601537704467773438e-01 3.305985629558563232e-01
2.258000000000000000e+03 6.771614837646484375e+01 -1.448181915283203125e+01 -5.673314929008483887e-01 2.174644730985164642e-03 -1.695470660924911499e-01 1.283341050148010254e+00
2.259000000000000000e+03 1.205031394958496094e+01 2.993799448013305664e+00 -7.938444614410400391e-02 -4.087531939148902893e-02 -3.607792779803276062e-02 8.373787999153137207e-02
2.260000000000000000e+03 1.158374214172363281e+01 7.112650871276855469e+00 -3.739197850227355957e-01 -2.121046632528305054e-01 -1.758073270320892334e-01 2.285660505294799805e-01
2.261000000000000000e+03 3.014796257019042969e+01 2.832602310180664062e+01 -2.616944313049316406e-01 -6.417825818061828613e-01 -2.710431218147277832e-01 4.250546097755432129e-01
2.262000000000000000e+03 3.013973236083984375e+01 2.965981483459472656e+01 6.025770562700927258e-04 -5.787231326103210449e-01 -1.734361797571182251e-01 3.732609450817108154e-01
2.263000000000000000e+03 1.734584236145019531e+01 -2.241988420486450195e+00 9.055351838469505310e-03 1.315587293356657028e-02 6.663367617875337601e-03 9.544827044010162354e-03
2.264000000000000000e+03 1.299339675903320312e+01 -1.956920385360717773e+00 1.207251334562897682e-03 -5.737091414630413055e-03 -1.358952024020254612e-03 -1.429142709821462631e-02
2.265000000000000000e+03 1.475115013122558594e+01 -3.942216634750366211e+00 4.047887865453958511e-03 5.304609425365924835e-03 2.805749187245965004e-03 -1.242545247077941895e-02
2.266000000000000000e+03 4.621647262573242188e+01 -2.769275665283203125e+01 4.351107776165008545e-01 2.709147036075592041e-01 2.118076384067535400e-01 -2.691875994205474854e-01
2.267000000000000000e+03 1.005134296417236328e+01 5.183375358581542969e+00 -1.729480326175689697e-01 -1.022903397679328918e-01 -8.257151395082473755e-02 6.241070851683616638e-02
2.268000000000000000e+03 5.004368972778320312e+01 -3.283877563476562500e+01 8.476965874433517456e-02 3.850080966949462891e-01 1.409333199262619019e-01 -2.007067948579788208e-01
2.269000000000000000e+03 5.342061233520507812e+01 -3.285850906372070312e+01 3.257288038730621338e-01 7.590197324752807617e-01 3.254245519638061523e-01 -1.672482937574386597e-01
2.270000000000000000e+03 5.212477207183837891e+00 2.557647132873535156e+01 -2.049389183521270752e-01 -5.224903821945190430e-01 -2.182287871837615967e-01 1.424102187156677246e-01
2.271000000000000000e+03 7.239849567413330078e+00 2.309693336486816406e+01 -2.072491943836212158e-01 -3.186586797237396240e-01 -1.577723622322082520e-01 1.643480956554412842e-01
2.272000000000000000e+03 6.572190093994140625e+01 3.025619506835937500e+01 3.585064709186553955e-01 2.666437625885009766e+00 9.074832201004028320e-01 -3.905157148838043213e-01
2.273000000000000000e+03 6.432768249511718750e+01 3.144392013549804688e+01 5.226364731788635254e-01 2.515663862228393555e+00 9.114901423454284668e-01 -5.323596000671386719e-01
2.274000000000000000e+03 6.582389068603515625e+01 -2.450564575195312500e+01 -7.619122415781021118e-02 1.545318126678466797e+00 4.407380521297454834e-01 -5.456887483596801758e-01
2.275000000000000000e+03 6.530150604248046875e+01 -2.382553482055664062e+01 1.541378349065780640e-01 1.995313405990600586e+00 6.448353528976440430e-01 -5.886940360069274902e-01
2.276000000000000000e+03 6.966488647460937500e+01 1.965495872497558594e+01 1.478204876184463501e-01 3.025764942169189453e+00 9.520756602287292480e-01 -1.391004920005798340e+00
2.277000000000000000e+03 6.888490295410156250e+01 -1.574216938018798828e+01 -5.303015708923339844e-01 -3.218044042587280273e-01 -2.556318044662475586e-01 1.374658823013305664e+00
2.278000000000000000e+03 5.952975082397460938e+01 1.460254430770874023e+00 -2.241857767105102539e+00 5.937778204679489136e-02 -6.547440290451049805e-01 1.217795629054307938e-02
2.279000000000000000e+03 2.525921630859375000e+01 1.522930431365966797e+01 -4.443539381027221680e-01 -2.000682055950164795e-01 -1.933266371488571167e-01 1.434239149093627930e-01
2.280000000000000000e+03 2.467813301086425781e+01 1.586057662963867188e+01 -4.514451622962951660e-01 -2.129178345203399658e-01 -1.993089020252227783e-01 2.351592928171157837e-01
2.281000000000000000e+03 3.094303703308105469e+01 3.015287208557128906e+01 7.468116283416748047e-02 -5.431865453720092773e-01 -1.405516117811203003e-01 3.193579614162445068e-01
2.282000000000000000e+03 4.909302139282226562e+01 -2.615483283996582031e+01 3.540062010288238525e-01 4.249378144741058350e-01 2.336831986904144287e-01 -3.236514329910278320e-01
2.283000000000000000e+03 6.474509429931640625e+01 2.985890579223632812e+01 2.332682609558105469e-01 2.629589557647705078e+00 8.588573336601257324e-01 -3.666320145130157471e-01
2.284000000000000000e+03 6.751268005371093750e+01 4.994808197021484375e+00 -2.680949866771697998e-02 -1.842308044433593750e-01 -6.331209093332290649e-02 -7.673534750938415527e-01
2.285000000000000000e+03 6.450869750976562500e+01 6.807251930236816406e+00 5.486791133880615234e-01 9.387854933738708496e-01 4.462393820285797119e-01 -7.617001533508300781e-01
2.286000000000000000e+03 9.390561103820800781e+00 1.622248077392578125e+01 2.571093142032623291e-01 5.841908231377601624e-02 9.465851634740829468e-02 1.699901223182678223e-01
2.287000000000000000e+03 5.009625244140625000e+01 -3.441426467895507812e+01 7.626438885927200317e-02 2.820340991020202637e-01 1.074895411729812622e-01 -1.136351376771926880e-02
2.288000000000000000e+03 4.953381347656250000e+01 -3.473219299316406250e+01 5.200200900435447693e-02 6.827966123819351196e-02 3.608450293540954590e-02 1.416932418942451477e-02
2.289000000000000000e+03 5.562616825103759766e+00 -2.185163879394531250e+01 1.010598763823509216e-01 7.682095281779766083e-03 3.262259066104888916e-02 -5.225097015500068665e-02
2.290000000000000000e+03 5.153864860534667969e+00 -2.125162315368652344e+01 7.539875060319900513e-02 -1.375877019017934799e-02 1.849199272692203522e-02 -4.327184706926345825e-02
2.291000000000000000e+03 1.558347415924072266e+01 -6.760319232940673828e+00 -9.052584879100322723e-03 2.563326433300971985e-02 4.974203649908304214e-03 -1.214833697304129601e-03
2.292000000000000000e+03 3.758913040161132812e+01 -2.315786361694335938e+00 -3.557896018028259277e-01 1.131536141037940979e-01 -7.279079407453536987e-02 4.317788779735565186e-02
2.293000000000000000e+03 3.794089889526367188e+01 -1.402275919914245605e+00 -2.697991132736206055e-01 6.259312480688095093e-02 -6.216180324554443359e-02 7.647939026355743408e-02
2.294000000000000000e+03 3.783054733276367188e+01 -3.319777488708496094e+00 -4.328687787055969238e-01 1.417207568883895874e-01 -8.734440803527832031e-02 -1.303712185472249985e-02
2.295000000000000000e+03 3.448365402221679688e+01 -2.775429010391235352e+00 -2.168144732713699341e-01 5.827781185507774353e-02 -4.756099730730056763e-02 -1.251067072153091431e-01
2.296000000000000000e+03 3.661581802368164062e+01 -4.657600402832031250e+00 -2.967709600925445557e-01 2.567416131496429443e-01 -1.200880855321884155e-02 -1.553123295307159424e-01
2.297000000000000000e+03 3.598093414306640625e+01 -4.530147552490234375e+00 -2.593623101711273193e-01 2.336960732936859131e-01 -7.699874229729175568e-03 -1.894615143537521362e-01
2.298000000000000000e+03 6.205388259887695312e+01 7.638056755065917969e+00 5.537737011909484863e-01 1.171230077743530273e+00 5.175011157989501953e-01 -7.276087403297424316e-01
2.299000000000000000e+03 7.323751068115234375e+01 1.271834659576416016e+01 6.953057050704956055e-01 7.483048439025878906e+00 2.453506231307983398e+00 -1.213874459266662598e+00
2.300000000000000000e+03 7.253137969970703125e+01 1.194685935974121094e+01 4.530367255210876465e-01 7.401011466979980469e+00 2.356214523315429688e+00 -5.250435471534729004e-01
2.301000000000000000e+03 9.259333610534667969e+00 1.413378524780273438e+01 9.632072597742080688e-02 5.819780007004737854e-02 4.635556042194366455e-02 1.629340052604675293e-01
2.302000000000000000e+03 8.314169883728027344e+00 1.358986854553222656e+01 7.600026577711105347e-02 -6.303278356790542603e-02 3.890246618539094925e-03 1.959909647703170776e-01
2.303000000000000000e+03 6.534284210205078125e+01 2.851194000244140625e+01 3.258958458900451660e-01 2.446635484695434570e+00 8.317593932151794434e-01 -1.809783279895782471e-01
2.304000000000000000e+03 3.807018661499023438e+01 -1.540699672698974609e+01 -4.766851365566253662e-01 7.409448027610778809e-01 7.927789539098739624e-02 -2.296777367591857910e-01
2.305000000000000000e+03 2.983157920837402344e+01 -2.764715957641601562e+01 2.817091941833496094e-01 -4.655128810554742813e-03 8.311621844768524170e-02 -1.501172333955764771e-01
2.306000000000000000e+03 6.766032409667968750e+01 -2.622042465209960938e+01 -1.024110198020935059e+00 5.103829503059387207e-01 -1.541181802749633789e-01 -2.589513063430786133e-01
2.307000000000000000e+03 6.878067016601562500e+01 -2.663546562194824219e+01 -9.567900896072387695e-01 2.207952365279197693e-02 -2.804131507873535156e-01 6.484271585941314697e-02
2.308000000000000000e+03 4.767318725585937500e+01 6.127565860748291016e+00 -1.378662586212158203e+00 -4.913495779037475586e-01 -5.610036253929138184e-01 6.643317341804504395e-01
2.309000000000000000e+03 4.540260314941406250e+01 7.826455593109130859e+00 -9.048884510993957520e-01 -4.717569351196289062e-01 -4.129936099052429199e-01 6.280851960182189941e-01
2.310000000000000000e+03 3.993078231811523438e+01 -3.256754159927368164e+00 -8.405448198318481445e-01 -6.276218686252832413e-03 -2.540463209152221680e-01 -5.057313828729093075e-04
2.311000000000000000e+03 7.405512237548828125e+01 -2.516635513305664062e+01 1.024553179740905762e+00 8.821054458618164062e+00 2.953682422637939453e+00 1.182617187500000000e+00
2.312000000000000000e+03 7.897324371337890625e+01 -2.262486839294433594e+01 1.287821233272552490e-01 8.226882934570312500e+00 2.506699562072753906e+00 5.068604946136474609e-01
2.313000000000000000e+03 6.907536029815673828e+00 -1.403116226196289062e+01 -9.142658114433288574e-02 -1.120625734329223633e-01 -6.104674935340881348e-02 -7.636418938636779785e-02
2.314000000000000000e+03 3.299000167846679688e+01 2.053784751892089844e+01 4.518214613199234009e-02 -4.101681113243103027e-01 -1.094957888126373291e-01 3.338963091373443604e-01
2.315000000000000000e+03 3.213313674926757812e+01 1.827200317382812500e+01 1.619696617126464844e-01 2.168094515800476074e-01 1.136337369680404663e-01 4.304129779338836670e-01
2.316000000000000000e+03 5.387686157226562500e+01 2.794764137268066406e+01 3.188301995396614075e-02 1.606612205505371094e+00 4.915485680103302002e-01 -5.000072717666625977e-02
2.317000000000000000e+03 5.185285186767578125e+01 2.885058975219726562e+01 1.894483864307403564e-01 1.092257142066955566e+00 3.845116496086120605e-01 1.051005721092224121e-01
2.318000000000000000e+03 1.501818275451660156e+01 3.699251174926757812e+00 -2.471481710672378540e-01 6.305133923888206482e-03 -7.225291430950164795e-02 2.436249703168869019e-01
2.319000000000000000e+03 2.097448158264160156e+01 2.822016525268554688e+01 8.377549052238464355e-02 -3.039458096027374268e-01 -6.605109572410583496e-02 2.895455062389373779e-01
2.320000000000000000e+03 5.529606628417968750e+01 2.320335769653320312e+01 1.778007596731185913e-01 5.167844891548156738e-01 2.083755731582641602e-01 -3.161395490169525146e-01
2.321000000000000000e+03 1.185396862030029297e+01 6.400712966918945312e+00 -3.544757366180419922e-01 -1.937172114849090576e-01 -1.644578874111175537e-01 1.688897311687469482e-01
2.322000000000000000e+03 5.371951103210449219e+00 -2.328150749206542969e+01 7.521110773086547852e-02 -2.309313789010047913e-02 1.563538983464241028e-02 -1.222804654389619827e-02
2.323000000000000000e+03 6.081464290618896484e+00 -2.306155395507812500e+01 9.004346281290054321e-02 1.579736475832760334e-03 2.748695947229862213e-02 -1.613395102322101593e-02
2.324000000000000000e+03 6.123913574218750000e+01 9.590092658996582031e+00 8.448297977447509766e-01 1.992736458778381348e+00 8.512699007987976074e-01 -7.778640389442443848e-01
2.325000000000000000e+03 6.134158325195312500e+01 8.146003723144531250e+00 5.488860607147216797e-01 1.305314779281616211e+00 5.562602281570434570e-01 -5.930826663970947266e-01
2.326000000000000000e+03 7.319473266601562500e+00 3.443150711059570312e+01 2.717691659927368164e-01 3.185897693037986755e-02 9.108844399452209473e-02 7.873319089412689209e-02
2.327000000000000000e+03 6.828316211700439453e+00 3.360914230346679688e+01 2.553133964538574219e-01 -1.598951872438192368e-03 7.611433416604995728e-02 1.218120381236076355e-01
2.328000000000000000e+03 7.597689056396484375e+01 -2.766973257064819336e+00 -6.132202148437500000e-01 1.168655776977539062e+01 3.322001218795776367e+00 5.053231120109558105e-01
2.329000000000000000e+03 1.340312004089355469e+01 2.220937538146972656e+01 1.757822632789611816e-01 1.082679927349090576e-01 8.521507680416107178e-02 2.844436764717102051e-01
2.330000000000000000e+03 1.422163963317871094e+01 2.246275520324707031e+01 3.265905380249023438e-01 1.302582174539566040e-01 1.370546221733093262e-01 2.955986261367797852e-01
2.331000000000000000e+03 3.620533752441406250e+01 2.294905853271484375e+01 -2.237784415483474731e-01 -5.752243995666503906e-01 -2.397008538246154785e-01 4.083140790462493896e-01
2.332000000000000000e+03 3.620182800292968750e+01 2.399472618103027344e+01 -3.809361755847930908e-01 -6.218421459197998047e-01 -3.008334934711456299e-01 4.550518095493316650e-01
2.333000000000000000e+03 3.509666061401367188e+01 2.431548881530761719e+01 -3.920523524284362793e-01 -5.962230563163757324e-01 -2.964826226234436035e-01 3.926928341388702393e-01
2.334000000000000000e+03 6.984035491943359375e+01 6.563231945037841797e+00 -5.292438268661499023e-01 2.933663725852966309e-01 -7.076323777437210083e-02 -2.984964549541473389e-01
2.335000000000000000e+03 7.125881195068359375e+01 8.645126342773437500e+00 -1.036851882934570312e+00 2.434137821197509766e+00 4.191857874393463135e-01 -9.588691592216491699e-02
2.336000000000000000e+03 6.164337635040283203e+00 -4.442010402679443359e+00 7.494731340557336807e-03 -1.202004309743642807e-02 -1.357593573629856110e-03 5.063866730779409409e-03
2.337000000000000000e+03 7.568410396575927734e+00 -3.183773040771484375e+00 9.423716925084590912e-03 -9.162794798612594604e-03 7.827683293726295233e-05 -1.468602218665182590e-03
2.338000000000000000e+03 9.123557090759277344e+00 -3.132623910903930664e+00 8.303873240947723389e-03 -9.838039986789226532e-03 -4.602499830070883036e-04 -8.565736934542655945e-03
2.339000000000000000e+03 6.056783199310302734e+00 -3.175759077072143555e+00 9.180276654660701752e-03 -7.001006510108709335e-03 6.537811714224517345e-04 4.897228442132472992e-03
2.340000000000000000e+03 5.978525638580322266e+00 -2.510426998138427734e+00 1.091853063553571701e-02 -3.514162963256239891e-03 2.221310278400778770e-03 5.015002563595771790e-03
2.341000000000000000e+03 6.804641246795654297e+00 -3.182372331619262695e+00 1.011030655354261398e-02 -7.487644907087087631e-03 7.867985987104475498e-04 2.425355836749076843e-03
2.342000000000000000e+03 2.604429244995117188e+00 -2.902829408645629883e+00 4.116571508347988129e-03 2.906555077061057091e-03 2.106938045471906662e-03 9.030666202306747437e-03
2.343000000000000000e+03 4.795831680297851562e+00 -3.836441993713378906e+00 7.994567044079303741e-03 -4.851590376347303391e-03 9.428930934518575668e-04 9.999055415391921997e-03
2.344000000000000000e+03 1.850007057189941406e+00 -2.779778480529785156e+00 2.165816491469740868e-03 4.733675625175237656e-03 2.069847658276557922e-03 6.711524911224842072e-03
2.345000000000000000e+03 9.742485284805297852e-01 -5.122233867645263672e+00 2.635766213643364608e-05 1.726474054157733917e-02 5.187329370528459549e-03 7.031158078461885452e-03
2.346000000000000000e+03 1.145088958740234375e+01 -2.219637870788574219e+00 4.894844256341457367e-03 -7.163430098444223404e-03 -6.805757875554263592e-04 -1.412020809948444366e-02
2.347000000000000000e+03 2.956625175476074219e+01 4.080105781555175781e+00 -2.084517031908035278e-01 3.891633749008178711e-01 5.421350151300430298e-02 -1.265748310834169388e-02
2.348000000000000000e+03 2.740141296386718750e+01 1.793538928031921387e+00 -6.133062243461608887e-01 9.644473344087600708e-02 -1.550584584474563599e-01 1.304394751787185669e-01
2.349000000000000000e+03 3.316041183471679688e+01 2.134436607360839844e+01 -5.655395332723855972e-03 -5.257398486137390137e-01 -1.594185680150985718e-01 3.413106203079223633e-01
2.350000000000000000e+03 4.032437896728515625e+01 6.582987785339355469e+00 -2.157478630542755127e-01 -3.770155906677246094e-01 -1.778290420770645142e-01 4.500206112861633301e-01
2.351000000000000000e+03 3.037205696105957031e+01 -2.718424987792968750e+01 2.928850650787353516e-01 5.251889675855636597e-02 1.036211848258972168e-01 -1.735144704580307007e-01
2.352000000000000000e+03 2.376870918273925781e+01 1.602878570556640625e+01 -3.346285820007324219e-01 -2.183921784162521362e-01 -1.659062355756759644e-01 2.067109197378158569e-01
2.353000000000000000e+03 3.288615798950195312e+01 1.976662063598632812e+01 1.033544316887855530e-01 -2.788588702678680420e-01 -5.265132710337638855e-02 3.759712278842926025e-01
2.354000000000000000e+03 4.594450759887695312e+01 -2.044985771179199219e+01 8.706364035606384277e-02 -3.566343337297439575e-03 2.504918910562992096e-02 -5.049632787704467773e-01
2.355000000000000000e+03 5.972017669677734375e+01 1.216308021545410156e+01 4.453529715538024902e-01 2.024438142776489258e+00 7.409372925758361816e-01 -3.682829737663269043e-01
2.356000000000000000e+03 7.013563537597656250e+01 1.909071922302246094e+01 3.782328069210052490e-01 3.512632131576538086e+00 1.167259454727172852e+00 -1.564688920974731445e+00
2.357000000000000000e+03 2.891803359985351562e+01 4.280603885650634766e+00 -1.773713827133178711e-01 3.634241819381713867e-01 5.581583827733993530e-02 8.170072734355926514e-02
2.358000000000000000e+03 2.598210716247558594e+01 2.217071294784545898e+00 -5.415140390396118164e-01 6.994706112891435623e-03 -1.603557914495468140e-01 2.007321715354919434e-01
2.359000000000000000e+03 2.123698043823242188e+01 4.522705554962158203e+00 -2.017052024602890015e-01 -1.198566630482673645e-01 -9.646856039762496948e-02 1.307614296674728394e-01
2.360000000000000000e+03 2.226156806945800781e+01 3.370014429092407227e+00 -3.937166035175323486e-01 -9.892762452363967896e-02 -1.477932631969451904e-01 1.781951338052749634e-01
2.361000000000000000e+03 2.884722518920898438e+01 1.474556326866149902e+00 -6.895169615745544434e-01 1.961834430694580078e-01 -1.480000615119934082e-01 3.650708869099617004e-02
2.362000000000000000e+03 2.852455520629882812e+01 2.906613349914550781e+00 -4.539012610912322998e-01 2.249757051467895508e-01 -6.867766380310058594e-02 1.177020296454429626e-01
2.363000000000000000e+03 2.379890632629394531e+01 2.947350263595581055e+00 -4.337687194347381592e-01 -7.985682785511016846e-02 -1.540876626968383789e-01 2.094413638114929199e-01
2.364000000000000000e+03 2.196115875244140625e+01 5.811003684997558594e+00 3.702946472913026810e-03 -1.496523022651672363e-01 -4.378480464220046997e-02 1.239669397473335266e-01
2.365000000000000000e+03 2.527208518981933594e+01 2.457923889160156250e+00 -4.988493919372558594e-01 -2.633511088788509369e-02 -1.575553566217422485e-01 2.182279825210571289e-01
2.366000000000000000e+03 2.189227104187011719e+01 4.275914669036865234e+00 -2.370766252279281616e-01 -1.189185976982116699e-01 -1.067985668778419495e-01 1.502817124128341675e-01
2.367000000000000000e+03 2.423523902893066406e+01 3.669231176376342773e+00 -2.947166562080383301e-01 -7.559663057327270508e-02 -1.110939830541610718e-01 1.973491758108139038e-01
2.368000000000000000e+03 2.637245178222656250e+01 2.838780403137207031e+00 -4.167762994766235352e-01 5.969732627272605896e-02 -1.071236878633499146e-01 1.937166601419448853e-01
2.369000000000000000e+03 2.569146537780761719e+01 3.109492540359497070e+00 -3.785093724727630615e-01 7.478156592696905136e-03 -1.113093644380569458e-01 1.994821429252624512e-01
2.370000000000000000e+03 2.972207450866699219e+01 3.115241527557373047e+00 -4.293064177036285400e-01 2.792828083038330078e-01 -4.500708729028701782e-02 4.167936742305755615e-02
2.371000000000000000e+03 2.623986625671386719e+01 -3.507343292236328125e+01 -2.520449832081794739e-02 -3.227436244487762451e-01 -1.043844372034072876e-01 -7.393981516361236572e-02
2.372000000000000000e+03 7.193595886230468750e+01 5.401240587234497070e-01 -9.121621847152709961e-01 2.323300361633300781e+00 4.233414530754089355e-01 -1.323025465011596680e+00
2.373000000000000000e+03 6.897607421875000000e+01 5.814219951629638672e+00 -1.513839811086654663e-01 -2.023994736373424530e-02 -5.148717761039733887e-02 -5.037184953689575195e-01
2.374000000000000000e+03 2.673419189453125000e+01 -3.387741470336914062e+01 -5.717567983083426952e-04 -2.639730274677276611e-01 -7.936344295740127563e-02 -8.692934364080429077e-02
2.375000000000000000e+03 2.598383712768554688e+01 -3.417838287353515625e+01 -4.627665039151906967e-03 -3.420832157135009766e-01 -1.040132641792297363e-01 -5.697933584451675415e-02
2.376000000000000000e+03 5.187865447998046875e+01 2.821275138854980469e+01 1.935537755489349365e-01 1.083876967430114746e+00 3.832292258739471436e-01 7.513582706451416016e-02
2.377000000000000000e+03 1.881963920593261719e+01 -2.501008415222167969e+01 8.963486552238464355e-02 4.319835826754570007e-02 3.984996676445007324e-02 -2.190136760473251343e-01
2.378000000000000000e+03 4.238901901245117188e+01 -1.445648479461669922e+01 -1.015425562858581543e+00 -2.399001866579055786e-01 -3.765977323055267334e-01 -5.811869725584983826e-02
2.379000000000000000e+03 4.842564773559570312e+01 -3.861944961547851562e+01 7.258410453796386719e-01 1.448385976254940033e-02 2.220974713563919067e-01 9.171336144208908081e-02
2.380000000000000000e+03 5.020904541015625000e+01 -3.542880630493164062e+01 2.141899019479751587e-01 2.650244235992431641e-01 1.437643021345138550e-01 6.872407346963882446e-02
2.381000000000000000e+03 5.606222152709960938e+01 -3.971973800659179688e+01 8.196195960044860840e-01 5.922110080718994141e-01 4.235491752624511719e-01 -1.580657213926315308e-01
2.382000000000000000e+03 1.801337242126464844e+01 -1.132562351226806641e+01 -8.908808231353759766e-02 -1.904270239174365997e-02 -3.243923559784889221e-02 5.653548240661621094e-02
2.383000000000000000e+03 1.536309337615966797e+01 -1.465764808654785156e+01 2.290946803987026215e-02 1.927942782640457153e-01 6.471112370491027832e-02 -6.309590488672256470e-02
2.384000000000000000e+03 1.062331676483154297e+01 8.422763824462890625e+00 -2.739095687866210938e-01 -2.899670898914337158e-01 -1.691629886627197266e-01 2.456295490264892578e-01
2.385000000000000000e+03 1.229623317718505859e+01 -2.762273073196411133e+00 3.926673438400030136e-03 -6.211328785866498947e-03 -6.853964878246188164e-04 -1.601032353937625885e-02
2.386000000000000000e+03 1.072959613800048828e+01 -3.000942468643188477e+00 5.975366104394197464e-03 -8.640990592539310455e-03 -7.996872882358729839e-04 -1.424117479473352432e-02
2.387000000000000000e+03 1.382431411743164062e+01 -2.542275667190551758e+00 1.806892105378210545e-03 -2.626854227855801582e-03 -2.459886018186807632e-04 -1.435126643627882004e-02
2.388000000000000000e+03 7.562104797363281250e+01 -7.855243682861328125e+00 1.143539190292358398e+00 2.130866241455078125e+01 6.735660552978515625e+00 1.055940747261047363e+00
2.389000000000000000e+03 7.895471191406250000e+01 -7.366040706634521484e+00 3.818030953407287598e-01 6.641917228698730469e+00 2.107116222381591797e+00 3.585482761263847351e-02
2.390000000000000000e+03 5.960936355590820312e+01 2.202749729156494141e+00 -1.871058583259582520e+00 4.150809347629547119e-02 -5.488651394844055176e-01 -1.431178003549575806e-01
2.391000000000000000e+03 6.376015853881835938e+01 7.266347885131835938e+00 8.632100820541381836e-01 1.021692037582397461e+00 5.654706358909606934e-01 -8.210421800613403320e-01
2.392000000000000000e+03 2.867385864257812500e+01 -1.948904037475585938e+01 -1.130101755261421204e-01 -3.213148713111877441e-01 -1.302975118160247803e-01 -1.390496194362640381e-01
2.393000000000000000e+03 3.853179550170898438e+01 -1.740999603271484375e+01 2.239096611738204956e-01 7.867925167083740234e-01 3.032106459140777588e-01 -4.192119240760803223e-01
2.394000000000000000e+03 3.281017303466796875e+01 -1.457332229614257812e+01 -7.637485265731811523e-01 -2.095497250556945801e-01 -2.919894754886627197e-01 -9.678258746862411499e-02
2.395000000000000000e+03 2.901984024047851562e+01 9.602457046508789062e+00 2.671573162078857422e-01 7.434905767440795898e-01 3.031943738460540771e-01 2.749630212783813477e-01
2.396000000000000000e+03 2.857848930358886719e+01 8.987407684326171875e+00 2.642343342304229736e-01 6.130030751228332520e-01 2.631712257862091064e-01 2.155222445726394653e-01
2.397000000000000000e+03 5.391475677490234375e+01 -1.009192466735839844e+01 -1.628303050994873047e+00 -1.185554489493370056e-01 -5.240575671195983887e-01 1.085994243621826172e-01
2.398000000000000000e+03 5.324578857421875000e+01 -8.243710517883300781e+00 -7.857825756072998047e-01 -5.219706892967224121e-01 -3.923259675502777100e-01 4.782474339008331299e-01
2.399000000000000000e+03 1.471744632720947266e+01 -4.136085510253906250e+01 3.662733435630798340e-01 1.723639108240604401e-02 1.150529235601425171e-01 -4.945205152034759521e-02
2.400000000000000000e+03 1.496118640899658203e+01 -4.044505691528320312e+01 3.902175724506378174e-01 6.699915975332260132e-02 1.371650248765945435e-01 -1.090617701411247253e-01
2.401000000000000000e+03 1.669554138183593750e+01 3.981765270233154297e+00 -3.059956431388854980e-01 3.706972673535346985e-02 -8.067777752876281738e-02 2.479110360145568848e-01
2.402000000000000000e+03 6.597779846191406250e+01 -2.557231903076171875e+01 -5.613647699356079102e-01 1.517933964729309082e+00 2.869707345962524414e-01 -4.521822035312652588e-01
2.403000000000000000e+03 2.123079109191894531e+01 2.319347000122070312e+01 1.449398994445800781e-01 -2.318821698427200317e-01 -2.608267962932586670e-02 1.377438604831695557e-01
2.404000000000000000e+03 2.411725807189941406e+01 -2.943137741088867188e+01 1.863650232553482056e-01 -8.809195458889007568e-02 2.948192134499549866e-02 -9.912811219692230225e-02
2.405000000000000000e+03 2.361591148376464844e+01 -2.875552558898925781e+01 2.364955693483352661e-01 -1.348476950079202652e-02 6.690324097871780396e-02 -1.252224594354629517e-01
2.406000000000000000e+03 4.385497283935546875e+01 9.909293174743652344e+00 -6.795312166213989258e-01 -2.011441588401794434e-01 -2.642026245594024658e-01 6.358732581138610840e-01
2.407000000000000000e+03 1.760893249511718750e+01 -1.763196182250976562e+01 -7.571727037429809570e-02 -4.338880628347396851e-02 -3.573182225227355957e-02 -2.549377083778381348e-01
2.408000000000000000e+03 9.243723869323730469e+00 3.114099025726318359e+00 -4.010324925184249878e-02 -4.063591361045837402e-02 -2.422174997627735138e-02 7.430878002196550369e-03
2.409000000000000000e+03 3.466194152832031250e+01 3.003969383239746094e+01 6.128638610243797302e-02 -2.732625603675842285e-01 -6.359285116195678711e-02 9.862162172794342041e-02
2.410000000000000000e+03 5.322405624389648438e+01 3.123410415649414062e+01 3.064936995506286621e-01 1.414459586143493652e+00 5.162859559059143066e-01 2.555010914802551270e-01
2.411000000000000000e+03 4.728448104858398438e+01 2.762829971313476562e+01 5.010006949305534363e-02 3.948136568069458008e-01 1.334741115570068359e-01 2.140563428401947021e-01
2.412000000000000000e+03 5.430141448974609375e+01 -2.520024299621582031e+01 1.207944750785827637e-01 8.932153880596160889e-02 6.303480267524719238e-02 8.366505056619644165e-02
2.413000000000000000e+03 5.654247665405273438e+01 -2.822583961486816406e+01 3.225147426128387451e-01 6.161081790924072266e-01 2.815868854522705078e-01 2.970451712608337402e-01
2.414000000000000000e+03 4.041927337646484375e+01 -2.440141487121582031e+01 -2.615666389465332031e-01 -5.495993494987487793e-01 -2.433497905731201172e-01 -4.535557925701141357e-01
2.415000000000000000e+03 2.076378059387207031e+01 1.082159805297851562e+01 3.816151991486549377e-02 -1.431349515914916992e-01 -3.149202838540077209e-02 4.837618768215179443e-02
2.416000000000000000e+03 2.256630325317382812e+01 1.295819473266601562e+01 -2.894244529306888580e-02 -1.929779946804046631e-01 -6.657613068819046021e-02 3.571286797523498535e-02
2.417000000000000000e+03 1.180041885375976562e+01 -2.653662300109863281e+01 -3.528243303298950195e-02 -2.181297838687896729e-01 -7.602366060018539429e-02 -1.473203897476196289e-01
2.418000000000000000e+03 7.198049163818359375e+01 -2.776220321655273438e+01 1.472087502479553223e-01 3.672140121459960938e+00 1.145804643630981445e+00 1.944434046745300293e+00
2.419000000000000000e+03 5.787266254425048828e+00 -1.535059547424316406e+01 -6.829829514026641846e-02 -1.359647214412689209e-01 -6.127890571951866150e-02 -7.807067036628723145e-02
2.420000000000000000e+03 6.459185791015625000e+01 -2.813539695739746094e+01 2.963716685771942139e-01 1.660489201545715332e+00 5.870582461357116699e-01 -8.793730139732360840e-01
2.421000000000000000e+03 7.852082061767578125e+01 4.116903305053710938e+01 4.724439699202775955e-03 5.172481536865234375e+00 1.553161859512329102e+00 7.548676338046789169e-03
2.422000000000000000e+03 7.159492492675781250e+01 1.831603431701660156e+01 2.645228505134582520e-01 5.440820693969726562e+00 1.711603164672851562e+00 -1.406640529632568359e+00
2.423000000000000000e+03 7.808976745605468750e+01 2.868279647827148438e+01 6.157511845231056213e-03 5.766478061676025391e+00 1.731790661811828613e+00 -1.867769658565521240e-01
2.424000000000000000e+03 7.892809295654296875e+01 2.139984321594238281e+01 -1.651493832468986511e-02 6.540353775024414062e+00 1.957151651382446289e+00 2.358344150707125664e-03
2.425000000000000000e+03 7.822844696044921875e+01 1.987452697753906250e+01 -1.417702063918113708e-02 6.507401466369628906e+00 1.947967410087585449e+00 9.450322948396205902e-03
2.426000000000000000e+03 7.813215637207031250e+01 2.707394027709960938e+01 -5.711628589779138565e-03 5.927095890045166016e+00 1.776415348052978516e+00 -1.842658221721649170e-01
2.427000000000000000e+03 7.889681243896484375e+01 2.540247917175292969e+01 -1.122640445828437805e-02 6.282489299774169922e+00 1.881378769874572754e+00 -9.454628080129623413e-02
2.428000000000000000e+03 7.743540954589843750e+01 2.389794921875000000e+01 -6.219061091542243958e-02 6.062215328216552734e+00 1.800007462501525879e+00 -1.904241442680358887e-01
2.429000000000000000e+03 7.821121978759765625e+01 2.147190475463867188e+01 -4.060135036706924438e-02 6.416998386383056641e+00 1.912919044494628906e+00 -3.324443474411964417e-02
2.430000000000000000e+03 7.895632171630859375e+01 1.581202793121337891e+01 5.672171711921691895e-02 6.798164844512939453e+00 2.056466102600097656e+00 -1.443986594676971436e-01
2.431000000000000000e+03 7.865775299072265625e+01 3.360756301879882812e+01 2.763235475867986679e-03 5.507398605346679688e+00 1.653048515319824219e+00 -9.492829442024230957e-02
2.432000000000000000e+03 7.878538513183593750e+01 3.516506195068359375e+01 8.252666448242962360e-04 5.421916007995605469e+00 1.626822352409362793e+00 -6.023092195391654968e-02
2.433000000000000000e+03 7.815771484375000000e+01 3.756458663940429688e+01 1.876679249107837677e-02 5.236360549926757812e+00 1.576538205146789551e+00 -4.610678553581237793e-02
2.434000000000000000e+03 7.780551147460937500e+01 3.200830841064453125e+01 2.546545304358005524e-02 5.428999423980712891e+00 1.636339545249938965e+00 -1.738276034593582153e-01
2.435000000000000000e+03 7.831916809082031250e+01 1.361194896697998047e+01 1.426286399364471436e-01 7.310514450073242188e+00 2.235942840576171875e+00 -5.842861533164978027e-01
2.436000000000000000e+03 7.830786895751953125e+01 1.284923171997070312e+01 1.279091238975524902e-01 7.542718887329101562e+00 2.301188468933105469e+00 -6.961112618446350098e-01
2.437000000000000000e+03 7.249229431152343750e+01 1.104388904571533203e+01 2.831149697303771973e-01 6.393452167510986328e+00 2.002970218658447266e+00 -6.163733601570129395e-01
2.438000000000000000e+03 7.826145935058593750e+01 1.514107513427734375e+01 1.543088704347610474e-01 6.939932823181152344e+00 2.128272533416748047e+00 -3.476763069629669189e-01
2.439000000000000000e+03 7.868953704833984375e+01 3.193078804016113281e+01 1.158470986410975456e-03 5.622600078582763672e+00 1.687127470970153809e+00 -1.075269356369972229e-01
2.440000000000000000e+03 7.767395019531250000e+01 1.372113227844238281e+01 2.558892965316772461e-01 7.219160556793212891e+00 2.242514848709106445e+00 -7.384008765220642090e-01
2.441000000000000000e+03 7.760178375244140625e+01 -3.830950546264648438e+01 5.291177704930305481e-02 6.281374454498291016e+00 1.900285959243774414e+00 1.575409173965454102e-01
2.442000000000000000e+03 7.876638031005859375e+01 -3.623719406127929688e+01 7.910905405879020691e-03 6.809798240661621094e+00 2.045312881469726562e+00 1.287920773029327393e-01
2.443000000000000000e+03 7.786242675781250000e+01 -3.684390640258789062e+01 3.292050212621688843e-02 6.480695724487304688e+00 1.954084873199462891e+00 1.777324080467224121e-01
2.444000000000000000e+03 7.891343688964843750e+01 -2.984855651855468750e+01 -4.070034250617027283e-02 7.495504379272460938e+00 2.236441373825073242e+00 1.472381595522165298e-02
2.445000000000000000e+03 7.801538085937500000e+01 -3.214224624633789062e+01 -3.563175722956657410e-02 6.969020843505859375e+00 2.080016851425170898e+00 2.047473639249801636e-01
2.446000000000000000e+03 7.893912506103515625e+01 -2.100684928894042969e+01 5.065102130174636841e-02 9.087714195251464844e+00 2.741509437561035156e+00 7.789891958236694336e-01
2.447000000000000000e+03 7.892619323730468750e+01 -2.018634796142578125e+01 -8.423076011240482330e-03 9.571496009826660156e+00 2.868921995162963867e+00 8.253923654556274414e-01
2.448000000000000000e+03 7.893028259277343750e+01 -1.776423454284667969e+01 -1.525847911834716797e-01 1.085756587982177734e+01 3.211494445800781250e+00 4.903802275657653809e-01
2.449000000000000000e+03 7.402735900878906250e+01 -2.023485183715820312e+01 3.251018822193145752e-01 7.875955104827880859e+00 2.460317134857177734e+00 6.646467447280883789e-01
2.450000000000000000e+03 7.894225311279296875e+01 -1.614088249206542969e+01 -2.025868594646453857e-01 1.124182415008544922e+01 3.311771154403686523e+00 2.032706886529922485e-02
2.451000000000000000e+03 7.826447296142578125e+01 -1.596999454498291016e+01 -4.776005446910858154e-01 1.060224151611328125e+01 3.037392377853393555e+00 1.451128348708152771e-02
2.452000000000000000e+03 7.504557037353515625e+01 -1.140385437011718750e+01 -5.715844035148620605e-01 1.196645164489746094e+01 3.418460369110107422e+00 1.544377207756042480e+00
2.453000000000000000e+03 7.892758178710937500e+01 5.333993434906005859e+00 -5.215016379952430725e-02 1.069196510314941406e+01 3.191944599151611328e+00 -2.808272838592529297e-01
2.454000000000000000e+03 7.822889709472656250e+01 2.971751451492309570e+00 -2.035990655422210693e-01 1.032919120788574219e+01 3.037677526473999023e+00 -8.545380830764770508e-02
2.455000000000000000e+03 7.814773559570312500e+01 2.627036857604980469e+01 -1.609425432980060577e-02 6.006903171539306641e+00 1.797242760658264160e+00 -1.771252304315567017e-01
2.456000000000000000e+03 7.764292144775390625e+01 3.388287734985351562e+01 2.996659651398658752e-02 5.282800197601318359e+00 1.593830108642578125e+00 -1.527967154979705811e-01
2.457000000000000000e+03 7.763130187988281250e+01 3.295703887939453125e+01 1.883396692574024200e-02 5.330087661743164062e+00 1.604676485061645508e+00 -1.692763417959213257e-01
2.458000000000000000e+03 7.815941619873046875e+01 2.546432685852050781e+01 -2.050498686730861664e-02 6.086491107940673828e+00 1.819795846939086914e+00 -1.635494828224182129e-01
2.459000000000000000e+03 7.823307800292968750e+01 1.907229423522949219e+01 1.107563730329275131e-02 6.548979759216308594e+00 1.968016505241394043e+00 7.798140402883291245e-03
2.460000000000000000e+03 7.821675872802734375e+01 7.816499233245849609e+00 -1.089051887392997742e-01 9.291192054748535156e+00 2.754686117172241211e+00 -7.412497401237487793e-01
2.461000000000000000e+03 7.460791015625000000e+01 5.898433923721313477e-01 -1.207942008972167969e+00 7.216197967529296875e+00 1.802476882934570312e+00 -8.593720793724060059e-01
2.462000000000000000e+03 7.893693542480468750e+01 2.926683664321899414e+00 -9.615266323089599609e-02 1.109608173370361328e+01 3.299978733062744141e+00 -1.124439667910337448e-02
2.463000000000000000e+03 7.894770812988281250e+01 -1.043014049530029297e+00 -1.539437621831893921e-01 1.029102706909179688e+01 3.041125059127807617e+00 8.584563732147216797e-01
2.464000000000000000e+03 7.895508575439453125e+01 -2.407881915569305420e-01 -1.679825484752655029e-01 1.066133403778076172e+01 3.148005485534667969e+00 6.456921100616455078e-01
2.465000000000000000e+03 7.902295684814453125e+01 -8.174546241760253906e+00 3.566328883171081543e-01 6.532932758331298828e+00 2.066869735717773438e+00 -4.374287128448486328e-01
2.466000000000000000e+03 7.419229888916015625e+01 -1.289566898345947266e+01 -8.951769471168518066e-01 6.979850769042968750e+00 1.825402140617370605e+00 1.474289536476135254e+00
2.467000000000000000e+03 7.890274047851562500e+01 -1.293515872955322266e+01 -2.060867547988891602e-01 1.027430820465087891e+01 3.020466566085815430e+00 -1.120886206626892090e+00
2.468000000000000000e+03 7.823018646240234375e+01 -1.759412574768066406e+01 -3.786239326000213623e-01 1.027254390716552734e+01 2.968176126480102539e+00 6.715442538261413574e-01
2.469000000000000000e+03 7.893618011474609375e+01 -2.501939392089843750e+01 8.617202937602996826e-02 7.614439964294433594e+00 2.310183525085449219e+00 5.849408358335494995e-02
2.470000000000000000e+03 7.830548095703125000e+01 -2.891017341613769531e+01 -8.965339511632919312e-02 7.429642200469970703e+00 2.201996564865112305e+00 4.615587182343006134e-03
2.471000000000000000e+03 7.841510009765625000e+01 4.035618209838867188e+01 1.449399068951606750e-02 5.159865856170654297e+00 1.552307963371276855e+00 -3.020384907722473145e-02
2.472000000000000000e+03 7.744226837158203125e+01 4.074927139282226562e+01 3.570352867245674133e-02 4.974627017974853516e+00 1.503099083900451660e+00 -4.073608294129371643e-02
2.473000000000000000e+03 7.816695404052734375e+01 -2.965963363647460938e+01 -8.462116122245788574e-02 7.319661617279052734e+00 2.170512199401855469e+00 6.817215681076049805e-02
2.474000000000000000e+03 7.313388061523437500e+01 -1.709497070312500000e+01 -2.049157142639160156e+00 3.451114416122436523e+00 4.205871820449829102e-01 4.150603115558624268e-01
2.475000000000000000e+03 7.896913909912109375e+01 -2.342229843139648438e+01 1.165054887533187866e-01 7.933522224426269531e+00 2.415008306503295898e+00 3.558340370655059814e-01
2.476000000000000000e+03 7.486211395263671875e+01 -2.360527420043945312e+01 1.670984506607055664e+00 8.803228378295898438e+00 3.142263889312744141e+00 1.263394594192504883e+00
2.477000000000000000e+03 7.422748565673828125e+01 -1.207873725891113281e+01 -8.702213168144226074e-01 7.543218612670898438e+00 2.001899242401123047e+00 1.786220431327819824e+00
2.478000000000000000e+03 7.786804962158203125e+01 3.464056777954101562e+01 1.621384173631668091e-02 5.281358242034912109e+00 1.589271664619445801e+00 -1.266435086727142334e-01
2.479000000000000000e+03 7.805694580078125000e+01 2.949030303955078125e+01 4.267438314855098724e-03 5.688239097595214844e+00 1.707751989364624023e+00 -1.871282011270523071e-01
2.480000000000000000e+03 7.811361694335937500e+01 2.787870979309082031e+01 -3.482454456388950348e-03 5.846183300018310547e+00 1.752810239791870117e+00 -1.897125095129013062e-01
2.481000000000000000e+03 7.817670440673828125e+01 2.386130905151367188e+01 -3.347319737076759338e-02 6.234635353088378906e+00 1.860348701477050781e+00 -1.205047443509101868e-01
2.482000000000000000e+03 7.293128967285156250e+01 1.527291774749755859e+01 1.492097616195678711e+00 7.336077690124511719e+00 2.648452758789062500e+00 -1.197888731956481934e+00
2.483000000000000000e+03 7.830197143554687500e+01 1.437511730194091797e+01 1.623836308717727661e-01 7.106097221374511719e+00 2.180544376373291016e+00 -4.722438752651214600e-01
2.484000000000000000e+03 7.892952728271484375e+01 6.949436664581298828e+00 -5.141015723347663879e-02 1.019872951507568359e+01 3.044195652008056641e+00 -4.210700094699859619e-01
2.485000000000000000e+03 7.879930114746093750e+01 -3.466075897216796875e+01 2.481444505974650383e-03 6.973202705383300781e+00 2.092705249786376953e+00 1.346582472324371338e-01
2.486000000000000000e+03 7.562577056884765625e+01 -2.110277748107910156e+01 4.134103655815124512e-01 8.549530982971191406e+00 2.688882589340209961e+00 1.623643398284912109e+00
2.487000000000000000e+03 7.823315429687500000e+01 6.197695732116699219e+00 -1.258673071861267090e-01 9.759151458740234375e+00 2.889985084533691406e+00 -5.484232306480407715e-01
2.488000000000000000e+03 7.903075408935546875e+01 -9.747883796691894531e+00 2.203663587570190430e-01 7.400026321411132812e+00 2.286117792129516602e+00 -1.221713423728942871e+00
2.489000000000000000e+03 7.821797943115234375e+01 5.390995025634765625e+00 -1.382212936878204346e-01 9.926702499389648438e+00 2.936544418334960938e+00 -4.500130116939544678e-01
2.490000000000000000e+03 7.469033813476562500e+01 -9.094063043594360352e-01 -1.236577033996582031e+00 8.429629325866699219e+00 2.157915592193603516e+00 -7.713172435760498047e-01
2.491000000000000000e+03 7.821083831787109375e+01 3.776010036468505859e+00 -1.772341579198837280e-01 1.020615577697753906e+01 3.008676528930664062e+00 -2.276590764522552490e-01
2.492000000000000000e+03 7.762077331542968750e+01 6.786572933197021484e-01 -5.145608782768249512e-01 1.004550457000732422e+01 2.859283208847045898e+00 4.761232733726501465e-01
2.493000000000000000e+03 7.825296783447265625e+01 2.181876420974731445e+00 -2.521781921386718750e-01 1.041989231109619141e+01 3.050314188003540039e+00 9.093855321407318115e-02
2.494000000000000000e+03 7.512092590332031250e+01 -4.548556804656982422e+00 1.180798053741455078e+00 1.618844223022460938e+01 5.210772514343261719e+00 -2.372112989425659180e+00
2.495000000000000000e+03 7.821339416503906250e+01 -9.777596592903137207e-01 -3.936310112476348877e-01 1.028539466857910156e+01 2.967529058456420898e+00 1.084117412567138672e+00
2.496000000000000000e+03 7.895512390136718750e+01 -4.924796104431152344e+00 2.356752008199691772e-01 7.524778366088867188e+00 2.328135967254638672e+00 1.145942926406860352e+00
2.497000000000000000e+03 7.551536560058593750e+01 -6.183615207672119141e+00 2.040725946426391602e+00 1.977203559875488281e+01 6.543828487396240234e+00 -1.235402822494506836e+00
2.498000000000000000e+03 7.719756317138671875e+01 -1.031583976745605469e+01 4.674984812736511230e-01 1.156808090209960938e+01 3.610673904418945312e+00 -1.823808550834655762e+00
2.499000000000000000e+03 7.812364196777343750e+01 -1.193848228454589844e+01 -3.593862950801849365e-01 1.018922805786132812e+01 2.948952436447143555e+00 -1.803825855255126953e+00
2.500000000000000000e+03 7.558048248291015625e+01 -2.198502731323242188e+01 9.324531555175781250e-01 8.626754760742187500e+00 2.867762327194213867e+00 1.564677238464355469e+00
2.501000000000000000e+03 7.824913024902343750e+01 -2.487152290344238281e+01 2.446653842926025391e-01 7.739435672760009766e+00 2.395230293273925781e+00 1.688094139099121094e-01
2.502000000000000000e+03 7.798619842529296875e+01 -3.293820190429687500e+01 -1.536023523658514023e-02 6.870584011077880859e+00 2.056567192077636719e+00 2.246991693973541260e-01
2.503000000000000000e+03 7.798126220703125000e+01 -3.453973388671875000e+01 1.106004603207111359e-02 6.696349620819091797e+00 2.012223005294799805e+00 2.313138842582702637e-01
2.504000000000000000e+03 7.797691345214843750e+01 -3.374185943603515625e+01 -7.063885219395160675e-03 6.783583641052246094e+00 2.032955884933471680e+00 2.282458096742630005e-01
2.505000000000000000e+03 7.783559417724609375e+01 -3.761339569091796875e+01 2.582696452736854553e-02 6.417568206787109375e+00 1.933018565177917480e+00 1.815427094697952271e-01
2.506000000000000000e+03 7.842983245849609375e+01 -4.104007720947265625e+01 2.822658605873584747e-02 6.386694908142089844e+00 1.924476385116577148e+00 -7.204406894743442535e-03
2.507000000000000000e+03 7.595657348632812500e+01 -5.291301727294921875e+00 1.583923339843750000e+00 1.596897888183593750e+01 5.265870571136474609e+00 -1.401454359292984009e-01
2.508000000000000000e+03 7.700257873535156250e+01 -8.284351348876953125e+00 1.750948071479797363e+00 1.324392604827880859e+01 4.498462200164794922e+00 -4.094524383544921875e-01
2.509000000000000000e+03 7.693271636962890625e+01 -2.303711128234863281e+01 7.694763541221618652e-01 8.160350799560546875e+00 2.678948163986206055e+00 1.012635946273803711e+00
2.510000000000000000e+03 7.829320526123046875e+01 -2.328437614440917969e+01 3.025825023651123047e-01 8.066841125488281250e+00 2.510827064514160156e+00 5.839991569519042969e-01
2.511000000000000000e+03 7.825421905517578125e+01 -4.693001270294189453e+00 3.674105405807495117e-01 9.424213409423828125e+00 2.937487125396728516e+00 1.525520682334899902e+00
2.512000000000000000e+03 7.773581695556640625e+01 -7.419102668762207031e+00 1.200869321823120117e+00 1.077062225341796875e+01 3.591447591781616211e+00 1.261960342526435852e-02
2.513000000000000000e+03 7.716129302978515625e+01 -4.338345527648925781e+00 4.248044788837432861e-01 1.167758655548095703e+01 3.630717277526855469e+00 1.534690260887145996e+00
2.514000000000000000e+03 7.828834533691406250e+01 -2.485854864120483398e+00 -2.033821940422058105e-01 9.988345146179199219e+00 2.935488939285278320e+00 1.561281323432922363e+00
2.515000000000000000e+03 3.042927551269531250e+01 1.702848196029663086e+00 -6.981888413429260254e-01 2.539854049682617188e-01 -1.332610398530960083e-01 3.057607915252447128e-03
2.516000000000000000e+03 3.126101875305175781e+01 2.882577896118164062e+00 -3.820424675941467285e-01 1.526880562305450439e-01 -6.880632042884826660e-02 8.351558446884155273e-02
2.517000000000000000e+03 1.503826236724853516e+01 -1.355598449707031250e+01 -2.718000113964080811e-02 1.554027646780014038e-01 3.846682980656623840e-02 -3.284931927919387817e-02
2.518000000000000000e+03 1.802697563171386719e+01 -1.242507266998291016e+01 -1.109084263443946838e-01 4.125133622437715530e-03 -3.203498944640159607e-02 5.165828764438629150e-02
2.519000000000000000e+03 6.898184204101562500e+01 -3.230630493164062500e+01 6.699737906455993652e-01 2.599843740463256836e+00 9.809452891349792480e-01 3.074795603752136230e-01
2.520000000000000000e+03 1.233371376991271973e+00 3.613804626464843750e+01 1.212518569082021713e-02 -6.985301971435546875e-01 -2.059215009212493896e-01 3.413662780076265335e-03
2.521000000000000000e+03 3.666445732116699219e+00 3.836879730224609375e+01 1.096695940941572189e-02 -4.057583212852478027e-01 -1.184374094009399414e-01 -2.162970602512359619e-02
2.522000000000000000e+03 3.110374927520751953e+00 4.016876983642578125e+01 -1.157587766647338867e-02 -4.730966687202453613e-01 -1.454017609357833862e-01 -3.882525954395532608e-03
2.523000000000000000e+03 1.003874659538269043e+00 3.130291748046875000e+01 1.002683304250240326e-02 -5.463520884513854980e-01 -1.608975827693939209e-01 8.791875094175338745e-02
2.524000000000000000e+03 6.082818508148193359e+00 3.207915115356445312e+01 1.227216869592666626e-01 -1.390190273523330688e-01 -4.889202304184436798e-03 1.035686135292053223e-01
2.525000000000000000e+03 1.164549469947814941e+00 -3.406565856933593750e+01 -2.220497932285070419e-03 -1.664776951074600220e-01 -5.060945451259613037e-02 -2.989929728209972382e-02
2.526000000000000000e+03 1.931126832962036133e+00 -3.250671768188476562e+01 -8.260049857199192047e-03 -1.363377571105957031e-01 -4.337934032082557678e-02 -3.750300407409667969e-02
2.527000000000000000e+03 1.091799974441528320e+00 2.108030319213867188e+01 2.331302501261234283e-03 -2.229662984609603882e-01 -6.619049608707427979e-02 -3.118384070694446564e-02
2.528000000000000000e+03 5.602637290954589844e+00 2.328023529052734375e+01 -1.089661270380020142e-01 -3.842422664165496826e-01 -1.479625105857849121e-01 8.122102171182632446e-02
2.529000000000000000e+03 9.844200611114501953e-01 2.505317878723144531e+01 -1.250633690506219864e-02 -1.791542768478393555e-01 -5.749818310141563416e-02 6.310706492513418198e-03
2.530000000000000000e+03 5.042352199554443359e+00 2.742269134521484375e+01 -1.516558825969696045e-01 -5.662151575088500977e-01 -2.153613120317459106e-01 1.882137805223464966e-01
2.531000000000000000e+03 4.389567852020263672e+00 2.848561859130859375e+01 -6.589794158935546875e-02 -4.771335721015930176e-01 -1.629094481468200684e-01 1.888865381479263306e-01
2.532000000000000000e+03 5.383999824523925781e+00 2.975319671630859375e+01 7.559098768979310989e-03 -4.431129992008209229e-01 -1.306661665439605713e-01 1.012098714709281921e-01
2.533000000000000000e+03 2.800099849700927734e+00 3.483283615112304688e+01 5.597272887825965881e-02 -5.154162645339965820e-01 -1.378330588340759277e-01 4.689598083496093750e-02
2.534000000000000000e+03 1.102161645889282227e+00 3.370602035522460938e+01 1.121363509446382523e-02 -6.676927208900451660e-01 -1.969437301158905029e-01 4.630913212895393372e-02
2.535000000000000000e+03 5.126460552215576172e+00 2.818391418457031250e+01 -7.049395889043807983e-02 -6.028473377227783203e-01 -2.020023912191390991e-01 1.765772104263305664e-01
2.536000000000000000e+03 1.778330326080322266e+00 2.264963912963867188e+01 -8.850302547216415405e-03 -2.338944226503372192e-01 -7.282341271638870239e-02 -3.494840860366821289e-02
2.537000000000000000e+03 2.164310693740844727e+00 2.634233665466308594e+01 -5.917612835764884949e-02 -3.009564876556396484e-01 -1.080397814512252808e-01 8.056939393281936646e-02
2.538000000000000000e+03 4.516108989715576172e+00 2.930300712585449219e+01 -1.552987750619649887e-02 -4.711039364337921143e-01 -1.459901481866836548e-01 1.819930672645568848e-01
2.539000000000000000e+03 3.434379816055297852e+00 2.925179100036621094e+01 -1.986899971961975098e-02 -4.348762929439544678e-01 -1.364235877990722656e-01 1.964108496904373169e-01
2.540000000000000000e+03 1.727730631828308105e+00 3.266355133056640625e+01 2.662507072091102600e-02 -5.696258544921875000e-01 -1.629002392292022705e-01 9.720171988010406494e-02
2.541000000000000000e+03 1.708964347839355469e+00 3.032065773010253906e+01 7.294691167771816254e-03 -4.613192975521087646e-01 -1.362073719501495361e-01 1.440742462873458862e-01
2.542000000000000000e+03 2.601549625396728516e+00 -3.804245376586914062e+01 1.276327669620513916e-02 -2.370441555976867676e-01 -6.728426367044448853e-02 -5.570679157972335815e-02
2.543000000000000000e+03 1.996990799903869629e+00 -3.557296752929687500e+01 -1.649541663937270641e-03 -1.963525861501693726e-01 -5.940063670277595520e-02 -5.296542868018150330e-02
2.544000000000000000e+03 1.092486023902893066e+00 2.026615333557128906e+01 4.128696862608194351e-03 -2.359854131937026978e-01 -6.955701112747192383e-02 -2.702428400516510010e-02
2.545000000000000000e+03 1.780362248420715332e+00 -1.210880088806152344e+01 -4.542908165603876114e-03 3.678002953529357910e-02 9.671136736869812012e-03 9.416962973773479462e-03
2.546000000000000000e+03 1.109724164009094238e+00 -1.702837562561035156e+01 -5.957813467830419540e-03 3.200247511267662048e-02 7.813398726284503937e-03 -2.578015998005867004e-02
2.547000000000000000e+03 1.054518461227416992e+00 -1.864875984191894531e+01 -3.717856248840689659e-03 -4.786666948348283768e-03 -2.551357029005885124e-03 -3.792949020862579346e-02
2.548000000000000000e+03 5.045414447784423828e+00 -1.684115791320800781e+01 -5.945138260722160339e-02 -1.523840427398681641e-01 -6.355062872171401978e-02 -7.047018408775329590e-02
2.549000000000000000e+03 1.183670520782470703e+00 7.328703403472900391e+00 -8.591695688664913177e-03 3.341985493898391724e-02 7.448447868227958679e-03 1.184273883700370789e-02
2.550000000000000000e+03 1.986334562301635742e+00 7.264645099639892578e+00 -1.992676965892314911e-02 1.344056241214275360e-02 -1.945862546563148499e-03 1.993780396878719330e-02
2.551000000000000000e+03 2.463301420211791992e+00 1.848558998107910156e+01 3.088273853063583374e-02 -2.459131777286529541e-01 -6.450913101434707642e-02 -5.925613921135663986e-03
2.552000000000000000e+03 1.736365675926208496e+00 1.298813533782958984e+01 3.828565124422311783e-03 -1.321705281734466553e-01 -3.850258886814117432e-02 7.389150559902191162e-02
2.553000000000000000e+03 1.111135840415954590e+00 9.797609329223632812e+00 -6.017931271344423294e-03 -1.622081734240055084e-02 -6.671624258160591125e-03 3.843858465552330017e-02
2.554000000000000000e+03 2.539864540100097656e+00 -2.693755912780761719e+01 -6.952498573809862137e-03 -8.222179114818572998e-02 -2.675228565931320190e-02 7.487161550670862198e-03
2.555000000000000000e+03 6.193168163299560547e+00 -2.378130149841308594e+01 7.287181168794631958e-02 6.695535965263843536e-03 2.387020550668239594e-02 -7.612300571054220200e-03
2.556000000000000000e+03 1.103818774223327637e+00 -2.280576133728027344e+01 7.537023629993200302e-03 -9.740702807903289795e-02 -2.696100249886512756e-02 -1.045996416360139847e-02
2.557000000000000000e+03 4.333386421203613281e+00 -1.926282119750976562e+01 -2.971598878502845764e-03 -8.684933185577392578e-02 -2.694627828896045685e-02 -7.141572982072830200e-02
2.558000000000000000e+03 1.092974901199340820e+00 -2.028635787963867188e+01 4.398124758154153824e-03 -5.243960395455360413e-02 -1.441244408488273621e-02 -3.774464502930641174e-02
2.559000000000000000e+03 4.515359401702880859e+00 -1.840944480895996094e+01 -3.462979197502136230e-02 -1.185882836580276489e-01 -4.596542194485664368e-02 -6.624100357294082642e-02
2.560000000000000000e+03 1.072928905487060547e+00 -1.300203609466552734e+01 -3.158700885251164436e-03 6.507348269224166870e-02 1.857443340122699738e-02 4.843061324208974838e-03
2.561000000000000000e+03 3.234157800674438477e+00 -1.191231918334960938e+01 -1.219556760042905807e-02 -7.792110554873943329e-03 -5.996303167194128036e-03 7.241595536470413208e-03
2.562000000000000000e+03 5.423795700073242188e+00 -3.827801465988159180e+00 7.485661190003156662e-03 -7.138291839510202408e-03 1.042108196998015046e-04 7.621966768056154251e-03
2.563000000000000000e+03 1.623811721801757812e+00 -5.903202056884765625e+00 6.853052764199674129e-04 1.656722463667392731e-02 5.175759084522724152e-03 1.135630160570144653e-02
2.564000000000000000e+03 1.100921511650085449e+00 1.061623859405517578e+01 -4.384032450616359711e-03 -4.284819215536117554e-02 -1.416966784745454788e-02 4.456351324915885925e-02
2.565000000000000000e+03 1.057914018630981445e+00 4.200079441070556641e+00 -2.165743615478277206e-03 3.545588627457618713e-02 9.987042285501956940e-03 -1.474329642951488495e-02
2.566000000000000000e+03 3.383700370788574219e+00 5.691492080688476562e+00 -3.681340441107749939e-02 4.675872158259153366e-03 -9.641259908676147461e-03 -1.036417437717318535e-03
2.567000000000000000e+03 4.192802906036376953e+00 -2.337150573730468750e+01 5.146959424018859863e-02 -5.430529266595840454e-02 -8.507093298248946667e-04 -9.506912901997566223e-03
2.568000000000000000e+03 1.047974944114685059e+00 -9.040812492370605469e+00 9.383332217112183571e-04 4.401797056198120117e-02 1.348689105361700058e-02 1.038112398236989975e-02
2.569000000000000000e+03 1.742833852767944336e+00 -8.195448875427246094e+00 1.320590032264590263e-03 2.581814303994178772e-02 8.141620084643363953e-03 1.424116175621747971e-02
2.570000000000000000e+03 2.269948482513427734e+00 -4.463611125946044922e+00 2.862772438675165176e-03 7.423194590955972672e-03 3.085790202021598816e-03 1.138296443969011307e-02
2.571000000000000000e+03 1.140350580215454102e+00 -3.168257904052734375e+01 -3.950193990021944046e-03 -1.194421499967575073e-01 -3.701770305633544922e-02 -1.870675943791866302e-02
2.572000000000000000e+03 1.849004507064819336e+00 -3.010596084594726562e+01 -1.010954380035400391e-02 -1.035173609852790833e-01 -3.408807143568992615e-02 -1.457646116614341736e-02
2.573000000000000000e+03 2.351471662521362305e+00 -3.894091033935546875e+01 1.154853869229555130e-02 -2.518156468868255615e-01 -7.208013534545898438e-02 -4.761190339922904968e-02
2.574000000000000000e+03 1.453172802925109863e+00 -3.801179885864257812e+01 1.071768463589251041e-03 -2.587420046329498291e-01 -7.730107009410858154e-02 -3.555577993392944336e-02
2.575000000000000000e+03 1.944034218788146973e+00 -3.330084991455078125e+01 -6.866714451462030411e-03 -1.514026969671249390e-01 -4.748082160949707031e-02 -4.250255227088928223e-02
2.576000000000000000e+03 2.618727922439575195e+00 -3.092726325988769531e+01 -1.799167320132255554e-02 -1.130914241075515747e-01 -3.932492807507514954e-02 -3.215130791068077087e-02
2.577000000000000000e+03 1.831793546676635742e+00 -2.930158424377441406e+01 -9.441056288778781891e-03 -9.658081084489822388e-02 -3.180656209588050842e-02 -7.478601764887571335e-03
2.578000000000000000e+03 1.084682106971740723e+00 -2.766319656372070312e+01 -2.531893318518996239e-03 -9.304589778184890747e-02 -2.867333777248859406e-02 5.644341930747032166e-03
2.579000000000000000e+03 1.820921659469604492e+00 -2.850023269653320312e+01 -8.144877851009368896e-03 -9.249877929687500000e-02 -3.019309788942337036e-02 -1.130983946495689452e-04
2.580000000000000000e+03 4.746113300323486328e+00 -2.343331718444824219e+01 5.758366361260414124e-02 -4.204247891902923584e-02 4.662354942411184311e-03 -2.875132253393530846e-03
2.581000000000000000e+03 3.593189954757690430e+00 -2.069509315490722656e+01 4.518598318099975586e-02 -6.914852559566497803e-02 -7.188763469457626343e-03 -6.331319361925125122e-02
2.582000000000000000e+03 1.095242261886596680e+00 -2.362761878967285156e+01 5.732167046517133713e-03 -1.020324528217315674e-01 -2.889008447527885437e-02 -2.378795063123106956e-03
2.583000000000000000e+03 1.120935320854187012e+00 -2.112174987792968750e+01 6.830057129263877869e-03 -7.186423987150192261e-02 -1.951025612652301788e-02 -3.108701482415199280e-02
2.584000000000000000e+03 4.163659572601318359e+00 -2.109868240356445312e+01 5.750221014022827148e-02 -5.955976992845535278e-02 -6.172675057314336300e-04 -5.588480830192565918e-02
2.585000000000000000e+03 1.822447419166564941e+00 -1.368188285827636719e+01 -8.635633625090122223e-03 3.321113809943199158e-02 7.372651249170303345e-03 2.257612213725224137e-04
2.586000000000000000e+03 1.086879849433898926e+00 -1.379961395263671875e+01 -2.535650972276926041e-03 6.422783434391021729e-02 1.850765570998191833e-02 8.057608501985669136e-04
2.587000000000000000e+03 2.526625633239746094e+00 -1.277246856689453125e+01 -1.053006853908300400e-02 1.011374127119779587e-02 -1.248980552190914750e-04 4.701123572885990143e-03
2.588000000000000000e+03 2.621937990188598633e+00 -1.434178543090820312e+01 -1.820744015276432037e-02 -1.403449452482163906e-03 -5.883267149329185486e-03 -9.892679750919342041e-03
2.589000000000000000e+03 1.775332808494567871e+00 -1.054533290863037109e+01 -2.020153682678937912e-03 3.423555940389633179e-02 9.664622135460376740e-03 1.353899203240871429e-02
2.590000000000000000e+03 1.772894024848937988e+00 -9.762372016906738281e+00 5.005437997169792652e-04 3.157933056354522705e-02 9.623961523175239563e-03 1.432747207581996918e-02
2.591000000000000000e+03 1.775200605392456055e+00 -1.132724475860595703e+01 -1.512378454208374023e-03 3.595471009612083435e-02 1.033269986510276794e-02 1.172175630927085876e-02
2.592000000000000000e+03 9.990286231040954590e-01 -4.330283641815185547e+00 1.085920725017786026e-03 1.275864057242870331e-02 4.153368063271045685e-03 6.402526050806045532e-03
2.593000000000000000e+03 2.778259515762329102e+00 7.312773227691650391e+00 -3.365154191851615906e-02 1.582424389198422432e-03 -9.620734490454196930e-03 2.848592214286327362e-02
2.594000000000000000e+03 1.826666355133056641e+00 1.057354164123535156e+01 -1.085001975297927856e-02 -5.205240473151206970e-02 -1.887072622776031494e-02 6.826917827129364014e-02
2.595000000000000000e+03 1.656829953193664551e+00 1.453666973114013672e+01 1.238046493381261826e-02 -1.828147023916244507e-01 -5.113027244806289673e-02 5.951994284987449646e-02
2.596000000000000000e+03 1.812403321266174316e+00 1.138431549072265625e+01 -6.138692144304513931e-03 -7.705187797546386719e-02 -2.495717070996761322e-02 7.430455088615417480e-02
2.597000000000000000e+03 2.322010517120361328e+00 1.379267692565917969e+01 1.503087580204010010e-02 -1.565661579370498657e-01 -4.246058315038681030e-02 8.624603599309921265e-02
2.598000000000000000e+03 1.688996672630310059e+00 1.377017784118652344e+01 7.282433565706014633e-03 -1.583999544382095337e-01 -4.533525556325912476e-02 6.742858886718750000e-02
2.599000000000000000e+03 1.764941453933715820e+00 1.772097969055175781e+01 2.000200003385543823e-02 -2.432311326265335083e-01 -6.696873903274536133e-02 4.027722403407096863e-03
2.600000000000000000e+03 1.811429262161254883e+00 2.103280830383300781e+01 4.668308421969413757e-03 -2.420479506254196167e-01 -7.121389359235763550e-02 -3.887207806110382080e-02
2.601000000000000000e+03 1.087780594825744629e+00 1.944973373413085938e+01 6.504289805889129639e-03 -2.466601729393005371e-01 -7.204676419496536255e-02 -2.058179862797260284e-02
2.602000000000000000e+03 2.507357358932495117e+00 2.017006492614746094e+01 1.809526979923248291e-02 -2.562352418899536133e-01 -7.144198566675186157e-02 -3.336402401328086853e-02
2.603000000000000000e+03 1.807980656623840332e+00 2.020778274536132812e+01 1.030308846384286880e-02 -2.462883144617080688e-01 -7.079556584358215332e-02 -3.378983959555625916e-02
2.604000000000000000e+03 1.102070450782775879e+00 3.445643424987792969e+00 1.684022390691097826e-05 2.761917188763618469e-02 8.290803991258144379e-03 -1.637719199061393738e-02
2.605000000000000000e+03 2.781332492828369141e+00 2.731099128723144531e+00 3.100465750321745872e-03 8.989787660539150238e-03 3.627076046541333199e-03 -2.790775708854198456e-02
2.606000000000000000e+03 1.952328085899353027e+00 -3.407727050781250000e+01 -5.434854421764612198e-03 -1.658699959516525269e-01 -5.139145627617835999e-02 -4.708449915051460266e-02
2.607000000000000000e+03 1.961624979972839355e+00 -3.483018493652343750e+01 -4.405419342219829559e-03 -1.812259852886199951e-01 -5.568942055106163025e-02 -5.010400339961051941e-02
2.608000000000000000e+03 2.125743865966796875e+00 -3.632231903076171875e+01 -1.893387961899861693e-04 -2.104926109313964844e-01 -6.320458650588989258e-02 -5.580504238605499268e-02
2.609000000000000000e+03 3.122801399230957031e+01 -8.180521965026855469e+00 -8.991181850433349609e-02 -3.701125979423522949e-01 -1.380073279142379761e-01 -2.041223049163818359e-01
2.610000000000000000e+03 7.333267211914062500e+01 1.348239612579345703e+01 1.021416306495666504e+00 7.440610885620117188e+00 2.538608074188232422e+00 -1.351209044456481934e+00
2.611000000000000000e+03 4.465487289428710938e+01 -2.650665473937988281e+01 3.077713847160339355e-01 1.829083263874053955e-01 1.472039222717285156e-01 -1.855892091989517212e-01
2.612000000000000000e+03 4.683680343627929688e+01 -2.598343086242675781e+01 3.304601609706878662e-01 3.720853626728057861e-01 2.107636630535125732e-01 -2.699215412139892578e-01
2.613000000000000000e+03 5.233482360839843750e+00 2.896915435791015625e+01 -1.266757678240537643e-02 -5.333448648452758789e-01 -1.638037264347076416e-01 1.220839545130729675e-01
2.614000000000000000e+03 6.431169033050537109e+00 -1.359883022308349609e+01 -6.092308461666107178e-02 -1.010579615831375122e-01 -4.859431460499763489e-02 -5.650155246257781982e-02
2.615000000000000000e+03 6.093596267700195312e+01 2.287153434753417969e+01 1.577805727720260620e-01 6.946126222610473633e-01 2.557179629802703857e-01 5.757732987403869629e-01
2.616000000000000000e+03 7.274913024902343750e+01 -1.648815155029296875e+01 -1.670171737670898438e+00 2.514838695526123047e+00 2.534001171588897705e-01 5.036985278129577637e-01
2.617000000000000000e+03 5.518527984619140625e+01 -3.515136337280273438e+01 4.707375466823577881e-01 1.045231103897094727e+00 4.547905921936035156e-01 -2.378917932510375977e-01
2.618000000000000000e+03 5.236622238159179688e+01 -6.662598133087158203e+00 -4.200789332389831543e-01 -5.079593658447265625e-01 -2.784114778041839600e-01 3.667191863059997559e-01
2.619000000000000000e+03 5.319664764404296875e+01 -9.480367660522460938e+00 -1.185765027999877930e+00 -1.987660825252532959e-01 -4.153593480587005615e-01 2.558785974979400635e-01
2.620000000000000000e+03 5.160819244384765625e+01 4.806664943695068359e+00 -1.069882273674011230e+00 2.710397541522979736e-01 -2.396527379751205444e-01 9.281154870986938477e-01
2.621000000000000000e+03 5.268637847900390625e+01 2.725781917572021484e+00 -1.785402297973632812e+00 7.800330221652984619e-02 -5.122197270393371582e-01 7.884276509284973145e-01
2.622000000000000000e+03 5.254686355590820312e+01 5.169380187988281250e+00 -5.455069541931152344e-01 5.575976371765136719e-01 3.627212019637227058e-03 7.691140770912170410e-01
2.623000000000000000e+03 5.014086914062500000e+01 4.464897155761718750e+00 -1.133073925971984863e+00 -3.462630212306976318e-01 -4.438010752201080322e-01 9.938461780548095703e-01
2.624000000000000000e+03 2.506386947631835938e+01 -1.394241809844970703e+01 -6.141267418861389160e-01 -1.436320394277572632e-01 -2.273276299238204956e-01 -1.998249888420104980e-01
2.625000000000000000e+03 4.927540588378906250e+01 -3.013486862182617188e+01 4.024127423763275146e-01 4.418301582336425781e-01 2.532728612422943115e-01 -3.256016373634338379e-01
2.626000000000000000e+03 3.910718917846679688e+01 2.054818153381347656e+01 3.356597721576690674e-01 -3.611234724521636963e-01 -7.639107760041952133e-03 4.147753715515136719e-01
2.627000000000000000e+03 3.260679626464843750e+01 -2.850466537475585938e+01 3.203828632831573486e-01 1.776445060968399048e-01 1.494082063436508179e-01 -1.637782007455825806e-01
2.628000000000000000e+03 3.431600570678710938e+01 -3.225906753540039062e+01 2.359295450150966644e-02 1.165235135704278946e-02 1.057359203696250916e-02 -3.230904638767242432e-01
2.629000000000000000e+03 4.537452697753906250e+01 -2.734541130065917969e+01 4.322733879089355469e-01 1.864555031061172485e-01 1.856186687946319580e-01 -2.313616722822189331e-01
2.630000000000000000e+03 6.341713333129882812e+01 3.367642974853515625e+01 3.396426737308502197e-01 2.317862272262573242e+00 7.972515225410461426e-01 -5.009842514991760254e-01
2.631000000000000000e+03 2.651943588256835938e+01 -3.607598114013671875e+01 -9.396874345839023590e-03 -2.869036495685577393e-01 -8.889015763998031616e-02 -2.719502709805965424e-02
2.632000000000000000e+03 5.687503814697265625e+01 1.610451507568359375e+01 2.778053283691406250e-01 7.288539409637451172e-01 3.019977807998657227e-01 -3.161970078945159912e-01
2.633000000000000000e+03 4.878929519653320312e+01 -7.954046726226806641e+00 -1.064309105277061462e-01 3.387074768543243408e-01 6.968297064304351807e-02 1.445047706365585327e-01
2.634000000000000000e+03 5.202772140502929688e+01 -4.267962932586669922e+00 -4.751663282513618469e-02 -2.307952344417572021e-01 -8.349356055259704590e-02 1.656566411256790161e-01
2.635000000000000000e+03 4.794123077392578125e+01 -3.471776723861694336e+00 -3.277214169502258301e-01 1.054491773247718811e-01 -6.668167561292648315e-02 1.306414157152175903e-01
2.636000000000000000e+03 1.499617004394531250e+01 2.271342468261718750e+01 4.637531042098999023e-01 1.591302007436752319e-01 1.868649870157241821e-01 3.112234473228454590e-01
2.637000000000000000e+03 4.984484863281250000e+01 -4.002530097961425781e+00 -2.268507182598114014e-01 1.080809440463781357e-02 -6.481278687715530396e-02 2.525426149368286133e-01
2.638000000000000000e+03 9.415429115295410156e+00 1.487034320831298828e+01 1.741458028554916382e-01 1.216856688261032104e-01 8.874943852424621582e-02 2.025457173585891724e-01
2.639000000000000000e+03 5.283142089843750000e+01 5.720690250396728516e+00 -1.257788687944412231e-01 7.090641856193542480e-01 1.749855875968933105e-01 6.358084678649902344e-01
2.640000000000000000e+03 5.553485488891601562e+01 6.704702377319335938e+00 4.055723845958709717e-01 1.844695508480072021e-01 1.770125776529312134e-01 3.594060540199279785e-01
2.641000000000000000e+03 5.229544067382812500e+01 4.512700557708740234e+00 -9.969453215599060059e-01 4.126250743865966797e-01 -1.752960830926895142e-01 8.266635537147521973e-01
2.642000000000000000e+03 5.587053680419921875e+01 7.660400867462158203e+00 5.835803151130676270e-01 2.437523901462554932e-01 2.481998205184936523e-01 4.640191793441772461e-01
2.643000000000000000e+03 1.604534530639648438e+01 -2.684239959716796875e+01 2.170513151213526726e-03 -2.650564312934875488e-01 -7.886577397584915161e-02 -1.604862809181213379e-01
2.644000000000000000e+03 3.218037033081054688e+01 1.407991504669189453e+01 -2.495216727256774902e-01 3.559037446975708008e-01 3.191462531685829163e-02 4.221775531768798828e-01
2.645000000000000000e+03 3.274138259887695312e+01 1.309246158599853516e+01 -4.348725676536560059e-01 1.532867252826690674e-01 -8.447574824094772339e-02 3.830464184284210205e-01
2.646000000000000000e+03 6.601936340332031250e+01 -2.786456489562988281e+01 -2.388790622353553772e-02 1.632741451263427734e+00 4.826560318470001221e-01 -6.229616403579711914e-01
2.647000000000000000e+03 2.221363258361816406e+01 2.455497741699218750e+01 2.088983803987503052e-01 -1.591064780950546265e-01 1.493756938725709915e-02 2.507764399051666260e-01
2.648000000000000000e+03 2.034652137756347656e+01 2.273597526550292969e+01 1.810518801212310791e-01 -1.288899481296539307e-01 1.564857922494411469e-02 1.061316579580307007e-01
2.649000000000000000e+03 4.498046112060546875e+01 3.173012733459472656e+01 7.166679948568344116e-02 -6.426080316305160522e-02 2.221798757091164589e-03 -3.278275253251194954e-03
2.650000000000000000e+03 4.441112136840820312e+01 3.343630981445312500e+01 3.257164657115936279e-01 -3.042030707001686096e-02 8.858884125947952271e-02 -5.533263087272644043e-02
2.651000000000000000e+03 5.387581634521484375e+01 1.546205806732177734e+01 1.360765844583511353e-01 5.674764513969421387e-02 5.784726515412330627e-02 -1.281584054231643677e-01
2.652000000000000000e+03 6.025582885742187500e+01 2.253172874450683594e+01 1.238242834806442261e-01 5.791473388671875000e-01 2.108914852142333984e-01 4.476901888847351074e-01
2.653000000000000000e+03 6.091511917114257812e+01 1.863950729370117188e+01 8.834017813205718994e-02 1.319876432418823242e+00 4.224649965763092041e-01 2.260814756155014038e-01
2.654000000000000000e+03 6.388275909423828125e+01 -1.873092079162597656e+01 8.272392153739929199e-01 2.167463064193725586e+00 8.984107375144958496e-01 5.647544860839843750e-01
2.655000000000000000e+03 6.353197479248046875e+01 -1.933355522155761719e+01 7.317882776260375977e-01 2.135876178741455078e+00 8.602992892265319824e-01 4.111912250518798828e-01
2.656000000000000000e+03 6.633616638183593750e+01 -1.166289138793945312e+01 -2.334229707717895508e+00 1.496863812208175659e-01 -6.553630232810974121e-01 8.473308682441711426e-01
2.657000000000000000e+03 5.680611801147460938e+01 9.986164093017578125e+00 4.083442091941833496e-01 5.236622691154479980e-01 2.796019315719604492e-01 3.192265033721923828e-01
2.658000000000000000e+03 1.339387607574462891e+01 -1.308047485351562500e+01 -9.338990785181522369e-03 7.665892690420150757e-02 2.019598148763179779e-02 -4.603195935487747192e-02
2.659000000000000000e+03 1.252676105499267578e+01 -1.182790374755859375e+01 -7.026400417089462280e-02 4.478070139884948730e-02 -7.644990459084510803e-03 -4.024298489093780518e-02
2.660000000000000000e+03 7.453714752197265625e+01 -3.042994976043701172e+00 4.540832042694091797e-01 1.081468009948730469e+01 3.380629062652587891e+00 -2.028038978576660156e+00
2.661000000000000000e+03 3.769387054443359375e+01 -1.619728851318359375e+01 -1.602396965026855469e-01 7.604532837867736816e-01 1.800640821456909180e-01 -2.607655525207519531e-01
2.662000000000000000e+03 1.511349773406982422e+01 -7.494677066802978516e+00 -1.209967769682407379e-02 2.598983235657215118e-02 4.167045932263135910e-03 -5.293097929097712040e-04
2.663000000000000000e+03 4.489080429077148438e+00 3.486312627792358398e+00 -1.691232994198799133e-02 -2.277671883348375559e-04 -5.142028909176588058e-03 -2.737261727452278137e-02
2.664000000000000000e+03 2.875655889511108398e+00 5.004299163818359375e+00 -2.162566222250461578e-02 1.114798709750175476e-02 -3.143302630633115768e-03 -1.247085724025964737e-02
2.665000000000000000e+03 5.349000453948974609e+00 3.379316806793212891e+00 -1.921956613659858704e-02 -4.292816855013370514e-03 -7.053714711219072342e-03 -2.640648745000362396e-02
2.666000000000000000e+03 8.535286903381347656e+00 2.510634660720825195e+00 1.902142888866364956e-03 -2.267040871083736420e-02 -6.230479571968317032e-03 -7.162828929722309113e-03
2.667000000000000000e+03 7.746134281158447266e+00 3.217094182968139648e+00 -3.180744871497154236e-02 -2.421999536454677582e-02 -1.680823415517807007e-02 -1.233450882136821747e-02
2.668000000000000000e+03 6.961998939514160156e+00 3.250561714172363281e+00 -2.597343735396862030e-02 -1.573710702359676361e-02 -1.251316349953413010e-02 -1.933820731937885284e-02
2.669000000000000000e+03 8.540152549743652344e+00 3.205427169799804688e+00 -3.736665099859237671e-02 -3.258407860994338989e-02 -2.098521776497364044e-02 -2.246005693450570107e-03
2.670000000000000000e+03 9.831515312194824219e+00 3.103177309036254883e+00 -4.363358020782470703e-02 -4.415560886263847351e-02 -2.633675560355186462e-02 1.899408921599388123e-02
2.671000000000000000e+03 1.079884815216064453e+01 4.123851776123046875e+00 -1.257421076297760010e-01 -8.562086522579193115e-02 -6.340888887643814087e-02 6.236401572823524475e-02
2.672000000000000000e+03 3.485934829711914062e+01 2.627769279479980469e+01 -3.022606074810028076e-01 -6.255195736885070801e-01 -2.783340513706207275e-01 3.325966596603393555e-01
2.673000000000000000e+03 3.364106369018554688e+01 2.036839103698730469e+01 1.001887097954750061e-01 -4.536079764366149902e-01 -1.060257852077484131e-01 4.278413355350494385e-01
2.674000000000000000e+03 5.347496795654296875e+01 3.543728256225585938e+01 4.667893350124359131e-01 8.238911032676696777e-01 3.872041404247283936e-01 2.496178001165390015e-01
2.675000000000000000e+03 1.963559532165527344e+01 2.002680778503417969e+01 -1.661192029714584351e-01 -1.090331450104713440e-01 -8.254570513963699341e-02 4.279398918151855469e-02
2.676000000000000000e+03 5.570374965667724609e+00 3.053610801696777344e+01 3.932577744126319885e-02 -3.370234072208404541e-01 -8.930929005146026611e-02 9.007972478866577148e-02
2.677000000000000000e+03 3.458136320114135742e+00 3.094621086120605469e+01 4.543833062052726746e-02 -4.395354092121124268e-01 -1.182291209697723389e-01 1.856148391962051392e-01
2.678000000000000000e+03 7.082835388183593750e+01 -1.413711929321289062e+01 -3.232442140579223633e-01 -4.487031400203704834e-01 -2.315842062234878540e-01 1.631468057632446289e+00
2.679000000000000000e+03 7.149081420898437500e+01 -1.312728309631347656e+01 -5.516716241836547852e-01 5.229281783103942871e-01 -8.623033761978149414e-03 1.434825897216796875e+00
2.680000000000000000e+03 3.757070541381835938e+01 -1.353908348083496094e+01 -6.715050935745239258e-01 6.853107810020446777e-01 4.141707904636859894e-03 -1.812120079994201660e-01
2.681000000000000000e+03 2.253828811645507812e+01 2.686017990112304688e+01 3.934915959835052490e-01 7.212196290493011475e-02 1.396840661764144897e-01 4.126371145248413086e-01
2.682000000000000000e+03 3.730121612548828125e+01 -3.264799499511718750e+01 -3.357975184917449951e-02 -2.286856621503829956e-01 -7.867962867021560669e-02 -3.316603899002075195e-01
2.683000000000000000e+03 3.836144638061523438e+01 -3.239374542236328125e+01 -8.492437005043029785e-02 -3.772454857826232910e-01 -1.386509537696838379e-01 -2.764442265033721924e-01
2.684000000000000000e+03 2.258992767333984375e+01 -2.754336547851562500e+01 3.200707733631134033e-01 7.203741371631622314e-02 1.176324561238288879e-01 -1.719268709421157837e-01
2.685000000000000000e+03 2.764466285705566406e+01 -2.455529785156250000e+01 1.966089010238647461e-01 -1.325718611478805542e-01 1.921111159026622772e-02 -1.376068443059921265e-01
2.686000000000000000e+03 2.977901458740234375e+01 -2.551571464538574219e+01 2.366863489151000977e-01 5.197754874825477600e-02 8.659917116165161133e-02 -1.484211087226867676e-01
2.687000000000000000e+03 8.937317848205566406e+00 2.283227920532226562e+01 -3.093097209930419922e-01 -2.211135327816009521e-01 -1.591269820928573608e-01 1.772841364145278931e-01
2.688000000000000000e+03 1.153454589843750000e+01 -3.348799133300781250e+01 -7.502688467502593994e-02 -2.668859660625457764e-01 -1.025738567113876343e-01 -1.393695771694183350e-01
2.689000000000000000e+03 6.724477291107177734e+00 3.738230895996093750e+01 5.903819948434829712e-02 -9.842746704816818237e-02 -1.181678101420402527e-02 -1.749054156243801117e-02
2.690000000000000000e+03 2.354438972473144531e+01 2.813858985900878906e+01 4.516240358352661133e-01 2.842304706573486328e-01 2.207563519477844238e-01 3.079105317592620850e-01
2.691000000000000000e+03 2.218928337097167969e+01 2.800842475891113281e+01 2.544850111007690430e-01 -4.492378979921340942e-02 6.286836415529251099e-02 3.017430305480957031e-01
2.692000000000000000e+03 6.367746353149414062e+01 -2.086684799194335938e+01 5.749762058258056641e-01 2.351148605346679688e+00 8.778374791145324707e-01 1.607535630464553833e-01
2.693000000000000000e+03 5.190663909912109375e+01 1.842645263671875000e+01 1.663254648447036743e-01 1.672328859567642212e-01 1.000675037503242493e-01 -1.507101804018020630e-01
2.694000000000000000e+03 5.251539993286132812e+01 1.786063766479492188e+01 1.618393957614898682e-01 1.648952662944793701e-01 9.802039712667465210e-02 -1.655094623565673828e-01
2.695000000000000000e+03 6.922482299804687500e+01 2.023409652709960938e+01 7.812173664569854736e-02 2.658055782318115234e+00 8.208532333374023438e-01 -1.360273122787475586e+00
2.696000000000000000e+03 3.372773361206054688e+01 -3.080557346343994141e+00 -1.640146970748901367e-01 1.522939931601285934e-02 -4.463558644056320190e-02 -1.638624519109725952e-01
2.697000000000000000e+03 3.322377014160156250e+01 -4.086062431335449219e+00 -1.099681183695793152e-01 -1.986662298440933228e-02 -3.895042091608047485e-02 -2.182991057634353638e-01
2.698000000000000000e+03 1.843219566345214844e+01 2.419972038269042969e+01 5.669249296188354492e-01 2.226087599992752075e-01 2.368601113557815552e-01 2.949290275573730469e-01
2.699000000000000000e+03 5.642846298217773438e+01 -1.998835182189941406e+01 2.360906898975372314e-01 1.762615516781806946e-02 7.611505687236785889e-02 -2.094699591398239136e-01
2.700000000000000000e+03 2.193507385253906250e+01 1.340249824523925781e+01 -5.201764032244682312e-02 -2.010534405708312988e-01 -7.592132687568664551e-02 2.946628257632255554e-02
2.701000000000000000e+03 1.615060329437255859e+00 2.794522857666015625e+01 -2.420389838516712189e-02 -3.313449323177337646e-01 -1.066646501421928406e-01 1.158333346247673035e-01
2.702000000000000000e+03 3.901854705810546875e+01 -2.807273483276367188e+01 1.568626612424850464e-02 -7.177424430847167969e-01 -2.106168419122695923e-01 -2.126031666994094849e-01
2.703000000000000000e+03 3.383607482910156250e+01 3.109767150878906250e+01 1.996001899242401123e-01 -3.053130805492401123e-01 -3.171386569738388062e-02 1.807573735713958740e-01
2.704000000000000000e+03 3.455405807495117188e+01 2.911583328247070312e+01 -1.157979480922222137e-03 -3.676337301731109619e-01 -1.106375157833099365e-01 9.441686421632766724e-02
2.705000000000000000e+03 2.219308853149414062e+01 -2.546340560913085938e+01 2.447745352983474731e-01 3.371100500226020813e-02 8.354566246271133423e-02 -1.120251715183258057e-01
2.706000000000000000e+03 4.007878494262695312e+01 1.932321929931640625e+01 3.657852411270141602e-01 -2.365294545888900757e-01 3.877674043178558350e-02 3.924672007560729980e-01
2.707000000000000000e+03 4.391736984252929688e+01 1.531721115112304688e+01 1.507664322853088379e-01 3.757363557815551758e-01 1.579508334398269653e-01 2.016938030719757080e-01
2.708000000000000000e+03 1.435772037506103516e+01 -2.867821693420410156e+01 -1.541561484336853027e-01 -3.719070255756378174e-01 -1.578189432621002197e-01 -2.144364416599273682e-01
2.709000000000000000e+03 1.545627880096435547e+01 -2.745192337036132812e+01 -9.330770373344421387e-02 -3.001877665519714355e-01 -1.180486455559730530e-01 -1.867669224739074707e-01
2.710000000000000000e+03 1.738713645935058594e+01 3.538430404663085938e+01 7.205525040626525879e-02 -2.385488301515579224e-01 -4.994807392358779907e-02 1.337053179740905762e-01
2.711000000000000000e+03 2.033914947509765625e+01 2.658214187622070312e+01 3.289147019386291504e-01 -2.870676815509796143e-01 1.255411002784967422e-02 3.985446989536285400e-01
2.712000000000000000e+03 1.070211696624755859e+01 -2.396231269836425781e+01 3.255771938711404800e-03 -6.964915245771408081e-02 -1.991801522672176361e-02 -1.213661208748817444e-01
2.713000000000000000e+03 5.130412673950195312e+01 1.897193908691406250e+01 2.175614982843399048e-01 1.532728821039199829e-01 1.112503111362457275e-01 -1.247513741254806519e-01
2.714000000000000000e+03 9.725008964538574219e+00 9.807382583618164062e+00 -2.213482111692428589e-01 -3.207719326019287109e-01 -1.626360416412353516e-01 1.992187201976776123e-01
2.715000000000000000e+03 1.041074848175048828e+01 7.467615127563476562e+00 -2.854643762111663818e-01 -1.985506564378738403e-01 -1.452045142650604248e-01 1.786321848630905151e-01
2.716000000000000000e+03 1.052791595458984375e+01 2.042585563659667969e+01 -4.108601249754428864e-03 2.597810886800289154e-02 6.560852285474538803e-03 2.056628316640853882e-01
2.717000000000000000e+03 2.309968185424804688e+01 -2.813238716125488281e+01 2.950862348079681396e-01 4.015546292066574097e-02 1.005725115537643433e-01 -1.506654620170593262e-01
2.718000000000000000e+03 1.830054855346679688e+01 3.605245208740234375e+01 1.223632991313934326e-01 -2.751924395561218262e-01 -4.584874212741851807e-02 1.079271361231803894e-01
2.719000000000000000e+03 3.927234649658203125e+01 -3.522235631942749023e+00 -5.982143878936767578e-01 1.595359854400157928e-02 -1.746782362461090088e-01 -6.110035628080368042e-02
2.720000000000000000e+03 1.821069908142089844e+01 4.014726161956787109e+00 -3.159754872322082520e-01 -1.817996427416801453e-02 -1.002466380596160889e-01 2.007891088724136353e-01
2.721000000000000000e+03 1.762716674804687500e+01 4.699458599090576172e+00 -2.381203770637512207e-01 3.721829876303672791e-02 -6.027062609791755676e-02 2.154770940542221069e-01
2.722000000000000000e+03 1.824633789062500000e+01 4.570932865142822266e+00 -2.580165565013885498e-01 9.490665979683399200e-03 -7.455776631832122803e-02 1.811043322086334229e-01
2.723000000000000000e+03 1.566772842407226562e+01 4.535698413848876953e+00 -2.571074366569519043e-01 3.085690736770629883e-02 -6.787516176700592041e-02 2.779259979724884033e-01
2.724000000000000000e+03 4.963394165039062500e+01 -1.499076080322265625e+01 -7.918965816497802734e-01 -1.452839523553848267e-01 -2.811541557312011719e-01 -6.142684817314147949e-01
2.725000000000000000e+03 5.006435394287109375e+01 -1.568802070617675781e+01 -8.626519441604614258e-01 -5.189323052763938904e-02 -2.743635475635528564e-01 -4.213960170745849609e-01
2.726000000000000000e+03 5.525862503051757812e+01 1.125121784210205078e+01 6.125843897461891174e-02 9.583976119756698608e-02 4.712945967912673950e-02 1.286477893590927124e-01
2.727000000000000000e+03 5.594709396362304688e+01 1.143534278869628906e+01 1.470058113336563110e-01 3.578782677650451660e-01 1.514652222394943237e-01 1.192285716533660889e-01
2.728000000000000000e+03 3.746537780761718750e+01 -2.967788887023925781e+01 8.116542361676692963e-03 -4.162224531173706055e-01 -1.224317774176597595e-01 -2.431937307119369507e-01
2.729000000000000000e+03 1.335331916809082031e+01 -2.776278877258300781e+01 -7.178221642971038818e-02 -3.187477886676788330e-01 -1.171590015292167664e-01 -1.617683768272399902e-01
2.730000000000000000e+03 2.097512245178222656e+01 2.237649726867675781e+01 8.081795275211334229e-02 -2.352888435125350952e-01 -4.634127020835876465e-02 6.650793552398681641e-02
2.731000000000000000e+03 4.040991210937500000e+01 -3.701499557495117188e+01 5.447618961334228516e-01 9.497623890638351440e-02 1.919214427471160889e-01 -2.880973815917968750e-01
2.732000000000000000e+03 1.701622390747070312e+01 -9.812633514404296875e+00 -6.143428385257720947e-02 2.267345041036605835e-02 -1.162825059145689011e-02 3.671010956168174744e-02
2.733000000000000000e+03 5.785456657409667969e+00 2.514876174926757812e+01 -1.877467036247253418e-01 -5.499969720840454102e-01 -2.213231027126312256e-01 1.517382711172103882e-01
2.734000000000000000e+03 6.535612487792968750e+01 -2.493244743347167969e+01 -3.288636207580566406e-01 1.704411029815673828e+00 4.126642048358917236e-01 -4.806839823722839355e-01
2.735000000000000000e+03 6.023914337158203125e+01 -1.026036071777343750e+01 -2.430710077285766602e+00 1.142096742987632751e-01 -6.949501633644104004e-01 -2.787812650203704834e-01
2.736000000000000000e+03 1.854927062988281250e+01 2.343312454223632812e+01 4.493358731269836426e-01 1.021585091948509216e-01 1.654483079910278320e-01 1.963864266872406006e-01
2.737000000000000000e+03 4.640659713745117188e+01 2.536386680603027344e+01 2.876262068748474121e-01 4.648585617542266846e-01 2.257454395294189453e-01 3.258749544620513916e-01
2.738000000000000000e+03 5.326678085327148438e+01 2.545290565490722656e+01 2.467592358589172363e-01 9.095853567123413086e-01 3.469033837318420410e-01 -9.986673295497894287e-02
2.739000000000000000e+03 1.457730007171630859e+01 -2.264270973205566406e+01 -1.276570558547973633e-01 -3.211143612861633301e-01 -1.346314251422882080e-01 -2.523260712623596191e-01
2.740000000000000000e+03 1.340093708038330078e+01 -2.400927734375000000e+01 -1.580744795501232147e-02 -2.791970074176788330e-01 -8.850133419036865234e-02 -2.181473821401596069e-01
2.741000000000000000e+03 4.627196121215820312e+01 2.950215721130371094e+01 -4.779633507132530212e-02 1.145846024155616760e-01 2.003647945821285248e-02 7.455950230360031128e-02
2.742000000000000000e+03 1.988729476928710938e+01 2.372001075744628906e+01 3.586839437484741211e-01 -8.844846487045288086e-02 8.107064664363861084e-02 1.921855360269546509e-01
2.743000000000000000e+03 4.409920883178710938e+01 1.186117744445800781e+01 -1.616628766059875488e-01 2.542787976562976837e-02 -4.087049886584281921e-02 3.989170193672180176e-01
2.744000000000000000e+03 7.060504150390625000e+01 1.852837181091308594e+01 4.697766900062561035e-01 4.203582763671875000e+00 1.402007818222045898e+00 -1.703605413436889648e+00
2.745000000000000000e+03 1.264518165588378906e+01 -2.947209167480468750e+01 -1.347422748804092407e-01 -3.266980350017547607e-01 -1.384321004152297974e-01 -1.566058248281478882e-01
2.746000000000000000e+03 1.328852367401123047e+01 -2.885213279724121094e+01 -1.268000155687332153e-01 -3.455160856246948242e-01 -1.416948288679122925e-01 -1.730941087007522583e-01
2.747000000000000000e+03 2.682328033447265625e+01 1.338944911956787109e+01 -1.023494452238082886e-01 -3.292639926075935364e-02 -4.058275371789932251e-02 1.727459728717803955e-01
2.748000000000000000e+03 1.981065750122070312e+01 2.464411735534667969e+01 4.988254308700561523e-01 -8.530175685882568359e-02 1.240570992231369019e-01 2.956006526947021484e-01
2.749000000000000000e+03 3.467295169830322266e+00 -1.580755329132080078e+01 -3.658152744174003601e-02 -4.726229235529899597e-02 -2.515314519405364990e-02 -3.574684262275695801e-02
2.750000000000000000e+03 3.152139282226562500e+01 -4.835526466369628906e+00 -2.775388397276401520e-02 -1.689090877771377563e-01 -5.899889022111892700e-02 -1.963129490613937378e-01
2.751000000000000000e+03 6.422790050506591797e+00 3.284012985229492188e+01 1.680377274751663208e-01 -5.685163289308547974e-02 3.335582837462425232e-02 1.192454099655151367e-01
2.752000000000000000e+03 5.383071517944335938e+01 2.334047698974609375e+01 1.929222792387008667e-01 6.423984169960021973e-01 2.505962252616882324e-01 -2.157212346792221069e-01
2.753000000000000000e+03 3.262951278686523438e+01 2.622502708435058594e+01 -4.368195533752441406e-01 -6.643018722534179688e-01 -3.303364515304565430e-01 3.597979545593261719e-01
2.754000000000000000e+03 3.454068374633789062e+01 2.719385528564453125e+01 -1.770385354757308960e-01 -5.630759000778198242e-01 -2.220343351364135742e-01 2.337751686573028564e-01
2.755000000000000000e+03 1.931444168090820312e+01 3.376910400390625000e+01 1.370580680668354034e-02 -3.711654841899871826e-01 -1.072379052639007568e-01 1.020406037569046021e-01
2.756000000000000000e+03 5.683257675170898438e+01 3.580665206909179688e+01 8.550475835800170898e-01 5.096058845520019531e-01 4.093960523605346680e-01 3.856553137302398682e-01
2.757000000000000000e+03 4.062756347656250000e+01 3.479015350341796875e+00 -4.260981380939483643e-01 -2.761704921722412109e-01 -2.106805890798568726e-01 -2.961320877075195312e-01
2.758000000000000000e+03 6.677476501464843750e+01 8.484759330749511719e-01 -1.133377671241760254e+00 1.048365831375122070e-01 -3.085623383522033691e-01 -7.404030114412307739e-02
2.759000000000000000e+03 3.823824310302734375e+01 1.174329662322998047e+01 -9.403945207595825195e-01 -9.056223630905151367e-01 -5.538050532341003418e-01 6.934714317321777344e-01
2.760000000000000000e+03 5.582534027099609375e+01 -3.169206428527832031e+01 1.788600534200668335e-01 1.170001029968261719e+00 4.046583175659179688e-01 1.435823887586593628e-01
2.761000000000000000e+03 2.456193923950195312e+01 -1.523735427856445312e+01 -4.685591459274291992e-01 -1.565803289413452148e-01 -1.875418424606323242e-01 -1.649309694766998291e-01
2.762000000000000000e+03 2.884887695312500000e+01 -1.752944564819335938e+01 -2.723352611064910889e-01 -2.990730702877044678e-01 -1.714224964380264282e-01 -2.041245698928833008e-01
2.763000000000000000e+03 2.760529518127441406e+01 -3.902578735351562500e+01 2.445522397756576538e-01 -2.983136475086212158e-01 -1.612841710448265076e-02 2.773286774754524231e-02
2.764000000000000000e+03 5.939008712768554688e+01 1.495362854003906250e+01 2.978815734386444092e-01 1.733405828475952148e+00 6.093862056732177734e-01 -1.283430904150009155e-01
2.765000000000000000e+03 7.118039703369140625e+01 -2.649741172790527344e+01 1.459882706403732300e-01 1.425923466682434082e+00 4.715735316276550293e-01 1.485458612442016602e+00
2.766000000000000000e+03 7.266463470458984375e+01 -2.690994262695312500e+01 2.299400046467781067e-02 4.977235317230224609e+00 1.500068783760070801e+00 2.030207395553588867e+00
2.767000000000000000e+03 5.848560714721679688e+01 1.986730575561523438e+01 1.481430381536483765e-01 7.737051844596862793e-01 2.765544652938842773e-01 -9.597719460725784302e-02
2.768000000000000000e+03 7.534952545166015625e+01 -5.351300239562988281e+00 1.682109355926513672e+00 1.860977554321289062e+01 6.087565422058105469e+00 -1.568335533142089844e+00
2.769000000000000000e+03 2.304312896728515625e+01 1.748501777648925781e+01 -2.530732750892639160e-01 -3.264218270778656006e-01 -1.738485246896743774e-01 2.214913517236709595e-01
2.770000000000000000e+03 1.993134498596191406e+01 1.647074127197265625e+01 -2.379193007946014404e-01 -2.064604163169860840e-01 -1.333139091730117798e-01 1.564307510852813721e-01
2.771000000000000000e+03 6.725976562500000000e+01 -3.137277412414550781e+01 6.617763638496398926e-01 2.139940977096557617e+00 8.405151963233947754e-01 -2.071582674980163574e-01
2.772000000000000000e+03 1.725575447082519531e+01 2.306150627136230469e+01 4.779265820980072021e-01 2.379573136568069458e-01 2.147651612758636475e-01 2.723761200904846191e-01
2.773000000000000000e+03 1.789154815673828125e+01 2.322767829895019531e+01 4.548159241676330566e-01 2.031981348991394043e-01 1.974042207002639771e-01 2.333698272705078125e-01
2.774000000000000000e+03 7.418013763427734375e+01 -1.744861221313476562e+01 -1.990823984146118164e+00 6.028302192687988281e+00 1.211243510246276855e+00 6.625286936759948730e-01
2.775000000000000000e+03 1.887614822387695312e+01 3.512341308593750000e+01 9.101893007755279541e-02 -3.043141663074493408e-01 -6.398857384920120239e-02 1.038298085331916809e-01
2.776000000000000000e+03 5.927394104003906250e+01 2.115536689758300781e+01 1.023486405611038208e-01 6.508172750473022461e-01 2.259497791528701782e-01 1.437329053878784180e-01
2.777000000000000000e+03 6.050666427612304688e+01 1.606517601013183594e+01 2.342888265848159790e-01 2.058230161666870117e+00 6.877556443214416504e-01 1.979961246252059937e-01
2.778000000000000000e+03 5.938104248046875000e+01 1.021419143676757812e+01 7.065545320510864258e-01 1.350963115692138672e+00 6.172552704811096191e-01 -1.460881680250167847e-01
2.779000000000000000e+03 3.159444046020507812e+01 -1.529214859008789062e+01 -6.542832851409912109e-01 -2.248589396476745605e-01 -2.637426853179931641e-01 -2.332583516836166382e-01
2.780000000000000000e+03 1.647822856903076172e+00 3.189554595947265625e+01 2.418150566518306732e-02 -5.442657470703125000e-01 -1.560252755880355835e-01 1.120922788977622986e-01
2.781000000000000000e+03 5.453271102905273438e+01 -1.067825984954833984e+01 -1.819580078125000000e+00 -1.553478986024856567e-01 -5.924783945083618164e-01 -8.705681562423706055e-02
2.782000000000000000e+03 7.221833038330078125e+01 -1.289313316345214844e+01 -1.622514575719833374e-01 1.566466569900512695e+00 4.212645590305328369e-01 1.689255475997924805e+00
2.783000000000000000e+03 7.213556671142578125e+01 -1.222712230682373047e+01 -5.519434064626693726e-02 7.758994698524475098e-01 2.162115424871444702e-01 1.025539636611938477e+00
2.784000000000000000e+03 6.726244354248046875e+01 -1.244956016540527344e+01 -2.106053352355957031e+00 -3.159752190113067627e-01 -7.266085147857666016e-01 8.733775019645690918e-01
2.785000000000000000e+03 1.649548149108886719e+01 1.937081336975097656e+01 -2.424328923225402832e-01 -6.204139813780784607e-02 -9.134228527545928955e-02 1.739875972270965576e-01
2.786000000000000000e+03 1.721216201782226562e+01 2.246024703979492188e+01 3.087336719036102295e-01 1.911586374044418335e-01 1.499677002429962158e-01 2.268125563859939575e-01
2.787000000000000000e+03 2.995417594909667969e+01 -1.715990829467773438e+01 -3.112448751926422119e-01 -3.335808217525482178e-01 -1.934477090835571289e-01 -2.564267516136169434e-01
2.788000000000000000e+03 2.939545249938964844e+01 -1.678578186035156250e+01 -3.497584462165832520e-01 -2.925412654876708984e-01 -1.926899105310440063e-01 -2.229311466217041016e-01
2.789000000000000000e+03 5.650581741333007812e+01 -2.175112533569335938e+01 1.063748225569725037e-01 7.292746752500534058e-02 5.379068851470947266e-02 5.952445790171623230e-02
2.790000000000000000e+03 4.658160781860351562e+01 -3.911915969848632812e+01 8.545312285423278809e-01 3.718406707048416138e-02 2.675145864486694336e-01 -9.378536604344844818e-03
2.791000000000000000e+03 4.230945587158203125e+01 -1.619630241394042969e+01 -4.522121548652648926e-01 -1.438029110431671143e-01 -1.788045167922973633e-01 -2.143079042434692383e-01
2.792000000000000000e+03 4.135138320922851562e+01 -2.006696128845214844e+01 2.505729496479034424e-01 -6.017578020691871643e-02 5.711914598941802979e-02 -5.854206085205078125e-01
2.793000000000000000e+03 1.586477375030517578e+01 -5.920038700103759766e+00 6.620865315198898315e-03 2.651881985366344452e-02 9.941905736923217773e-03 -3.651970066130161285e-03
2.794000000000000000e+03 4.552938461303710938e+01 1.793414473533630371e+00 -7.905669212341308594e-01 -3.533049672842025757e-02 -2.477692216634750366e-01 1.559201627969741821e-01
2.795000000000000000e+03 3.078094100952148438e+01 2.764571952819824219e+01 -3.305589556694030762e-01 -7.160457372665405273e-01 -3.139814138412475586e-01 4.249420166015625000e-01
2.796000000000000000e+03 4.627233123779296875e+01 -4.226491451263427734e+00 -4.169026315212249756e-01 1.216192170977592468e-01 -8.858502656221389771e-02 4.993939772248268127e-02
2.797000000000000000e+03 4.512738037109375000e+01 -3.382355451583862305e+00 -4.864307940006256104e-01 6.722047179937362671e-02 -1.257631033658981323e-01 5.789679475128650665e-03
2.798000000000000000e+03 4.681526947021484375e+01 -5.860849380493164062e+00 -2.385540753602981567e-01 2.523352205753326416e-01 4.134346265345811844e-03 6.750460714101791382e-02
2.799000000000000000e+03 2.854302597045898438e+01 -1.165956687927246094e+01 -3.953790366649627686e-01 -3.935460746288299561e-01 -2.366775274276733398e-01 -2.958084344863891602e-01
2.800000000000000000e+03 2.787436866760253906e+01 -1.224693012237548828e+01 -4.748630821704864502e-01 -3.157748579978942871e-01 -2.371913790702819824e-01 -2.893704771995544434e-01
2.801000000000000000e+03 1.840062522888183594e+01 1.898386764526367188e+01 -3.048608601093292236e-01 -7.653474807739257812e-02 -1.144186854362487793e-01 8.782697468996047974e-02
2.802000000000000000e+03 2.853007125854492188e+01 5.862966537475585938e+00 1.384854614734649658e-01 4.958847463130950928e-01 1.903110593557357788e-01 6.266036629676818848e-02
2.803000000000000000e+03 2.852518653869628906e+01 7.082456111907958984e+00 1.828676611185073853e-01 6.795876622200012207e-01 2.587366104125976562e-01 9.154345840215682983e-02
2.804000000000000000e+03 3.567812728881835938e+01 -2.915479660034179688e+01 6.511076539754867554e-02 -7.473423331975936890e-02 -2.887041773647069931e-03 -2.897526919841766357e-01
2.805000000000000000e+03 1.492115306854248047e+01 -2.703594207763671875e+01 -2.508916705846786499e-02 -3.284614086151123047e-01 -1.060651764273643494e-01 -1.700606495141983032e-01
2.806000000000000000e+03 1.385413074493408203e+01 -2.823760795593261719e+01 -1.051018610596656799e-01 -3.489166498184204102e-01 -1.362055540084838867e-01 -1.763364374637603760e-01
2.807000000000000000e+03 6.048829269409179688e+01 1.794608879089355469e+01 1.790542155504226685e-01 1.451857924461364746e+00 4.892736673355102539e-01 1.729152500629425049e-01
2.808000000000000000e+03 2.020157814025878906e+01 3.100738143920898438e+01 -1.676957905292510986e-01 -5.250593423843383789e-01 -2.078265398740768433e-01 7.469979673624038696e-02
2.809000000000000000e+03 7.417949676513671875e+01 -2.357319641113281250e+01 2.186956882476806641e+00 9.770910263061523438e+00 3.587360143661499023e+00 2.001588106155395508e+00
2.810000000000000000e+03 5.474771976470947266e+00 3.428034210205078125e+01 1.716346591711044312e-01 -2.362965047359466553e-01 -1.939855702221393585e-02 5.210172012448310852e-02
2.811000000000000000e+03 7.772398376464843750e+01 -2.067317485809326172e+00 -4.365805387496948242e-01 1.039337348937988281e+01 2.987037897109985352e+00 1.507288217544555664e+00
2.812000000000000000e+03 6.903227996826171875e+01 4.975793838500976562e+00 5.885708704590797424e-02 1.374402344226837158e-01 5.888919532299041748e-02 -5.404918193817138672e-01
2.813000000000000000e+03 5.350247955322265625e+01 -1.634314346313476562e+01 1.339060217142105103e-01 5.399111509323120117e-01 2.021451443433761597e-01 -4.507043361663818359e-01
2.814000000000000000e+03 5.318977355957031250e+01 -1.466146278381347656e+01 -6.117346286773681641e-01 2.790750265121459961e-01 -9.979788213968276978e-02 -6.684176325798034668e-01
2.815000000000000000e+03 5.986635589599609375e+01 1.642100524902343750e+01 2.590273320674896240e-01 1.673376083374023438e+00 5.797210335731506348e-01 2.104887180030345917e-02
2.816000000000000000e+03 5.457966613769531250e+01 1.793207550048828125e+01 2.333682775497436523e-01 3.312263786792755127e-01 1.693783998489379883e-01 -3.011212646961212158e-01
2.817000000000000000e+03 5.953293609619140625e+01 7.010707259178161621e-02 -2.461675882339477539e+00 -9.681241214275360107e-02 -7.675464749336242676e-01 5.651401877403259277e-01
2.818000000000000000e+03 6.263862609863281250e+01 -6.794947385787963867e-01 -1.494283437728881836e+00 3.676233887672424316e-01 -3.379980325698852539e-01 2.442804127931594849e-01
2.819000000000000000e+03 6.160165405273437500e+01 2.319802474975585938e+01 2.288595587015151978e-01 8.571389913558959961e-01 3.257995545864105225e-01 6.367510557174682617e-01
2.820000000000000000e+03 2.830596160888671875e+01 -1.835114860534667969e+01 -2.054112851619720459e-01 -2.886965572834014893e-01 -1.482323557138442993e-01 -1.751282364130020142e-01
2.821000000000000000e+03 1.189617156982421875e+01 -3.166199493408203125e+01 -1.362367570400238037e-01 -3.120582699775695801e-01 -1.344885081052780151e-01 -1.492978185415267944e-01
2.822000000000000000e+03 4.021306991577148438e+01 -2.823912239074707031e+01 7.315842807292938232e-02 -5.404512286186218262e-01 -1.401878446340560913e-01 -1.439767628908157349e-01
2.823000000000000000e+03 4.165976333618164062e+01 -2.760581207275390625e+01 1.547205746173858643e-01 -1.828675121068954468e-01 -8.444084785878658295e-03 -7.707768678665161133e-02
2.824000000000000000e+03 3.563778686523437500e+01 3.271094512939453125e+01 3.891330957412719727e-01 -3.432858362793922424e-02 1.064413487911224365e-01 1.880619227886199951e-01
2.825000000000000000e+03 5.699844741821289062e+01 2.279590797424316406e+01 1.401449888944625854e-01 2.959453463554382324e-01 1.308270990848541260e-01 -2.547638416290283203e-01
2.826000000000000000e+03 5.955813217163085938e+01 2.218218803405761719e+01 1.386911869049072266e-01 4.553896188735961914e-01 1.782242506742477417e-01 2.831563353538513184e-01
2.827000000000000000e+03 3.143045425415039062e+01 2.690181350708007812e+01 -4.248080551624298096e-01 -7.559443712234497070e-01 -3.542257249355316162e-01 4.119310975074768066e-01
2.828000000000000000e+03 2.757317924499511719e+01 -1.512557506561279297e+01 -4.399122297763824463e-01 -2.299163937568664551e-01 -2.009485960006713867e-01 -1.829627454280853271e-01
2.829000000000000000e+03 6.478447723388671875e+01 -6.347339630126953125e+00 -3.408593311905860901e-02 -1.259473734535276890e-03 -1.060362160205841064e-02 -1.106023695319890976e-02
2.830000000000000000e+03 2.228682136535644531e+01 1.857164573669433594e+01 -2.133919298648834229e-01 -3.731796145439147949e-01 -1.759714633226394653e-01 1.546727567911148071e-01
2.831000000000000000e+03 5.239502334594726562e+01 3.455382919311523438e+01 4.128738343715667725e-01 8.444683551788330078e-01 3.772026598453521729e-01 1.302397102117538452e-01
2.832000000000000000e+03 7.342071533203125000e+01 1.763199043273925781e+01 4.101046919822692871e-01 6.367811679840087891e+00 2.033375024795532227e+00 -6.753242611885070801e-01
2.833000000000000000e+03 2.399091720581054688e+01 1.227879524230957031e+01 3.395741432905197144e-02 -1.593057811260223389e-01 -3.760451078414916992e-02 4.625567048788070679e-02
2.834000000000000000e+03 2.758150672912597656e+01 -2.214903450012207031e+01 4.221790935844182968e-03 -1.771227866411209106e-01 -5.187029764056205750e-02 -1.207428947091102600e-01
2.835000000000000000e+03 2.845087432861328125e+01 -2.036244201660156250e+01 -7.621040195226669312e-02 -2.909809947013854980e-01 -1.101574227213859558e-01 -1.084869503974914551e-01
2.836000000000000000e+03 4.826888275146484375e+01 -8.998190879821777344e+00 -2.807532204315066338e-03 5.626987218856811523e-01 1.679673641920089722e-01 -5.427888035774230957e-02
2.837000000000000000e+03 5.188224029541015625e+01 -9.880180358886718750e+00 -9.003425836563110352e-01 -2.618038840591907501e-02 -2.779569029808044434e-01 -8.172844350337982178e-02
2.838000000000000000e+03 4.735317993164062500e+01 -6.571670055389404297e+00 -1.891954839229583740e-01 4.491178393363952637e-01 7.797670364379882812e-02 6.988500803709030151e-02
2.839000000000000000e+03 3.926029205322265625e+01 1.053145217895507812e+01 -9.202507734298706055e-01 -8.284533023834228516e-01 -5.246112346649169922e-01 7.455525398254394531e-01
2.840000000000000000e+03 3.875914382934570312e+01 1.010165596008300781e+01 -9.567541480064392090e-01 -1.142591953277587891e+00 -6.298038363456726074e-01 8.989817500114440918e-01
2.841000000000000000e+03 3.844526290893554688e+01 -2.751724433898925781e+01 -1.501879394054412842e-01 -6.884935498237609863e-01 -2.516044378280639648e-01 -3.276540637016296387e-01
2.842000000000000000e+03 7.195029449462890625e+01 -2.703896522521972656e+01 -8.140584081411361694e-02 3.676022052764892578e+00 1.078384876251220703e+00 2.081206798553466797e+00
2.843000000000000000e+03 3.523425292968750000e+01 2.543905067443847656e+01 -3.996303379535675049e-01 -6.596019864082336426e-01 -3.177697062492370605e-01 3.904687166213989258e-01
2.844000000000000000e+03 1.689034461975097656e+01 -4.498338699340820312e+00 -4.098965786397457123e-03 3.271817043423652649e-02 8.585761301219463348e-03 6.984407082200050354e-04
2.845000000000000000e+03 1.499899196624755859e+01 -4.610936164855957031e+00 6.260493537411093712e-04 1.077836006879806519e-02 3.421322675421833992e-03 -1.027629245072603226e-02
2.846000000000000000e+03 4.495468139648437500e+01 9.365769386291503906e+00 -7.508413791656494141e-01 -3.864755630493164062e-01 -3.411950767040252686e-01 6.138920783996582031e-01
2.847000000000000000e+03 4.079011535644531250e+01 5.580508708953857422e+00 -1.672996878623962402e-01 -3.554026782512664795e-01 -1.568107157945632935e-01 2.958835661411285400e-01
2.848000000000000000e+03 3.298427200317382812e+01 -6.150621891021728516e+00 -4.284481704235076904e-02 -8.854889124631881714e-02 -3.941811248660087585e-02 -2.814969718456268311e-01
2.849000000000000000e+03 3.031016540527343750e+01 1.153873729705810547e+01 5.366683378815650940e-02 6.804493665695190430e-01 2.202348560094833374e-01 3.007208108901977539e-01
2.850000000000000000e+03 2.891665649414062500e+01 1.482821941375732422e+01 -1.686520278453826904e-01 1.904319971799850464e-01 6.533990614116191864e-03 3.482683300971984863e-01
2.851000000000000000e+03 3.560049819946289062e+01 -5.743924140930175781e+00 -1.368960589170455933e-01 2.549874484539031982e-01 3.542741015553474426e-02 -2.832389175891876221e-01
2.852000000000000000e+03 2.520611000061035156e+01 -2.990574073791503906e+01 1.714173853397369385e-01 -1.937284320592880249e-01 -6.693311501294374466e-03 -1.239135935902595520e-01
2.853000000000000000e+03 4.681849288940429688e+01 -4.794445991516113281e+00 -3.587711155414581299e-01 1.877985894680023193e-01 -5.129175633192062378e-02 1.054648607969284058e-01
2.854000000000000000e+03 4.621534347534179688e+01 -5.236146450042724609e+00 -3.174120783805847168e-01 1.301856338977813721e-01 -5.616793781518936157e-02 7.699835300445556641e-02
2.855000000000000000e+03 1.588155460357666016e+01 -1.544707393646240234e+01 4.507806897163391113e-02 1.717188507318496704e-01 6.503907591104507446e-02 -6.939241290092468262e-02
2.856000000000000000e+03 2.483510255813598633e+00 1.221186542510986328e+01 -2.451509237289428711e-03 -1.053966879844665527e-01 -3.235445916652679443e-02 1.001336947083473206e-01
2.857000000000000000e+03 9.117913246154785156e+00 1.146296501159667969e+01 -7.577737420797348022e-02 -2.041823565959930420e-01 -8.398792147636413574e-02 1.701679080724716187e-01
2.858000000000000000e+03 1.611972045898437500e+01 5.483804702758789062e+00 -1.999671459197998047e-01 7.551662623882293701e-02 -3.733515739440917969e-02 2.590393126010894775e-01
2.859000000000000000e+03 8.425591468811035156e+00 -2.351964569091796875e+01 1.112623289227485657e-01 4.020588099956512451e-02 4.544046521186828613e-02 -5.986710637807846069e-02
2.860000000000000000e+03 9.978407859802246094e+00 -2.405512428283691406e+01 2.468210272490978241e-02 -3.451341390609741211e-02 -2.949394052848219872e-03 -1.001693755388259888e-01
2.861000000000000000e+03 3.629697418212890625e+01 -2.872383880615234375e+01 4.191564768552780151e-02 -2.069517225027084351e-01 -4.951082170009613037e-02 -2.340389490127563477e-01
2.862000000000000000e+03 1.306016731262207031e+01 -2.656322240829467773e+00 2.279418986290693283e-03 -3.005362814292311668e-03 -2.177831338485702872e-04 -1.576736196875572205e-02
2.863000000000000000e+03 4.640748214721679688e+01 2.268398857116699219e+01 4.633451700210571289e-01 4.319309890270233154e-01 2.685828506946563721e-01 2.900720834732055664e-01
2.864000000000000000e+03 5.135356140136718750e+01 -3.488933563232421875e+00 -8.492259681224822998e-02 -1.026530936360359192e-01 -5.627270787954330444e-02 1.593096107244491577e-01
2.865000000000000000e+03 3.921347427368164062e+01 -1.340780067443847656e+01 -7.710173130035400391e-01 5.340688824653625488e-01 -7.108452171087265015e-02 -1.173929199576377869e-01
2.866000000000000000e+03 2.242433166503906250e+01 -4.174909210205078125e+01 4.131522476673126221e-01 -1.017547696828842163e-01 9.341924637556076050e-02 -1.861605234444141388e-02
2.867000000000000000e+03 2.486354064941406250e+01 -4.079954910278320312e+01 3.674096763134002686e-01 -2.910951673984527588e-01 2.289435639977455139e-02 3.831015899777412415e-02
2.868000000000000000e+03 5.871185302734375000e+01 2.254979372024536133e+00 -1.863364696502685547e+00 -2.241984754800796509e-01 -6.262689828872680664e-01 7.660868141101673245e-05
2.869000000000000000e+03 4.800305175781250000e+01 -4.215333938598632812e+00 -3.494058251380920410e-01 1.696191728115081787e-01 -5.393599346280097961e-02 1.645759791135787964e-01
2.870000000000000000e+03 7.697692108154296875e+01 -7.350824832916259766e+00 1.714874029159545898e+00 1.361645507812500000e+01 4.599398612976074219e+00 -5.600227508693933487e-03
2.871000000000000000e+03 7.625652313232421875e+01 -2.996987342834472656e+01 -1.925923228263854980e-01 6.723672389984130859e+00 1.959324121475219727e+00 4.363275766372680664e-01
2.872000000000000000e+03 1.832816886901855469e+01 -1.400729179382324219e+01 -1.290910691022872925e-01 5.711721722036600113e-03 -3.701380640268325806e-02 -6.404990795999765396e-03
2.873000000000000000e+03 2.499094581604003906e+01 -3.098512268066406250e+01 5.699638649821281433e-02 -2.504529654979705811e-01 -5.803697556257247925e-02 -7.996953278779983521e-02
2.874000000000000000e+03 4.999093627929687500e+01 -2.654969787597656250e+01 3.629361987113952637e-01 3.526827692985534668e-01 2.146856933832168579e-01 -3.255438506603240967e-01
2.875000000000000000e+03 7.185285186767578125e+01 8.265515327453613281e+00 -1.137461543083190918e+00 3.605932474136352539e+00 7.405413389205932617e-01 -2.124828994274139404e-01
2.876000000000000000e+03 3.308291625976562500e+01 2.261016464233398438e+01 -1.608444899320602417e-01 -6.424272060394287109e-01 -2.409815043210983276e-01 3.572574853897094727e-01
2.877000000000000000e+03 7.561906433105468750e+01 9.849637985229492188e+00 -1.749680340290069580e-01 7.358369350433349609e+00 2.155020475387573242e+00 -1.443315505981445312e+00
2.878000000000000000e+03 4.006725311279296875e+01 -2.756396675109863281e+01 2.917014248669147491e-02 -6.314751505851745605e-01 -1.806914955377578735e-01 -1.617001593112945557e-01
2.879000000000000000e+03 4.786134719848632812e+01 5.519415378570556641e+00 -1.283309936523437500e+00 -5.640043020248413086e-01 -5.541942715644836426e-01 5.762594938278198242e-01
2.880000000000000000e+03 1.357397842407226562e+01 -2.320273017883300781e+01 -6.709352880716323853e-02 -2.765994668006896973e-01 -1.031078994274139404e-01 -2.125597894191741943e-01
2.881000000000000000e+03 1.274452495574951172e+01 -2.391469573974609375e+01 -3.035154193639755249e-02 -2.318074107170104980e-01 -7.864768803119659424e-02 -1.978474855422973633e-01
2.882000000000000000e+03 4.413658142089843750e+01 1.263858699798583984e+01 -3.233476728200912476e-02 2.196108102798461914e-01 5.618281289935112000e-02 2.747278213500976562e-01
2.883000000000000000e+03 3.928081893920898438e+01 1.160366344451904297e+01 -7.929923534393310547e-01 -7.086593508720397949e-01 -4.504955112934112549e-01 6.019766926765441895e-01
2.884000000000000000e+03 5.718019866943359375e+01 -1.991125488281250000e+01 3.751155138015747070e-01 6.328472495079040527e-02 1.315200626850128174e-01 -1.917676031589508057e-01
2.885000000000000000e+03 5.630969238281250000e+01 -1.916703605651855469e+01 3.951845765113830566e-01 -8.155220188200473785e-03 1.161088049411773682e-01 -3.461458384990692139e-01
2.886000000000000000e+03 1.185853099822998047e+01 -2.988809967041015625e+01 -1.382678449153900146e-01 -2.768841385841369629e-01 -1.245455965399742126e-01 -1.425797492265701294e-01
2.887000000000000000e+03 1.201016044616699219e+01 -3.075235748291015625e+01 -1.407511830329895020e-01 -3.075052499771118164e-01 -1.344769299030303955e-01 -1.513999253511428833e-01
2.888000000000000000e+03 5.238552093505859375e+01 3.224846649169921875e+01 3.680680096149444580e-01 1.079461574554443359e+00 4.342588782310485840e-01 1.717662811279296875e-01
2.889000000000000000e+03 5.778918838500976562e+01 -2.350043296813964844e+01 2.019173204898834229e-01 3.502222299575805664e-01 1.656418591737747192e-01 3.208037316799163818e-01
2.890000000000000000e+03 5.948637390136718750e+01 -2.640249443054199219e+01 1.122740060091018677e-01 5.324873328208923340e-01 1.934284120798110962e-01 5.057834982872009277e-01
2.891000000000000000e+03 4.435194015502929688e+01 3.606402969360351562e+01 5.830106735229492188e-01 3.992089629173278809e-02 1.868794560432434082e-01 6.620756816118955612e-03
2.892000000000000000e+03 1.821878194808959961e+00 -2.019184494018554688e+01 9.067835286259651184e-03 -5.479335784912109375e-02 -1.371765602380037308e-02 -5.532737076282501221e-02
2.893000000000000000e+03 3.802629470825195312e+01 -1.473324680328369141e+01 -6.258631944656372070e-01 7.326837182044982910e-01 3.204617276787757874e-02 -1.959747076034545898e-01
2.894000000000000000e+03 1.631795120239257812e+01 2.106720352172851562e+01 5.115721374750137329e-02 1.144821196794509888e-01 4.969180002808570862e-02 2.453901767730712891e-01
2.895000000000000000e+03 7.073551177978515625e+01 7.978774547576904297e+00 -1.173220157623291016e+00 1.286461472511291504e+00 3.397241234779357910e-02 -1.263521909713745117e-01
2.896000000000000000e+03 4.611324310302734375e+01 3.130984306335449219e+01 9.345265477895736694e-02 9.916202723979949951e-02 5.778440460562705994e-02 -2.638754621148109436e-02
2.897000000000000000e+03 3.774267196655273438e+01 1.231656455993652344e+01 -8.203043937683105469e-01 -9.165130257606506348e-01 -5.210452079772949219e-01 6.155984401702880859e-01
2.898000000000000000e+03 1.668365859985351562e+01 -1.295163822174072266e+01 -8.785071969032287598e-02 8.174665272235870361e-02 -1.831221976317465305e-03 1.985567994415760040e-02
2.899000000000000000e+03 7.284582519531250000e+01 -1.283931732177734375e+01 -4.931216537952423096e-01 3.391078710556030273e+00 8.693870902061462402e-01 1.782247662544250488e+00
2.900000000000000000e+03 4.289151763916015625e+01 2.156837844848632812e+01 7.002004384994506836e-01 2.912411391735076904e-01 2.974324822425842285e-01 2.777111828327178955e-01
2.901000000000000000e+03 2.765112304687500000e+01 -1.330996894836425781e+01 -5.014047026634216309e-01 -2.570901513099670410e-01 -2.275484651327133179e-01 -2.296910881996154785e-01
2.902000000000000000e+03 1.956599998474121094e+01 7.150539398193359375e+00 1.487203240394592285e-01 -1.312188245356082916e-02 4.067953303456306458e-02 1.004954129457473755e-01
2.903000000000000000e+03 4.480373764038085938e+01 -1.372660923004150391e+01 -1.184635162353515625e+00 -1.875118613243103027e-01 -4.116441011428833008e-01 -1.992787420749664307e-01
2.904000000000000000e+03 4.676538848876953125e+01 -1.342940521240234375e+01 -8.961235284805297852e-01 -3.790462622418999672e-03 -2.699742019176483154e-01 -2.315473705530166626e-01
2.905000000000000000e+03 7.285591125488281250e+01 -1.507421016693115234e+01 -1.156400203704833984e+00 2.997711896896362305e+00 5.523934960365295410e-01 9.720373153686523438e-01
2.906000000000000000e+03 3.128764152526855469e+01 -6.518478393554687500e+00 -2.319073863327503204e-02 -2.869966328144073486e-01 -9.305620938539505005e-02 -2.090987116098403931e-01
2.907000000000000000e+03 6.416665649414062500e+01 3.334598922729492188e+01 4.883310794830322266e-01 2.374650955200195312e+00 8.588946461677551270e-01 -4.032001495361328125e-01
2.908000000000000000e+03 2.169403457641601562e+01 1.719571495056152344e+01 -2.572410702705383301e-01 -2.492956221103668213e-01 -1.519609987735748291e-01 1.361338943243026733e-01
2.909000000000000000e+03 4.932627105712890625e+01 -2.523235702514648438e+01 4.097111821174621582e-01 4.308868348598480225e-01 2.521794140338897705e-01 -3.446752727031707764e-01
2.910000000000000000e+03 3.204234313964843750e+01 1.746415901184082031e+01 4.371480941772460938e-01 3.568610548973083496e-01 2.382027506828308105e-01 5.620906949043273926e-01
2.911000000000000000e+03 3.525735092163085938e+01 1.327021980285644531e+01 -6.096273064613342285e-01 -5.920016765594482422e-01 -3.604887127876281738e-01 5.249803066253662109e-01
2.912000000000000000e+03 2.925610351562500000e+01 -2.479766845703125000e+01 2.060659229755401611e-01 -9.681363590061664581e-03 5.891536921262741089e-02 -1.260966211557388306e-01
2.913000000000000000e+03 2.978917121887207031e+01 -2.659079360961914062e+01 2.760754227638244629e-01 1.860963925719261169e-02 8.840551227331161499e-02 -1.578326821327209473e-01
2.914000000000000000e+03 6.469944763183593750e+01 -1.717795372009277344e+01 1.331767797470092773e+00 2.101836919784545898e+00 1.030081391334533691e+00 6.309492588043212891e-01
2.915000000000000000e+03 6.278428649902343750e+01 -1.940985488891601562e+01 7.856452465057373047e-01 1.572866797447204590e+00 7.075536251068115234e-01 3.200047016143798828e-01
2.916000000000000000e+03 4.430553054809570312e+01 2.246715927124023438e+01 6.420871019363403320e-01 4.440596401691436768e-01 3.258440196514129639e-01 3.879128694534301758e-01
2.917000000000000000e+03 4.516650390625000000e+01 2.218078041076660156e+01 5.315890908241271973e-01 4.381451010704040527e-01 2.909202575683593750e-01 2.952215969562530518e-01
2.918000000000000000e+03 2.838915252685546875e+01 -1.275203514099121094e+01 -4.500894844532012939e-01 -3.099775016307830811e-01 -2.280201017856597900e-01 -2.289927601814270020e-01
2.919000000000000000e+03 6.225107192993164062e+01 2.350058174133300781e+01 2.848469018936157227e-01 1.010587096214294434e+00 3.886302113533020020e-01 5.884616374969482422e-01
2.920000000000000000e+03 5.281435012817382812e+01 3.369165802001953125e+01 3.986206650733947754e-01 9.977199435234069824e-01 4.189021885395050049e-01 2.042473703622817993e-01
2.921000000000000000e+03 5.206376647949218750e+01 3.326233291625976562e+01 3.774593174457550049e-01 9.445647001266479492e-01 3.966072201728820801e-01 1.227622404694557190e-01
2.922000000000000000e+03 5.549660491943359375e+01 -3.060342216491699219e+01 2.766373455524444580e-01 8.983234763145446777e-01 3.524882495403289795e-01 1.276039928197860718e-01
2.923000000000000000e+03 7.490036010742187500e+01 -2.192100524902343750e+01 7.604688405990600586e-01 9.170112609863281250e+00 2.979174613952636719e+00 1.428865790367126465e+00
2.924000000000000000e+03 4.137252044677734375e+01 3.177571773529052734e+00 -7.450503706932067871e-01 -1.887036859989166260e-01 -2.801262140274047852e-01 -3.507746160030364990e-01
2.925000000000000000e+03 3.135619354248046875e+01 -4.061065673828125000e+00 -3.258063271641731262e-02 -1.396358162164688110e-01 -5.166493728756904602e-02 -1.551956385374069214e-01
2.926000000000000000e+03 3.064888381958007812e+01 -4.279266834259033203e+00 -7.546004839241504669e-03 -1.641214489936828613e-01 -5.150023847818374634e-02 -1.347160786390304565e-01
2.927000000000000000e+03 4.353297424316406250e+01 1.361208248138427734e+01 2.297986112534999847e-02 1.692463010549545288e-01 5.766784772276878357e-02 2.707118690013885498e-01
2.928000000000000000e+03 4.327067947387695312e+01 1.127985000610351562e+01 -4.069766402244567871e-01 -7.929173111915588379e-02 -1.458805054426193237e-01 5.527253150939941406e-01
2.929000000000000000e+03 4.016663360595703125e+01 4.292952060699462891e+00 1.160622164607048035e-01 -2.642720341682434082e-01 -4.446294531226158142e-02 -4.213505890220403671e-03
2.930000000000000000e+03 4.693713378906250000e+01 5.885390281677246094e+00 -1.180985450744628906e+00 -5.013080239295959473e-01 -5.046880245208740234e-01 5.990161895751953125e-01
2.931000000000000000e+03 3.925206375122070312e+01 9.426713943481445312e+00 -8.496748208999633789e-01 -9.965146780014038086e-01 -5.538568496704101562e-01 8.122791647911071777e-01
2.932000000000000000e+03 7.815193176269531250e+01 1.039725971221923828e+01 -2.838464453816413879e-03 8.380482673645019531e+00 2.513293266296386719e+00 -9.183132648468017578e-01
2.933000000000000000e+03 4.306572341918945312e+01 3.280945301055908203e+00 -8.516260981559753418e-01 -7.168526947498321533e-02 -2.769934237003326416e-01 2.199118025600910187e-02
2.934000000000000000e+03 4.330236053466796875e+01 3.916682720184326172e+00 -7.547547221183776855e-01 -1.776206344366073608e-01 -2.797125875949859619e-01 6.123989447951316833e-02
2.935000000000000000e+03 6.292805862426757812e+01 -2.481065368652343750e+01 4.934065043926239014e-02 1.196628689765930176e+00 3.737908005714416504e-01 -1.346561461687088013e-01
2.936000000000000000e+03 2.037334060668945312e+01 -2.543006324768066406e+01 2.147948294878005981e-01 1.546507924795150757e-01 1.108336895704269409e-01 -1.324926912784576416e-01
2.937000000000000000e+03 1.958406448364257812e+01 -2.563456344604492188e+01 2.015238702297210693e-01 1.384063810110092163e-01 1.019790768623352051e-01 -2.020696550607681274e-01
2.938000000000000000e+03 1.078084945678710938e+01 -3.328022003173828125e+01 -8.063791692256927490e-02 -2.218542546033859253e-01 -9.074764698743820190e-02 -1.539508104324340820e-01
2.939000000000000000e+03 7.821439361572265625e+01 -2.003260612487792969e+01 -4.598662629723548889e-02 9.353728294372558594e+00 2.792322635650634766e+00 1.207229495048522949e+00
2.940000000000000000e+03 4.849756240844726562e+01 -1.509140110015869141e+01 -8.023942708969116211e-01 -2.103219628334045410e-01 -3.038148581981658936e-01 -4.068675935268402100e-01
2.941000000000000000e+03 3.471884536743164062e+01 -1.129106235504150391e+01 -1.817478537559509277e-01 1.208384037017822266e-01 -1.827283389866352081e-02 -8.022595942020416260e-02
2.942000000000000000e+03 1.568625545501708984e+01 -2.069206619262695312e+01 -3.403830528259277344e-01 -3.513127267360687256e-01 -2.075087279081344604e-01 -2.500477433204650879e-01
2.943000000000000000e+03 3.698928833007812500e+01 -2.837130737304687500e+01 -9.204801172018051147e-02 -3.157209157943725586e-01 -1.223306804895401001e-01 -2.425395697355270386e-01
2.944000000000000000e+03 6.231034469604492188e+01 -5.882978439331054688e+00 -4.293511062860488892e-02 -6.822956353425979614e-02 -3.334940224885940552e-02 8.448117412626743317e-03
2.945000000000000000e+03 2.566903877258300781e+01 -3.075774765014648438e+01 9.601426869630813599e-02 -2.143425345420837402e-01 -3.549848124384880066e-02 -1.191781535744667053e-01
2.946000000000000000e+03 2.153350257873535156e+01 2.456201171875000000e+01 3.118958175182342529e-01 -2.023615241050720215e-01 3.286028653383255005e-02 2.973481118679046631e-01
2.947000000000000000e+03 4.093946838378906250e+01 -2.114599990844726562e+01 2.156083881855010986e-01 -8.264406770467758179e-02 3.988929837942123413e-02 -5.953234434127807617e-01
2.948000000000000000e+03 4.018013763427734375e+01 -2.132057952880859375e+01 1.775286942720413208e-01 2.818286605179309845e-02 6.171346828341484070e-02 -4.674160480499267578e-01
2.949000000000000000e+03 6.381822204589843750e+01 2.633112907409667969e+01 5.764554142951965332e-01 1.952008605003356934e+00 7.585391998291015625e-01 2.759069502353668213e-01
2.950000000000000000e+03 4.393059921264648438e+01 3.395771026611328125e+01 4.181839525699615479e-01 -4.827622324228286743e-02 1.109723225235939026e-01 -4.863604530692100525e-02
2.951000000000000000e+03 4.113708114624023438e+01 2.112779045104980469e+01 5.474454164505004883e-01 8.399920910596847534e-02 1.894333958625793457e-01 2.513778805732727051e-01
2.952000000000000000e+03 4.369274902343750000e+01 1.446354389190673828e+01 1.061388254165649414e-01 2.809326350688934326e-01 1.161214336752891541e-01 2.135185003280639648e-01
2.953000000000000000e+03 4.884855270385742188e+01 -2.470951271057128906e+01 4.613876342773437500e-01 4.478934407234191895e-01 2.727843225002288818e-01 -3.677041530609130859e-01
2.954000000000000000e+03 4.730247497558593750e+01 -2.420357322692871094e+01 3.684368133544921875e-01 4.860713481903076172e-01 2.563524544239044189e-01 -3.374941051006317139e-01
2.955000000000000000e+03 1.879876017570495605e+00 -1.528634643554687500e+01 -1.399765629321336746e-02 2.125559747219085693e-02 2.177382120862603188e-03 -1.524839922785758972e-02
2.956000000000000000e+03 3.604151535034179688e+01 -6.657066345214843750e+00 -4.426093026995658875e-02 3.730912804603576660e-01 9.864910691976547241e-02 -2.971945405006408691e-01
2.957000000000000000e+03 3.701094818115234375e+01 -6.084496021270751953e+00 -1.238534450531005859e-01 3.861304521560668945e-01 7.868310064077377319e-02 -1.667742133140563965e-01
2.958000000000000000e+03 4.602436447143554688e+01 -1.397177886962890625e+01 -9.723953008651733398e-01 -1.257796883583068848e-01 -3.294524848461151123e-01 -1.602028161287307739e-01
2.959000000000000000e+03 3.609489822387695312e+01 -1.424437713623046875e+01 -6.947187781333923340e-01 4.320300519466400146e-01 -7.880660891532897949e-02 -2.020456492900848389e-01
2.960000000000000000e+03 3.560098266601562500e+01 3.879399871826171875e+01 4.984073936939239502e-01 -4.853890091180801392e-02 1.349605470895767212e-01 2.159447036683559418e-02
2.961000000000000000e+03 5.505535888671875000e+01 1.293141746520996094e+01 4.271182790398597717e-02 2.755298465490341187e-02 2.107944339513778687e-02 -6.093152239918708801e-02
2.962000000000000000e+03 5.537796020507812500e+01 1.615532302856445312e+01 2.384156733751296997e-01 3.810837268829345703e-01 1.858498156070709229e-01 -2.976785302162170410e-01
2.963000000000000000e+03 1.593607425689697266e+01 1.915739631652832031e+01 -2.588300108909606934e-01 -8.263590186834335327e-02 -1.024397760629653931e-01 2.173011898994445801e-01
2.964000000000000000e+03 7.752463531494140625e+01 1.519646835327148438e+01 2.886918783187866211e-01 6.906242370605468750e+00 2.158480167388916016e+00 -4.755894839763641357e-01
2.965000000000000000e+03 7.644144439697265625e+01 1.551394748687744141e+01 5.045449137687683105e-01 6.779845237731933594e+00 2.185317039489746094e+00 -5.507214665412902832e-01
2.966000000000000000e+03 1.266932010650634766e+01 3.688038825988769531e+00 -1.397809088230133057e-01 -7.495313882827758789e-02 -6.442021578550338745e-02 1.352973580360412598e-01
2.967000000000000000e+03 4.563742828369140625e+01 3.382207870483398438e+01 3.737664222717285156e-01 7.557773590087890625e-02 1.348032504320144653e-01 -7.646910846233367920e-02
2.968000000000000000e+03 4.387539672851562500e+01 2.072568893432617188e+01 4.787136614322662354e-01 3.756667673587799072e-01 2.563141286373138428e-01 2.201731503009796143e-01
2.969000000000000000e+03 4.222065353393554688e+01 2.066485404968261719e+01 5.079749822616577148e-01 2.228028178215026855e-01 2.192333340644836426e-01 2.477937638759613037e-01
2.970000000000000000e+03 5.409372711181640625e+01 -3.342899703979492188e+01 3.313596248626708984e-01 8.951418995857238770e-01 3.679504394531250000e-01 -1.672871708869934082e-01
2.971000000000000000e+03 5.846741104125976562e+01 1.462041378021240234e+01 3.163877725601196289e-01 1.360764980316162109e+00 5.031458139419555664e-01 -2.266273349523544312e-01
2.972000000000000000e+03 5.610287475585937500e+01 -3.092728042602539062e+01 2.474434822797775269e-01 1.076764464378356934e+00 3.972623944282531738e-01 2.201823592185974121e-01
2.973000000000000000e+03 5.085956192016601562e+01 -3.089639854431152344e+01 3.672882020473480225e-01 4.258273839950561523e-01 2.379346787929534912e-01 -3.059904277324676514e-01
2.974000000000000000e+03 2.967240905761718750e+01 1.492123603820800781e+01 -5.492815747857093811e-02 4.969106018543243408e-01 1.325947344303131104e-01 5.139577984809875488e-01
2.975000000000000000e+03 5.021866989135742188e+01 -2.733279037475585938e+01 3.561099171638488770e-01 3.400377929210662842e-01 2.088443040847778320e-01 -3.223352134227752686e-01
2.976000000000000000e+03 4.938586044311523438e+01 -2.758739852905273438e+01 3.685171604156494141e-01 3.902624845504760742e-01 2.276338934898376465e-01 -3.220590054988861084e-01
2.977000000000000000e+03 5.284450531005859375e+01 2.650736045837402344e+01 2.710746228694915771e-01 1.067022800445556641e+00 4.014292061328887939e-01 -2.052907459437847137e-02
2.978000000000000000e+03 6.851930141448974609e+00 3.562742614746093750e+01 1.646417081356048584e-01 -6.344494223594665527e-02 3.035902790725231171e-02 1.016144547611474991e-02
2.979000000000000000e+03 3.736622238159179688e+01 -1.160107994079589844e+01 -2.680261135101318359e-01 6.303324103355407715e-01 1.086918935179710388e-01 -1.110982596874237061e-01
2.980000000000000000e+03 2.812496566772460938e+01 1.478011798858642578e+01 -3.019604384899139404e-01 5.515379831194877625e-02 -7.404199242591857910e-02 2.276874929666519165e-01
2.981000000000000000e+03 2.968413543701171875e+01 1.180714035034179688e+01 -2.450481243431568146e-02 6.421665549278259277e-01 1.852985173463821411e-01 3.068442344665527344e-01
2.982000000000000000e+03 2.970929908752441406e+01 -1.264768981933593750e+01 -3.930676877498626709e-01 -3.457292318344116211e-01 -2.216390818357467651e-01 -1.423268914222717285e-01
2.983000000000000000e+03 2.977420616149902344e+01 -1.478191661834716797e+01 -4.702959358692169189e-01 -2.568468153476715088e-01 -2.181428223848342896e-01 -1.562092006206512451e-01
2.984000000000000000e+03 2.412115287780761719e+01 -2.465552139282226562e+01 1.690632104873657227e-01 -8.193133771419525146e-02 2.613956294953823090e-02 -1.164166256785392761e-01
2.985000000000000000e+03 1.714171791076660156e+01 5.094493865966796875e+00 -2.079161256551742554e-01 7.870862632989883423e-02 -3.876224905252456665e-02 2.303326576948165894e-01
2.986000000000000000e+03 1.687338638305664062e+01 5.760728836059570312e+00 -1.311731338500976562e-01 1.033744588494300842e-01 -8.339601568877696991e-03 2.116256654262542725e-01
2.987000000000000000e+03 3.264714813232421875e+01 2.428972816467285156e+01 -4.106598198413848877e-01 -7.442898154258728027e-01 -3.464848995208740234e-01 4.118343889713287354e-01
2.988000000000000000e+03 7.762425422668457031e+00 1.291049671173095703e+01 3.035446442663669586e-02 -1.014466956257820129e-01 -2.132766880095005035e-02 2.106841504573822021e-01
2.989000000000000000e+03 1.577869296073913574e+00 2.719909858703613281e+01 -2.905138023197650909e-02 -2.925892770290374756e-01 -9.649219363927841187e-02 9.125610440969467163e-02
2.990000000000000000e+03 5.273835754394531250e+01 -2.566064834594726562e+01 2.158265262842178345e-01 3.683397546410560608e-02 7.579815387725830078e-02 -7.001616060733795166e-02
2.991000000000000000e+03 5.579110336303710938e+01 -2.795288276672363281e+01 3.103561699390411377e-01 5.259810090065002441e-01 2.509011626243591309e-01 2.086085975170135498e-01
2.992000000000000000e+03 6.956988525390625000e+01 -2.671208572387695312e+01 -8.054463267326354980e-01 -8.047103881835937500e-02 -2.657752037048339844e-01 4.359844923019409180e-01
2.993000000000000000e+03 6.945831298828125000e+01 -3.159525489807128906e+01 6.979966163635253906e-01 2.587816715240478516e+00 9.857439994812011719e-01 4.614100158214569092e-01
2.994000000000000000e+03 5.582545471191406250e+01 1.225294303894042969e+01 1.221677139401435852e-01 3.303263485431671143e-01 1.357482224702835083e-01 -1.334970444440841675e-02
2.995000000000000000e+03 2.090070533752441406e+01 2.098346900939941406e+01 -5.154938995838165283e-02 -2.531348764896392822e-01 -9.140527993440628052e-02 1.932187750935554504e-02
2.996000000000000000e+03 4.314670562744140625e+01 -1.424512767791748047e+01 -1.250591278076171875e+00 -2.369013428688049316e-01 -4.462477862834930420e-01 -3.107168897986412048e-02
2.997000000000000000e+03 4.602373504638671875e+01 -1.803471374511718750e+01 -5.360860228538513184e-01 -2.283074706792831421e-01 -2.293180525302886963e-01 -3.759469985961914062e-01
2.998000000000000000e+03 1.727391624450683594e+01 -4.184568405151367188e+01 4.542343318462371826e-01 1.538217365741729736e-01 1.824168264865875244e-01 -1.754826493561267853e-02
2.999000000000000000e+03 4.577556228637695312e+01 2.245091056823730469e+01 5.009540319442749023e-01 4.398320913314819336e-01 2.822358310222625732e-01 3.025020658969879150e-01
3.000000000000000000e+03 1.805189704895019531e+01 1.953153991699218750e+01 -2.468762546777725220e-01 -4.070076718926429749e-02 -8.627311140298843384e-02 8.484800159931182861e-02
3.001000000000000000e+03 1.604370880126953125e+01 2.238811683654785156e+01 3.555901944637298584e-01 2.020629048347473145e-01 1.672959327697753906e-01 2.999305427074432373e-01
3.002000000000000000e+03 9.967782020568847656e+00 1.706440544128417969e+01 2.953966856002807617e-01 1.206588000059127808e-01 1.248166486620903015e-01 1.722237169742584229e-01
3.003000000000000000e+03 6.375819015502929688e+01 2.179462242126464844e+01 7.937124930322170258e-03 7.139081954956054688e-01 2.165535837411880493e-01 4.633792936801910400e-01
3.004000000000000000e+03 6.269066238403320312e+01 2.446048545837402344e+01 5.155065655708312988e-01 1.264037847518920898e+00 5.338633060455322266e-01 5.564453601837158203e-01
3.005000000000000000e+03 1.450333499908447266e+01 1.983052062988281250e+01 -9.385067969560623169e-02 1.058374643325805664e-01 3.596035763621330261e-03 3.758964538574218750e-01
3.006000000000000000e+03 1.474723815917968750e+01 4.959349155426025391e+00 -2.423322498798370361e-01 -3.211630880832672119e-02 -8.233457058668136597e-02 2.832698225975036621e-01
3.007000000000000000e+03 5.124670791625976562e+01 -3.193019866943359375e+01 2.795189619064331055e-01 4.804525077342987061e-01 2.279914468526840210e-01 -2.798429429531097412e-01
3.008000000000000000e+03 6.465174102783203125e+01 -1.082977294921875000e+01 -1.990025520324707031e+00 6.301555633544921875e-01 -4.079610109329223633e-01 4.794501066207885742e-01
3.009000000000000000e+03 5.961297225952148438e+01 -1.029102230072021484e+01 -2.666650772094726562e+00 -1.433585435152053833e-01 -8.430027961730957031e-01 -2.960608303546905518e-01
3.010000000000000000e+03 5.142931747436523438e+01 -1.495088386535644531e+01 -7.086080908775329590e-01 3.011103346943855286e-02 -2.035491168498992920e-01 -7.469468116760253906e-01
3.011000000000000000e+03 4.848516082763671875e+01 1.838900089263916016e+00 -1.105891942977905273e+00 -6.159547343850135803e-02 -3.502462208271026611e-01 4.272780120372772217e-01
3.012000000000000000e+03 4.916565704345703125e+01 2.763361930847167969e+00 -1.215479254722595215e+00 -1.773746013641357422e-01 -4.178561270236968994e-01 6.864969134330749512e-01
3.013000000000000000e+03 4.236676025390625000e+01 -2.716342353820800781e+01 1.861458122730255127e-01 -3.404523432254791260e-02 4.563017189502716064e-02 -1.121648997068405151e-01
3.014000000000000000e+03 4.057133102416992188e+01 -2.507838439941406250e+01 -2.708857953548431396e-01 -5.534352064132690430e-01 -2.472963035106658936e-01 -3.477393090724945068e-01
3.015000000000000000e+03 6.213840484619140625e+01 -3.957683181762695312e+01 1.189694166183471680e+00 4.868522584438323975e-01 5.029639005661010742e-01 7.110629975795745850e-02
3.016000000000000000e+03 6.076205825805664062e+01 -2.554757881164550781e+01 1.483516097068786621e-01 3.050323724746704102e-01 1.360151916742324829e-01 3.798159360885620117e-01
3.017000000000000000e+03 1.281540966033935547e+01 -3.704130172729492188e+01 1.133511066436767578e-01 -1.099711433053016663e-01 1.013989211060106754e-03 -8.700117468833923340e-02
3.018000000000000000e+03 1.237630844116210938e+01 -4.027916336059570312e+01 2.472697645425796509e-01 -1.059186533093452454e-01 4.240533336997032166e-02 -5.414569377899169922e-02
3.019000000000000000e+03 6.735166168212890625e+01 -3.362764358520507812e+01 4.296245872974395752e-01 2.616782903671264648e+00 9.139222502708435059e-01 1.774136275053024292e-01
3.020000000000000000e+03 3.797373962402343750e+01 -3.138823318481445312e+01 -7.868959754705429077e-02 -3.703359663486480713e-01 -1.347076743841171265e-01 -2.554734051227569580e-01
3.021000000000000000e+03 4.544841384887695312e+01 -2.660385322570800781e+01 3.596813380718231201e-01 2.317558676004409790e-01 1.774311661720275879e-01 -2.156536877155303955e-01
3.022000000000000000e+03 7.824447631835937500e+01 -3.255988597869873047e+00 -8.387449383735656738e-02 9.719520568847656250e+00 2.890693664550781250e+00 1.690345644950866699e+00
3.023000000000000000e+03 3.574406051635742188e+01 -7.432310104370117188e+00 8.060257136821746826e-02 3.068770170211791992e-01 1.162438839673995972e-01 -2.971178889274597168e-01
3.024000000000000000e+03 6.393183135986328125e+01 3.568161392211914062e+01 4.319253861904144287e-01 2.070008754730224609e+00 7.505801916122436523e-01 -5.131599903106689453e-01
3.025000000000000000e+03 1.607305526733398438e+01 -1.944812655448913574e+00 4.891785327345132828e-03 8.571743033826351166e-03 4.039058461785316467e-03 -7.746831513941287994e-03
3.026000000000000000e+03 5.617793655395507812e+01 -1.837797355651855469e+01 5.102865099906921387e-01 -8.627465367317199707e-02 1.272035539150238037e-01 -3.669789433479309082e-01
3.027000000000000000e+03 5.545841979980468750e+01 -1.843809509277343750e+01 5.055326223373413086e-01 9.401901811361312866e-02 1.798654794692993164e-01 -4.566934704780578613e-01
3.028000000000000000e+03 3.620905303955078125e+01 3.342290115356445312e+01 5.289434790611267090e-01 3.094552829861640930e-02 1.679667085409164429e-01 1.896972209215164185e-01
3.029000000000000000e+03 3.344327163696289062e+01 3.206807708740234375e+01 2.951099276542663574e-01 -3.190675079822540283e-01 -7.187273353338241577e-03 1.935285329818725586e-01
3.030000000000000000e+03 2.061978912353515625e+01 9.929257392883300781e+00 1.153088584542274475e-01 -1.139204502105712891e-01 4.165226710028946400e-04 1.025613248348236084e-01
3.031000000000000000e+03 2.154299354553222656e+01 1.215550136566162109e+01 1.720691099762916565e-02 -1.862226277589797974e-01 -5.070471763610839844e-02 1.935381069779396057e-02
3.032000000000000000e+03 1.313233661651611328e+01 -1.220279598236083984e+01 -5.044676735997200012e-02 6.613256782293319702e-02 4.705739673227071762e-03 -3.669824078679084778e-02
3.033000000000000000e+03 6.274800109863281250e+01 7.129327774047851562e+00 5.107924342155456543e-01 1.045212984085083008e+00 4.668016135692596436e-01 -7.068939208984375000e-01
3.034000000000000000e+03 9.985770225524902344e+00 8.118055343627929688e+00 -2.593893408775329590e-01 -2.281537503004074097e-01 -1.462629288434982300e-01 1.828476786613464355e-01
3.035000000000000000e+03 3.362397003173828125e+01 2.835633659362792969e+01 -1.103546842932701111e-01 -5.030578970909118652e-01 -1.840237826108932495e-01 2.054893970489501953e-01
3.036000000000000000e+03 1.134931755065917969e+01 -3.452283859252929688e+01 -2.248279377818107605e-02 -2.254578918218612671e-01 -7.438220828771591187e-02 -1.413990259170532227e-01
3.037000000000000000e+03 1.145873165130615234e+01 -3.553561019897460938e+01 1.149752177298069000e-02 -1.967544853687286377e-01 -5.557709187269210815e-02 -1.344387233257293701e-01
3.038000000000000000e+03 9.926139831542968750e+00 -3.087642908096313477e+00 7.268736604601144791e-03 -8.426712825894355774e-03 -3.473928954917937517e-04 -1.131901890039443970e-02
3.039000000000000000e+03 3.030196952819824219e+01 1.314949417114257812e+01 -2.800463736057281494e-01 6.528275609016418457e-01 1.118343546986579895e-01 4.145194590091705322e-01
3.040000000000000000e+03 3.733366012573242188e+01 2.169237709045410156e+01 8.940392732620239258e-02 -5.598831772804260254e-01 -1.411437690258026123e-01 3.930930197238922119e-01
3.041000000000000000e+03 5.833010101318359375e+01 -2.725752639770507812e+01 3.294279277324676514e-01 5.890022516250610352e-01 2.755290567874908447e-01 3.877990543842315674e-01
3.042000000000000000e+03 5.498985290527343750e+01 -2.500263023376464844e+01 1.043726801872253418e-01 1.489478796720504761e-01 7.599616795778274536e-02 1.420647799968719482e-01
3.043000000000000000e+03 6.207835769653320312e+01 -2.563401985168457031e+01 6.100938469171524048e-02 6.448355913162231445e-01 2.117535024881362915e-01 -1.330192685127258301e-01
3.044000000000000000e+03 6.721665191650390625e+01 -2.664503860473632812e+01 -6.336409449577331543e-01 9.518573284149169922e-01 9.546491503715515137e-02 -4.572840929031372070e-01
3.045000000000000000e+03 4.078116989135742188e+01 7.383047103881835938e+00 -4.466625750064849854e-01 -4.150381088256835938e-01 -2.585102021694183350e-01 6.328797936439514160e-01
3.046000000000000000e+03 4.449795150756835938e+01 9.740040779113769531e+00 -6.834475398063659668e-01 -3.095764815807342529e-01 -2.979072034358978271e-01 6.200081706047058105e-01
3.047000000000000000e+03 5.480618286132812500e+01 -2.835408973693847656e+01 3.318478465080261230e-01 4.892089068889617920e-01 2.463170289993286133e-01 7.421941310167312622e-02
3.048000000000000000e+03 5.615031433105468750e+01 -2.905303955078125000e+01 3.120531141757965088e-01 7.175746560096740723e-01 3.088883161544799805e-01 2.597379088401794434e-01
3.049000000000000000e+03 2.232575798034667969e+01 -1.455299663543701172e+01 -4.656009674072265625e-01 -1.286436468362808228e-01 -1.782733798027038574e-01 -1.070647388696670532e-01
3.050000000000000000e+03 2.176651191711425781e+01 -1.598448276519775391e+01 -3.126946091651916504e-01 -1.065151840448379517e-01 -1.257629394531250000e-01 -1.816787421703338623e-01
3.051000000000000000e+03 3.652061462402343750e+01 3.671541213989257812e+01 5.349696278572082520e-01 4.331728443503379822e-02 1.734860688447952271e-01 3.877544403076171875e-02
3.052000000000000000e+03 6.342334747314453125e+01 -2.279712486267089844e+01 4.554738700389862061e-01 1.758597612380981445e+00 6.642214655876159668e-01 2.447002194821834564e-02
3.053000000000000000e+03 5.648756790161132812e+01 -2.084493255615234375e+01 1.667571216821670532e-01 4.436456039547920227e-02 6.333650648593902588e-02 -8.815819025039672852e-02
3.054000000000000000e+03 4.342538452148437500e+01 -1.494536876678466797e+01 -8.928083777427673340e-01 -2.418845891952514648e-01 -3.404078781604766846e-01 -7.911985367536544800e-02
3.055000000000000000e+03 2.510609245300292969e+01 1.411898136138916016e+01 -2.177046537399291992e-01 -1.736298650503158569e-01 -1.174003556370735168e-01 7.932506501674652100e-02
3.056000000000000000e+03 2.044510078430175781e+01 2.971499824523925781e+01 -1.502763479948043823e-01 -5.183774828910827637e-01 -2.005961537361145020e-01 1.637379676103591919e-01
3.057000000000000000e+03 7.068829536437988281e+00 3.655248641967773438e+01 1.023190766572952271e-01 -5.466259270906448364e-02 1.429694518446922302e-02 -1.920450245961546898e-03
3.058000000000000000e+03 6.455824279785156250e+01 2.576361846923828125e+01 5.966786742210388184e-01 1.785285592079162598e+00 7.145892977714538574e-01 7.866298407316207886e-02
3.059000000000000000e+03 1.598578357696533203e+01 -9.205322265625000000e+00 -4.637083411216735840e-02 4.030931368470191956e-02 -1.818456104956567287e-03 2.295498922467231750e-02
3.060000000000000000e+03 5.614344406127929688e+01 9.177529335021972656e+00 4.198999702930450439e-01 3.648478984832763672e-01 2.354243695735931396e-01 4.504752159118652344e-01
3.061000000000000000e+03 6.774417877197265625e+01 -3.066473770141601562e+01 7.911888957023620605e-01 1.979718804359436035e+00 8.312723040580749512e-01 -1.182405129075050354e-01
3.062000000000000000e+03 4.582700347900390625e+01 1.998193931579589844e+01 3.669951558113098145e-01 4.380359053611755371e-01 2.415093183517456055e-01 2.181304544210433960e-01
3.063000000000000000e+03 1.108325600624084473e+00 -2.724134683609008789e+00 1.285061473026871681e-03 5.639563780277967453e-03 2.077387645840644836e-03 4.737038630992174149e-03
3.064000000000000000e+03 7.763695526123046875e+01 -2.091550445556640625e+01 1.751711815595626831e-01 8.832518577575683594e+00 2.702306985855102539e+00 1.374069571495056152e+00
3.065000000000000000e+03 7.821752929687500000e+01 -1.839934921264648438e+01 -2.874305248260498047e-01 1.002463150024414062e+01 2.921160221099853516e+00 9.172958135604858398e-01
3.066000000000000000e+03 4.016920471191406250e+01 7.987564086914062500e+00 -5.148059725761413574e-01 -5.448064804077148438e-01 -3.178837299346923828e-01 7.031838297843933105e-01
3.067000000000000000e+03 3.290104293823242188e+01 2.343386077880859375e+01 -2.797604203224182129e-01 -6.971931457519531250e-01 -2.930860519409179688e-01 3.953184187412261963e-01
3.068000000000000000e+03 5.329064559936523438e+01 6.097952365875244141e+00 3.021824955940246582e-01 7.020446658134460449e-01 3.012681305408477783e-01 5.429591536521911621e-01
3.069000000000000000e+03 2.102947044372558594e+01 2.891128349304199219e+01 -2.745924703776836395e-02 -3.029175400733947754e-01 -9.911303967237472534e-02 2.088151276111602783e-01
3.070000000000000000e+03 6.049447631835937500e+01 1.106419754028320312e+01 7.792544364929199219e-01 2.342661857604980469e+00 9.365748763084411621e-01 -6.370536684989929199e-01
3.071000000000000000e+03 5.884573364257812500e+01 1.113001441955566406e+01 6.206206083297729492e-01 1.300120234489440918e+00 5.762222409248352051e-01 -1.390901207923889160e-01
3.072000000000000000e+03 7.288771057128906250e+01 9.692744255065917969e+00 -5.397049784660339355e-01 5.736930847167968750e+00 1.559167742729187012e+00 -9.502367377281188965e-01
3.073000000000000000e+03 7.817458343505859375e+01 8.660649299621582031e+00 -9.789004176855087280e-02 8.984905242919921875e+00 2.666104555130004883e+00 -8.393564820289611816e-01
3.074000000000000000e+03 3.423003005981445312e+01 3.267393493652343750e+01 3.655214011669158936e-01 -2.252349853515625000e-01 4.208591952919960022e-02 1.728761643171310425e-01
3.075000000000000000e+03 2.049161338806152344e+01 3.228749465942382812e+01 -7.674822956323623657e-02 -3.647314012050628662e-01 -1.324438899755477905e-01 3.803569450974464417e-02
3.076000000000000000e+03 1.714879608154296875e+01 -1.696466064453125000e+01 -2.600565180182456970e-02 -7.642220240086317062e-03 -1.009436137974262238e-02 -1.955469548702239990e-01
3.077000000000000000e+03 1.746927833557128906e+01 -1.383327674865722656e+01 -8.643575012683868408e-02 4.562157019972801208e-02 -1.224425341933965683e-02 4.598496016114950180e-03
3.078000000000000000e+03 5.093604278564453125e+01 5.010443687438964844e+00 -1.139011144638061523e+00 5.810206010937690735e-02 -3.242727518081665039e-01 1.028601408004760742e+00
3.079000000000000000e+03 5.280412292480468750e+01 3.521297931671142578e+00 -1.447427868843078613e+00 2.253833860158920288e-01 -3.666133582592010498e-01 7.861129045486450195e-01
3.080000000000000000e+03 1.719485282897949219e+01 -1.838468742370605469e+01 -1.079353168606758118e-01 -6.869494169950485229e-02 -5.298907682299613953e-02 -2.868604958057403564e-01
3.081000000000000000e+03 9.977117538452148438e+00 1.993603897094726562e+01 3.759954124689102173e-02 -1.172774937003850937e-02 7.761537097394466400e-03 1.747434586286544800e-01
3.082000000000000000e+03 2.064898300170898438e+01 7.399483680725097656e+00 1.699293106794357300e-01 -1.197989359498023987e-01 1.503911335021257401e-02 9.447264671325683594e-02
3.083000000000000000e+03 4.103927612304687500e+01 -2.199348068237304688e+01 1.365055739879608154e-01 -1.827653199434280396e-01 -1.387792360037565231e-02 -5.923292040824890137e-01
3.084000000000000000e+03 6.563769531250000000e+01 -2.927052879333496094e+01 6.248382925987243652e-01 2.090128421783447266e+00 8.144900202751159668e-01 -7.259178161621093750e-01
3.085000000000000000e+03 6.557724761962890625e+01 -2.828485679626464844e+01 1.874209791421890259e-01 1.810063362121582031e+00 5.992453098297119141e-01 -6.905496120452880859e-01
3.086000000000000000e+03 8.694067001342773438e+00 1.547855854034423828e+01 2.113920748233795166e-01 -1.153946667909622192e-02 5.995578318834304810e-02 1.747520118951797485e-01
3.087000000000000000e+03 8.660569190979003906e+00 1.428243732452392578e+01 1.360125541687011719e-01 -1.600816845893859863e-02 3.600131347775459290e-02 2.014685422182083130e-01
3.088000000000000000e+03 4.042100524902343750e+01 -1.948515892028808594e+01 2.945045530796051025e-01 1.828555613756179810e-01 1.432080268859863281e-01 -5.053364634513854980e-01
3.089000000000000000e+03 4.642415618896484375e+01 -1.904640769958496094e+01 -2.121049314737319946e-01 -2.778257131576538086e-01 -1.469791978597640991e-01 -3.508271872997283936e-01
3.090000000000000000e+03 2.763011932373046875e+01 -2.308066749572753906e+01 7.673619687557220459e-02 -1.532408744096755981e-01 -2.295140363276004791e-02 -1.289773136377334595e-01
3.091000000000000000e+03 2.325990104675292969e+01 -2.719417190551757812e+01 3.272661268711090088e-01 -2.190356701612472534e-02 9.160876274108886719e-02 -1.309007555246353149e-01
3.092000000000000000e+03 5.072792434692382812e+01 -3.327369308471679688e+01 1.500559300184249878e-01 4.347141385078430176e-01 1.754310280084609985e-01 -1.892481744289398193e-01
3.093000000000000000e+03 3.681021499633789062e+01 -1.127024269104003906e+01 -1.717669069766998291e-01 5.767796039581298828e-01 1.215038076043128967e-01 -1.183165684342384338e-01
3.094000000000000000e+03 5.773520660400390625e+01 -1.212884330749511719e+01 -1.635424017906188965e+00 -6.226064562797546387e-01 -6.774091124534606934e-01 -1.445824503898620605e-01
3.095000000000000000e+03 7.813145446777343750e+01 -5.450989246368408203e+00 5.692577362060546875e-01 9.563725471496582031e+00 3.039894819259643555e+00 1.280303120613098145e+00
3.096000000000000000e+03 4.816173934936523438e+01 -2.812672424316406250e+01 3.994210958480834961e-01 3.960266113281250000e-01 2.386343181133270264e-01 -3.245868384838104248e-01
3.097000000000000000e+03 1.635093092918395996e+00 2.498390388488769531e+01 -3.081576898694038391e-02 -2.341628670692443848e-01 -7.949358969926834106e-02 1.479600183665752411e-02
3.098000000000000000e+03 4.437231063842773438e+01 9.190114974975585938e+00 -7.885577082633972168e-01 -3.040381371974945068e-01 -3.277787566184997559e-01 6.286924481391906738e-01
3.099000000000000000e+03 1.739175558090209961e+00 2.344308280944824219e+01 -1.781421341001987457e-02 -2.321103811264038086e-01 -7.497738301753997803e-02 -2.330629713833332062e-02
3.100000000000000000e+03 5.351277351379394531e+00 2.440212249755859375e+01 -1.437838524580001831e-01 -4.566715061664581299e-01 -1.801366060972213745e-01 1.114124283194541931e-01
3.101000000000000000e+03 2.025934219360351562e+01 1.809139823913574219e+01 -2.920750975608825684e-01 -1.642072945833206177e-01 -1.368847191333770752e-01 8.966921269893646240e-02
3.102000000000000000e+03 1.929271316528320312e+01 1.800923156738281250e+01 -3.494985699653625488e-01 -1.224804818630218506e-01 -1.415937095880508423e-01 1.154887974262237549e-01
3.103000000000000000e+03 6.319435882568359375e+01 -6.729676246643066406e+00 -1.982447952032089233e-01 -6.863152235746383667e-02 -8.006289601325988770e-02 1.880762912333011627e-02
3.104000000000000000e+03 6.141683578491210938e+01 -8.567171096801757812e+00 -1.247017621994018555e+00 1.438829898834228516e-01 -3.309403955936431885e-01 -4.972007274627685547e-01
3.105000000000000000e+03 3.860861206054687500e+01 2.144165992736816406e+01 2.273123860359191895e-01 -4.201102256774902344e-01 -5.783934891223907471e-02 3.743965625762939453e-01
3.106000000000000000e+03 3.920554733276367188e+01 1.952904510498046875e+01 3.789423704147338867e-01 -3.767886757850646973e-01 6.461066659539937973e-04 4.367253184318542480e-01
3.107000000000000000e+03 3.436249542236328125e+01 1.362695980072021484e+01 -4.515382945537567139e-01 -3.308535218238830566e-01 -2.347175478935241699e-01 4.668267369270324707e-01
3.108000000000000000e+03 5.197579193115234375e+01 -2.566435813903808594e+01 3.031265437602996826e-01 4.180106148123741150e-02 1.034782826900482178e-01 -1.756933629512786865e-01
3.109000000000000000e+03 5.258872222900390625e+01 -2.643627357482910156e+01 3.244116306304931641e-01 1.313813030719757080e-01 1.367378830909729004e-01 -1.381108611822128296e-01
3.110000000000000000e+03 4.424755859375000000e+01 -1.470203208923339844e+01 -1.021623611450195312e+00 -2.149334251880645752e-01 -3.709670901298522949e-01 -6.076668947935104370e-02
3.111000000000000000e+03 3.756817245483398438e+01 -3.365524673461914062e+01 4.134430736303329468e-02 -2.077995538711547852e-01 -4.993657395243644714e-02 -3.437352180480957031e-01
3.112000000000000000e+03 3.015877342224121094e+01 1.151762962341308594e+00 -7.635503411293029785e-01 2.543066442012786865e-01 -1.527731120586395264e-01 -5.557371675968170166e-02
3.113000000000000000e+03 4.662033843994140625e+01 2.478034782409667969e+01 3.613867163658142090e-01 4.613196849822998047e-01 2.468119114637374878e-01 3.191704154014587402e-01
3.114000000000000000e+03 4.778786849975585938e+01 -7.369834423065185547e+00 -5.797984078526496887e-02 5.810192227363586426e-01 1.569118201732635498e-01 1.217341795563697815e-01
3.115000000000000000e+03 4.167148590087890625e+01 -1.472998332977294922e+01 -8.787713050842285156e-01 -1.226795688271522522e-01 -3.004352450370788574e-01 -1.364933401346206665e-01
3.116000000000000000e+03 3.323857879638671875e+01 2.643290138244628906e+01 -3.821099400520324707e-01 -5.958214402198791504e-01 -2.933794260025024414e-01 3.324106931686401367e-01
3.117000000000000000e+03 3.464285278320312500e+01 2.513158988952636719e+01 -4.267059266567230225e-01 -5.827615261077880859e-01 -3.028402328491210938e-01 3.722529113292694092e-01
3.118000000000000000e+03 2.143098449707031250e+01 1.068077182769775391e+01 8.346415311098098755e-02 -1.531027853488922119e-01 -2.089158818125724792e-02 7.246361672878265381e-02
3.119000000000000000e+03 5.735903930664062500e+01 -1.067546272277832031e+01 -3.317069053649902344e+00 -7.854782938957214355e-01 -1.230764269828796387e+00 -7.083481550216674805e-02
3.120000000000000000e+03 5.829043960571289062e+01 -1.123743152618408203e+01 -2.417820215225219727e+00 -6.498168110847473145e-01 -9.202911257743835449e-01 -4.273683577775955200e-02
3.121000000000000000e+03 6.456015777587890625e+01 2.707988739013671875e+01 4.582083523273468018e-01 2.120522260665893555e+00 7.736191749572753906e-01 8.077043294906616211e-02
3.122000000000000000e+03 6.384238815307617188e+01 2.703960609436035156e+01 4.235873818397521973e-01 2.160007953643798828e+00 7.750785946846008301e-01 2.877067923545837402e-01
3.123000000000000000e+03 5.023653030395507812e+01 5.098218917846679688e+00 -1.176100015640258789e+00 -4.206074476242065430e-01 -4.790122509002685547e-01 1.034134387969970703e+00
3.124000000000000000e+03 5.145343017578125000e+01 3.224449157714843750e+00 -1.470911145210266113e+00 7.360620796680450439e-02 -4.191914796829223633e-01 9.567272663116455078e-01
3.125000000000000000e+03 4.944459533691406250e+01 -2.845664978027343750e+01 3.915914297103881836e-01 3.871004283428192139e-01 2.336075603961944580e-01 -3.209306299686431885e-01
3.126000000000000000e+03 5.461385726928710938e+01 5.487449169158935547e+00 -2.225684523582458496e-01 2.844651639461517334e-01 1.856901310384273529e-02 3.694424331188201904e-01
3.127000000000000000e+03 5.451220703125000000e+01 6.947362422943115234e+00 6.711668968200683594e-01 4.540349841117858887e-01 3.375605642795562744e-01 4.684941172599792480e-01
3.128000000000000000e+03 3.668339157104492188e+01 1.245105171203613281e+01 -9.738003015518188477e-01 -9.119671583175659180e-01 -5.657302737236022949e-01 6.381997466087341309e-01
3.129000000000000000e+03 3.416679763793945312e+01 1.820830726623535156e+01 3.396798968315124512e-01 -4.278441071510314941e-01 -2.644926123321056366e-02 5.655409097671508789e-01
3.130000000000000000e+03 6.523919677734375000e+01 -1.666288375854492188e+01 1.227197408676147461e+00 2.211914062500000000e+00 1.031733393669128418e+00 5.980780124664306641e-01
3.131000000000000000e+03 3.143703842163085938e+01 -2.835981559753417969e+01 2.880369126796722412e-01 1.004600152373313904e-01 1.165490821003913879e-01 -1.577048152685165405e-01
3.132000000000000000e+03 2.609089851379394531e+01 -3.170845222473144531e+01 4.490112513303756714e-02 -2.325544655323028564e-01 -5.629600211977958679e-02 -1.071108281612396240e-01
3.133000000000000000e+03 6.336285400390625000e+01 -1.815746879577636719e+01 9.302385449409484863e-01 1.750017642974853516e+00 8.040768504142761230e-01 4.392794072628021240e-01
3.134000000000000000e+03 1.080726623535156250e+01 -1.063773632049560547e+01 -5.907217785716056824e-02 -2.024626359343528748e-02 -2.379553206264972687e-02 -4.807076975703239441e-02
3.135000000000000000e+03 3.037694168090820312e+01 -1.060320091247558594e+01 -2.569983601570129395e-01 -4.635034501552581787e-01 -2.161505520343780518e-01 -1.349676102399826050e-01
3.136000000000000000e+03 3.637785339355468750e+01 -8.408559799194335938e+00 2.058905065059661865e-01 5.226997733116149902e-01 2.185770869255065918e-01 -2.605563998222351074e-01
3.137000000000000000e+03 7.678106307983398438e+00 -2.355072784423828125e+01 9.032955765724182129e-02 4.760152846574783325e-02 4.137932509183883667e-02 -3.260828554630279541e-02
3.138000000000000000e+03 8.467537879943847656e+00 1.121625614166259766e+01 -1.120075881481170654e-01 -1.504642069339752197e-01 -7.874154299497604370e-02 1.925363242626190186e-01
3.139000000000000000e+03 1.315516471862792969e+01 1.921996688842773438e+01 -4.002977907657623291e-02 2.331475466489791870e-01 5.793533101677894592e-02 3.144191801548004150e-01
3.140000000000000000e+03 5.234150695800781250e+01 2.743640136718750000e+01 2.217603623867034912e-01 1.093821525573730469e+00 3.946745693683624268e-01 2.638668380677700043e-02
3.141000000000000000e+03 4.783884429931640625e+01 2.352833938598632812e+01 4.060021638870239258e-01 4.128519594669342041e-01 2.456562370061874390e-01 2.816525995731353760e-01
3.142000000000000000e+03 4.101450729370117188e+01 -2.279211807250976562e+01 1.190658472478389740e-02 -2.879369854927062988e-01 -8.280912041664123535e-02 -5.740075707435607910e-01
3.143000000000000000e+03 5.441165542602539062e+01 -3.469881820678710938e+01 4.254185855388641357e-01 9.500954151153564453e-01 4.126542210578918457e-01 -1.535925716161727905e-01
3.144000000000000000e+03 1.024641513824462891e+01 -1.130684375762939453e+01 -6.291139125823974609e-02 -3.737614676356315613e-02 -3.008626028895378113e-02 -4.792642593383789062e-02
3.145000000000000000e+03 9.085658073425292969e+00 -1.163006019592285156e+01 -7.536846399307250977e-02 -7.040867954492568970e-02 -4.373314231634140015e-02 -3.620645776391029358e-02
3.146000000000000000e+03 5.966730117797851562e+01 -1.099752330780029297e+01 -2.354475975036621094e+00 -8.409455418586730957e-02 -7.315711379051208496e-01 -5.694657936692237854e-02
3.147000000000000000e+03 1.209257602691650391e+01 -3.742701721191406250e+01 1.309151351451873779e-01 -1.314089745283126831e-01 -1.481529179727658629e-04 -1.142973229289054871e-01
3.148000000000000000e+03 4.612565040588378906e+00 -2.161320114135742188e+01 8.150954544544219971e-02 -5.046192929148674011e-02 9.314283728599548340e-03 -4.520336166024208069e-02
3.149000000000000000e+03 2.130522727966308594e+01 2.521674728393554688e+01 3.553818762302398682e-01 -2.016614824533462524e-01 4.611612111330032349e-02 3.713638484477996826e-01
3.150000000000000000e+03 7.920365333557128906e+00 2.265329170227050781e+01 -2.121434807777404785e-01 -2.712814807891845703e-01 -1.450274884700775146e-01 1.499482691287994385e-01
3.151000000000000000e+03 5.214840316772460938e+01 -5.824622154235839844e+00 -2.490589767694473267e-01 -4.465353488922119141e-01 -2.086782902479171753e-01 3.362529873847961426e-01
3.152000000000000000e+03 4.034667968750000000e+01 -2.368419075012207031e+01 -1.173729747533798218e-01 -6.181889176368713379e-01 -2.206685841083526611e-01 -4.833937287330627441e-01
3.153000000000000000e+03 4.134367370605468750e+01 -2.701330184936523438e+01 4.867095872759819031e-02 -3.107693195343017578e-01 -7.862950861454010010e-02 -1.722342073917388916e-01
3.154000000000000000e+03 4.260863113403320312e+01 -2.560640525817871094e+01 7.673341315239667892e-03 -1.567326486110687256e-02 -2.399977296590805054e-03 -3.080182373523712158e-01
3.155000000000000000e+03 5.424256134033203125e+01 -1.623090553283691406e+01 1.706284582614898682e-01 3.279095888137817383e-01 1.495614200830459595e-01 -3.705945312976837158e-01
3.156000000000000000e+03 5.421678161621093750e+01 -1.551526927947998047e+01 -2.049212604761123657e-01 2.679032683372497559e-01 1.889460533857345581e-02 -4.604849517345428467e-01
3.157000000000000000e+03 6.060421371459960938e+01 8.478613853454589844e+00 5.560683012008666992e-01 1.308727741241455078e+00 5.594388246536254883e-01 -3.755127489566802979e-01
3.158000000000000000e+03 3.655675888061523438e+01 1.406769943237304688e+01 -2.510846555233001709e-01 -8.261205554008483887e-01 -3.231615424156188965e-01 5.166066884994506836e-01
3.159000000000000000e+03 9.557719230651855469e+00 8.804660797119140625e+00 -2.388325929641723633e-01 -2.345557063817977905e-01 -1.420164853334426880e-01 1.711912602186203003e-01
3.160000000000000000e+03 7.841049957275390625e+01 -9.546819686889648438e+00 5.610138177871704102e-01 8.902853965759277344e+00 2.839160442352294922e+00 -1.571854114532470703e+00
3.161000000000000000e+03 5.628605651855468750e+01 8.551731109619140625e+00 5.057448148727416992e-01 3.177783787250518799e-01 2.470569610595703125e-01 4.910492599010467529e-01
3.162000000000000000e+03 5.559016036987304688e+01 8.303961753845214844e+00 5.466699004173278809e-01 2.368115335702896118e-01 2.350444346666336060e-01 5.212383270263671875e-01
3.163000000000000000e+03 1.360915279388427734e+01 6.014647960662841797e+00 -3.359878063201904297e-01 -2.013451159000396729e-01 -1.611998826265335083e-01 2.421957403421401978e-01
3.164000000000000000e+03 6.836415100097656250e+01 -1.227997303009033203e+01 -2.552349567413330078e+00 -1.188459277153015137e+00 -1.122242689132690430e+00 1.175948739051818848e+00
3.165000000000000000e+03 6.054868316650390625e+01 -4.092752838134765625e+01 1.155767560005187988e+00 5.301502943038940430e-01 5.057753324508666992e-01 -1.087151616811752319e-01
3.166000000000000000e+03 6.437256622314453125e+01 -8.286969184875488281e+00 -7.630203962326049805e-01 6.497165560722351074e-02 -2.094146162271499634e-01 3.225169777870178223e-01
3.167000000000000000e+03 6.297270584106445312e+01 -8.635615348815917969e+00 -1.153994202613830566e+00 2.810517251491546631e-01 -2.618827521800994873e-01 2.328362874686717987e-02
3.168000000000000000e+03 5.648710632324218750e+01 -1.074161434173583984e+01 -2.820358514785766602e+00 -6.941117048263549805e-01 -1.054341077804565430e+00 -5.554156005382537842e-02
3.169000000000000000e+03 3.996324920654296875e+01 -2.645895481109619141e+00 -5.315003991127014160e-01 -7.509077340364456177e-02 -1.819773465394973755e-01 9.779423475265502930e-02
3.170000000000000000e+03 4.236389923095703125e+01 1.998201942443847656e+01 4.000398814678192139e-01 2.184457629919052124e-01 1.855456978082656860e-01 2.522121369838714600e-01
3.171000000000000000e+03 3.288723373413085938e+01 -3.052209472656250000e+01 7.304947823286056519e-02 1.180152371525764465e-01 5.731941759586334229e-02 -2.180947512388229370e-01
3.172000000000000000e+03 3.688202285766601562e+01 -3.334475708007812500e+01 3.450494259595870972e-02 -1.705500781536102295e-01 -4.081353917717933655e-02 -3.764416575431823730e-01
3.173000000000000000e+03 6.478855895996093750e+01 2.128156661987304688e+01 -6.416437774896621704e-02 3.333545327186584473e-01 8.075704425573348999e-02 1.888012588024139404e-01
3.174000000000000000e+03 2.806057548522949219e+01 2.985553741455078125e+01 2.649913076311349869e-04 -4.343926310539245605e-01 -1.302382946014404297e-01 4.477815628051757812e-01
3.175000000000000000e+03 2.772388076782226562e+01 2.909028816223144531e+01 -1.178244352340698242e-01 -4.553196132183074951e-01 -1.719432175159454346e-01 4.495427608489990234e-01
3.176000000000000000e+03 3.092058753967285156e+01 -2.776343536376953125e+01 3.050349950790405273e-01 7.269300520420074463e-02 1.133183985948562622e-01 -1.768618673086166382e-01
3.177000000000000000e+03 2.643634414672851562e+01 -3.277823257446289062e+01 1.110185030847787857e-02 -2.518372237682342529e-01 -7.222060859203338623e-02 -8.942844718694686890e-02
3.178000000000000000e+03 5.136650466918945312e+01 -5.202639579772949219e+00 -1.973039954900741577e-01 -2.147409319877624512e-01 -1.236134767532348633e-01 3.225162029266357422e-01
3.179000000000000000e+03 5.027492141723632812e+01 -6.654520034790039062e+00 -3.219007551670074463e-01 -8.607155643403530121e-03 -9.915237873792648315e-02 3.115943670272827148e-01
3.180000000000000000e+03 3.560766220092773438e+01 1.429135990142822266e+01 -1.834543049335479736e-01 -6.858098506927490234e-01 -2.607792615890502930e-01 5.470978617668151855e-01
3.181000000000000000e+03 2.283514976501464844e+01 1.680621147155761719e+01 -2.747327089309692383e-01 -2.621957063674926758e-01 -1.610785275697708130e-01 1.911187022924423218e-01
3.182000000000000000e+03 3.102280235290527344e+01 1.281226253509521484e+01 -2.940610945224761963e-01 6.484616398811340332e-01 1.063201576471328735e-01 4.386638104915618896e-01
3.183000000000000000e+03 2.083200836181640625e+01 -1.389263248443603516e+01 -3.653154671192169189e-01 -4.880082979798316956e-02 -1.242348849773406982e-01 1.539674028754234314e-02
3.184000000000000000e+03 1.858391380310058594e+01 -1.761841964721679688e+01 -1.280041784048080444e-01 -5.009807646274566650e-02 -5.343067273497581482e-02 -2.687733471393585205e-01
3.185000000000000000e+03 3.621928405761718750e+01 -2.911010980606079102e+00 -3.176949918270111084e-01 1.576744467020034790e-01 -4.800616949796676636e-02 -6.582054495811462402e-02
3.186000000000000000e+03 2.030850219726562500e+01 2.814159202575683594e+01 4.383828863501548767e-02 -4.669083654880523682e-01 -1.269210278987884521e-01 1.733526736497879028e-01
3.187000000000000000e+03 2.031895446777343750e+01 2.735863685607910156e+01 1.318189501762390137e-01 -2.989931702613830566e-01 -5.015226453542709351e-02 3.117247521877288818e-01
3.188000000000000000e+03 3.544983291625976562e+01 -3.163992643356323242e+00 -2.753343582153320312e-01 1.385909467935562134e-01 -4.102302715182304382e-02 -1.118331104516983032e-01
3.189000000000000000e+03 5.058494186401367188e+01 3.433137416839599609e+00 -1.314169526100158691e+00 -9.377756714820861816e-02 -4.223841428756713867e-01 9.510142803192138672e-01
3.190000000000000000e+03 8.473546981811523438e+00 -2.422583007812500000e+01 3.645133972167968750e-02 1.988941803574562073e-02 1.690222881734371185e-02 -5.642711743712425232e-02
3.191000000000000000e+03 4.052610015869140625e+01 -1.731892776489257812e+01 -3.311108797788619995e-02 1.787057518959045410e-01 4.367839917540550232e-02 -3.191303014755249023e-01
3.192000000000000000e+03 3.555652999877929688e+01 -8.248398780822753906e+00 1.187795996665954590e-01 3.056453168392181396e-01 1.273274719715118408e-01 -2.621047198772430420e-01
3.193000000000000000e+03 3.098848342895507812e+01 -1.111912155151367188e+01 -2.584046125411987305e-01 -3.713282644748687744e-01 -1.889198571443557739e-01 -9.734874218702316284e-02
3.194000000000000000e+03 7.685200500488281250e+01 -2.540171623229980469e+01 4.440757036209106445e-01 7.805877208709716797e+00 2.474985837936401367e+00 2.135833203792572021e-01
3.195000000000000000e+03 4.551649856567382812e+01 -1.943685722351074219e+01 -1.079209446907043457e-01 -1.514878571033477783e-01 -7.782264053821563721e-02 -5.009302496910095215e-01
3.196000000000000000e+03 5.006461715698242188e+01 2.364489746093750000e+01 3.245795071125030518e-01 4.889598488807678223e-01 2.440617978572845459e-01 1.785450428724288940e-01
3.197000000000000000e+03 4.967359924316406250e+01 1.942244338989257812e+01 3.437118828296661377e-01 1.075171083211898804e-01 1.353686898946762085e-01 3.976774215698242188e-02
3.198000000000000000e+03 5.461830520629882812e+01 3.366812705993652344e+00 -1.514106631278991699e+00 3.485580533742904663e-02 -4.437752366065979004e-01 4.652998745441436768e-01
3.199000000000000000e+03 6.195520401000976562e+01 -8.168292999267578125e+00 -8.312510848045349121e-01 7.331507652997970581e-02 -2.273807972669601440e-01 -2.830952405929565430e-01
3.200000000000000000e+03 6.086301040649414062e+01 -1.030727767944335938e+01 -2.149533987045288086e+00 3.110199570655822754e-01 -5.515542030334472656e-01 -1.840013116598129272e-01
3.201000000000000000e+03 6.951874542236328125e+01 -1.553777027130126953e+01 -4.505228102207183838e-01 -9.152638316154479980e-01 -4.097359776496887207e-01 1.978341102600097656e+00
3.202000000000000000e+03 4.275646972656250000e+01 -2.583947181701660156e+00 -5.880799293518066406e-01 -7.479057461023330688e-02 -1.988611519336700439e-01 -4.880074411630630493e-03
3.203000000000000000e+03 3.021960067749023438e+01 2.684085845947265625e+00 -4.683488011360168457e-01 2.713699936866760254e-01 -5.909364297986030579e-02 3.186394274234771729e-02
3.204000000000000000e+03 5.519770050048828125e+01 -2.575838279724121094e+01 1.754332482814788818e-01 2.299197167158126831e-01 1.216058880090713501e-01 1.688656955957412720e-01
3.205000000000000000e+03 5.816362762451171875e+01 -2.603822898864746094e+01 1.581255048513412476e-01 5.421913266181945801e-01 2.100950628519058228e-01 4.159163534641265869e-01
3.206000000000000000e+03 5.592813110351562500e+01 -1.605994224548339844e+01 1.708541065454483032e-01 -1.241952553391456604e-01 1.399765536189079285e-02 -2.926493585109710693e-01
3.207000000000000000e+03 5.522087097167968750e+01 1.988411140441894531e+01 2.160966396331787109e-01 4.559844732284545898e-01 2.016243338584899902e-01 -3.280486166477203369e-01
3.208000000000000000e+03 2.741656684875488281e+01 3.624529123306274414e+00 -2.701963484287261963e-01 2.064580768346786499e-01 -1.912148296833038330e-02 1.521089226007461548e-01
3.209000000000000000e+03 4.801162719726562500e+01 1.991961669921875000e+01 4.008700549602508545e-01 2.880758047103881836e-01 2.066837549209594727e-01 2.279360145330429077e-01
3.210000000000000000e+03 4.693838119506835938e+01 1.992333602905273438e+01 3.809282183647155762e-01 3.899605572223663330e-01 2.312666326761245728e-01 2.396780252456665039e-01
3.211000000000000000e+03 3.517058563232421875e+01 2.198789405822753906e+01 -5.356710404157638550e-02 -5.814412236213684082e-01 -1.905024945735931396e-01 4.183000028133392334e-01
3.212000000000000000e+03 4.696427917480468750e+01 2.533738708496093750e+01 2.839231491088867188e-01 4.553288817405700684e-01 2.217756062746047974e-01 3.256144821643829346e-01
3.213000000000000000e+03 4.704764175415039062e+01 2.361222267150878906e+01 4.258416593074798584e-01 4.414411187171936035e-01 2.601848244667053223e-01 3.093946278095245361e-01
3.214000000000000000e+03 4.794866180419921875e+01 -1.650780868530273438e+01 -9.992961883544921875e-01 -4.574593603610992432e-01 -4.370266497135162354e-01 -2.885801494121551514e-01
3.215000000000000000e+03 4.629944992065429688e+01 -1.585508346557617188e+01 -9.035689234733581543e-01 -1.946559995412826538e-01 -3.294674754142761230e-01 -1.142811849713325500e-01
3.216000000000000000e+03 4.970994567871093750e+01 -2.965971565246582031e+01 4.168178439140319824e-01 4.109079539775848389e-01 2.483177334070205688e-01 -3.284326195716857910e-01
3.217000000000000000e+03 4.985712814331054688e+01 -3.036561012268066406e+01 4.036325216293334961e-01 4.056621491909027100e-01 2.427884042263031006e-01 -3.225254416465759277e-01
3.218000000000000000e+03 6.411430358886718750e+01 -2.608827590942382812e+01 -3.591937720775604248e-01 1.610095500946044922e+00 3.752705156803131104e-01 -4.934716820716857910e-01
3.219000000000000000e+03 5.168830108642578125e+01 -1.380575275421142578e+01 -8.121300935745239258e-01 1.173641383647918701e-01 -2.084297984838485718e-01 -7.687031626701354980e-01
3.220000000000000000e+03 3.190652275085449219e+01 1.667099571228027344e+01 5.318456888198852539e-01 3.678689599037170410e-01 2.699143886566162109e-01 4.336320459842681885e-01
3.221000000000000000e+03 4.511465835571289062e+01 2.673721551895141602e+00 -8.634293675422668457e-01 -8.491657674312591553e-02 -2.845037877559661865e-01 1.684080511331558228e-01
3.222000000000000000e+03 4.796736526489257812e+01 4.833928585052490234e+00 -1.269780158996582031e+00 -5.628120303153991699e-01 -5.497776269912719727e-01 5.602174401283264160e-01
3.223000000000000000e+03 6.610591888427734375e+01 -2.877607345581054688e+01 4.210914373397827148e-01 1.722254514694213867e+00 6.430037617683410645e-01 -6.113281846046447754e-01
3.224000000000000000e+03 6.689165496826171875e+01 -3.024849128723144531e+01 8.490208387374877930e-01 1.876101851463317871e+00 8.175367712974548340e-01 -4.481615126132965088e-01
3.225000000000000000e+03 1.871112060546875000e+01 4.282531261444091797e+00 -2.748196423053741455e-01 -1.717120036482810974e-02 -8.759725838899612427e-02 1.689505875110626221e-01
3.226000000000000000e+03 2.005438232421875000e+01 5.125825405120849609e+00 -1.356728971004486084e-01 -7.569467276334762573e-02 -6.341027468442916870e-02 1.169530674815177917e-01
3.227000000000000000e+03 3.413983917236328125e+01 1.420359325408935547e+01 -2.234410047531127930e-01 -3.253522217273712158e-01 -1.646379679441452026e-01 5.151686668395996094e-01
3.228000000000000000e+03 2.295444107055664062e+01 1.349111270904541016e+01 -8.359993994235992432e-02 -1.877561509609222412e-01 -8.140682429075241089e-02 4.293207079172134399e-02
3.229000000000000000e+03 2.337258529663085938e+01 1.649245834350585938e+01 -2.923443913459777832e-01 -2.579694688320159912e-01 -1.650941669940948486e-01 2.186401933431625366e-01
3.230000000000000000e+03 6.071335220336914062e+01 6.648698806762695312e+00 5.899114534258842468e-02 8.273977041244506836e-01 2.659166753292083740e-01 -2.808752059936523438e-01
3.231000000000000000e+03 6.346818161010742188e+01 6.637699604034423828e+00 3.308658897876739502e-01 9.973648786544799805e-01 3.984692394733428955e-01 -6.769055128097534180e-01
3.232000000000000000e+03 6.545075988769531250e+01 3.202017974853515625e+01 5.119034647941589355e-01 2.616952896118164062e+00 9.386569261550903320e-01 -4.337807893753051758e-01
3.233000000000000000e+03 6.488085174560546875e+01 3.299557495117187500e+01 5.662418007850646973e-01 2.553405761718750000e+00 9.358942508697509766e-01 -3.878874182701110840e-01
3.234000000000000000e+03 4.521426773071289062e+01 -2.169275283813476562e+01 2.907809913158416748e-01 5.363563820719718933e-02 1.033249869942665100e-01 -5.259415507316589355e-01
3.235000000000000000e+03 2.975236129760742188e+01 -1.141974163055419922e+01 -3.081819415092468262e-01 -4.530353844165802002e-01 -2.283651977777481079e-01 -1.750999391078948975e-01
3.236000000000000000e+03 3.590551757812500000e+01 -9.978850364685058594e+00 1.095171198248863220e-01 4.231390058994293213e-01 1.597968339920043945e-01 -1.339315176010131836e-01
3.237000000000000000e+03 6.039032745361328125e+01 -2.326286506652832031e+01 4.166902899742126465e-01 6.190112829208374023e-01 3.107104599475860596e-01 3.408574759960174561e-01
3.238000000000000000e+03 3.781164932250976562e+01 -3.517236328125000000e+01 2.783739268779754639e-01 -1.620879620313644409e-01 3.488578274846076965e-02 -3.281258940696716309e-01
3.239000000000000000e+03 6.033724212646484375e+01 1.909465980529785156e+01 2.474612183868885040e-02 1.192965030670166016e+00 3.653133511543273926e-01 1.478697657585144043e-01
3.240000000000000000e+03 2.800877761840820312e+01 6.481496334075927734e+00 1.849658936262130737e-01 4.081229269504547119e-01 1.779266446828842163e-01 1.102219745516777039e-01
3.241000000000000000e+03 1.089305305480957031e+01 1.809508323669433594e+01 1.940870285034179688e-01 1.747961640357971191e-01 1.106649562716484070e-01 1.855264008045196533e-01
3.242000000000000000e+03 1.035012531280517578e+01 1.793252944946289062e+01 2.019403129816055298e-01 1.412551552057266235e-01 1.029586419463157654e-01 1.801002770662307739e-01
3.243000000000000000e+03 2.824394464492797852e+00 -1.939897346496582031e+01 8.878557709977030754e-04 -5.455294996500015259e-02 -1.609952934086322784e-02 -7.494464516639709473e-02
3.244000000000000000e+03 2.516125202178955078e+00 -2.198822975158691406e+01 3.058618865907192230e-02 -7.510164380073547363e-02 -1.335463672876358032e-02 -3.407183662056922913e-02
3.245000000000000000e+03 5.848670196533203125e+01 4.091737365722656250e+01 8.464710116386413574e-01 7.820721268653869629e-01 4.885629415512084961e-01 1.461238716728985310e-03
3.246000000000000000e+03 2.301816368103027344e+01 -1.492793560028076172e+01 -4.721062183380126953e-01 -1.424404829740524292e-01 -1.843640059232711792e-01 -1.210501864552497864e-01
3.247000000000000000e+03 1.444913959503173828e+01 3.611742782592773438e+01 1.205589920282363892e-01 -8.241199702024459839e-02 1.144409738481044769e-02 1.102878674864768982e-01
3.248000000000000000e+03 1.311186027526855469e+01 4.149282073974609375e+01 2.999570220708847046e-02 -3.194817528128623962e-02 -5.857417709194123745e-04 2.796345762908458710e-02
3.249000000000000000e+03 2.888604354858398438e+01 1.414721107482910156e+01 -1.871228665113449097e-01 3.221971094608306885e-01 4.052227735519409180e-02 4.095920324325561523e-01
3.250000000000000000e+03 1.562026786804199219e+01 -8.283923149108886719e+00 -2.469931915402412415e-02 3.387741744518280029e-02 2.753429347649216652e-03 1.325348298996686935e-02
3.251000000000000000e+03 1.439427661895751953e+01 -1.307798957824707031e+01 -3.224957361817359924e-02 1.298952102661132812e-01 2.929368987679481506e-02 -3.594615682959556580e-02
3.252000000000000000e+03 1.157635688781738281e+00 2.673100471496582031e+00 1.349177211523056030e-03 1.988169737160205841e-02 6.369262468069791794e-03 -1.641638390719890594e-02
3.253000000000000000e+03 7.814985656738281250e+01 -1.277790355682373047e+01 -4.815524816513061523e-01 1.034446907043457031e+01 2.958874940872192383e+00 -1.474094271659851074e+00
3.254000000000000000e+03 7.816082763671875000e+01 -1.109048557281494141e+01 -3.181928768754005432e-02 9.910927772521972656e+00 2.963732481002807617e+00 -1.936435461044311523e+00
3.255000000000000000e+03 2.074238014221191406e+01 3.045081138610839844e+01 -1.689687222242355347e-01 -3.919820189476013184e-01 -1.682852208614349365e-01 8.487919718027114868e-02
3.256000000000000000e+03 2.359181404113769531e+01 2.901930046081542969e+01 1.888754814863204956e-01 2.976499497890472412e-01 1.459576338529586792e-01 1.970247775316238403e-01
3.257000000000000000e+03 1.667835426330566406e+01 -2.622588729858398438e+01 8.594413846731185913e-02 -2.040955871343612671e-01 -3.544543310999870300e-02 -1.874625235795974731e-01
3.258000000000000000e+03 1.593889999389648438e+01 -2.575596046447753906e+01 6.165042519569396973e-02 -2.812346220016479492e-01 -6.587526202201843262e-02 -1.990899592638015747e-01
3.259000000000000000e+03 4.920478439331054688e+01 -9.478019714355468750e+00 -2.356732040643692017e-01 2.737985849380493164e-01 1.143761165440082550e-02 -1.687515079975128174e-01
3.260000000000000000e+03 1.637719154357910156e+01 -2.090266799926757812e+01 -2.922167778015136719e-01 -1.972965747117996216e-01 -1.468540132045745850e-01 -2.458370476961135864e-01
3.261000000000000000e+03 5.785625839233398438e+01 2.326073169708251953e+00 -1.912355422973632812e+00 -3.958656787872314453e-01 -6.924663186073303223e-01 1.643378585577011108e-01
3.262000000000000000e+03 6.836614990234375000e+01 -1.329360389709472656e+01 -1.359384894371032715e+00 -8.970264196395874023e-01 -6.769233942031860352e-01 1.253739237785339355e+00
3.263000000000000000e+03 1.254796028137207031e+01 1.931547927856445312e+01 3.447004407644271851e-02 2.360069900751113892e-01 8.114311099052429199e-02 2.918343842029571533e-01
3.264000000000000000e+03 1.244258499145507812e+01 1.880565643310546875e+01 9.031723439693450928e-02 2.422192543745040894e-01 9.976094216108322144e-02 2.803387343883514404e-01
3.265000000000000000e+03 6.360110473632812500e+01 2.112950897216796875e+01 -2.296048402786254883e-01 6.545410752296447754e-01 1.274808645248413086e-01 5.017353892326354980e-01
3.266000000000000000e+03 5.999927520751953125e+01 2.148920631408691406e+01 6.042785197496414185e-02 7.285140752792358398e-01 2.366825789213180542e-01 3.305157124996185303e-01
3.267000000000000000e+03 1.162405014038085938e+01 3.878907012939453125e+01 4.598975926637649536e-02 1.937804743647575378e-02 1.961034163832664490e-02 7.931913435459136963e-02
3.268000000000000000e+03 2.272006416320800781e+01 2.882420158386230469e+01 1.763439923524856567e-01 8.257547765970230103e-02 7.767584174871444702e-02 2.257884889841079712e-01
3.269000000000000000e+03 4.709949493408203125e+01 -4.203967094421386719e+00 -3.791702389717102051e-01 1.744473576545715332e-01 -6.141686439514160156e-02 9.460124373435974121e-02
3.270000000000000000e+03 4.875212860107421875e+01 -1.208068847656250000e+01 -6.981650590896606445e-01 2.469945400953292847e-01 -1.353511661291122437e-01 -5.002269744873046875e-01
3.271000000000000000e+03 4.870618438720703125e+01 -1.041597080230712891e+01 -2.819389998912811279e-01 3.536943197250366211e-01 2.152659744024276733e-02 -3.402490317821502686e-01
3.272000000000000000e+03 6.576530456542968750e+01 -1.612432670593261719e+01 6.484906077384948730e-01 2.051425218582153320e+00 8.099747300148010254e-01 6.963905096054077148e-01
3.273000000000000000e+03 6.549578094482421875e+01 -1.401117706298828125e+01 -1.056643843650817871e+00 1.134561896324157715e+00 2.337541617453098297e-02 3.709757626056671143e-01
3.274000000000000000e+03 1.385969734191894531e+01 4.093258380889892578e+00 -1.950517445802688599e-01 -7.289182394742965698e-02 -8.038306981325149536e-02 2.219458967447280884e-01
3.275000000000000000e+03 4.193074417114257812e+01 -2.666747474670410156e+01 3.854706883430480957e-02 -1.473752111196517944e-01 -3.264844045042991638e-02 -1.809776723384857178e-01
3.276000000000000000e+03 4.334291839599609375e+01 -2.321862030029296875e+01 1.447508633136749268e-01 -4.223476722836494446e-02 3.075482696294784546e-02 -5.438994169235229492e-01
3.277000000000000000e+03 2.563865089416503906e+01 3.071822929382324219e+01 -3.212400525808334351e-02 1.379228532314300537e-01 3.173965588212013245e-02 4.747396409511566162e-01
3.278000000000000000e+03 2.636936950683593750e+01 3.018465042114257812e+01 7.574398815631866455e-02 1.585018262267112732e-02 2.747825160622596741e-02 6.126795411109924316e-01
3.279000000000000000e+03 3.297486114501953125e+01 1.148205280303955078e+00 -1.412026524543762207e+00 2.156212367117404938e-02 -4.171393215656280518e-01 -3.073650598526000977e-01
3.280000000000000000e+03 3.306408691406250000e+01 1.702073574066162109e+00 -1.546104311943054199e+00 -3.396685048937797546e-02 -4.740213751792907715e-01 1.813481003046035767e-01
3.281000000000000000e+03 2.504520416259765625e+00 -1.200936698913574219e+01 -5.903191398829221725e-03 1.293841190636157990e-02 2.110566245391964912e-03 8.592779748141765594e-03
3.282000000000000000e+03 8.020685195922851562e+00 -1.289608860015869141e+01 -1.117283403873443604e-01 -8.372227847576141357e-02 -5.863518640398979187e-02 -8.103059232234954834e-02
3.283000000000000000e+03 2.039322471618652344e+01 2.576780128479003906e+01 4.334135949611663818e-01 -2.384607791900634766e-01 5.848584696650505066e-02 3.711954951286315918e-01
3.284000000000000000e+03 6.873640441894531250e+01 3.283185958862304688e-01 -1.253363847732543945e+00 -2.866487503051757812e-01 -4.620037674903869629e-01 -6.495892256498336792e-02
3.285000000000000000e+03 7.001100158691406250e+01 4.009150862693786621e-01 -1.047717690467834473e+00 3.685617120936512947e-03 -3.132096230983734131e-01 -3.855105042457580566e-01
3.286000000000000000e+03 4.623056411743164062e+01 1.652233600616455078e+00 -8.241657018661499023e-01 -3.832255676388740540e-02 -2.587464749813079834e-01 1.680320352315902710e-01
3.287000000000000000e+03 4.855343246459960938e+01 2.048287010192871094e+01 4.006246030330657959e-01 2.704046964645385742e-01 2.013087868690490723e-01 1.815733909606933594e-01
3.288000000000000000e+03 4.851149749755859375e+01 -1.565847206115722656e+01 -9.415327906608581543e-01 -2.853012382984161377e-01 -3.680502176284790039e-01 -3.672597110271453857e-01
3.289000000000000000e+03 6.300941085815429688e+01 -2.108914756774902344e+01 6.725398898124694824e-01 1.755398035049438477e+00 7.283813953399658203e-01 1.593547463417053223e-01
3.290000000000000000e+03 6.138988494873046875e+01 -2.565755653381347656e+01 1.888484507799148560e-01 3.819529116153717041e-01 1.712404191493988037e-01 1.854228526353836060e-01
3.291000000000000000e+03 4.759450531005859375e+01 2.436182260513305664e+00 -1.029208064079284668e+00 -1.380696296691894531e-01 -3.501833081245422363e-01 3.860958516597747803e-01
3.292000000000000000e+03 8.862049102783203125e+00 -3.810272598266601562e+01 1.079306527972221375e-01 -1.960933208465576172e-01 -2.644879929721355438e-02 -1.262996047735214233e-01
3.293000000000000000e+03 6.190252685546875000e+01 -6.490985393524169922e+00 -9.940697997808456421e-02 -6.001995503902435303e-02 -4.782808199524879456e-02 -5.152988247573375702e-03
3.294000000000000000e+03 6.230868148803710938e+01 -7.082092285156250000e+00 -2.739284038543701172e-01 -3.890139237046241760e-02 -9.384894371032714844e-02 -5.516780912876129150e-02
3.295000000000000000e+03 1.260173130035400391e+01 3.726537322998046875e+01 1.119876280426979065e-01 -5.281622521579265594e-03 3.201180323958396912e-02 1.072017699480056763e-01
3.296000000000000000e+03 5.988785171508789062e+01 3.640615463256835938e+01 8.899692893028259277e-01 5.013337135314941406e-01 4.173909127712249756e-01 -2.707872688770294189e-01
3.297000000000000000e+03 1.816790819168090820e+00 -4.106032180786132812e+01 3.574294270947575569e-03 -2.902469933032989502e-01 -8.600181341171264648e-02 -1.026877947151660919e-02
3.298000000000000000e+03 4.051190948486328125e+01 -3.871098327636718750e+01 7.278632521629333496e-01 6.334207952022552490e-02 2.373616099357604980e-01 -1.179420724511146545e-01
3.299000000000000000e+03 4.074330520629882812e+01 3.631671142578125000e+01 6.084719300270080566e-01 1.140747889876365662e-01 2.167640030384063721e-01 1.274391561746597290e-01
3.300000000000000000e+03 4.577686691284179688e+01 2.482793331146240234e+00 -9.050488471984863281e-01 -6.905160844326019287e-02 -2.922301590442657471e-01 1.846294999122619629e-01
3.301000000000000000e+03 9.496042251586914062e+00 4.895836353302001953e+00 -1.413103342056274414e-01 -7.961070537567138672e-02 -6.627631187438964844e-02 4.285771772265434265e-02
3.302000000000000000e+03 3.861247634887695312e+01 -1.902288436889648438e+00 -3.395031094551086426e-01 4.924372583627700806e-02 -8.707781881093978882e-02 9.634441137313842773e-02
3.303000000000000000e+03 5.252912139892578125e+01 2.883362197875976562e+01 1.487406343221664429e-01 1.276630640029907227e+00 4.276113808155059814e-01 5.091309919953346252e-02
3.304000000000000000e+03 5.179906463623046875e+01 2.588023757934570312e+01 2.690372765064239502e-01 8.296360373497009277e-01 3.296020030975341797e-01 9.310548007488250732e-02
3.305000000000000000e+03 3.971445083618164062e+01 8.720665931701660156e+00 -6.912165284156799316e-01 -7.476107478141784668e-01 -4.316481649875640869e-01 7.580140829086303711e-01
3.306000000000000000e+03 2.908895111083984375e+01 2.177165985107421875e+00 -5.766542553901672363e-01 2.298152148723602295e-01 -1.040517091751098633e-01 6.980019062757492065e-02
3.307000000000000000e+03 1.136271286010742188e+01 -2.514022636413574219e+01 -1.738317683339118958e-02 -1.583860516548156738e-01 -5.273076891899108887e-02 -1.586562544107437134e-01
3.308000000000000000e+03 1.221555614471435547e+01 -2.881038093566894531e+01 -1.127279996871948242e-01 -2.740826904773712158e-01 -1.160432100296020508e-01 -1.412676423788070679e-01
3.309000000000000000e+03 1.540236949920654297e+01 -2.227360010147094727e+00 -1.158878090791404247e-03 2.677503740414977074e-03 4.555877239909023046e-04 -9.275561198592185974e-03
3.310000000000000000e+03 1.641087150573730469e+01 -2.920602321624755859e+00 8.956704288721084595e-03 1.485116500407457352e-02 7.142360787838697433e-03 -1.902926596812903881e-03
3.311000000000000000e+03 4.591439819335937500e+01 6.595217704772949219e+00 -1.003622889518737793e+00 -4.381372928619384766e-01 -4.325280487537384033e-01 5.781655311584472656e-01
3.312000000000000000e+03 1.599807834625244141e+01 -2.315877723693847656e+01 -5.873283743858337402e-02 -2.632727026939392090e-01 -9.660166501998901367e-02 -2.262018024921417236e-01
3.313000000000000000e+03 4.536205673217773438e+01 3.343346357345581055e+00 -9.523236155509948730e-01 -1.239137053489685059e-01 -3.228711783885955811e-01 2.077081799507141113e-01
3.314000000000000000e+03 1.128100490570068359e+01 1.839185905456542969e+01 1.316992044448852539e-01 2.085824906826019287e-01 1.020845025777816772e-01 2.107167243957519531e-01
3.315000000000000000e+03 2.486101531982421875e+01 3.158358192443847656e+01 -4.869978129863739014e-02 8.726613223552703857e-02 1.156990416347980499e-02 3.120858669281005859e-01
3.316000000000000000e+03 7.098120880126953125e+01 3.388276696205139160e-01 -9.443144798278808594e-01 4.503130316734313965e-01 -1.482004225254058838e-01 -6.809214949607849121e-01
3.317000000000000000e+03 1.184659576416015625e+01 -1.054777908325195312e+01 -5.694076418876647949e-02 1.299654878675937653e-02 -1.318326499313116074e-02 -4.519472271203994751e-02
3.318000000000000000e+03 1.193255519866943359e+01 3.697036504745483398e+00 -1.242412477731704712e-01 -7.300411909818649292e-02 -5.917361006140708923e-02 1.029615625739097595e-01
3.319000000000000000e+03 1.078996658325195312e+01 6.835879802703857422e+00 -2.854989767074584961e-01 -1.791824549436569214e-01 -1.394044309854507446e-01 1.562603116035461426e-01
3.320000000000000000e+03 8.379228591918945312e+00 4.552034854888916016e+00 -1.031280383467674255e-01 -5.041175335645675659e-02 -4.606193676590919495e-02 1.275772321969270706e-02
3.321000000000000000e+03 6.129912567138671875e+01 -8.460451960563659668e-01 -1.552105784416198730e+00 2.802354097366333008e-01 -3.815611302852630615e-01 4.780442714691162109e-01
3.322000000000000000e+03 6.251435470581054688e+01 -2.546282485127449036e-02 -1.583336353302001953e+00 4.319388270378112793e-01 -3.454192578792572021e-01 1.977593451738357544e-01
3.323000000000000000e+03 6.060978698730468750e+01 -2.914366424083709717e-01 -1.943583130836486816e+00 2.726558148860931396e-01 -5.012781620025634766e-01 4.969660639762878418e-01
3.324000000000000000e+03 1.007034206390380859e+01 6.569635391235351562e+00 -2.399597764015197754e-01 -1.447234451770782471e-01 -1.154049709439277649e-01 1.161656752228736877e-01
3.325000000000000000e+03 2.118157768249511719e+01 -2.512807083129882812e+01 2.064564228057861328e-01 1.164317876100540161e-01 9.686646610498428345e-02 -1.233222708106040955e-01
3.326000000000000000e+03 2.023701477050781250e+01 -2.467531394958496094e+01 9.845311939716339111e-02 1.090317070484161377e-01 6.224544718861579895e-02 -1.848738342523574829e-01
3.327000000000000000e+03 2.951436042785644531e+01 2.894591140747070312e+01 -1.495559215545654297e-01 -5.829035043716430664e-01 -2.197378426790237427e-01 4.110298752784729004e-01
3.328000000000000000e+03 6.026485061645507812e+01 6.838449239730834961e-01 -2.191848516464233398e+00 2.534354031085968018e-01 -5.815239548683166504e-01 2.463317215442657471e-01
3.329000000000000000e+03 1.133688163757324219e+01 5.070922851562500000e+00 -1.990070044994354248e-01 -1.352329850196838379e-01 -1.002719923853874207e-01 1.023371592164039612e-01
3.330000000000000000e+03 6.425312805175781250e+01 2.109869384765625000e+01 -2.189695537090301514e-01 4.205747842788696289e-01 6.048156693577766418e-02 4.243434369564056396e-01
3.331000000000000000e+03 1.624579429626464844e+01 -4.412763118743896484e+00 1.006975863128900528e-02 2.234346233308315277e-02 9.723966009914875031e-03 -1.806067652069032192e-03
3.332000000000000000e+03 4.672399139404296875e+01 6.423495292663574219e+00 -1.142004966735839844e+00 -4.624447226524353027e-01 -4.813348948955535889e-01 6.284424662590026855e-01
3.333000000000000000e+03 4.593046951293945312e+01 7.383830547332763672e+00 -9.313321709632873535e-01 -5.397359132766723633e-01 -4.413204491138458252e-01 6.819868683815002441e-01
3.334000000000000000e+03 4.554149627685546875e+01 3.980330705642700195e+00 -9.656444787979125977e-01 -2.049351334571838379e-01 -3.511738777160644531e-01 2.771238684654235840e-01
3.335000000000000000e+03 4.610833740234375000e+01 3.166110277175903320e+00 -9.635929465293884277e-01 -1.675722002983093262e-01 -3.393495380878448486e-01 2.757744193077087402e-01
3.336000000000000000e+03 1.152218437194824219e+01 -2.877346038818359375e+00 4.756638780236244202e-03 -6.289705168455839157e-03 -4.599198873620480299e-04 -1.523104682564735413e-02
3.337000000000000000e+03 3.469948959350585938e+01 -3.408804893493652344e+00 -2.108685076236724854e-01 9.290088713169097900e-02 -3.539028391242027283e-02 -1.672945469617843628e-01
3.338000000000000000e+03 6.496540069580078125e+01 3.053833007812500000e+01 3.744776248931884766e-01 2.570770502090454102e+00 8.835744261741638184e-01 -4.127447605133056641e-01
3.339000000000000000e+03 6.584052276611328125e+01 2.930355644226074219e+01 3.462783396244049072e-01 2.603240013122558594e+00 8.848554491996765137e-01 -3.209412693977355957e-01
3.340000000000000000e+03 7.075923156738281250e+01 1.948476791381835938e+01 5.592411011457443237e-02 4.237606048583984375e+00 1.288059115409851074e+00 -1.427259206771850586e+00
3.341000000000000000e+03 5.211661148071289062e+01 -1.448094081878662109e+01 -6.818190813064575195e-01 1.989183872938156128e-01 -1.448702067136764526e-01 -7.522507905960083008e-01
3.342000000000000000e+03 6.815791320800781250e+01 8.895651698112487793e-01 -9.399045109748840332e-01 -1.064724698662757874e-01 -3.139130771160125732e-01 -8.807229995727539062e-02
3.343000000000000000e+03 6.459992980957031250e+01 2.849299430847167969e+01 2.345043271780014038e-01 2.424407005310058594e+00 7.976733446121215820e-01 -6.680739670991897583e-02
3.344000000000000000e+03 6.527376556396484375e+01 2.913281631469726562e+01 3.036931157112121582e-01 2.557500839233398438e+00 8.583581447601318359e-01 -2.908323705196380615e-01
3.345000000000000000e+03 3.166006469726562500e+01 -3.005851554870605469e+01 1.359035372734069824e-01 9.142029285430908203e-02 6.819715350866317749e-02 -1.650438159704208374e-01
3.346000000000000000e+03 2.169103050231933594e+01 1.280060672760009766e+01 -1.455845031887292862e-02 -1.949520260095596313e-01 -6.285314261913299561e-02 2.291005104780197144e-02
3.347000000000000000e+03 5.093180084228515625e+01 -2.801120996475219727e+00 -1.060862168669700623e-01 -4.499310627579689026e-02 -4.532379657030105591e-02 1.267884224653244019e-01
3.348000000000000000e+03 5.060874938964843750e+01 -4.025538921356201172e+00 -1.649391204118728638e-01 -7.452561706304550171e-02 -7.183942198753356934e-02 2.536876201629638672e-01
3.349000000000000000e+03 6.100575256347656250e+01 7.354537487030029297e+00 2.921420037746429443e-01 1.022965073585510254e+00 3.945321142673492432e-01 -3.970427811145782471e-01
3.350000000000000000e+03 7.244026184082031250e+01 3.359488248825073242e-01 -1.016772270202636719e+00 3.115575790405273438e+00 6.296410560607910156e-01 -1.426083564758300781e+00
3.351000000000000000e+03 1.492722225189208984e+01 4.370675563812255859e+00 -2.419607341289520264e-01 -1.255337521433830261e-02 -7.635423541069030762e-02 2.721454203128814697e-01
3.352000000000000000e+03 3.838468551635742188e+01 -3.222274780273437500e+00 -4.887280762195587158e-01 1.084999442100524902e-01 -1.140684410929679871e-01 -1.166089810431003571e-02
3.353000000000000000e+03 4.741794967651367188e+01 -2.764589309692382812e+01 3.960674703121185303e-01 3.754260241985321045e-01 2.314480543136596680e-01 -3.005346655845642090e-01
3.354000000000000000e+03 4.726805877685546875e+01 -2.662786674499511719e+01 3.473035395145416260e-01 3.919546306133270264e-01 2.217774540185928345e-01 -2.786755859851837158e-01
3.355000000000000000e+03 2.927344131469726562e+01 3.431646823883056641e+00 -3.155355155467987061e-01 3.030345439910888672e-01 -3.750295843929052353e-03 7.253532111644744873e-02
3.356000000000000000e+03 2.917455673217773438e+01 2.839484453201293945e+00 -4.572540223598480225e-01 2.929034531116485596e-01 -4.930516332387924194e-02 3.484727069735527039e-02
3.357000000000000000e+03 1.259024143218994141e+01 5.665582656860351562e+00 -2.638863921165466309e-01 -1.902549564838409424e-01 -1.362424045801162720e-01 1.705480813980102539e-01
3.358000000000000000e+03 5.191166877746582031e+00 -2.270714569091796875e+01 7.806922495365142822e-02 -2.073021233081817627e-02 1.720170490443706512e-02 -2.050323039293289185e-02
3.359000000000000000e+03 4.938133716583251953e+00 -2.216508102416992188e+01 8.705610781908035278e-02 -3.913561999797821045e-02 1.437614578753709793e-02 -2.408756315708160400e-02
3.360000000000000000e+03 6.818025207519531250e+01 -2.677816963195800781e+01 -7.361723184585571289e-01 2.421342134475708008e-01 -1.482114344835281372e-01 -2.400025576353073120e-01
3.361000000000000000e+03 7.489027404785156250e+01 -2.277560043334960938e+01 1.384496331214904785e+00 9.117708206176757812e+00 3.150661230087280273e+00 1.616293072700500488e+00
3.362000000000000000e+03 4.067276382446289062e+01 -2.030521774291992188e+01 2.814421653747558594e-01 5.748158693313598633e-02 1.016771197319030762e-01 -5.489245653152465820e-01
3.363000000000000000e+03 2.042642784118652344e+01 5.779707431793212891e+00 -2.286520414054393768e-02 -9.423860162496566772e-02 -3.513114154338836670e-02 1.067358925938606262e-01
3.364000000000000000e+03 3.276646423339843750e+01 1.822165489196777344e+01 2.979765236377716064e-01 -5.115461349487304688e-02 7.404657453298568726e-02 5.392571687698364258e-01
3.365000000000000000e+03 3.642601776123046875e+01 2.038383102416992188e+01 2.291930615901947021e-01 -6.116598248481750488e-01 -1.147400364279747009e-01 4.772766828536987305e-01
3.366000000000000000e+03 5.320703125000000000e+01 2.878116416931152344e+01 4.623369127511978149e-02 1.449055790901184082e+00 4.485868215560913086e-01 2.380269952118396759e-02
3.367000000000000000e+03 6.512308502197265625e+01 3.354526996612548828e+00 -6.999903917312622070e-01 3.981357812881469727e-01 -9.055638313293457031e-02 -5.283102393150329590e-01
3.368000000000000000e+03 6.120342636108398438e+01 -3.794499486684799194e-02 -1.830546379089355469e+00 3.688080608844757080e-01 -4.385215044021606445e-01 3.464330136775970459e-01
3.369000000000000000e+03 5.885237121582031250e+01 3.822603464126586914e+00 -1.059033989906311035e+00 4.927549511194229126e-02 -3.029275536537170410e-01 -7.694806158542633057e-02
3.370000000000000000e+03 1.480230903625488281e+01 2.126110649108886719e+01 1.090236604213714600e-01 1.523765176534652710e-01 7.842005044221878052e-02 3.619612157344818115e-01
3.371000000000000000e+03 7.636413574218750000e+00 -3.864097833633422852e+00 8.892953395843505859e-03 -1.193971280008554459e-02 -9.140276233665645123e-04 -1.829178538173437119e-03
3.372000000000000000e+03 6.866914749145507812e+00 -3.843122482299804688e+00 8.587550371885299683e-03 -1.137277483940124512e-02 -8.355674217455089092e-04 1.728008617646992207e-03
3.373000000000000000e+03 6.120370388031005859e+00 -3.825655698776245117e+00 9.048805572092533112e-03 -8.960756473243236542e-03 2.641463834152091295e-05 5.692016799002885818e-03
3.374000000000000000e+03 4.133469581604003906e+00 -3.328140258789062500e+00 7.362345699220895767e-03 -1.069520483724772930e-03 1.887847553007304668e-03 1.018744893372058868e-02
3.375000000000000000e+03 4.247177124023437500e+00 -3.827202796936035156e+00 5.943159107118844986e-03 -2.609878778457641602e-03 9.999840985983610153e-04 1.031533349305391312e-02
3.376000000000000000e+03 1.710463643074035645e+00 -7.418047428131103516e+00 3.545593062881380320e-04 2.263237535953521729e-02 6.896080449223518372e-03 1.346736401319503784e-02
3.377000000000000000e+03 3.013846635818481445e+00 -3.931235074996948242e+00 4.141872283071279526e-03 2.620580606162548065e-03 2.028735820204019547e-03 1.187756191939115524e-02
3.378000000000000000e+03 2.393091440200805664e+00 -3.717125892639160156e+00 2.773105399683117867e-03 5.418847780674695969e-03 2.457585884258151054e-03 1.001068949699401855e-02
3.379000000000000000e+03 1.610016942024230957e+00 -5.145414352416992188e+00 1.784610329195857048e-03 1.353018824011087418e-02 4.594439640641212463e-03 1.038132980465888977e-02
3.380000000000000000e+03 3.959601974487304688e+01 -2.856413269042968750e+01 5.887751653790473938e-02 -6.538156867027282715e-01 -1.784814447164535522e-01 -1.426511108875274658e-01
3.381000000000000000e+03 1.740573883056640625e+01 -1.177952384948730469e+01 -9.796176105737686157e-02 2.580080367624759674e-02 -2.164828777313232422e-02 4.700024053454399109e-02
3.382000000000000000e+03 2.600173187255859375e+01 3.711613416671752930e+00 -2.697963118553161621e-01 3.092383779585361481e-02 -7.166174799203872681e-02 2.025969326496124268e-01
3.383000000000000000e+03 2.479184722900390625e+01 4.305026054382324219e+00 -1.747550070285797119e-01 -5.015358328819274902e-02 -6.747257709503173828e-02 1.982251703739166260e-01
3.384000000000000000e+03 2.262175750732421875e+01 4.075679302215576172e+00 -2.489527314901351929e-01 -1.223087087273597717e-01 -1.113784313201904297e-01 1.649646908044815063e-01
3.385000000000000000e+03 2.101741600036621094e+01 5.464229583740234375e+00 -6.099156290292739868e-02 -1.223091483116149902e-01 -5.499021336436271667e-02 1.138328537344932556e-01
3.386000000000000000e+03 2.750932121276855469e+01 5.314398288726806641e+00 2.019304037094116211e-02 2.701435983180999756e-01 8.710099011659622192e-02 1.354674100875854492e-01
3.387000000000000000e+03 2.700504302978515625e+01 2.573631525039672852e+00 -4.783586561679840088e-01 1.057774052023887634e-01 -1.117743775248527527e-01 1.616999059915542603e-01
3.388000000000000000e+03 2.662272453308105469e+01 3.804368972778320312e+00 -2.494941651821136475e-01 1.006271317601203918e-01 -4.466011002659797668e-02 1.834739297628402710e-01
3.389000000000000000e+03 2.343906974792480469e+01 3.914551973342895508e+00 -2.669773101806640625e-01 -9.851425141096115112e-02 -1.096474677324295044e-01 1.867744773626327515e-01
3.390000000000000000e+03 2.144363021850585938e+01 8.949771881103515625e+00 2.059618532657623291e-01 -1.623965203762054443e-01 1.306959707289934158e-02 1.132797896862030029e-01
3.391000000000000000e+03 2.441010475158691406e+01 4.812527179718017578e+00 -1.116482764482498169e-01 -7.882473617792129517e-02 -5.714190378785133362e-02 1.822592318058013916e-01
3.392000000000000000e+03 3.841815948486328125e+01 -1.245255374908447266e+01 -4.847864806652069092e-01 5.864064097404479980e-01 3.048598393797874451e-02 -8.798277378082275391e-02
3.393000000000000000e+03 3.398003387451171875e+01 -3.724787235260009766e+00 -1.638520509004592896e-01 3.609627112746238708e-02 -3.832673281431198120e-02 -1.872909814119338989e-01
3.394000000000000000e+03 5.249559020996093750e+01 3.039468002319335938e+01 2.334088832139968872e-01 1.258339166641235352e+00 4.475244283676147461e-01 1.793454140424728394e-01
3.395000000000000000e+03 4.114227294921875000e+01 -2.419594383239746094e+01 -1.407142579555511475e-01 -3.674219250679016113e-01 -1.524408608675003052e-01 -4.758568406105041504e-01
3.396000000000000000e+03 4.545341110229492188e+01 -2.273448562622070312e+01 3.251248598098754883e-01 1.580063253641128540e-01 1.449393481016159058e-01 -4.229491353034973145e-01
3.397000000000000000e+03 1.295433044433593750e+01 4.923568725585937500e+00 -2.138794511556625366e-01 -1.441967934370040894e-01 -1.074228733777999878e-01 1.882404536008834839e-01
3.398000000000000000e+03 5.072268295288085938e+01 2.926536083221435547e+00 -1.454461812973022461e+00 -6.242033839225769043e-02 -4.550646543502807617e-01 9.092068672180175781e-01
3.399000000000000000e+03 6.291669082641601562e+01 3.560510253906250000e+01 4.773447811603546143e-01 1.722979903221130371e+00 6.600974202156066895e-01 -5.670470595359802246e-01
3.400000000000000000e+03 1.449653339385986328e+01 2.186219024658203125e+01 2.031224220991134644e-01 1.559205353260040283e-01 1.077128872275352478e-01 3.430728614330291748e-01
3.401000000000000000e+03 6.915389537811279297e+00 2.244029426574707031e+01 -1.238231733441352844e-01 -3.146083950996398926e-01 -1.315294653177261353e-01 1.035480126738548279e-01
3.402000000000000000e+03 6.591724872589111328e+00 2.354920578002929688e+01 -1.752244383096694946e-01 -3.935518860816955566e-01 -1.706328988075256348e-01 1.655542850494384766e-01
3.403000000000000000e+03 2.214608383178710938e+01 1.136402225494384766e+01 7.137671858072280884e-02 -1.733075827360153198e-01 -3.057925961911678314e-02 5.189803615212440491e-02
3.404000000000000000e+03 7.320526123046875000e+01 1.192718219757080078e+01 4.820862412452697754e-01 7.076656341552734375e+00 2.267622709274291992e+00 -1.071287155151367188e+00
3.405000000000000000e+03 2.767845344543457031e+01 -3.492255401611328125e+01 1.780135557055473328e-02 -2.051276713609695435e-01 -5.619789659976959229e-02 -8.279437571763992310e-02
3.406000000000000000e+03 2.694124984741210938e+01 -3.485616683959960938e+01 -7.151999510824680328e-03 -2.524106502532958984e-01 -7.786878943443298340e-02 -6.744857877492904663e-02
3.407000000000000000e+03 7.153515625000000000e+01 2.085494232177734375e+01 -1.698426753282546997e-01 4.601576328277587891e+00 1.329519987106323242e+00 -1.164672970771789551e+00
3.408000000000000000e+03 7.052941131591796875e+01 2.096889686584472656e+01 -1.042570769786834717e-01 3.858967065811157227e+00 1.126412987709045410e+00 -1.329317450523376465e+00
3.409000000000000000e+03 2.794348526000976562e+01 9.411957740783691406e+00 2.776397764682769775e-01 4.277901947498321533e-01 2.116289883852005005e-01 1.893875896930694580e-01
3.410000000000000000e+03 1.489467620849609375e+01 -6.302199840545654297e+00 -1.876292517408728600e-03 1.832191273570060730e-02 4.933685995638370514e-03 -6.246156059205532074e-03
3.411000000000000000e+03 6.850296020507812500e+01 -3.297577667236328125e+01 5.862066149711608887e-01 2.625481128692626953e+00 9.635062813758850098e-01 2.369539886713027954e-01
3.412000000000000000e+03 3.188601875305175781e+01 -7.272817134857177734e+00 -4.605296254158020020e-02 -2.518413066864013672e-01 -8.936828374862670898e-02 -2.414042055606842041e-01
3.413000000000000000e+03 7.826884460449218750e+01 -1.525017768144607544e-01 -3.755057752132415771e-01 1.039728069305419922e+01 3.006532669067382812e+00 7.686218023300170898e-01
3.414000000000000000e+03 7.481019592285156250e+01 -1.567021369934082031e+00 -1.080469012260437012e+00 9.226581573486328125e+00 2.443833827972412109e+00 -8.363292217254638672e-01
3.415000000000000000e+03 2.422132492065429688e+01 -2.844090843200683594e+01 2.765975892543792725e-01 -9.758681803941726685e-02 5.370323359966278076e-02 -1.216712221503257751e-01
3.416000000000000000e+03 5.714080810546875000e+01 3.133827209472656250e+00 -1.489896178245544434e+00 -2.537495493888854980e-01 -5.230937004089355469e-01 2.155834734439849854e-01
3.417000000000000000e+03 5.490248107910156250e+01 6.353793144226074219e+00 3.312551379203796387e-01 3.009669780731201172e-01 1.896666437387466431e-01 3.610745072364807129e-01
3.418000000000000000e+03 7.788141632080078125e+01 3.538306427001953125e+01 2.775638177990913391e-02 5.238584518432617188e+00 1.579902291297912598e+00 -1.140469536185264587e-01
3.419000000000000000e+03 7.718241882324218750e+01 3.674774169921875000e+01 2.449315786361694336e-02 5.068854808807373047e+00 1.528004288673400879e+00 -1.119848340749740601e-01
3.420000000000000000e+03 7.732775878906250000e+01 2.870507431030273438e+01 7.077414542436599731e-03 5.575417041778564453e+00 1.674748420715332031e+00 -2.572134435176849365e-01
3.421000000000000000e+03 7.800744628906250000e+01 3.030932044982910156e+01 1.516961026936769485e-02 5.606455326080322266e+00 1.686487436294555664e+00 -1.795630753040313721e-01
3.422000000000000000e+03 7.735852813720703125e+01 2.790714263916015625e+01 1.915726345032453537e-03 5.653483390808105469e+00 1.696619749069213867e+00 -2.557184994220733643e-01
3.423000000000000000e+03 7.822174835205078125e+01 2.067384529113769531e+01 -2.982347831130027771e-02 6.466266632080078125e+00 1.930932998657226562e+00 -6.811279337853193283e-03
3.424000000000000000e+03 7.823857116699218750e+01 1.827342224121093750e+01 4.068612307310104370e-02 6.593430995941162109e+00 1.990235090255737305e+00 -1.233631838113069534e-02
3.425000000000000000e+03 7.764415740966796875e+01 1.443681335449218750e+01 2.711034715175628662e-01 7.054471015930175781e+00 2.197672367095947266e+00 -6.024895310401916504e-01
3.426000000000000000e+03 7.723030090332031250e+01 3.030540084838867188e+01 1.831186935305595398e-02 5.425445556640625000e+00 1.633127212524414062e+00 -2.433367520570755005e-01
3.427000000000000000e+03 7.797940063476562500e+01 -3.532040023803710938e+01 1.380183547735214233e-02 6.609624385833740234e+00 1.987027883529663086e+00 2.094420343637466431e-01
3.428000000000000000e+03 7.471582794189453125e+01 -3.718584823608398438e+01 1.766032427549362183e-01 5.213896751403808594e+00 1.617150068283081055e+00 2.877372503280639648e-01
3.429000000000000000e+03 7.836666870117187500e+01 -2.825139617919921875e+01 -4.891598597168922424e-02 7.505294799804687500e+00 2.236913681030273438e+00 -5.702042207121849060e-02
3.430000000000000000e+03 7.783611297607421875e+01 -2.845004653930664062e+01 -1.019254550337791443e-01 7.392835140228271484e+00 2.187272787094116211e+00 6.043207831680774689e-03
3.431000000000000000e+03 7.823648071289062500e+01 6.999313831329345703e+00 -1.298102736473083496e-01 9.550229072570800781e+00 2.826125621795654297e+00 -6.450620293617248535e-01
3.432000000000000000e+03 7.750749969482421875e+01 5.432742595672607422e+00 -2.298635095357894897e-01 9.217502593994140625e+00 2.696291685104370117e+00 -5.922546982765197754e-01
3.433000000000000000e+03 7.713323974609375000e+01 -3.282846450805664062e+01 -2.893999218940734863e-02 6.557450294494628906e+00 1.958553075790405273e+00 3.251876235008239746e-01
3.434000000000000000e+03 7.812445831298828125e+01 -3.051866531372070312e+01 -8.873914182186126709e-02 7.199381351470947266e+00 2.133192777633666992e+00 1.375317275524139404e-01
3.435000000000000000e+03 7.793722534179687500e+01 3.610867309570312500e+01 6.262695416808128357e-03 5.209977149963378906e+00 1.564871907234191895e+00 -9.119326621294021606e-02
3.436000000000000000e+03 7.563534545898437500e+01 3.837318038940429688e+01 5.025882273912429810e-02 4.746866703033447266e+00 1.439137578010559082e+00 -8.630417287349700928e-02
3.437000000000000000e+03 7.815283966064453125e+01 -6.386984348297119141e+00 7.639365792274475098e-01 9.481619834899902344e+00 3.073666810989379883e+00 6.948673129081726074e-01
3.438000000000000000e+03 7.833299255371093750e+01 -4.043798923492431641e+00 2.669022046029567719e-02 9.308099746704101562e+00 2.800436973571777344e+00 1.615916371345520020e+00
3.439000000000000000e+03 7.830265045166015625e+01 -2.171002197265625000e+01 2.146152555942535400e-01 8.628696441650390625e+00 2.652993440628051758e+00 9.834316968917846680e-01
3.440000000000000000e+03 7.827297973632812500e+01 -2.407092666625976562e+01 2.771050035953521729e-01 7.885973453521728516e+00 2.448923587799072266e+00 3.706994354724884033e-01
3.441000000000000000e+03 7.821783447265625000e+01 1.124827861785888672e+01 5.392280220985412598e-02 8.075798988342285156e+00 2.438916444778442383e+00 -8.826658725738525391e-01
3.442000000000000000e+03 7.827480316162109375e+01 1.206640720367431641e+01 9.637109190225601196e-02 7.796165466308593750e+00 2.367760896682739258e+00 -7.918231487274169922e-01
3.443000000000000000e+03 7.754900360107421875e+01 7.830512046813964844e+00 -1.950256973505020142e-01 8.782830238342285156e+00 2.576341390609741211e+00 -9.175410270690917969e-01
3.444000000000000000e+03 7.824447631835937500e+01 -2.088752555847167969e+01 1.123023033142089844e-01 8.974852561950683594e+00 2.726146459579467773e+00 1.168713569641113281e+00
3.445000000000000000e+03 7.766819763183593750e+01 -2.163922309875488281e+01 3.267273902893066406e-01 8.597957611083984375e+00 2.677405595779418945e+00 1.260432481765747070e+00
3.446000000000000000e+03 7.813484191894531250e+01 9.526039123535156250e+00 -3.691400960087776184e-02 8.670301437377929688e+00 2.590016365051269531e+00 -9.026712179183959961e-01
3.447000000000000000e+03 7.293008422851562500e+01 8.506110191345214844e+00 -9.533503055572509766e-01 5.272761344909667969e+00 1.295823335647583008e+00 -7.452164888381958008e-01
3.448000000000000000e+03 7.756311035156250000e+01 7.025683403015136719e+00 -2.009432613849639893e-01 8.962997436523437500e+00 2.628616333007812500e+00 -8.080441355705261230e-01
3.449000000000000000e+03 7.353736114501953125e+01 1.026297569274902344e+01 -2.075186520814895630e-01 6.403847694396972656e+00 1.858898758888244629e+00 -1.235860943794250488e+00
3.450000000000000000e+03 7.691161346435546875e+01 1.167337703704833984e+01 1.914007663726806641e-01 7.566467761993408203e+00 2.327360630035400391e+00 -1.214242458343505859e+00
3.451000000000000000e+03 7.463253784179687500e+01 -2.008048593997955322e-01 -1.326922059059143066e+00 7.840448856353759766e+00 1.954057931900024414e+00 -8.297210931777954102e-01
3.452000000000000000e+03 7.828588104248046875e+01 6.304345726966857910e-01 -3.212991356849670410e-01 1.044917011260986328e+01 3.038361310958862305e+00 5.078975558280944824e-01
3.453000000000000000e+03 7.752091979980468750e+01 2.983759880065917969e+00 -3.577347099781036377e-01 9.612103462219238281e+00 2.776310682296752930e+00 -1.886007785797119141e-01
3.454000000000000000e+03 7.699127197265625000e+01 3.820106014609336853e-02 -7.996391057968139648e-01 9.855059623718261719e+00 2.716626167297363281e+00 5.601173639297485352e-01
3.455000000000000000e+03 7.381345367431640625e+01 4.509016871452331543e-01 -1.274285435676574707e+00 5.906969547271728516e+00 1.389805316925048828e+00 -1.242876172065734863e+00
3.456000000000000000e+03 7.823622131347656250e+01 1.590864658355712891e+01 1.424610763788223267e-01 6.820312976837158203e+00 2.088832139968872070e+00 -2.436886429786682129e-01
3.457000000000000000e+03 7.687012481689453125e+01 1.506107425689697266e+01 4.057384729385375977e-01 6.887611389160156250e+00 2.188004970550537109e+00 -5.994892120361328125e-01
3.458000000000000000e+03 7.846006774902343750e+01 -8.822042465209960938e+00 6.635854244232177734e-01 8.459483146667480469e+00 2.736920595169067383e+00 -1.006930470466613770e+00
3.459000000000000000e+03 7.842137908935546875e+01 -8.086716651916503906e+00 7.129995822906494141e-01 8.515027999877929688e+00 2.768408298492431641e+00 -5.166429877281188965e-01
3.460000000000000000e+03 7.741084289550781250e+01 -8.863150596618652344e+00 1.383415222167968750e+00 1.174150753021240234e+01 3.937476873397827148e+00 -9.890827536582946777e-01
3.461000000000000000e+03 7.748306274414062500e+01 4.615297794342041016e+00 -2.525825500488281250e-01 9.321959495544433594e+00 2.720813274383544922e+00 -4.704443514347076416e-01
3.462000000000000000e+03 7.383814239501953125e+01 1.194833374023437500e+01 4.867474436759948730e-01 6.986161231994628906e+00 2.241872549057006836e+00 -1.378267765045166016e+00
3.463000000000000000e+03 7.653407287597656250e+01 -7.683724403381347656e+00 1.925544142723083496e+00 1.564687728881835938e+01 5.271726608276367188e+00 4.857013002038002014e-02
3.464000000000000000e+03 7.748846435546875000e+01 3.797304868698120117e+00 -2.825599312782287598e-01 9.451781272888183594e+00 2.750766277313232422e+00 -3.463090360164642334e-01
3.465000000000000000e+03 7.822993469238281250e+01 -1.359840297698974609e+01 -4.993245601654052734e-01 1.048268222808837891e+01 2.995007514953613281e+00 -1.095668792724609375e+00
3.466000000000000000e+03 7.760675048828125000e+01 -1.503462600708007812e+01 -8.127117156982421875e-01 1.018942451477050781e+01 2.813014030456542969e+00 -3.753116726875305176e-01
3.467000000000000000e+03 7.634900665283203125e+01 -2.135030174255371094e+01 5.039036870002746582e-01 8.509468078613281250e+00 2.704011440277099609e+00 1.637010574340820312e+00
3.468000000000000000e+03 7.823778533935546875e+01 1.669047546386718750e+01 1.177172809839248657e-01 6.718975543975830078e+00 2.051007747650146484e+00 -1.408010274171829224e-01
3.469000000000000000e+03 7.267915344238281250e+01 1.640658187866210938e+01 1.051569581031799316e+00 6.826719760894775391e+00 2.363486766815185547e+00 -1.070756673812866211e+00
3.470000000000000000e+03 7.824155426025390625e+01 1.748148345947265625e+01 7.991664856672286987e-02 6.645352840423583984e+00 2.017580986022949219e+00 -6.091764941811561584e-02
3.471000000000000000e+03 7.615891265869140625e+01 1.702976989746093750e+01 3.589506447315216064e-01 6.626509189605712891e+00 2.095638036727905273e+00 -3.049065172672271729e-01
3.472000000000000000e+03 7.644837951660156250e+01 -1.195749568939208984e+01 -8.919336795806884766e-01 1.146212673187255859e+01 3.171057701110839844e+00 -1.212207317352294922e+00
3.473000000000000000e+03 7.752266693115234375e+01 1.992811012268066406e+01 -2.326880767941474915e-02 6.438110351562500000e+00 1.924452424049377441e+00 -3.804554417729377747e-02
3.474000000000000000e+03 7.753457641601562500e+01 1.833623123168945312e+01 6.964094191789627075e-02 6.560767650604248047e+00 1.989122629165649414e+00 -5.832692608237266541e-02
3.475000000000000000e+03 7.748724365234375000e+01 -8.113600015640258789e-01 -6.620042324066162109e-01 1.025424861907958984e+01 2.877673387527465820e+00 1.022531390190124512e+00
3.476000000000000000e+03 7.754441833496093750e+01 -3.305198192596435547e+00 -1.392170041799545288e-01 1.075604820251464844e+01 3.185049295425415039e+00 1.750076055526733398e+00
3.477000000000000000e+03 7.413745117187500000e+01 -1.357485198974609375e+01 -1.326761603355407715e+00 6.430504798889160156e+00 1.531122922897338867e+00 1.088537335395812988e+00
3.478000000000000000e+03 7.486466217041015625e+01 -1.303592681884765625e+01 -1.455586194992065430e+00 8.522140502929687500e+00 2.119966268539428711e+00 8.524217009544372559e-01
3.479000000000000000e+03 7.824976348876953125e+01 -1.678208351135253906e+01 -4.246416091918945312e-01 1.047282314300537109e+01 3.014454364776611328e+00 3.592644929885864258e-01
3.480000000000000000e+03 7.467574310302734375e+01 -2.006378936767578125e+01 -1.130458489060401917e-01 7.976195812225341797e+00 2.358944892883300781e+00 1.306437492370605469e+00
3.481000000000000000e+03 7.626678466796875000e+01 -1.628461837768554688e+01 -1.351856589317321777e+00 8.804445266723632812e+00 2.235776662826538086e+00 4.342346787452697754e-01
3.482000000000000000e+03 7.353583526611328125e+01 -1.773404121398925781e+01 -2.000571012496948242e+00 4.605929374694824219e+00 7.816075086593627930e-01 5.087856054306030273e-01
3.483000000000000000e+03 7.827439880371093750e+01 -1.772443175315856934e+00 -3.410495817661285400e-01 1.011998367309570312e+01 2.933680295944213867e+00 1.328255772590637207e+00
3.484000000000000000e+03 7.551653289794921875e+01 -3.666121721267700195e+00 1.712429225444793701e-01 1.325967216491699219e+01 4.029274463653564453e+00 -4.892223775386810303e-01
3.485000000000000000e+03 7.649857330322265625e+01 -1.052948474884033203e+00 -9.630779623985290527e-01 1.018611145019531250e+01 2.766910076141357422e+00 6.744672656059265137e-01
3.486000000000000000e+03 7.525518035888671875e+01 -2.914159774780273438e+00 -3.135888278484344482e-01 1.158299922943115234e+01 3.380823135375976562e+00 -6.270866394042968750e-01
3.487000000000000000e+03 7.607566070556640625e+01 -1.702929306030273438e+01 -1.349366784095764160e+00 8.552970886230468750e+00 2.161081314086914062e+00 7.748927474021911621e-01
3.488000000000000000e+03 7.819815063476562500e+01 2.226720046997070312e+01 -4.062918201088905334e-02 6.363223552703857422e+00 1.896778225898742676e+00 -6.231091171503067017e-02
3.489000000000000000e+03 7.816837310791015625e+01 -2.658248138427734375e+01 6.385572254657745361e-02 7.589125633239746094e+00 2.295894384384155273e+00 -5.721701681613922119e-02
3.490000000000000000e+03 7.756839752197265625e+01 -2.767381668090820312e+01 -5.870598182082176208e-02 7.507479667663574219e+00 2.234632015228271484e+00 5.251254769973456860e-04
3.491000000000000000e+03 7.759516906738281250e+01 -1.427138710021972656e+01 -8.210902214050292969e-01 1.030742263793945312e+01 2.845899581909179688e+00 -7.709551453590393066e-01
3.492000000000000000e+03 7.377780914306640625e+01 -1.680135726928710938e+01 -1.874928832054138184e+00 5.020422458648681641e+00 9.436480402946472168e-01 4.806348979473114014e-01
3.493000000000000000e+03 7.545783996582031250e+01 -2.601087760925292969e+01 3.973406851291656494e-01 7.802857875823974609e+00 2.460059642791748047e+00 3.997753560543060303e-01
3.494000000000000000e+03 7.821831512451171875e+01 -2.570263481140136719e+01 1.459062546491622925e-01 7.665668964385986328e+00 2.343472480773925781e+00 1.512088347226381302e-02
3.495000000000000000e+03 7.818617248535156250e+01 2.306269073486328125e+01 -4.156717285513877869e-02 6.302457332611083984e+00 1.878266930580139160e+00 -9.371940791606903076e-02
3.496000000000000000e+03 7.749055480957031250e+01 2.151764869689941406e+01 -6.655927002429962158e-02 6.298367023468017578e+00 1.869542241096496582e+00 -8.866958320140838623e-02
3.497000000000000000e+03 7.816840362548828125e+01 2.466092872619628906e+01 -3.108609281480312347e-02 6.163857936859130859e+00 1.839831471443176270e+00 -1.446244418621063232e-01
3.498000000000000000e+03 7.668890380859375000e+01 2.551412010192871094e+01 -4.558494687080383301e-02 5.708354473114013672e+00 1.698830842971801758e+00 -3.103061318397521973e-01
3.499000000000000000e+03 7.478639221191406250e+01 -2.519890975952148438e+01 1.061061978340148926e+00 8.150032997131347656e+00 2.763328313827514648e+00 6.786357164382934570e-01
3.500000000000000000e+03 7.742993927001953125e+01 2.469820022583007812e+01 -4.678399860858917236e-02 5.978112697601318359e+00 1.779398679733276367e+00 -2.166106551885604858e-01
3.501000000000000000e+03 7.738430023193359375e+01 2.710398101806640625e+01 -1.157651375979185104e-02 5.731462955474853516e+00 1.715965867042541504e+00 -2.563502192497253418e-01
3.502000000000000000e+03 7.742171478271484375e+01 2.550014114379882812e+01 -3.670947253704071045e-02 5.896320819854736328e+00 1.757883310317993164e+00 -2.351788431406021118e-01
3.503000000000000000e+03 7.647068786621093750e+01 -3.538891983032226562e+01 6.130688264966011047e-02 6.037090301513671875e+00 1.829519152641296387e+00 3.124866187572479248e-01
3.504000000000000000e+03 7.717706298828125000e+01 -3.200951004028320312e+01 -4.683556780219078064e-02 6.688624382019042969e+00 1.992536664009094238e+00 3.175797164440155029e-01
3.505000000000000000e+03 7.629512023925781250e+01 -3.451259231567382812e+01 5.337711423635482788e-02 6.022908210754394531e+00 1.822885513305664062e+00 3.707756698131561279e-01
3.506000000000000000e+03 7.806703186035156250e+01 -3.134114646911621094e+01 -4.569814354181289673e-02 7.077333927154541016e+00 2.109490871429443359e+00 1.853581815958023071e-01
3.507000000000000000e+03 7.728244018554687500e+01 -3.120728492736816406e+01 -9.189009666442871094e-02 6.830920696258544922e+00 2.021709203720092773e+00 2.748011350631713867e-01
3.508000000000000000e+03 7.712399291992187500e+01 -3.365892410278320312e+01 4.435361362993717194e-03 6.453364849090576172e+00 1.937340140342712402e+00 3.218803405761718750e-01
3.509000000000000000e+03 7.714438629150390625e+01 -3.447266387939453125e+01 2.003496140241622925e-02 6.398301601409912109e+00 1.925500988960266113e+00 2.954263389110565186e-01
3.510000000000000000e+03 7.661000823974609375e+01 3.442729949951171875e+01 4.492689669132232666e-02 5.047060966491699219e+00 1.527596354484558105e+00 -1.724246293306350708e-01
3.511000000000000000e+03 7.673240661621093750e+01 -4.181873321533203125e+01 8.557056635618209839e-02 5.854240417480468750e+00 1.781943321228027344e+00 5.505318939685821533e-02
3.512000000000000000e+03 7.699008178710937500e+01 3.195286750793457031e+01 3.052099980413913727e-02 5.265489578247070312e+00 1.588803172111511230e+00 -2.267242968082427979e-01
3.513000000000000000e+03 7.671076965332031250e+01 3.285116958618164062e+01 4.944179579615592957e-02 5.142831802368164062e+00 1.557682037353515625e+00 -2.069047838449478149e-01
3.514000000000000000e+03 3.781492233276367188e+01 2.100239181518554688e+01 2.293281704187393188e-01 -5.446057915687561035e-01 -9.458328783512115479e-02 4.266836047172546387e-01
3.515000000000000000e+03 7.691925048828125000e+01 -3.672335052490234375e+01 6.111726909875869751e-02 6.123032093048095703e+00 1.855244755744934082e+00 2.528876662254333496e-01
3.516000000000000000e+03 3.562565231323242188e+01 2.359020805358886719e+01 -3.252252638339996338e-01 -5.902606844902038574e-01 -2.746457755565643311e-01 4.066058099269866943e-01
3.517000000000000000e+03 3.622652816772460938e+01 2.191640853881835938e+01 -2.476206049323081970e-03 -5.898116827011108398e-01 -1.776863634586334229e-01 4.130369126796722412e-01
3.518000000000000000e+03 1.158731269836425781e+01 -3.533573865890502930e+00 4.369745496660470963e-03 -7.774694357067346573e-03 -1.021484611555933952e-03 -1.679557375609874725e-02
3.519000000000000000e+03 1.387888336181640625e+01 -3.293172359466552734e+00 2.779081929475069046e-03 -5.280301556922495365e-04 6.753155030310153961e-04 -1.526590157300233841e-02
3.520000000000000000e+03 2.008594512939453125e+00 3.507268524169921875e+01 3.391781821846961975e-02 -5.982348918914794922e-01 -1.692951172590255737e-01 3.014462627470493317e-02
3.521000000000000000e+03 2.511024236679077148e+00 3.772893905639648438e+01 9.702411480247974396e-03 -5.511129498481750488e-01 -1.624231487512588501e-01 -1.108627859503030777e-02
3.522000000000000000e+03 4.200921535491943359e+00 2.698621749877929688e+01 -1.442073285579681396e-01 -4.666092395782470703e-01 -1.832449734210968018e-01 1.649795323610305786e-01
3.523000000000000000e+03 3.728250503540039062e+00 2.862793540954589844e+01 -5.077218636870384216e-02 -4.460451900959014893e-01 -1.490452140569686890e-01 1.925014853477478027e-01
3.524000000000000000e+03 2.869641065597534180e+00 -3.612331390380859375e+01 1.853092457167804241e-03 -2.013809233903884888e-01 -5.985834822058677673e-02 -6.982912123203277588e-02
3.525000000000000000e+03 2.720390558242797852e+00 -3.551736831665039062e+01 -4.477212671190500259e-03 -1.894584298133850098e-01 -5.818069353699684143e-02 -6.662829965353012085e-02
3.526000000000000000e+03 2.424819707870483398e+00 1.764567947387695312e+01 3.404971212148666382e-02 -2.387961000204086304e-01 -6.142391636967658997e-02 1.147239003330469131e-02
3.527000000000000000e+03 1.688715100288391113e+00 1.528530883789062500e+01 1.605319604277610779e-02 -2.049042284488677979e-01 -5.665530636906623840e-02 4.771991819143295288e-02
3.528000000000000000e+03 2.238020181655883789e+00 1.450734806060791016e+01 1.767134293913841248e-02 -1.757017523050308228e-01 -4.740912094712257385e-02 7.540139555931091309e-02
3.529000000000000000e+03 7.075933933258056641e+00 1.239990520477294922e+01 -1.080263126641511917e-02 -1.057163178920745850e-01 -3.495568409562110901e-02 2.115181684494018555e-01
3.530000000000000000e+03 1.834881663322448730e+00 9.748271942138671875e+00 -1.452312152832746506e-02 -2.847601100802421570e-02 -1.289973966777324677e-02 5.828178301453590393e-02
3.531000000000000000e+03 4.110898494720458984e+00 8.410946846008300781e+00 -6.763079762458801270e-02 -2.733264863491058350e-02 -2.848903276026248932e-02 7.350407540798187256e-02
3.532000000000000000e+03 3.140820741653442383e+00 2.879170227050781250e+01 -3.975407034158706665e-02 -4.180124104022979736e-01 -1.373299360275268555e-01 1.921960711479187012e-01
3.533000000000000000e+03 4.734783649444580078e+00 3.008989143371582031e+01 2.663226984441280365e-02 -4.233598411083221436e-01 -1.190182715654373169e-01 1.588912457227706909e-01
3.534000000000000000e+03 5.210662841796875000e+00 3.164163017272949219e+01 1.038998737931251526e-01 -3.016801178455352783e-01 -5.933407694101333618e-02 1.334045827388763428e-01
3.535000000000000000e+03 6.259067058563232422e+00 2.288356971740722656e+01 -1.197291687130928040e-01 -3.549552857875823975e-01 -1.424053311347961426e-01 9.239794313907623291e-02
3.536000000000000000e+03 1.803000926971435547e+00 2.184661674499511719e+01 -2.010977361351251602e-03 -2.388278841972351074e-01 -7.225166261196136475e-02 -3.918007388710975647e-02
3.537000000000000000e+03 1.907891869544982910e+00 8.096845626831054688e+00 -1.853288896381855011e-02 5.063869524747133255e-03 -4.040705971419811249e-03 3.267359733581542969e-02
3.538000000000000000e+03 8.783362388610839844e+00 1.036123180389404297e+01 -1.780873686075210571e-01 -1.840952038764953613e-01 -1.086547747254371643e-01 1.818493455648422241e-01
3.539000000000000000e+03 1.831542491912841797e+00 -2.282126045227050781e+01 1.676674187183380127e-02 -8.610047399997711182e-02 -2.080011926591396332e-02 -1.521176565438508987e-02
3.540000000000000000e+03 1.716361045837402344e+00 -1.938076591491699219e+01 -1.396542065776884556e-03 -3.551201522350311279e-02 -1.107256673276424408e-02 -5.678461864590644836e-02
3.541000000000000000e+03 2.954675674438476562e+00 -2.037010002136230469e+01 2.421647496521472931e-02 -6.501264125108718872e-02 -1.223884895443916321e-02 -6.897791475057601929e-02
3.542000000000000000e+03 2.574374914169311523e+00 8.918525695800781250e+00 -3.021429851651191711e-02 -1.968307606875896454e-02 -1.496921200305223465e-02 6.019438803195953369e-02
3.543000000000000000e+03 2.541094541549682617e+00 9.733539581298828125e+00 -2.640897594392299652e-02 -3.717729449272155762e-02 -1.907588168978691101e-02 7.562518119812011719e-02
3.544000000000000000e+03 1.781822085380554199e+00 1.855249404907226562e+01 1.789750531315803528e-02 -2.476425915956497192e-01 -6.892352551221847534e-02 -1.105487998574972153e-02
3.545000000000000000e+03 2.523218154907226562e+00 2.100729751586914062e+01 6.619951222091913223e-03 -2.607266008853912354e-01 -7.623199373483657837e-02 -3.903808444738388062e-02
3.546000000000000000e+03 7.731376171112060547e+00 1.672007369995117188e+01 2.039816826581954956e-01 -1.202131658792495728e-01 2.513055503368377686e-02 1.290787011384963989e-01
3.547000000000000000e+03 1.853515148162841797e+00 -1.447981834411621094e+01 -9.617524221539497375e-03 2.787770144641399384e-02 5.478052888065576553e-03 -7.436306215822696686e-03
3.548000000000000000e+03 2.496825218200683594e+00 -8.916608810424804688e+00 8.439002558588981628e-04 1.415115222334861755e-02 4.498515743762254715e-03 1.653817482292652130e-02
3.549000000000000000e+03 1.762937426567077637e+00 -8.978281021118164062e+00 -4.664422594942152500e-04 2.871998213231563568e-02 8.476061746478080750e-03 1.438825484365224838e-02
3.550000000000000000e+03 3.434220552444458008e+00 -1.708836555480957031e+01 -3.981981799006462097e-02 -5.514111742377281189e-02 -2.848828025162220001e-02 -5.347060412168502808e-02
3.551000000000000000e+03 1.830762505531311035e+00 -2.365511512756347656e+01 1.346826925873756409e-02 -8.951202780008316040e-02 -2.281312830746173859e-02 -3.942621406167745590e-03
3.552000000000000000e+03 6.953210830688476562e+00 -1.302523612976074219e+01 -7.728251069784164429e-02 -9.007685631513595581e-02 -5.020780861377716064e-02 -5.911664664745330811e-02
3.553000000000000000e+03 1.873280405998229980e+00 -1.695611572265625000e+01 -1.550482679158449173e-02 4.545226693153381348e-03 -3.287879982963204384e-03 -3.702051192522048950e-02
3.554000000000000000e+03 1.759067654609680176e+00 1.689134788513183594e+01 2.063366584479808807e-02 -2.341615110635757446e-01 -6.405835598707199097e-02 2.094313316047191620e-02
3.555000000000000000e+03 2.483728408813476562e+00 2.265567588806152344e+01 -1.738796569406986237e-02 -2.691544890403747559e-01 -8.596273511648178101e-02 -3.220605105161666870e-02
3.556000000000000000e+03 1.689636826515197754e+00 2.422396469116210938e+01 -2.363208495080471039e-02 -2.299653291702270508e-01 -7.607922703027725220e-02 -8.150734007358551025e-03
3.557000000000000000e+03 4.607292175292968750e+00 2.597420883178710938e+01 -1.885860115289688110e-01 -5.084363222122192383e-01 -2.091066986322402954e-01 1.254700571298599243e-01
3.558000000000000000e+03 5.180118560791015625e+00 -1.448412418365478516e+01 -5.110626295208930969e-02 -9.552449733018875122e-02 -4.398922622203826904e-02 -4.897555336356163025e-02
3.559000000000000000e+03 2.449716329574584961e+00 1.592597770690917969e+01 3.091768361628055573e-02 -2.088098526000976562e-01 -5.336764827370643616e-02 5.369770899415016174e-02
3.560000000000000000e+03 2.323289632797241211e+00 1.514943218231201172e+01 2.787436917424201965e-02 -1.939853578805923462e-01 -4.983329772949218750e-02 6.652779877185821533e-02
3.561000000000000000e+03 2.501513719558715820e+00 -1.124458408355712891e+01 -5.522765219211578369e-03 1.476075593382120132e-02 2.771397354081273079e-03 1.263081561774015427e-02
3.562000000000000000e+03 2.511534214019775391e+00 -9.694458007812500000e+00 -1.585087622515857220e-03 1.462816726416349411e-02 3.912923857569694519e-03 1.583037339150905609e-02
3.563000000000000000e+03 2.509761810302734375e+00 -1.047251892089843750e+01 -1.446594018489122391e-03 1.456871256232261658e-02 3.936635330319404602e-03 1.468133833259344101e-02
3.564000000000000000e+03 3.811661958694458008e+00 -1.634968948364257812e+01 -4.481278359889984131e-02 -6.657020002603530884e-02 -3.341489285230636597e-02 -4.633131623268127441e-02
3.565000000000000000e+03 2.707682132720947266e+00 -1.601016426086425781e+01 -2.759287692606449127e-02 -1.818296872079372406e-02 -1.373275369405746460e-02 -3.216978162527084351e-02
3.566000000000000000e+03 2.662666797637939453e+00 -1.515180873870849609e+01 -2.152340114116668701e-02 -8.707626722753047943e-03 -9.069307707250118256e-03 -2.047613821923732758e-02
3.567000000000000000e+03 2.424997568130493164e+00 1.681345748901367188e+01 3.633799403905868530e-02 -2.261836677789688110e-01 -5.695370212197303772e-02 3.319948166608810425e-02
3.568000000000000000e+03 3.663161754608154297e+00 2.504181480407714844e+01 -1.014039665460586548e-01 -3.751987218856811523e-01 -1.429808139801025391e-01 4.540830850601196289e-02
3.569000000000000000e+03 5.959213256835937500e+00 2.398646736145019531e+01 -1.505509167909622192e-01 -4.352627992630004883e-01 -1.757441163063049316e-01 1.319204270839691162e-01
3.570000000000000000e+03 4.750134944915771484e+00 2.483204460144042969e+01 -1.367543637752532959e-01 -4.546451568603515625e-01 -1.774198561906814575e-01 7.798217236995697021e-02
3.571000000000000000e+03 4.820702075958251953e+00 -4.468171596527099609e+00 6.159122101962566376e-03 -6.479133386164903641e-03 -9.600334306014701724e-05 1.006043888628482819e-02
3.572000000000000000e+03 1.803267359733581543e+00 -2.528874778747558594e+01 4.014531150460243225e-03 -9.014362096786499023e-02 -2.583872713148593903e-02 9.382765740156173706e-03
3.573000000000000000e+03 1.805444955825805664e+00 -2.689332580566406250e+01 -3.441221546381711960e-03 -8.931022137403488159e-02 -2.782543376088142395e-02 9.320828132331371307e-03
3.574000000000000000e+03 1.666659832000732422e+00 -6.654863834381103516e+00 1.765664783306419849e-03 1.979479752480983734e-02 6.468138657510280609e-03 1.260693650692701340e-02
3.575000000000000000e+03 2.084168195724487305e+00 6.366324424743652344e+00 -1.882310584187507629e-02 1.908097229897975922e-02 7.735963299637660384e-05 5.035185255110263824e-03
3.576000000000000000e+03 2.656641960144042969e+00 8.114768981933593750e+00 -3.372932225465774536e-02 -7.684812881052494049e-03 -1.242424082010984421e-02 4.444811493158340454e-02
3.577000000000000000e+03 2.547015905380249023e+00 -2.452936172485351562e+01 1.452325005084276199e-02 -7.974480092525482178e-02 -1.956646516919136047e-02 5.103932693600654602e-03
3.578000000000000000e+03 2.465527534484863281e+00 -8.138027191162109375e+00 3.462149179540574551e-04 1.326148957014083862e-02 4.082311410456895828e-03 1.639171503484249115e-02
3.579000000000000000e+03 3.955988645553588867e+00 -5.707173347473144531e+00 5.102158989757299423e-03 -4.055399913340806961e-03 3.140277694910764694e-04 1.414716616272926331e-02
3.580000000000000000e+03 4.110643863677978516e+00 -5.015865325927734375e+00 5.061020608991384506e-03 -3.777126083150506020e-03 3.851683868560940027e-04 1.243372820317745209e-02
3.581000000000000000e+03 1.813060879707336426e+00 -2.769800186157226562e+01 -6.238123401999473572e-03 -8.985246717929840088e-02 -2.882717549800872803e-02 4.923288710415363312e-03
3.582000000000000000e+03 5.472010135650634766e+00 -2.393171501159667969e+01 5.388531088829040527e-02 -2.576089464128017426e-02 8.437325246632099152e-03 3.935301792807877064e-04
3.583000000000000000e+03 2.534476280212402344e+00 -2.533979415893554688e+01 5.818271078169345856e-03 -8.036682754755020142e-02 -2.236456610262393951e-02 9.301851503551006317e-03
3.584000000000000000e+03 2.558890581130981445e+00 -2.933950614929199219e+01 -1.686810329556465149e-02 -9.578759968280792236e-02 -3.379670903086662292e-02 -1.299948338419198990e-02
3.585000000000000000e+03 3.580976963043212891e+00 3.628078460693359375e+00 -1.233548671007156372e-02 6.097001954913139343e-03 -1.871545566245913506e-03 -2.621782384812831879e-02
3.586000000000000000e+03 2.948029994964599609e+00 6.464158535003662109e+00 -3.445395082235336304e-02 5.396863445639610291e-03 -8.717126213014125824e-03 1.181320659816265106e-02
3.587000000000000000e+03 1.905722260475158691e+00 -3.170712280273437500e+01 -9.442480280995368958e-03 -1.237465366721153259e-01 -3.995670378208160400e-02 -2.996394224464893341e-02
3.588000000000000000e+03 1.830625653266906738e+00 3.344776535034179688e+01 3.649503737688064575e-02 -5.865246653556823730e-01 -1.650088876485824585e-01 7.512004673480987549e-02
3.589000000000000000e+03 3.261471271514892578e+00 3.279870986938476562e+01 8.305334299802780151e-02 -4.641401767730712891e-01 -1.143260523676872253e-01 1.247154921293258667e-01
3.590000000000000000e+03 2.721051931381225586e+00 3.396596527099609375e+01 6.524688005447387695e-02 -5.149609446525573730e-01 -1.349142193794250488e-01 7.334537804126739502e-02
3.591000000000000000e+03 3.350285053253173828e+00 -3.092547798156738281e+01 -2.640512585639953613e-02 -1.118515357375144958e-01 -4.147699847817420959e-02 -4.301652684807777405e-02
3.592000000000000000e+03 2.578390359878540039e+00 -3.013484001159667969e+01 -1.771348528563976288e-02 -1.032850295305252075e-01 -3.629955276846885681e-02 -2.296445891261100769e-02
3.593000000000000000e+03 2.738648414611816406e+00 -3.333252334594726562e+01 -1.234443858265876770e-02 -1.494815498590469360e-01 -4.854779690504074097e-02 -5.796959996223449707e-02
3.594000000000000000e+03 2.760658502578735352e+00 -3.484460830688476562e+01 -5.380999762564897537e-03 -1.782072484493255615e-01 -5.507647618651390076e-02 -6.530739367008209229e-02
3.595000000000000000e+03 2.399268150329589844e+00 3.238538360595703125e+01 4.827944934368133545e-02 -5.143229961395263672e-01 -1.398130655288696289e-01 1.255034357309341431e-01
3.596000000000000000e+03 2.862975120544433594e+00 3.135348892211914062e+01 4.453643783926963806e-02 -4.656662940979003906e-01 -1.263389587402343750e-01 1.674552410840988159e-01
3.597000000000000000e+03 2.757597446441650391e+00 -3.410567092895507812e+01 -9.485109709203243256e-03 -1.656552851200103760e-01 -5.254211649298667908e-02 -6.319201737642288208e-02
3.598000000000000000e+03 3.578420400619506836e+00 3.925658798217773438e+01 -1.163497287780046463e-02 -4.052127003669738770e-01 -1.250542998313903809e-01 -1.345546729862689972e-02
3.599000000000000000e+03 4.034463405609130859e+00 -3.618957519531250000e+01 4.866089671850204468e-03 -1.949603110551834106e-01 -5.702826753258705139e-02 -8.693322539329528809e-02
3.600000000000000000e+03 4.922742843627929688e+01 -5.460656166076660156e+00 -2.924135327339172363e-01 1.344824284315109253e-01 -4.737933725118637085e-02 2.895914912223815918e-01
3.601000000000000000e+03 4.895494079589843750e+01 -4.053194999694824219e+00 -2.827450633049011230e-01 9.885974228382110596e-02 -5.516559630632400513e-02 2.327157855033874512e-01
3.602000000000000000e+03 5.199615478515625000e+01 3.801525831222534180e+00 -1.370987057685852051e+00 1.930879801511764526e-01 -3.533697128295898438e-01 9.559939503669738770e-01
3.603000000000000000e+03 7.019660949707031250e+01 7.311172008514404297e+00 -9.297285079956054688e-01 5.505810379981994629e-01 -1.137442439794540405e-01 -2.068410515785217285e-01
3.604000000000000000e+03 4.128764724731445312e+01 -2.484634590148925781e+01 -1.783426553010940552e-01 -3.207941651344299316e-01 -1.497410386800765991e-01 -4.298398792743682861e-01
3.605000000000000000e+03 6.538575172424316406e+00 3.477840042114257812e+01 1.966763436794281006e-01 -9.330178797245025635e-02 3.101236559450626373e-02 3.544165194034576416e-02
3.606000000000000000e+03 6.511313629150390625e+01 -2.775432968139648438e+01 -6.283106654882431030e-02 1.761339306831359863e+00 5.095524787902832031e-01 -7.399130463600158691e-01
3.607000000000000000e+03 6.559668731689453125e+01 -2.738546371459960938e+01 -2.206162661314010620e-01 1.695310592651367188e+00 4.424082934856414795e-01 -6.769852638244628906e-01
3.608000000000000000e+03 2.806333732604980469e+01 8.386240959167480469e+00 2.745450139045715332e-01 5.006685256958007812e-01 2.325640469789505005e-01 1.849450021982192993e-01
3.609000000000000000e+03 2.826163673400878906e+01 7.544450283050537109e+00 2.012262940406799316e-01 5.966506600379943848e-01 2.393630743026733398e-01 1.251454055309295654e-01
3.610000000000000000e+03 3.039844894409179688e+01 -1.191319274902343750e+01 -3.342304229736328125e-01 -3.817761540412902832e-01 -2.148019820451736450e-01 -1.073600426316261292e-01
3.611000000000000000e+03 2.499868965148925781e+01 -2.713949966430664062e+01 2.956886887550354004e-01 -1.445903927087783813e-01 4.532948881387710571e-02 -1.153935566544532776e-01
3.612000000000000000e+03 2.372966194152832031e+01 -2.779786491394042969e+01 2.961957156658172607e-01 -5.202285572886466980e-02 7.325185835361480713e-02 -1.242088079452514648e-01
3.613000000000000000e+03 5.342272567749023438e+01 -1.070703220367431641e+01 -1.422468662261962891e+00 -4.475111514329910278e-02 -4.401659369468688965e-01 -1.646600216627120972e-01
3.614000000000000000e+03 4.562586975097656250e+01 4.591541767120361328e+00 -1.005644798278808594e+00 -2.251003682613372803e-01 -3.692235350608825684e-01 3.180141150951385498e-01
3.615000000000000000e+03 2.766657447814941406e+01 -2.023579025268554688e+01 -1.001780107617378235e-01 -2.397253662347793579e-01 -1.019710153341293335e-01 -1.300376802682876587e-01
3.616000000000000000e+03 4.198685836791992188e+01 -1.549293327331542969e+01 -6.410168409347534180e-01 -1.363552808761596680e-01 -2.332116514444351196e-01 -1.553983390331268311e-01
3.617000000000000000e+03 5.323570251464843750e+01 4.934884548187255859e+00 -6.824737787246704102e-01 5.026973485946655273e-01 -5.393293127417564392e-02 5.996894836425781250e-01
3.618000000000000000e+03 4.670753479003906250e+01 -2.370864486694335938e+01 3.669420778751373291e-01 3.976663649082183838e-01 2.293825298547744751e-01 -3.362979292869567871e-01
3.619000000000000000e+03 3.903254699707031250e+01 -1.699965286254882812e+01 5.589831247925758362e-02 5.967319011688232422e-01 1.957890689373016357e-01 -2.996736168861389160e-01
3.620000000000000000e+03 3.991949844360351562e+01 -1.469263267517089844e+01 -7.468990683555603027e-01 3.796030580997467041e-01 -1.101887971162796021e-01 -1.824091076850891113e-01
3.621000000000000000e+03 5.372800064086914062e+01 3.426664352416992188e+00 -1.501310110092163086e+00 1.414621025323867798e-01 -4.079543948173522949e-01 6.079619526863098145e-01
3.622000000000000000e+03 6.477518463134765625e+01 -2.420400428771972656e+01 -5.133735761046409607e-02 1.947009801864624023e+00 5.687017440795898438e-01 -3.434712886810302734e-01
3.623000000000000000e+03 6.390441894531250000e+01 -2.551277542114257812e+01 -3.080203831195831299e-01 1.629414200782775879e+00 3.964181542396545410e-01 -3.962863981723785400e-01
3.624000000000000000e+03 1.603622627258300781e+01 -1.993878936767578125e+01 -3.070524930953979492e-01 -2.630701661109924316e-01 -1.710367947816848755e-01 -2.974049448966979980e-01
3.625000000000000000e+03 3.450564193725585938e+01 2.075615882873535156e+01 1.042297035455703735e-01 -5.351240634918212891e-01 -1.292683035135269165e-01 4.614489674568176270e-01
3.626000000000000000e+03 1.188213253021240234e+01 -9.696176528930664062e+00 -4.610559344291687012e-02 6.806467659771442413e-03 -1.178973820060491562e-02 -3.622354194521903992e-02
3.627000000000000000e+03 1.135732555389404297e+01 -1.108165836334228516e+01 -6.650398671627044678e-02 1.454637385904788971e-04 -1.990755647420883179e-02 -4.157011210918426514e-02
3.628000000000000000e+03 5.411768341064453125e+01 2.404013824462890625e+01 1.803197115659713745e-01 7.040995359420776367e-01 2.653257846832275391e-01 -2.264692634344100952e-01
3.629000000000000000e+03 5.439583206176757812e+01 2.298455619812011719e+01 1.678349375724792480e-01 5.871742963790893555e-01 2.265027761459350586e-01 -2.570377290248870850e-01
3.630000000000000000e+03 2.392708539962768555e+00 4.377525806427001953e+00 -1.094711199402809143e-02 1.705778017640113831e-02 1.833200338296592236e-03 -1.982199214398860931e-02
3.631000000000000000e+03 2.694729328155517578e+00 3.602633714675903320e+00 -6.824879441410303116e-03 1.203975081443786621e-02 1.564461388625204563e-03 -2.532237023115158081e-02
3.632000000000000000e+03 6.169799327850341797e+00 3.305157661437988281e+00 -2.348353713750839233e-02 -1.008852012455463409e-02 -1.007161661982536316e-02 -2.376610971987247467e-02
3.633000000000000000e+03 4.783613204956054688e+00 4.860911369323730469e+00 -4.831088334321975708e-02 -4.978564102202653885e-03 -1.598683372139930725e-02 -1.045844517648220062e-02
3.634000000000000000e+03 6.990020751953125000e+00 3.934843540191650391e+00 -5.520070716738700867e-02 -2.215375192463397980e-02 -2.320633828639984131e-02 -1.256483700126409531e-02
3.635000000000000000e+03 6.228058338165283203e+00 4.006130218505859375e+00 -4.729116708040237427e-02 -1.336070615798234940e-02 -1.819556206464767456e-02 -1.639612577855587006e-02
3.636000000000000000e+03 2.573411369323730469e+01 -1.358356094360351562e+01 -5.974099040031433105e-01 -1.659261286258697510e-01 -2.290008068084716797e-01 -2.370137423276901245e-01
3.637000000000000000e+03 6.473234558105468750e+01 -1.612265586853027344e+01 4.583417177200317383e-01 1.771342396736145020e+00 6.689052581787109375e-01 2.384674549102783203e-01
3.638000000000000000e+03 4.489575958251953125e+01 7.284148693084716797e+00 -8.953757286071777344e-01 -3.659029006958007812e-01 -3.783835768699645996e-01 5.870375037193298340e-01
3.639000000000000000e+03 4.545214843750000000e+01 6.923761844635009766e+00 -9.886224865913391113e-01 -3.977978527545928955e-01 -4.159260988235473633e-01 5.838159918785095215e-01
3.640000000000000000e+03 5.608803558349609375e+01 9.870098114013671875e+00 3.376161754131317139e-01 3.536683619022369385e-01 2.073853611946105957e-01 3.980924189090728760e-01
3.641000000000000000e+03 5.465856933593750000e+01 -2.747048187255859375e+01 3.119897544384002686e-01 3.673601150512695312e-01 2.038049697875976562e-01 6.998681277036666870e-02
3.642000000000000000e+03 6.170668792724609375e+01 1.997331619262695312e+01 -1.760140359401702881e-01 1.086562514305114746e+00 2.731645703315734863e-01 4.338113367557525635e-01
3.643000000000000000e+03 6.240261077880859375e+01 1.969708824157714844e+01 -2.333445101976394653e-01 9.584836363792419434e-01 2.175417393445968628e-01 4.503317773342132568e-01
3.644000000000000000e+03 7.030197143554687500e+01 2.004267692565917969e+01 3.387647122144699097e-02 3.711206436157226562e+00 1.123524904251098633e+00 -1.435059309005737305e+00
3.645000000000000000e+03 4.651173114776611328e+00 -2.059381484985351562e+01 5.778099596500396729e-02 -5.659916624426841736e-02 3.545489453244954348e-04 -5.792311951518058777e-02
3.646000000000000000e+03 3.368350505828857422e+00 -1.968621635437011719e+01 8.574777282774448395e-03 -6.707517057657241821e-02 -1.755011826753616333e-02 -7.811361551284790039e-02
3.647000000000000000e+03 5.080441284179687500e+01 2.662492942810058594e+01 2.478902339935302734e-01 7.795462012290954590e-01 3.082309365272521973e-01 1.642624288797378540e-01
3.648000000000000000e+03 3.389350128173828125e+01 3.014862442016601562e+01 8.124641329050064087e-02 -3.476952612400054932e-01 -7.993465662002563477e-02 1.581852585077285767e-01
3.649000000000000000e+03 2.146716499328613281e+01 2.390019798278808594e+01 2.062131613492965698e-01 -2.133120596408843994e-01 -2.129669534042477608e-03 1.979171037673950195e-01
3.650000000000000000e+03 2.093908882141113281e+01 2.422246170043945312e+01 3.401747941970825195e-01 -1.885425001382827759e-01 4.548968747258186340e-02 2.594680488109588623e-01
3.651000000000000000e+03 4.483281707763671875e+01 4.110921859741210938e+00 -9.373980164527893066e-01 -1.594516336917877197e-01 -3.290548920631408691e-01 2.281352281570434570e-01
3.652000000000000000e+03 6.112463378906250000e+01 -2.497989654541015625e+01 2.565493285655975342e-01 5.370437502861022949e-01 2.380779236555099487e-01 2.159488797187805176e-01
3.653000000000000000e+03 4.720796585083007812e+01 2.678088569641113281e+01 1.245437413454055786e-01 4.312166869640350342e-01 1.667281389236450195e-01 2.752790749073028564e-01
3.654000000000000000e+03 4.710688018798828125e+01 2.601099586486816406e+01 2.062433809041976929e-01 4.341226816177368164e-01 1.921098232269287109e-01 3.069632947444915771e-01
3.655000000000000000e+03 5.541688919067382812e+01 -3.628403472900390625e+01 4.743225276470184326e-01 9.886211156845092773e-01 4.388830959796905518e-01 -2.693562805652618408e-01
3.656000000000000000e+03 5.353542709350585938e+01 1.785441398620605469e+01 2.017918527126312256e-01 2.291957288980484009e-01 1.292962729930877686e-01 -2.337820976972579956e-01
3.657000000000000000e+03 2.041007614135742188e+01 -1.542661857604980469e+01 -2.647210955619812012e-01 -6.047543510794639587e-02 -9.755896031856536865e-02 -1.407918334007263184e-01
3.658000000000000000e+03 2.192057991027832031e+01 1.573314476013183594e+01 -2.176128476858139038e-01 -2.134225815534591675e-01 -1.293106228113174438e-01 1.214024797081947327e-01
3.659000000000000000e+03 1.681408691406250000e+01 -1.099133968353271484e+01 -8.791544288396835327e-02 4.156051203608512878e-02 -1.390647981315851212e-02 3.766760975122451782e-02
3.660000000000000000e+03 1.573445224761962891e+01 -1.404678726196289062e+01 -1.833464391529560089e-02 1.460692733526229858e-01 3.832038864493370056e-02 -2.134524658322334290e-02
3.661000000000000000e+03 3.588138961791992188e+01 -1.346413040161132812e+01 -5.876948237419128418e-01 3.684389889240264893e-01 -6.577674299478530884e-02 -2.037161886692047119e-01
3.662000000000000000e+03 6.442576599121093750e+01 -2.525980377197265625e+01 -3.378151953220367432e-01 1.718220114707946777e+00 4.141214787960052490e-01 -3.872544467449188232e-01
3.663000000000000000e+03 5.001190185546875000e+01 3.436913967132568359e+00 -1.226009845733642578e+00 -2.117770463228225708e-01 -4.313360750675201416e-01 9.166527390480041504e-01
3.664000000000000000e+03 4.996614074707031250e+01 2.843044996261596680e+00 -1.321513772010803223e+00 -1.138866469264030457e-01 -4.306201338768005371e-01 7.939795851707458496e-01
3.665000000000000000e+03 6.970539093017578125e+01 5.796648502349853516e+00 -1.924577951431274414e-01 3.488408327102661133e-01 4.691491276025772095e-02 -3.648792803287506104e-01
3.666000000000000000e+03 7.138371276855468750e+01 7.592422962188720703e+00 -1.022474646568298340e+00 2.586395025253295898e+00 4.691761434078216553e-01 -7.083337008953094482e-02
3.667000000000000000e+03 5.994784164428710938e+01 1.060765266418457031e+01 7.975108027458190918e-01 1.716939091682434082e+00 7.543349862098693848e-01 -3.426422476768493652e-01
3.668000000000000000e+03 9.552480697631835938e+00 3.562666416168212891e+00 -6.990775465965270996e-02 -5.098640546202659607e-02 -3.626824915409088135e-02 1.805868931114673615e-02
3.669000000000000000e+03 4.984868240356445312e+01 -4.683675289154052734e+00 -2.587484121322631836e-01 2.928476780652999878e-02 -6.883909553289413452e-02 2.959550321102142334e-01
3.670000000000000000e+03 4.359520721435546875e+01 1.641777229309082031e+01 2.030332833528518677e-01 2.866822183132171631e-01 1.469146460294723511e-01 1.995518207550048828e-01
3.671000000000000000e+03 4.015509796142578125e+01 2.086441802978515625e+01 4.079267978668212891e-01 -1.325809210538864136e-01 8.260376006364822388e-02 3.421040177345275879e-01
3.672000000000000000e+03 4.523273468017578125e+01 -2.007206344604492188e+01 2.442618273198604584e-02 -9.724158048629760742e-02 -2.184461988508701324e-02 -5.246946215629577637e-01
3.673000000000000000e+03 6.993742942810058594e+00 -2.441953277587890625e+01 3.431776538491249084e-02 1.446931809186935425e-02 1.463612448424100876e-02 -1.819295622408390045e-02
3.674000000000000000e+03 7.957086086273193359e+00 -1.184926414489746094e+01 -6.728049367666244507e-02 -7.722565531730651855e-02 -4.335184395313262939e-02 -4.132745042443275452e-02
3.675000000000000000e+03 3.229755401611328125e+01 -5.828164100646972656e+00 -3.699478507041931152e-02 -1.507040560245513916e-01 -5.630965158343315125e-02 -2.479111403226852417e-01
3.676000000000000000e+03 7.110316467285156250e+01 -1.488696765899658203e+01 -5.005675554275512695e-01 -4.086906313896179199e-01 -2.727774679660797119e-01 1.558392167091369629e+00
3.677000000000000000e+03 6.956387329101562500e+01 -1.397631645202636719e+01 -4.540794491767883301e-01 -9.986529350280761719e-01 -4.358197152614593506e-01 1.698947668075561523e+00
3.678000000000000000e+03 6.002976894378662109e+00 3.588144302368164062e+01 1.197818145155906677e-01 -1.722088456153869629e-01 -1.572810672223567963e-02 -3.396888496354222298e-03
3.679000000000000000e+03 2.826978111267089844e+01 -1.713204574584960938e+01 -3.096938431262969971e-01 -2.655212879180908203e-01 -1.725645363330841064e-01 -1.900826692581176758e-01
3.680000000000000000e+03 2.618688964843750000e+01 -1.415167045593261719e+01 -5.374540686607360840e-01 -1.890727728605270386e-01 -2.179580479860305786e-01 -2.061737328767776489e-01
3.681000000000000000e+03 9.199875831604003906e+00 4.063897132873535156e+00 -9.205117076635360718e-02 -5.704057589173316956e-02 -4.472752660512924194e-02 1.940945908427238464e-02
3.682000000000000000e+03 7.410447692871093750e+01 -2.436602592468261719e+01 2.014944076538085938e+00 9.047013282775878906e+00 3.318587064743041992e+00 1.189022421836853027e+00
3.683000000000000000e+03 7.406142425537109375e+01 -2.599635505676269531e+01 3.788165748119354248e-01 7.804168224334716797e+00 2.454895496368408203e+00 1.237694382667541504e+00
3.684000000000000000e+03 1.140497207641601562e+01 -2.389165496826171875e+01 -2.026351541280746460e-02 -1.217660829424858093e-01 -4.260887950658798218e-02 -1.557955443859100342e-01
3.685000000000000000e+03 1.439147853851318359e+01 -2.763399887084960938e+01 -7.712730020284652710e-02 -3.374346792697906494e-01 -1.243685856461524963e-01 -1.793112456798553467e-01
3.686000000000000000e+03 1.430109786987304688e+01 5.535934925079345703e+00 -2.758432924747467041e-01 -9.413051605224609375e-02 -1.109921410679817200e-01 2.777913808822631836e-01
3.687000000000000000e+03 1.325670719146728516e+01 5.426673412322998047e+00 -2.481829077005386353e-01 -1.722758561372756958e-01 -1.261376291513442993e-01 2.104589939117431641e-01
3.688000000000000000e+03 6.288133239746093750e+01 -2.025683403015136719e+01 7.128282189369201660e-01 1.751121759414672852e+00 7.391849756240844727e-01 2.382067739963531494e-01
3.689000000000000000e+03 3.152551651000976562e+01 1.421790790557861328e+01 -2.812162041664123535e-01 5.252565145492553711e-01 7.321209460496902466e-02 4.395880401134490967e-01
3.690000000000000000e+03 3.069464874267578125e+01 1.217619323730468750e+01 -1.852449923753738403e-01 7.222545742988586426e-01 1.611028760671615601e-01 3.569024503231048584e-01
3.691000000000000000e+03 4.429313659667968750e+00 1.086386489868164062e+01 -4.535102099180221558e-02 -7.101049274206161499e-02 -3.490845486521720886e-02 1.391390264034271240e-01
3.692000000000000000e+03 5.354373168945312500e+01 2.437361717224121094e+01 2.143794149160385132e-01 7.676050662994384766e-01 2.945953309535980225e-01 -1.670066118240356445e-01
3.693000000000000000e+03 5.326961135864257812e+01 2.364177703857421875e+01 1.844269484281539917e-01 6.813493371009826660e-01 2.597328722476959229e-01 -1.351144760847091675e-01
3.694000000000000000e+03 6.998670196533203125e+01 -1.451956558227539062e+01 -3.753039240837097168e-01 -9.014238715171813965e-01 -3.830183446407318115e-01 1.883392214775085449e+00
3.695000000000000000e+03 6.968113708496093750e+01 -1.263751697540283203e+01 -1.858291387557983398e+00 -1.081700682640075684e+00 -8.819975852966308594e-01 1.497248053550720215e+00
3.696000000000000000e+03 2.044461441040039062e+01 1.594862747192382812e+01 -2.000483423471450806e-01 -2.181589156389236450e-01 -1.254621744155883789e-01 1.319604516029357910e-01
3.697000000000000000e+03 2.168698692321777344e+01 1.507173824310302734e+01 -1.620892733335494995e-01 -2.173681408166885376e-01 -1.138372272253036499e-01 9.442237019538879395e-02
3.698000000000000000e+03 6.816026306152343750e+01 -3.180388450622558594e+01 6.548110842704772949e-01 2.352898359298706055e+00 9.023128747940063477e-01 7.210386544466018677e-02
3.699000000000000000e+03 1.848448371887207031e+01 5.191797256469726562e+00 -1.518872976303100586e-01 2.601138874888420105e-02 -3.776277229189872742e-02 1.630412638187408447e-01
3.700000000000000000e+03 4.968537902832031250e+01 -3.603504943847656250e+01 2.957559525966644287e-01 1.531192511320114136e-01 1.346625536680221558e-01 1.254742443561553955e-01
3.701000000000000000e+03 7.605511474609375000e+01 -9.240658760070800781e+00 2.706857919692993164e+00 1.588893604278564453e+01 5.578738212585449219e+00 1.571329981088638306e-01
3.702000000000000000e+03 7.596826934814453125e+01 -1.099252796173095703e+01 -2.960825152695178986e-02 1.296072673797607422e+01 3.879335641860961914e+00 -7.700434327125549316e-01
3.703000000000000000e+03 4.961291313171386719e+00 3.086946868896484375e+01 6.001278385519981384e-02 -3.677040934562683105e-01 -9.230738878250122070e-02 1.464790403842926025e-01
3.704000000000000000e+03 5.499268341064453125e+01 -1.132849502563476562e+01 -1.812169790267944336e+00 -2.076326608657836914e-01 -6.059407591819763184e-01 -2.929139435291290283e-01
3.705000000000000000e+03 5.496268844604492188e+01 -1.542256259918212891e+01 -1.479742079973220825e-01 1.001646444201469421e-01 -1.434286963194608688e-02 -3.679116964340209961e-01
3.706000000000000000e+03 5.591448211669921875e+01 2.272340965270996094e+01 1.615485399961471558e-01 4.510473608970642090e-01 1.837787628173828125e-01 -3.266952633857727051e-01
3.707000000000000000e+03 5.655081558227539062e+01 2.220273780822753906e+01 1.779518723487854004e-01 3.996939063072204590e-01 1.732937395572662354e-01 -2.987622916698455811e-01
3.708000000000000000e+03 3.165818214416503906e+01 1.502374553680419922e+01 1.898638531565666199e-02 5.476799607276916504e-01 1.699999123811721802e-01 4.024549722671508789e-01
3.709000000000000000e+03 3.245810699462890625e+01 1.578067493438720703e+01 2.759642601013183594e-01 1.553226113319396973e-01 1.293860673904418945e-01 4.179059863090515137e-01
3.710000000000000000e+03 1.644988250732421875e+01 4.759109497070312500e+00 -2.455726861953735352e-01 5.638639256358146667e-02 -5.675588548183441162e-02 2.597149908542633057e-01
3.711000000000000000e+03 5.568193054199218750e+01 -2.491020774841308594e+01 1.116405278444290161e-01 1.933581829071044922e-01 9.149961173534393311e-02 1.989548951387405396e-01
3.712000000000000000e+03 2.831538963317871094e+01 5.130442142486572266e+00 -1.542824599891901016e-02 4.079865515232086182e-01 1.177674904465675354e-01 1.165286079049110413e-01
3.713000000000000000e+03 2.782503128051757812e+01 5.954548835754394531e+00 1.056109517812728882e-01 3.692409396171569824e-01 1.424555629491806030e-01 1.407320052385330200e-01
3.714000000000000000e+03 4.517589187622070312e+01 3.294826889038085938e+01 2.712689042091369629e-01 1.660973951220512390e-02 8.636359870433807373e-02 -6.611648947000503540e-02
3.715000000000000000e+03 4.468944549560546875e+01 3.407828521728515625e+01 4.268412292003631592e-01 -1.397790666669607162e-02 1.238589957356452942e-01 -5.480151623487472534e-02
3.716000000000000000e+03 3.146827888488769531e+01 -5.671945571899414062e+00 -2.042318321764469147e-02 -2.217516303062438965e-01 -7.265244424343109131e-02 -2.099160999059677124e-01
3.717000000000000000e+03 2.057148551940917969e+01 2.171816635131835938e+01 1.562125980854034424e-02 -1.938618272542953491e-01 -5.347217246890068054e-02 4.492902383208274841e-02
3.718000000000000000e+03 1.564114189147949219e+01 -2.225420379638671875e+01 -1.479870826005935669e-01 -3.046038746833801270e-01 -1.357772797346115112e-01 -2.252186685800552368e-01
3.719000000000000000e+03 1.600025558471679688e+01 -2.159667396545410156e+01 -2.248886376619338989e-01 -2.643587887287139893e-01 -1.467742174863815308e-01 -2.120456844568252563e-01
3.720000000000000000e+03 6.064022445678710938e+01 9.241086006164550781e+00 7.065298557281494141e-01 1.580472350120544434e+00 6.861006617546081543e-01 -4.673423767089843750e-01
3.721000000000000000e+03 4.659426879882812500e+01 -1.453301334381103516e+01 -9.304362535476684570e-01 -1.127509474754333496e-01 -3.129561543464660645e-01 -1.527028977870941162e-01
3.722000000000000000e+03 4.710469055175781250e+01 -1.662575531005859375e+01 -9.624167680740356445e-01 -3.213208317756652832e-01 -3.851212859153747559e-01 -2.355412989854812622e-01
3.723000000000000000e+03 6.608657836914062500e+01 -1.439074039459228516e+01 -8.261405229568481445e-01 1.134140610694885254e+00 9.240002930164337158e-02 6.303716897964477539e-01
3.724000000000000000e+03 6.576027679443359375e+01 -1.200486373901367188e+01 -2.113217592239379883e+00 5.375656485557556152e-01 -4.726955592632293701e-01 5.673534870147705078e-01
3.725000000000000000e+03 5.291357421875000000e+01 1.842668151855468750e+01 1.934395134449005127e-01 2.265762835741043091e-01 1.260047405958175659e-01 -2.110040336847305298e-01
3.726000000000000000e+03 2.478634595870971680e+00 2.917828369140625000e+01 -1.750682666897773743e-02 -4.136865139007568359e-01 -1.293579936027526855e-01 1.737495809793472290e-01
3.727000000000000000e+03 4.542015457153320312e+01 -2.515851211547851562e+01 2.598980963230133057e-01 2.595765888690948486e-01 1.558424085378646851e-01 -2.807143628597259521e-01
3.728000000000000000e+03 4.656054687500000000e+01 -2.264367103576660156e+01 4.046333730220794678e-01 3.635161519050598145e-01 2.304448634386062622e-01 -3.591677248477935791e-01
3.729000000000000000e+03 4.952210617065429688e+01 5.112684249877929688e+00 -1.200274944305419922e+00 -7.110201120376586914e-01 -5.733885169029235840e-01 8.148112297058105469e-01
3.730000000000000000e+03 4.633607482910156250e+01 3.875821113586425781e+00 -1.034625411033630371e+00 -2.150520235300064087e-01 -3.749032318592071533e-01 3.194394111633300781e-01
3.731000000000000000e+03 6.613362121582031250e+01 3.098274230957031250e+01 4.463759362697601318e-01 2.701766252517700195e+00 9.444426298141479492e-01 -4.410059452056884766e-01
3.732000000000000000e+03 1.483522891998291016e+01 -2.603335952758789062e+01 3.437443450093269348e-02 -3.252883255481719971e-01 -8.727417141199111938e-02 -1.890250891447067261e-01
3.733000000000000000e+03 6.388387680053710938e+01 3.843400478363037109e-01 -1.462417721748352051e+00 4.286976754665374756e-01 -3.101160228252410889e-01 5.578724201768636703e-03
3.734000000000000000e+03 6.461949157714843750e+01 6.995505690574645996e-01 -1.342444539070129395e+00 3.862387537956237793e-01 -2.868617475032806396e-01 -7.312326878309249878e-02
3.735000000000000000e+03 4.483827972412109375e+01 8.271379470825195312e+00 -8.474270105361938477e-01 -3.808617293834686279e-01 -3.684866130352020264e-01 6.256304979324340820e-01
3.736000000000000000e+03 4.291519546508789062e+01 -2.659004974365234375e+01 1.487654298543930054e-01 6.435610353946685791e-02 6.393645703792572021e-02 -1.751075685024261475e-01
3.737000000000000000e+03 6.668253326416015625e+01 -1.481826114654541016e+01 -3.573571741580963135e-01 9.233543872833251953e-01 1.697991490364074707e-01 9.181590676307678223e-01
3.738000000000000000e+03 4.583824539184570312e+01 3.217046737670898438e+01 1.800075322389602661e-01 7.117518782615661621e-02 7.535481452941894531e-02 -6.152462959289550781e-02
3.739000000000000000e+03 4.873799133300781250e+01 -2.866796684265136719e+01 4.008047580718994141e-01 4.176228344440460205e-01 2.455282658338546753e-01 -3.326992988586425781e-01
3.740000000000000000e+03 4.923134231567382812e+01 -2.915516853332519531e+01 4.080576002597808838e-01 4.028160274028778076e-01 2.432620972394943237e-01 -3.296340703964233398e-01
3.741000000000000000e+03 5.231045150756835938e+01 1.899162673950195312e+01 2.131710052490234375e-01 2.205400317907333374e-01 1.301133185625076294e-01 -1.830074936151504517e-01
3.742000000000000000e+03 1.629304695129394531e+01 -2.249771690368652344e+01 -1.309601664543151855e-01 -2.317304462194442749e-01 -1.088071838021278381e-01 -2.144259810447692871e-01
3.743000000000000000e+03 7.308045196533203125e+01 3.535625338554382324e-01 -1.092545032501220703e+00 4.434794425964355469e+00 1.002674818038940430e+00 -1.538610339164733887e+00
3.744000000000000000e+03 1.525842857360839844e+01 2.212269973754882812e+01 2.878855168819427490e-01 1.762509346008300781e-01 1.392409354448318481e-01 3.318128883838653564e-01
3.745000000000000000e+03 7.623017883300781250e+01 -6.956649303436279297e+00 1.638927340507507324e+00 1.709482765197753906e+01 5.620126724243164062e+00 -2.526941522955894470e-02
3.746000000000000000e+03 7.611937713623046875e+01 -8.153120994567871094e+00 2.047034263610839844e+00 1.693215942382812500e+01 5.693758010864257812e+00 2.573626041412353516e-01
3.747000000000000000e+03 7.307781219482421875e+01 -1.564383697509765625e+01 -1.413051247596740723e+00 3.479086875915527344e+00 6.198107004165649414e-01 6.688055992126464844e-01
3.748000000000000000e+03 2.290927696228027344e+01 -2.517945861816406250e+01 1.984588354825973511e-01 -6.527580320835113525e-03 5.757937952876091003e-02 -1.037662625312805176e-01
3.749000000000000000e+03 2.248260879516601562e+01 -2.605026054382324219e+01 2.758008539676666260e-01 3.565841913223266602e-02 9.343777596950531006e-02 -1.197476983070373535e-01
3.750000000000000000e+03 1.450698184967041016e+01 -6.924124240875244141e+00 -1.521802414208650589e-02 1.890215091407299042e-02 1.105237868614494801e-03 -6.443133577704429626e-03
3.751000000000000000e+03 6.596544647216796875e+01 -1.261506557464599609e+01 -1.877511858940124512e+00 5.849516391754150391e-01 -3.877680897712707520e-01 5.557975172996520996e-01
3.752000000000000000e+03 2.840034294128417969e+01 1.000711154937744141e+01 2.416972368955612183e-01 4.844220578670501709e-01 2.178357839584350586e-01 2.074894905090332031e-01
3.753000000000000000e+03 3.815063858032226562e+01 -2.937365722656250000e+01 3.369316458702087402e-02 -5.338923931121826172e-01 -1.500597596168518066e-01 -2.061330080032348633e-01
3.754000000000000000e+03 6.125538635253906250e+01 2.225108337402343750e+01 4.259564727544784546e-02 8.411913514137268066e-01 2.651360929012298584e-01 5.948131084442138672e-01
3.755000000000000000e+03 7.492869567871093750e+01 -1.222634601593017578e+01 -1.002388000488281250e+00 9.624350547790527344e+00 2.586588621139526367e+00 1.148583650588989258e+00
3.756000000000000000e+03 1.381318569183349609e+01 1.984469985961914062e+01 -5.306897312402725220e-02 1.679864674806594849e-01 3.447524830698966980e-02 3.731088936328887939e-01
3.757000000000000000e+03 2.134235191345214844e+01 -1.495149230957031250e+01 -3.541312217712402344e-01 -8.895629644393920898e-02 -1.329262554645538330e-01 -1.189270392060279846e-01
3.758000000000000000e+03 1.985464859008789062e+01 -1.443374347686767578e+01 -2.524266242980957031e-01 -2.868866175413131714e-02 -8.433458209037780762e-02 -5.207379907369613647e-02
3.759000000000000000e+03 3.240587234497070312e+01 -4.521595954895019531e+00 -5.939337611198425293e-02 -1.041075512766838074e-01 -4.905027896165847778e-02 -2.147103995084762573e-01
3.760000000000000000e+03 7.737552642822265625e+01 -7.825217723846435547e+00 1.580821156501770020e+00 1.233246421813964844e+01 4.173985481262207031e+00 -2.654278278350830078e-01
3.761000000000000000e+03 1.538392257690429688e+01 5.227036952972412109e+00 -2.295837998390197754e-01 1.294775493443012238e-02 -6.499081104993820190e-02 2.808035910129547119e-01
3.762000000000000000e+03 5.071579933166503906e+00 -1.514297676086425781e+01 -5.295689031481742859e-02 -1.077194660902023315e-01 -4.820290580391883850e-02 -5.284846574068069458e-02
3.763000000000000000e+03 3.355627822875976562e+01 -4.693385124206542969e+00 -1.069944798946380615e-01 1.830163761042058468e-03 -3.154929354786872864e-02 -2.417466789484024048e-01
3.764000000000000000e+03 1.106120014190673828e+01 6.224097251892089844e+00 -2.740298211574554443e-01 -1.626107245683670044e-01 -1.309921592473983765e-01 1.391980201005935669e-01
3.765000000000000000e+03 9.430029869079589844e+00 2.188022422790527344e+01 -1.478847265243530273e-01 -1.583480387926101685e-01 -9.186983108520507812e-02 1.596503704786300659e-01
3.766000000000000000e+03 5.497684478759765625e+01 1.538809204101562500e+01 2.007322162389755249e-01 2.310051023960113525e-01 1.295211911201477051e-01 -2.378537207841873169e-01
3.767000000000000000e+03 6.013911437988281250e+01 1.719135856628417969e+01 2.162076532840728760e-01 1.576985955238342285e+00 5.379580855369567871e-01 9.053958207368850708e-02
3.768000000000000000e+03 5.208555603027343750e+01 -7.805330753326416016e+00 -5.648149251937866211e-01 -3.199474513530731201e-01 -2.654286921024322510e-01 2.907213866710662842e-01
3.769000000000000000e+03 4.946029281616210938e+01 -1.013913631439208984e+01 -3.948352336883544922e-01 2.303909957408905029e-01 -4.933326691389083862e-02 -2.880136072635650635e-01
3.770000000000000000e+03 7.173155975341796875e+01 -1.384158229827880859e+01 -3.880518972873687744e-01 9.253832697868347168e-01 1.611994206905364990e-01 1.599811315536499023e+00
3.771000000000000000e+03 7.063609313964843750e+01 -1.333710765838623047e+01 -6.535206437110900879e-01 -4.773322939872741699e-01 -3.392558991909027100e-01 1.644154787063598633e+00
3.772000000000000000e+03 2.221985816955566406e+01 2.633056640625000000e+01 3.518341481685638428e-01 -4.126466438174247742e-02 9.317084401845932007e-02 4.174892604351043701e-01
3.773000000000000000e+03 2.117581558227539062e+01 2.670741653442382812e+01 3.233605921268463135e-01 -2.153095752000808716e-01 3.241530805826187134e-02 4.034379422664642334e-01
3.774000000000000000e+03 4.535874557495117188e+01 -1.780043983459472656e+01 -5.037097930908203125e-01 -1.678165197372436523e-01 -2.014579027891159058e-01 -3.420797884464263916e-01
3.775000000000000000e+03 4.345895385742187500e+01 -1.716776657104492188e+01 -3.582881689071655273e-01 -1.847584843635559082e-01 -1.629139930009841919e-01 -2.763315141201019287e-01
3.776000000000000000e+03 4.321677780151367188e+01 1.556063842773437500e+01 1.675031781196594238e-01 1.883496046066284180e-01 1.067558303475379944e-01 2.078066617250442505e-01
3.777000000000000000e+03 4.423171234130859375e+01 1.614507293701171875e+01 1.972950845956802368e-01 4.421105086803436279e-01 1.918216794729232788e-01 2.051546126604080200e-01
3.778000000000000000e+03 5.847226619720458984e+00 -1.415882110595703125e+01 -6.280556321144104004e-02 -1.028128266334533691e-01 -4.968551546335220337e-02 -5.447980016469955444e-02
3.779000000000000000e+03 7.458015918731689453e+00 -1.244494438171386719e+01 -7.305197417736053467e-02 -7.602638751268386841e-02 -4.472351074218750000e-02 -4.310574010014533997e-02
3.780000000000000000e+03 2.021787452697753906e+01 2.075288391113281250e+01 -7.618778944015502930e-02 -1.580333262681961060e-01 -7.026633620262145996e-02 3.563703224062919617e-02
3.781000000000000000e+03 7.325199127197265625e+01 1.106654930114746094e+01 1.658857613801956177e-01 6.616926193237304688e+00 2.034843683242797852e+00 -1.134612798690795898e+00
3.782000000000000000e+03 7.266592979431152344e+00 1.351407814025878906e+01 6.950375437736511230e-02 -1.055688336491584778e-01 -1.081952452659606934e-02 2.071568220853805542e-01
3.783000000000000000e+03 5.169303512573242188e+01 3.122212982177734375e+01 3.053807318210601807e-01 1.017658710479736328e+00 3.969118297100067139e-01 1.405042111873626709e-01
3.784000000000000000e+03 4.585013961791992188e+01 -2.570611000061035156e+01 2.991662323474884033e-01 2.877329885959625244e-01 1.760697662830352783e-01 -2.451399862766265869e-01
3.785000000000000000e+03 4.639131164550781250e+01 -2.530963706970214844e+01 3.097363710403442383e-01 3.559091687202453613e-01 1.996936649084091187e-01 -2.716545760631561279e-01
3.786000000000000000e+03 4.832805252075195312e+01 -1.143938827514648438e+01 -5.184260010719299316e-01 2.739894390106201172e-01 -7.333096861839294434e-02 -4.669666588306427002e-01
3.787000000000000000e+03 4.810710144042968750e+01 -1.247766494750976562e+01 -7.213298678398132324e-01 1.785767376422882080e-01 -1.628259420394897461e-01 -4.456705749034881592e-01
3.788000000000000000e+03 7.392678070068359375e+01 -1.843017387390136719e+01 -1.731347918510437012e+00 5.904469013214111328e+00 1.251936316490173340e+00 7.489291429519653320e-01
3.789000000000000000e+03 7.153029632568359375e+01 1.741233634948730469e+01 7.112811803817749023e-01 5.939575672149658203e+00 1.995257019996643066e+00 -1.705168604850769043e+00
3.790000000000000000e+03 5.452423858642578125e+01 -3.272386169433593750e+01 3.001049757003784180e-01 9.736652970314025879e-01 3.821310698986053467e-01 -1.176693439483642578e-01
3.791000000000000000e+03 3.392254257202148438e+01 -5.853537082672119141e+00 -6.872873753309249878e-02 2.499688602983951569e-02 -1.311955507844686508e-02 -2.929075956344604492e-01
3.792000000000000000e+03 3.352182769775390625e+01 1.401727390289306641e+01 -3.206668496131896973e-01 -7.823094725608825684e-02 -1.196693405508995056e-01 4.697090983390808105e-01
3.793000000000000000e+03 1.045263385772705078e+01 -3.428337097167968750e+01 -3.891154751181602478e-02 -2.034959495067596436e-01 -7.272224873304367065e-02 -1.538243740797042847e-01
3.794000000000000000e+03 1.110803127288818359e+01 2.111980628967285156e+01 -4.765573143959045410e-02 3.700493648648262024e-02 -3.195238066837191582e-03 2.487014681100845337e-01
3.795000000000000000e+03 1.315204143524169922e+01 2.057357978820800781e+01 -1.152651035226881504e-03 1.700672507286071777e-01 5.067437887191772461e-02 3.706897199153900146e-01
3.796000000000000000e+03 2.116952514648437500e+01 2.590799713134765625e+01 4.012332558631896973e-01 -2.131795734167098999e-01 5.641610175371170044e-02 4.179366230964660645e-01
3.797000000000000000e+03 3.169435501098632812e+00 3.030589675903320312e+01 2.091125771403312683e-02 -4.437911510467529297e-01 -1.268639713525772095e-01 1.900061368942260742e-01
3.798000000000000000e+03 6.782473754882812500e+01 2.281685256958007812e+01 2.251331210136413574e-01 1.924258589744567871e+00 6.448175311088562012e-01 -9.791528582572937012e-01
3.799000000000000000e+03 6.290232086181640625e+01 2.375964927673339844e+01 3.747806251049041748e-01 1.117989301681518555e+00 4.478309750556945801e-01 5.035960078239440918e-01
3.800000000000000000e+03 5.070879745483398438e+01 1.949941253662109375e+01 2.808444499969482422e-01 1.539753228425979614e-01 1.304459273815155029e-01 -5.790525302290916443e-02
3.801000000000000000e+03 1.978989982604980469e+01 2.295158004760742188e+01 2.451437562704086304e-01 -8.161204308271408081e-02 4.905951395630836487e-02 1.347042322158813477e-01
3.802000000000000000e+03 3.197379684448242188e+01 3.246268844604492188e+01 3.155784606933593750e-01 -4.067806303501129150e-01 -2.736065164208412170e-02 2.405349463224411011e-01
3.803000000000000000e+03 9.232759475708007812e+00 -2.414445304870605469e+01 3.862260282039642334e-02 -7.924164528958499432e-04 1.134905591607093811e-02 -8.257375657558441162e-02
3.804000000000000000e+03 9.341691017150878906e+00 -2.636462020874023438e+01 -5.432002246379852295e-02 -7.873321324586868286e-02 -3.991597145795822144e-02 -9.654433280229568481e-02
3.805000000000000000e+03 1.669807434082031250e+01 2.275647735595703125e+01 4.235885441303253174e-01 2.251516431570053101e-01 1.946220546960830688e-01 2.869058251380920410e-01
3.806000000000000000e+03 5.245545578002929688e+01 3.127480888366699219e+01 3.016135990619659424e-01 1.187523126602172852e+00 4.467410147190093994e-01 1.919771879911422729e-01
3.807000000000000000e+03 5.885101699829101562e+01 2.184093284606933594e+01 1.571427881717681885e-01 4.568010568618774414e-01 1.841831505298614502e-01 9.722452610731124878e-02
3.808000000000000000e+03 1.818129539489746094e+01 -1.712243461608886719e+01 -1.005592346191406250e-01 -3.583306074142456055e-02 -4.091768711805343628e-02 -2.290145456790924072e-01
3.809000000000000000e+03 1.152075195312500000e+01 -2.913596725463867188e+01 -1.177258417010307312e-01 -2.432379573583602905e-01 -1.082891374826431274e-01 -1.307992935180664062e-01
3.810000000000000000e+03 4.786170196533203125e+01 -2.465273284912109375e+01 3.820287287235260010e-01 4.782231748104095459e-01 2.580755650997161865e-01 -3.503709137439727783e-01
3.811000000000000000e+03 1.559828662872314453e+01 -2.466069221496582031e+01 3.822247311472892761e-02 -2.914729118347167969e-01 -7.597512751817703247e-02 -2.191428244113922119e-01
3.812000000000000000e+03 7.576020812988281250e+01 -4.464972972869873047e+00 8.523502945899963379e-01 1.477808094024658203e+01 4.689129352569580078e+00 -1.841330230236053467e-01
3.813000000000000000e+03 6.736991882324218750e+01 5.712052345275878906e+00 -1.492309868335723877e-01 -2.801595628261566162e-01 -1.288171708583831787e-01 -8.378782272338867188e-01
3.814000000000000000e+03 6.653023529052734375e+01 5.577808380126953125e+00 -1.367558538913726807e-01 2.476976439356803894e-02 -3.359582647681236267e-02 -9.004068970680236816e-01
3.815000000000000000e+03 6.403823852539062500e+01 -2.251644325256347656e+01 5.274630188941955566e-01 2.193305015563964844e+00 8.162304162979125977e-01 -1.131349951028823853e-01
3.816000000000000000e+03 4.019363784790039062e+01 -1.788047027587890625e+01 1.402751356363296509e-01 2.788175344467163086e-01 1.257278025150299072e-01 -3.786938190460205078e-01
3.817000000000000000e+03 4.020946884155273438e+01 -1.547109127044677734e+01 -5.231560468673706055e-01 2.913263440132141113e-01 -6.954891234636306763e-02 -2.243085950613021851e-01
3.818000000000000000e+03 5.386775970458984375e+01 3.666647720336914062e+01 5.740317702293395996e-01 7.147202491760253906e-01 3.866256177425384521e-01 2.264487892389297485e-01
3.819000000000000000e+03 6.199985504150390625e+01 -1.967076683044433594e+01 7.887125015258789062e-01 1.155419707298278809e+00 5.832396745681762695e-01 1.991356462240219116e-01
3.820000000000000000e+03 6.287913894653320312e+01 2.125621795654296875e+01 -1.777192503213882446e-01 8.000405430793762207e-01 1.866963803768157959e-01 5.928615927696228027e-01
3.821000000000000000e+03 3.689827346801757812e+01 -1.397930145263671875e+01 -6.635363698005676270e-01 6.127625703811645508e-01 -1.523212995380163193e-02 -1.941580176353454590e-01
3.822000000000000000e+03 2.549211883544921875e+01 1.349770736694335938e+01 -1.098510473966598511e-01 -1.606330573558807373e-01 -8.114523440599441528e-02 8.099343627691268921e-02
3.823000000000000000e+03 1.609109687805175781e+01 -5.153246402740478516e+00 -2.952547743916511536e-03 2.663396671414375305e-02 7.104425691068172455e-03 -5.497887264937162399e-03
3.824000000000000000e+03 1.520762252807617188e+01 -5.607896327972412109e+00 -2.716420451179146767e-03 1.701511256396770477e-02 4.289607517421245575e-03 -8.180807344615459442e-03
3.825000000000000000e+03 3.877544021606445312e+01 1.217399692535400391e+01 -7.026210427284240723e-01 -7.771756649017333984e-01 -4.439390301704406738e-01 5.579530000686645508e-01
3.826000000000000000e+03 3.874906158447265625e+01 1.115022945404052734e+01 -9.384222030639648438e-01 -8.992763161659240723e-01 -5.513095259666442871e-01 7.366500496864318848e-01
3.827000000000000000e+03 1.952770233154296875e+01 2.237689781188964844e+01 1.619983762502670288e-01 -4.851366579532623291e-02 3.404541313648223877e-02 9.601002186536788940e-02
3.828000000000000000e+03 5.772599792480468750e+01 -2.677159500122070312e+01 2.213315218687057495e-01 5.565395355224609375e-01 2.333613187074661255e-01 3.617084622383117676e-01
3.829000000000000000e+03 5.455272293090820312e+01 -2.597908973693847656e+01 1.997894346714019775e-01 1.970621645450592041e-01 1.190554797649383545e-01 1.040062531828880310e-01
3.830000000000000000e+03 6.747595214843750000e+01 -3.447063446044921875e+01 4.949030280113220215e-01 2.613338947296142578e+00 9.324725866317749023e-01 2.982717156410217285e-01
3.831000000000000000e+03 6.867809295654296875e+01 -3.550325012207031250e+01 5.239979624748229980e-01 2.910761356353759766e+00 1.030427813529968262e+00 3.190363943576812744e-01
3.832000000000000000e+03 5.544928741455078125e+01 -2.874579238891601562e+01 3.212043344974517822e-01 6.151722669601440430e-01 2.809129655361175537e-01 1.474564671516418457e-01
3.833000000000000000e+03 3.269356155395507812e+01 1.741862678527832031e+01 4.203423261642456055e-01 -2.054569125175476074e-02 1.199389919638633728e-01 5.253638625144958496e-01
3.834000000000000000e+03 3.747568893432617188e+01 1.382926654815673828e+01 -3.041518926620483398e-01 -8.369371294975280762e-01 -3.423267006874084473e-01 4.820123612880706787e-01
3.835000000000000000e+03 3.450781631469726562e+01 2.247681617736816406e+01 -1.640288978815078735e-01 -5.790064930915832520e-01 -2.229106128215789795e-01 4.033369719982147217e-01
3.836000000000000000e+03 4.141903686523437500e+01 2.043121719360351562e+01 4.403631091117858887e-01 9.337211400270462036e-02 1.601205766201019287e-01 2.942101359367370605e-01
3.837000000000000000e+03 4.062712860107421875e+01 2.001792335510253906e+01 3.860482573509216309e-01 -9.899178147315979004e-02 8.611694723367691040e-02 3.590093553066253662e-01
3.838000000000000000e+03 3.766040420532226562e+01 -3.202970123291015625e+01 -5.960173904895782471e-02 -3.081184625625610352e-01 -1.103160604834556580e-01 -2.995330393314361572e-01
3.839000000000000000e+03 9.173820495605468750e+00 -3.784780263900756836e+00 7.760224863886833191e-03 -1.258590444922447205e-02 -1.447703689336776733e-03 -8.899057283997535706e-03
3.840000000000000000e+03 9.982614517211914062e+00 -3.783512830734252930e+00 6.206838414072990417e-03 -1.143563818186521530e-02 -1.568640000186860561e-03 -1.331972051411867142e-02
3.841000000000000000e+03 3.381513977050781250e+01 2.925640106201171875e+01 1.246627792716026306e-02 -4.240793883800506592e-01 -1.234839335083961487e-01 1.550512164831161499e-01
3.842000000000000000e+03 2.767436408996582031e+01 -1.788781547546386719e+01 -2.501869201660156250e-01 -2.520300149917602539e-01 -1.506650745868682861e-01 -1.747661083936691284e-01
3.843000000000000000e+03 5.056052780151367188e+01 -2.798069190979003906e+01 3.912703394889831543e-01 3.340810835361480713e-01 2.176054269075393677e-01 -3.041737973690032959e-01
3.844000000000000000e+03 1.794225120544433594e+01 3.470891189575195312e+01 5.245929956436157227e-02 -2.692538201808929443e-01 -6.503835320472717285e-02 1.393180936574935913e-01
3.845000000000000000e+03 1.917704963684082031e+01 3.731184005737304688e+01 1.475764662027359009e-01 -2.719797790050506592e-01 -3.732099384069442749e-02 8.057456463575363159e-02
3.846000000000000000e+03 1.259170436859130859e+01 -2.464488601684570312e+01 -7.092277201081742533e-07 -2.417174577713012695e-01 -7.251545041799545288e-02 -1.958164125680923462e-01
3.847000000000000000e+03 2.933590126037597656e+01 1.266436958312988281e+01 -1.578730195760726929e-01 5.478227734565734863e-01 1.169849336147308350e-01 3.318862020969390869e-01
3.848000000000000000e+03 2.809595680236816406e+01 1.347783374786376953e+01 -1.268684566020965576e-01 1.812052875757217407e-01 1.630105078220367432e-02 3.103877902030944824e-01
3.849000000000000000e+03 2.862290954589843750e+01 -2.513865661621093750e+01 2.317950129508972168e-01 -8.283965289592742920e-02 4.468660801649093628e-02 -1.332252025604248047e-01
3.850000000000000000e+03 2.926230621337890625e+01 -2.707549476623535156e+01 2.824352979660034180e-01 -3.642294928431510925e-02 7.380370050668716431e-02 -1.452681571245193481e-01
3.851000000000000000e+03 3.072146797180175781e+01 2.888603019714355469e+01 -1.146089658141136169e-01 -6.230643987655639648e-01 -2.213020175695419312e-01 3.548356294631958008e-01
3.852000000000000000e+03 4.950804138183593750e+01 4.419031143188476562e+00 -1.135007858276367188e+00 -4.703135192394256592e-01 -4.815964102745056152e-01 8.544447422027587891e-01
3.853000000000000000e+03 1.880724525451660156e+01 1.848291397094726562e+01 -3.397623300552368164e-01 -9.467420727014541626e-02 -1.303309649229049683e-01 8.762875199317932129e-02
3.854000000000000000e+03 1.974086570739746094e+01 1.854520416259765625e+01 -2.909294068813323975e-01 -1.328479796648025513e-01 -1.271332055330276489e-01 7.176671922206878662e-02
3.855000000000000000e+03 1.707529258728027344e+01 2.175020790100097656e+01 1.663547307252883911e-01 1.405692845582962036e-01 9.207720309495925903e-02 2.015992105007171631e-01
3.856000000000000000e+03 1.794510269165039062e+01 2.247449111938476562e+01 2.720167934894561768e-01 1.188278570771217346e-01 1.172534003853797913e-01 1.623632907867431641e-01
3.857000000000000000e+03 1.723089408874511719e+01 -1.695543408393859863e+00 6.080398801714181900e-03 9.753512218594551086e-03 4.750173073261976242e-03 -1.305070612579584122e-02
3.858000000000000000e+03 4.050382995605468750e+01 4.913498401641845703e+00 -7.693213224411010742e-02 -2.434583157300949097e-01 -9.611713141202926636e-02 1.267747581005096436e-01
3.859000000000000000e+03 4.164039611816406250e+01 3.783517599105834961e+00 -5.520096421241760254e-01 -2.405678033828735352e-01 -2.377732396125793457e-01 -1.038872450590133667e-01
3.860000000000000000e+03 7.124418640136718750e+01 1.890737342834472656e+01 1.723179072141647339e-01 4.852779865264892578e+00 1.507529258728027344e+00 -1.422482132911682129e+00
3.861000000000000000e+03 4.803446578979492188e+01 -6.205892086029052734e+00 -2.567717730998992920e-01 3.558456897735595703e-01 2.972218021750450134e-02 2.238865643739700317e-01
3.862000000000000000e+03 6.135382080078125000e+01 1.929330253601074219e+01 -6.559081375598907471e-02 1.200940012931823730e+00 3.406047523021697998e-01 3.162506222724914551e-01
3.863000000000000000e+03 5.820973587036132812e+01 2.146038436889648438e+01 1.738454252481460571e-01 4.470045268535614014e-01 1.862549930810928345e-01 -5.135461315512657166e-02
3.864000000000000000e+03 7.680855560302734375e+01 4.184246063232421875e+01 3.325209766626358032e-02 4.902762889862060547e+00 1.480804443359375000e+00 -2.048915810883045197e-02
3.865000000000000000e+03 3.300028085708618164e+00 1.495930671691894531e+01 4.479396715760231018e-02 -1.835768520832061768e-01 -4.163486510515213013e-02 9.482300281524658203e-02
3.866000000000000000e+03 4.841627120971679688e+00 1.738255882263183594e+01 9.958487749099731445e-02 -2.261581122875213623e-01 -3.797196969389915466e-02 5.610170587897300720e-02
3.867000000000000000e+03 2.417193412780761719e+01 1.541157150268554688e+01 -3.478905856609344482e-01 -1.899749338626861572e-01 -1.613596528768539429e-01 1.417481005191802979e-01
3.868000000000000000e+03 2.325684165954589844e+01 1.593319225311279297e+01 -2.990542948246002197e-01 -2.129848599433898926e-01 -1.536117494106292725e-01 1.635826230049133301e-01
3.869000000000000000e+03 1.233960628509521484e+01 -3.450807332992553711e+00 3.180208615958690643e-03 -5.246020387858152390e-03 -6.197434850037097931e-04 -1.655380427837371826e-02
3.870000000000000000e+03 5.476734542846679688e+01 1.669030189514160156e+01 2.285419553518295288e-01 2.853853106498718262e-01 1.541781872510910034e-01 -2.804214954376220703e-01
3.871000000000000000e+03 2.010441589355468750e+01 3.481677627563476562e+01 7.820446789264678955e-02 -3.125245273113250732e-01 -7.029601931571960449e-02 6.734745949506759644e-02
3.872000000000000000e+03 5.494381427764892578e+00 3.241018676757812500e+01 1.418014019727706909e-01 -2.411800324916839600e-01 -2.981358766555786133e-02 1.216543540358543396e-01
3.873000000000000000e+03 5.818753719329833984e+00 3.318018722534179688e+01 1.916706860065460205e-01 -1.844537109136581421e-01 2.165095647796988487e-03 1.071219220757484436e-01
3.874000000000000000e+03 4.459582519531250000e+01 1.695713043212890625e+01 2.328118532896041870e-01 4.823800325393676758e-01 2.145575582981109619e-01 2.221619784832000732e-01
3.875000000000000000e+03 7.569227600097656250e+01 -2.072116851806640625e+00 -9.000341296195983887e-01 1.074121856689453125e+01 2.952355384826660156e+00 1.751281470060348511e-01
3.876000000000000000e+03 6.315336990356445312e+01 5.964332580566406250e+00 -7.712625712156295776e-02 9.475252032279968262e-01 2.611196935176849365e-01 -5.992782115936279297e-01
3.877000000000000000e+03 5.830490875244140625e+01 -2.032350730895996094e+01 4.600376486778259277e-01 1.910372525453567505e-01 1.953224688768386841e-01 -4.774078726768493652e-02
3.878000000000000000e+03 3.702192068099975586e+00 3.165841484069824219e+01 7.564843446016311646e-02 -4.309960305690765381e-01 -1.066042780876159668e-01 1.668626368045806885e-01
3.879000000000000000e+03 3.828937911987304688e+01 1.272599220275878906e+01 -6.104668974876403809e-01 -8.184407949447631836e-01 -4.286723136901855469e-01 5.294130444526672363e-01
3.880000000000000000e+03 7.356652069091796875e+01 -1.356100559234619141e+01 -1.078976750373840332e+00 4.946828365325927734e+00 1.160355567932128906e+00 1.454608321189880371e+00
3.881000000000000000e+03 4.638330078125000000e+01 3.062808990478515625e+01 1.088312454521656036e-02 1.344458013772964478e-01 4.359867796301841736e-02 1.154589350335299969e-03
3.882000000000000000e+03 3.194952964782714844e+01 2.604898262023925781e+01 -4.877920448780059814e-01 -7.766761779785156250e-01 -3.793404698371887207e-01 4.088631570339202881e-01
3.883000000000000000e+03 3.132572364807128906e+01 2.816041183471679688e+01 -2.249253541231155396e-01 -6.577209830284118652e-01 -2.647939026355743408e-01 3.484624326229095459e-01
3.884000000000000000e+03 1.657276153564453125e+01 -1.521602058410644531e+01 1.473627286031842232e-03 9.579358994960784912e-02 2.918016538023948669e-02 -5.916041880846023560e-02
3.885000000000000000e+03 3.089939308166503906e+01 -1.503333187103271484e+01 -5.427055358886718750e-01 -2.426873445510864258e-01 -2.356178611516952515e-01 -1.684228181838989258e-01
3.886000000000000000e+03 5.323292922973632812e+01 3.443315887451171875e+01 4.327072799205780029e-01 9.495238661766052246e-01 4.146693348884582520e-01 2.381606847047805786e-01
3.887000000000000000e+03 2.667681312561035156e+01 1.401964378356933594e+01 -2.049934417009353638e-01 -1.031080186367034912e-01 -9.243043512105941772e-02 1.467027664184570312e-01
3.888000000000000000e+03 2.629253005981445312e+01 1.326018333435058594e+01 -8.064647763967514038e-02 -8.545405417680740356e-02 -4.983016103506088257e-02 1.250240504741668701e-01
3.889000000000000000e+03 1.236893177032470703e+01 -2.781562232971191406e+01 -7.562697678804397583e-02 -2.674889266490936279e-01 -1.029347702860832214e-01 -1.435823887586593628e-01
3.890000000000000000e+03 2.751524925231933594e+01 3.109121322631835938e+01 9.371963888406753540e-02 -2.526742815971374512e-01 -4.768639057874679565e-02 5.106858611106872559e-01
3.891000000000000000e+03 2.771978569030761719e+01 -1.673112487792968750e+01 -3.393368124961853027e-01 -2.391229420900344849e-01 -1.735379248857498169e-01 -1.810354888439178467e-01
3.892000000000000000e+03 4.461511993408203125e+01 3.496749877929687500e+01 4.992915689945220947e-01 1.593634299933910370e-02 1.545683741569519043e-01 -3.538591414690017700e-02
3.893000000000000000e+03 4.341497039794921875e+01 1.278407478332519531e+01 -8.062650263309478760e-02 4.675855115056037903e-02 -1.016038469970226288e-02 3.704261183738708496e-01
3.894000000000000000e+03 1.633531188964843750e+01 -3.670076131820678711e+00 -2.643658954184502363e-04 1.788839325308799744e-02 5.287208594381809235e-03 -5.200873594731092453e-03
3.895000000000000000e+03 1.792823410034179688e+01 2.107813453674316406e+01 1.346259005367755890e-02 3.418628498911857605e-02 1.429466344416141510e-02 1.088916882872581482e-01
3.896000000000000000e+03 7.268640899658203125e+01 -2.759561920166015625e+01 -2.194509059190750122e-01 5.012522220611572266e+00 1.437921404838562012e+00 1.947073817253112793e+00
3.897000000000000000e+03 7.120542144775390625e+01 -2.718026542663574219e+01 2.730903625488281250e-01 2.249605178833007812e+00 7.568086385726928711e-01 1.932500600814819336e+00
3.898000000000000000e+03 3.277722167968750000e+01 -1.380147171020507812e+01 -5.559827089309692383e-01 -2.216117978096008301e-01 -2.332783490419387817e-01 -3.888061642646789551e-02
3.899000000000000000e+03 5.131323623657226562e+01 -4.523917675018310547e+00 -1.354205757379531860e-01 -1.817150413990020752e-01 -9.514068812131881714e-02 2.753446400165557861e-01
3.900000000000000000e+03 5.488111114501953125e+01 -3.203836441040039062e+01 2.711277604103088379e-01 9.767943024635314941e-01 3.743766248226165771e-01 -6.429766118526458740e-02
3.901000000000000000e+03 5.519605255126953125e+01 -3.133417510986328125e+01 2.553355693817138672e-01 1.002344489097595215e+00 3.773040175437927246e-01 1.977822557091712952e-02
3.902000000000000000e+03 5.152649307250976562e+01 -3.130222511291503906e+01 3.338246345520019531e-01 4.490833282470703125e-01 2.348723858594894409e-01 -2.842369973659515381e-01
3.903000000000000000e+03 3.351713180541992188e+01 1.967058181762695312e+01 1.568374037742614746e-01 -3.688192963600158691e-01 -6.359456479549407959e-02 4.580660164356231689e-01
3.904000000000000000e+03 1.695948982238769531e+01 -1.234996700286865234e+01 -9.292922914028167725e-02 5.862595140933990479e-02 -1.029098406434059143e-02 3.451108932495117188e-02
3.905000000000000000e+03 5.638625717163085938e+01 1.321483612060546875e+01 1.837763488292694092e-01 5.600018501281738281e-01 2.231334745883941650e-01 -1.480887085199356079e-01
3.906000000000000000e+03 1.409001445770263672e+01 -2.416439628601074219e+01 3.493943018838763237e-03 -3.097440898418426514e-01 -9.187504649162292480e-02 -2.164342552423477173e-01
3.907000000000000000e+03 1.431660366058349609e+01 -2.340361785888671875e+01 -5.877123028039932251e-02 -3.123453557491302490e-01 -1.113349795341491699e-01 -2.285697758197784424e-01
3.908000000000000000e+03 7.196341705322265625e+01 -1.457186603546142578e+01 -6.614277362823486328e-01 1.265379786491394043e+00 1.811855882406234741e-01 1.253350615501403809e+00
3.909000000000000000e+03 7.241651916503906250e+01 -1.589449501037597656e+01 -1.383119702339172363e+00 1.812305569648742676e+00 1.287557780742645264e-01 7.636480927467346191e-01
3.910000000000000000e+03 2.106575965881347656e+01 2.004839706420898438e+01 -1.446513533592224121e-01 -2.788387835025787354e-01 -1.270470321178436279e-01 3.775251656770706177e-02
3.911000000000000000e+03 6.660707855224609375e+01 -2.613811302185058594e+01 -7.238333821296691895e-01 1.212634801864624023e+00 1.466404348611831665e-01 -4.980148971080780029e-01
3.912000000000000000e+03 6.548966217041015625e+01 -2.598477745056152344e+01 -5.561940073966979980e-01 1.671516180038452148e+00 3.345966339111328125e-01 -5.590503811836242676e-01
3.913000000000000000e+03 6.051534652709960938e+01 -2.447512054443359375e+01 3.042285740375518799e-01 5.291599631309509277e-01 2.500165700912475586e-01 3.758835494518280029e-01
3.914000000000000000e+03 6.019017410278320312e+01 7.143329828977584839e-02 -2.167961597442626953e+00 1.685237437486648560e-01 -5.998314023017883301e-01 4.732211232185363770e-01
3.915000000000000000e+03 6.416558074951171875e+01 -7.368835926055908203e+00 -3.228172659873962402e-01 -4.329041391611099243e-02 -1.098323091864585876e-01 1.351506114006042480e-01
3.916000000000000000e+03 2.077992439270019531e+01 1.756536102294921875e+01 -2.711634635925292969e-01 -2.000792175531387329e-01 -1.413727998733520508e-01 1.079609170556068420e-01
3.917000000000000000e+03 2.166653251647949219e+01 1.845979499816894531e+01 -2.319463193416595459e-01 -2.962005436420440674e-01 -1.584440618753433228e-01 1.081469580531120300e-01
3.918000000000000000e+03 4.332664108276367188e+01 1.200011730194091797e+01 -2.710375785827636719e-01 -1.805322058498859406e-02 -8.672723919153213501e-02 4.855525791645050049e-01
3.919000000000000000e+03 9.149721145629882812e+00 9.551527976989746094e+00 -2.233196347951889038e-01 -2.184946984052658081e-01 -1.325442939996719360e-01 1.683452427387237549e-01
3.920000000000000000e+03 9.713589668273925781e+00 7.177321434020996094e+00 -2.402775734663009644e-01 -1.588629037141799927e-01 -1.197421401739120483e-01 1.231702789664268494e-01
3.921000000000000000e+03 7.715611267089843750e+01 -4.063837432861328125e+01 8.554307371377944946e-02 5.958894729614257812e+00 1.813331365585327148e+00 1.219923719763755798e-01
3.922000000000000000e+03 7.971307754516601562e+00 1.529891395568847656e+01 1.877052187919616699e-01 -9.301286935806274414e-02 2.840770594775676727e-02 1.845334917306900024e-01
3.923000000000000000e+03 3.410994052886962891e+00 2.660402679443359375e+01 -1.159304231405258179e-01 -3.966413140296936035e-01 -1.537715196609497070e-01 1.265458017587661743e-01
3.924000000000000000e+03 4.326668739318847656e+00 2.769760513305664062e+01 -1.098741963505744934e-01 -4.929362237453460693e-01 -1.808431297540664673e-01 1.771380007266998291e-01
3.925000000000000000e+03 2.995934295654296875e+01 -1.614620018005371094e+01 -4.233935177326202393e-01 -2.812441885471343994e-01 -2.113913148641586304e-01 -2.342072576284408569e-01
3.926000000000000000e+03 3.978159332275390625e+01 9.893504142761230469e+00 -8.775328397750854492e-01 -6.739279627799987793e-01 -4.654382467269897461e-01 7.514663934707641602e-01
3.927000000000000000e+03 6.963351440429687500e+01 9.031456112861633301e-01 -7.915931344032287598e-01 7.930348813533782959e-02 -2.136868983507156372e-01 -3.169639706611633301e-01
3.928000000000000000e+03 1.920224189758300781e+01 2.363114929199218750e+01 4.217000007629394531e-01 1.623234525322914124e-02 1.313797086477279663e-01 2.068323194980621338e-01
3.929000000000000000e+03 7.094435119628906250e+01 1.507548093795776367e+00 -3.812260627746582031e-01 1.135915040969848633e+00 2.264066785573959351e-01 -8.163533210754394531e-01
3.930000000000000000e+03 1.670462036132812500e+01 -2.012570762634277344e+01 -2.820916175842285156e-01 -1.423567980527877808e-01 -1.273345202207565308e-01 -2.845982909202575684e-01
3.931000000000000000e+03 1.814258384704589844e+01 -1.803154373168945312e+01 -1.326706260442733765e-01 -5.351085215806961060e-02 -5.585444346070289612e-02 -2.889381945133209229e-01
3.932000000000000000e+03 3.111752128601074219e+01 -1.442136287689208984e+01 -5.450859069824218750e-01 -2.440102547407150269e-01 -2.367288470268249512e-01 -1.323971599340438843e-01
3.933000000000000000e+03 3.833845901489257812e+01 -1.593624114990234375e+01 -3.142466843128204346e-01 7.480045557022094727e-01 1.301273554563522339e-01 -2.344605326652526855e-01
3.934000000000000000e+03 9.639648437500000000e+00 -3.374392318725585938e+01 -5.803578346967697144e-02 -1.757658421993255615e-01 -7.014048844575881958e-02 -1.583802253007888794e-01
3.935000000000000000e+03 1.885568237304687500e+01 5.811832904815673828e+00 -6.941989809274673462e-02 1.869181543588638306e-02 -1.521842554211616516e-02 1.348000019788742065e-01
3.936000000000000000e+03 1.375516605377197266e+01 -1.262073802947998047e+01 -4.681932181119918823e-02 9.758413583040237427e-02 1.522944495081901550e-02 -4.089624062180519104e-02
3.937000000000000000e+03 1.489628601074218750e+01 -8.711354255676269531e+00 -4.069618135690689087e-02 3.837597370147705078e-02 -6.960619939491152763e-04 4.689459223300218582e-03
3.938000000000000000e+03 4.653722763061523438e+01 2.196020507812500000e+01 4.495172798633575439e-01 4.121865332126617432e-01 2.585111558437347412e-01 2.613507509231567383e-01
3.939000000000000000e+03 4.072057247161865234e+00 -2.398633384704589844e+01 3.754647821187973022e-02 -5.789152905344963074e-02 -6.103515625000000000e-03 1.672325655817985535e-03
3.940000000000000000e+03 4.036207199096679688e+00 -2.468934631347656250e+01 2.320613898336887360e-02 -5.629795789718627930e-02 -9.927544742822647095e-03 5.862954072654247284e-03
3.941000000000000000e+03 4.835988998413085938e+01 2.600118875503540039e+00 -1.082858681678771973e+00 -1.749984771013259888e-01 -3.773571550846099854e-01 4.991205036640167236e-01
3.942000000000000000e+03 2.734477424621582031e+01 -1.440102672576904297e+01 -4.814448356628417969e-01 -2.260729223489761353e-01 -2.122553288936614990e-01 -1.931946724653244019e-01
3.943000000000000000e+03 1.850197410583496094e+01 -1.304275226593017578e+01 -1.343120783567428589e-01 -4.785183817148208618e-03 -4.172917827963829041e-02 3.608585521578788757e-02
3.944000000000000000e+03 1.939640235900878906e+01 -1.342516231536865234e+01 -1.944913566112518311e-01 -3.241433948278427124e-02 -6.807170808315277100e-02 3.787893056869506836e-02
3.945000000000000000e+03 4.109713745117187500e+01 6.270945549011230469e+00 -3.363990485668182373e-01 -3.460896611213684082e-01 -2.047466188669204712e-01 4.554235637187957764e-01
3.946000000000000000e+03 4.191321945190429688e+01 4.407321929931640625e+00 -4.927442669868469238e-01 -2.905023396015167236e-01 -2.349739819765090942e-01 1.231683883816003799e-03
3.947000000000000000e+03 3.794096374511718750e+01 -2.870999145507812500e+01 -5.550727713853120804e-03 -5.401673913002014160e-01 -1.637154370546340942e-01 -2.379439473152160645e-01
3.948000000000000000e+03 3.382418441772460938e+01 2.687417221069335938e+01 -2.924838364124298096e-01 -5.663582086563110352e-01 -2.576526105403900146e-01 2.927608788013458252e-01
3.949000000000000000e+03 3.321760177612304688e+01 2.757536315917968750e+01 -2.220777422189712524e-01 -5.711864829063415527e-01 -2.379792630672454834e-01 2.624916732311248779e-01
3.950000000000000000e+03 2.518225908279418945e+00 -1.781533241271972656e+01 -2.173088863492012024e-02 -2.940747700631618500e-02 -1.534150913357734680e-02 -5.793118849396705627e-02
3.951000000000000000e+03 4.444528579711914062e+00 -1.661698150634765625e+01 -5.015986785292625427e-02 -1.064985170960426331e-01 -4.699751734733581543e-02 -5.642119050025939941e-02
3.952000000000000000e+03 6.475009155273437500e+01 3.430051803588867188e+01 4.027138352394104004e-01 2.467780113220214844e+00 8.611481785774230957e-01 -4.113683700561523438e-01
3.953000000000000000e+03 5.962042999267578125e+01 1.116367816925048828e+01 7.062116861343383789e-01 1.699519634246826172e+00 7.217193841934204102e-01 -3.383620679378509521e-01
3.954000000000000000e+03 4.825407791137695312e+01 -2.592865562438964844e+01 3.437583446502685547e-01 4.494590759277343750e-01 2.379652261734008789e-01 -3.112942278385162354e-01
3.955000000000000000e+03 2.584630393981933594e+01 -2.961528587341308594e+01 1.967373937368392944e-01 -1.876243054866790771e-01 2.733927452936768532e-03 -1.379825919866561890e-01
3.956000000000000000e+03 1.158121585845947266e+01 1.885666847229003906e+01 8.933196961879730225e-02 2.112190425395965576e-01 9.016530215740203857e-02 2.644121646881103516e-01
3.957000000000000000e+03 3.929340744018554688e+01 1.263842582702636719e+01 -5.295451283454895020e-01 -6.566844582557678223e-01 -3.558688759803771973e-01 4.848279654979705811e-01
3.958000000000000000e+03 7.666387176513671875e+01 -2.693313121795654297e+00 -5.501131415367126465e-01 1.126421451568603516e+01 3.214230298995971680e+00 1.197886943817138672e+00
3.959000000000000000e+03 7.688812255859375000e+01 -3.467730283737182617e+00 -1.228661909699440002e-01 1.171000099182128906e+01 3.476140260696411133e+00 1.439596652984619141e+00
3.960000000000000000e+03 7.430009460449218750e+01 -1.920106887817382812e+01 -9.208554029464721680e-01 7.016218662261962891e+00 1.828608989715576172e+00 1.130644917488098145e+00
3.961000000000000000e+03 3.199177360534667969e+01 -7.857058525085449219e+00 -4.598832875490188599e-02 -2.483753412961959839e-01 -8.830910176038742065e-02 -2.274571806192398071e-01
3.962000000000000000e+03 3.091446304321289062e+01 -9.650643348693847656e+00 -1.863016039133071899e-01 -4.196447730064392090e-01 -1.817839145660400391e-01 -1.546823084354400635e-01
3.963000000000000000e+03 6.210637664794921875e+01 2.145472335815429688e+01 -1.369876414537429810e-01 9.300161600112915039e-01 2.379085570573806763e-01 6.021805405616760254e-01
3.964000000000000000e+03 7.234985351562500000e+01 8.962386131286621094e+00 -9.807786941528320312e-01 4.769165515899658203e+00 1.136516094207763672e+00 -5.508229732513427734e-01
3.965000000000000000e+03 2.573968887329101562e+01 1.452127265930175781e+01 -3.089673221111297607e-01 -1.950569152832031250e-01 -1.512072682380676270e-01 1.126335710287094116e-01
3.966000000000000000e+03 2.332989883422851562e+01 -2.441328430175781250e+01 1.401160508394241333e-01 -3.649254888296127319e-02 3.108705021440982819e-02 -1.129148378968238831e-01
3.967000000000000000e+03 2.226697158813476562e+01 1.704799652099609375e+01 -2.546762228012084961e-01 -2.650059461593627930e-01 -1.559046506881713867e-01 1.644495874643325806e-01
3.968000000000000000e+03 2.081803703308105469e+01 1.652026939392089844e+01 -2.384617775678634644e-01 -2.095832824707031250e-01 -1.344135105609893799e-01 1.291092038154602051e-01
3.969000000000000000e+03 7.623825836181640625e+01 -1.333758640289306641e+01 -1.457976579666137695e+00 1.013120174407958984e+01 2.601967573165893555e+00 -5.198819041252136230e-01
3.970000000000000000e+03 7.350532531738281250e+01 -1.287450218200683594e+01 -5.673727989196777344e-01 4.872709274291992188e+00 1.291600942611694336e+00 1.637727022171020508e+00
3.971000000000000000e+03 6.975409698486328125e+01 -3.285196685791015625e+01 6.065685153007507324e-01 3.003842592239379883e+00 1.083123326301574707e+00 4.733064770698547363e-01
3.972000000000000000e+03 3.871749877929687500e+00 -1.817130851745605469e+01 -3.450611978769302368e-02 -7.816103845834732056e-02 -3.380014747381210327e-02 -7.135317474603652954e-02
3.973000000000000000e+03 1.883712577819824219e+01 -1.364895534515380859e+01 -1.453977525234222412e-01 -1.655990071594715118e-02 -4.858729615807533264e-02 1.390905305743217468e-02
3.974000000000000000e+03 2.272176742553710938e+01 -1.567683029174804688e+01 -3.754615187644958496e-01 -1.355403661727905273e-01 -1.533005684614181519e-01 -1.664744615554809570e-01
3.975000000000000000e+03 2.457972908020019531e+01 -1.604641532897949219e+01 -3.904430270195007324e-01 -1.635691523551940918e-01 -1.662036478519439697e-01 -1.723440885543823242e-01
3.976000000000000000e+03 6.690852355957031250e+01 -1.305092048645019531e+01 -1.614174008369445801e+00 1.676518768072128296e-01 -4.339566528797149658e-01 8.211828470230102539e-01
3.977000000000000000e+03 6.660746002197265625e+01 -1.243258094787597656e+01 -2.117699861526489258e+00 1.994329094886779785e-01 -5.754801034927368164e-01 7.034622430801391602e-01
3.978000000000000000e+03 6.740363311767578125e+01 2.175966262817382812e+01 7.520461082458496094e-02 1.296187400817871094e+00 4.114176034927368164e-01 -9.070598483085632324e-01
3.979000000000000000e+03 1.121768569946289062e+01 -3.079460144042968750e+01 -1.402604281902313232e-01 -2.431021481752395630e-01 -1.150087714195251465e-01 -1.368487030267715454e-01
3.980000000000000000e+03 4.670101165771484375e+01 2.826155424118041992e+00 -1.004308700561523438e+00 -1.561834663152694702e-01 -3.481476604938507080e-01 3.031107783317565918e-01
3.981000000000000000e+03 5.813096237182617188e+01 1.009380340576171875e+01 5.545585751533508301e-01 8.500654697418212891e-01 4.213872253894805908e-01 1.136529818177223206e-01
3.982000000000000000e+03 7.753780364990234375e+01 1.755905532836914062e+01 1.309974491596221924e-01 6.624991416931152344e+00 2.026796579360961914e+00 -1.093274876475334167e-01
3.983000000000000000e+03 6.656556701660156250e+01 2.142816352844238281e+01 8.537247776985168457e-03 7.191318273544311523e-01 2.183007150888442993e-01 -6.046820282936096191e-01
3.984000000000000000e+03 6.771649169921875000e+01 2.103755378723144531e+01 4.374297335743904114e-02 1.450495958328247070e+00 4.482716917991638184e-01 -1.035798072814941406e+00
3.985000000000000000e+03 5.645770263671875000e+01 -2.264953613281250000e+01 9.153726696968078613e-02 1.206574216485023499e-01 6.365840882062911987e-02 1.536342799663543701e-01
3.986000000000000000e+03 5.720432281494140625e+01 -2.079472160339355469e+01 2.687257826328277588e-01 1.133827194571495056e-01 1.146325543522834778e-01 -5.920273065567016602e-02
3.987000000000000000e+03 2.136013793945312500e+01 9.802177429199218750e+00 1.545853018760681152e-01 -1.565246433019638062e-01 -5.818030331283807755e-04 1.034108251333236694e-01
3.988000000000000000e+03 2.778589439392089844e+01 1.041771030426025391e+01 2.177973985671997070e-01 3.279064893722534180e-01 1.637111604213714600e-01 1.737409830093383789e-01
3.989000000000000000e+03 1.552719211578369141e+01 -2.981617927551269531e+00 2.577321603894233704e-03 6.307059898972511292e-03 2.665314357727766037e-03 -1.043756399303674698e-02
3.990000000000000000e+03 3.231921005249023438e+01 2.515523719787597656e+01 -4.945981800556182861e-01 -7.762499451637268066e-01 -3.812544345855712891e-01 4.224592149257659912e-01
3.991000000000000000e+03 3.811198043823242188e+01 -1.994097709655761719e+00 -3.507377207279205322e-01 8.174195140600204468e-02 -8.069873601198196411e-02 8.009038120508193970e-02
3.992000000000000000e+03 5.638203811645507812e+01 -2.345276069641113281e+01 8.841675519943237305e-02 1.624702364206314087e-01 7.526610046625137329e-02 2.203902751207351685e-01
3.993000000000000000e+03 4.572847366333007812e+01 1.884990119934082031e+01 3.294540941715240479e-01 4.776743650436401367e-01 2.421385347843170166e-01 2.331937700510025024e-01
3.994000000000000000e+03 3.947969055175781250e+01 -2.743129730224609375e+01 -3.640314191579818726e-02 -7.099978327751159668e-01 -2.239202857017517090e-01 -2.098428755998611450e-01
3.995000000000000000e+03 4.071438217163085938e+01 -2.733034706115722656e+01 4.150133579969406128e-02 -4.667072296142578125e-01 -1.275617778301239014e-01 -1.456992775201797485e-01
3.996000000000000000e+03 7.609485626220703125e+01 -6.126860141754150391e+00 1.815414905548095703e+00 1.693069458007812500e+01 5.623832702636718750e+00 -1.979498565196990967e-01
3.997000000000000000e+03 7.672258758544921875e+01 -6.103485584259033203e+00 1.639432549476623535e+00 1.422010993957519531e+01 4.757862567901611328e+00 5.363134145736694336e-01
3.998000000000000000e+03 4.884572982788085938e+01 3.204012680053710938e+01 2.624837458133697510e-01 5.150724649429321289e-01 2.332668751478195190e-01 -7.755193859338760376e-03
3.999000000000000000e+03 4.298990631103515625e+01 1.464611339569091797e+01 8.475352078676223755e-02 9.444244951009750366e-02 5.375878885388374329e-02 2.480147033929824829e-01
4.000000000000000000e+03 4.268433380126953125e+01 1.293613338470458984e+01 -1.623400151729583740e-01 -6.307432055473327637e-02 -6.762430071830749512e-02 4.084585905075073242e-01
4.001000000000000000e+03 4.123662948608398438e+00 -1.737225532531738281e+01 -5.100795626640319824e-02 -9.336254000663757324e-02 -4.331114888191223145e-02 -6.125956028699874878e-02
4.002000000000000000e+03 9.920786857604980469e+00 -3.527629470825195312e+01 3.459807718172669411e-03 -1.783789694309234619e-01 -5.247575044631958008e-02 -1.592703461647033691e-01
4.003000000000000000e+03 1.076746654510498047e+01 -3.613986968994140625e+01 5.366339161992073059e-02 -1.885768622159957886e-01 -4.047403857111930847e-02 -1.455888301134109497e-01
4.004000000000000000e+03 3.487416458129882812e+01 3.338785171508789062e+01 4.636051058769226074e-01 -1.559118628501892090e-01 9.230796992778778076e-02 1.556103676557540894e-01
4.005000000000000000e+03 3.169408416748046875e+01 3.118545722961425781e+01 1.914767473936080933e-01 -4.793500304222106934e-01 -8.636198192834854126e-02 2.632489502429962158e-01
4.006000000000000000e+03 4.451506805419921875e+01 -2.127435684204101562e+01 2.034276872873306274e-01 -7.641823589801788330e-02 3.810283541679382324e-02 -5.978702306747436523e-01
4.007000000000000000e+03 4.574789047241210938e+01 3.629823684692382812e+01 5.507409572601318359e-01 1.309514790773391724e-01 2.045077234506607056e-01 -3.373147174715995789e-02
4.008000000000000000e+03 4.316963958740234375e+01 3.552307891845703125e+01 5.814512372016906738e-01 -2.253695949912071228e-02 1.676742732524871826e-01 4.500352218747138977e-02
4.009000000000000000e+03 6.028681945800781250e+01 -1.095362854003906250e+01 -2.212263822555541992e+00 1.742422431707382202e-01 -6.114064455032348633e-01 -3.556280955672264099e-02
4.010000000000000000e+03 6.511472320556640625e+01 5.735828399658203125e+00 -1.271624267101287842e-01 5.817435383796691895e-01 1.363743394613265991e-01 -8.650104403495788574e-01
4.011000000000000000e+03 3.189923667907714844e+01 -1.456271553039550781e+01 -6.532834172248840332e-01 -2.093294113874435425e-01 -2.587838470935821533e-01 -1.249050125479698181e-01
4.012000000000000000e+03 3.362921905517578125e+01 -1.371786022186279297e+01 -5.462386012077331543e-01 -1.744392216205596924e-01 -2.162033468484878540e-01 -8.396346867084503174e-02
4.013000000000000000e+03 6.927219390869140625e+01 -1.492297172546386719e+01 -2.881897985935211182e-01 -8.133682012557983398e-01 -3.304674029350280762e-01 1.669914722442626953e+00
4.014000000000000000e+03 3.653736114501953125e+01 -1.318481826782226562e+01 -5.967494249343872070e-01 5.191666483879089355e-01 -2.327482961118221283e-02 -1.739428043365478516e-01
4.015000000000000000e+03 8.652050971984863281e+00 2.224553489685058594e+01 -1.881340593099594116e-01 -2.188491076231002808e-01 -1.220949515700340271e-01 1.434669047594070435e-01
4.016000000000000000e+03 9.534638404846191406e+00 1.850225830078125000e+01 1.523442566394805908e-01 5.646951030939817429e-03 4.739736393094062805e-02 1.373011022806167603e-01
4.017000000000000000e+03 4.447674942016601562e+01 -1.541489982604980469e+01 -8.241223096847534180e-01 -2.040888369083404541e-01 -3.084633648395538330e-01 -8.590158075094223022e-02
4.018000000000000000e+03 5.559215927124023438e+01 1.402544975280761719e+01 1.627593934535980225e-01 3.057574033737182617e-01 1.405550390481948853e-01 -1.970215886831283569e-01
4.019000000000000000e+03 5.962785720825195312e+01 1.567164325714111328e+01 2.626257836818695068e-01 1.759539246559143066e+00 6.066495180130004883e-01 -6.194850802421569824e-02
4.020000000000000000e+03 6.434178161621093750e+01 -2.336863327026367188e+01 2.695132493972778320e-01 2.076343297958374023e+00 7.037569284439086914e-01 -2.371025979518890381e-01
4.021000000000000000e+03 4.401132583618164062e+01 1.717351531982421875e+01 2.490306645631790161e-01 3.723237514495849609e-01 1.864063292741775513e-01 1.957898885011672974e-01
4.022000000000000000e+03 4.458318710327148438e+01 2.190069961547851562e+01 5.773823261260986328e-01 4.258931577205657959e-01 3.009826540946960449e-01 3.039994239807128906e-01
4.023000000000000000e+03 4.532555007934570312e+01 2.146800231933593750e+01 4.796514809131622314e-01 4.249006807804107666e-01 2.713656425476074219e-01 2.502722740173339844e-01
4.024000000000000000e+03 5.703004074096679688e+01 -1.908509063720703125e+01 4.599778652191162109e-01 -3.517562523484230042e-02 1.274406760931015015e-01 -2.756180763244628906e-01
4.025000000000000000e+03 4.021201324462890625e+01 -1.365838050842285156e+01 -9.467226266860961914e-01 2.672474086284637451e-01 -2.038425654172897339e-01 -1.005526110529899597e-01
4.026000000000000000e+03 7.038488006591796875e+01 -2.735703277587890625e+01 1.884918808937072754e-01 1.061669349670410156e+00 3.750483393669128418e-01 1.189764380455017090e+00
4.027000000000000000e+03 5.570460891723632812e+01 1.310168075561523438e+01 1.018343418836593628e-01 3.026268482208251953e-01 1.213383525609970093e-01 -1.221585348248481750e-01
4.028000000000000000e+03 5.665864944458007812e+01 1.163744068145751953e+01 2.684320807456970215e-01 6.189126372337341309e-01 2.662034332752227783e-01 6.603008508682250977e-02
4.029000000000000000e+03 3.629476165771484375e+01 -5.938815116882324219e+00 -1.473444104194641113e-01 3.463526666164398193e-01 5.970247462391853333e-02 -2.309228479862213135e-01
4.030000000000000000e+03 3.497412109375000000e+01 -7.110041618347167969e+00 1.219417247921228409e-02 1.794733107089996338e-01 5.750024691224098206e-02 -3.051428794860839844e-01
4.031000000000000000e+03 5.396118545532226562e+01 4.827149868011474609e+00 -7.032307386398315430e-01 3.614068925380706787e-01 -1.025471463799476624e-01 4.970330595970153809e-01
4.032000000000000000e+03 6.983618927001953125e+01 -1.338323402404785156e+01 -8.870637416839599609e-01 -9.610214233398437500e-01 -5.544255375862121582e-01 1.611443519592285156e+00
4.033000000000000000e+03 5.124979019165039062e+01 3.298365402221679688e+01 3.662611544132232666e-01 8.334363102912902832e-01 3.599092364311218262e-01 7.269016653299331665e-02
4.034000000000000000e+03 5.513309478759765625e+01 -2.952894592285156250e+01 3.182761967182159424e-01 6.792634129524230957e-01 2.992618680000305176e-01 9.657622128725051880e-02
4.035000000000000000e+03 5.580493164062500000e+01 -2.983806228637695312e+01 2.965404093265533447e-01 8.250423073768615723e-01 3.364748060703277588e-01 1.876706182956695557e-01
4.036000000000000000e+03 4.851120758056640625e+01 -7.077060222625732422e+00 -1.768809556961059570e-01 3.601028621196746826e-01 5.496657267212867737e-02 2.176354676485061646e-01
4.037000000000000000e+03 3.035218715667724609e+00 2.425549888610839844e+01 -6.359500437974929810e-02 -3.172740638256072998e-01 -1.142607182264328003e-01 8.681023493409156799e-03
4.038000000000000000e+03 1.946563529968261719e+01 5.465895652770996094e+00 -9.519364684820175171e-02 -3.006984852254390717e-02 -3.757904842495918274e-02 1.224176213145256042e-01
4.039000000000000000e+03 5.633423995971679688e+01 1.400074768066406250e+01 2.251916825771331787e-01 5.680276155471801758e-01 2.379657924175262451e-01 -2.300648093223571777e-01
4.040000000000000000e+03 5.913084030151367188e+01 1.427235126495361328e+01 3.013607263565063477e-01 1.696892261505126953e+00 5.994758605957031250e-01 -1.676676571369171143e-01
4.041000000000000000e+03 1.573868274688720703e+01 2.087005043029785156e+01 2.915316075086593628e-02 9.954196959733963013e-02 3.860853984951972961e-02 3.079619407653808594e-01
4.042000000000000000e+03 2.815326499938964844e+01 -1.391386032104492188e+01 -4.676775932312011719e-01 -2.589561045169830322e-01 -2.179901152849197388e-01 -1.938577890396118164e-01
4.043000000000000000e+03 3.332673263549804688e+01 2.452181053161621094e+01 -4.362321197986602783e-01 -6.264604926109313965e-01 -3.188077807426452637e-01 3.979958593845367432e-01
4.044000000000000000e+03 4.317211532592773438e+01 5.418334007263183594e+00 -6.924656629562377930e-01 -2.715485095977783203e-01 -2.892042398452758789e-01 3.041151762008666992e-01
4.045000000000000000e+03 1.510350894927978516e+01 2.060136604309082031e+01 -9.011123329401016235e-03 1.089047268033027649e-01 2.996808104217052460e-02 3.444952666759490967e-01
4.046000000000000000e+03 1.524489688873291016e+01 1.988048744201660156e+01 -7.633102685213088989e-02 4.369065910577774048e-02 -9.792109020054340363e-03 3.296315670013427734e-01
4.047000000000000000e+03 1.647217869758605957e+00 -4.377696037292480469e+00 1.119733555242419243e-03 1.024233642965555191e-02 3.408620832487940788e-03 9.197723120450973511e-03
4.048000000000000000e+03 4.506628417968750000e+01 1.863632202148437500e+01 3.069221973419189453e-01 4.641572535037994385e-01 2.313238382339477539e-01 2.132894545793533325e-01
4.049000000000000000e+03 4.633995056152343750e+01 1.940164756774902344e+01 3.571899533271789551e-01 4.413217306137084961e-01 2.395535111427307129e-01 2.403698712587356567e-01
4.050000000000000000e+03 4.305061721801757812e+01 2.079901695251464844e+01 5.202947854995727539e-01 3.127892315387725830e-01 2.499252110719680786e-01 2.354554235935211182e-01
4.051000000000000000e+03 2.820104598999023438e+01 -2.431355094909667969e+01 1.714327931404113770e-01 -1.186396554112434387e-01 1.583794131875038147e-02 -1.306189745664596558e-01
4.052000000000000000e+03 2.861575889587402344e+01 -2.647407150268554688e+01 2.785479724407196045e-01 -8.715838193893432617e-02 5.741687864065170288e-02 -1.393110156059265137e-01
4.053000000000000000e+03 5.310285186767578125e+01 -3.107626914978027344e+01 3.382693529129028320e-01 6.123719811439514160e-01 2.851924002170562744e-01 -1.923054903745651245e-01
4.054000000000000000e+03 3.435331726074218750e+01 -3.064475631713867188e+01 4.263894632458686829e-02 6.554452329874038696e-02 3.245503827929496765e-02 -2.948226928710937500e-01
4.055000000000000000e+03 3.240702056884765625e+01 -2.967024230957031250e+01 1.613272875547409058e-01 1.366640180349349976e-01 8.939738571643829346e-02 -1.817634701728820801e-01
4.056000000000000000e+03 6.367923736572265625e+01 2.325070953369140625e+01 2.993928790092468262e-01 1.066214561462402344e+00 4.096822440624237061e-01 3.305103778839111328e-01
4.057000000000000000e+03 4.512229537963867188e+01 -1.630854606628417969e+01 -7.259670495986938477e-01 -1.851939707994461060e-01 -2.733483016490936279e-01 -1.511277258396148682e-01
4.058000000000000000e+03 4.433609771728515625e+01 1.876321983337402344e+01 3.074913918972015381e-01 4.048971533775329590e-01 2.137165665626525879e-01 1.922244131565093994e-01
4.059000000000000000e+03 4.675458908081054688e+01 3.357050704956054688e+01 3.472972214221954346e-01 1.907613128423690796e-01 1.614175587892532349e-01 -8.552506566047668457e-02
4.060000000000000000e+03 4.082043457031250000e+01 8.628267288208007812e+00 -7.331568598747253418e-01 -4.020912051200866699e-01 -3.405744135379791260e-01 7.608274221420288086e-01
4.061000000000000000e+03 5.006497192382812500e+01 2.108876800537109375e+01 3.448567390441894531e-01 2.848775386810302734e-01 1.889202892780303955e-01 7.136152684688568115e-02
4.062000000000000000e+03 2.812263107299804688e+01 1.413900470733642578e+01 -2.186230123043060303e-01 1.113847345113754272e-01 -3.217148408293724060e-02 2.957349717617034912e-01
4.063000000000000000e+03 3.366637802124023438e+01 2.361682701110839844e+01 -3.254704773426055908e-01 -6.080700159072875977e-01 -2.800621390342712402e-01 3.987412154674530029e-01
4.064000000000000000e+03 2.133878326416015625e+01 3.089435386657714844e+01 -1.368846148252487183e-01 -2.284532338380813599e-01 -1.096013560891151428e-01 4.811716452240943909e-02
4.065000000000000000e+03 2.167840003967285156e+01 2.776404380798339844e+01 2.231329530477523804e-01 -1.681122481822967529e-01 1.650620996952056885e-02 3.246053457260131836e-01
4.066000000000000000e+03 7.384476470947265625e+01 -3.035186827182769775e-01 -1.203678846359252930e+00 6.254198074340820312e+00 1.515155792236328125e+00 -1.276930809020996094e+00
4.067000000000000000e+03 7.541843414306640625e+01 -8.280400037765502930e-01 -1.280893087387084961e+00 9.371672630310058594e+00 2.427233934402465820e+00 -2.420810908079147339e-01
4.068000000000000000e+03 1.756422162055969238e+00 4.171627521514892578e+00 -4.374662414193153381e-03 2.447889745235443115e-02 6.031270604580640793e-03 -1.951994374394416809e-02
4.069000000000000000e+03 3.725186920166015625e+01 -2.898554992675781250e+01 1.454462483525276184e-02 -4.130733907222747803e-01 -1.195586323738098145e-01 -2.684546709060668945e-01
4.070000000000000000e+03 3.617905807495117188e+01 -2.963095664978027344e+01 1.869993284344673157e-02 -1.586750000715255737e-01 -4.199251905083656311e-02 -2.954488694667816162e-01
4.071000000000000000e+03 7.748456573486328125e+01 8.677896499633789062e+00 -1.598296463489532471e-01 8.537488937377929688e+00 2.513297796249389648e+00 -1.038838863372802734e+00
4.072000000000000000e+03 2.029030609130859375e+01 -1.851507377624511719e+01 -2.036961466073989868e-01 -4.289167374372482300e-02 -7.397634536027908325e-02 -2.727066874504089355e-01
4.073000000000000000e+03 7.477774047851562500e+01 1.532679176330566406e+01 9.506238102912902832e-01 6.760581016540527344e+00 2.313361406326293945e+00 -8.087866902351379395e-01
4.074000000000000000e+03 7.747274780273437500e+01 1.598778820037841797e+01 2.680394649505615234e-01 6.788013458251953125e+00 2.116815805435180664e+00 -3.384672999382019043e-01
4.075000000000000000e+03 4.609388351440429688e+01 -2.320728302001953125e+01 3.543212413787841797e-01 2.998676598072052002e-01 1.962566673755645752e-01 -3.770993351936340332e-01
4.076000000000000000e+03 4.174896621704101562e+01 1.894759941101074219e+01 3.312389254570007324e-01 5.686480924487113953e-02 1.164311245083808899e-01 2.789948582649230957e-01
4.077000000000000000e+03 4.361409759521484375e+01 1.869259452819824219e+01 2.970594465732574463e-01 3.169899880886077881e-01 1.842148303985595703e-01 1.942828297615051270e-01
4.078000000000000000e+03 2.551626205444335938e+00 1.055942916870117188e+01 -1.918672956526279449e-02 -5.813863128423690796e-02 -2.319760806858539581e-02 8.885914832353591919e-02
4.079000000000000000e+03 3.727546310424804688e+01 -3.634255599975585938e+01 3.982490897178649902e-01 -1.436044126749038696e-01 7.639340311288833618e-02 -2.927096784114837646e-01
4.080000000000000000e+03 5.163460922241210938e+01 -6.930652618408203125e+00 -4.220010042190551758e-01 -2.720465660095214844e-01 -2.082142680883407593e-01 3.278928995132446289e-01
4.081000000000000000e+03 5.385304641723632812e+01 -2.630461311340332031e+01 2.639975249767303467e-01 1.605572849512100220e-01 1.273664385080337524e-01 1.763462275266647339e-02
4.082000000000000000e+03 1.623458099365234375e+01 -1.209722614288330078e+01 -9.247990697622299194e-02 7.870728522539138794e-02 -4.131786990910768509e-03 2.342847734689712524e-02
4.083000000000000000e+03 5.796037673950195312e+01 3.084556818008422852e+00 -1.457471609115600586e+00 -2.131052911281585693e-01 -5.011730790138244629e-01 7.917968183755874634e-02
4.084000000000000000e+03 5.587129974365234375e+01 6.100191116333007812e+00 1.040184125304222107e-01 8.583298325538635254e-02 5.695541948080062866e-02 2.833645343780517578e-01
4.085000000000000000e+03 5.248247528076171875e+01 2.315927124023437500e+01 2.240885049104690552e-01 5.949593186378479004e-01 2.457143515348434448e-01 -6.798587739467620850e-02
4.086000000000000000e+03 5.507860565185546875e+01 -1.617069435119628906e+01 2.103568017482757568e-01 1.229743212461471558e-01 9.999933838844299316e-02 -3.247491121292114258e-01
4.087000000000000000e+03 3.733915710449218750e+01 1.996790504455566406e+01 3.030964732170104980e-01 -5.957695841789245605e-01 -8.780194073915481567e-02 4.798700809478759766e-01
4.088000000000000000e+03 4.877003097534179688e+01 -2.560386276245117188e+01 3.700745999813079834e-01 4.381988644599914551e-01 2.424820363521575928e-01 -3.323172628879547119e-01
4.089000000000000000e+03 1.909392547607421875e+01 4.837300777435302734e+00 -2.044216245412826538e-01 -3.719404712319374084e-02 -7.248470187187194824e-02 1.485537588596343994e-01
4.090000000000000000e+03 3.034999275207519531e+01 1.428451251983642578e+01 -2.118623405694961548e-01 6.404521465301513672e-01 1.285769343376159668e-01 4.778757691383361816e-01
4.091000000000000000e+03 2.966201210021972656e+01 1.415555477142333984e+01 -2.579766809940338135e-01 5.294159650802612305e-01 8.143178373575210571e-02 4.527201652526855469e-01
4.092000000000000000e+03 2.759391593933105469e+01 -3.105491256713867188e+01 1.087364032864570618e-01 -1.509737223386764526e-01 -1.267119590193033218e-02 -1.475518345832824707e-01
4.093000000000000000e+03 4.689669036865234375e+01 2.996122169494628906e+01 7.493965793401002884e-03 2.533538639545440674e-01 7.825434952974319458e-02 5.106975883245468140e-02
4.094000000000000000e+03 6.333018875122070312e+01 -1.262392711639404297e+01 -1.636522769927978516e+00 9.951472282409667969e-01 -1.924126595258712769e-01 1.076013147830963135e-01
4.095000000000000000e+03 7.605693054199218750e+01 1.138729953765869141e+01 2.097616195678710938e-01 7.328383445739746094e+00 2.261443614959716797e+00 -1.414118766784667969e+00
4.096000000000000000e+03 5.401641845703125000e+01 -1.115178203582763672e+01 -1.549997448921203613e+00 -5.575878918170928955e-02 -4.817268550395965576e-01 -2.738021612167358398e-01
4.097000000000000000e+03 3.708563995361328125e+01 2.066258430480957031e+01 2.316389977931976318e-01 -5.973129272460937500e-01 -1.097021773457527161e-01 4.585060477256774902e-01
4.098000000000000000e+03 3.782666015625000000e+01 1.468361854553222656e+01 -5.703484266996383667e-02 -7.661464214324951172e-01 -2.469543665647506714e-01 4.420412778854370117e-01
4.099000000000000000e+03 7.694867706298828125e+01 -1.908310508728027344e+01 -5.144397616386413574e-01 9.032814979553222656e+00 2.555512666702270508e+00 1.450910806655883789e+00
4.100000000000000000e+03 8.208186149597167969e+00 1.465840053558349609e+01 1.553678512573242188e-01 -6.724523007869720459e-02 2.643678709864616394e-02 1.884607821702957153e-01
4.101000000000000000e+03 3.667742538452148438e+01 -3.041335487365722656e+01 -3.867223393172025681e-03 -2.444725334644317627e-01 -7.450192421674728394e-02 -2.960116565227508545e-01
4.102000000000000000e+03 2.577109146118164062e+01 -2.590891647338867188e+01 2.608422338962554932e-01 -1.527432352304458618e-01 3.242969512939453125e-02 -1.263323575258255005e-01
4.103000000000000000e+03 7.602323913574218750e+01 -1.848792266845703125e+01 -9.773898720741271973e-01 8.482910156250000000e+00 2.251656055450439453e+00 1.359441280364990234e+00
4.104000000000000000e+03 3.617891311645507812e+01 -1.256685256958007812e+01 -4.641360044479370117e-01 4.491057991981506348e-01 -4.509055521339178085e-03 -1.416694074869155884e-01
4.105000000000000000e+03 2.013679695129394531e+01 7.860273361206054688e+00 2.212557941675186157e-01 -6.668623536825180054e-02 4.637086763978004456e-02 9.913213551044464111e-02
4.106000000000000000e+03 2.020194053649902344e+01 6.770212650299072266e+00 1.057696714997291565e-01 -8.167138695716857910e-02 7.229485083371400833e-03 9.434606134891510010e-02
4.107000000000000000e+03 3.651953887939453125e+01 -1.198629474639892578e+01 -3.725777566432952881e-01 5.124202966690063477e-01 4.195277020335197449e-02 -1.061950847506523132e-01
4.108000000000000000e+03 5.496756744384765625e+01 2.257399940490722656e+01 1.662247180938720703e-01 5.402857065200805664e-01 2.119531333446502686e-01 -3.128911256790161133e-01
4.109000000000000000e+03 6.026654052734375000e+01 7.684570789337158203e+00 3.410193324089050293e-01 9.731594920158386230e-01 3.942536413669586182e-01 -2.295743525028228760e-01
4.110000000000000000e+03 6.028673553466796875e+01 9.960910797119140625e+00 8.019794821739196777e-01 1.728631377220153809e+00 7.591832280158996582e-01 -3.989743888378143311e-01
4.111000000000000000e+03 3.361313247680664062e+01 2.566238021850585938e+01 -4.328216016292572021e-01 -5.807582139968872070e-01 -3.040739595890045166e-01 3.554492294788360596e-01
4.112000000000000000e+03 3.296466445922851562e+01 2.538694381713867188e+01 -4.790167510509490967e-01 -6.533441543579101562e-01 -3.397082686424255371e-01 3.837833404541015625e-01
4.113000000000000000e+03 3.231239318847656250e+01 1.493072986602783203e+01 -3.230341896414756775e-02 2.808536291122436523e-01 7.456506043672561646e-02 3.956455588340759277e-01
4.114000000000000000e+03 3.591652297973632812e+01 1.365947532653808594e+01 -4.931585788726806641e-01 -7.794300913810729980e-01 -3.817766010761260986e-01 5.506148338317871094e-01
4.115000000000000000e+03 5.324086380004882812e+01 -2.685480690002441406e+01 3.191103935241699219e-01 1.843486428260803223e-01 1.510377079248428345e-01 -7.085670530796051025e-02
4.116000000000000000e+03 2.911174011230468750e+01 1.204396152496337891e+01 -3.332524374127388000e-02 5.109955072402954102e-01 1.433010846376419067e-01 2.765371501445770264e-01
4.117000000000000000e+03 2.801462173461914062e+01 1.280829620361328125e+01 -8.188150823116302490e-02 2.365254312753677368e-01 4.639317840337753296e-02 2.558181583881378174e-01
4.118000000000000000e+03 4.882926559448242188e+01 4.280322074890136719e+00 -1.143181681632995605e+00 -5.297869443893432617e-01 -5.018905997276306152e-01 7.236964106559753418e-01
4.119000000000000000e+03 2.635210037231445312e+01 -3.047837829589843750e+01 1.356996148824691772e-01 -1.934723556041717529e-01 -1.733181998133659363e-02 -1.405175179243087769e-01
4.120000000000000000e+03 2.805133438110351562e+01 3.650344610214233398e+00 -3.134842216968536377e-01 2.418702542781829834e-01 -2.148419059813022614e-02 1.383775323629379272e-01
4.121000000000000000e+03 5.562261199951171875e+01 4.009057521820068359e+00 -1.050393581390380859e+00 -1.645985431969165802e-02 -3.200560510158538818e-01 3.308728933334350586e-01
4.122000000000000000e+03 5.340182876586914062e+01 5.553955554962158203e+00 -2.323573678731918335e-01 6.079438328742980957e-01 1.126759424805641174e-01 5.472596287727355957e-01
4.123000000000000000e+03 7.702326965332031250e+01 -9.301699638366699219e+00 1.789590716361999512e+00 1.266651058197021484e+01 4.336830615997314453e+00 -1.129666090011596680e+00
4.124000000000000000e+03 6.640719604492187500e+01 2.234451484680175781e+01 2.767116129398345947e-01 1.015431165695190430e+00 3.876428306102752686e-01 -5.001478791236877441e-01
4.125000000000000000e+03 5.597897720336914062e+01 -1.686411857604980469e+01 4.322350323200225830e-01 -1.134076416492462158e-01 9.564822167158126831e-02 -3.251835107803344727e-01
4.126000000000000000e+03 5.386528015136718750e+01 4.146599292755126953e+00 -1.083509802818298340e+00 2.646651864051818848e-01 -2.456533759832382202e-01 5.452284812927246094e-01
4.127000000000000000e+03 3.542505645751953125e+01 -9.043367385864257812e+00 1.325820237398147583e-01 2.651089727878570557e-01 1.193073019385337830e-01 -2.156067043542861938e-01
4.128000000000000000e+03 4.259401321411132812e+01 1.008093452453613281e+01 -6.937892436981201172e-01 -1.791265755891799927e-01 -2.618747353553771973e-01 6.937921047210693359e-01
4.129000000000000000e+03 4.292784881591796875e+01 8.771640777587890625e+00 -7.876970171928405762e-01 -2.108841538429260254e-01 -2.995743453502655029e-01 6.845369935035705566e-01
4.130000000000000000e+03 4.110469436645507812e+01 -1.930407524108886719e+01 2.427801638841629028e-01 1.046585664153099060e-02 7.597380876541137695e-02 -5.111604928970336914e-01
4.131000000000000000e+03 2.132967948913574219e+01 1.917810821533203125e+01 -1.983277499675750732e-01 -2.908156812191009521e-01 -1.467430293560028076e-01 7.383503019809722900e-02
4.132000000000000000e+03 3.550198745727539062e+01 3.397235107421875000e+01 5.183349847793579102e-01 -8.911164104938507080e-02 1.287670135498046875e-01 1.290378570556640625e-01
4.133000000000000000e+03 3.279185104370117188e+01 3.295112991333007812e+01 3.650499284267425537e-01 -3.513058722019195557e-01 4.123214632272720337e-03 2.026357352733612061e-01
4.134000000000000000e+03 2.173480606079101562e+01 1.782225990295410156e+01 -2.482807040214538574e-01 -2.750397324562072754e-01 -1.569961309432983398e-01 1.291819065809249878e-01
4.135000000000000000e+03 1.636819648742675781e+01 -1.009625434875488281e+01 -6.972108036279678345e-02 4.666155576705932617e-02 -6.917857564985752106e-03 3.334708511829376221e-02
4.136000000000000000e+03 2.074006462097167969e+01 8.529147148132324219e+00 2.180432975292205811e-01 -1.309357136487960815e-01 2.613227255642414093e-02 1.139207482337951660e-01
4.137000000000000000e+03 4.992488479614257812e+01 -5.357944488525390625e+00 -2.863177359104156494e-01 5.513447150588035583e-02 -6.935498118400573730e-02 3.277365863323211670e-01
4.138000000000000000e+03 3.424017715454101562e+01 2.599082946777343750e+01 -3.760394155979156494e-01 -5.778360366821289062e-01 -2.861626446247100830e-01 3.449281752109527588e-01
4.139000000000000000e+03 1.413990879058837891e+01 2.098639106750488281e+01 3.244658559560775757e-02 1.509132087230682373e-01 5.500793457031250000e-02 3.783166706562042236e-01
4.140000000000000000e+03 6.528482055664062500e+01 2.172447204589843750e+01 7.606037706136703491e-02 5.668797492980957031e-01 1.928820312023162842e-01 -7.856550067663192749e-02
4.141000000000000000e+03 6.536785888671875000e+01 2.780834960937500000e+01 3.971473872661590576e-01 2.332842588424682617e+00 8.189970254898071289e-01 -1.370475739240646362e-01
4.142000000000000000e+03 6.418165588378906250e+01 -1.658516502380371094e+01 7.634089589118957520e-01 1.667889237403869629e+00 7.293894290924072266e-01 2.148057222366333008e-01
4.143000000000000000e+03 6.254846954345703125e+01 -1.859919548034667969e+01 8.320969939231872559e-01 1.313351392745971680e+00 6.436344981193542480e-01 2.646210193634033203e-01
4.144000000000000000e+03 6.356196975708007812e+01 -2.502544212341308594e+01 -1.391933709383010864e-01 1.461289405822753906e+00 3.966288268566131592e-01 -2.485798597335815430e-01
4.145000000000000000e+03 6.412075042724609375e+01 -2.456225204467773438e+01 -1.273577213287353516e-01 1.717892050743103027e+00 4.771602749824523926e-01 -2.879073321819305420e-01
4.146000000000000000e+03 3.611611175537109375e+01 3.558245086669921875e+01 5.632392168045043945e-01 -1.423603296279907227e-02 1.647009402513504028e-01 5.815463885664939880e-02
4.147000000000000000e+03 3.489586257934570312e+01 3.581672668457031250e+01 5.230215787887573242e-01 -1.250174194574356079e-01 1.194012537598609924e-01 6.470723450183868408e-02
4.148000000000000000e+03 3.648881530761718750e+01 -5.276673793792724609e+00 -2.254451960325241089e-01 2.996458709239959717e-01 2.226020582020282745e-02 -1.990559250116348267e-01
4.149000000000000000e+03 3.536031723022460938e+01 -4.367659091949462891e+00 -2.265479862689971924e-01 1.770425438880920410e-01 -1.485163345932960510e-02 -2.049392014741897583e-01
4.150000000000000000e+03 4.724168777465820312e+00 3.929748153686523438e+01 -8.290696889162063599e-03 -2.921585440635681152e-01 -9.013476967811584473e-02 -3.266585245728492737e-02
4.151000000000000000e+03 5.751999282836914062e+01 -1.139094734191894531e+01 -2.252643823623657227e+00 -7.810446619987487793e-01 -9.101065397262573242e-01 -1.456906646490097046e-01
4.152000000000000000e+03 5.845573043823242188e+01 -1.194526576995849609e+01 -1.800016760826110840e+00 -5.132281184196472168e-01 -6.939734816551208496e-01 -1.576224900782108307e-02
4.153000000000000000e+03 5.643407440185546875e+01 3.873375177383422852e+00 -1.091549158096313477e+00 -1.351763606071472168e-01 -3.680176436901092529e-01 2.588350176811218262e-01
4.154000000000000000e+03 6.342630386352539062e+01 -7.573725700378417969e+00 -4.987264573574066162e-01 1.018952392041683197e-02 -1.465610712766647339e-01 6.965675204992294312e-02
4.155000000000000000e+03 3.699993515014648438e+01 -3.167366409301757812e+01 -3.809119760990142822e-02 -2.255867719650268555e-01 -7.910338789224624634e-02 -3.113456070423126221e-01
4.156000000000000000e+03 6.313318634033203125e+01 -1.031638813018798828e+01 -1.815175056457519531e+00 6.788932681083679199e-01 -3.408845663070678711e-01 1.783607304096221924e-01
4.157000000000000000e+03 5.295730209350585938e+01 2.464984512329101562e+01 2.069992870092391968e-01 8.103994727134704590e-01 3.052196502685546875e-01 -7.762338966131210327e-02
4.158000000000000000e+03 5.204976272583007812e+01 2.670791244506835938e+01 2.581388056278228760e-01 9.414857029914855957e-01 3.598873615264892578e-01 4.831761494278907776e-02
4.159000000000000000e+03 5.076348495483398438e+01 4.389270782470703125e+00 -1.174666404724121094e+00 -1.270652413368225098e-01 -3.905194997787475586e-01 1.065539360046386719e+00
4.160000000000000000e+03 2.137775802612304688e+01 6.083094596862792969e+00 3.084615059196949005e-02 -1.405240893363952637e-01 -3.290338441729545593e-02 1.141262426972389221e-01
4.161000000000000000e+03 2.114502525329589844e+01 7.939981937408447266e+00 2.098589390516281128e-01 -1.533448845148086548e-01 1.695421524345874786e-02 1.041020154953002930e-01
4.162000000000000000e+03 7.215233612060546875e+01 -1.527719688415527344e+01 -9.335632324218750000e-01 1.413009047508239746e+00 1.438337564468383789e-01 1.006455183029174805e+00
4.163000000000000000e+03 4.622822570800781250e+01 -1.729952621459960938e+01 -7.188259363174438477e-01 -2.255954295396804810e-01 -2.833264172077178955e-01 -2.798852920532226562e-01
4.164000000000000000e+03 4.452588272094726562e+01 -1.611000633239746094e+01 -7.214295864105224609e-01 -1.899929195642471313e-01 -2.734267413616180420e-01 -1.327193677425384521e-01
4.165000000000000000e+03 7.726381778717041016e+00 -2.431234359741210938e+01 4.115395992994308472e-02 2.029566466808319092e-02 1.843488775193691254e-02 -3.549503535032272339e-02
4.166000000000000000e+03 9.288225173950195312e+00 -2.485897064208984375e+01 -6.331899203360080719e-03 -2.659139595925807953e-02 -9.876988828182220459e-03 -9.089659899473190308e-02
4.167000000000000000e+03 6.818248748779296875e+01 2.110097259283065796e-01 -1.377485156059265137e+00 -1.035956591367721558e-01 -4.443242549896240234e-01 2.383179962635040283e-02
4.168000000000000000e+03 5.836177062988281250e+01 1.135706615447998047e+01 5.429068803787231445e-01 1.162898778915405273e+00 5.117416977882385254e-01 -8.476101607084274292e-02
4.169000000000000000e+03 5.883004760742187500e+01 1.360879802703857422e+01 3.377263844013214111e-01 1.588100314140319824e+00 5.777480006217956543e-01 -2.222453504800796509e-01
4.170000000000000000e+03 7.482212066650390625e+01 -2.440833282470703125e+01 1.541038155555725098e+00 8.597773551940917969e+00 3.041643619537353516e+00 1.010205149650573730e+00
4.171000000000000000e+03 7.619834899902343750e+01 -2.452342033386230469e+01 9.130616784095764160e-01 8.019212722778320312e+00 2.679682493209838867e+00 5.704413652420043945e-01
4.172000000000000000e+03 9.318683624267578125e+00 7.824281215667724609e+00 -2.377195656299591064e-01 -1.635972112417221069e-01 -1.203950345516204834e-01 1.317864805459976196e-01
4.173000000000000000e+03 4.745136642456054688e+01 -1.292554950714111328e+01 -8.355290293693542480e-01 1.091524884104728699e-01 -2.179129570722579956e-01 -3.513894975185394287e-01
4.174000000000000000e+03 6.432286834716796875e+01 2.422390556335449219e+01 4.766069948673248291e-01 1.320175290107727051e+00 5.390346646308898926e-01 1.393628716468811035e-01
4.175000000000000000e+03 6.953507995605468750e+01 2.119722938537597656e+01 -3.975261375308036804e-02 3.041551351547241211e+00 9.005396366119384766e-01 -1.318315744400024414e+00
4.176000000000000000e+03 2.797639656066894531e+01 6.912220478057861328e+00 2.102084308862686157e-01 4.377374351024627686e-01 1.943837553262710571e-01 9.689743816852569580e-02
4.177000000000000000e+03 2.536388015747070312e+01 5.554656505584716797e+00 2.567572146654129028e-02 -5.848469212651252747e-03 5.948175676167011261e-03 1.807332038879394531e-01
4.178000000000000000e+03 7.723480987548828125e+01 -2.875547218322753906e+01 -1.560320407152175903e-01 7.305326938629150391e+00 2.144788503646850586e+00 1.307444870471954346e-01
4.179000000000000000e+03 2.204368829727172852e+00 2.565600776672363281e+01 -6.068954244256019592e-02 -2.855907976627349854e-01 -1.038841009140014648e-01 4.908636957406997681e-02
4.180000000000000000e+03 5.136094284057617188e+01 -2.585258674621582031e+01 3.354310393333435059e-01 1.461012363433837891e-01 1.444596797227859497e-01 -2.664003074169158936e-01
4.181000000000000000e+03 5.685212326049804688e+01 8.771324157714843750e+00 4.971812367439270020e-01 3.454437255859375000e-01 2.527875006198883057e-01 4.076443314552307129e-01
4.182000000000000000e+03 2.196071624755859375e+01 -2.481570243835449219e+01 1.575821489095687866e-01 4.243830218911170959e-02 6.000613421201705933e-02 -1.118560358881950378e-01
4.183000000000000000e+03 1.506547355651855469e+01 -2.365756607055664062e+01 -1.980621926486492157e-02 -3.127415776252746582e-01 -9.976433962583541870e-02 -2.283027023077011108e-01
4.184000000000000000e+03 5.636236190795898438e+01 -2.490817832946777344e+01 1.304234117269515991e-01 2.926003336906433105e-01 1.269071251153945923e-01 2.733340263366699219e-01
4.185000000000000000e+03 5.885451507568359375e+01 -2.619613647460937500e+01 1.651140898466110229e-01 5.351092219352722168e-01 2.100669890642166138e-01 4.374531805515289307e-01
4.186000000000000000e+03 1.131941032409667969e+01 -3.825969314575195312e+01 1.598094105720520020e-01 -1.507365256547927856e-01 2.721866592764854431e-03 -1.061188057065010071e-01
4.187000000000000000e+03 1.002418994903564453e+01 -3.715628814697265625e+01 8.641622215509414673e-02 -1.713639050722122192e-01 -2.548430487513542175e-02 -1.424307972192764282e-01
4.188000000000000000e+03 5.087491607666015625e+01 -2.854314804077148438e+01 3.956778347492218018e-01 3.411941528320312500e-01 2.210615873336791992e-01 -2.866393327713012695e-01
4.189000000000000000e+03 3.352457809448242188e+01 -3.144523239135742188e+01 3.293371200561523438e-02 7.429795712232589722e-02 3.216950222849845886e-02 -2.753149867057800293e-01
4.190000000000000000e+03 4.290563201904296875e+01 -2.205114173889160156e+01 1.683151274919509888e-01 -1.179123595356941223e-01 1.512083038687705994e-02 -6.418182849884033203e-01
4.191000000000000000e+03 4.632950210571289062e+01 5.192674636840820312e+00 -1.085041165351867676e+00 -3.461914062500000000e-01 -4.293697774410247803e-01 4.329927265644073486e-01
4.192000000000000000e+03 5.084089660644531250e+01 -8.376720428466796875e+00 -5.206812620162963867e-01 -3.340824320912361145e-02 -1.662268489599227905e-01 1.257511973381042480e-01
4.193000000000000000e+03 5.651815795898437500e+01 -1.325253486633300781e+01 -9.814386367797851562e-01 -4.149727225303649902e-01 -4.189234077930450439e-01 -3.569175899028778076e-01
4.194000000000000000e+03 4.891303634643554688e+01 -1.365774059295654297e+01 -7.966663241386413574e-01 2.230310998857021332e-02 -2.323089540004730225e-01 -5.272940993309020996e-01
4.195000000000000000e+03 5.269916915893554688e+01 -1.018802833557128906e+01 -1.146138548851013184e+00 -3.929281607270240784e-02 -3.556294143199920654e-01 -8.843301981687545776e-02
4.196000000000000000e+03 3.160509681701660156e+01 -9.901727676391601562e+00 -1.698105037212371826e-01 -3.251456320285797119e-01 -1.484868377447128296e-01 -1.324903070926666260e-01
4.197000000000000000e+03 6.918855285644531250e+01 5.871482491493225098e-01 -1.008568882942199707e+00 -1.793199628591537476e-01 -3.563666641712188721e-01 -2.500168383121490479e-01
4.198000000000000000e+03 8.333781242370605469e+00 2.158728408813476562e+01 -9.423772245645523071e-02 -2.206374704837799072e-01 -9.446255862712860107e-02 1.189806982874870300e-01
4.199000000000000000e+03 5.872007369995117188e+01 1.196986103057861328e+01 4.726569652557373047e-01 1.414350986480712891e+00 5.661023855209350586e-01 -1.968583166599273682e-01
4.200000000000000000e+03 5.922117614746093750e+01 1.161172103881835938e+01 5.784581303596496582e-01 1.611666202545166016e+00 6.570373177528381348e-01 -2.657061219215393066e-01
4.201000000000000000e+03 5.121217727661132812e+01 -2.766354751586914062e+01 3.730331659317016602e-01 2.955966889858245850e-01 2.005889564752578735e-01 -2.712517380714416504e-01
4.202000000000000000e+03 5.816403579711914062e+01 1.072507572174072266e+01 5.701501369476318359e-01 9.535306096076965332e-01 4.571042358875274658e-01 3.627841547131538391e-02
4.203000000000000000e+03 5.916330337524414062e+01 1.077865028381347656e+01 6.799063086509704590e-01 1.374854326248168945e+00 6.164281964302062988e-01 -1.497586071491241455e-01
4.204000000000000000e+03 5.566755676269531250e+01 -2.339252853393554688e+01 4.889500886201858521e-02 4.004891961812973022e-02 2.668317966163158417e-02 1.383937448263168335e-01
4.205000000000000000e+03 3.259432983398437500e+01 1.660622596740722656e+01 4.058875441551208496e-01 8.818998932838439941e-02 1.482232660055160522e-01 4.719824790954589844e-01
4.206000000000000000e+03 6.183998870849609375e+01 -9.026660919189453125e+00 -1.444991946220397949e+00 3.527081012725830078e-01 -3.276851475238800049e-01 -2.046277523040771484e-01
4.207000000000000000e+03 6.466504669189453125e+01 -9.286120414733886719e+00 -1.385292291641235352e+00 2.433445006608963013e-01 -3.425843417644500732e-01 5.140557885169982910e-01
4.208000000000000000e+03 5.617477416992187500e+01 5.524836540222167969e+00 -2.053915113210678101e-01 5.705587938427925110e-02 -4.450068995356559753e-02 2.345962375402450562e-01
4.209000000000000000e+03 3.497743606567382812e+01 1.391305351257324219e+01 -3.629867434501647949e-01 -5.331717133522033691e-01 -2.688475549221038818e-01 5.543387532234191895e-01
4.210000000000000000e+03 5.651792907714843750e+01 -2.679705619812011719e+01 2.360838353633880615e-01 4.788059294223785400e-01 2.144669294357299805e-01 2.803489863872528076e-01
4.211000000000000000e+03 4.129626464843750000e+01 -1.583793258666992188e+01 -4.799202084541320801e-01 -1.392888836562633514e-03 -1.443939357995986938e-01 -2.191665768623352051e-01
4.212000000000000000e+03 4.546987152099609375e+01 2.069466209411621094e+01 4.100300967693328857e-01 4.247173964977264404e-01 2.504242360591888428e-01 2.159008681774139404e-01
4.213000000000000000e+03 4.530090332031250000e+00 9.284652709960937500e+00 -7.485130429267883301e-02 -4.195709154009819031e-02 -3.504252061247825623e-02 1.022876724600791931e-01
4.214000000000000000e+03 7.797157287597656250e+00 1.087133407592773438e+01 -1.244247108697891235e-01 -1.077230721712112427e-01 -6.964433938264846802e-02 1.942901611328125000e-01
4.215000000000000000e+03 6.861956787109375000e+01 -3.109933471679687500e+01 7.752321958541870117e-01 2.159851551055908203e+00 8.805251121520996094e-01 1.764543056488037109e-01
4.216000000000000000e+03 6.706234741210937500e+01 -2.863431930541992188e+01 4.020786285400390625e-01 1.391548991203308105e+00 5.380882620811462402e-01 -4.176551103591918945e-01
4.217000000000000000e+03 5.105176925659179688e+01 -3.598833847045898438e+01 3.555329740047454834e-01 3.694936037063598633e-01 2.175079733133316040e-01 6.713882833719253540e-02
4.218000000000000000e+03 3.689427947998046875e+01 1.345435523986816406e+01 -4.918527603149414062e-01 -8.637733459472656250e-01 -4.066878259181976318e-01 5.199682116508483887e-01
4.219000000000000000e+03 3.829608535766601562e+01 1.939698791503906250e+01 3.603669404983520508e-01 -5.322239398956298828e-01 -5.155709758400917053e-02 4.743080735206604004e-01
4.220000000000000000e+03 1.919363212585449219e+01 6.431530475616455078e+00 6.133931875228881836e-02 1.622081175446510315e-02 2.326803840696811676e-02 1.023806929588317871e-01
4.221000000000000000e+03 4.080917358398437500e+01 -2.574474143981933594e+01 -2.357448041439056396e-01 -5.264289379119873047e-01 -2.286521345376968384e-01 -2.960705459117889404e-01
4.222000000000000000e+03 4.230986022949218750e+01 -2.619526100158691406e+01 1.001624017953872681e-02 -6.237962469458580017e-02 -1.570901460945606232e-02 -2.317082732915878296e-01
4.223000000000000000e+03 1.448729801177978516e+01 -7.999368667602539062e+00 -2.784123085439205170e-02 2.728955447673797607e-02 -1.655025116633623838e-04 5.541950231418013573e-04
4.224000000000000000e+03 4.735233306884765625e+01 2.855706596374511719e+01 2.302472107112407684e-02 3.753248751163482666e-01 1.195048838853836060e-01 1.532993316650390625e-01
4.225000000000000000e+03 4.794184494018554688e+01 2.666270065307617188e+01 1.748845279216766357e-01 4.759665131568908691e-01 1.952553093433380127e-01 2.862969934940338135e-01
4.226000000000000000e+03 5.600464248657226562e+01 -1.177600669860839844e+01 -1.823500514030456543e+00 -5.110783576965332031e-01 -7.003736495971679688e-01 -3.892973065376281738e-01
4.227000000000000000e+03 5.362055587768554688e+01 -1.525573158264160156e+01 -3.545943200588226318e-01 3.481763005256652832e-01 -1.925399759784340858e-03 -5.692338943481445312e-01
4.228000000000000000e+03 5.772543716430664062e+01 -2.505503082275390625e+01 1.505804955959320068e-01 4.556637406349182129e-01 1.818732619285583496e-01 3.930090367794036865e-01
4.229000000000000000e+03 3.165398406982421875e+01 -1.061931514739990234e+01 -2.058834731578826904e-01 -3.159873187541961670e-01 -1.565612405538558960e-01 -1.007600650191307068e-01
4.230000000000000000e+03 3.623250579833984375e+01 -1.097688293457031250e+01 -1.214290335774421692e-01 4.702000617980957031e-01 1.046313047409057617e-01 -9.722185879945755005e-02
4.231000000000000000e+03 3.649771928787231445e+00 -1.895823669433593750e+01 -1.240335032343864441e-02 -6.931050866842269897e-02 -2.451415732502937317e-02 -7.926932722330093384e-02
4.232000000000000000e+03 8.461515426635742188e+00 1.683590698242187500e+01 2.296980768442153931e-01 -7.001101225614547729e-02 4.790611565113067627e-02 1.343807131052017212e-01
4.233000000000000000e+03 9.219648361206054688e+00 1.693817520141601562e+01 2.598275542259216309e-01 3.257564082741737366e-02 8.772096037864685059e-02 1.491372138261795044e-01
4.234000000000000000e+03 3.092672920227050781e+01 1.434880542755126953e+01 -2.246098965406417847e-01 6.407904028892517090e-01 1.248541548848152161e-01 4.920212030410766602e-01
4.235000000000000000e+03 6.155591201782226562e+01 -9.349481582641601562e+00 -1.642003536224365234e+00 3.243535757064819336e-01 -3.952949643135070801e-01 -2.703670263290405273e-01
4.236000000000000000e+03 2.501835441589355469e+01 -2.035617828369140625e+01 -1.179286912083625793e-01 -1.295731067657470703e-01 -7.425054162740707397e-02 -1.718394905328750610e-01
4.237000000000000000e+03 5.178395843505859375e+01 -3.292623519897460938e+01 2.456597834825515747e-01 5.363543033599853516e-01 2.346042245626449585e-01 -2.142046391963958740e-01
4.238000000000000000e+03 5.331366348266601562e+01 -3.171737670898437500e+01 3.263469934463500977e-01 6.799966096878051758e-01 3.019030690193176270e-01 -1.779086440801620483e-01
4.239000000000000000e+03 4.711269378662109375e+01 2.209937286376953125e+01 4.302966296672821045e-01 4.002375304698944092e-01 2.491602450609207153e-01 2.571313381195068359e-01
4.240000000000000000e+03 4.959371566772460938e+01 -7.778394699096679688e+00 -2.541294991970062256e-01 1.526134461164474487e-01 -3.045481629669666290e-02 1.758458167314529419e-01
4.241000000000000000e+03 6.393150711059570312e+01 5.496517658233642578e+00 -2.700988352298736572e-01 8.297243714332580566e-01 1.678876578807830811e-01 -6.881502866744995117e-01
4.242000000000000000e+03 6.425113677978515625e+01 6.173922538757324219e+00 7.750268280506134033e-02 9.116899967193603516e-01 2.967578172683715820e-01 -7.436300516128540039e-01
4.243000000000000000e+03 5.919944381713867188e+01 1.677013587951660156e+01 2.442999035120010376e-01 1.388994336128234863e+00 4.899882674217224121e-01 -1.230474039912223816e-01
4.244000000000000000e+03 5.631295394897460938e+01 1.641101837158203125e+01 2.610148191452026367e-01 5.842229723930358887e-01 2.535713315010070801e-01 -3.225214183330535889e-01
4.245000000000000000e+03 4.780154418945312500e+01 -1.576930904388427734e+01 -8.780943155288696289e-01 -3.007482886314392090e-01 -3.536527752876281738e-01 -2.912527322769165039e-01
4.246000000000000000e+03 5.674222183227539062e+01 -1.155849361419677734e+01 -2.016946792602539062e+00 -6.818895936012268066e-01 -8.096508979797363281e-01 -2.881910204887390137e-01
4.247000000000000000e+03 3.721271133422851562e+01 -5.389933586120605469e+00 -2.476193457841873169e-01 3.156307339668273926e-01 2.040341123938560486e-02 -1.344287842512130737e-01
4.248000000000000000e+03 3.717885208129882812e+01 -3.340831518173217773e+00 -3.891364336013793945e-01 1.747416406869888306e-01 -6.431844085454940796e-02 -4.470720887184143066e-02
4.249000000000000000e+03 4.490545654296875000e+01 -2.067591094970703125e+01 1.356396079063415527e-01 -5.640519037842750549e-02 2.377032674849033356e-02 -5.793027281761169434e-01
4.250000000000000000e+03 4.424329376220703125e+01 -1.878735160827636719e+01 -1.531503945589065552e-01 -1.555922925472259521e-01 -9.262280166149139404e-02 -4.937351346015930176e-01
4.251000000000000000e+03 5.559149551391601562e+01 3.994103240966796875e+01 7.502787709236145020e-01 6.097702980041503906e-01 4.080147147178649902e-01 1.045899465680122375e-01
4.252000000000000000e+03 3.144425201416015625e+01 1.389183759689331055e+00 -8.411500453948974609e-01 2.257838100194931030e-01 -1.846098601818084717e-01 -9.009393304586410522e-02
4.253000000000000000e+03 6.093397903442382812e+01 -1.159961795806884766e+01 -1.921763896942138672e+00 4.277504980564117432e-01 -4.482040107250213623e-01 5.711195617914199829e-02
4.254000000000000000e+03 3.647099304199218750e+01 -3.805364608764648438e+01 4.816980659961700439e-01 -1.489286422729492188e-01 9.983082860708236694e-02 -2.108270078897476196e-01
4.255000000000000000e+03 3.930807113647460938e+01 -1.493141746520996094e+01 -6.466658115386962891e-01 5.159678459167480469e-01 -3.920938447117805481e-02 -1.976908296346664429e-01
4.256000000000000000e+03 3.867015075683593750e+01 -1.647692489624023438e+01 -1.673432439565658569e-01 6.787335872650146484e-01 1.534170955419540405e-01 -2.586239576339721680e-01
4.257000000000000000e+03 1.520728206634521484e+01 -1.139000797271728516e+01 -8.571728318929672241e-02 9.133990108966827393e-02 1.686785253696143627e-03 7.948745042085647583e-03
4.258000000000000000e+03 6.367894363403320312e+01 -3.991340637207031250e+01 1.061280965805053711e+00 8.261596560478210449e-01 5.662322044372558594e-01 3.338912129402160645e-01
4.259000000000000000e+03 6.656484222412109375e+01 -3.845043945312500000e+01 6.562561392784118652e-01 2.152984619140625000e+00 8.427721858024597168e-01 2.870208024978637695e-01
4.260000000000000000e+03 3.048771095275878906e+01 -2.981188774108886719e+01 1.707013100385665894e-01 2.087680250406265259e-02 5.747343227267265320e-02 -1.473221778869628906e-01
4.261000000000000000e+03 6.515199279785156250e+01 3.547491455078125000e+01 4.130149483680725098e-01 2.408457040786743164e+00 8.464415669441223145e-01 -3.559438586235046387e-01
4.262000000000000000e+03 4.999565887451171875e+01 -6.025393486022949219e+00 -2.656849026679992676e-01 5.682647973299026489e-02 -6.265752762556076050e-02 3.349865674972534180e-01
4.263000000000000000e+03 3.150959777832031250e+01 -8.860602378845214844e+00 -1.247072890400886536e-01 -3.475816845893859863e-01 -1.416866928339004517e-01 -1.842940598726272583e-01
4.264000000000000000e+03 3.353061294555664062e+01 -1.293448638916015625e+01 -4.130188524723052979e-01 -1.278971135616302490e-01 -1.622747927904129028e-01 -6.833602488040924072e-02
4.265000000000000000e+03 2.184866905212402344e+01 2.944565010070800781e+01 7.209953851997852325e-03 -1.153876706957817078e-01 -3.245331346988677979e-02 1.672097444534301758e-01
4.266000000000000000e+03 2.650759315490722656e+01 3.122316932678222656e+01 4.389801248908042908e-02 -9.789193421602249146e-02 -1.619817502796649933e-02 4.677153825759887695e-01
4.267000000000000000e+03 2.463143157958984375e+01 3.325790405273437500e+01 7.623707875609397888e-03 -5.127770081162452698e-02 -1.309619750827550888e-02 2.256667613983154297e-01
4.268000000000000000e+03 4.217972946166992188e+01 -4.135364151000976562e+01 7.066411972045898438e-01 2.265013605356216431e-01 2.799427509307861328e-01 -1.476568914949893951e-02
4.269000000000000000e+03 3.801760482788085938e+01 -4.121971893310546875e+01 5.990400910377502441e-01 -7.880910485982894897e-02 1.560692936182022095e-01 -3.450148552656173706e-02
4.270000000000000000e+03 4.266847610473632812e+01 3.854925537109375000e+01 5.986613035202026367e-01 7.486115396022796631e-02 2.020567357540130615e-01 6.621922552585601807e-02
4.271000000000000000e+03 9.857081413269042969e+00 3.794014358520507812e+01 4.681345075368881226e-02 4.681468755006790161e-02 2.808844111859798431e-02 6.942271441221237183e-02
4.272000000000000000e+03 7.182786941528320312e+00 4.172002029418945312e+01 -5.414890125393867493e-02 -1.038795337080955505e-01 -4.740852862596511841e-02 -8.819906041026115417e-03
4.273000000000000000e+03 2.661914443969726562e+01 3.248260879516601562e+01 8.432894200086593628e-02 -1.456144452095031738e-01 -1.838565059006214142e-02 4.084996581077575684e-01
4.274000000000000000e+03 2.091839599609375000e+01 3.153793716430664062e+01 -1.150200143456459045e-01 -2.983481585979461670e-01 -1.240104511380195618e-01 4.289295896887779236e-02
4.275000000000000000e+03 2.117882919311523438e+01 2.958510971069335938e+01 -5.490928888320922852e-02 -2.526882290840148926e-01 -9.227925539016723633e-02 1.371551156044006348e-01
4.276000000000000000e+03 1.405981922149658203e+01 3.954491806030273438e+01 7.634358108043670654e-02 -7.435207068920135498e-02 5.974536179564893246e-04 8.021329343318939209e-02
4.277000000000000000e+03 2.695977973937988281e+01 -3.732380294799804688e+01 7.706875354051589966e-02 -2.858588397502899170e-01 -6.263703107833862305e-02 9.458065032958984375e-03
4.278000000000000000e+03 2.939779663085937500e+01 3.031667327880859375e+01 7.528323680162429810e-02 -5.197871923446655273e-01 -1.333511918783187866e-01 3.887556195259094238e-01
4.279000000000000000e+03 2.848023986816406250e+01 3.076663589477539062e+01 1.471011936664581299e-01 -4.386837780475616455e-01 -8.747477829456329346e-02 4.514587223529815674e-01
4.280000000000000000e+03 4.016885757446289062e+01 3.751816940307617188e+01 5.690941214561462402e-01 1.233734339475631714e-01 2.077402621507644653e-01 1.028079539537429810e-01
4.281000000000000000e+03 3.503247833251953125e+01 3.720935058593750000e+01 5.128488540649414062e-01 -1.029857471585273743e-01 1.229589283466339111e-01 4.008600488305091858e-02
4.282000000000000000e+03 3.851081132888793945e+00 -3.774712371826171875e+01 1.998830959200859070e-02 -2.188318669795989990e-01 -5.965306609869003296e-02 -7.745411247014999390e-02
4.283000000000000000e+03 4.962684631347656250e+01 -3.908461380004882812e+01 7.148346304893493652e-01 1.541752517223358154e-01 2.607029676437377930e-01 6.713801622390747070e-02
4.284000000000000000e+03 4.785005950927734375e+01 -3.736211013793945312e+01 5.752359628677368164e-01 -8.122060447931289673e-03 1.701341569423675537e-01 1.257409751415252686e-01
4.285000000000000000e+03 4.644018650054931641e+00 3.823655319213867188e+01 1.054358482360839844e-02 -2.997469902038574219e-01 -8.676102012395858765e-02 -2.793552353978157043e-02
4.286000000000000000e+03 2.022733211517333984e+00 3.819680404663085938e+01 3.914435394108295441e-03 -6.060495972633361816e-01 -1.806405633687973022e-01 -1.618442311882972717e-02
4.287000000000000000e+03 4.394372940063476562e+00 3.726349639892578125e+01 4.501885175704956055e-02 -3.406258225440979004e-01 -8.868209272623062134e-02 -2.075105905532836914e-02
4.288000000000000000e+03 4.160913467407226562e+01 3.725598907470703125e+01 5.945850610733032227e-01 5.760153755545616150e-02 1.956559866666793823e-01 1.089483946561813354e-01
4.289000000000000000e+03 5.324240875244140625e+01 -3.776031875610351562e+01 5.773322582244873047e-01 5.302731990814208984e-01 3.322816491127014160e-01 -5.235463846474885941e-03
4.290000000000000000e+03 6.380721664428710938e+01 3.702337646484375000e+01 5.100753903388977051e-01 1.946606040000915527e+00 7.370044589042663574e-01 -4.706240296363830566e-01
4.291000000000000000e+03 6.349371337890625000e+01 3.879174041748046875e+01 5.992066860198974609e-01 1.807571887969970703e+00 7.220335602760314941e-01 -2.970072627067565918e-01
4.292000000000000000e+03 1.238378620147705078e+01 -4.171955490112304688e+01 2.809644937515258789e-01 -9.576623141765594482e-02 5.555947497487068176e-02 -1.494059618562459946e-02
4.293000000000000000e+03 5.591433715820312500e+01 -3.684439849853515625e+01 5.575744509696960449e-01 9.029823541641235352e-01 4.381670355796813965e-01 -3.385708630084991455e-01
4.294000000000000000e+03 5.491907501220703125e+01 -4.083597183227539062e+01 7.778207659721374512e-01 5.035391449928283691e-01 3.844079673290252686e-01 -5.418970808386802673e-02
4.295000000000000000e+03 4.791674804687500000e+01 -4.147000122070312500e+01 8.261157870292663574e-01 1.117593571543693542e-01 2.813625335693359375e-01 -8.485476486384868622e-03
4.296000000000000000e+03 6.821823883056640625e+01 -4.125018310546875000e+01 6.936193704605102539e-01 2.549954891204833984e+00 9.730722904205322266e-01 7.822983711957931519e-02
4.297000000000000000e+03 2.774435615539550781e+01 -4.125786209106445312e+01 3.473447561264038086e-01 -3.463729619979858398e-01 2.915420918725430965e-04 2.036291733384132385e-02
4.298000000000000000e+03 6.750606536865234375e+01 8.617475032806396484e-01 -1.031139612197875977e+00 -2.979596843942999840e-03 -3.102357685565948486e-01 -5.127286538481712341e-02
4.299000000000000000e+03 1.016108798980712891e+01 3.835448503494262695e+00 -9.440403431653976440e-02 -6.723068654537200928e-02 -4.849041625857353210e-02 3.863535076379776001e-02
4.300000000000000000e+03 4.396949768066406250e+01 3.698067665100097656e+00 -8.701000809669494629e-01 -1.147113069891929626e-01 -2.954434156417846680e-01 1.280549764633178711e-01
4.301000000000000000e+03 4.465093994140625000e+01 3.507008790969848633e+00 -8.737096786499023438e-01 -1.403819918632507324e-01 -3.042275011539459229e-01 1.708987355232238770e-01
4.302000000000000000e+03 6.526120758056640625e+01 2.537284660339355469e+01 5.754280686378479004e-01 1.749596357345581055e+00 6.975073218345642090e-01 -1.188522800803184509e-01
4.303000000000000000e+03 4.539258956909179688e+01 -1.519895553588867188e+01 -9.159951806068420410e-01 -1.742482036352157593e-01 -3.270730078220367432e-01 -8.300925791263580322e-02
4.304000000000000000e+03 6.826207733154296875e+01 -2.770413589477539062e+01 1.217837110161781311e-01 6.130015254020690918e-01 2.204355746507644653e-01 -1.179759353399276733e-01
4.305000000000000000e+03 2.569199752807617188e+01 -1.582593917846679688e+01 -4.151009619235992432e-01 -1.897357255220413208e-01 -1.814510077238082886e-01 -1.758673340082168579e-01
4.306000000000000000e+03 2.193107032775878906e+01 2.684985923767089844e+01 3.708227872848510742e-01 -1.278270930051803589e-01 7.289870828390121460e-02 4.003130793571472168e-01
4.307000000000000000e+03 6.787416076660156250e+01 -1.285900497436523438e+01 -1.753300666809082031e+00 -6.535201668739318848e-01 -7.220462560653686523e-01 1.088798999786376953e+00
4.308000000000000000e+03 6.262052059173583984e+00 -2.454479217529296875e+01 3.064539656043052673e-02 -5.207803566008806229e-03 7.631277665495872498e-03 -3.486064029857516289e-03
4.309000000000000000e+03 1.776655769348144531e+01 -2.424174308776855469e+01 1.609191857278347015e-02 -8.560774475336074829e-02 -2.085474878549575806e-02 -2.422389835119247437e-01
4.310000000000000000e+03 7.033316802978515625e+01 5.561222076416015625e+00 -1.926426142454147339e-01 1.014070153236389160e+00 2.464282512664794922e-01 -3.003753125667572021e-01
4.311000000000000000e+03 1.189138698577880859e+01 4.412878513336181641e+00 -1.583235859870910645e-01 -1.112646907567977905e-01 -8.087647706270217896e-02 1.149387657642364502e-01
4.312000000000000000e+03 4.254747390747070312e+01 -2.325108337402343750e+01 6.832145899534225464e-02 -9.252401441335678101e-02 -7.260765880346298218e-03 -5.773019194602966309e-01
4.313000000000000000e+03 4.193394851684570312e+01 -2.463283729553222656e+01 -9.033680707216262817e-02 -1.569838374853134155e-01 -7.419619709253311157e-02 -4.282881021499633789e-01
4.314000000000000000e+03 5.578645706176757812e+01 -2.559412574768066406e+01 1.661214530467987061e-01 2.781171798706054688e-01 1.332715898752212524e-01 2.276690155267715454e-01
4.315000000000000000e+03 4.805982589721679688e+01 4.101835727691650391e+00 -1.103865861892700195e+00 -4.336998164653778076e-01 -4.612697064876556396e-01 5.383270382881164551e-01
4.316000000000000000e+03 2.212215423583984375e+01 1.638480758666992188e+01 -2.525640130043029785e-01 -2.304089516401290894e-01 -1.448918879032135010e-01 1.453902870416641235e-01
4.317000000000000000e+03 2.316873550415039062e+01 1.531466007232666016e+01 -2.534821629524230957e-01 -2.020162791013717651e-01 -1.366495341062545776e-01 1.197947934269905090e-01
4.318000000000000000e+03 3.385588073730468750e+01 2.105499076843261719e+01 2.947909571230411530e-02 -5.117980241775512695e-01 -1.446956843137741089e-01 4.086042642593383789e-01
4.319000000000000000e+03 7.753625488281250000e+01 -2.555059814453125000e+01 2.949246168136596680e-01 7.717820167541503906e+00 2.403823375701904297e+00 1.093242317438125610e-01
4.320000000000000000e+03 4.531487655639648438e+01 -2.596161079406738281e+01 2.840526103973388672e-01 2.553562223911285400e-01 1.618226468563079834e-01 -2.325816452503204346e-01
4.321000000000000000e+03 4.169894790649414062e+01 -2.613602828979492188e+01 -6.779786199331283569e-02 -2.288462817668914795e-01 -8.899324387311935425e-02 -2.556205093860626221e-01
4.322000000000000000e+03 1.290332508087158203e+01 4.164541244506835938e+00 -1.707309335470199585e-01 -9.680049866437911987e-02 -8.025942742824554443e-02 1.660494059324264526e-01
4.323000000000000000e+03 3.314044189453125000e+01 1.569504261016845703e+01 2.084092050790786743e-01 -7.617606967687606812e-02 3.966994211077690125e-02 4.545124769210815430e-01
4.324000000000000000e+03 6.189097595214843750e+01 -2.520947530865669250e-02 -1.705396652221679688e+00 4.447680413722991943e-01 -3.781885802745819092e-01 2.675405442714691162e-01
4.325000000000000000e+03 5.477028656005859375e+01 2.084905433654785156e+01 2.030529230833053589e-01 4.621717929840087891e-01 1.995674073696136475e-01 -3.096604943275451660e-01
4.326000000000000000e+03 5.415563201904296875e+01 1.727257537841796875e+01 2.102250009775161743e-01 2.451975643634796143e-01 1.366267651319503784e-01 -2.539432346820831299e-01
4.327000000000000000e+03 7.688062286376953125e+01 2.156603813171386719e+00 -5.974041819572448730e-01 9.156498908996582031e+00 2.567728519439697266e+00 -1.443491429090499878e-01
4.328000000000000000e+03 7.149863433837890625e+01 1.027648091316223145e+00 -5.267079472541809082e-01 1.703698396682739258e+00 3.530971407890319824e-01 -1.188104510307312012e+00
4.329000000000000000e+03 1.281562709808349609e+01 -2.832372093200683594e+01 -9.667772054672241211e-02 -3.074454069137573242e-01 -1.212369352579116821e-01 -1.480755805969238281e-01
4.330000000000000000e+03 1.011036109924316406e+01 -2.550305747985839844e+01 -3.011788614094257355e-02 -8.888787776231765747e-02 -3.570172935724258423e-02 -1.215374320745468140e-01
4.331000000000000000e+03 6.474164581298828125e+01 -1.515470886230468750e+01 -3.290257155895233154e-01 1.483829855918884277e+00 3.464412391185760498e-01 1.512614786624908447e-01
4.332000000000000000e+03 5.101137161254882812e+01 -1.424153614044189453e+01 -7.086815834045410156e-01 5.104620009660720825e-02 -1.972906142473220825e-01 -7.012631297111511230e-01
4.333000000000000000e+03 6.231948089599609375e+01 -2.132553482055664062e+01 6.853729486465454102e-01 1.382257342338562012e+00 6.202890872955322266e-01 2.070718556642532349e-01
4.334000000000000000e+03 4.626153564453125000e+01 5.737114429473876953e+00 -1.128293037414550781e+00 -3.549803197383880615e-01 -4.449820220470428467e-01 5.252185463905334473e-01
4.335000000000000000e+03 5.173794174194335938e+01 2.767016220092773438e+01 2.167793363332748413e-01 9.883002042770385742e-01 3.615238666534423828e-01 7.588306069374084473e-02
4.336000000000000000e+03 1.309864044189453125e+01 -3.383980751037597656e+00 3.659579437226057053e-03 -3.070377046242356300e-03 1.767606881912797689e-04 -1.595693826675415039e-02
4.337000000000000000e+03 4.355826950073242188e+01 4.549146175384521484e+00 -7.760735154151916504e-01 -2.020837813615798950e-01 -2.934471964836120605e-01 1.857279986143112183e-01
4.338000000000000000e+03 4.262032699584960938e+01 4.152811527252197266e+00 -6.636559963226318359e-01 -2.136233001947402954e-01 -2.631838023662567139e-01 6.002215296030044556e-02
4.339000000000000000e+03 3.130931472778320312e+01 1.348418045043945312e+01 -3.219937682151794434e-01 5.489945411682128906e-01 6.810022890567779541e-02 4.607655107975006104e-01
4.340000000000000000e+03 1.254003429412841797e+01 4.564574718475341797e+00 -1.816911697387695312e-01 -1.163889765739440918e-01 -8.942404389381408691e-02 1.528681665658950806e-01
4.341000000000000000e+03 1.189974975585937500e+01 5.078673839569091797e+00 -2.068506330251693726e-01 -1.536047309637069702e-01 -1.081366091966629028e-01 1.305397748947143555e-01
4.342000000000000000e+03 5.270176696777343750e+01 2.389093971252441406e+01 2.207314074039459229e-01 6.794634461402893066e-01 2.700584530830383301e-01 -5.799953266978263855e-02
4.343000000000000000e+03 5.013404083251953125e+01 2.001062583923339844e+01 3.240860402584075928e-01 1.834030151367187500e-01 1.522467136383056641e-01 1.642265543341636658e-02
4.344000000000000000e+03 3.553628540039062500e+01 -3.802068471908569336e+00 -2.675992548465728760e-01 1.743512600660324097e-01 -2.797440253198146820e-02 -1.545142531394958496e-01
4.345000000000000000e+03 6.219546127319335938e+01 5.351704955101013184e-01 -1.696760892868041992e+00 5.028626918792724609e-01 -3.581694662570953369e-01 1.506767570972442627e-01
4.346000000000000000e+03 6.173922729492187500e+01 1.221750259399414062e+00 -1.743085145950317383e+00 5.229952931404113770e-01 -3.660269677639007568e-01 2.697246707975864410e-02
4.347000000000000000e+03 5.252101516723632812e+01 2.958317375183105469e+01 1.471086442470550537e-01 1.288760662078857422e+00 4.307608008384704590e-01 1.365990042686462402e-01
4.348000000000000000e+03 4.648220062255859375e+01 2.044345474243164062e+01 3.895628750324249268e-01 4.149006009101867676e-01 2.413390427827835083e-01 2.279438674449920654e-01
4.349000000000000000e+03 4.907240676879882812e+01 2.106281852722167969e+01 3.809137344360351562e-01 2.848439216613769531e-01 1.997272968292236328e-01 1.598448008298873901e-01
4.350000000000000000e+03 1.239912128448486328e+01 -1.091266822814941406e+01 -6.812699884176254272e-02 3.372927755117416382e-02 -1.031931769102811813e-02 -3.792496398091316223e-02
4.351000000000000000e+03 6.771985626220703125e+01 -2.720226287841796875e+01 -3.817411065101623535e-01 7.137139439582824707e-01 9.959185123443603516e-02 -4.273595809936523438e-01
4.352000000000000000e+03 3.492488479614257812e+01 -4.002380847930908203e+00 -2.138849794864654541e-01 1.272161751985549927e-01 -2.600064128637313843e-02 -1.917553544044494629e-01
4.353000000000000000e+03 3.581622314453125000e+01 -5.123469352722167969e+00 -2.117522656917572021e-01 2.470976263284683228e-01 1.060360856354236603e-02 -2.288950979709625244e-01
4.354000000000000000e+03 3.035222434997558594e+01 -2.820867156982421875e+01 2.708063721656799316e-01 2.357670851051807404e-02 8.831492066383361816e-02 -1.482846587896347046e-01
4.355000000000000000e+03 2.686157035827636719e+01 -3.144224739074707031e+01 7.575225085020065308e-02 -1.838705390691757202e-01 -3.243548795580863953e-02 -1.315836608409881592e-01
4.356000000000000000e+03 2.501801490783691406e+01 5.142828464508056641e+00 -3.619004786014556885e-02 -3.390411287546157837e-02 -2.102824859321117401e-02 1.863834410905838013e-01
4.357000000000000000e+03 4.904421615600585938e+01 -4.787167072296142578e+00 -2.984277307987213135e-01 1.191341653466224670e-01 -5.378806963562965393e-02 2.714648246765136719e-01
4.358000000000000000e+03 6.614649200439453125e+01 2.866221618652343750e+01 3.994290232658386230e-01 2.570830583572387695e+00 8.910778760910034180e-01 -3.429746031761169434e-01
4.359000000000000000e+03 6.538592529296875000e+01 2.967593193054199219e+01 3.307917118072509766e-01 2.584223985671997070e+00 8.745046854019165039e-01 -3.313680887222290039e-01
4.360000000000000000e+03 6.637130737304687500e+01 2.978893852233886719e+01 4.038262069225311279e-01 2.688292503356933594e+00 9.276356101036071777e-01 -4.099691510200500488e-01
4.361000000000000000e+03 4.786283874511718750e+01 -1.440737915039062500e+01 -8.602811098098754883e-01 -9.036118537187576294e-02 -2.851926982402801514e-01 -3.124583363533020020e-01
4.362000000000000000e+03 4.531942367553710938e+00 -3.532486343383789062e+01 -4.139075521379709244e-03 -1.770228296518325806e-01 -5.434857308864593506e-02 -9.813030809164047241e-02
4.363000000000000000e+03 2.224900245666503906e+01 1.249853420257568359e+01 -2.471353393048048019e-03 -1.866111308336257935e-01 -5.672474205493927002e-02 2.773937024176120758e-02
4.364000000000000000e+03 2.306686973571777344e+01 1.240076351165771484e+01 8.909007534384727478e-03 -1.804115176200866699e-01 -5.145075172185897827e-02 4.006326198577880859e-02
4.365000000000000000e+03 6.041714096069335938e+01 6.050642490386962891e+00 -1.518354862928390503e-01 6.742053627967834473e-01 1.567109525203704834e-01 -2.327457368373870850e-01
4.366000000000000000e+03 7.705167388916015625e+01 -3.591328811645507812e+01 3.916036337614059448e-02 6.217885494232177734e+00 1.877113819122314453e+00 2.711677253246307373e-01
4.367000000000000000e+03 7.595492553710937500e+01 -3.975991058349609375e+01 1.093363016843795776e-01 5.706785678863525391e+00 1.744836568832397461e+00 1.799147278070449829e-01
4.368000000000000000e+03 7.092604827880859375e+01 2.043683052062988281e+01 -1.060082539916038513e-01 4.225979328155517578e+00 1.235991358757019043e+00 -1.289374709129333496e+00
4.369000000000000000e+03 3.350750923156738281e+00 3.625333404541015625e+01 4.925235733389854431e-02 -4.563242495059967041e-01 -1.221215724945068359e-01 3.434657119214534760e-03
4.370000000000000000e+03 5.147344112396240234e+00 3.615276336669921875e+01 8.947180211544036865e-02 -2.624514400959014893e-01 -5.189388617873191833e-02 -6.915084086358547211e-03
4.371000000000000000e+03 1.384056186676025391e+01 -4.936812400817871094e+00 -8.875984349288046360e-04 2.569479402154684067e-03 5.045642610639333725e-04 -1.523458957672119141e-02
4.372000000000000000e+03 2.160973167419433594e+01 5.181115627288818359e+00 -9.732934832572937012e-02 -1.305120736360549927e-01 -6.835242360830307007e-02 1.322743594646453857e-01
4.373000000000000000e+03 2.289095115661621094e+01 4.747109889984130859e+00 -1.420956999063491821e-01 -1.296130418777465820e-01 -8.151262253522872925e-02 1.595516204833984375e-01
4.374000000000000000e+03 3.729090499877929688e+01 -4.045305728912353516e+00 -3.748899400234222412e-01 1.944529414176940918e-01 -5.413110181689262390e-02 -8.301527798175811768e-02
4.375000000000000000e+03 4.627689361572265625e+01 -2.424406242370605469e+01 3.219884634017944336e-01 3.450735509395599365e-01 2.001186013221740723e-01 -3.161228895187377930e-01
4.376000000000000000e+03 3.372848510742187500e+01 -1.445541858673095703e+01 -7.923367619514465332e-01 -2.147378474473953247e-01 -3.021223843097686768e-01 -8.197706192731857300e-02
4.377000000000000000e+03 3.518408584594726562e+01 -1.358851337432861328e+01 -5.798615813255310059e-01 1.661853343248367310e-01 -1.241028755903244019e-01 -1.832734495401382446e-01
4.378000000000000000e+03 1.339025878906250000e+01 4.562787055969238281e+00 -2.017252594232559204e-01 -1.175612956285476685e-01 -9.578596800565719604e-02 2.051873356103897095e-01
4.379000000000000000e+03 8.402820587158203125e+00 -3.841055154800415039e+00 7.675146684050559998e-03 -1.236383058130741119e-02 -1.406605122610926628e-03 -5.734743084758520126e-03
4.380000000000000000e+03 8.184191703796386719e+00 -5.708754062652587891e+00 5.719430744647979736e-03 -2.229148522019386292e-02 -4.971616435796022415e-03 -6.746272090822458267e-03
4.381000000000000000e+03 5.473423957824707031e+00 -4.465752601623535156e+00 8.271008729934692383e-03 -9.474733844399452209e-03 -3.611175925470888615e-04 8.844881318509578705e-03
4.382000000000000000e+03 3.600267648696899414e+00 -4.190058708190917969e+00 4.902392625808715820e-03 2.823563700076192617e-04 1.555424765683710575e-03 1.147984992712736130e-02
4.383000000000000000e+03 2.795067787170410156e+00 -5.225321292877197266e+00 3.777441568672657013e-03 5.462465342134237289e-03 2.771971980109810829e-03 1.364500075578689575e-02
4.384000000000000000e+03 2.222595453262329102e+00 -5.181121349334716797e+00 1.818081946112215519e-03 9.251218289136886597e-03 3.320790128782391548e-03 1.227228809148073196e-02
4.385000000000000000e+03 2.266862869262695312e+00 -5.887614727020263672e+00 2.633660100400447845e-03 1.094704214483499527e-02 4.074210766702890396e-03 1.377135328948497772e-02
4.386000000000000000e+03 7.695025920867919922e+00 -4.577651500701904297e+00 7.483618333935737610e-03 -1.610786281526088715e-02 -2.587273251265287399e-03 -2.642459236085414886e-03
4.387000000000000000e+03 4.880328750610351562e+01 2.737949752807617188e+01 1.607882231473922729e-01 5.812343955039978027e-01 2.226067930459976196e-01 2.371673732995986938e-01
4.388000000000000000e+03 2.538853073120117188e+01 4.816684246063232422e+00 -8.087823539972305298e-02 -6.335061974823474884e-03 -2.616398967802524567e-02 1.868481785058975220e-01
4.389000000000000000e+03 2.539276313781738281e+01 3.962880611419677734e+00 -2.430175989866256714e-01 -9.812002070248126984e-03 -7.584887742996215820e-02 1.943257302045822144e-01
4.390000000000000000e+03 2.639460372924804688e+01 5.060730457305908203e+00 -2.575940266251564026e-02 1.051602363586425781e-01 2.382024936378002167e-02 1.790877878665924072e-01
4.391000000000000000e+03 2.730177307128906250e+01 3.113620758056640625e+00 -4.016100466251373291e-01 1.559881567955017090e-01 -7.368656992912292480e-02 1.620274782180786133e-01
4.392000000000000000e+03 2.239686393737792969e+01 7.563263416290283203e+00 1.796357482671737671e-01 -1.755671501159667969e-01 1.220579608343541622e-03 1.126877591013908386e-01
4.393000000000000000e+03 2.430357170104980469e+01 5.444677829742431641e+00 3.681613889057189226e-04 -9.697429835796356201e-02 -2.898184210062026978e-02 1.696830093860626221e-01
4.394000000000000000e+03 2.166287994384765625e+01 8.307418823242187500e+00 2.139378339052200317e-01 -1.758930683135986328e-01 1.141342893242835999e-02 1.096336171030998230e-01
4.395000000000000000e+03 2.309234237670898438e+01 5.365177154541015625e+00 -4.128914698958396912e-02 -1.378448158502578735e-01 -5.374018847942352295e-02 1.484073400497436523e-01
4.396000000000000000e+03 2.222256278991699219e+01 4.937363147735595703e+00 -1.199373677372932434e-01 -1.375863701105117798e-01 -7.725712656974792480e-02 1.404396444559097290e-01
4.397000000000000000e+03 2.789300346374511719e+01 3.005785465240478516e+00 -4.095627963542938232e-01 2.034571617841720581e-01 -6.183169037103652954e-02 1.130343303084373474e-01
4.398000000000000000e+03 2.813439178466796875e+01 4.359577178955078125e+00 -1.184458285570144653e-01 3.181516230106353760e-01 5.991173908114433289e-02 1.102353110909461975e-01
4.399000000000000000e+03 7.765816497802734375e+01 1.300494098663330078e+01 2.201739549636840820e-01 7.391591548919677734e+00 2.283529758453369141e+00 -8.567280173301696777e-01
4.400000000000000000e+03 3.347140502929687500e+01 1.894659996032714844e+01 2.409514486789703369e-01 -3.003879487514495850e-01 -1.783095113933086395e-02 5.238997340202331543e-01
4.401000000000000000e+03 3.670961761474609375e+01 2.130978012084960938e+01 1.213664114475250244e-01 -5.937904715538024902e-01 -1.417272239923477173e-01 4.334483444690704346e-01
4.402000000000000000e+03 7.137248229980468750e+01 1.990463829040527344e+01 -6.950623542070388794e-02 4.677733898162841797e+00 1.382468342781066895e+00 -1.276758551597595215e+00
4.403000000000000000e+03 7.050112915039062500e+01 8.711726665496826172e-01 -7.199246287345886230e-01 4.934974312782287598e-01 -6.792816519737243652e-02 -6.285240054130554199e-01
4.404000000000000000e+03 6.825718688964843750e+01 5.017286777496337891e+00 3.182985261082649231e-02 -1.606213450431823730e-01 -3.863744810223579407e-02 -6.336563229560852051e-01
4.405000000000000000e+03 5.522708129882812500e+01 5.759751319885253906e+00 -7.300397008657455444e-02 1.910939365625381470e-01 3.542699292302131653e-02 2.978917360305786133e-01
4.406000000000000000e+03 7.742771148681640625e+01 -2.957854080200195312e+01 -1.651717871427536011e-01 7.167201042175292969e+00 2.100608825683593750e+00 1.673292070627212524e-01
4.407000000000000000e+03 7.675242614746093750e+01 -3.030076789855957031e+01 -1.691342145204544067e-01 6.830523014068603516e+00 1.998416662216186523e+00 3.422476649284362793e-01
4.408000000000000000e+03 7.562528991699218750e+01 3.097856712341308594e+01 7.293344289064407349e-02 4.961495876312255859e+00 1.510328769683837891e+00 -3.289583027362823486e-01
4.409000000000000000e+03 7.637793731689453125e+01 3.104934310913085938e+01 4.067670553922653198e-02 5.164257526397705078e+00 1.561480283737182617e+00 -2.844336628913879395e-01
4.410000000000000000e+03 7.651436614990234375e+01 2.947943878173828125e+01 2.699439041316509247e-02 5.307169914245605469e+00 1.600249290466308594e+00 -3.135589361190795898e-01
4.411000000000000000e+03 1.879905509948730469e+01 -2.433192634582519531e+01 5.758460983633995056e-02 3.353664185851812363e-03 1.828148216009140015e-02 -2.323617339134216309e-01
4.412000000000000000e+03 6.708551788330078125e+01 -1.411040210723876953e+01 -9.538994431495666504e-01 3.785513341426849365e-01 -1.726044267416000366e-01 9.993863701820373535e-01
4.413000000000000000e+03 6.803610229492187500e+01 -1.381637859344482422e+01 -9.550511240959167480e-01 -4.152879714965820312e-01 -4.111017286777496338e-01 1.238704919815063477e+00
4.414000000000000000e+03 7.627974700927734375e+01 -3.185975456237792969e+01 -6.683741509914398193e-02 6.342968940734863281e+00 1.882839441299438477e+00 4.502658247947692871e-01
4.415000000000000000e+03 3.262484550476074219e+00 -1.041533946990966797e+01 -4.944847896695137024e-03 -2.613251795992255211e-03 -2.267429837957024574e-03 1.351376995444297791e-02
4.416000000000000000e+03 9.616686820983886719e+00 -1.081083869934082031e+01 -5.464603006839752197e-02 -6.408227980136871338e-02 -3.561849147081375122e-02 -4.070147499442100525e-02
4.417000000000000000e+03 8.451950073242187500e+00 -1.120332527160644531e+01 -6.173748895525932312e-02 -6.588139384984970093e-02 -3.828566521406173706e-02 -3.314399346709251404e-02
4.418000000000000000e+03 3.802788543701171875e+01 -1.298399448394775391e+01 -6.513428092002868652e-01 6.965716481208801270e-01 1.356864441186189651e-02 -1.160174980759620667e-01
4.419000000000000000e+03 3.976730823516845703e+00 -2.864164733886718750e+01 -3.246735036373138428e-02 -7.996057718992233276e-02 -3.372837975621223450e-02 -1.830576173961162567e-02
4.420000000000000000e+03 2.723154544830322266e+00 -3.253245162963867188e+01 -1.489414926618337631e-02 -1.373219788074493408e-01 -4.566483944654464722e-02 -5.013721436262130737e-02
4.421000000000000000e+03 2.264188528060913086e+00 3.166695976257324219e+01 3.360414132475852966e-02 -5.004350543022155762e-01 -1.400492787361145020e-01 1.442400664091110229e-01
4.422000000000000000e+03 4.592706203460693359e+00 3.200482940673828125e+01 1.104200631380081177e-01 -3.594167232513427734e-01 -7.469899207353591919e-02 1.467847228050231934e-01
4.423000000000000000e+03 7.669295501708984375e+01 2.471756362915039062e+01 -6.883285939693450928e-02 5.795002937316894531e+00 1.717851042747497559e+00 -2.928884029388427734e-01
4.424000000000000000e+03 7.588912963867187500e+01 2.312512588500976562e+01 -1.212610378861427307e-01 5.784652233123779297e+00 1.699017405509948730e+00 -3.396849334239959717e-01
4.425000000000000000e+03 7.759347534179687500e+01 -2.394191169738769531e+01 5.155886411666870117e-01 7.946691989898681641e+00 2.538684129714965820e+00 5.398871302604675293e-01
4.426000000000000000e+03 7.616613006591796875e+01 -2.529990959167480469e+01 6.599384546279907227e-01 7.852592468261718750e+00 2.553759336471557617e+00 3.366865515708923340e-01
4.427000000000000000e+03 7.246228790283203125e+01 1.888709449768066406e+01 4.845046252012252808e-02 5.695387363433837891e+00 1.723151326179504395e+00 -9.712677001953125000e-01
4.428000000000000000e+03 7.676641845703125000e+01 2.153366851806640625e+01 -1.019100099802017212e-01 6.170813083648681641e+00 1.820670962333679199e+00 -1.642448157072067261e-01
4.429000000000000000e+03 7.760713958740234375e+01 -5.396058410406112671e-02 -5.936175584793090820e-01 1.013221549987792969e+01 2.861579418182373047e+00 7.104938030242919922e-01
4.430000000000000000e+03 7.759763336181640625e+01 1.419846892356872559e+00 -4.771412014961242676e-01 9.933629989624023438e+00 2.836946725845336914e+00 2.364018559455871582e-01
4.431000000000000000e+03 7.694925689697265625e+01 6.839874386787414551e-01 -7.387816905975341797e-01 9.661617279052734375e+00 2.676850795745849609e+00 3.376285731792449951e-01
4.432000000000000000e+03 7.757626342773437500e+01 -1.661952400207519531e+01 -7.428908348083496094e-01 9.938086509704589844e+00 2.758558750152587891e+00 4.127464294433593750e-01
4.433000000000000000e+03 7.760271453857421875e+01 -1.581863880157470703e+01 -7.904362082481384277e-01 1.007453727722167969e+01 2.785230159759521484e+00 6.801751907914876938e-03
4.434000000000000000e+03 7.762754058837890625e+01 1.224597930908203125e+01 1.823273301124572754e-01 7.590994358062744141e+00 2.331996440887451172e+00 -9.774690866470336914e-01
4.435000000000000000e+03 7.691588592529296875e+01 -1.345788002014160156e+01 -1.148929953575134277e+00 1.037547588348388672e+01 2.767963886260986328e+00 -9.654654264450073242e-01
4.436000000000000000e+03 7.753519439697265625e+01 -1.742799758911132812e+01 -6.461124420166015625e-01 9.751584053039550781e+00 2.731641530990600586e+00 7.715024948120117188e-01
4.437000000000000000e+03 7.521643066406250000e+01 -1.788547134399414062e+01 -1.553066372871398926e+00 7.736634254455566406e+00 1.855070352554321289e+00 1.052217364311218262e+00
4.438000000000000000e+03 7.752542114257812500e+01 -1.905005836486816406e+01 -3.851416110992431641e-01 9.375575065612792969e+00 2.697129964828491211e+00 1.299936771392822266e+00
4.439000000000000000e+03 7.694985198974609375e+01 -1.567705059051513672e+01 -1.109005212783813477e+00 9.570354461669921875e+00 2.538404703140258789e+00 6.116642430424690247e-02
4.440000000000000000e+03 7.709817504882812500e+01 -2.089988136291503906e+01 2.506639659404754639e-01 8.665692329406738281e+00 2.674906969070434570e+00 1.564535021781921387e+00
4.441000000000000000e+03 7.624312591552734375e+01 -2.291844940185546875e+01 1.032791256904602051e+00 8.295004844665527344e+00 2.798338890075683594e+00 1.225707173347473145e+00
4.442000000000000000e+03 7.764609527587890625e+01 -2.238816642761230469e+01 4.489616751670837402e-01 8.341764450073242188e+00 2.637217998504638672e+00 1.049157977104187012e+00
4.443000000000000000e+03 7.622884368896484375e+01 8.496492385864257812e+00 -3.144858777523040771e-01 7.759557723999023438e+00 2.233521461486816406e+00 -1.213320255279541016e+00
4.444000000000000000e+03 7.424665069580078125e+01 1.397900581359863281e+01 1.034057497978210449e+00 7.003568649291992188e+00 2.411287784576416016e+00 -1.199924349784851074e+00
4.445000000000000000e+03 7.403266906738281250e+01 1.330621051788330078e+01 9.287540912628173828e-01 7.086567401885986328e+00 2.404596567153930664e+00 -1.294033288955688477e+00
4.446000000000000000e+03 7.370839691162109375e+01 1.197462320327758789e+00 -9.624047875404357910e-01 5.462025165557861328e+00 1.349886059761047363e+00 -1.197557687759399414e+00
4.447000000000000000e+03 7.659990692138671875e+01 2.790535926818847656e+01 2.474396489560604095e-03 5.455754280090332031e+00 1.637468576431274414e+00 -3.259714245796203613e-01
4.448000000000000000e+03 7.728747558593750000e+01 2.950098991394042969e+01 1.947625726461410522e-02 5.499351978302001953e+00 1.655648469924926758e+00 -2.458665966987609863e-01
4.449000000000000000e+03 7.646004486083984375e+01 3.026667404174804688e+01 4.150471463799476624e-02 5.233201980590820312e+00 1.582412004470825195e+00 -2.923205494880676270e-01
4.450000000000000000e+03 7.740649414062500000e+01 2.630251693725585938e+01 -2.084933407604694366e-02 5.814598083496093750e+00 1.738124728202819824e+00 -2.478146255016326904e-01
4.451000000000000000e+03 7.754249572753906250e+01 6.236907005310058594e+00 -2.267216593027114868e-01 9.100815773010253906e+00 2.662228345870971680e+00 -7.067633271217346191e-01
4.452000000000000000e+03 7.613063812255859375e+01 2.877137422561645508e+00 -6.041912436485290527e-01 8.232070922851562500e+00 2.288363933563232422e+00 -4.374774694442749023e-01
4.453000000000000000e+03 7.756163787841796875e+01 2.189783096313476562e+00 -4.197434484958648682e-01 9.780966758728027344e+00 2.808367013931274414e+00 8.987265639007091522e-03
4.454000000000000000e+03 7.737368774414062500e+01 9.603698730468750000e+00 -8.011174201965332031e-02 8.226183891296386719e+00 2.443821668624877930e+00 -1.147767663002014160e+00
4.455000000000000000e+03 7.553050231933593750e+01 1.182791328430175781e+01 3.538503348827362061e-01 7.146472930908203125e+00 2.250097036361694336e+00 -1.422850966453552246e+00
4.456000000000000000e+03 7.556126403808593750e+01 -2.282780075073242188e+01 1.214579701423645020e+00 8.550454139709472656e+00 2.929510116577148438e+00 1.342128992080688477e+00
4.457000000000000000e+03 7.761766815185546875e+01 -2.316024780273437500e+01 5.080565810203552246e-01 8.142330169677734375e+00 2.595115900039672852e+00 8.226436376571655273e-01
4.458000000000000000e+03 7.627554321289062500e+01 -2.211684799194335938e+01 7.926105856895446777e-01 8.400550842285156250e+00 2.757948398590087891e+00 1.459426045417785645e+00
4.459000000000000000e+03 7.674987792968750000e+01 3.790214061737060547e+00 -4.072862267494201660e-01 8.704807281494140625e+00 2.489256143569946289e+00 -4.525167644023895264e-01
4.460000000000000000e+03 7.735649108886718750e+01 -5.284408569335937500e+00 9.017218351364135742e-01 1.157492065429687500e+01 3.742992639541625977e+00 1.303558707237243652e+00
4.461000000000000000e+03 7.685818481445312500e+01 -1.075358486175537109e+01 2.221377044916152954e-01 1.198000621795654297e+01 3.660643100738525391e+00 -1.722137808799743652e+00
4.462000000000000000e+03 7.758389282226562500e+01 -9.861824989318847656e+00 7.209711074829101562e-01 1.081455039978027344e+01 3.460656404495239258e+00 -1.916906952857971191e+00
4.463000000000000000e+03 7.504114532470703125e+01 1.601801109313964844e+01 7.651747465133666992e-01 6.669524669647216797e+00 2.230409860610961914e+00 -5.861893296241760254e-01
4.464000000000000000e+03 7.675397491455078125e+01 -2.012746047973632812e+01 -6.938624382019042969e-02 8.759672164916992188e+00 2.607085704803466797e+00 1.652450323104858398e+00
4.465000000000000000e+03 7.650988769531250000e+01 -2.067564392089843750e+01 1.986387521028518677e-01 8.643615722656250000e+00 2.652676343917846680e+00 1.667630314826965332e+00
4.466000000000000000e+03 7.753411865234375000e+01 -1.982753562927246094e+01 -1.295158416032791138e-01 9.127562522888183594e+00 2.699413776397705078e+00 1.452928423881530762e+00
4.467000000000000000e+03 7.578373718261718750e+01 -1.929878234863281250e+01 -6.539389491081237793e-01 8.360847473144531250e+00 2.312072515487670898e+00 1.589488983154296875e+00
4.468000000000000000e+03 7.751923370361328125e+01 1.677924728393554688e+01 2.052988857030868530e-01 6.693947315216064453e+00 2.069773912429809570e+00 -2.012318074703216553e-01
4.469000000000000000e+03 7.307704162597656250e+01 1.702322387695312500e+01 6.910286545753479004e-01 6.563015460968017578e+00 2.176213264465332031e+00 -8.121364116668701172e-01
4.470000000000000000e+03 7.430116271972656250e+01 1.968856620788574219e+01 -7.039254903793334961e-02 6.023661613464355469e+00 1.785980701446533203e+00 -4.813916981220245361e-01
4.471000000000000000e+03 7.693031311035156250e+01 -1.279545783996582031e+01 -1.067698478698730469e+00 1.071653938293457031e+01 2.894652366638183594e+00 -1.250879764556884766e+00
4.472000000000000000e+03 7.555057525634765625e+01 -1.319791316986083984e+01 -1.486732721328735352e+00 9.537248611450195312e+00 2.415154695510864258e+00 1.531585603952407837e-01
4.473000000000000000e+03 7.725509643554687500e+01 -2.538575410842895508e+00 -4.781526029109954834e-01 1.085359764099121094e+01 3.112633466720581055e+00 1.534512519836425781e+00
4.474000000000000000e+03 7.716503906250000000e+01 -1.492575287818908691e+00 -7.616431713104248047e-01 1.053471565246582031e+01 2.931921720504760742e+00 1.146134734153747559e+00
4.475000000000000000e+03 7.544783782958984375e+01 5.993213653564453125e-01 -1.182489037513732910e+00 8.394163131713867188e+00 2.163502216339111328e+00 -3.946869373321533203e-01
4.476000000000000000e+03 7.668476867675781250e+01 2.311843299865722656e+01 -1.020087599754333496e-01 5.979486465454101562e+00 1.763243317604064941e+00 -2.425833940505981445e-01
4.477000000000000000e+03 7.744470214843750000e+01 2.310104560852050781e+01 -6.549530476331710815e-02 6.140561580657958984e+00 1.822519898414611816e+00 -1.581739783287048340e-01
4.478000000000000000e+03 7.668622589111328125e+01 2.391744804382324219e+01 -8.239559829235076904e-02 5.881384849548339844e+00 1.739696860313415527e+00 -2.721384167671203613e-01
4.479000000000000000e+03 7.678409576416015625e+01 -2.615275001525878906e+01 2.459551393985748291e-01 7.686853408813476562e+00 2.379842519760131836e+00 1.252077668905258179e-01
4.480000000000000000e+03 7.745604705810546875e+01 -2.638593864440917969e+01 1.159671992063522339e-01 7.646635055541992188e+00 2.328780651092529297e+00 4.714191891252994537e-03
4.481000000000000000e+03 7.408326721191406250e+01 -2.680608558654785156e+01 -3.010323941707611084e-01 7.050102710723876953e+00 2.024721145629882812e+00 1.190288782119750977e+00
4.482000000000000000e+03 7.673373413085937500e+01 -2.735544586181640625e+01 -6.692039966583251953e-02 7.493691921234130859e+00 2.228031396865844727e+00 1.219387501478195190e-01
4.483000000000000000e+03 7.690517425537109375e+01 7.047821044921875000e+00 -2.995769977569580078e-01 8.419323921203613281e+00 2.435924053192138672e+00 -9.141932129859924316e-01
4.484000000000000000e+03 7.683528900146484375e+01 8.618760108947753906e+00 -2.353584468364715576e-01 8.149250984191894531e+00 2.374167680740356445e+00 -1.152249932289123535e+00
4.485000000000000000e+03 7.691162872314453125e+01 7.815569877624511719e+00 -2.810799181461334229e-01 8.318188667297363281e+00 2.411132574081420898e+00 -1.035873651504516602e+00
4.486000000000000000e+03 7.681703948974609375e+01 2.957485675811767578e+00 -4.858073592185974121e-01 8.893404006958007812e+00 2.522279024124145508e+00 -3.116489946842193604e-01
4.487000000000000000e+03 7.667859649658203125e+01 1.089864349365234375e+01 7.881795614957809448e-02 7.648727416992187500e+00 2.318263530731201172e+00 -1.315786600112915039e+00
4.488000000000000000e+03 7.703189849853515625e+01 1.382133674621582031e+01 3.995349705219268799e-01 7.100267887115478516e+00 2.249940872192382812e+00 -8.665575981140136719e-01
4.489000000000000000e+03 7.388851928710937500e+01 1.262963199615478516e+01 7.638556361198425293e-01 7.071411609649658203e+00 2.350580215454101562e+00 -1.363275408744812012e+00
4.490000000000000000e+03 7.752832031250000000e+01 1.912748718261718750e+01 1.534781511873006821e-02 6.500494480133056641e+00 1.954752802848815918e+00 -3.509273007512092590e-02
4.491000000000000000e+03 7.681711578369140625e+01 1.996297454833984375e+01 -4.368446022272109985e-02 6.358896732330322266e+00 1.894563674926757812e+00 -1.048398166894912720e-01
4.492000000000000000e+03 7.746189117431640625e+01 -1.095467185974121094e+01 -7.198265194892883301e-02 1.089341831207275391e+01 3.246430873870849609e+00 -2.107933282852172852e+00
4.493000000000000000e+03 7.736123657226562500e+01 -1.168055343627929688e+01 -4.646628201007843018e-01 1.084354686737060547e+01 3.113665103912353516e+00 -1.856971859931945801e+00
4.494000000000000000e+03 7.662033081054687500e+01 -9.783829689025878906e+00 1.374581694602966309e+00 1.313517093658447266e+01 4.352925777435302734e+00 -1.412887573242187500e+00
4.495000000000000000e+03 7.685476684570312500e+01 6.279480934143066406e+00 -3.041758537292480469e-01 8.463125228881835938e+00 2.447684764862060547e+00 -8.198186159133911133e-01
4.496000000000000000e+03 7.605820465087890625e+01 3.366691207885742188e+01 6.510892510414123535e-02 4.942794322967529297e+00 1.502370953559875488e+00 -2.293865978717803955e-01
4.497000000000000000e+03 7.712066650390625000e+01 3.517823028564453125e+01 3.532949090003967285e-02 5.131841659545898438e+00 1.550151348114013672e+00 -1.447735130786895752e-01
4.498000000000000000e+03 7.710927581787109375e+01 3.787600708007812500e+01 2.630975283682346344e-02 5.028866767883300781e+00 1.516552925109863281e+00 -1.062260195612907410e-01
4.499000000000000000e+03 7.628388214111328125e+01 3.612280654907226562e+01 4.657117649912834167e-02 4.914531707763671875e+00 1.488330841064453125e+00 -1.428694576025009155e-01
4.500000000000000000e+03 7.680133056640625000e+01 2.075191688537597656e+01 -7.417397201061248779e-02 6.270547866821289062e+00 1.858912110328674316e+00 -1.296955496072769165e-01
4.501000000000000000e+03 7.694268798828125000e+01 -1.491711807250976562e+01 -1.117173671722412109e+00 9.769717216491699219e+00 2.595762968063354492e+00 -2.883283197879791260e-01
4.502000000000000000e+03 7.644790649414062500e+01 -4.401093006134033203e+00 6.349807977676391602e-01 1.326123332977294922e+01 4.168864250183105469e+00 9.529867768287658691e-01
4.503000000000000000e+03 3.277951478958129883e+00 -2.938173484802246094e+01 -2.542523667216300964e-02 -9.261046350002288818e-02 -3.541070967912673950e-02 -2.092341892421245575e-02
4.504000000000000000e+03 7.559635925292968750e+01 -3.570272064208984375e+01 1.059587523341178894e-01 5.663580417633056641e+00 1.730861783027648926e+00 3.625296056270599365e-01
4.505000000000000000e+03 7.526929473876953125e+01 -2.990614891052246094e+01 -2.107952535152435303e-01 6.261321544647216797e+00 1.815157890319824219e+00 7.245188355445861816e-01
4.506000000000000000e+03 7.632029724121093750e+01 -1.555680084228515625e+01 -1.336788296699523926e+00 8.995730400085449219e+00 2.297682523727416992e+00 1.774131208658218384e-01
4.507000000000000000e+03 7.668421936035156250e+01 -2.679407310485839844e+01 4.447003826498985291e-02 7.620704650878906250e+00 2.299552440643310547e+00 1.076710969209671021e-01
4.508000000000000000e+03 7.072363853454589844e+00 -2.519286727905273438e+01 -1.319481991231441498e-03 -5.945985205471515656e-03 -2.179640112444758415e-03 -2.360346168279647827e-02
4.509000000000000000e+03 2.549401998519897461e+00 -2.854246520996093750e+01 -1.485901325941085815e-02 -8.928307145833969116e-02 -3.124262578785419464e-02 -4.986815620213747025e-03
4.510000000000000000e+03 7.663775634765625000e+01 2.710627555847167969e+01 -9.031226858496665955e-03 5.539432525634765625e+00 1.659120440483093262e+00 -3.232832849025726318e-01
4.511000000000000000e+03 3.399702548980712891e+00 8.212038993835449219e+00 -5.075700208544731140e-02 -1.686028949916362762e-02 -2.028518728911876678e-02 5.775969102978706360e-02
4.512000000000000000e+03 8.148859977722167969e+00 1.005696201324462891e+01 -1.784528791904449463e-01 -1.300047487020492554e-01 -9.253729134798049927e-02 1.694902926683425903e-01
4.513000000000000000e+03 2.535679578781127930e+00 -2.613918113708496094e+01 -7.485770620405673981e-04 -8.076217025518417358e-02 -2.445322461426258087e-02 1.062854379415512085e-02
4.514000000000000000e+03 3.353410482406616211e+00 -2.382046699523925781e+01 3.264268860220909119e-02 -6.899854540824890137e-02 -1.090675592422485352e-02 -3.239754354581236839e-03
4.515000000000000000e+03 2.560013055801391602e+00 -2.283193969726562500e+01 2.992126904428005219e-02 -7.857117056846618652e-02 -1.459497027099132538e-02 -1.751550845801830292e-02
4.516000000000000000e+03 3.130858182907104492e+00 -2.202116203308105469e+01 4.506794363260269165e-02 -7.324413210153579712e-02 -8.452856913208961487e-03 -3.463991731405258179e-02
4.517000000000000000e+03 3.665457010269165039e+00 -2.205500984191894531e+01 5.438840761780738831e-02 -6.425753235816955566e-02 -2.960738260298967361e-03 -3.571492061018943787e-02
4.518000000000000000e+03 3.209000349044799805e+00 2.599777221679687500e+01 -1.078156679868698120e-01 -3.565929830074310303e-01 -1.393225938081741333e-01 8.694131672382354736e-02
4.519000000000000000e+03 2.798195600509643555e+00 2.567060470581054688e+01 -8.995302021503448486e-02 -3.291547000408172607e-01 -1.257323175668716431e-01 6.224274262785911560e-02
4.520000000000000000e+03 2.287227869033813477e+00 2.496020126342773438e+01 -5.026086419820785522e-02 -2.797817587852478027e-01 -9.901278465986251831e-02 2.100089937448501587e-02
4.521000000000000000e+03 7.742615699768066406e+00 1.411911392211914062e+01 1.188205704092979431e-01 -9.435568749904632568e-02 7.339466828852891922e-03 2.080611288547515869e-01
4.522000000000000000e+03 2.666383981704711914e+00 -1.692900848388671875e+01 -2.811489440500736237e-02 -2.525494433939456940e-02 -1.601095125079154968e-02 -4.686160385608673096e-02
4.523000000000000000e+03 3.188251495361328125e+00 2.014103889465332031e+01 2.465740591287612915e-02 -2.658422589302062988e-01 -7.235545665025711060e-02 -2.763290144503116608e-02
4.524000000000000000e+03 2.387574672698974609e+00 -1.860150146484375000e+01 -1.160892471671104431e-02 -3.535106033086776733e-02 -1.408799458295106888e-02 -6.526605039834976196e-02
4.525000000000000000e+03 2.307565927505493164e+00 -1.930390167236328125e+01 -2.310756361111998558e-03 -4.471807926893234253e-02 -1.410865131765604019e-02 -6.587776541709899902e-02
4.526000000000000000e+03 6.164668083190917969e+00 2.124530792236328125e+01 -1.562946476042270660e-02 -2.942544519901275635e-01 -9.296517819166183472e-02 3.864531964063644409e-02
4.527000000000000000e+03 2.566534757614135742e+00 -1.354864311218261719e+01 -1.317145675420761108e-02 4.525436088442802429e-03 -2.593806246295571327e-03 -2.374682342633605003e-03
4.528000000000000000e+03 4.034289836883544922e+00 -1.250729751586914062e+01 -2.115734107792377472e-02 -3.259247541427612305e-02 -1.612494513392448425e-02 -1.994785154238343239e-03
4.529000000000000000e+03 2.354422807693481445e+00 -6.605378627777099609e+00 1.492080744355916977e-03 1.164797600358724594e-02 3.942016977816820145e-03 1.477413065731525421e-02
4.530000000000000000e+03 2.420385599136352539e+00 -7.360458850860595703e+00 2.238407498225569725e-03 1.260431390255689621e-02 4.452816210687160492e-03 1.592495478689670563e-02
4.531000000000000000e+03 3.263840913772583008e+00 8.967741012573242188e+00 -4.403602331876754761e-02 -2.888425812125205994e-02 -2.187608368694782257e-02 7.371464371681213379e-02
4.532000000000000000e+03 3.305027723312377930e+00 1.142641639709472656e+01 -1.852260529994964600e-02 -8.334196358919143677e-02 -3.055937029421329498e-02 1.199367642402648926e-01
4.533000000000000000e+03 2.347611427307128906e+00 2.845142555236816406e+01 -3.391561284661293030e-02 -3.829861283302307129e-01 -1.250705271959304810e-01 1.603939533233642578e-01
4.534000000000000000e+03 2.261134386062622070e+00 2.773343849182128906e+01 -4.445366933941841125e-02 -3.507432639598846436e-01 -1.185590848326683044e-01 1.349168568849563599e-01
4.535000000000000000e+03 3.015194177627563477e+00 2.816744422912597656e+01 -5.396952852606773376e-02 -4.011659622192382812e-01 -1.365406513214111328e-01 1.712911278009414673e-01
4.536000000000000000e+03 2.924256086349487305e+00 1.391534519195556641e+01 2.491469122469425201e-02 -1.577103435993194580e-01 -3.983869403600692749e-02 1.045353785157203674e-01
4.537000000000000000e+03 2.620781183242797852e+00 -2.114062500000000000e+01 3.129107505083084106e-02 -7.108265161514282227e-02 -1.193747296929359436e-02 -5.151160433888435364e-02
4.538000000000000000e+03 2.910834074020385742e+00 2.749902343750000000e+01 -7.295199483633041382e-02 -3.790338337421417236e-01 -1.355957537889480591e-01 1.535275280475616455e-01
4.539000000000000000e+03 2.195687055587768555e+00 2.703511047363281250e+01 -5.149383097887039185e-02 -3.262292742729187012e-01 -1.133169382810592651e-01 1.110656112432479858e-01
4.540000000000000000e+03 2.405035972595214844e+00 1.301805686950683594e+01 7.566438056528568268e-03 -1.320198476314544678e-01 -3.733602166175842285e-02 9.672366827726364136e-02
4.541000000000000000e+03 3.176767826080322266e+00 1.229962730407714844e+01 -1.294564222916960716e-03 -1.099687740206718445e-01 -3.337899968028068542e-02 1.220004931092262268e-01
4.542000000000000000e+03 4.552692413330078125e+00 1.525804138183593750e+01 8.086723089218139648e-02 -1.865075379610061646e-01 -3.169209137558937073e-02 1.161050423979759216e-01
4.543000000000000000e+03 3.017713785171508789e+00 -1.872200965881347656e+01 -1.436939463019371033e-02 -5.302306264638900757e-02 -2.021773718297481537e-02 -7.304351031780242920e-02
4.544000000000000000e+03 3.275466680526733398e+00 -9.631402969360351562e+00 -1.229406334459781647e-03 -1.306294463574886322e-03 -7.607102161273360252e-04 1.564847864210605621e-02
4.545000000000000000e+03 3.808363199234008789e+00 1.845678901672363281e+01 6.310636550188064575e-02 -2.459928542375564575e-01 -5.486594513058662415e-02 1.153035834431648254e-02
4.546000000000000000e+03 2.486934661865234375e+00 1.933152389526367188e+01 2.603680267930030823e-02 -2.522726356983184814e-01 -6.787075102329254150e-02 -2.157403342425823212e-02
4.547000000000000000e+03 3.141357183456420898e+00 1.841147804260253906e+01 4.610149189829826355e-02 -2.456600666046142578e-01 -5.986757203936576843e-02 3.257565898820757866e-03
4.548000000000000000e+03 3.045963048934936523e+00 1.757213401794433594e+01 5.021814256906509399e-02 -2.359595447778701782e-01 -5.572241917252540588e-02 2.113015204668045044e-02
4.549000000000000000e+03 3.234130859375000000e+00 -1.117724037170410156e+01 -6.085272412747144699e-03 -5.406365264207124710e-03 -3.447491209954023361e-03 1.085484866052865982e-02
4.550000000000000000e+03 4.621116161346435547e+00 -1.314389610290527344e+01 -3.189701214432716370e-02 -5.613704398274421692e-02 -2.641021832823753357e-02 -1.509941183030605316e-02
4.551000000000000000e+03 2.360478639602661133e+00 2.421907043457031250e+01 -4.445428028702735901e-02 -2.762699425220489502e-01 -9.621726721525192261e-02 -3.396006359253078699e-04
4.552000000000000000e+03 2.426383256912231445e+00 2.344792938232421875e+01 -2.967927046120166779e-02 -2.706622183322906494e-01 -9.010244160890579224e-02 -2.140939794480800629e-02
4.553000000000000000e+03 2.291159152984619141e+00 3.037066078186035156e+01 1.135189458727836609e-02 -4.519167542457580566e-01 -1.321694552898406982e-01 1.681207567453384399e-01
4.554000000000000000e+03 3.287282466888427734e+00 -2.461023521423339844e+01 1.814550533890724182e-02 -6.994854658842086792e-02 -1.554091274738311768e-02 5.711487960070371628e-03
4.555000000000000000e+03 3.976406812667846680e+00 6.151527404785156250e+00 -5.396211892366409302e-02 -3.010605461895465851e-03 -1.709181629121303558e-02 1.113603729754686356e-02
4.556000000000000000e+03 2.646230459213256836e+00 3.075896644592285156e+01 2.549168467521667480e-02 -4.595761895179748535e-01 -1.302253603935241699e-01 1.785440444946289062e-01
4.557000000000000000e+03 4.069107055664062500e+00 5.168851375579833984e+00 -4.110836237668991089e-02 6.484674522653222084e-04 -1.213796902447938919e-02 -7.556476164609193802e-03
4.558000000000000000e+03 4.600212574005126953e+00 4.218891620635986328e+00 -3.332919254899024963e-02 -9.959526360034942627e-04 -1.029754336923360825e-02 -2.003397978842258453e-02
4.559000000000000000e+03 2.544434785842895508e+00 -2.774055480957031250e+01 -1.138927787542343140e-02 -8.530143648386001587e-02 -2.900721319019794464e-02 2.916457829996943474e-03
4.560000000000000000e+03 3.283217191696166992e+00 -2.619114112854003906e+01 -3.348150523379445076e-03 -7.149951905012130737e-02 -2.245429903268814087e-02 8.376850746572017670e-03
4.561000000000000000e+03 3.275803565979003906e+00 -2.778962135314941406e+01 -1.849842071533203125e-02 -7.874202728271484375e-02 -2.917213551700115204e-02 -2.268597017973661423e-03
4.562000000000000000e+03 4.136706829071044922e+00 -1.390711688995361328e+01 -3.431730344891548157e-02 -5.270855501294136047e-02 -2.610775828361511230e-02 -1.846375875174999237e-02
4.563000000000000000e+03 3.468352794647216797e+00 -1.500019645690917969e+01 -3.068281896412372589e-02 -3.944241255521774292e-02 -2.103756926953792572e-02 -2.363659441471099854e-02
4.564000000000000000e+03 2.675398111343383789e+00 -3.172344779968261719e+01 -1.658901758491992950e-02 -1.242775693535804749e-01 -4.225997626781463623e-02 -4.256519675254821777e-02
4.565000000000000000e+03 3.290957212448120117e+00 -3.015868568420410156e+01 -2.710563130676746368e-02 -1.014515236020088196e-01 -3.856714814901351929e-02 -3.084320202469825745e-02
4.566000000000000000e+03 3.158954620361328125e+00 1.591949844360351562e+01 4.892329871654510498e-02 -2.052098065614700317e-01 -4.688595235347747803e-02 6.671630591154098511e-02
4.567000000000000000e+03 3.226865530014038086e+00 2.099364471435546875e+01 1.079943496733903885e-02 -2.752234935760498047e-01 -7.932721823453903198e-02 -3.360207378864288330e-02
4.568000000000000000e+03 3.232425928115844727e+00 2.185925865173339844e+01 -9.854871779680252075e-03 -2.874151468276977539e-01 -8.918099850416183472e-02 -3.148744255304336548e-02
4.569000000000000000e+03 4.826210975646972656e+00 -5.153649806976318359e+00 6.755141541361808777e-03 -8.836823515594005585e-03 -6.245046970434486866e-04 1.150096859782934189e-02
4.570000000000000000e+03 3.079127311706542969e+00 -6.500645637512207031e+00 3.684072522446513176e-03 3.707962809130549431e-03 2.217610599473118782e-03 1.585043407976627350e-02
4.571000000000000000e+03 3.193130016326904297e+00 2.270554733276367188e+01 -2.607577666640281677e-02 -2.964503169059753418e-01 -9.675782173871994019e-02 -2.348146401345729828e-02
4.572000000000000000e+03 2.746812820434570312e+00 1.468709659576416016e+01 3.086490742862224579e-02 -1.795633882284164429e-01 -4.460954666137695312e-02 8.519201725721359253e-02
4.573000000000000000e+03 3.838351011276245117e+00 3.420691680908203125e+01 1.039032191038131714e-01 -4.170013964176177979e-01 -9.392945468425750732e-02 6.687161326408386230e-02
4.574000000000000000e+03 3.943760633468627930e+00 3.239912796020507812e+01 1.026621460914611816e-01 -4.090397655963897705e-01 -9.191328287124633789e-02 1.433258503675460815e-01
4.575000000000000000e+03 3.842540502548217773e+00 -6.464688777923583984e+00 3.355623455718159676e-03 -3.968183416873216629e-03 -1.837679592426866293e-04 1.492632180452346802e-02
4.576000000000000000e+03 3.252785682678222656e+00 -8.852091789245605469e+00 -8.370035793632268906e-04 3.567483145161531866e-05 -2.403986145509406924e-04 1.660965383052825928e-02
4.577000000000000000e+03 3.197225332260131836e+00 -8.076710700988769531e+00 1.959495712071657181e-03 1.669882680289447308e-03 1.088813529349863529e-03 1.686431281268596649e-02
4.578000000000000000e+03 3.271963834762573242e+00 -2.859045219421386719e+01 -2.296200767159461975e-02 -8.564662933349609375e-02 -3.258259221911430359e-02 -1.055271830409765244e-02
4.579000000000000000e+03 1.080366420745849609e+01 -3.697814941406250000e+00 5.388448014855384827e-03 -9.585472755134105682e-03 -1.259107375517487526e-03 -1.481997966766357422e-02
4.580000000000000000e+03 1.308769416809082031e+01 -4.152429103851318359e+00 2.163259545341134071e-03 -3.323866752907633781e-03 -3.481821622699499130e-04 -1.698579639196395874e-02
4.581000000000000000e+03 6.039649963378906250e+01 1.346751809120178223e+00 -2.011862516403198242e+00 3.124514222145080566e-01 -5.098233222961425781e-01 3.031219728291034698e-02
4.582000000000000000e+03 3.444222450256347656e+00 -3.171162414550781250e+01 -2.544805407524108887e-02 -1.228513196110725403e-01 -4.448981210589408875e-02 -5.260341614484786987e-02
4.583000000000000000e+03 3.534435653686523438e+01 -1.146106243133544922e+01 -2.085474580526351929e-01 2.551651895046234131e-01 1.398531999439001083e-02 -9.223393350839614868e-02
4.584000000000000000e+03 7.647013854980468750e+01 -3.100918197631835938e+01 -1.093006432056427002e-01 6.554718494415283203e+00 1.933625340461730957e+00 4.318961799144744873e-01
4.585000000000000000e+03 2.867156744003295898e+00 3.568803405761718750e+01 4.618451744318008423e-02 -5.096506476402282715e-01 -1.390398442745208740e-01 2.136018127202987671e-02
4.586000000000000000e+03 3.507504224777221680e+00 3.553754806518554688e+01 6.836488842964172363e-02 -4.334757328033447266e-01 -1.095332503318786621e-01 1.703451387584209442e-02
4.587000000000000000e+03 5.316537380218505859e+00 2.258440017700195312e+01 -6.606641411781311035e-02 -3.526681959629058838e-01 -1.256203800439834595e-01 3.648101165890693665e-02
4.588000000000000000e+03 1.754084777832031250e+01 -1.288626575469970703e+01 -1.047517210245132446e-01 3.357451781630516052e-02 -2.135315909981727600e-02 3.162357211112976074e-02
4.589000000000000000e+03 3.619343757629394531e+00 -3.494349288940429688e+01 -8.380424231290817261e-03 -1.759906858205795288e-01 -5.531133338809013367e-02 -8.140323311090469360e-02
4.590000000000000000e+03 3.542266130447387695e+00 -3.256280136108398438e+01 -2.261809073388576508e-02 -1.350390613079071045e-01 -4.729714244604110718e-02 -6.427378952503204346e-02
4.591000000000000000e+03 7.624355316162109375e+01 3.181093025207519531e+01 5.863916501402854919e-02 5.081981182098388672e+00 1.542186141014099121e+00 -2.605828642845153809e-01
4.592000000000000000e+03 2.267891502380371094e+01 1.614522171020507812e+01 -2.607214152812957764e-01 -2.261804938316345215e-01 -1.460705697536468506e-01 1.552797555923461914e-01
4.593000000000000000e+03 2.133315277099609375e+01 1.608276939392089844e+01 -2.207867205142974854e-01 -2.203063517808914185e-01 -1.323279291391372681e-01 1.234079301357269287e-01
4.594000000000000000e+03 1.395146369934082031e+01 -6.470353603363037109e+00 -4.900425672531127930e-03 1.059814542531967163e-02 1.709315925836563110e-03 -1.173258386552333832e-02
4.595000000000000000e+03 5.475042724609375000e+01 4.850460052490234375e+00 -6.034590005874633789e-01 2.012173682451248169e-01 -1.206724867224693298e-01 3.577984571456909180e-01
4.596000000000000000e+03 4.149119567871093750e+01 5.311300277709960938e+00 -3.407715260982513428e-01 -3.283309638500213623e-01 -2.007307410240173340e-01 2.479760795831680298e-01
4.597000000000000000e+03 7.734512805938720703e+00 3.887429714202880859e+00 -6.177993491291999817e-02 -3.062839247286319733e-02 -2.772249840199947357e-02 -5.475349258631467819e-03
4.598000000000000000e+03 5.430811882019042969e+00 4.078701019287109375e+00 -4.127440601587295532e-02 -8.358359336853027344e-03 -1.488982979208230972e-02 -1.974820718169212341e-02
4.599000000000000000e+03 7.241492748260498047e+00 6.825061321258544922e+00 -1.531145274639129639e-01 -5.457844212651252747e-02 -6.230789050459861755e-02 5.307314917445182800e-02
4.600000000000000000e+03 7.725151062011718750e+00 4.553274154663085938e+00 -9.445989131927490234e-02 -3.828316181898117065e-02 -3.982291370630264282e-02 4.255058709532022476e-03
4.601000000000000000e+03 6.313622474670410156e+00 4.730512619018554688e+00 -7.407827675342559814e-02 -1.969130337238311768e-02 -2.813087590038776398e-02 -4.960363265126943588e-03
4.602000000000000000e+03 5.525791168212890625e+00 4.731633186340332031e+00 -5.882883816957473755e-02 -1.135527528822422028e-02 -2.105523459613323212e-02 -8.942286483943462372e-03
4.603000000000000000e+03 4.413749217987060547e+00 7.758627414703369141e+00 -7.899966090917587280e-02 -1.967621035873889923e-02 -2.960276231169700623e-02 5.623007938265800476e-02
4.604000000000000000e+03 6.435015106201171875e+01 2.161378288269042969e+01 -3.933098632842302322e-03 6.005575656890869141e-01 1.789873391389846802e-01 3.022290468215942383e-01
4.605000000000000000e+03 2.691452980041503906e+01 1.278877353668212891e+01 -1.869365572929382324e-02 2.783849276602268219e-02 2.743451157584786415e-03 1.559868603944778442e-01
4.606000000000000000e+03 2.604408073425292969e+01 1.382701015472412109e+01 -1.787341535091400146e-01 -1.291235238313674927e-01 -9.235730022192001343e-02 1.188257187604904175e-01
4.607000000000000000e+03 6.007463455200195312e+01 8.903724670410156250e+00 5.809075832366943359e-01 1.228439688682556152e+00 5.428041815757751465e-01 -2.116072922945022583e-01
4.608000000000000000e+03 6.003199005126953125e+01 6.933822154998779297e+00 1.273020207881927490e-01 7.575548887252807617e-01 2.654570639133453369e-01 -1.649754494428634644e-01
4.609000000000000000e+03 1.786603355407714844e+01 -1.867713546752929688e+01 -1.668154448270797729e-01 -5.092899501323699951e-02 -6.532333791255950928e-02 -3.077879548072814941e-01
4.610000000000000000e+03 2.588422393798828125e+01 1.299507236480712891e+01 -4.763614013791084290e-02 -9.476672857999801636e-02 -4.272085800766944885e-02 9.888014197349548340e-02
4.611000000000000000e+03 7.191635894775390625e+01 -3.759764099121093750e+01 3.883071243762969971e-01 4.048405170440673828e+00 1.331013679504394531e+00 3.805331587791442871e-01
4.612000000000000000e+03 1.184164714813232422e+01 1.985407829284667969e+01 2.013934776186943054e-02 1.822191625833511353e-01 6.070755422115325928e-02 2.853761315345764160e-01
4.613000000000000000e+03 3.478664016723632812e+01 1.608809471130371094e+01 2.663814127445220947e-01 -5.289320349693298340e-01 -7.876519858837127686e-02 5.371967554092407227e-01
4.614000000000000000e+03 4.928050613403320312e+01 -6.114443302154541016e+00 -2.706020176410675049e-01 1.742035448551177979e-01 -2.891954407095909119e-02 3.117402195930480957e-01
4.615000000000000000e+03 4.142309570312500000e+01 1.693937110900878906e+01 2.324988543987274170e-01 -1.288094222545623779e-01 3.110682964324951172e-02 2.759273350238800049e-01
4.616000000000000000e+03 6.498645019531250000e+01 -2.541794967651367188e+01 -4.478289484977722168e-01 1.782834529876708984e+00 4.005016684532165527e-01 -4.499542117118835449e-01
4.617000000000000000e+03 6.525457000732421875e+01 -2.686716461181640625e+01 -4.076071381568908691e-01 1.719656944274902344e+00 3.936149477958679199e-01 -6.619857549667358398e-01
4.618000000000000000e+03 2.771966934204101562e+01 7.807146549224853516e+00 2.353581935167312622e-01 4.309287667274475098e-01 1.998860836029052734e-01 1.436723023653030396e-01
4.619000000000000000e+03 2.873249244689941406e+01 1.156120681762695312e+01 6.525479257106781006e-02 4.636109471321105957e-01 1.586597263813018799e-01 2.429196536540985107e-01
4.620000000000000000e+03 6.723629760742187500e+01 -2.752538490295410156e+01 -1.390094161033630371e-01 1.094255447387695312e+00 2.865737974643707275e-01 -4.929959475994110107e-01
4.621000000000000000e+03 6.681843566894531250e+01 -2.704844856262207031e+01 -4.498333632946014404e-01 1.198591589927673340e+00 2.246274650096893311e-01 -5.698380470275878906e-01
4.622000000000000000e+03 1.117834568023681641e+01 1.995510292053222656e+01 1.789580099284648895e-02 9.313017129898071289e-02 3.330779448151588440e-02 2.428652644157409668e-01
4.623000000000000000e+03 1.092463397979736328e+01 1.924303245544433594e+01 7.110252976417541504e-02 1.186134591698646545e-01 5.691479519009590149e-02 2.089490145444869995e-01
4.624000000000000000e+03 7.096217346191406250e+01 6.930814266204833984e+00 -7.298011183738708496e-01 1.844186544418334961e+00 3.343156278133392334e-01 -7.513371109962463379e-02
4.625000000000000000e+03 7.204170989990234375e+01 7.218784809112548828e+00 -9.091270565986633301e-01 3.569911718368530273e+00 7.982354164123535156e-01 -2.312235981225967407e-01
4.626000000000000000e+03 6.921064758300781250e+01 -1.349575042724609375e+01 -9.514532685279846191e-01 -1.031612038612365723e+00 -5.949196219444274902e-01 1.639874100685119629e+00
4.627000000000000000e+03 5.483990192413330078e+00 -1.366449737548828125e+01 -4.396495595574378967e-02 -8.323860913515090942e-02 -3.816106915473937988e-02 -3.665927797555923462e-02
4.628000000000000000e+03 4.152047729492187500e+01 -2.550220680236816406e+01 -1.514041125774383545e-01 -2.353177517652511597e-01 -1.160165593028068542e-01 -3.238610029220581055e-01
4.629000000000000000e+03 7.554055023193359375e+01 -2.365369987487792969e+01 1.379029989242553711e+00 8.393124580383300781e+00 2.931646347045898438e+00 1.104446053504943848e+00
4.630000000000000000e+03 9.423170089721679688e+00 1.918889999389648438e+01 9.450527280569076538e-02 -3.465808182954788208e-02 1.795415580272674561e-02 1.314871609210968018e-01
4.631000000000000000e+03 2.409608840942382812e+01 1.434329986572265625e+01 -2.127020061016082764e-01 -1.827377825975418091e-01 -1.186319366097450256e-01 7.583256065845489502e-02
4.632000000000000000e+03 2.598180198669433594e+01 -2.850697898864746094e+01 2.633317410945892334e-01 -1.765697151422500610e-01 2.602861076593399048e-02 -1.356685906648635864e-01
4.633000000000000000e+03 2.471881294250488281e+01 -2.913892745971679688e+01 2.267894446849822998e-01 -1.469852477312088013e-01 2.394126355648040771e-02 -1.177004724740982056e-01
4.634000000000000000e+03 3.957971191406250000e+01 -1.750634384155273438e+01 1.170679777860641479e-01 4.660910367965698242e-01 1.749477088451385498e-01 -3.445571660995483398e-01
4.635000000000000000e+03 3.044648933410644531e+01 -1.385298252105712891e+01 -4.736882150173187256e-01 -2.713532447814941406e-01 -2.235124260187149048e-01 -1.122908517718315125e-01
4.636000000000000000e+03 6.411511230468750000e+01 1.339046597480773926e+00 -1.301893472671508789e+00 4.763668179512023926e-01 -2.476579844951629639e-01 -1.400280594825744629e-01
4.637000000000000000e+03 3.428409957885742188e+01 -4.353253364562988281e+00 -1.565688997507095337e-01 7.239875197410583496e-02 -2.525104396045207977e-02 -2.292058765888214111e-01
4.638000000000000000e+03 3.494724655151367188e+01 -5.482606887817382812e+00 -1.230834424495697021e-01 1.541577726602554321e-01 9.322300553321838379e-03 -2.840441465377807617e-01
4.639000000000000000e+03 2.671642875671386719e+01 -2.128852462768554688e+01 -5.203301087021827698e-02 -1.764034926891326904e-01 -6.853095442056655884e-02 -1.412392407655715942e-01
4.640000000000000000e+03 2.754666137695312500e+01 -2.119917297363281250e+01 -5.534349009394645691e-02 -2.084386199712753296e-01 -7.913463562726974487e-02 -1.209227740764617920e-01
4.641000000000000000e+03 5.774151992797851562e+01 -2.159481811523437500e+01 2.850753366947174072e-01 2.160059660673141479e-01 1.503243893384933472e-01 9.184520691633224487e-02
4.642000000000000000e+03 5.677563858032226562e+01 9.305598258972167969e+00 4.720591008663177490e-01 4.138585627079010010e-01 2.657752931118011475e-01 4.021704494953155518e-01
4.643000000000000000e+03 6.948581695556640625e+01 -2.742622947692871094e+01 1.391485184431076050e-01 4.725754261016845703e-01 1.835171729326248169e-01 5.859421491622924805e-01
4.644000000000000000e+03 1.922494506835937500e+01 -1.414133739471435547e+01 -2.023057192564010620e-01 -1.974770426750183105e-02 -6.661602854728698730e-02 -2.339509874582290649e-02
4.645000000000000000e+03 6.285549163818359375e+01 8.267499804496765137e-01 -1.590408205986022949e+00 5.256861448287963867e-01 -3.194166123867034912e-01 2.778681367635726929e-02
4.646000000000000000e+03 6.112348937988281250e+01 2.084732437133789062e+01 -1.086946204304695129e-01 9.909251928329467773e-01 2.646691799163818359e-01 4.545969963073730469e-01
4.647000000000000000e+03 4.080801773071289062e+01 -1.786243057250976562e+01 8.710404485464096069e-02 1.041068211197853088e-01 5.736326053738594055e-02 -3.679913878440856934e-01
4.648000000000000000e+03 1.567278385162353516e+01 -1.239874649047851562e+01 -8.435583114624023438e-02 1.036658138036727905e-01 5.792992655187845230e-03 1.032577734440565109e-02
4.649000000000000000e+03 6.391062545776367188e+01 -9.466641426086425781e+00 -1.533460617065429688e+00 4.396602809429168701e-01 -3.281401097774505615e-01 3.405158519744873047e-01
4.650000000000000000e+03 3.018649482727050781e+01 -1.326530551910400391e+01 -4.352732300758361816e-01 -3.015196919441223145e-01 -2.210378795862197876e-01 -1.102998405694961548e-01
4.651000000000000000e+03 3.193495178222656250e+01 -1.381036281585693359e+01 -5.464951992034912109e-01 -2.409214079380035400e-01 -2.362249791622161865e-01 -5.282409116625785828e-02
4.652000000000000000e+03 2.366942977905273438e+01 -1.534948825836181641e+01 -4.570856392383575439e-01 -1.536860466003417969e-01 -1.832315027713775635e-01 -1.536377519369125366e-01
4.653000000000000000e+03 2.421002388000488281e+01 -1.568348503112792969e+01 -4.193239510059356689e-01 -1.573933213949203491e-01 -1.730151772499084473e-01 -1.631061881780624390e-01
4.654000000000000000e+03 5.942261123657226562e+01 -2.476215362548828125e+01 2.147664874792098999e-01 4.870781004428863525e-01 2.105533778667449951e-01 4.704115390777587891e-01
4.655000000000000000e+03 6.011678314208984375e+01 -2.516012382507324219e+01 1.899015307426452637e-01 4.198586940765380859e-01 1.829280704259872437e-01 4.359506964683532715e-01
4.656000000000000000e+03 2.712844657897949219e+01 -1.916917037963867188e+01 -1.742069870233535767e-01 -2.295414805412292480e-01 -1.211245432496070862e-01 -1.556990146636962891e-01
4.657000000000000000e+03 2.791713523864746094e+01 -1.926998710632324219e+01 -1.530927568674087524e-01 -2.703990936279296875e-01 -1.270475536584854126e-01 -1.494470983743667603e-01
4.658000000000000000e+03 1.359852981567382812e+01 -1.167336368560791016e+01 -7.150440663099288940e-02 7.998328655958175659e-02 2.543664537370204926e-03 -3.189216554164886475e-02
4.659000000000000000e+03 1.225434780120849609e+01 -1.007114791870117188e+01 -5.698985606431961060e-02 2.169246226549148560e-02 -1.058921776711940765e-02 -3.568144887685775757e-02
4.660000000000000000e+03 5.599431228637695312e+01 1.574701595306396484e+01 2.513934075832366943e-01 5.000346302986145020e-01 2.254284173250198364e-01 -3.061057627201080322e-01
4.661000000000000000e+03 3.349433898925781250e+01 -7.771774768829345703e+00 1.653085090219974518e-02 -5.218122527003288269e-02 -1.069511193782091141e-02 -2.719164788722991943e-01
4.662000000000000000e+03 2.106190872192382812e+01 2.749534416198730469e+01 2.281015068292617798e-01 -2.732491493225097656e-01 -1.354429777711629868e-02 3.472466766834259033e-01
4.663000000000000000e+03 7.333464813232421875e+01 1.599096584320068359e+01 1.124151349067687988e+00 6.899538040161132812e+00 2.407106637954711914e+00 -8.805392384529113770e-01
4.664000000000000000e+03 7.585647583007812500e+01 -2.033589935302734375e+01 3.544506803154945374e-02 8.451982498168945312e+00 2.546228408813476562e+00 1.674887299537658691e+00
4.665000000000000000e+03 4.477166366577148438e+01 -2.229477119445800781e+01 2.825953364372253418e-01 2.827689796686172485e-02 9.326167404651641846e-02 -5.161757469177246094e-01
4.666000000000000000e+03 6.174649715423583984e+00 3.396496200561523438e+01 2.194514274597167969e-01 -1.386504322290420532e-01 2.424029819667339325e-02 6.710146367549896240e-02
4.667000000000000000e+03 6.360471725463867188e+01 2.396025276184082031e+01 4.144881665706634521e-01 1.228977322578430176e+00 4.930396378040313721e-01 3.440431058406829834e-01
4.668000000000000000e+03 6.306631469726562500e+01 2.309132194519042969e+01 2.095425128936767578e-01 1.038789987564086914e+00 3.744997382164001465e-01 4.992136061191558838e-01
4.669000000000000000e+03 5.393931198120117188e+01 1.848438453674316406e+01 2.195693850517272949e-01 3.015712201595306396e-01 1.563421785831451416e-01 -2.769025564193725586e-01
4.670000000000000000e+03 3.952847290039062500e+01 -1.402066993713378906e+01 -7.906422019004821777e-01 4.641891121864318848e-01 -9.793592244386672974e-02 -1.214294880628585815e-01
4.671000000000000000e+03 6.288478469848632812e+01 -1.745655822753906250e+01 8.108673691749572754e-01 1.221758604049682617e+00 6.097878217697143555e-01 1.797210574150085449e-01
4.672000000000000000e+03 6.357228851318359375e+01 -1.702300453186035156e+01 8.107628822326660156e-01 1.495765209197998047e+00 6.919584274291992188e-01 2.021189332008361816e-01
4.673000000000000000e+03 5.140851211547851562e+01 -8.112559318542480469e+00 -5.557169318199157715e-01 -1.692534387111663818e-01 -2.174911051988601685e-01 2.121599167585372925e-01
4.674000000000000000e+03 1.534179115295410156e+01 -1.298778533935546875e+01 -5.970662087202072144e-02 1.311294734477996826e-01 2.142685651779174805e-02 -5.420538596808910370e-03
4.675000000000000000e+03 5.410287857055664062e+01 2.233476066589355469e+01 1.867451518774032593e-01 5.483358502388000488e-01 2.205243110656738281e-01 -2.565376460552215576e-01
4.676000000000000000e+03 4.202729415893554688e+01 1.023781204223632812e+01 -7.052067518234252930e-01 -1.994088590145111084e-01 -2.713846862316131592e-01 6.924551725387573242e-01
4.677000000000000000e+03 4.088532257080078125e+01 9.857404708862304688e+00 -8.099187612533569336e-01 -3.694858253002166748e-01 -3.538213670253753662e-01 7.269333600997924805e-01
4.678000000000000000e+03 5.412133789062500000e+01 -1.489880657196044922e+01 -4.678275883197784424e-01 1.719979047775268555e-01 -8.874890953302383423e-02 -5.339036583900451660e-01
4.679000000000000000e+03 6.319113159179687500e+01 -2.193294143676757812e+01 6.112289428710937500e-01 1.812109112739562988e+00 7.270014286041259766e-01 1.065349131822586060e-01
4.680000000000000000e+03 3.294068527221679688e+01 1.483950138092041016e+01 -2.842721715569496155e-02 4.881337285041809082e-02 6.115846801549196243e-03 4.511616528034210205e-01
4.681000000000000000e+03 3.403282546997070312e+01 1.474875831604003906e+01 -6.801600754261016846e-02 -3.113835752010345459e-01 -1.138198748230934143e-01 4.989232718944549561e-01
4.682000000000000000e+03 7.393647766113281250e+01 1.126473426818847656e+01 2.205948084592819214e-01 6.835294723510742188e+00 2.116766691207885742e+00 -1.390371322631835938e+00
4.683000000000000000e+03 5.278463745117187500e+01 -1.400758171081542969e+01 -7.962928414344787598e-01 2.127339541912078857e-01 -1.750676631927490234e-01 -7.281023859977722168e-01
4.684000000000000000e+03 2.073191070556640625e+01 1.871148109436035156e+01 -2.429023385047912598e-01 -2.064384371042251587e-01 -1.348022371530532837e-01 6.628842651844024658e-02
4.685000000000000000e+03 4.821354293823242188e+01 2.486943435668945312e+01 3.337481915950775146e-01 4.658880531787872314e-01 2.398908734321594238e-01 3.075932860374450684e-01
4.686000000000000000e+03 5.257253646850585938e+01 2.568749809265136719e+01 2.682267129421234131e-01 9.290483593940734863e-01 3.591825067996978760e-01 -9.347801096737384796e-03
4.687000000000000000e+03 9.099590301513671875e+00 2.125037002563476562e+01 -6.472045928239822388e-02 -1.556902080774307251e-01 -6.612319499254226685e-02 1.417688578367233276e-01
4.688000000000000000e+03 1.079495620727539062e+01 1.861942481994628906e+01 1.241798847913742065e-01 1.509720236063003540e-01 8.254557102918624878e-02 2.069840133190155029e-01
4.689000000000000000e+03 3.712358093261718750e+01 -1.288821792602539062e+01 -5.823785662651062012e-01 6.287363767623901367e-01 1.390732917934656143e-02 -1.442495286464691162e-01
4.690000000000000000e+03 9.733830451965332031e+00 5.725917339324951172e+00 -1.905974596738815308e-01 -1.064406782388687134e-01 -8.911143988370895386e-02 7.218948006629943848e-02
4.691000000000000000e+03 5.176750564575195312e+01 -8.999812126159667969e+00 -7.436346411705017090e-01 -1.211070194840431213e-01 -2.594224810600280762e-01 9.046672284603118896e-02
4.692000000000000000e+03 5.048098373413085938e+01 -1.048738098144531250e+01 -6.396064162254333496e-01 1.325367540121078491e-01 -1.521209031343460083e-01 -3.431137204170227051e-01
4.693000000000000000e+03 6.470746612548828125e+01 2.515068054199218750e+01 5.561549067497253418e-01 1.630202531814575195e+00 6.559072732925415039e-01 2.005886845290660858e-02
4.694000000000000000e+03 7.548238372802734375e+01 -2.523966217041015625e+01 7.992812395095825195e-01 8.056759834289550781e+00 2.656812429428100586e+00 4.742430448532104492e-01
4.695000000000000000e+03 5.053465652465820312e+01 -3.702836227416992188e+01 4.852218329906463623e-01 2.602782249450683594e-01 2.236500084400177002e-01 1.143805310130119324e-01
4.696000000000000000e+03 5.202923965454101562e+01 -3.387247467041015625e+01 2.595300674438476562e-01 5.798942446708679199e-01 2.518272995948791504e-01 -1.407110542058944702e-01
4.697000000000000000e+03 2.057560539245605469e+01 2.353109550476074219e+01 2.734543085098266602e-01 -1.688772588968276978e-01 3.137311339378356934e-02 1.897698640823364258e-01
4.698000000000000000e+03 5.376906585693359375e+01 -2.740398216247558594e+01 3.348908126354217529e-01 2.765654921531677246e-01 1.834368854761123657e-01 -2.261840365827083588e-02
4.699000000000000000e+03 8.545939445495605469e+00 -2.494438171386718750e+01 -5.405000993050634861e-04 -8.405137807130813599e-03 -2.683691447600722313e-03 -6.606309115886688232e-02
4.700000000000000000e+03 4.971558761596679688e+01 2.599967956542968750e+01 2.503808140754699707e-01 6.092901229858398438e-01 2.579012811183929443e-01 2.452262341976165771e-01
4.701000000000000000e+03 5.912844085693359375e+01 -1.177287960052490234e+01 -1.927772402763366699e+00 -3.004242181777954102e-01 -6.684589982032775879e-01 4.724113270640373230e-02
4.702000000000000000e+03 2.160359954833984375e+01 1.662958526611328125e+01 -2.446206808090209961e-01 -2.275006175041198730e-01 -1.416363865137100220e-01 1.388839781284332275e-01
4.703000000000000000e+03 3.561459350585937500e+01 -1.073615455627441406e+01 -7.570061832666397095e-02 3.102327287197113037e-01 7.035963237285614014e-02 -8.763559162616729736e-02
4.704000000000000000e+03 5.974314880371093750e+01 -1.163831710815429688e+01 -1.977437138557434082e+00 -2.971625514328479767e-02 -6.021460294723510742e-01 5.897368118166923523e-02
4.705000000000000000e+03 5.304353713989257812e+01 4.269765853881835938e+00 -1.085360884666442871e+00 3.773049712181091309e-01 -2.124167531728744507e-01 7.147964239120483398e-01
4.706000000000000000e+03 5.330553054809570312e+01 1.900838279724121094e+01 2.192386388778686523e-01 2.866403758525848389e-01 1.517637073993682861e-01 -2.473369240760803223e-01
4.707000000000000000e+03 4.491748428344726562e+01 -2.473054695129394531e+01 2.296920567750930786e-01 1.940208524465560913e-01 1.271138787269592285e-01 -3.201080858707427979e-01
4.708000000000000000e+03 3.554376840591430664e+00 2.724968528747558594e+01 -1.058703511953353882e-01 -4.112178981304168701e-01 -1.551264822483062744e-01 1.504095643758773804e-01
4.709000000000000000e+03 4.855978012084960938e+01 -2.638302421569824219e+01 3.395518064498901367e-01 4.279757738113403320e-01 2.302582710981369019e-01 -3.120103776454925537e-01
4.710000000000000000e+03 4.867150878906250000e+01 -2.687872314453125000e+01 3.475699722766876221e-01 4.177821576595306396e-01 2.296056449413299561e-01 -3.118138909339904785e-01
4.711000000000000000e+03 4.105991363525390625e+01 -1.692158317565917969e+01 -1.546389311552047729e-01 6.605190038681030273e-02 -2.657611109316349030e-02 -2.787802815437316895e-01
4.712000000000000000e+03 4.268420410156250000e+01 -1.520055103302001953e+01 -7.939387559890747070e-01 -2.139476984739303589e-01 -3.023659288883209229e-01 -1.202815249562263489e-01
4.713000000000000000e+03 4.093384170532226562e+01 -1.854966735839843750e+01 1.544543057680130005e-01 5.680700391530990601e-02 6.337839365005493164e-02 -4.410977363586425781e-01
4.714000000000000000e+03 4.449527740478515625e+01 -1.817992782592773438e+01 -3.113264739513397217e-01 -1.608389317989349365e-01 -1.416496187448501587e-01 -4.004463255405426025e-01
4.715000000000000000e+03 1.746270942687988281e+01 -2.482808494567871094e+01 9.420859068632125854e-02 -1.361856907606124878e-01 -1.259313058108091354e-02 -2.274181991815567017e-01
4.716000000000000000e+03 1.582165718078613281e+01 -2.389463615417480469e+01 3.523608902469277382e-03 -2.780532538890838623e-01 -8.235889673233032227e-02 -2.248256951570510864e-01
4.717000000000000000e+03 4.367280578613281250e+01 -1.561915111541748047e+01 -7.360438108444213867e-01 -2.194125205278396606e-01 -2.866369187831878662e-01 -1.152276471257209778e-01
4.718000000000000000e+03 2.720144844055175781e+01 6.220578193664550781e+00 1.329176574945449829e-01 2.374624609947204590e-01 1.111140325665473938e-01 1.377300173044204712e-01
4.719000000000000000e+03 2.777542877197265625e+01 7.320502281188964844e+00 2.282778620719909668e-01 4.142068624496459961e-01 1.927454173564910889e-01 1.147910803556442261e-01
4.720000000000000000e+03 5.922443389892578125e+01 1.886829185485839844e+01 1.185288056731224060e-01 1.052161216735839844e+00 3.512069880962371826e-01 -4.678404703736305237e-02
4.721000000000000000e+03 4.720783233642578125e+01 3.916629314422607422e+00 -1.100256562232971191e+00 -3.289959430694580078e-01 -4.287757575511932373e-01 4.226431548595428467e-01
4.722000000000000000e+03 7.599623680114746094e+00 2.198623657226562500e+01 -1.143496930599212646e-01 -2.652212977409362793e-01 -1.138712987303733826e-01 1.056357622146606445e-01
4.723000000000000000e+03 5.873220062255859375e+01 1.530253314971923828e+01 2.918827235698699951e-01 1.422245264053344727e+00 5.142383575439453125e-01 -1.925544291734695435e-01
4.724000000000000000e+03 5.914020919799804688e+01 1.259139442443847656e+01 4.256957769393920898e-01 1.759632587432861328e+00 6.555985212326049805e-01 -2.546196579933166504e-01
4.725000000000000000e+03 5.812892150878906250e+01 1.394034099578857422e+01 3.256485462188720703e-01 1.234283685684204102e+00 4.679796397686004639e-01 -2.200190424919128418e-01
4.726000000000000000e+03 6.862843322753906250e+01 -1.381481933593750000e+01 -8.574630618095397949e-01 -9.050620198249816895e-01 -5.287575125694274902e-01 1.441087365150451660e+00
4.727000000000000000e+03 2.243428039550781250e+01 1.473951721191406250e+01 -1.672831922769546509e-01 -2.012512236833572388e-01 -1.105603277683258057e-01 7.869344204664230347e-02
4.728000000000000000e+03 5.115666580200195312e+01 -3.034482383728027344e+01 3.982560634613037109e-01 3.952035307884216309e-01 2.380378842353820801e-01 -2.884206771850585938e-01
4.729000000000000000e+03 5.053153610229492188e+01 -3.026640701293945312e+01 4.016698896884918213e-01 4.082370698451995850e-01 2.429720759391784668e-01 -3.121429085731506348e-01
4.730000000000000000e+03 4.179004287719726562e+01 -2.208794593811035156e+01 1.397471725940704346e-01 -1.659548282623291016e-01 -7.862295955419540405e-03 -6.522944569587707520e-01
4.731000000000000000e+03 4.223791503906250000e+01 -2.148565673828125000e+01 1.819894164800643921e-01 -1.564263403415679932e-01 7.668924052268266678e-03 -6.629682779312133789e-01
4.732000000000000000e+03 5.022423553466796875e+01 -2.858742332458496094e+01 3.944750428199768066e-01 3.671586215496063232e-01 2.284900993108749390e-01 -3.147264122962951660e-01
4.733000000000000000e+03 5.185573577880859375e+01 -2.625385284423828125e+01 3.155242800712585449e-01 1.371537894010543823e-01 1.358034312725067139e-01 -2.248666286468505859e-01
4.734000000000000000e+03 5.680800628662109375e+01 -1.758119201660156250e+01 4.945567548274993896e-01 -1.546894907951354980e-01 1.019601821899414062e-01 -3.221164047718048096e-01
4.735000000000000000e+03 4.906229019165039062e+01 -1.538403892517089844e+01 -8.327108025550842285e-01 -2.318279445171356201e-01 -3.193616271018981934e-01 -4.538515508174896240e-01
4.736000000000000000e+03 5.032724761962890625e+01 -1.462884712219238281e+01 -8.221384286880493164e-01 2.043391577899456024e-02 -2.405113577842712402e-01 -6.386574506759643555e-01
4.737000000000000000e+03 2.099098014831542969e+01 -2.440158653259277344e+01 8.097364008426666260e-02 1.000615954399108887e-01 5.431057140231132507e-02 -1.441824585199356079e-01
4.738000000000000000e+03 6.516867065429687500e+01 1.242175340652465820e+00 -1.182030558586120605e+00 3.368015587329864502e-01 -2.535686790943145752e-01 -1.596318185329437256e-01
4.739000000000000000e+03 6.888202667236328125e+01 1.516646623611450195e+00 -5.397055149078369141e-01 -2.275768853724002838e-02 -1.687389612197875977e-01 -2.555612623691558838e-01
4.740000000000000000e+03 5.620177078247070312e+01 7.040347576141357422e+00 4.365508258342742920e-01 1.302805691957473755e-01 1.700494140386581421e-01 3.571558296680450439e-01
4.741000000000000000e+03 4.726237106323242188e+01 -1.399320125579833984e+01 -9.000359773635864258e-01 -4.294094443321228027e-02 -2.828930616378784180e-01 -2.590478658676147461e-01
4.742000000000000000e+03 5.722855758666992188e+01 3.851215124130249023e+00 -1.073717832565307617e+00 -1.296678185462951660e-01 -3.610156774520874023e-01 1.653519719839096069e-01
4.743000000000000000e+03 1.130435180664062500e+01 -2.843481445312500000e+01 -1.010001078248023987e-01 -2.164946645498275757e-01 -9.524843096733093262e-02 -1.258008182048797607e-01
4.744000000000000000e+03 3.428777694702148438e+01 -6.724415779113769531e+00 -1.821903139352798462e-02 5.982169881463050842e-02 1.248080004006624222e-02 -3.118924498558044434e-01
4.745000000000000000e+03 3.193371009826660156e+01 2.964370727539062500e+01 2.052807807922363281e-02 -5.422102212905883789e-01 -1.565046459436416626e-01 2.679051458835601807e-01
4.746000000000000000e+03 3.254138183593750000e+01 3.160412597656250000e+01 2.427599579095840454e-01 -4.198292195796966553e-01 -5.312077328562736511e-02 2.234916687011718750e-01
4.747000000000000000e+03 1.198007297515869141e+01 -2.455277442932128906e+01 -1.501112990081310272e-02 -1.913399100303649902e-01 -6.190531328320503235e-02 -1.769217699766159058e-01
4.748000000000000000e+03 1.070336246490478516e+01 -2.463570022583007812e+01 -9.944838471710681915e-03 -9.836385399103164673e-02 -3.249260783195495605e-02 -1.396788358688354492e-01
4.749000000000000000e+03 3.807379722595214844e+00 2.977333259582519531e+01 -5.356218025553971529e-05 -4.375041723251342773e-01 -1.312673240900039673e-01 1.966988146305084229e-01
4.750000000000000000e+03 4.898863220214843750e+01 3.537955522537231445e+00 -1.119906902313232422e+00 -3.294883072376251221e-01 -4.348185658454895020e-01 7.111945152282714844e-01
4.751000000000000000e+03 4.106517028808593750e+01 -2.639245605468750000e+01 -8.689554035663604736e-02 -3.913849890232086182e-01 -1.434841603040695190e-01 -2.120695859193801880e-01
4.752000000000000000e+03 4.169618225097656250e+01 -2.273490715026855469e+01 5.079270899295806885e-02 -1.766611486673355103e-01 -3.776053339242935181e-02 -6.075668931007385254e-01
4.753000000000000000e+03 5.272607421875000000e+01 1.955989646911621094e+01 2.299349755048751831e-01 2.858124673366546631e-01 1.547242403030395508e-01 -2.043311744928359985e-01
4.754000000000000000e+03 6.528411865234375000e+01 -1.144406032562255859e+01 -2.150949239730834961e+00 6.001019477844238281e-01 -4.652541577816009521e-01 5.812188386917114258e-01
4.755000000000000000e+03 6.484690856933593750e+01 -1.203340435028076172e+01 -1.928890109062194824e+00 8.728906512260437012e-01 -3.167998492717742920e-01 3.449397087097167969e-01
4.756000000000000000e+03 4.903910827636718750e+01 -1.107981395721435547e+01 -4.655559957027435303e-01 2.888189852237701416e-01 -5.302109569311141968e-02 -4.509462714195251465e-01
4.757000000000000000e+03 4.915811157226562500e+01 -1.269823741912841797e+01 -7.487961053848266602e-01 1.353970766067504883e-01 -1.840196996927261353e-01 -5.684551000595092773e-01
4.758000000000000000e+03 3.066708755493164062e+01 1.376363372802734375e+01 -3.278469443321228027e-01 6.468793749809265137e-01 9.570971876382827759e-02 4.535502195358276367e-01
4.759000000000000000e+03 1.023832416534423828e+01 -1.008881378173828125e+01 -3.780677169561386108e-02 -3.262664377689361572e-02 -2.113002538681030273e-02 -4.194907099008560181e-02
4.760000000000000000e+03 7.194703674316406250e+01 1.782545852661132812e+01 4.401022493839263916e-01 5.936115741729736328e+00 1.912865400314331055e+00 -1.290515899658203125e+00
4.761000000000000000e+03 4.432236480712890625e+01 7.686518669128417969e+00 -8.689922690391540527e-01 -3.125093579292297363e-01 -3.544504940509796143e-01 5.990436077117919922e-01
4.762000000000000000e+03 4.442965698242187500e+01 6.667593479156494141e+00 -8.833850622177124023e-01 -3.037583231925964355e-01 -3.561430275440216064e-01 5.088125467300415039e-01
4.763000000000000000e+03 5.427455902099609375e+01 -2.695035934448242188e+01 2.939554750919342041e-01 2.833484709262847900e-01 1.731911897659301758e-01 3.637018799781799316e-02
4.764000000000000000e+03 5.548450469970703125e+01 -2.643400001525878906e+01 2.270352095365524292e-01 3.412761390209197998e-01 1.704933941364288330e-01 1.955920755863189697e-01
4.765000000000000000e+03 4.687540817260742188e+01 -2.477685356140136719e+01 3.332002162933349609e-01 4.010374248027801514e-01 2.202712893486022949e-01 -2.942093014717102051e-01
4.766000000000000000e+03 3.785137557983398438e+01 1.326966285705566406e+01 -4.749660491943359375e-01 -8.413150906562805176e-01 -3.948843479156494141e-01 4.838531613349914551e-01
4.767000000000000000e+03 6.367994689941406250e+01 -8.473784446716308594e+00 -9.603832960128784180e-01 1.877121031284332275e-01 -2.318013608455657959e-01 1.953895688056945801e-01
4.768000000000000000e+03 7.449175357818603516e+00 1.167168998718261719e+01 -6.223597750067710876e-02 -1.069296225905418396e-01 -5.074967816472053528e-02 2.085181325674057007e-01
4.769000000000000000e+03 5.675677871704101562e+01 -1.685121345520019531e+01 3.843491673469543457e-01 -1.697436273097991943e-01 6.438166648149490356e-02 -2.874913513660430908e-01
4.770000000000000000e+03 4.689589309692382812e+01 3.474519729614257812e+01 4.504236876964569092e-01 2.111941576004028320e-01 1.984853446483612061e-01 -6.957799196243286133e-02
4.771000000000000000e+03 9.715841293334960938e+00 1.779058456420898438e+01 2.031987458467483521e-01 6.542556732892990112e-02 8.058729767799377441e-02 1.371897757053375244e-01
4.772000000000000000e+03 1.019849967956542969e+01 1.859656524658203125e+01 1.344894617795944214e-01 8.362033218145370483e-02 6.543293595314025879e-02 1.588765829801559448e-01
4.773000000000000000e+03 6.241530990600585938e+01 6.449295997619628906e+00 1.013639196753501892e-01 9.782431125640869141e-01 3.238821029663085938e-01 -5.657830238342285156e-01
4.774000000000000000e+03 2.117475318908691406e+01 6.989160060882568359e+00 1.319097131490707397e-01 -1.447100192308425903e-01 -3.840089775621891022e-03 1.016675531864166260e-01
4.775000000000000000e+03 1.982531738281250000e+01 6.112658500671386719e+00 1.522168051451444626e-02 -5.086481198668479919e-02 -1.069293916225433350e-02 9.829062968492507935e-02
4.776000000000000000e+03 3.343741607666015625e+01 1.819340133666992188e+01 3.314683437347412109e-01 -2.723882198333740234e-01 1.772403717041015625e-02 5.468024015426635742e-01
4.777000000000000000e+03 7.615386199951171875e+01 -1.659290432929992676e+00 -1.018823027610778809e+00 1.055192089080810547e+01 2.859929561614990234e+00 5.850684642791748047e-01
4.778000000000000000e+03 5.752983570098876953e+00 1.159368038177490234e+01 -4.345594719052314758e-02 -8.949829638004302979e-02 -3.988627344369888306e-02 1.823343485593795776e-01
4.779000000000000000e+03 6.546512603759765625e+01 1.923410058021545410e+00 -9.736456871032714844e-01 2.893483936786651611e-01 -2.052891850471496582e-01 -2.508793473243713379e-01
4.780000000000000000e+03 5.233607482910156250e+01 -1.095435237884521484e+01 -1.080863118171691895e+00 6.485179811716079712e-02 -3.048034012317657471e-01 -3.576478064060211182e-01
4.781000000000000000e+03 2.319146347045898438e+01 -2.574097442626953125e+01 2.569460272789001465e-01 -3.838226199150085449e-02 6.556913256645202637e-02 -1.018096059560775757e-01
4.782000000000000000e+03 2.392297363281250000e+01 -2.686253356933593750e+01 2.970416545867919922e-01 -8.178035169839859009e-02 6.457838416099548340e-02 -1.062518358230590820e-01
4.783000000000000000e+03 3.389753723144531250e+01 -5.269312858581542969e+00 -9.522813558578491211e-02 3.135699406266212463e-02 -1.916134357452392578e-02 -2.757852971553802490e-01
4.784000000000000000e+03 5.065755081176757812e+01 -6.042212486267089844e+00 -3.094247281551361084e-01 -8.226055651903152466e-02 -1.175055876374244690e-01 3.412894010543823242e-01
4.785000000000000000e+03 1.232817840576171875e+01 -4.168554782867431641e+00 3.405818482860922813e-03 -4.938113968819379807e-03 -4.596886865328997374e-04 -1.657775975763797760e-02
4.786000000000000000e+03 4.214077758789062500e+01 -2.522065353393554688e+01 -7.063694298267364502e-02 -1.342616826295852661e-01 -6.146958842873573303e-02 -3.696434795856475830e-01
4.787000000000000000e+03 4.367092895507812500e+01 -2.531286811828613281e+01 1.199970543384552002e-01 1.061637327075004578e-01 6.784823536872863770e-02 -3.061854839324951172e-01
4.788000000000000000e+03 6.233150863647460938e+01 -8.817467689514160156e+00 -1.338995814323425293e+00 3.643033504486083984e-01 -2.924077212810516357e-01 -1.484416872262954712e-01
4.789000000000000000e+03 6.187117385864257812e+01 -1.002033138275146484e+01 -1.829838991165161133e+00 5.341365337371826172e-01 -3.887107670307159424e-01 -7.664714753627777100e-02
4.790000000000000000e+03 6.352125549316406250e+01 1.056407690048217773e+00 -1.433092236518859863e+00 5.022913217544555664e-01 -2.792402803897857666e-01 -4.690265282988548279e-02
4.791000000000000000e+03 5.841786956787109375e+01 -2.524675559997558594e+01 1.594616025686264038e-01 4.870427548885345459e-01 1.939513087272644043e-01 4.349364042282104492e-01
4.792000000000000000e+03 5.715361022949218750e+01 -2.629837226867675781e+01 1.974585205316543579e-01 4.766087532043457031e-01 2.022201865911483765e-01 3.448750674724578857e-01
4.793000000000000000e+03 5.427682495117187500e+01 -2.787865257263183594e+01 3.263603448867797852e-01 3.824293613433837891e-01 2.126369178295135498e-01 8.853007107973098755e-03
4.794000000000000000e+03 6.669536590576171875e+01 -2.920375061035156250e+01 6.086134910583496094e-01 1.662281036376953125e+00 6.812683939933776855e-01 -4.899799823760986328e-01
4.795000000000000000e+03 6.825211334228515625e+01 -2.989598464965820312e+01 8.362128138542175293e-01 1.651908636093139648e+00 7.464364171028137207e-01 8.082338422536849976e-02
4.796000000000000000e+03 4.722336578369140625e+01 2.441554832458496094e+01 3.861683309078216553e-01 4.519872665405273438e-01 2.514466941356658936e-01 3.184643387794494629e-01
4.797000000000000000e+03 4.706970977783203125e+01 2.280773925781250000e+01 4.450530707836151123e-01 4.139170348644256592e-01 2.576910257339477539e-01 2.807011604309082031e-01
4.798000000000000000e+03 4.632956695556640625e+01 -1.656848144531250000e+01 -8.113704919815063477e-01 -2.215374410152435303e-01 -3.098723888397216797e-01 -1.972774118185043335e-01
4.799000000000000000e+03 2.342115402221679688e+01 -1.609018898010253906e+01 -3.644984662532806396e-01 -1.517922580242156982e-01 -1.548872143030166626e-01 -1.700705587863922119e-01
4.800000000000000000e+03 4.486886978149414062e+01 -1.910435867309570312e+01 -1.580826640129089355e-01 -1.475488245487213135e-01 -9.168944507837295532e-02 -5.010569095611572266e-01
4.801000000000000000e+03 6.849525451660156250e+01 2.146682739257812500e+01 2.035742625594139099e-03 2.208227396011352539e+00 6.630789041519165039e-01 -1.165778279304504395e+00
4.802000000000000000e+03 6.989085388183593750e+01 2.060818290710449219e+01 -2.055102959275245667e-02 3.306899547576904297e+00 9.859045147895812988e-01 -1.334388613700866699e+00
4.803000000000000000e+03 3.480387878417968750e+01 -8.284982681274414062e+00 8.859752118587493896e-02 1.278171390295028687e-01 6.492439657449722290e-02 -2.619907259941101074e-01
4.804000000000000000e+03 3.446766281127929688e+01 -7.706325531005859375e+00 5.349645018577575684e-02 9.163320809602737427e-02 4.353889822959899902e-02 -2.979314923286437988e-01
4.805000000000000000e+03 3.298268127441406250e+01 -8.110488891601562500e+00 -1.830223575234413147e-02 -1.400373131036758423e-01 -4.750186577439308167e-02 -2.358579933643341064e-01
4.806000000000000000e+03 2.930460739135742188e+01 -2.813889884948730469e+01 2.632010281085968018e-01 -4.299380630254745483e-02 6.606217473745346069e-02 -1.409647762775421143e-01
4.807000000000000000e+03 4.804464721679687500e+01 2.751197624206542969e+01 1.122225299477577209e-01 4.989737570285797119e-01 1.833588927984237671e-01 2.430348694324493408e-01
4.808000000000000000e+03 3.200179672241210938e+01 2.745703506469726562e+01 -3.010393083095550537e-01 -6.620975136756896973e-01 -2.889410257339477539e-01 3.355496227741241455e-01
4.809000000000000000e+03 3.249832916259765625e+01 2.964530181884765625e+01 3.642914071679115295e-02 -4.988337755203247070e-01 -1.387213915586471558e-01 2.428696304559707642e-01
4.810000000000000000e+03 1.382816600799560547e+01 -8.365889549255371094e+00 -3.607565537095069885e-02 2.853392437100410461e-02 -2.262518974021077156e-03 -8.719523437321186066e-03
4.811000000000000000e+03 1.475365352630615234e+01 -1.257338142395019531e+01 -6.721164286136627197e-02 1.250226944684982300e-01 1.734331436455249786e-02 -1.764850132167339325e-02
4.812000000000000000e+03 3.464857101440429688e+01 1.972561073303222656e+01 2.253706008195877075e-01 -5.262514948844909668e-01 -9.026426821947097778e-02 5.149314999580383301e-01
4.813000000000000000e+03 3.203202819824218750e+01 -6.583630084991455078e+00 -2.864931151270866394e-02 -2.182367444038391113e-01 -7.406581193208694458e-02 -2.506895363330841064e-01
4.814000000000000000e+03 3.244936370849609375e+01 -7.389889240264892578e+00 -2.669882774353027344e-02 -1.827414035797119141e-01 -6.283207237720489502e-02 -2.549131810665130615e-01
4.815000000000000000e+03 3.940760040283203125e+01 -1.564721679687500000e+01 -4.582979381084442139e-01 4.833498299121856689e-01 7.515572477132081985e-03 -2.202680259943008423e-01
4.816000000000000000e+03 6.602719116210937500e+01 -2.704508399963378906e+01 -3.942697644233703613e-01 1.567715764045715332e+00 3.520337939262390137e-01 -6.248758435249328613e-01
4.817000000000000000e+03 4.085458278656005859e+00 3.049841690063476562e+01 3.828782588243484497e-02 -4.281627535820007324e-01 -1.169624775648117065e-01 1.852058619260787964e-01
4.818000000000000000e+03 4.968434524536132812e+01 -8.572424888610839844e+00 -2.655219733715057373e-01 1.623392999172210693e-01 -3.095480240881443024e-02 3.566406294703483582e-02
4.819000000000000000e+03 4.574940681457519531e+00 -2.296055603027343750e+01 6.809788942337036133e-02 -5.091806128621101379e-02 5.153948906809091568e-03 -1.259409543126821518e-02
4.820000000000000000e+03 4.132435321807861328e+00 -2.193668174743652344e+01 6.735654175281524658e-02 -6.089473143219947815e-02 1.938543049618601799e-03 -3.442367538809776306e-02
4.821000000000000000e+03 4.767466068267822266e+00 -2.401944541931152344e+01 4.556490853428840637e-02 -3.942475095391273499e-02 1.842047902755439281e-03 -1.082308372133411467e-04
4.822000000000000000e+03 7.062452697753906250e+01 6.256296157836914062e+00 -4.596257507801055908e-01 1.402396917343139648e+00 2.828313708305358887e-01 -1.689775437116622925e-01
4.823000000000000000e+03 7.364504241943359375e+01 -1.540327358245849609e+01 -1.566062331199645996e+00 4.724915504455566406e+00 9.476559162139892578e-01 6.421933174133300781e-01
4.824000000000000000e+03 3.299900436401367188e+01 -7.564286708831787109e+00 -1.645144633948802948e-02 -1.244340762495994568e-01 -4.226565733551979065e-02 -2.657136917114257812e-01
4.825000000000000000e+03 5.850505065917968750e+01 1.294075393676757812e+01 3.886911869049072266e-01 1.406403779983520508e+00 5.385285019874572754e-01 -2.029615938663482666e-01
4.826000000000000000e+03 3.415600967407226562e+01 2.174509620666503906e+01 -3.399508073925971985e-02 -5.597901344299316406e-01 -1.781355589628219604e-01 4.112063348293304443e-01
4.827000000000000000e+03 1.001222801208496094e+01 -2.475624656677246094e+01 -4.344839602708816528e-03 -5.737342685461044312e-02 -1.851547881960868835e-02 -1.154768392443656921e-01
4.828000000000000000e+03 1.187414073944091797e+01 -2.824923133850097656e+01 -9.365386515855789185e-02 -2.516310214996337891e-01 -1.035854667425155640e-01 -1.336519867181777954e-01
4.829000000000000000e+03 4.820045852661132812e+01 3.357804298400878906e+00 -1.110674500465393066e+00 -3.142628073692321777e-01 -4.274812042713165283e-01 5.640189647674560547e-01
4.830000000000000000e+03 6.464518737792968750e+01 2.212305068969726562e+01 1.510859131813049316e-01 7.466952800750732422e-01 2.693343758583068848e-01 2.008794546127319336e-01
4.831000000000000000e+03 6.472802734375000000e+01 2.362957954406738281e+01 4.198825061321258545e-01 1.182706952095031738e+00 4.807768464088439941e-01 5.542978644371032715e-02
4.832000000000000000e+03 1.304527664184570312e+01 -9.737808227539062500e+00 -5.667443946003913879e-02 3.458562865853309631e-02 -6.626643706113100052e-03 -2.544132061302661896e-02
4.833000000000000000e+03 5.037131881713867188e+01 -2.943128585815429688e+01 4.073216319084167480e-01 3.764817714691162109e-01 2.351410239934921265e-01 -3.033838272094726562e-01
4.834000000000000000e+03 1.454517173767089844e+01 -2.508198738098144531e+01 3.585687279701232910e-02 -3.218307495117187500e-01 -8.579216152429580688e-02 -2.066829204559326172e-01
4.835000000000000000e+03 1.625836563110351562e+01 2.172264099121093750e+01 1.899375468492507935e-01 1.635818928480148315e-01 1.060558333992958069e-01 2.721734046936035156e-01
4.836000000000000000e+03 1.550078582763671875e+01 2.150805664062500000e+01 1.558706015348434448e-01 1.522194743156433105e-01 9.242702275514602661e-02 3.256036937236785889e-01
4.837000000000000000e+03 4.816009140014648438e+01 2.836732101440429688e+01 8.473384380340576172e-02 5.071823596954345703e-01 1.775748729705810547e-01 1.826853752136230469e-01
4.838000000000000000e+03 6.613491058349609375e+01 1.692736864089965820e+00 -9.158544540405273438e-01 1.850831806659698486e-01 -2.192313820123672485e-01 -2.133918553590774536e-01
4.839000000000000000e+03 2.727407836914062500e+01 -3.567547988891601562e+01 1.703345216810703278e-02 -2.474119365215301514e-01 -6.911354511976242065e-02 -5.267698690295219421e-02
4.840000000000000000e+03 2.833682060241699219e+01 -3.054777145385742188e+01 1.356247216463088989e-01 -1.018423736095428467e-01 1.013470347970724106e-02 -1.513618081808090210e-01
4.841000000000000000e+03 5.477631759643554688e+01 -3.590372085571289062e+01 4.779354929924011230e-01 9.095063209533691406e-01 4.162325263023376465e-01 -1.565790474414825439e-01
4.842000000000000000e+03 5.690111541748046875e+01 -1.831726455688476562e+01 5.058580636978149414e-01 -8.282839506864547729e-02 1.269088983535766602e-01 -3.271274864673614502e-01
4.843000000000000000e+03 6.128208541870117188e+01 2.158124160766601562e+01 -5.322804301977157593e-02 9.183708429336547852e-01 2.595428526401519775e-01 5.384841561317443848e-01
4.844000000000000000e+03 6.032107543945312500e+01 2.076296615600585938e+01 -1.913467235863208771e-02 9.123176932334899902e-01 2.679549157619476318e-01 3.135537505149841309e-01
4.845000000000000000e+03 1.102619934082031250e+01 -3.238958358764648438e+01 -1.135358661413192749e-01 -2.410778999328613281e-01 -1.063841283321380615e-01 -1.477540731430053711e-01
4.846000000000000000e+03 8.915038108825683594e+00 8.516959190368652344e+00 -2.278095036745071411e-01 -1.641375273466110229e-01 -1.175841093063354492e-01 1.374030709266662598e-01
4.847000000000000000e+03 9.138858795166015625e+00 5.422769546508789062e+00 -1.599050611257553101e-01 -8.444353938102722168e-02 -7.330457866191864014e-02 4.663323611021041870e-02
4.848000000000000000e+03 6.523457336425781250e+01 3.685755920410156250e+01 4.684489071369171143e-01 2.229228496551513672e+00 8.093032836914062500e-01 -3.188357055187225342e-01
4.849000000000000000e+03 4.276395797729492188e+00 -1.501316356658935547e+01 -4.195094108581542969e-02 -7.220892608165740967e-02 -3.424796089529991150e-02 -3.476999700069427490e-02
4.850000000000000000e+03 4.538882732391357422e+00 -1.438651752471923828e+01 -3.781790658831596375e-02 -7.318355143070220947e-02 -3.330043703317642212e-02 -3.085038624703884125e-02
4.851000000000000000e+03 1.285482978820800781e+01 2.120616912841796875e+01 7.558738812804222107e-03 1.300117373466491699e-01 4.127114266157150269e-02 3.428988158702850342e-01
4.852000000000000000e+03 5.797558212280273438e+01 -1.967996215820312500e+01 4.796900451183319092e-01 9.530462324619293213e-02 1.724984049797058105e-01 -1.301995366811752319e-01
4.853000000000000000e+03 4.574006271362304688e+01 3.497119140625000000e+01 4.891538619995117188e-01 1.012157723307609558e-01 1.771108955144882202e-01 -6.202196702361106873e-02
4.854000000000000000e+03 7.297810363769531250e+01 -1.389264774322509766e+01 -7.096538543701171875e-01 3.501096963882446289e+00 8.374329209327697754e-01 1.410447597503662109e+00
4.855000000000000000e+03 4.245237731933593750e+01 1.572672462463378906e+01 1.539582163095474243e-01 1.983144693076610565e-02 5.213689804077148438e-02 2.368849068880081177e-01
4.856000000000000000e+03 4.929912567138671875e+01 -2.680493164062500000e+01 3.423160314559936523e-01 4.021719396114349365e-01 2.233463972806930542e-01 -3.261221051216125488e-01
4.857000000000000000e+03 4.854460525512695312e+01 -2.749160957336425781e+01 3.647316694259643555e-01 4.132324159145355225e-01 2.333892285823822021e-01 -3.154164552688598633e-01
4.858000000000000000e+03 5.990995788574218750e+01 1.974133491516113281e+01 1.974028348922729492e-02 1.026616811752319336e+00 3.139071464538574219e-01 1.378130912780761719e-01
4.859000000000000000e+03 1.523674774169921875e+01 -2.537435913085937500e+01 5.307946354150772095e-02 -3.144794702529907227e-01 -7.842000573873519897e-02 -2.073075622320175171e-01
4.860000000000000000e+03 1.601516342163085938e+01 -1.127211761474609375e+01 -8.724989742040634155e-02 7.210923731327056885e-02 -4.542196169495582581e-03 2.643102779984474182e-02
4.861000000000000000e+03 1.615357971191406250e+01 -1.273377704620361328e+01 -8.007867634296417236e-02 9.311420470476150513e-02 3.910657949745655060e-03 1.948328688740730286e-02
4.862000000000000000e+03 5.055936050415039062e+01 3.267316436767578125e+01 3.402381241321563721e-01 7.467480301856994629e-01 3.260958492755889893e-01 4.012729227542877197e-02
4.863000000000000000e+03 1.765769195556640625e+01 -1.946652793884277344e+01 -2.152678519487380981e-01 -5.518155172467231750e-02 -8.113481849431991577e-02 -3.116841316223144531e-01
4.864000000000000000e+03 2.089496803283691406e+01 -1.631072044372558594e+01 -2.569995522499084473e-01 -7.943852990865707397e-02 -1.009314283728599548e-01 -1.966007947921752930e-01
4.865000000000000000e+03 5.724612808227539062e+01 9.106779098510742188e+00 4.871415495872497559e-01 5.085862278938293457e-01 2.987183332443237305e-01 3.444987535476684570e-01
4.866000000000000000e+03 5.345460510253906250e+01 -1.359237575531005859e+01 -9.028158187866210938e-01 1.494792997837066650e-01 -2.260009646415710449e-01 -6.641072630882263184e-01
4.867000000000000000e+03 5.474921035766601562e+01 4.115103244781494141e+00 -1.052342772483825684e+00 1.085094138979911804e-01 -2.831500172615051270e-01 4.168566465377807617e-01
4.868000000000000000e+03 6.217931747436523438e+01 -2.046600532531738281e+01 7.516720890998840332e-01 1.295553684234619141e+00 6.141677498817443848e-01 2.335804402828216553e-01
4.869000000000000000e+03 7.248287963867187500e+01 1.742171287536621094e+01 5.620478391647338867e-01 6.290130615234375000e+00 2.055653572082519531e+00 -1.055881619453430176e+00
4.870000000000000000e+03 7.242620849609375000e+01 1.986556625366210938e+01 -1.274823248386383057e-01 5.373868942260742188e+00 1.573915958404541016e+00 -9.541501998901367188e-01
4.871000000000000000e+03 4.336859703063964844e+00 3.124968338012695312e+01 7.510987669229507446e-02 -3.943025469779968262e-01 -9.575779736042022705e-02 1.682054400444030762e-01
4.872000000000000000e+03 5.944809341430664062e+01 1.758289527893066406e+01 2.054553329944610596e-01 1.300801038742065430e+00 4.518769383430480957e-01 -5.955402180552482605e-02
4.873000000000000000e+03 2.881882476806640625e+01 -1.634704589843750000e+01 -3.783013820648193359e-01 -2.641031146049499512e-01 -1.927213519811630249e-01 -1.982372254133224487e-01
4.874000000000000000e+03 6.567706584930419922e+00 2.179698562622070312e+01 -5.969955027103424072e-02 -3.021786510944366455e-01 -1.085634604096412659e-01 6.146321445703506470e-02
4.875000000000000000e+03 7.272650146484375000e+01 -1.445940876007080078e+01 -8.372610807418823242e-01 2.722657442092895508e+00 5.656188726425170898e-01 1.261827707290649414e+00
4.876000000000000000e+03 2.251698875427246094e+01 2.953442382812500000e+01 4.959702491760253906e-02 3.841834142804145813e-02 2.640460990369319916e-02 1.497821509838104248e-01
4.877000000000000000e+03 2.141220855712890625e+01 3.026265525817871094e+01 -1.043612360954284668e-01 -2.106367051601409912e-01 -9.449938684701919556e-02 9.643606096506118774e-02
4.878000000000000000e+03 2.329617691040039062e+01 2.995430374145507812e+01 2.520052157342433929e-02 2.175230830907821655e-01 7.281707972288131714e-02 1.705906987190246582e-01
4.879000000000000000e+03 5.356375503540039062e+01 2.266309928894042969e+01 1.801722496747970581e-01 5.798077583312988281e-01 2.279939949512481689e-01 -1.892320662736892700e-01
4.880000000000000000e+03 4.776144790649414062e+01 -2.625161361694335938e+01 3.354063332080841064e-01 4.183509647846221924e-01 2.261271774768829346e-01 -2.907537519931793213e-01
4.881000000000000000e+03 4.742484283447265625e+01 -2.571547889709472656e+01 3.305547833442687988e-01 4.268922507762908936e-01 2.272341102361679077e-01 -2.841999828815460205e-01
4.882000000000000000e+03 1.549076843261718750e+01 -4.974415302276611328e+00 7.507297210395336151e-03 1.774221472442150116e-02 7.574853952974081039e-03 -6.049337331205606461e-03
4.883000000000000000e+03 1.344468593597412109e+01 -6.102160453796386719e+00 -1.075528003275394440e-02 7.156903855502605438e-03 -1.079512992873787880e-03 -1.466451305896043777e-02
4.884000000000000000e+03 7.025782775878906250e+01 -3.211983489990234375e+01 6.212601661682128906e-01 3.037893533706665039e+00 1.097746133804321289e+00 6.349596381187438965e-01
4.885000000000000000e+03 2.866404151916503906e+01 1.276078891754150391e+01 -9.221579134464263916e-02 3.651806414127349854e-01 8.188945800065994263e-02 3.051672875881195068e-01
4.886000000000000000e+03 1.779371833801269531e+01 5.330832958221435547e+00 -1.545367687940597534e-01 7.275243103504180908e-02 -2.453530207276344299e-02 1.813326925039291382e-01
4.887000000000000000e+03 1.827739334106445312e+01 2.050494575500488281e+01 -9.879603981971740723e-02 -2.129403641447424889e-03 -3.027763217687606812e-02 7.868693768978118896e-02
4.888000000000000000e+03 1.961778450012207031e+01 2.062271499633789062e+01 -8.786611258983612061e-02 -1.080329343676567078e-01 -5.876971408724784851e-02 3.697283193469047546e-02
4.889000000000000000e+03 6.647209167480468750e+01 -1.367294979095458984e+01 -1.277627229690551758e+00 6.211074590682983398e-01 -1.969559341669082642e-01 7.154429554939270020e-01
4.890000000000000000e+03 6.389388656616210938e+01 -1.043686485290527344e+01 -1.870616793632507324e+00 6.797849535942077637e-01 -3.572495281696319580e-01 3.411760032176971436e-01
4.891000000000000000e+03 6.343247985839843750e+01 2.264529037475585938e+01 1.672177910804748535e-01 9.204519987106323242e-01 3.263009190559387207e-01 4.534876942634582520e-01
4.892000000000000000e+03 3.879723739624023438e+01 1.315081691741943359e+01 -4.346378743648529053e-01 -7.214636206626892090e-01 -3.468304574489593506e-01 4.525865614414215088e-01
4.893000000000000000e+03 8.497516632080078125e+00 -4.559322834014892578e+00 7.710021920502185822e-03 -1.646028272807598114e-02 -2.625077962875366211e-03 -6.765584927052259445e-03
4.894000000000000000e+03 9.874357223510742188e+00 -4.449618339538574219e+00 4.371891263872385025e-03 -1.462228596210479736e-02 -3.075118409469723701e-03 -1.356778852641582489e-02
4.895000000000000000e+03 1.116256427764892578e+01 -3.156040763854980469e+01 -1.298505365848541260e-01 -2.474693804979324341e-01 -1.131959781050682068e-01 -1.472664326429367065e-01
4.896000000000000000e+03 5.189720535278320312e+01 -3.226437377929687500e+01 2.801663875579833984e-01 5.297062993049621582e-01 2.429618090391159058e-01 -2.359562516212463379e-01
4.897000000000000000e+03 5.120627212524414062e+01 -3.402191162109375000e+01 1.930534839630126953e-01 4.678542613983154297e-01 1.982723325490951538e-01 -1.082628220319747925e-01
4.898000000000000000e+03 2.004590225219726562e+01 2.207761192321777344e+01 9.837582707405090332e-02 -1.195307821035385132e-01 -6.346486043184995651e-03 7.369559258222579956e-02
4.899000000000000000e+03 7.642259216308593750e+01 -7.470879703760147095e-02 -1.021660447120666504e+00 9.611230850219726562e+00 2.576870918273925781e+00 3.031644225120544434e-01
4.900000000000000000e+03 2.261631965637207031e+01 1.206670475006103516e+01 3.246050700545310974e-02 -1.816098541021347046e-01 -4.474480450153350830e-02 3.890514746308326721e-02
4.901000000000000000e+03 2.214829063415527344e+01 1.062707042694091797e+01 1.181924119591712952e-01 -1.728823184967041016e-01 -1.640697009861469269e-02 7.586163282394409180e-02
4.902000000000000000e+03 5.555538940429687500e+01 1.916132926940917969e+01 2.284256070852279663e-01 4.763173758983612061e-01 2.114228904247283936e-01 -3.394633531570434570e-01
4.903000000000000000e+03 1.146199417114257812e+01 -2.785605239868164062e+01 -7.796269655227661133e-02 -2.170910239219665527e-01 -8.851611614227294922e-02 -1.294583380222320557e-01
4.904000000000000000e+03 4.566545486450195312e+01 -2.374587631225585938e+01 3.062153756618499756e-01 2.392729669809341431e-01 1.636465042829513550e-01 -3.508757054805755615e-01
4.905000000000000000e+03 4.584749984741210938e+01 -2.473499298095703125e+01 2.892917394638061523e-01 2.878735065460205078e-01 1.731495708227157593e-01 -2.930999696254730225e-01
4.906000000000000000e+03 4.174866485595703125e+01 1.983129882812500000e+01 3.854454755783081055e-01 9.880240261554718018e-02 1.452743560075759888e-01 2.935330271720886230e-01
4.907000000000000000e+03 4.121825790405273438e+01 1.941395568847656250e+01 3.685909509658813477e-01 -9.953793138265609741e-03 1.075911447405815125e-01 3.217291831970214844e-01
4.908000000000000000e+03 3.311716461181640625e+01 2.943938064575195312e+01 1.329613011330366135e-02 -4.629220366477966309e-01 -1.348877698183059692e-01 2.099799215793609619e-01
4.909000000000000000e+03 5.519219970703125000e+01 1.735758781433105469e+01 2.375192493200302124e-01 3.996407389640808105e-01 1.911479979753494263e-01 -3.164384961128234863e-01
4.910000000000000000e+03 4.128909587860107422e+00 -1.572590160369873047e+01 -4.522478207945823669e-02 -7.682745158672332764e-02 -3.661566972732543945e-02 -4.102585837244987488e-02
4.911000000000000000e+03 1.560029315948486328e+01 -4.388233184814453125e+00 7.392658735625445843e-04 1.620339974761009216e-02 5.082799587398767471e-03 -9.135770611464977264e-03
4.912000000000000000e+03 1.391729545593261719e+01 -4.109490394592285156e+00 3.113055601716041565e-03 3.204357810318470001e-03 1.895223977044224739e-03 -1.406154036521911621e-02
4.913000000000000000e+03 5.381063842773437500e+01 -1.427668476104736328e+01 -6.973960995674133301e-01 1.838515698909759521e-01 -1.540633589029312134e-01 -6.127856969833374023e-01
4.914000000000000000e+03 6.072325706481933594e+00 -3.033752441406250000e+01 -6.658828258514404297e-02 -9.746850281953811646e-02 -4.921703785657882690e-02 -7.259461283683776855e-02
4.915000000000000000e+03 2.350906944274902344e+01 1.285333442687988281e+01 -2.178731746971607208e-02 -1.797259747982025146e-01 -6.045398861169815063e-02 4.046799615025520325e-02
4.916000000000000000e+03 1.893464088439941406e+01 1.936213493347167969e+01 -2.483611851930618286e-01 -7.091855257749557495e-02 -9.578391909599304199e-02 5.718567967414855957e-02
4.917000000000000000e+03 1.925520706176757812e+01 1.891662216186523438e+01 -2.923143804073333740e-01 -1.072101444005966187e-01 -1.198573559522628784e-01 7.024227827787399292e-02
4.918000000000000000e+03 2.241474342346191406e+01 3.197394180297851562e+01 -8.178113400936126709e-02 -8.389820903539657593e-02 -4.970380291342735291e-02 7.512589544057846069e-02
4.919000000000000000e+03 2.942760467529296875e+01 -1.569033527374267578e+01 -4.431131482124328613e-01 -2.558321952819824219e-01 -2.096835970878601074e-01 -1.925007402896881104e-01
4.920000000000000000e+03 2.656943702697753906e+01 -1.473591327667236328e+01 -4.747280180454254150e-01 -2.038611769676208496e-01 -2.035767585039138794e-01 -1.907319426536560059e-01
4.921000000000000000e+03 3.977296829223632812e+01 1.100825977325439453e+01 -8.172277808189392090e-01 -6.170797348022460938e-01 -4.302922785282135010e-01 6.453950405120849609e-01
4.922000000000000000e+03 4.196190643310546875e+01 1.308733558654785156e+01 -1.961137950420379639e-01 -1.849261522293090820e-01 -1.143119856715202332e-01 4.083086252212524414e-01
4.923000000000000000e+03 6.920639038085937500e+01 -3.368808364868164062e+01 5.722793340682983398e-01 2.915853023529052734e+00 1.046439766883850098e+00 3.605223000049591064e-01
4.924000000000000000e+03 2.891891860961914062e+01 -1.328357791900634766e+01 -4.504944086074829102e-01 -3.001568913459777832e-01 -2.251953780651092529e-01 -1.830511689186096191e-01
4.925000000000000000e+03 7.454431152343750000e+01 -1.816326713562011719e+01 -1.662332415580749512e+00 6.851327419281005859e+00 1.556698441505432129e+00 1.006031513214111328e+00
4.926000000000000000e+03 5.717251968383789062e+01 -2.166950988769531250e+01 2.068556696176528931e-01 1.689209342002868652e-01 1.127329841256141663e-01 7.389163225889205933e-02
4.927000000000000000e+03 5.838830566406250000e+01 -2.121439743041992188e+01 4.346073865890502930e-01 2.710829973220825195e-01 2.117071151733398438e-01 8.666306734085083008e-02
4.928000000000000000e+03 2.014466285705566406e+01 1.918154525756835938e+01 -2.349482625722885132e-01 -1.642386913299560547e-01 -1.197560876607894897e-01 5.070099979639053345e-02
4.929000000000000000e+03 7.621006774902343750e+01 -3.568632841110229492e+00 -4.982730001211166382e-02 1.254149818420410156e+01 3.747501134872436523e+00 8.127205371856689453e-01
4.930000000000000000e+03 1.436983680725097656e+01 -2.662488746643066406e+01 1.492236275225877762e-03 -3.298577964305877686e-01 -9.850966185331344604e-02 -1.782290041446685791e-01
4.931000000000000000e+03 1.303078746795654297e+01 -2.553189659118652344e+01 8.525001816451549530e-03 -2.792611122131347656e-01 -8.122083544731140137e-02 -1.869307011365890503e-01
4.932000000000000000e+03 6.409949302673339844e+00 1.197093486785888672e+01 -3.255568072199821472e-02 -1.006025522947311401e-01 -3.994747251272201538e-02 1.999040096998214722e-01
4.933000000000000000e+03 4.424000167846679688e+01 8.605174064636230469e+00 -8.260544538497924805e-01 -2.978871166706085205e-01 -3.371824622154235840e-01 6.284686923027038574e-01
4.934000000000000000e+03 4.289286804199218750e+01 4.785450935363769531e+00 -6.531720161437988281e-01 -2.585285007953643799e-01 -2.735101580619812012e-01 1.573435217142105103e-01
4.935000000000000000e+03 9.849617004394531250e+00 2.089627838134765625e+01 -3.182293847203254700e-02 -7.961545139551162720e-02 -3.343151509761810303e-02 1.796093881130218506e-01
4.936000000000000000e+03 3.377528381347656250e+01 2.275636291503906250e+01 -2.025409340858459473e-01 -6.031275391578674316e-01 -2.417005449533462524e-01 3.976658284664154053e-01
4.937000000000000000e+03 1.926541328430175781e+01 2.291495513916015625e+01 2.753755152225494385e-01 -1.963246427476406097e-02 7.672291249036788940e-02 1.310106068849563599e-01
4.938000000000000000e+03 3.048049736022949219e+01 -1.434924030303955078e+01 -5.012631416320800781e-01 -2.509283721446990967e-01 -2.256574481725692749e-01 -1.291834264993667603e-01
4.939000000000000000e+03 2.817637634277343750e+01 -1.599107360839843750e+01 -3.984277248382568359e-01 -2.439332753419876099e-01 -1.927082985639572144e-01 -1.845232248306274414e-01
4.940000000000000000e+03 2.872588348388671875e+01 -1.444561290740966797e+01 -4.619099497795104980e-01 -2.569729387760162354e-01 -2.156648635864257812e-01 -1.728962063789367676e-01
4.941000000000000000e+03 5.388041687011718750e+01 -3.224372100830078125e+01 3.083242475986480713e-01 8.039214611053466797e-01 3.336737155914306641e-01 -1.561408191919326782e-01
4.942000000000000000e+03 5.425607299804687500e+01 -3.162221336364746094e+01 3.051168322563171387e-01 8.347736597061157227e-01 3.419671356678009033e-01 -9.802959114313125610e-02
4.943000000000000000e+03 7.675107574462890625e+01 -2.057848930358886719e+00 -7.647911906242370605e-01 1.084860897064208984e+01 3.025145292282104492e+00 1.125039339065551758e+00
4.944000000000000000e+03 4.779937362670898438e+01 2.586097335815429688e+01 2.399314939975738525e-01 4.708049893379211426e-01 2.132209539413452148e-01 3.166097998619079590e-01
4.945000000000000000e+03 6.187506866455078125e+01 2.257185363769531250e+01 6.996982544660568237e-02 8.931179046630859375e-01 2.889263331890106201e-01 6.187868118286132812e-01
4.946000000000000000e+03 1.594363594055175781e+01 -1.334462261199951172e+01 -6.480516493320465088e-02 1.141938641667366028e-01 1.481661014258861542e-02 1.013485481962561607e-03
4.947000000000000000e+03 1.656118583679199219e+01 -1.354697799682617188e+01 -6.858628243207931519e-02 9.305354207754135132e-02 7.340177427977323532e-03 9.014133363962173462e-03
4.948000000000000000e+03 3.472026824951171875e+01 1.446419334411621094e+01 -1.422398239374160767e-01 -4.894919097423553467e-01 -1.895195245742797852e-01 5.262257456779479980e-01
4.949000000000000000e+03 3.881059265136718750e+01 1.406275939941406250e+01 -1.885565668344497681e-01 -6.819766759872436523e-01 -2.611599862575531006e-01 4.096439480781555176e-01
4.950000000000000000e+03 5.155244445800781250e+01 3.209029769897460938e+01 3.278356790542602539e-01 9.318336248397827148e-01 3.779008090496063232e-01 1.043891832232475281e-01
4.951000000000000000e+03 3.747992706298828125e+01 -3.043270111083984375e+01 -1.845334656536579132e-02 -3.696654438972473145e-01 -1.164356395602226257e-01 -2.526852488517761230e-01
4.952000000000000000e+03 3.675835418701171875e+01 -2.977299118041992188e+01 1.125968899577856064e-02 -2.691957056522369385e-01 -7.738080620765686035e-02 -2.886207401752471924e-01
4.953000000000000000e+03 3.339836502075195312e+01 3.360041427612304688e+01 4.283747375011444092e-01 -2.888921797275543213e-01 4.184476286172866821e-02 1.638970375061035156e-01
4.954000000000000000e+03 3.198303794860839844e+01 3.518767547607421875e+01 4.377082884311676025e-01 -3.062351047992706299e-01 3.944195806980133057e-02 1.538956016302108765e-01
4.955000000000000000e+03 9.142344474792480469e+00 -3.453937911987304688e+01 -2.922171168029308319e-02 -1.794877499341964722e-01 -6.261283904314041138e-02 -1.594510674476623535e-01
4.956000000000000000e+03 5.849729156494140625e+01 -1.869339179992675781e+01 5.691238045692443848e-01 7.576924562454223633e-02 1.934679150581359863e-01 -1.543154120445251465e-01
4.957000000000000000e+03 5.059546279907226562e+01 2.058494377136230469e+01 3.280731737613677979e-01 2.496774047613143921e-01 1.733251661062240601e-01 -1.425731927156448364e-03
4.958000000000000000e+03 6.266341018676757812e+01 -7.834698200225830078e+00 -6.294519901275634766e-01 7.468462735414505005e-02 -1.664302051067352295e-01 -6.785868853330612183e-02
4.959000000000000000e+03 6.682897949218750000e+01 4.892166614532470703e+00 -1.455243676900863647e-01 -5.235277488827705383e-02 -5.936314165592193604e-02 -8.286049365997314453e-01
4.960000000000000000e+03 6.683992004394531250e+01 1.595166921615600586e+00 -8.350787758827209473e-01 8.018258959054946899e-02 -2.264688462018966675e-01 -1.831336766481399536e-01
4.961000000000000000e+03 5.423068237304687500e+01 -2.996286773681640625e+01 3.443269133567810059e-01 6.205006241798400879e-01 2.894482612609863281e-01 -4.527652636170387268e-02
4.962000000000000000e+03 7.337573242187500000e+01 -2.753891372680664062e+01 -2.926246523857116699e-01 5.807200908660888672e+00 1.654372811317443848e+00 1.594690203666687012e+00
4.963000000000000000e+03 7.682019042968750000e+01 1.838178062438964844e+01 9.618876129388809204e-02 6.518352031707763672e+00 1.984362244606018066e+00 -1.166420280933380127e-01
4.964000000000000000e+03 1.555234909057617188e+01 -3.728196382522583008e+00 6.189475767314434052e-03 1.303525269031524658e-02 5.767418537288904190e-03 -6.813764572143554688e-03
4.965000000000000000e+03 5.015232467651367188e+01 -9.879458427429199219e+00 -4.873609542846679688e-01 1.311143934726715088e-01 -1.068739667534828186e-01 -2.282950580120086670e-01
4.966000000000000000e+03 4.256044006347656250e+01 1.212337493896484375e+01 -3.095101118087768555e-01 -1.218333765864372253e-01 -1.294030398130416870e-01 4.962285757064819336e-01
4.967000000000000000e+03 5.951581573486328125e+01 8.567091941833496094e+00 5.186946392059326172e-01 1.009003758430480957e+00 4.583095014095306396e-01 -6.798506528139114380e-02
4.968000000000000000e+03 1.071474742889404297e+01 -2.935403633117675781e+01 -1.241914182901382446e-01 -1.967038661241531372e-01 -9.626858681440353394e-02 -1.210179179906845093e-01
4.969000000000000000e+03 1.048043823242187500e+01 -3.065083503723144531e+01 -1.284686625003814697e-01 -1.945946514606475830e-01 -9.691899269819259644e-02 -1.322661787271499634e-01
4.970000000000000000e+03 4.425822448730468750e+01 1.793661117553710938e+01 2.668858170509338379e-01 3.945738971233367920e-01 1.984379142522811890e-01 1.974844336509704590e-01
4.971000000000000000e+03 4.224096679687500000e+01 1.480611515045166016e+01 7.888758927583694458e-02 -6.780398637056350708e-02 3.325081896036863327e-03 2.732947468757629395e-01
4.972000000000000000e+03 4.282439422607421875e+01 1.377584934234619141e+01 -4.294657614082098007e-03 1.941430382430553436e-03 -7.059681229293346405e-04 3.094645738601684570e-01
4.973000000000000000e+03 6.860522747039794922e+00 1.399715614318847656e+01 9.580942988395690918e-02 -1.241726130247116089e-01 -8.508953265845775604e-03 1.995376348495483398e-01
4.974000000000000000e+03 2.740536689758300781e+01 -3.256748962402343750e+01 3.887213021516799927e-02 -1.755970716476440430e-01 -4.101748391985893250e-02 -1.267787218093872070e-01
4.975000000000000000e+03 2.772319602966308594e+01 -3.380561447143554688e+01 1.752112992107868195e-02 -1.759868860244750977e-01 -4.753972589969635010e-02 -1.050257533788681030e-01
4.976000000000000000e+03 3.248605728149414062e+01 2.809041595458984375e+01 -1.858771443367004395e-01 -5.826295614242553711e-01 -2.305520176887512207e-01 2.804652154445648193e-01
4.977000000000000000e+03 7.517946624755859375e+01 1.043335819244384766e+01 -1.419612299650907516e-02 7.140059947967529297e+00 2.137759208679199219e+00 -1.499256134033203125e+00
4.978000000000000000e+03 2.789839553833007812e+01 -2.530498886108398438e+01 2.423599958419799805e-01 -1.265384852886199951e-01 3.474645689129829407e-02 -1.360377967357635498e-01
4.979000000000000000e+03 2.778031539916992188e+01 -2.759116935729980469e+01 2.791535258293151855e-01 -1.357168406248092651e-01 4.303101077675819397e-02 -1.397707760334014893e-01
4.980000000000000000e+03 1.386595535278320312e+01 -2.718493652343750000e+01 -3.584960848093032837e-02 -3.299254179000854492e-01 -1.097325086593627930e-01 -1.628001928329467773e-01
4.981000000000000000e+03 5.896949768066406250e+01 1.601722717285156250e+01 2.845782041549682617e-01 1.410856723785400391e+00 5.086304545402526855e-01 -1.585578024387359619e-01
4.982000000000000000e+03 1.003961467742919922e+01 -3.291827011108398438e+01 -9.067767858505249023e-02 -1.922809034585952759e-01 -8.488757163286209106e-02 -1.513675153255462646e-01
4.983000000000000000e+03 5.486642456054687500e+01 -3.027976036071777344e+01 3.039006590843200684e-01 7.811444997787475586e-01 3.255135416984558105e-01 2.066620253026485443e-02
4.984000000000000000e+03 4.791717910766601562e+01 -2.547925758361816406e+01 3.513700067996978760e-01 4.512903988361358643e-01 2.407981157302856445e-01 -3.130552470684051514e-01
4.985000000000000000e+03 4.746068572998046875e+01 -2.515289306640625000e+01 3.373078703880310059e-01 4.477775990962982178e-01 2.355256378650665283e-01 -3.016533553600311279e-01
4.986000000000000000e+03 4.169147872924804688e+01 -2.083400917053222656e+01 2.233901619911193848e-01 -1.197825223207473755e-01 3.108229488134384155e-02 -6.361741423606872559e-01
4.987000000000000000e+03 4.458199691772460938e+01 -1.970883560180664062e+01 -1.151341758668422699e-02 -1.309630721807479858e-01 -4.274294525384902954e-02 -5.662922859191894531e-01
4.988000000000000000e+03 5.783497619628906250e+01 1.322235965728759766e+01 3.322549164295196533e-01 1.129428625106811523e+00 4.385050833225250244e-01 -1.985056400299072266e-01
4.989000000000000000e+03 5.647873306274414062e+01 1.242714405059814453e+01 2.016805410385131836e-01 5.800986886024475098e-01 2.345337718725204468e-01 -5.780288204550743103e-02
4.990000000000000000e+03 3.443183135986328125e+01 2.390766525268554688e+01 -3.583069145679473877e-01 -5.774796009063720703e-01 -2.807359695434570312e-01 3.921951055526733398e-01
4.991000000000000000e+03 1.751825332641601562e+01 -1.584550762176513672e+01 -3.955610468983650208e-02 6.761849392205476761e-03 -9.838276542723178864e-03 -1.221360489726066589e-01
4.992000000000000000e+03 1.780503845214843750e+01 -1.654682540893554688e+01 -6.543206423521041870e-02 -1.958183199167251587e-02 -2.550416998565196991e-02 -1.835961192846298218e-01
4.993000000000000000e+03 7.623097229003906250e+01 -1.979449081420898438e+01 -3.102857172489166260e-01 8.563188552856445312e+00 2.475870847702026367e+00 1.676389098167419434e+00
4.994000000000000000e+03 4.029758071899414062e+01 1.042002677917480469e+01 -8.270182013511657715e-01 -4.847098290920257568e-01 -3.935184180736541748e-01 6.944159865379333496e-01
4.995000000000000000e+03 3.119752311706542969e+01 -3.094023895263671875e+01 9.976397454738616943e-02 4.397412016987800598e-02 4.312142729759216309e-02 -1.750400662422180176e-01
4.996000000000000000e+03 3.594763565063476562e+01 -1.167267704010009766e+01 -2.699660658836364746e-01 3.760497570037841797e-01 3.182511031627655029e-02 -9.999311715364456177e-02
4.997000000000000000e+03 4.105239486694335938e+01 1.242506313323974609e+01 -4.134410619735717773e-01 -3.382838666439056396e-01 -2.255174815654754639e-01 4.851065874099731445e-01
4.998000000000000000e+03 3.873320770263671875e+01 -1.490635490417480469e+01 -6.278564929962158203e-01 6.621174216270446777e-01 1.027826312929391861e-02 -1.950612217187881470e-01
4.999000000000000000e+03 4.624065399169921875e+01 -1.513999652862548828e+01 -9.123733639717102051e-01 -1.754593253135681152e-01 -3.263497948646545410e-01 -9.857412427663803101e-02
5.000000000000000000e+03 4.594304656982421875e+01 2.172162628173828125e+01 4.598293900489807129e-01 4.214603006839752197e-01 2.643868923187255859e-01 2.500783503055572510e-01
5.001000000000000000e+03 7.273973846435546875e+01 -2.818753814697265625e+01 -1.167838424444198608e-01 4.841880798339843750e+00 1.417529106140136719e+00 1.724263310432434082e+00
5.002000000000000000e+03 7.126508331298828125e+01 -2.786057281494140625e+01 1.712946742773056030e-01 2.646316051483154297e+00 8.452832102775573730e-01 1.747550964355468750e+00
5.003000000000000000e+03 6.049282073974609375e+01 2.008541870117187500e+01 -5.130237340927124023e-02 1.064943790435791016e+00 3.040924370288848877e-01 2.686290144920349121e-01
5.004000000000000000e+03 3.000978660583496094e+01 -1.525699901580810547e+01 -4.758333861827850342e-01 -2.581251859664916992e-01 -2.201875597238540649e-01 -1.820211112499237061e-01
5.005000000000000000e+03 3.033289337158203125e+01 -1.483806228637695312e+01 -5.044593214988708496e-01 -2.543141245841979980e-01 -2.276320308446884155e-01 -1.593618690967559814e-01
5.006000000000000000e+03 6.622494506835937500e+01 2.783984375000000000e+01 4.312145411968231201e-01 2.442824840545654297e+00 8.622118234634399414e-01 -3.097340464591979980e-01
5.007000000000000000e+03 6.521687316894531250e+01 2.641369056701660156e+01 5.386707186698913574e-01 1.997389912605285645e+00 7.608181834220886230e-01 -7.743491977453231812e-02
5.008000000000000000e+03 5.868202209472656250e+01 1.783237075805664062e+01 2.035084366798400879e-01 1.095052123069763184e+00 3.895681798458099365e-01 -1.703622192144393921e-01
5.009000000000000000e+03 5.212939834594726562e+01 3.714188385009765625e+01 5.213588476181030273e-01 6.265286207199096680e-01 3.443662524223327637e-01 8.897061645984649658e-02
5.010000000000000000e+03 5.104726791381835938e+01 3.549839401245117188e+01 4.594032168388366699e-01 6.489228010177612305e-01 3.324978053569793701e-01 3.953195363283157349e-02
5.011000000000000000e+03 4.351846694946289062e+01 1.742606544494628906e+01 2.474975883960723877e-01 2.902426421642303467e-01 1.613220572471618652e-01 1.936032325029373169e-01
5.012000000000000000e+03 3.664404296875000000e+01 -3.112690162658691406e+01 -2.477159351110458374e-02 -2.092716097831726074e-01 -7.021296024322509766e-02 -3.107745945453643799e-01
5.013000000000000000e+03 4.140941619873046875e+01 9.222656250000000000e+00 -7.816253900527954102e-01 -3.011099100112915039e-01 -3.248206079006195068e-01 7.504612207412719727e-01
5.014000000000000000e+03 3.934524917602539062e+01 -1.641012382507324219e+01 -2.282606214284896851e-01 5.161875486373901367e-01 8.637809008359909058e-02 -2.392775565385818481e-01
5.015000000000000000e+03 6.238330364227294922e+00 3.667893981933593750e+01 8.570961654186248779e-02 -1.507975459098815918e-01 -1.952637918293476105e-02 -1.791692152619361877e-02
5.016000000000000000e+03 8.562595367431640625e+00 3.726890182495117188e+01 6.716301292181015015e-02 3.876491636037826538e-02 3.177838027477264404e-02 3.597454726696014404e-02
5.017000000000000000e+03 3.738001251220703125e+01 -3.442792892456054688e+01 2.084307968616485596e-01 -1.764831244945526123e-01 9.584302082657814026e-03 -3.682617545127868652e-01
5.018000000000000000e+03 7.239356231689453125e+01 8.941571712493896484e-01 -7.429388761520385742e-01 3.158770799636840820e+00 7.247495651245117188e-01 -1.421347856521606445e+00
5.019000000000000000e+03 1.709257888793945312e+01 -1.336248493194580078e+01 -8.096399158239364624e-02 6.380215287208557129e-02 -5.148553289473056793e-03 1.620454899966716766e-02
5.020000000000000000e+03 1.730563163757324219e+01 -1.510365962982177734e+01 -4.426451399922370911e-02 3.567478805780410767e-02 -2.576918341219425201e-03 -6.558915972709655762e-02
5.021000000000000000e+03 4.772880172729492188e+01 2.156312942504882812e+01 4.098343253135681152e-01 3.684531748294830322e-01 2.334862500429153442e-01 2.302410900592803955e-01
5.022000000000000000e+03 2.269747543334960938e+01 -2.456502342224121094e+01 1.547978371381759644e-01 2.957862336188554764e-03 4.732670634984970093e-02 -1.160093620419502258e-01
5.023000000000000000e+03 4.636426162719726562e+01 4.574242591857910156e+00 -1.082460522651672363e+00 -3.124643564224243164e-01 -4.184774756431579590e-01 4.102234244346618652e-01
5.024000000000000000e+03 2.694912719726562500e+01 -2.464029502868652344e+01 2.056603729724884033e-01 -1.486365348100662231e-01 1.710715331137180328e-02 -1.378656625747680664e-01
5.025000000000000000e+03 3.123184776306152344e+01 -2.940152740478515625e+01 1.977701932191848755e-01 7.536179572343826294e-02 8.193959295749664307e-02 -1.521335542201995850e-01
5.026000000000000000e+03 2.902406501770019531e+01 -2.988236999511718750e+01 1.742292642593383789e-01 -6.600740551948547363e-02 3.246656060218811035e-02 -1.466231495141983032e-01
5.027000000000000000e+03 3.527011632919311523e+00 1.718802642822265625e+01 6.197699159383773804e-02 -2.276125699281692505e-01 -4.969067499041557312e-02 3.975876048207283020e-02
5.028000000000000000e+03 7.201865673065185547e+00 1.448638343811035156e+01 1.289392411708831787e-01 -1.231861338019371033e-01 1.725933630950748920e-03 1.895666420459747314e-01
5.029000000000000000e+03 1.772097015380859375e+01 2.011998939514160156e+01 -1.404381990432739258e-01 -1.346175651997327805e-02 -4.616998508572578430e-02 1.010935381054878235e-01
5.030000000000000000e+03 4.525750350952148438e+01 1.938295745849609375e+01 3.477034270763397217e-01 4.418954849243164062e-01 2.368796765804290771e-01 2.044494897127151489e-01
5.031000000000000000e+03 4.329338836669921875e+01 1.936108970642089844e+01 3.454788029193878174e-01 2.988884150981903076e-01 1.933101713657379150e-01 2.113097310066223145e-01
5.032000000000000000e+03 5.446097183227539062e+01 -2.936975860595703125e+01 3.393046259880065918e-01 5.842509865760803223e-01 2.770666778087615967e-01 6.132463458925485611e-03
5.033000000000000000e+03 6.220536041259765625e+01 -2.402268791198730469e+01 2.941658496856689453e-01 1.050209403038024902e+00 4.033125936985015869e-01 1.170941218733787537e-01
5.034000000000000000e+03 5.489811897277832031e+00 -1.058341693878173828e+01 -1.591002382338047028e-02 -4.639632627367973328e-02 -1.869190484285354614e-02 -8.328247931785881519e-04
5.035000000000000000e+03 5.703751754760742188e+01 1.400696754455566406e+01 2.742357552051544189e-01 8.248875737190246582e-01 3.297370076179504395e-01 -2.343743145465850830e-01
5.036000000000000000e+03 5.755465316772460938e+01 1.432454967498779297e+01 2.943496406078338623e-01 1.015402436256408691e+00 3.929256498813629150e-01 -2.513552010059356689e-01
5.037000000000000000e+03 4.410696411132812500e+01 2.145383453369140625e+01 5.603034496307373047e-01 3.922140300273895264e-01 2.857552468776702881e-01 2.665114104747772217e-01
5.038000000000000000e+03 4.783527374267578125e+01 -2.712947463989257812e+01 3.609884679317474365e-01 3.981385827064514160e-01 2.277381122112274170e-01 -2.961076796054840088e-01
5.039000000000000000e+03 7.502708435058593750e+01 9.453430175781250000e+00 -3.621422648429870605e-01 7.047329902648925781e+00 2.005556344985961914e+00 -1.401710271835327148e+00
5.040000000000000000e+03 2.880382728576660156e+01 1.344888305664062500e+01 -1.926585882902145386e-01 3.654246926307678223e-01 5.182983726263046265e-02 3.537361025810241699e-01
5.041000000000000000e+03 1.431949520111083984e+01 4.552894115447998047e+00 -2.307584732770919800e-01 -5.826381221413612366e-02 -8.670668303966522217e-02 2.658910155296325684e-01
5.042000000000000000e+03 5.046540451049804688e+01 -9.079283714294433594e+00 -4.366351068019866943e-01 6.497143954038619995e-02 -1.114991009235382080e-01 -4.985817149281501770e-02
5.043000000000000000e+03 1.621896362304687500e+01 2.044873046875000000e+01 -4.403791576623916626e-02 4.135498777031898499e-02 -8.048780146054923534e-04 2.437999844551086426e-01
5.044000000000000000e+03 1.687954711914062500e+01 2.041708564758300781e+01 -7.453456521034240723e-02 -2.211094135418534279e-03 -2.302369847893714905e-02 1.734336912631988525e-01
5.045000000000000000e+03 2.032216453552246094e+01 1.995415306091308594e+01 -1.651149392127990723e-01 -1.784598529338836670e-01 -1.030724346637725830e-01 3.195091709494590759e-02
5.046000000000000000e+03 7.683771514892578125e+01 1.763093185424804688e+01 1.843249797821044922e-01 6.581061363220214844e+00 2.029615879058837891e+00 -1.616087555885314941e-01
5.047000000000000000e+03 5.776789093017578125e+01 -1.893679618835449219e+01 5.180429816246032715e-01 8.687016554176807404e-03 1.580190062522888184e-01 -2.280556559562683105e-01
5.048000000000000000e+03 2.673973846435546875e+01 -2.300755119323730469e+01 7.587199658155441284e-02 -1.522032767534255981e-01 -2.289938367903232574e-02 -1.405434906482696533e-01
5.049000000000000000e+03 5.283653640747070312e+01 -3.350940704345703125e+01 3.161015808582305908e-01 6.785417199134826660e-01 2.983929812908172607e-01 -1.538078635931015015e-01
5.050000000000000000e+03 7.443675994873046875e+01 -1.450419712066650391e+01 -1.509498238563537598e+00 6.625655174255371094e+00 1.534847140312194824e+00 6.822069287300109863e-01
5.051000000000000000e+03 5.064274978637695312e+01 -5.298604965209960938e+00 -2.504818737506866455e-01 -9.097632020711898804e-02 -1.024374589323997498e-01 3.465315997600555420e-01
5.052000000000000000e+03 5.182835388183593750e+01 2.957777976989746094e+01 2.047464102506637573e-01 1.111827015876770020e+00 3.949720263481140137e-01 1.267762184143066406e-01
5.053000000000000000e+03 2.648986053466796875e+01 -2.929316329956054688e+01 2.231143116950988770e-01 -1.800849884748458862e-01 1.290879864245653152e-02 -1.461635082960128784e-01
5.054000000000000000e+03 2.698384666442871094e+01 -1.841644477844238281e+01 -2.220507711172103882e-01 -2.275014519691467285e-01 -1.348656713962554932e-01 -1.663877516984939575e-01
5.055000000000000000e+03 4.218867492675781250e+01 1.941309928894042969e+01 3.548659682273864746e-01 1.572616696357727051e-01 1.536382883787155151e-01 2.672265768051147461e-01
5.056000000000000000e+03 4.305522537231445312e+01 2.001796340942382812e+01 3.997829854488372803e-01 2.868899405002593994e-01 2.060018777847290039e-01 2.191527634859085083e-01
5.057000000000000000e+03 7.488066101074218750e+01 -1.893042564392089844e+01 -1.105416536331176758e+00 7.593586921691894531e+00 1.946451187133789062e+00 1.331171274185180664e+00
5.058000000000000000e+03 7.538533782958984375e+01 -1.664002227783203125e+01 -1.646426081657409668e+00 7.839539527893066406e+00 1.857933998107910156e+00 6.388666033744812012e-01
5.059000000000000000e+03 2.097576522827148438e+01 3.379065704345703125e+01 2.194308862090110779e-02 -2.773863077163696289e-01 -7.663296908140182495e-02 4.325243830680847168e-02
5.060000000000000000e+03 2.135249328613281250e+01 3.272769927978515625e+01 -5.567828938364982605e-02 -2.403168380260467529e-01 -8.879853785037994385e-02 3.637910261750221252e-02
5.061000000000000000e+03 2.110803604125976562e+01 -1.565909385681152344e+01 -3.047427833080291748e-01 -8.261609822511672974e-02 -1.162076666951179504e-01 -1.633679568767547607e-01
5.062000000000000000e+03 1.967652130126953125e+01 -1.528985404968261719e+01 -2.205034643411636353e-01 -4.009700939059257507e-02 -7.818014174699783325e-02 -1.216232851147651672e-01
5.063000000000000000e+03 3.826585388183593750e+01 -1.402109432220458984e+01 -7.380756735801696777e-01 7.082954645156860352e-01 -8.934054523706436157e-03 -1.628344208002090454e-01
5.064000000000000000e+03 1.416818809509277344e+01 -1.212922573089599609e+01 -6.442327797412872314e-02 1.018733382225036621e-01 1.123501826077699661e-02 -2.296728640794754028e-02
5.065000000000000000e+03 4.059364700317382812e+01 -1.623803901672363281e+01 -3.489136397838592529e-01 1.638658046722412109e-01 -5.551434680819511414e-02 -2.534535825252532959e-01
5.066000000000000000e+03 2.213146018981933594e+01 9.837103843688964844e+00 1.712139248847961426e-01 -1.773747950792312622e-01 -1.848264248110353947e-03 9.491956979036331177e-02
5.067000000000000000e+03 2.675519752502441406e+01 1.019748878479003906e+01 2.331267446279525757e-01 1.270711570978164673e-01 1.080593690276145935e-01 1.328087747097015381e-01
5.068000000000000000e+03 7.804598331451416016e+00 -2.505186653137207031e+01 -4.233703482896089554e-03 2.471887972205877304e-03 -5.285447114147245884e-04 -4.297168925404548645e-02
5.069000000000000000e+03 9.369241714477539062e+00 -2.561875152587890625e+01 -2.928990125656127930e-02 -5.867506191134452820e-02 -2.638948895037174225e-02 -9.760536253452301025e-02
5.070000000000000000e+03 8.521483421325683594e+00 9.263893127441406250e+00 -2.103152871131896973e-01 -1.474081575870513916e-01 -1.073170304298400879e-01 1.501619219779968262e-01
5.071000000000000000e+03 9.026656150817871094e+00 6.878928184509277344e+00 -2.096970677375793457e-01 -1.161890104413032532e-01 -9.776582568883895874e-02 8.916080743074417114e-02
5.072000000000000000e+03 5.762066268920898438e+01 -1.823230552673339844e+01 5.184271335601806641e-01 -8.055225759744644165e-02 1.313624531030654907e-01 -2.662956714630126953e-01
5.073000000000000000e+03 3.531715774536132812e+01 -6.405351161956787109e+00 -4.480584710836410522e-02 2.224396020174026489e-01 5.329012870788574219e-02 -3.090271353721618652e-01
5.074000000000000000e+03 3.390367126464843750e+01 -7.286146163940429688e+00 9.917669231072068214e-04 4.295571707189083099e-03 1.586201600730419159e-03 -2.919639050960540771e-01
5.075000000000000000e+03 1.404514884948730469e+01 -7.415364265441894531e+00 -1.643875055015087128e-02 1.826152205467224121e-02 5.468312301672995090e-04 -9.714453481137752533e-03
5.076000000000000000e+03 5.754416275024414062e+01 -2.576314353942871094e+01 1.705820560455322266e-01 4.792244434356689453e-01 1.949419528245925903e-01 3.689502179622650146e-01
5.077000000000000000e+03 4.192232894897460938e+01 8.617397308349609375e+00 -7.529526352882385254e-01 -2.620304226875305176e-01 -3.044949173927307129e-01 7.265880703926086426e-01
5.078000000000000000e+03 3.338269424438476562e+01 1.740090370178222656e+01 3.867781460285186768e-01 -2.271655499935150146e-01 4.788377508521080017e-02 5.486097335815429688e-01
5.079000000000000000e+03 6.546849822998046875e+01 3.367980194091796875e+01 4.675259590148925781e-01 2.570326805114746094e+00 9.113557934761047363e-01 -3.376611769199371338e-01
5.080000000000000000e+03 6.638590240478515625e+01 3.186808395385742188e+01 4.655605852603912354e-01 2.749280452728271484e+00 9.644523262977600098e-01 -4.115100204944610596e-01
5.081000000000000000e+03 4.180392074584960938e+01 5.947065353393554688e+00 -4.309681653976440430e-01 -3.384674787521362305e-01 -2.308306992053985596e-01 3.875446617603302002e-01
5.082000000000000000e+03 4.378557586669921875e+01 8.129262924194335938e+00 -8.210694193840026855e-01 -2.698745727539062500e-01 -3.272832036018371582e-01 6.359993815422058105e-01
5.083000000000000000e+03 1.715683174133300781e+01 -2.553292083740234375e+01 9.576568007469177246e-02 -1.555889248847961426e-01 -1.794697158038616180e-02 -1.998364627361297607e-01
5.084000000000000000e+03 1.924647903442382812e+01 -2.356849861145019531e+01 -2.503210119903087616e-02 3.123811632394790649e-02 1.861804630607366562e-03 -2.224284857511520386e-01
5.085000000000000000e+03 5.283788681030273438e+01 -3.220136642456054688e+01 3.072719871997833252e-01 6.401078104972839355e-01 2.842139303684234619e-01 -2.061732113361358643e-01
5.086000000000000000e+03 5.108745574951171875e+01 -2.921995925903320312e+01 4.047488272190093994e-01 3.694596290588378906e-01 2.322625368833541870e-01 -2.878232300281524658e-01
5.087000000000000000e+03 9.120996475219726562e+00 -3.609833908081054688e+01 3.756492584943771362e-02 -1.854814589023590088e-01 -4.437496140599250793e-02 -1.562944650650024414e-01
5.088000000000000000e+03 4.867749404907226562e+01 3.368650436401367188e+01 3.661419749259948730e-01 4.529168307781219482e-01 2.457176446914672852e-01 -3.817105293273925781e-02
5.089000000000000000e+03 4.793851470947265625e+01 3.436568450927734375e+01 4.158635735511779785e-01 3.261552751064300537e-01 2.226056605577468872e-01 -6.993405520915985107e-02
5.090000000000000000e+03 7.622370910644531250e+01 1.027401733398437500e+01 -2.828358486294746399e-02 7.580710411071777344e+00 2.265727996826171875e+00 -1.398350596427917480e+00
5.091000000000000000e+03 7.421343994140625000e+01 1.062380981445312500e+01 1.597397215664386749e-02 6.812554836273193359e+00 2.048558473587036133e+00 -1.442689895629882812e+00
5.092000000000000000e+03 4.297363662719726562e+01 -1.588780212402343750e+01 -5.969297885894775391e-01 -2.067924588918685913e-01 -2.411166876554489136e-01 -1.479574888944625854e-01
5.093000000000000000e+03 4.554307174682617188e+01 -1.713987731933593750e+01 -6.423685550689697266e-01 -1.892104297876358032e-01 -2.494736909866333008e-01 -2.504526972770690918e-01
5.094000000000000000e+03 7.584903717041015625e+01 -2.937953758239746094e+01 -2.614043354988098145e-01 6.735193252563476562e+00 1.942136764526367188e+00 5.346109271049499512e-01
5.095000000000000000e+03 6.369647979736328125e+01 -2.370533943176269531e+01 2.157690525054931641e-01 1.720215201377868652e+00 5.807952880859375000e-01 -6.725809723138809204e-02
5.096000000000000000e+03 6.295637130737304688e+01 -2.392798233032226562e+01 2.043174058198928833e-01 1.386986374855041504e+00 4.773911535739898682e-01 1.573287881910800934e-02
5.097000000000000000e+03 4.018032073974609375e+00 1.769633102416992188e+01 7.441882044076919556e-02 -2.345481067895889282e-01 -4.803878441452980042e-02 3.356556594371795654e-02
5.098000000000000000e+03 5.654914093017578125e+01 7.954084396362304688e+00 5.059644579887390137e-01 2.126480340957641602e-01 2.155837565660476685e-01 4.320508241653442383e-01
5.099000000000000000e+03 1.442931556701660156e+01 2.045589447021484375e+01 1.240621320903301239e-03 1.250364333391189575e-01 3.788311406970024109e-02 3.851168155670166016e-01
5.100000000000000000e+03 4.389500427246093750e+01 -1.791398239135742188e+01 -2.580087780952453613e-01 -1.707165241241455078e-01 -1.286175996065139771e-01 -3.878094255924224854e-01
5.101000000000000000e+03 4.512941360473632812e+01 -1.846395111083984375e+01 -3.235841095447540283e-01 -1.676870286464691162e-01 -1.473813503980636597e-01 -4.397221803665161133e-01
5.102000000000000000e+03 5.391783523559570312e+01 -2.831976127624511719e+01 3.515157401561737061e-01 3.991784155368804932e-01 2.252082377672195435e-01 -3.213372826576232910e-02
5.103000000000000000e+03 3.024327278137207031e+01 -3.221546554565429688e+01 5.727838724851608276e-02 -2.327928133308887482e-02 1.019973121583461761e-02 -1.674297899007797241e-01
5.104000000000000000e+03 2.943563079833984375e+01 -2.916641807556152344e+01 2.134317308664321899e-01 -3.718735277652740479e-02 5.287331342697143555e-02 -1.422866582870483398e-01
5.105000000000000000e+03 1.239554977416992188e+01 -2.533442687988281250e+01 -5.355711560696363449e-03 -2.362361401319503784e-01 -7.247755676507949829e-02 -1.756338328123092651e-01
5.106000000000000000e+03 3.044464683532714844e+01 3.245850372314453125e+01 2.795563340187072754e-01 -4.222614765167236328e-01 -4.281154274940490723e-02 3.078495562076568604e-01
5.107000000000000000e+03 6.980246734619140625e+01 -2.964729118347167969e+01 7.506796717643737793e-01 1.951061725616455078e+00 8.105224370956420898e-01 7.288848161697387695e-01
5.108000000000000000e+03 1.689215278625488281e+01 3.779891967773437500e+01 1.335252672433853149e-01 -1.937627643346786499e-01 -1.807124912738800049e-02 1.122100800275802612e-01
5.109000000000000000e+03 6.875135803222656250e+01 8.721458911895751953e-01 -8.588024973869323730e-01 -8.939114212989807129e-02 -2.844581007957458496e-01 -1.229888275265693665e-01
5.110000000000000000e+03 2.675442314147949219e+01 -2.385758590698242188e+01 1.377886831760406494e-01 -1.487603634595870972e-01 -3.291500499472022057e-03 -1.415837854146957397e-01
5.111000000000000000e+03 2.555292320251464844e+01 -2.332661247253417969e+01 9.031318128108978271e-02 -1.277860552072525024e-01 -1.124186255037784576e-02 -1.423917710781097412e-01
5.112000000000000000e+03 4.767414569854736328e+00 3.455599212646484375e+01 1.397630274295806885e-01 -3.227427899837493896e-01 -5.489392206072807312e-02 4.216570407152175903e-02
5.113000000000000000e+03 4.211212635040283203e+00 3.313341140747070312e+01 1.292686164379119873e-01 -3.839110732078552246e-01 -7.639274001121520996e-02 1.106915548443794250e-01
5.114000000000000000e+03 3.533380031585693359e+00 3.758504104614257812e+01 2.569225057959556580e-02 -4.203643202781677246e-01 -1.184016242623329163e-01 -1.703759655356407166e-02
5.115000000000000000e+03 4.236228466033935547e+00 3.634540176391601562e+01 5.985958129167556763e-02 -3.609670996665954590e-01 -9.033225476741790771e-02 -4.698689095675945282e-03
5.116000000000000000e+03 3.503588485717773438e+01 3.471385192871093750e+01 5.236275196075439453e-01 -1.342307925224304199e-01 1.168190166354179382e-01 9.727532416582107544e-02
5.117000000000000000e+03 3.730683517456054688e+01 3.796435546875000000e+01 5.265898108482360840e-01 7.331237196922302246e-02 1.799706518650054932e-01 3.370613977313041687e-02
5.118000000000000000e+03 3.348999404907226562e+01 3.563639831542968750e+01 4.918106496334075928e-01 -2.377827912569046021e-01 7.620836049318313599e-02 1.028029471635818481e-01
5.119000000000000000e+03 3.409563064575195312e+01 3.431824111938476562e+01 4.794889688491821289e-01 -2.270457595586776733e-01 7.573296129703521729e-02 1.232031434774398804e-01
5.120000000000000000e+03 2.155654525756835938e+01 2.831462287902832031e+01 1.260488480329513550e-01 -1.804838925600051880e-01 -1.633051037788391113e-02 2.848245203495025635e-01
5.121000000000000000e+03 2.264728927612304688e+01 3.069800567626953125e+01 -9.144879877567291260e-02 1.391782332211732864e-02 -2.325929142534732819e-02 1.009729504585266113e-01
5.122000000000000000e+03 5.879380416870117188e+01 3.032406568527221680e+00 -1.462820887565612793e+00 -7.921506464481353760e-02 -4.626107811927795410e-01 -5.699976533651351929e-02
5.123000000000000000e+03 6.054989242553710938e+01 2.101506233215332031e+00 -1.791119337081909180e+00 3.982445001602172852e-01 -4.178624749183654785e-01 -1.185902580618858337e-01
5.124000000000000000e+03 6.561341857910156250e+01 3.284194946289062500e+01 5.444883704185485840e-01 2.608610391616821289e+00 9.459296464920043945e-01 -3.691295981407165527e-01
5.125000000000000000e+03 3.470918273925781250e+01 -3.432703399658203125e+01 1.239379793405532837e-01 -8.141931146383285522e-02 1.275560166686773300e-02 -3.325088918209075928e-01
5.126000000000000000e+03 2.984279251098632812e+01 -3.042093658447265625e+01 1.404464393854141235e-01 -1.782384142279624939e-02 3.678677976131439209e-02 -1.520714908838272095e-01
5.127000000000000000e+03 3.037211036682128906e+01 -3.144725418090820312e+01 9.437735378742218018e-02 6.160606280900537968e-04 2.849802374839782715e-02 -1.671393364667892456e-01
5.128000000000000000e+03 4.938173294067382812e+01 3.874976348876953125e+01 5.943855047225952148e-01 3.929385542869567871e-01 2.961972057819366455e-01 6.985691143199801445e-04
5.129000000000000000e+03 3.664320755004882812e+01 -3.225210189819335938e+01 -1.971560157835483551e-02 -1.746188998222351074e-01 -5.830034986138343811e-02 -3.462589085102081299e-01
5.130000000000000000e+03 3.492275238037109375e+01 -3.150107765197753906e+01 -1.471255527576431632e-04 -5.674020852893590927e-03 -1.746343914419412613e-03 -3.317446112632751465e-01
5.131000000000000000e+03 1.011536216735839844e+01 4.063191986083984375e+01 -2.287901006639003754e-02 8.328197873197495937e-05 -6.838718429207801819e-03 3.330492600798606873e-02
5.132000000000000000e+03 3.758475875854492188e+01 3.957378768920898438e+01 5.064241290092468262e-01 4.714568331837654114e-02 1.660709530115127563e-01 2.082973718643188477e-02
5.133000000000000000e+03 5.179373168945312500e+01 -3.772909927368164062e+01 5.556825995445251465e-01 3.709547221660614014e-01 2.779912054538726807e-01 7.849004119634628296e-02
5.134000000000000000e+03 3.811549901962280273e+00 4.182653808593750000e+01 -2.433506213128566742e-02 -4.328514933586120605e-01 -1.371559649705886841e-01 5.991165526211261749e-04
5.135000000000000000e+03 2.992323303222656250e+01 3.133667564392089844e+01 1.883802860975265503e-01 -4.910131394863128662e-01 -9.078985452651977539e-02 3.655097782611846924e-01
5.136000000000000000e+03 6.729640960693359375e+01 3.190508842468261719e+01 4.592435657978057861e-01 2.847307443618774414e+00 9.919652938842773438e-01 -4.309373199939727783e-01
5.137000000000000000e+03 4.691715240478515625e+00 -3.889343643188476562e+01 3.880886733531951904e-02 -2.245893925428390503e-01 -5.573415756225585938e-02 -7.202696055173873901e-02
5.138000000000000000e+03 7.553418159484863281e+00 3.822200775146484375e+01 1.805808395147323608e-02 -4.751389473676681519e-02 -8.836743421852588654e-03 -2.008361974731087685e-03
5.139000000000000000e+03 7.499977111816406250e+01 3.701790237426757812e+01 8.921705186367034912e-02 4.602324008941650391e+00 1.407462239265441895e+00 -1.460961550474166870e-01
5.140000000000000000e+03 7.691810607910156250e+01 -3.897353744506835938e+01 8.353269100189208984e-02 6.006515979766845703e+00 1.827014684677124023e+00 1.692895889282226562e-01
5.141000000000000000e+03 7.708078002929687500e+01 -3.762759780883789062e+01 6.356351822614669800e-02 6.112905979156494141e+00 1.852940917015075684e+00 1.980283409357070923e-01
5.142000000000000000e+03 3.866018295288085938e+01 -3.902129745483398438e+01 6.301395893096923828e-01 -6.036056950688362122e-02 1.709337085485458374e-01 -1.260142475366592407e-01
5.143000000000000000e+03 2.214436340332031250e+01 3.397873306274414062e+01 2.608883194625377655e-02 -2.074351906776428223e-01 -5.440390482544898987e-02 6.037013977766036987e-02
5.144000000000000000e+03 5.741024494171142578e+00 3.793664932250976562e+01 3.090443462133407593e-02 -1.969780623912811279e-01 -4.982208833098411560e-02 -3.499427437782287598e-02
5.145000000000000000e+03 2.785539245605468750e+01 3.225221633911132812e+01 1.635977327823638916e-01 -2.925454378128051758e-01 -3.868431597948074341e-02 4.136045277118682861e-01
5.146000000000000000e+03 5.766191101074218750e+01 -4.160722732543945312e+01 9.421776533126831055e-01 5.362665057182312012e-01 4.435332417488098145e-01 -6.208524480462074280e-02
5.147000000000000000e+03 3.743270874023437500e+01 4.151550292968750000e+01 4.972776472568511963e-01 2.844990417361259460e-02 1.577182710170745850e-01 6.183886434882879257e-03
5.148000000000000000e+03 1.042843723297119141e+01 -3.944280624389648438e+01 1.820509433746337891e-01 -1.505455821752548218e-01 9.451605379581451416e-03 -9.269181638956069946e-02
5.149000000000000000e+03 1.715196037292480469e+01 3.969851684570312500e+01 1.479915529489517212e-01 -1.935821026563644409e-01 -1.367716584354639053e-02 6.737793982028961182e-02
5.150000000000000000e+03 6.919659423828125000e+01 -3.661661529541015625e+01 4.862068295478820801e-01 3.155438423156738281e+00 1.092493534088134766e+00 3.430064618587493896e-01
5.151000000000000000e+03 1.999415016174316406e+01 2.145780181884765625e+01 6.559674162417650223e-03 -1.262698620557785034e-01 -3.591305762529373169e-02 4.355034604668617249e-02
5.152000000000000000e+03 1.937032508850097656e+01 2.126895141601562500e+01 -8.239741437137126923e-03 -6.762636452913284302e-02 -2.275983244180679321e-02 6.010366231203079224e-02
5.153000000000000000e+03 7.626808166503906250e+01 1.489234733581542969e+01 5.954520702362060547e-01 6.853429317474365234e+00 2.234664440155029297e+00 -7.577509880065917969e-01
5.154000000000000000e+03 4.418799209594726562e+01 4.308739662170410156e+00 -8.350338339805603027e-01 -1.998979300260543823e-01 -3.104795217514038086e-01 1.900040507316589355e-01
5.155000000000000000e+03 6.493758392333984375e+01 2.268559455871582031e+01 2.727428674697875977e-01 8.980672955513000488e-01 3.512430489063262939e-01 3.937831521034240723e-02
5.156000000000000000e+03 6.137342071533203125e+01 6.233707904815673828e+00 -7.822860777378082275e-02 8.566635251045227051e-01 2.335304617881774902e-01 -3.936251103878021240e-01
5.157000000000000000e+03 6.147488021850585938e+01 2.125717639923095703e+00 -1.613824486732482910e+00 5.301291942596435547e-01 -3.251085877418518066e-01 -1.285275518894195557e-01
5.158000000000000000e+03 7.528440093994140625e+01 -1.972566413879394531e+01 -3.737028241157531738e-01 8.152655601501464844e+00 2.333685636520385742e+00 1.596394419670104980e+00
5.159000000000000000e+03 5.763278198242187500e+01 9.457564353942871094e+00 5.209766030311584473e-01 5.860282778739929199e-01 3.321014642715454102e-01 2.610554099082946777e-01
5.160000000000000000e+03 2.631937408447265625e+01 -1.868378829956054688e+01 -2.063973844051361084e-01 -1.968089342117309570e-01 -1.209618896245956421e-01 -1.659900546073913574e-01
5.161000000000000000e+03 5.811171722412109375e+01 -2.265661239624023438e+01 2.523560822010040283e-01 3.252265751361846924e-01 1.732748001813888550e-01 2.540305852890014648e-01
5.162000000000000000e+03 5.708301925659179688e+01 -2.279682159423828125e+01 1.534823626279830933e-01 2.115951776504516602e-01 1.095232665538787842e-01 2.086521983146667480e-01
5.163000000000000000e+03 6.147515869140625000e+01 -1.031579971313476562e+01 -1.983485817909240723e+00 5.555259585380554199e-01 -4.283879697322845459e-01 -7.432211935520172119e-02
5.164000000000000000e+03 4.326791763305664062e+01 -2.591073226928710938e+01 1.090784743428230286e-01 8.359017223119735718e-02 5.780059099197387695e-02 -2.406532913446426392e-01
5.165000000000000000e+03 4.230020046234130859e+00 2.532385253906250000e+01 -1.433329284191131592e-01 -4.170562028884887695e-01 -1.681167334318161011e-01 7.602825015783309937e-02
5.166000000000000000e+03 2.962383031845092773e+00 2.501021575927734375e+01 -8.090972900390625000e-02 -3.260145783424377441e-01 -1.220772936940193176e-01 3.588738664984703064e-02
5.167000000000000000e+03 1.086261177062988281e+01 4.933774471282958984e+00 -1.798535436391830444e-01 -1.127050220966339111e-01 -8.776757121086120605e-02 7.513904571533203125e-02
5.168000000000000000e+03 6.033082962036132812e+01 -1.158434772491455078e+01 -1.975073099136352539e+00 2.139593064785003662e-01 -5.283341407775878906e-01 6.465544551610946655e-02
5.169000000000000000e+03 5.701602935791015625e+01 -1.539083957672119141e+01 -5.088141188025474548e-02 -2.426889389753341675e-01 -8.807110786437988281e-02 -2.686077058315277100e-01
5.170000000000000000e+03 5.868897628784179688e+01 -1.267030525207519531e+01 -1.351462721824645996e+00 -3.533341884613037109e-01 -5.114390850067138672e-01 -3.017462044954299927e-02
5.171000000000000000e+03 2.632217216491699219e+01 -1.968217468261718750e+01 -1.497423201799392700e-01 -1.856117099523544312e-01 -1.006062105298042297e-01 -1.619428694248199463e-01
5.172000000000000000e+03 8.296259880065917969e+00 1.756189346313476562e+01 2.050203382968902588e-01 -8.941651880741119385e-02 3.468114510178565979e-02 1.080788820981979370e-01
5.173000000000000000e+03 1.015815162658691406e+01 1.929205513000488281e+01 7.533025741577148438e-02 3.933972865343093872e-02 3.440099582076072693e-02 1.784983426332473755e-01
5.174000000000000000e+03 7.226933479309082031e+00 2.125353622436523438e+01 -3.119136206805706024e-02 -2.608650028705596924e-01 -8.761691302061080933e-02 7.365953177213668823e-02
5.175000000000000000e+03 2.786658477783203125e+01 1.212327957153320312e+01 2.843677811324596405e-02 2.422324866056442261e-01 8.120077848434448242e-02 2.110699564218521118e-01
5.176000000000000000e+03 2.694801139831542969e+01 7.675278186798095703e+00 2.634011209011077881e-01 2.329928576946258545e-01 1.489181965589523315e-01 1.536654382944107056e-01
5.177000000000000000e+03 2.551108169555664062e+01 6.140152931213378906e+00 9.607271850109100342e-02 4.055510275065898895e-03 3.003846853971481323e-02 1.678293794393539429e-01
5.178000000000000000e+03 2.202024841308593750e+01 7.173758983612060547e+00 1.505642682313919067e-01 -1.703372001647949219e-01 -5.931877996772527695e-03 1.105422377586364746e-01
5.179000000000000000e+03 3.400461196899414062e+01 2.480552291870117188e+01 -4.399871230125427246e-01 -5.782096385955810547e-01 -3.054590225219726562e-01 3.816139996051788330e-01
5.180000000000000000e+03 4.669327163696289062e+01 2.134070396423339844e+01 4.211131930351257324e-01 4.062373340129852295e-01 2.482051551342010498e-01 2.408313900232315063e-01
5.181000000000000000e+03 3.288454294204711914e+00 1.054932117462158203e+01 -3.189590200781822205e-02 -6.194681674242019653e-02 -2.815281599760055542e-02 1.082310304045677185e-01
5.182000000000000000e+03 7.353697204589843750e+01 1.908334732055664062e+00 -7.594450116157531738e-01 5.074195384979248047e+00 1.294425010681152344e+00 -1.059530854225158691e+00
5.183000000000000000e+03 7.133032989501953125e+01 5.932028770446777344e+00 -4.668796360492706299e-01 2.293400049209594727e+00 5.479561686515808105e-01 -2.252706587314605713e-01
5.184000000000000000e+03 5.275714111328125000e+01 -2.753934478759765625e+01 3.707095086574554443e-01 2.544510960578918457e-01 1.875481903553009033e-01 -1.536354571580886841e-01
5.185000000000000000e+03 3.237503051757812500e+01 -9.401741981506347656e+00 -1.095727160573005676e-01 -2.313691228628158569e-01 -1.022825539112091064e-01 -1.607719510793685913e-01
5.186000000000000000e+03 4.366484069824218750e+01 -1.991747856140136719e+01 7.547897100448608398e-02 -1.449739933013916016e-01 -2.084850706160068512e-02 -5.941559076309204102e-01
5.187000000000000000e+03 5.512896347045898438e+01 -2.724329185485839844e+01 2.860237360000610352e-01 4.004807770252227783e-01 2.059513479471206665e-01 1.345854848623275757e-01
5.188000000000000000e+03 5.486167907714843750e+01 -2.664936256408691406e+01 2.646225690841674805e-01 2.942351400852203369e-01 1.676573157310485840e-01 1.188015639781951904e-01
5.189000000000000000e+03 9.395092964172363281e+00 6.284222602844238281e+00 -2.028612345457077026e-01 -1.138115376234054565e-01 -9.500183165073394775e-02 7.783332467079162598e-02
5.190000000000000000e+03 9.823708534240722656e+00 4.359709262847900391e+00 -1.245434805750846863e-01 -7.459961622953414917e-02 -5.974293127655982971e-02 3.728592395782470703e-02
5.191000000000000000e+03 5.749640655517578125e+01 -1.688026618957519531e+01 3.666014969348907471e-01 -1.804900318384170532e-01 5.583343654870986938e-02 -2.643257975578308105e-01
5.192000000000000000e+03 1.563529777526855469e+01 -1.037127017974853516e+01 -7.624828815460205078e-02 6.129698827862739563e-02 -4.485390149056911469e-03 2.049564570188522339e-02
5.193000000000000000e+03 3.746952056884765625e+01 1.921296119689941406e+01 3.562314808368682861e-01 -6.110791563987731934e-01 -7.645430415868759155e-02 4.945608675479888916e-01
5.194000000000000000e+03 4.003234386444091797e+00 2.631434631347656250e+01 -1.470559388399124146e-01 -4.215185642242431641e-01 -1.705723404884338379e-01 1.202519387006759644e-01
5.195000000000000000e+03 6.717763519287109375e+01 2.250830459594726562e+01 2.651249468326568604e-01 1.450697660446166992e+00 5.147467851638793945e-01 -8.023810982704162598e-01
5.196000000000000000e+03 6.584093475341796875e+01 5.224030017852783203e+00 -2.029231339693069458e-01 2.764658331871032715e-01 2.206280641257762909e-02 -8.886431455612182617e-01
5.197000000000000000e+03 3.520945358276367188e+01 -9.798939704895019531e+00 7.044656574726104736e-02 2.116544544696807861e-01 8.463031053543090820e-02 -1.420522332191467285e-01
5.198000000000000000e+03 4.204975509643554688e+01 -1.725204086303710938e+01 -1.594585776329040527e-01 -9.565133601427078247e-02 -7.653297483921051025e-02 -3.157581388950347900e-01
5.199000000000000000e+03 5.795186042785644531e+00 -1.225157928466796875e+01 -3.902754932641983032e-02 -6.887449324131011963e-02 -3.237061202526092529e-02 -2.257881313562393188e-02
5.200000000000000000e+03 5.085736465454101562e+01 -7.330335140228271484e+00 -3.976484835147857666e-01 -8.032303303480148315e-02 -1.433914601802825928e-01 2.735358476638793945e-01
5.201000000000000000e+03 4.860560226440429688e+01 2.345421981811523438e+01 3.799876868724822998e-01 4.197770357131958008e-01 2.399294078350067139e-01 2.548330724239349365e-01
5.202000000000000000e+03 4.755580902099609375e+01 2.513313484191894531e+01 3.030974864959716797e-01 4.471898078918457031e-01 2.250861823558807373e-01 3.210882842540740967e-01
5.203000000000000000e+03 5.097146987915039062e+01 -2.697774696350097656e+01 3.662983775138854980e-01 2.571613788604736328e-01 1.870379298925399780e-01 -2.980285286903381348e-01
5.204000000000000000e+03 5.653587341308593750e+01 4.485308170318603516e+00 -7.739684581756591797e-01 -6.227281689643859863e-02 -2.508723735809326172e-01 2.152460366487503052e-01
5.205000000000000000e+03 5.753918838500976562e+01 6.155144691467285156e+00 2.182260528206825256e-02 1.624322831630706787e-01 5.527646839618682861e-02 1.668684035539627075e-01
5.206000000000000000e+03 4.852070617675781250e+01 -1.306529045104980469e+01 -8.158879876136779785e-01 1.364055573940277100e-01 -2.038447260856628418e-01 -4.746084809303283691e-01
5.207000000000000000e+03 5.703540420532226562e+01 -2.495588874816894531e+01 1.496987789869308472e-01 3.598438799381256104e-01 1.528628021478652954e-01 3.257141709327697754e-01
5.208000000000000000e+03 6.097647857666015625e+01 8.240568637847900391e-01 -1.954539656639099121e+00 4.465719759464263916e-01 -4.523903131484985352e-01 1.752770096063613892e-01
5.209000000000000000e+03 4.319851303100585938e+01 7.669043064117431641e+00 -7.754034399986267090e-01 -2.650370597839355469e-01 -3.121321499347686768e-01 6.180506348609924316e-01
5.210000000000000000e+03 6.368163108825683594e+00 8.212894439697265625e+00 -1.410262137651443481e-01 -4.864179342985153198e-02 -5.690040439367294312e-02 9.132472425699234009e-02
5.211000000000000000e+03 1.247372150421142578e+01 5.084723949432373047e+00 -2.146926671266555786e-01 -1.502251625061035156e-01 -1.094753518700599670e-01 1.571377664804458618e-01
5.212000000000000000e+03 6.697845458984375000e+01 4.251735687255859375e+00 -1.489212214946746826e-01 -4.504620283842086792e-02 -5.819022655487060547e-02 -7.018562555313110352e-01
5.213000000000000000e+03 5.724034881591796875e+01 -1.304781532287597656e+01 -1.063119411468505859e+00 -4.875423908233642578e-01 -4.651985466480255127e-01 -2.525565326213836670e-01
5.214000000000000000e+03 6.091336441040039062e+01 -1.095290088653564453e+01 -2.115418434143066406e+00 4.156598746776580811e-01 -5.099275112152099609e-01 -5.646196659654378891e-03
5.215000000000000000e+03 5.699790191650390625e+01 -1.232122230529785156e+01 -1.505434393882751465e+00 -5.967823863029479980e-01 -6.306650042533874512e-01 -2.814713418483734131e-01
5.216000000000000000e+03 5.752399826049804688e+01 -1.623373794555664062e+01 2.173765748739242554e-01 -1.968373954296112061e-01 6.161754950881004333e-03 -2.538729906082153320e-01
5.217000000000000000e+03 3.625347518920898438e+01 1.471178722381591797e+01 -8.308523148298263550e-02 -7.862085103988647461e-01 -2.607881128787994385e-01 5.136928558349609375e-01
5.218000000000000000e+03 6.914247894287109375e+01 -3.033634948730468750e+01 7.827096581459045410e-01 2.032179355621337891e+00 8.444666862487792969e-01 4.087349176406860352e-01
5.219000000000000000e+03 6.772173309326171875e+01 -2.889504051208496094e+01 5.860362648963928223e-01 1.292964458465576172e+00 5.637001991271972656e-01 -2.268172502517700195e-01
5.220000000000000000e+03 6.249953842163085938e+01 -9.506891250610351562e+00 -1.599350214004516602e+00 4.930602312088012695e-01 -3.318870067596435547e-01 -1.315587013959884644e-02
5.221000000000000000e+03 6.158719253540039062e+01 -1.093504714965820312e+01 -2.009514570236206055e+00 6.059353947639465332e-01 -4.210737645626068115e-01 3.230516333132982254e-03
5.222000000000000000e+03 3.320901107788085938e+01 -1.024351501464843750e+01 -9.146542102098464966e-02 -1.337475031614303589e-01 -6.756387650966644287e-02 -1.142879277467727661e-01
5.223000000000000000e+03 5.031351852416992188e+01 -8.499835968017578125e+00 -3.850829601287841797e-01 7.184192538261413574e-02 -9.397231787443161011e-02 5.021050572395324707e-02
5.224000000000000000e+03 4.566017532348632812e+01 6.200736999511718750e+00 -1.041053295135498047e+00 -3.481408655643463135e-01 -4.167582392692565918e-01 5.209251642227172852e-01
5.225000000000000000e+03 4.445161437988281250e+01 4.886747837066650391e+00 -8.858200907707214355e-01 -2.116692513227462769e-01 -3.292468190193176270e-01 2.894523441791534424e-01
5.226000000000000000e+03 3.116853904724121094e+01 -1.230288982391357422e+01 -3.494584560394287109e-01 -3.103792667388916016e-01 -1.979513168334960938e-01 -5.978446081280708313e-02
5.227000000000000000e+03 3.220827102661132812e+01 -1.198020076751708984e+01 -2.917778193950653076e-01 -2.424365878105163574e-01 -1.602643132209777832e-01 -4.947299137711524963e-02
5.228000000000000000e+03 1.157448768615722656e+01 -2.561956596374511719e+01 -1.861209981143474579e-02 -1.893190294504165649e-01 -6.237933784723281860e-02 -1.552554816007614136e-01
5.229000000000000000e+03 5.831288146972656250e+01 1.631442642211914062e+01 2.698830962181091309e-01 1.158401012420654297e+00 4.284852147102355957e-01 -2.400626391172409058e-01
5.230000000000000000e+03 1.526281738281250000e+01 -9.523341178894042969e+00 -5.693392455577850342e-02 5.173075571656227112e-02 -1.560950884595513344e-03 1.596619561314582825e-02
5.231000000000000000e+03 2.284966278076171875e+01 1.141654491424560547e+01 8.666948229074478149e-02 -1.757287085056304932e-01 -2.671776898205280304e-02 5.463364347815513611e-02
5.232000000000000000e+03 6.206437683105468750e+01 5.754179954528808594e+00 -2.421271800994873047e-01 8.750742077827453613e-01 1.898841112852096558e-01 -4.551635682582855225e-01
5.233000000000000000e+03 6.320869827270507812e+01 4.036293983459472656e+00 -8.260965347290039062e-01 7.136568427085876465e-01 -3.373190760612487793e-02 -4.841805100440979004e-01
5.234000000000000000e+03 3.529861831665039062e+01 1.485843944549560547e+01 -5.325699225068092346e-02 -6.227217912673950195e-01 -2.027936428785324097e-01 5.399532914161682129e-01
5.235000000000000000e+03 1.699309158325195312e+01 -2.354278182983398438e+01 -2.969540096819400787e-02 -1.589759588241577148e-01 -5.660140886902809143e-02 -2.361618876457214355e-01
5.236000000000000000e+03 1.951447868347167969e+01 -2.488557052612304688e+01 1.311322450637817383e-01 8.334434777498245239e-02 6.434297561645507812e-02 -1.910887211561203003e-01
5.237000000000000000e+03 2.980908203125000000e+01 -2.863402557373046875e+01 2.452011704444885254e-01 -1.443589385598897934e-02 6.922958046197891235e-02 -1.403324753046035767e-01
5.238000000000000000e+03 2.876462936401367188e+01 -2.759866142272949219e+01 2.777061164379119873e-01 -8.450284600257873535e-02 5.796097591519355774e-02 -1.406427770853042603e-01
5.239000000000000000e+03 6.691096496582031250e+01 2.912862968444824219e+01 4.070780575275421143e-01 2.695077180862426758e+00 9.306465983390808105e-01 -4.106636643409729004e-01
5.240000000000000000e+03 3.868679809570312500e+01 -1.550004673004150391e+01 -4.663904905319213867e-01 6.918025016784667969e-01 6.762361526489257812e-02 -1.928187459707260132e-01
5.241000000000000000e+03 4.351827621459960938e+01 -2.386535835266113281e+01 1.161327436566352844e-01 1.960119977593421936e-02 4.072018340229988098e-02 -4.708166122436523438e-01
5.242000000000000000e+03 4.477340698242187500e+01 -2.594420433044433594e+01 2.590882182121276855e-01 1.984508037567138672e-01 1.372617036104202271e-01 -2.348760515451431274e-01
5.243000000000000000e+03 1.650432968139648438e+01 -2.389354896545410156e+01 9.196887724101543427e-03 -2.246420979499816895e-01 -6.463356316089630127e-02 -2.314918637275695801e-01
5.244000000000000000e+03 1.666456794738769531e+01 -2.184815979003906250e+01 -1.953348368406295776e-01 -1.790858954191207886e-01 -1.123262196779251099e-01 -2.258023470640182495e-01
5.245000000000000000e+03 1.712510299682617188e+01 -2.116364479064941406e+01 -2.379294782876968384e-01 -1.110628321766853333e-01 -1.046976894140243530e-01 -2.487237751483917236e-01
5.246000000000000000e+03 2.367763328552246094e+01 1.496442699432373047e+01 -2.493352442979812622e-01 -1.946042925119400024e-01 -1.331818550825119019e-01 1.062405630946159363e-01
5.247000000000000000e+03 2.314286041259765625e+01 1.466049671173095703e+01 -1.911406666040420532e-01 -1.929330080747604370e-01 -1.152221038937568665e-01 8.102683722972869873e-02
5.248000000000000000e+03 4.772711181640625000e+01 -1.505086231231689453e+01 -8.880142569541931152e-01 -1.780309826135635376e-01 -3.198135793209075928e-01 -2.593598663806915283e-01
5.249000000000000000e+03 2.453803825378417969e+01 1.370265293121337891e+01 -1.326090097427368164e-01 -1.793404966592788696e-01 -9.358485043048858643e-02 6.222871318459510803e-02
5.250000000000000000e+03 2.458209037780761719e+01 1.204539775848388672e+01 5.962930619716644287e-02 -1.457647234201431274e-01 -2.584062702953815460e-02 5.998749658465385437e-02
5.251000000000000000e+03 2.172067070007324219e+01 6.659955024719238281e+00 1.041296273469924927e-01 -1.599039584398269653e-01 -1.673230156302452087e-02 1.089157164096832275e-01
5.252000000000000000e+03 2.253823852539062500e+01 5.577616691589355469e+00 -2.701440639793872833e-02 -1.460751742124557495e-01 -5.192687362432479858e-02 1.422848701477050781e-01
5.253000000000000000e+03 3.277437448501586914e+00 -2.539858436584472656e+01 7.689670659601688385e-03 -6.970027089118957520e-02 -1.860317960381507874e-02 9.349057450890541077e-03
5.254000000000000000e+03 2.028029632568359375e+01 -1.613733100891113281e+01 -2.349803447723388672e-01 -6.374478340148925781e-02 -8.961754292249679565e-02 -1.869347989559173584e-01
5.255000000000000000e+03 2.146940422058105469e+01 -1.662951469421386719e+01 -2.726543843746185303e-01 -9.370777010917663574e-02 -1.099086478352546692e-01 -2.048918157815933228e-01
5.256000000000000000e+03 7.196601104736328125e+01 2.247689723968505859e+00 -3.680310845375061035e-01 2.692166805267333984e+00 6.972407102584838867e-01 -1.008767962455749512e+00
5.257000000000000000e+03 7.002472686767578125e+01 1.274675846099853516e+00 -4.939573109149932861e-01 3.558113276958465576e-01 -4.144379124045372009e-02 -4.788831770420074463e-01
5.258000000000000000e+03 6.886168670654296875e+01 2.980792617797851562e+01 3.798674941062927246e-01 3.195065975189208984e+00 1.072480082511901855e+00 -5.236591696739196777e-01
5.259000000000000000e+03 6.694208526611328125e+01 3.047621917724609375e+01 4.222202301025390625e-01 2.774452686309814453e+00 9.590018391609191895e-01 -4.297653436660766602e-01
5.260000000000000000e+03 5.115141296386718750e+01 2.007740402221679688e+01 2.833007276058197021e-01 2.292278110980987549e-01 1.537585556507110596e-01 -7.375311106443405151e-02
5.261000000000000000e+03 4.039925575256347656e+00 -1.040369129180908203e+01 -6.007299758493900299e-03 -1.966256275773048401e-02 -7.700959220528602600e-03 1.077984925359487534e-02
5.262000000000000000e+03 1.092417621612548828e+01 -9.563874244689941406e+00 -3.828761354088783264e-02 -1.692322641611099243e-02 -1.656325161457061768e-02 -3.836285322904586792e-02
5.263000000000000000e+03 6.682868957519531250e+01 2.678823089599609375e+01 4.744955599308013916e-01 2.368167400360107422e+00 8.527988791465759277e-01 -4.242049157619476318e-01
5.264000000000000000e+03 5.539879798889160156e+00 -5.113406658172607422e+00 6.317067425698041916e-03 -1.291820872575044632e-02 -1.980342203751206398e-03 8.318822830915451050e-03
5.265000000000000000e+03 3.477432966232299805e+00 -4.807231426239013672e+00 4.793761763721704483e-03 -8.547893230570480227e-05 1.412484794855117798e-03 1.368315145373344421e-02
5.266000000000000000e+03 2.904060602188110352e+00 -5.811312675476074219e+00 2.415222115814685822e-03 4.386110231280326843e-03 2.040399704128503799e-03 1.443648245185613632e-02
5.267000000000000000e+03 4.749990844726562500e+01 2.047211647033691406e+01 3.952379226684570312e-01 3.593428730964660645e-01 2.263742387294769287e-01 2.259155064821243286e-01
5.268000000000000000e+03 6.871671199798583984e+00 -5.035487174987792969e+00 6.986596621572971344e-03 -1.587611250579357147e-02 -2.666854998096823692e-03 2.280095592141151428e-03
5.269000000000000000e+03 6.901121616363525391e+00 -4.473109722137451172e+00 8.275382220745086670e-03 -1.420337613672018051e-02 -1.778398291207849979e-03 2.087597502395510674e-03
5.270000000000000000e+03 6.204770565032958984e+00 -5.004540443420410156e+00 7.804118096828460693e-03 -1.491454150527715683e-02 -2.133126836270093918e-03 5.106620490550994873e-03
5.271000000000000000e+03 7.677175140380859375e+01 -2.966215896606445312e+01 -1.906587183475494385e-01 6.976786613464355469e+00 2.035838365554809570e+00 3.198537528514862061e-01
5.272000000000000000e+03 7.535771179199218750e+01 -3.185413360595703125e+01 -3.969400376081466675e-02 5.958201408386230469e+00 1.775552153587341309e+00 6.166014075279235840e-01
5.273000000000000000e+03 2.588164901733398438e+01 4.507957935333251953e+00 -1.230623349547386169e-01 3.453163802623748779e-02 -2.655920758843421936e-02 1.967420876026153564e-01
5.274000000000000000e+03 2.584709167480468750e+01 5.356863975524902344e+00 5.113532766699790955e-03 3.579607978463172913e-02 1.227288413792848587e-02 1.843414902687072754e-01
5.275000000000000000e+03 2.438742256164550781e+01 6.721223354339599609e+00 1.444271951913833618e-01 -9.967808425426483154e-02 1.342473458498716354e-02 1.548095941543579102e-01
5.276000000000000000e+03 2.488410568237304688e+01 5.545955181121826172e+00 1.584237441420555115e-02 -5.483430996537208557e-02 -1.169758010655641556e-02 1.746739745140075684e-01
5.277000000000000000e+03 2.636130332946777344e+01 4.204258918762207031e+00 -1.925343871116638184e-01 8.566631376743316650e-02 -3.206042200326919556e-02 1.844368875026702881e-01
5.278000000000000000e+03 2.157093429565429688e+01 7.498207092285156250e+00 1.731038391590118408e-01 -1.648852825164794922e-01 2.465565456077456474e-03 1.043088883161544800e-01
5.279000000000000000e+03 2.366837501525878906e+01 5.340971946716308594e+00 -3.190547600388526917e-02 -1.165217161178588867e-01 -4.452815651893615723e-02 1.607758402824401855e-01
5.280000000000000000e+03 2.490643882751464844e+01 6.013793945312500000e+00 7.568771392107009888e-02 -6.546802818775177002e-02 3.065904369577765465e-03 1.676389873027801514e-01
5.281000000000000000e+03 7.568962097167968750e+01 3.022010803222656250e+01 5.578355118632316589e-02 5.042786121368408203e+00 1.529570937156677246e+00 -3.581659197807312012e-01
5.282000000000000000e+03 7.699231719970703125e+01 1.316107845306396484e+01 3.494241535663604736e-01 7.237823486328125000e+00 2.276174306869506836e+00 -9.955675005912780762e-01
5.283000000000000000e+03 7.602804565429687500e+01 3.252164459228515625e+01 6.644370406866073608e-02 4.978906154632568359e+00 1.513604998588562012e+00 -2.639223635196685791e-01
5.284000000000000000e+03 7.537664031982421875e+01 3.239281082153320312e+01 8.774868398904800415e-02 4.836914539337158203e+00 1.477398991584777832e+00 -2.992647290229797363e-01
5.285000000000000000e+03 3.517320632934570312e+01 -4.927568435668945312e+00 -1.858017146587371826e-01 1.836490184068679810e-01 -6.458077696152031422e-04 -2.472573816776275635e-01
5.286000000000000000e+03 7.577616119384765625e+01 2.866103172302246094e+01 2.888296544551849365e-02 5.174551486968994141e+00 1.561030387878417969e+00 -3.838553726673126221e-01
5.287000000000000000e+03 7.624996948242187500e+01 -1.034553527832031250e+01 5.670198798179626465e-01 1.342665100097656250e+01 4.198101043701171875e+00 -1.197072029113769531e+00
5.288000000000000000e+03 3.059493303298950195e+00 3.204847717285156250e+01 6.387248635292053223e-02 -4.669634401798248291e-01 -1.209272891283035278e-01 1.521327644586563110e-01
5.289000000000000000e+03 7.609854125976562500e+01 -2.676447868347167969e+01 5.978412553668022156e-02 7.614370346069335938e+00 2.302246332168579102e+00 2.372598797082901001e-01
5.290000000000000000e+03 7.650990295410156250e+01 -2.898125457763671875e+01 -2.454329133033752441e-01 7.062185764312744141e+00 2.045025825500488281e+00 3.223298788070678711e-01
5.291000000000000000e+03 7.557671356201171875e+01 3.517804336547851562e+01 7.974497228860855103e-02 4.753841876983642578e+00 1.450076103210449219e+00 -2.010040879249572754e-01
5.292000000000000000e+03 7.549781036376953125e+01 3.170074844360351562e+01 7.551284879446029663e-02 4.882917881011962891e+00 1.487529158592224121e+00 -3.188320100307464600e-01
5.293000000000000000e+03 1.797353744506835938e+01 -1.343572711944580078e+01 -1.053625568747520447e-01 1.552570052444934845e-02 -2.695105597376823425e-02 2.048626728355884552e-02
5.294000000000000000e+03 3.444119262695312500e+01 -1.364542293548583984e+01 -5.646701455116271973e-01 -2.721299789845943451e-02 -1.775649338960647583e-01 -1.504736691713333130e-01
5.295000000000000000e+03 3.571691131591796875e+01 -1.227350044250488281e+01 -3.762101233005523682e-01 3.348277807235717773e-01 -1.241470314562320709e-02 -1.185981035232543945e-01
5.296000000000000000e+03 1.456619834899902344e+01 -5.201159954071044922e+00 3.357543144375085831e-03 1.144846994429826736e-02 4.441803786903619766e-03 -1.030009426176548004e-02
5.297000000000000000e+03 4.042575359344482422e+00 -2.545229530334472656e+01 6.522500887513160706e-03 -5.855418369174003601e-02 -1.560950465500354767e-02 7.863576523959636688e-03
5.298000000000000000e+03 3.282770919799804688e+01 -5.154790878295898438e+00 -5.874375253915786743e-02 -8.522481471300125122e-02 -4.319056868553161621e-02 -2.538897991180419922e-01
5.299000000000000000e+03 4.715619277954101562e+01 4.656418800354003906e+00 -1.139372348785400391e+00 -3.635169863700866699e-01 -4.508668184280395508e-01 4.436426162719726562e-01
5.300000000000000000e+03 7.624806976318359375e+01 -3.363008880615234375e+01 2.938939258456230164e-02 6.091012001037597656e+00 1.836120367050170898e+00 4.049211442470550537e-01
5.301000000000000000e+03 3.910668945312500000e+01 1.862175369262695312e+01 3.503384292125701904e-01 -4.474034607410430908e-01 -2.911950647830963135e-02 4.322597980499267578e-01
5.302000000000000000e+03 7.526109313964843750e+01 2.475428009033203125e+01 -9.273867309093475342e-02 5.409646034240722656e+00 1.595072269439697266e+00 -4.544401466846466064e-01
5.303000000000000000e+03 7.482881927490234375e+01 2.262746620178222656e+01 -1.708346456289291382e-01 5.628569602966308594e+00 1.637320399284362793e+00 -4.758658111095428467e-01
5.304000000000000000e+03 7.608730316162109375e+01 2.075503921508789062e+01 -1.065698415040969849e-01 6.163425922393798828e+00 1.817056775093078613e+00 -2.175647616386413574e-01
5.305000000000000000e+03 7.593261718750000000e+01 2.393992614746093750e+01 -1.106677055358886719e-01 5.699181079864501953e+00 1.676553964614868164e+00 -3.580120205879211426e-01
5.306000000000000000e+03 7.688641357421875000e+01 -2.461528396606445312e+01 6.685757637023925781e-01 7.878087043762207031e+00 2.563998699188232422e+00 4.238613247871398926e-01
5.307000000000000000e+03 3.494959115982055664e+00 3.357603073120117188e+01 9.521988034248352051e-02 -4.461726844310760498e-01 -1.052858382463455200e-01 9.284650534391403198e-02
5.308000000000000000e+03 7.612419128417968750e+01 -2.604833221435546875e+01 3.025139570236206055e-01 7.778062343597412109e+00 2.424172878265380859e+00 2.199826240539550781e-01
5.309000000000000000e+03 7.533927917480468750e+01 2.073948860168457031e+01 -1.293048113584518433e-01 6.026548862457275391e+00 1.769173145294189453e+00 -3.267495632171630859e-01
5.310000000000000000e+03 7.666960906982421875e+01 2.630875587463378906e+01 -2.951209433376789093e-02 5.620612144470214844e+00 1.677330017089843750e+00 -3.204830288887023926e-01
5.311000000000000000e+03 7.690856933593750000e+01 -2.382549476623535156e+01 7.687742114067077637e-01 8.036355972290039062e+00 2.641539096832275391e+00 7.210722565650939941e-01
5.312000000000000000e+03 1.200194931030273438e+01 1.923549461364746094e+01 5.264943093061447144e-02 2.017140984535217285e-01 7.630906254053115845e-02 2.756046056747436523e-01
5.313000000000000000e+03 7.674893188476562500e+01 -1.801566505432128906e+01 -8.326037526130676270e-01 9.092401504516601562e+00 2.477939367294311523e+00 1.130033612251281738e+00
5.314000000000000000e+03 7.682831573486328125e+01 -1.724138450622558594e+01 -9.683572053909301758e-01 9.243852615356445312e+00 2.482648611068725586e+00 8.026240468025207520e-01
5.315000000000000000e+03 7.656568908691406250e+01 -1.937457466125488281e+01 -5.153970718383789062e-01 8.717344284057617188e+00 2.460584163665771484e+00 1.580940485000610352e+00
5.316000000000000000e+03 7.538049316406250000e+01 -1.743283122777938843e-01 -1.237380743026733398e+00 8.718900680541992188e+00 2.244456052780151367e+00 -3.308899104595184326e-01
5.317000000000000000e+03 7.671614837646484375e+01 2.232307624816894531e+01 -1.016745716333389282e-01 6.074283599853515625e+00 1.791782617568969727e+00 -2.023056894540786743e-01
5.318000000000000000e+03 7.702459716796875000e+01 -2.153626251220703125e+01 4.342799484729766846e-01 8.536758422851562500e+00 2.691311359405517578e+00 1.452803969383239746e+00
5.319000000000000000e+03 7.407624816894531250e+01 -2.759846496582031250e+01 -2.898770570755004883e-01 6.548512458801269531e+00 1.877590656280517578e+00 1.264408707618713379e+00
5.320000000000000000e+03 7.701527404785156250e+01 1.241833400726318359e+01 2.645489573478698730e-01 7.414834499359130859e+00 2.303815126419067383e+00 -1.112790226936340332e+00
5.321000000000000000e+03 7.552472686767578125e+01 -1.459524512290954590e+00 -1.128178477287292480e+00 9.924831390380859375e+00 2.638995885848999023e+00 -3.857055678963661194e-02
5.322000000000000000e+03 7.691845703125000000e+01 1.396559000015258789e+00 -7.004795670509338379e-01 9.431007385253906250e+00 2.619158267974853516e+00 9.212372452020645142e-02
5.323000000000000000e+03 7.301177215576171875e+01 1.045927166938781738e+00 -9.235808849334716797e-01 4.260395526885986328e+00 1.001044392585754395e+00 -1.280879139900207520e+00
5.324000000000000000e+03 7.447023010253906250e+01 9.034790039062500000e+00 -5.410107970237731934e-01 6.666327953338623047e+00 1.837595224380493164e+00 -1.269609928131103516e+00
5.325000000000000000e+03 7.669659423828125000e+01 1.615266227722167969e+01 3.962989151477813721e-01 6.733525276184082031e+00 2.138947248458862305e+00 -4.028161764144897461e-01
5.326000000000000000e+03 7.554699707031250000e+01 1.501998710632324219e+01 7.559425234794616699e-01 6.785717487335205078e+00 2.262498140335083008e+00 -7.924017906188964844e-01
5.327000000000000000e+03 7.603885650634765625e+01 1.283027362823486328e+01 4.878435134887695312e-01 7.109910964965820312e+00 2.279326200485229492e+00 -1.230991959571838379e+00
5.328000000000000000e+03 7.649117279052734375e+01 1.420758247375488281e+01 5.208474397659301758e-01 6.970347881317138672e+00 2.247358560562133789e+00 -8.648422360420227051e-01
5.329000000000000000e+03 7.711551666259765625e+01 -1.226306152343750000e+01 -7.877128124237060547e-01 1.083600711822509766e+01 3.014488220214843750e+00 -1.622378110885620117e+00
5.330000000000000000e+03 7.606508636474609375e+01 1.838547706604003906e+01 1.325236856937408447e-01 6.466615676879882812e+00 1.979741811752319336e+00 -1.984746456146240234e-01
5.331000000000000000e+03 7.681151580810546875e+01 1.689352226257324219e+01 2.902103364467620850e-01 6.653907299041748047e+00 2.083235263824462891e+00 -2.551576197147369385e-01
5.332000000000000000e+03 7.673741912841796875e+01 4.635930061340332031e+00 -3.610181212425231934e-01 8.586799621582031250e+00 2.467734336853027344e+00 -5.847676396369934082e-01
5.333000000000000000e+03 7.460630035400390625e+01 3.084425210952758789e+00 -6.659160852432250977e-01 6.379916667938232422e+00 1.714200258255004883e+00 -7.748871445655822754e-01
5.334000000000000000e+03 7.696938323974609375e+01 -2.226330757141113281e+01 6.362070441246032715e-01 8.364068984985351562e+00 2.700083017349243164e+00 1.305310845375061035e+00
5.335000000000000000e+03 7.598142242431640625e+01 1.378417491912841797e+01 6.188829541206359863e-01 6.968939304351806641e+00 2.276346683502197266e+00 -1.037812590599060059e+00
5.336000000000000000e+03 7.655899810791015625e+01 2.869515228271484375e+01 1.982310600578784943e-02 5.381809234619140625e+00 1.620489716529846191e+00 -3.162418305873870850e-01
5.337000000000000000e+03 7.786212158203125000e+01 -8.068264961242675781e+00 1.168118834495544434e+00 1.024288845062255859e+01 3.423302173614501953e+00 -5.824819803237915039e-01
5.338000000000000000e+03 7.664356994628906250e+01 9.488398551940917969e+00 -1.448733657598495483e-01 7.883705615997314453e+00 2.321649789810180664e+00 -1.287870287895202637e+00
5.339000000000000000e+03 7.678860473632812500e+01 5.473966598510742188e+00 -3.538395464420318604e-01 8.507200241088867188e+00 2.446008205413818359e+00 -7.144595384597778320e-01
5.340000000000000000e+03 7.567704772949218750e+01 1.087045764923095703e+01 1.081090718507766724e-01 7.281100749969482422e+00 2.216763019561767578e+00 -1.465886831283569336e+00
5.341000000000000000e+03 7.562528991699218750e+01 -1.242180156707763672e+01 -1.402461767196655273e+00 1.076400947570800781e+01 2.808464288711547852e+00 3.242489323019981384e-02
5.342000000000000000e+03 7.616271209716796875e+01 6.351758956909179688e+00 -4.059680402278900146e-01 7.860001564025878906e+00 2.236210107803344727e+00 -8.830199241638183594e-01
5.343000000000000000e+03 7.549523162841796875e+01 -1.401004981994628906e+01 -1.595075726509094238e+00 8.709837913513183594e+00 2.134428739547729492e+00 1.986455172300338745e-01
5.344000000000000000e+03 7.692295074462890625e+01 -1.417617416381835938e+01 -1.167193293571472168e+00 1.002534389495849609e+01 2.657444953918457031e+00 -6.058352589607238770e-01
5.345000000000000000e+03 7.396163177490234375e+01 8.564974784851074219e+00 -7.313231825828552246e-01 6.205589771270751953e+00 1.642279863357543945e+00 -1.089296936988830566e+00
5.346000000000000000e+03 7.630389404296875000e+01 7.794677257537841797e+00 -3.806776702404022217e-01 7.871413230895996094e+00 2.247220516204833984e+00 -1.093994021415710449e+00
5.347000000000000000e+03 7.576092529296875000e+01 -1.168102455139160156e+01 -9.277750253677368164e-01 1.197437858581542969e+01 3.313981294631958008e+00 -4.427215158939361572e-01
5.348000000000000000e+03 7.681816864013671875e+01 1.916517257690429688e+01 2.238651737570762634e-02 6.443048954010009766e+00 1.939630627632141113e+00 -9.699190407991409302e-02
5.349000000000000000e+03 7.597451782226562500e+01 3.737746000289916992e+00 -5.193114280700683594e-01 7.896904945373535156e+00 2.213278055191040039e+00 -5.828327536582946777e-01
5.350000000000000000e+03 7.480271148681640625e+01 -2.760204124450683594e+01 -3.497274816036224365e-01 6.968079090118408203e+00 1.985505461692810059e+00 8.438175916671752930e-01
5.351000000000000000e+03 7.695378875732421875e+01 -2.799831581115722656e+01 -1.439833790063858032e-01 7.378196716308593750e+00 2.170264005661010742e+00 1.145705431699752808e-01
5.352000000000000000e+03 7.691001129150390625e+01 -1.645736885070800781e+01 -1.073920249938964844e+00 9.381560325622558594e+00 2.492291927337646484e+00 4.331478774547576904e-01
5.353000000000000000e+03 4.571305751800537109e+00 -3.048731422424316406e+01 -4.359912127256393433e-02 -1.040235012769699097e-01 -4.428678378462791443e-02 -5.329690501093864441e-02
5.354000000000000000e+03 7.539323425292968750e+01 -3.463322448730468750e+01 1.061373651027679443e-01 5.628527641296386719e+00 1.720399498939514160e+00 4.423731863498687744e-01
5.355000000000000000e+03 7.625131225585937500e+01 -3.275703811645507812e+01 -6.983663421124219894e-03 6.191710472106933594e+00 1.855418086051940918e+00 4.482037127017974854e-01
5.356000000000000000e+03 7.622817230224609375e+01 -1.408256435394287109e+01 -1.420954704284667969e+00 9.608230590820312500e+00 2.456182718276977539e+00 -2.916109561920166016e-01
5.357000000000000000e+03 7.476548004150390625e+01 -1.382951164245605469e+01 -1.422574996948242188e+00 7.643417835235595703e+00 1.866252899169921875e+00 6.890088915824890137e-01
5.358000000000000000e+03 7.596559906005859375e+01 2.472994804382324219e+01 -8.084533363580703735e-02 5.607901573181152344e+00 1.658116936683654785e+00 -3.787000775337219238e-01
5.359000000000000000e+03 3.603213310241699219e+00 7.459403038024902344e+00 -5.438152700662612915e-02 -1.083115767687559128e-02 -1.956380531191825867e-02 3.999244049191474915e-02
5.360000000000000000e+03 3.793517351150512695e+00 -2.156979370117187500e+01 6.151992082595825195e-02 -6.733166426420211792e-02 -1.743523054756224155e-03 -4.668838158249855042e-02
5.361000000000000000e+03 3.188440084457397461e+00 -2.270884132385253906e+01 3.968631476163864136e-02 -7.140090316534042358e-02 -9.514375589787960052e-03 -2.119153365492820740e-02
5.362000000000000000e+03 6.763312339782714844e+00 1.125156593322753906e+01 -7.808018475770950317e-02 -8.918117731809616089e-02 -5.017840862274169922e-02 1.935284584760665894e-01
5.363000000000000000e+03 3.267642974853515625e+00 -2.134222793579101562e+01 4.445223137736320496e-02 -6.865873932838439941e-02 -7.261952850967645645e-03 -5.224969610571861267e-02
5.364000000000000000e+03 3.736132383346557617e+00 -2.259798049926757812e+01 5.826222896575927734e-02 -6.665529310703277588e-02 -2.517919056117534637e-03 -2.339248917996883392e-02
5.365000000000000000e+03 3.733204603195190430e+00 6.735024929046630859e+00 -5.638803914189338684e-02 -5.153915379196405411e-03 -1.846258714795112610e-02 2.427189424633979797e-02
5.366000000000000000e+03 3.282951354980468750e+00 -2.698826599121093750e+01 -1.141049899160861969e-02 -7.449448853731155396e-02 -2.577149681746959686e-02 5.091492552310228348e-03
5.367000000000000000e+03 3.043537855148315430e+00 1.681471252441406250e+01 4.887527599930763245e-02 -2.225504815578460693e-01 -5.210256204009056091e-02 4.257700964808464050e-02
5.368000000000000000e+03 3.596384048461914062e+00 -2.315241050720214844e+01 4.317500442266464233e-02 -6.629532575607299805e-02 -6.936095189303159714e-03 -1.110352855175733566e-02
5.369000000000000000e+03 3.307883024215698242e+00 -1.339366340637207031e+01 -2.080360800027847290e-02 -1.876203529536724091e-02 -1.186969317495822906e-02 -4.600477404892444611e-03
5.370000000000000000e+03 3.716950178146362305e+00 2.431395339965820312e+01 -8.925393223762512207e-02 -3.652472794055938721e-01 -1.363503634929656982e-01 2.843444608151912689e-02
5.371000000000000000e+03 6.862309932708740234e+00 -1.203515338897705078e+01 -5.229398235678672791e-02 -7.671180367469787598e-02 -3.870173543691635132e-02 -3.405363857746124268e-02
5.372000000000000000e+03 7.583323669433593750e+01 2.787500000000000000e+01 1.453960500657558441e-02 5.256364345550537109e+00 1.581271290779113770e+00 -3.891299664974212646e-01
5.373000000000000000e+03 3.798617601394653320e+00 1.928917312622070312e+01 4.780827462673187256e-02 -2.600559890270233154e-01 -6.367430835962295532e-02 -8.759745396673679352e-03
5.374000000000000000e+03 3.859519195556640625e+01 -1.338938999176025391e+01 -7.045761346817016602e-01 6.219390630722045898e-01 -2.479113079607486725e-02 -1.300885975360870361e-01
5.375000000000000000e+03 3.852187395095825195e+00 1.247555065155029297e+01 2.273723250254988670e-03 -1.131812483072280884e-01 -3.327225893735885620e-02 1.404397040605545044e-01
5.376000000000000000e+03 3.210475444793701172e+00 9.734357833862304688e+00 -3.912185132503509521e-02 -4.102651774883270264e-02 -2.404450997710227966e-02 8.886993676424026489e-02
5.377000000000000000e+03 3.914415836334228516e+00 9.080580711364746094e+00 -5.782113969326019287e-02 -3.480593860149383545e-02 -2.778812311589717865e-02 8.681456744670867920e-02
5.378000000000000000e+03 5.948272705078125000e+00 2.224433135986328125e+01 -7.174982875585556030e-02 -3.331665992736816406e-01 -1.214749217033386230e-01 5.591685324907302856e-02
5.379000000000000000e+03 3.152250528335571289e+00 1.929823303222656250e+01 3.887627273797988892e-02 -2.562246024608612061e-01 -6.520449370145797729e-02 -1.634556427597999573e-02
5.380000000000000000e+03 4.937073707580566406e+00 1.891002273559570312e+01 7.901068776845932007e-02 -2.528993189334869385e-01 -5.216659232974052429e-02 1.714748144149780273e-02
5.381000000000000000e+03 3.051386356353759766e+00 1.312222194671630859e+01 1.300435699522495270e-02 -1.332886815071105957e-01 -3.608529642224311829e-02 1.152135282754898071e-01
5.382000000000000000e+03 4.064637660980224609e+00 1.162728023529052734e+01 -2.145759388804435730e-02 -9.048066288232803345e-02 -3.358147665858268738e-02 1.417773365974426270e-01
5.383000000000000000e+03 4.769084453582763672e+00 1.196676158905029297e+01 -1.804771460592746735e-02 -9.790217131376266479e-02 -3.478496521711349487e-02 1.640542745590209961e-01
5.384000000000000000e+03 4.038491249084472656e+00 -2.704953193664550781e+01 -1.874662563204765320e-02 -6.571830809116363525e-02 -2.533948048949241638e-02 -7.413465646095573902e-04
5.385000000000000000e+03 3.416496992111206055e+00 -1.417962837219238281e+01 -2.549421414732933044e-02 -3.118687123060226440e-02 -1.700432598590850830e-02 -1.605811901390552521e-02
5.386000000000000000e+03 3.113614797592163086e+00 2.349698066711425781e+01 -4.820208251476287842e-02 -3.095528185367584229e-01 -1.073264703154563904e-01 -9.371829219162464142e-03
5.387000000000000000e+03 4.930482387542724609e+00 2.363381385803222656e+01 -9.467136859893798828e-02 -3.962578773498535156e-01 -1.472787708044052124e-01 4.975942522287368774e-02
5.388000000000000000e+03 6.227796554565429688e+00 1.712427902221679688e+01 1.482356041669845581e-01 -1.972714215517044067e-01 -1.471074391156435013e-02 9.052615612745285034e-02
5.389000000000000000e+03 4.041794776916503906e+00 -8.772418975830078125e+00 3.460545485722832382e-05 -1.252907048910856247e-02 -3.748339368030428886e-03 1.471746247261762619e-02
5.390000000000000000e+03 4.325262069702148438e+00 2.407357406616210938e+01 -9.566165506839752197e-02 -3.800663948059082031e-01 -1.427184194326400757e-01 3.869241103529930115e-02
5.391000000000000000e+03 4.628385066986083984e+00 -2.941187667846679688e+01 -4.423192143440246582e-02 -8.749474585056304932e-02 -3.951799869537353516e-02 -3.820436447858810425e-02
5.392000000000000000e+03 3.964520692825317383e+00 -1.115472793579101562e+01 -1.158657390624284744e-02 -2.043201215565204620e-02 -9.605576284229755402e-03 8.122437633574008942e-03
5.393000000000000000e+03 5.135252952575683594e+00 -1.190471267700195312e+01 -2.637996524572372437e-02 -5.035724490880966187e-02 -2.302116341888904572e-02 -6.508716847747564316e-03
5.394000000000000000e+03 3.803307294845581055e+00 2.360710906982421875e+01 -6.231920421123504639e-02 -3.418865203857421875e-01 -1.212617158889770508e-01 6.671090144664049149e-03
5.395000000000000000e+03 4.219232082366943359e+00 -3.377016448974609375e+01 -1.938260160386562347e-02 -1.534492671489715576e-01 -5.184956267476081848e-02 -8.643524348735809326e-02
5.396000000000000000e+03 6.687252998352050781e+00 -3.012822723388671875e+01 -7.750178873538970947e-02 -9.504926949739456177e-02 -5.176531895995140076e-02 -7.765747606754302979e-02
5.397000000000000000e+03 3.676766633987426758e+00 1.329084300994873047e+01 2.155483886599540710e-02 -1.379695385694503784e-01 -3.492441028356552124e-02 1.324391365051269531e-01
5.398000000000000000e+03 3.508125782012939453e+00 1.410258483886718750e+01 3.574455156922340393e-02 -1.592497974634170532e-01 -3.705157339572906494e-02 1.169965714216232300e-01
5.399000000000000000e+03 3.586729764938354492e+00 -3.413501358032226562e+01 -1.153009384870529175e-02 -1.631469279527664185e-01 -5.240310728549957275e-02 -7.930535823106765747e-02
5.400000000000000000e+03 9.346862792968750000e+00 -3.242807006835937500e+01 -9.549485146999359131e-02 -1.598282456398010254e-01 -7.659693062305450439e-02 -1.445998400449752808e-01
5.401000000000000000e+03 4.003951072692871094e+00 -2.785025596618652344e+01 -2.630545757710933685e-02 -7.312428951263427734e-02 -2.982892468571662903e-02 -8.079754188656806946e-03
5.402000000000000000e+03 3.944778919219970703e+00 2.189239501953125000e+01 -1.499207783490419388e-02 -3.031578958034515381e-01 -9.544499218463897705e-02 -1.918605528771877289e-02
5.403000000000000000e+03 3.926771402359008789e+00 2.097336769104003906e+01 1.153147686272859573e-02 -2.866237163543701172e-01 -8.252767473459243774e-02 -2.247937768697738647e-02
5.404000000000000000e+03 3.140353918075561523e+00 -7.292513847351074219e+00 1.628389465622603893e-03 2.681525656953454018e-03 1.292974571697413921e-03 1.640808023512363434e-02
5.405000000000000000e+03 6.570353984832763672e+00 1.509354209899902344e+01 1.341657787561416626e-01 -1.542696505784988403e-01 -6.031161639839410782e-03 1.657399982213973999e-01
5.406000000000000000e+03 3.921766042709350586e+00 -8.005782127380371094e+00 6.404020823538303375e-04 -8.608796633780002594e-03 -2.390518551692366600e-03 1.569489575922489166e-02
5.407000000000000000e+03 6.790678405761718750e+01 -2.822862625122070312e+01 2.944686114788055420e-01 1.041727662086486816e+00 4.008588790893554688e-01 -2.353809624910354614e-01
5.408000000000000000e+03 7.596920013427734375e+01 2.551201820373535156e+01 -5.579540506005287170e-02 5.516509532928466797e+00 1.638214230537414551e+00 -3.858911395072937012e-01
5.409000000000000000e+03 4.595633506774902344e+00 -6.556005954742431641e+00 4.992727655917406082e-03 -1.193299982696771622e-02 -2.082081744447350502e-03 1.342747919261455536e-02
5.410000000000000000e+03 4.739247322082519531e+00 -5.867829799652099609e+00 4.936868790537118912e-03 -1.009061094373464584e-02 -1.546122599393129349e-03 1.214011758565902710e-02
5.411000000000000000e+03 4.502569198608398438e+00 3.383479309082031250e+01 1.351515799760818481e-01 -3.501394987106323242e-01 -6.449636816978454590e-02 7.833178341388702393e-02
5.412000000000000000e+03 4.109765529632568359e+00 3.478204345703125000e+01 1.112440600991249084e-01 -3.784396052360534668e-01 -8.015866577625274658e-02 3.799004480242729187e-02
5.413000000000000000e+03 5.962008285522460938e+01 2.047322845458984375e+01 5.816096439957618713e-02 8.434495329856872559e-01 2.704831659793853760e-01 1.543957144021987915e-01
5.414000000000000000e+03 6.107156372070312500e+01 2.016161537170410156e+01 -1.120881587266921997e-01 1.079248189926147461e+00 2.901480197906494141e-01 3.653997182846069336e-01
5.415000000000000000e+03 6.428144073486328125e+01 -1.561522102355957031e+01 4.989648982882499695e-02 1.502900958061218262e+00 4.658392369747161865e-01 1.064732298254966736e-01
5.416000000000000000e+03 6.391882705688476562e+01 -1.514417743682861328e+01 -3.534991443157196045e-01 1.335945963859558105e+00 2.947340607643127441e-01 5.370255094021558762e-03
5.417000000000000000e+03 4.227624893188476562e+00 -3.163753509521484375e+01 -3.465117514133453369e-02 -1.187715306878089905e-01 -4.602681100368499756e-02 -6.336300075054168701e-02
5.418000000000000000e+03 7.553704071044921875e+01 3.303829193115234375e+01 7.905689626932144165e-02 4.854269504547119141e+00 1.479997873306274414e+00 -2.717365920543670654e-01
5.419000000000000000e+03 5.627384567260742188e+01 -1.253415393829345703e+01 -1.348335981369018555e+00 -4.776034951210021973e-01 -5.477818250656127930e-01 -3.962770700454711914e-01
5.420000000000000000e+03 5.437692260742187500e+01 -1.165297508239746094e+01 -1.532817721366882324e+00 -8.679836243391036987e-02 -4.858848452568054199e-01 -4.025645852088928223e-01
5.421000000000000000e+03 3.351787948608398438e+01 1.476865768432617188e+01 -3.668168559670448303e-02 -1.346637308597564697e-01 -5.140362679958343506e-02 4.602251052856445312e-01
5.422000000000000000e+03 4.203919410705566406e+00 3.550806045532226562e+01 9.210596233606338501e-02 -3.719806373119354248e-01 -8.396240323781967163e-02 1.676330715417861938e-02
5.423000000000000000e+03 3.364580631256103516e+00 -3.567905426025390625e+01 -1.983836758881807327e-03 -1.892361044883728027e-01 -5.736598372459411621e-02 -7.977847754955291748e-02
5.424000000000000000e+03 4.981562137603759766e+00 -3.440755462646484375e+01 -1.760268956422805786e-02 -1.621069014072418213e-01 -5.391287803649902344e-02 -1.028493568301200867e-01
5.425000000000000000e+03 7.578186798095703125e+01 -3.054513549804687500e+01 -1.721384972333908081e-01 6.400568962097167969e+00 1.868529081344604492e+00 5.672785043716430664e-01
5.426000000000000000e+03 7.433526611328125000e+01 -2.874742698669433594e+01 -2.959016263484954834e-01 6.213280200958251953e+00 1.775213599205017090e+00 1.076945424079895020e+00
5.427000000000000000e+03 8.806393623352050781e+00 -5.270346164703369141e+00 4.093146417289972305e-03 -2.007422037422657013e-02 -4.794321954250335693e-03 -9.347086772322654724e-03
5.428000000000000000e+03 4.864264297485351562e+01 -5.768122673034667969e+00 -2.963956892490386963e-01 2.349601089954376221e-01 -1.843067817389965057e-02 2.732312679290771484e-01
5.429000000000000000e+03 7.056254386901855469e+00 4.623295783996582031e+00 -8.150704205036163330e-02 -2.812557108700275421e-02 -3.288978338241577148e-02 -1.438356935977935791e-03
5.430000000000000000e+03 5.714038467407226562e+01 2.162732887268066406e+01 1.767955422401428223e-01 4.268937706947326660e-01 1.811067909002304077e-01 -2.449550926685333252e-01
5.431000000000000000e+03 5.611136245727539062e+01 2.163429832458496094e+01 1.773317754268646240e-01 4.673213660717010498e-01 1.933959424495697021e-01 -3.192340731620788574e-01
5.432000000000000000e+03 5.554346847534179688e+01 2.212281227111816406e+01 1.774545162916183472e-01 4.751539230346679688e-01 1.957825273275375366e-01 -3.258568644523620605e-01
5.433000000000000000e+03 5.573897171020507812e+01 2.013882446289062500e+01 2.119403332471847534e-01 4.896862804889678955e-01 2.104879766702651978e-01 -3.385176658630371094e-01
5.434000000000000000e+03 3.661856460571289062e+01 1.975258636474609375e+01 2.987644076347351074e-01 -6.236035823822021484e-01 -9.745174646377563477e-02 5.003185272216796875e-01
5.435000000000000000e+03 3.583479309082031250e+01 1.830961990356445312e+01 3.561342358589172363e-01 -6.352789402008056641e-01 -8.374341577291488647e-02 5.490927100181579590e-01
5.436000000000000000e+03 4.270156097412109375e+01 -2.502170562744140625e+01 3.115678438916802406e-03 -4.248997196555137634e-03 -3.399956331122666597e-04 -3.736429512500762939e-01
5.437000000000000000e+03 6.235556125640869141e+00 5.451126098632812500e+00 -9.237985312938690186e-02 -2.303986251354217529e-02 -3.462591394782066345e-02 8.781846612691879272e-03
5.438000000000000000e+03 1.164650726318359375e+01 -4.157767772674560547e+00 2.567034913226962090e-03 -7.445774506777524948e-03 -1.463621854782104492e-03 -1.710829511284828186e-02
5.439000000000000000e+03 1.220319652557373047e+01 -4.934617996215820312e+00 -7.997769862413406372e-04 -6.500972434878349304e-03 -2.190224826335906982e-03 -1.905714161694049835e-02
5.440000000000000000e+03 4.162696456909179688e+01 -1.838180923461914062e+01 6.968211382627487183e-02 -5.289771407842636108e-02 5.035320762544870377e-03 -4.338821470737457275e-01
5.441000000000000000e+03 6.562073516845703125e+01 2.236884498596191406e+01 2.322520762681961060e-01 8.296707868576049805e-01 3.185768425464630127e-01 -1.991838663816452026e-01
5.442000000000000000e+03 6.563594055175781250e+01 2.572388648986816406e+01 5.427791476249694824e-01 1.902750015258789062e+00 7.336587905883789062e-01 -2.072369009256362915e-01
5.443000000000000000e+03 6.557113170623779297e+00 6.446125507354736328e+00 -1.253727078437805176e-01 -3.504342958331108093e-02 -4.812483862042427063e-02 3.730485588312149048e-02
5.444000000000000000e+03 2.206930160522460938e+01 2.853971290588378906e+01 1.550440043210983276e-01 -6.509685516357421875e-02 2.698414586484432220e-02 2.339226156473159790e-01
5.445000000000000000e+03 4.473104476928710938e+00 5.724062442779541016e+00 -5.644620582461357117e-02 -5.390384700149297714e-03 -1.855097711086273193e-02 4.210609011352062225e-03
5.446000000000000000e+03 6.979590892791748047e+00 -6.482699394226074219e+00 4.914699122309684753e-03 -2.613872103393077850e-02 -6.367206573486328125e-03 4.070482391398400068e-04
5.447000000000000000e+03 6.220591354370117188e+01 -2.477425956726074219e+01 1.709827631711959839e-01 9.007546305656433105e-01 3.215212225914001465e-01 6.065197288990020752e-02
5.448000000000000000e+03 2.418560600280761719e+01 -2.597447395324707031e+01 2.650220096111297607e-01 -9.942911565303802490e-02 4.967786744236946106e-02 -1.028406918048858643e-01
5.449000000000000000e+03 2.437096214294433594e+01 -2.746957206726074219e+01 3.078961074352264404e-01 -1.127962321043014526e-01 5.852996185421943665e-02 -1.195958033204078674e-01
5.450000000000000000e+03 4.788287353515625000e+01 -1.347384166717529297e+01 -8.303568363189697266e-01 4.938026145100593567e-02 -2.342929691076278687e-01 -3.824003636837005615e-01
5.451000000000000000e+03 7.506771087646484375e+01 3.425208282470703125e+01 9.977820515632629395e-02 4.686529159545898438e+00 1.435892224311828613e+00 -2.423325777053833008e-01
5.452000000000000000e+03 1.381471633911132812e+01 2.050402259826660156e+01 -9.477167390286922455e-03 1.544091254472732544e-01 4.347958788275718689e-02 3.964046239852905273e-01
5.453000000000000000e+03 4.982697010040283203e+00 -1.401152515411376953e+01 -4.692764580249786377e-02 -7.540526241064071655e-02 -3.669987246394157410e-02 -3.242927044630050659e-02
5.454000000000000000e+03 4.012459754943847656e+00 -1.322894287109375000e+01 -2.398774772882461548e-02 -4.096861183643341064e-02 -1.948690786957740784e-02 -1.054473314434289932e-02
5.455000000000000000e+03 1.747435569763183594e+01 -2.034888267517089844e+01 -2.521256804466247559e-01 -6.789816915988922119e-02 -9.600715339183807373e-02 -2.884911298751831055e-01
5.456000000000000000e+03 1.849477767944335938e+01 -1.883308029174804688e+01 -1.894188374280929565e-01 -4.015976190567016602e-02 -6.887358427047729492e-02 -3.059687614440917969e-01
5.457000000000000000e+03 5.217063140869140625e+01 2.012922859191894531e+01 2.509497106075286865e-01 2.908723950386047363e-01 1.625466346740722656e-01 -1.542679220438003540e-01
5.458000000000000000e+03 5.281144332885742188e+01 2.229839134216308594e+01 2.137205451726913452e-01 5.223273634910583496e-01 2.208143621683120728e-01 -1.376699358224868774e-01
5.459000000000000000e+03 2.079348754882812500e+01 6.406291007995605469e+00 6.594081223011016846e-02 -1.223881393671035767e-01 -1.693419925868511200e-02 9.943443536758422852e-02
5.460000000000000000e+03 7.341020202636718750e+01 2.317432212829589844e+01 -1.743478477001190186e-01 5.065067291259765625e+00 1.467215776443481445e+00 -7.286539673805236816e-01
5.461000000000000000e+03 4.967051696777343750e+01 3.143471908569335938e+01 2.513552010059356689e-01 6.722679138183593750e-01 2.770869433879852295e-01 3.980964422225952148e-02
5.462000000000000000e+03 2.661466026306152344e+01 6.639166355133056641e+00 1.685687005519866943e-01 1.483632922172546387e-01 9.507960081100463867e-02 1.687458157539367676e-01
5.463000000000000000e+03 8.109260559082031250e+00 5.554184913635253906e+00 -1.396931409835815430e-01 -6.119800731539726257e-02 -6.026734411716461182e-02 3.015844523906707764e-02
5.464000000000000000e+03 3.184352493286132812e+01 2.866232109069824219e+01 -1.217546537518501282e-01 -6.013330221176147461e-01 -2.169263064861297607e-01 2.925508916378021240e-01
5.465000000000000000e+03 3.183066940307617188e+01 3.037672805786132812e+01 1.237848550081253052e-01 -5.067418813705444336e-01 -1.148871108889579773e-01 2.631652355194091797e-01
5.466000000000000000e+03 2.743056869506835938e+01 1.286990928649902344e+01 -4.130269214510917664e-02 1.172267645597457886e-01 2.277722209692001343e-02 2.209403067827224731e-01
5.467000000000000000e+03 4.494236755371093750e+01 5.173114776611328125e+00 -9.290814399719238281e-01 -2.600980103015899658e-01 -3.567538261413574219e-01 3.404738008975982666e-01
5.468000000000000000e+03 3.227797317504882812e+01 -8.405752182006835938e+00 -5.751336365938186646e-02 -2.263023555278778076e-01 -8.514471352100372314e-02 -2.206484824419021606e-01
5.469000000000000000e+03 3.449674224853515625e+01 -9.653149604797363281e+00 2.919614315032958984e-02 7.704067230224609375e-02 3.187104314565658569e-02 -1.619097441434860229e-01
5.470000000000000000e+03 5.761563110351562500e+01 -2.284901809692382812e+01 2.098316848278045654e-01 2.867504358291625977e-01 1.489746421575546265e-01 2.421274483203887939e-01
5.471000000000000000e+03 5.708006668090820312e+01 -2.423309135437011719e+01 1.361603140830993652e-01 3.164996206760406494e-01 1.357979774475097656e-01 3.141598701477050781e-01
5.472000000000000000e+03 2.642627143859863281e+01 1.117777824401855469e+01 1.513637900352478027e-01 4.896866530179977417e-02 6.009973585605621338e-02 1.219278573989868164e-01
5.473000000000000000e+03 2.720360565185546875e+01 7.089253425598144531e+00 2.083541899919509888e-01 2.714461088180541992e-01 1.439400911331176758e-01 1.291614770889282227e-01
5.474000000000000000e+03 6.365837478637695312e+01 -1.125240612030029297e+01 -1.961943626403808594e+00 8.419069051742553711e-01 -3.360110223293304443e-01 2.526802122592926025e-01
5.475000000000000000e+03 5.060149765014648438e+01 -1.358386993408203125e+01 -8.299332857131958008e-01 9.727799147367477417e-02 -2.197965830564498901e-01 -7.035906314849853516e-01
5.476000000000000000e+03 9.491239547729492188e+00 2.034912109375000000e+01 1.015918795019388199e-02 -7.586708664894104004e-02 -1.971236802637577057e-02 1.540591418743133545e-01
5.477000000000000000e+03 5.556719589233398438e+01 -1.276943588256835938e+01 -1.233459830284118652e+00 -3.145748972892761230e-01 -4.644104242324829102e-01 -4.801120162010192871e-01
5.478000000000000000e+03 5.514302444458007812e+01 -1.373757648468017578e+01 -8.222125172615051270e-01 -1.239390149712562561e-01 -2.838454544544219971e-01 -5.111675262451171875e-01
5.479000000000000000e+03 5.695635986328125000e+01 -2.567821121215820312e+01 1.653997302055358887e-01 4.282400012016296387e-01 1.780919283628463745e-01 3.308278918266296387e-01
5.480000000000000000e+03 2.823227882385253906e+01 1.104256153106689453e+01 1.386139392852783203e-01 3.789282441139221191e-01 1.552626639604568481e-01 1.824562400579452515e-01
5.481000000000000000e+03 6.515814208984375000e+01 4.001380920410156250e+00 -5.651885271072387695e-01 4.357568323612213135e-01 -3.882951661944389343e-02 -6.444764137268066406e-01
5.482000000000000000e+03 6.486333465576171875e+01 2.267888307571411133e+00 -9.866881370544433594e-01 3.928329944610595703e-01 -1.781565397977828979e-01 -3.159260451793670654e-01
5.483000000000000000e+03 1.048527812957763672e+01 -4.852393627166748047e+00 4.237487446516752243e-03 -1.273380592465400696e-02 -2.548895543441176414e-03 -1.578934490680694580e-02
5.484000000000000000e+03 4.251837539672851562e+01 1.653697395324707031e+01 2.194240540266036987e-01 8.501821011304855347e-02 9.133268147706985474e-02 2.258008867502212524e-01
5.485000000000000000e+03 6.054771041870117188e+01 4.495698928833007812e+00 -7.699497342109680176e-01 5.011550188064575195e-01 -8.063840121030807495e-02 -2.642266154289245605e-01
5.486000000000000000e+03 5.820956802368164062e+01 -2.176348304748535156e+01 3.368253409862518311e-01 2.945317029953002930e-01 1.894071102142333984e-01 1.399716585874557495e-01
5.487000000000000000e+03 6.869187927246093750e+01 -2.722500991821289062e+01 -2.382620573043823242e-01 3.389336764812469482e-01 3.020147979259490967e-02 -4.854734987020492554e-03
5.488000000000000000e+03 4.854524230957031250e+01 -1.450882244110107422e+01 -8.500309586524963379e-01 -1.151147559285163879e-01 -2.895437180995941162e-01 -4.396206438541412354e-01
5.489000000000000000e+03 6.819581604003906250e+01 2.217657089233398438e+01 1.398811638355255127e-01 2.120076417922973633e+00 6.779872775077819824e-01 -1.102487444877624512e+00
5.490000000000000000e+03 6.541722106933593750e+01 4.648500442504882812e+00 -3.768025338649749756e-01 4.188428521156311035e-01 1.261209510266780853e-02 -7.895023822784423828e-01
5.491000000000000000e+03 3.693968963623046875e+01 1.507648563385009766e+01 2.765798568725585938e-02 -7.897418737411499023e-01 -2.286251634359359741e-01 4.782925248146057129e-01
5.492000000000000000e+03 7.854582309722900391e+00 1.601749038696289062e+01 2.038542777299880981e-01 -1.061918288469314575e-01 2.929873578250408173e-02 1.503221243619918823e-01
5.493000000000000000e+03 7.583177089691162109e+00 1.744242286682128906e+01 1.866721212863922119e-01 -1.436259746551513672e-01 1.291384734213352203e-02 1.018983125686645508e-01
5.494000000000000000e+03 2.241314506530761719e+01 -1.638329124450683594e+01 -3.172943890094757080e-01 -1.237473860383033752e-01 -1.323125362396240234e-01 -1.873902082443237305e-01
5.495000000000000000e+03 6.373621749877929688e+01 1.881274104118347168e+00 -1.280092000961303711e+00 5.433539152145385742e-01 -2.210214436054229736e-01 -1.919052153825759888e-01
5.496000000000000000e+03 5.803218841552734375e+01 3.856915712356567383e+00 -1.064418077468872070e+00 -7.757895439863204956e-02 -3.425991237163543701e-01 3.396713733673095703e-02
5.497000000000000000e+03 5.929633712768554688e+01 7.038755416870117188e+00 1.692766994237899780e-01 6.137665510177612305e-01 2.349129766225814819e-01 -2.672578766942024231e-02
5.498000000000000000e+03 4.857938766479492188e+01 2.430316352844238281e+01 3.511841893196105957e-01 4.563794136047363281e-01 2.422690838575363159e-01 2.797829508781433105e-01
5.499000000000000000e+03 2.592642593383789062e+01 -1.504756546020507812e+01 -4.726810157299041748e-01 -1.895819902420043945e-01 -1.986788958311080933e-01 -1.827555894851684570e-01
5.500000000000000000e+03 2.753903770446777344e+01 -1.583162307739257812e+01 -4.017711281776428223e-01 -2.271803766489028931e-01 -1.886854469776153564e-01 -1.767562776803970337e-01
5.501000000000000000e+03 5.720181274414062500e+01 6.771922588348388672e+00 2.615853548049926758e-01 1.717755347490310669e-01 1.300082653760910034e-01 2.508341670036315918e-01
5.502000000000000000e+03 8.874619483947753906e+00 -1.043048095703125000e+01 -3.778200596570968628e-02 -5.741739273071289062e-02 -2.855981886386871338e-02 -2.706389687955379486e-02
5.503000000000000000e+03 5.077935028076171875e+01 -9.560225486755371094e+00 -5.767608284950256348e-01 4.382694140076637268e-02 -1.598801761865615845e-01 -1.296689361333847046e-01
5.504000000000000000e+03 3.228289031982421875e+01 2.912018585205078125e+01 -5.009094998240470886e-02 -5.403618216514587402e-01 -1.771358400583267212e-01 2.656003236770629883e-01
5.505000000000000000e+03 3.320073318481445312e+01 3.016633796691894531e+01 1.083064004778862000e-01 -4.126669168472290039e-01 -9.130815416574478149e-02 2.030645161867141724e-01
5.506000000000000000e+03 1.233646202087402344e+01 -2.686763000488281250e+01 -3.706873953342437744e-02 -2.551801204681396484e-01 -8.767465502023696899e-02 -1.535022705793380737e-01
5.507000000000000000e+03 1.273339843750000000e+01 -2.625697517395019531e+01 -1.102963183075189590e-02 -2.734957933425903320e-01 -8.535762876272201538e-02 -1.640562713146209717e-01
5.508000000000000000e+03 7.186729431152343750e+01 1.935782432556152344e+01 -4.198351129889488220e-02 5.235084533691406250e+00 1.557930231094360352e+00 -1.166926145553588867e+00
5.509000000000000000e+03 7.196782684326171875e+01 2.035595512390136719e+01 -1.827326864004135132e-01 5.011126518249511719e+00 1.448518157005310059e+00 -1.074994087219238281e+00
5.510000000000000000e+03 2.818983078002929688e+01 -2.708094215393066406e+01 2.832694947719573975e-01 -1.147952973842620850e-01 5.054225400090217590e-02 -1.389968246221542358e-01
5.511000000000000000e+03 2.702807617187500000e+01 -3.013729476928710938e+01 1.621267646551132202e-01 -1.633869409561157227e-01 -3.780497936531901360e-04 -1.463215947151184082e-01
5.512000000000000000e+03 7.534410858154296875e+01 -3.365220642089843750e+01 7.289461046457290649e-02 5.698521614074707031e+00 1.731424808502197266e+00 5.148828029632568359e-01
5.513000000000000000e+03 5.709416580200195312e+01 1.258320426940917969e+01 2.729308307170867920e-01 8.028914332389831543e-01 3.227466642856597900e-01 -9.571202844381332397e-02
5.514000000000000000e+03 1.426793766021728516e+01 -2.571314430236816406e+01 3.056354075670242310e-02 -3.246369659900665283e-01 -8.822202682495117188e-02 -1.940086483955383301e-01
5.515000000000000000e+03 3.415209579467773438e+01 1.894071006774902344e+01 2.830053269863128662e-01 -4.434494674205780029e-01 -4.813323915004730225e-02 5.387796163558959961e-01
5.516000000000000000e+03 4.236730194091796875e+01 -1.897792434692382812e+01 8.619020879268646240e-02 -1.251274049282073975e-01 -1.168116182088851929e-02 -5.156598091125488281e-01
5.517000000000000000e+03 7.551342010498046875e+01 -2.445707130432128906e+01 1.236968874931335449e+00 8.129071235656738281e+00 2.809812068939208984e+00 6.949210166931152344e-01
5.518000000000000000e+03 4.704328918457031250e+01 -1.584301948547363281e+01 -8.963859081268310547e-01 -2.641082704067230225e-01 -3.481482565402984619e-01 -1.601987481117248535e-01
5.519000000000000000e+03 6.246132659912109375e+01 2.285747718811035156e+01 1.661620736122131348e-01 9.587005376815795898e-01 3.374587595462799072e-01 5.790081620216369629e-01
5.520000000000000000e+03 6.238738632202148438e+01 2.219406509399414062e+01 1.677072234451770782e-02 9.186244010925292969e-01 2.806185483932495117e-01 6.063945293426513672e-01
5.521000000000000000e+03 1.721654510498046875e+01 -1.438331031799316406e+01 -6.389091163873672485e-02 5.570229515433311462e-02 -2.456584712490439415e-03 -2.449992299079895020e-02
5.522000000000000000e+03 4.872386455535888672e+00 3.275700759887695312e+01 1.455521136522293091e-01 -3.183915615081787109e-01 -5.185183137655258179e-02 1.230067014694213867e-01
5.523000000000000000e+03 5.173325538635253906e+00 3.350834655761718750e+01 1.729026436805725098e-01 -2.816045880317687988e-01 -3.261058405041694641e-02 8.762427419424057007e-02
5.524000000000000000e+03 4.277367401123046875e+01 6.218220233917236328e+00 -6.231861710548400879e-01 -2.990470230579376221e-01 -2.766699790954589844e-01 4.317433536052703857e-01
5.525000000000000000e+03 6.373385238647460938e+01 -1.600452804565429688e+01 2.385881394147872925e-01 1.403152823448181152e+00 4.925222992897033691e-01 1.804600469768047333e-02
5.526000000000000000e+03 6.214199066162109375e+01 -1.785458374023437500e+01 7.627665996551513672e-01 9.978881478309631348e-01 5.281963944435119629e-01 1.357060670852661133e-01
5.527000000000000000e+03 4.175531768798828125e+01 -1.912290382385253906e+01 1.569198071956634521e-01 -8.605232089757919312e-02 2.126024663448333740e-02 -5.161642432212829590e-01
5.528000000000000000e+03 4.197914505004882812e+01 -1.979630851745605469e+01 1.989284604787826538e-01 -1.147615686058998108e-01 2.525006793439388275e-02 -5.802725553512573242e-01
5.529000000000000000e+03 7.056036376953125000e+01 -2.802427673339843750e+01 4.305145442485809326e-01 1.715202450752258301e+00 6.437150835990905762e-01 1.405921936035156250e+00
5.530000000000000000e+03 6.923235321044921875e+01 3.054197072982788086e+00 -3.524781391024589539e-02 2.343802303075790405e-01 5.973972380161285400e-02 -4.570594131946563721e-01
5.531000000000000000e+03 1.481833457946777344e+01 -2.438651084899902344e+01 1.767248287796974182e-02 -3.200811147689819336e-01 -9.072259068489074707e-02 -2.182366549968719482e-01
5.532000000000000000e+03 6.825431060791015625e+01 4.270253658294677734e+00 2.403666451573371887e-02 -4.559916630387306213e-02 -6.468750536441802979e-03 -5.858902335166931152e-01
5.533000000000000000e+03 2.719018363952636719e+01 -2.585168838500976562e+01 2.651300728321075439e-01 -1.532841175794601440e-01 3.355378657579421997e-02 -1.359646767377853394e-01
5.534000000000000000e+03 2.787841033935546875e+01 -2.605514335632324219e+01 2.722523808479309082e-01 -1.248795390129089355e-01 4.421184957027435303e-02 -1.348890960216522217e-01
5.535000000000000000e+03 5.640605163574218750e+01 1.476178359985351562e+01 2.442944347858428955e-01 6.111304759979248047e-01 2.566274702548980713e-01 -2.758494913578033447e-01
5.536000000000000000e+03 5.711129379272460938e+01 1.330501270294189453e+01 2.769788801670074463e-01 8.335760235786437988e-01 3.331664800643920898e-01 -1.854366660118103027e-01
5.537000000000000000e+03 4.374239730834960938e+01 1.990479660034179688e+01 3.862687945365905762e-01 3.595365285873413086e-01 2.237415909767150879e-01 1.998035907745361328e-01
5.538000000000000000e+03 7.625334930419921875e+01 7.092712402343750000e+00 -3.912176191806793213e-01 7.885002613067626953e+00 2.248135328292846680e+00 -9.929248094558715820e-01
5.539000000000000000e+03 6.607598114013671875e+01 2.699979400634765625e+01 4.870255291461944580e-01 2.249596834182739258e+00 8.209866881370544434e-01 -2.722722887992858887e-01
5.540000000000000000e+03 6.587886810302734375e+01 2.628473281860351562e+01 5.195276141166687012e-01 2.076229095458984375e+00 7.787269949913024902e-01 -2.350533604621887207e-01
5.541000000000000000e+03 2.877413034439086914e+00 -4.602551937103271484e+00 3.172349417582154274e-03 4.610906355082988739e-03 2.334976801648736000e-03 1.224070042371749878e-02
5.542000000000000000e+03 3.321123600006103516e+00 -5.436017513275146484e+00 3.826227039098739624e-03 1.925876014865934849e-03 1.725630951113998890e-03 1.406447216868400574e-02
5.543000000000000000e+03 1.102432155609130859e+01 -4.339760303497314453e+00 2.657450269907712936e-03 -1.138503756374120712e-02 -2.618276281282305717e-03 -1.700860448181629181e-02
5.544000000000000000e+03 4.310917282104492188e+01 -1.958530998229980469e+01 7.358667999505996704e-02 -1.592260450124740601e-01 -2.569180727005004883e-02 -5.657517910003662109e-01
5.545000000000000000e+03 4.425640869140625000e+01 -2.028956031799316406e+01 9.527536481618881226e-02 -1.351805180311203003e-01 -1.197154726833105087e-02 -5.925940275192260742e-01
5.546000000000000000e+03 7.370500183105468750e+01 1.665924263000488281e+01 7.863339781761169434e-01 6.635197162628173828e+00 2.226459264755249023e+00 -6.803481578826904297e-01
5.547000000000000000e+03 7.373539733886718750e+01 1.495291900634765625e+01 1.259602427482604980e+00 7.025308132171630859e+00 2.485473155975341797e+00 -1.066880464553833008e+00
5.548000000000000000e+03 7.545533752441406250e+01 -1.865173339843750000e+01 -1.052152872085571289e+00 8.089846611022949219e+00 2.111308097839355469e+00 1.402066588401794434e+00
5.549000000000000000e+03 1.741271018981933594e+01 2.071769714355468750e+01 -4.202534630894660950e-02 2.703115344047546387e-02 -4.498258233070373535e-03 1.291598081588745117e-01
5.550000000000000000e+03 1.694696617126464844e+01 2.104583549499511719e+01 4.502615332603454590e-02 7.858182489871978760e-02 3.708239272236824036e-02 2.038054317235946655e-01
5.551000000000000000e+03 4.470238494873046875e+01 2.131229591369628906e+01 4.834860563278198242e-01 4.156677424907684326e-01 2.697461545467376709e-01 2.363476902246475220e-01
5.552000000000000000e+03 2.860069847106933594e+01 -3.545539855957031250e+01 6.442078202962875366e-02 -1.759570986032485962e-01 -3.346089273691177368e-02 -8.645419776439666748e-02
5.553000000000000000e+03 2.620305442810058594e+01 -1.561363029479980469e+01 -4.229541420936584473e-01 -1.989966630935668945e-01 -1.865852326154708862e-01 -1.762041300535202026e-01
5.554000000000000000e+03 4.979311370849609375e+01 -1.234067726135253906e+01 -7.689992189407348633e-01 1.743934154510498047e-01 -1.783817410469055176e-01 -5.952064990997314453e-01
5.555000000000000000e+03 5.432580947875976562e+01 1.919401550292968750e+01 2.282065749168395996e-01 3.664038479328155518e-01 1.783831268548965454e-01 -3.016234338283538818e-01
5.556000000000000000e+03 3.335407257080078125e+01 -5.605321407318115234e+00 -6.273535639047622681e-02 -4.282321035861968994e-02 -3.166756778955459595e-02 -2.734326720237731934e-01
5.557000000000000000e+03 4.335875701904296875e+01 -1.768810462951660156e+01 -2.418027222156524658e-01 -1.668111234903335571e-01 -1.225841492414474487e-01 -3.551685214042663574e-01
5.558000000000000000e+03 7.335743713378906250e+01 -1.437519073486328125e+01 -1.150708675384521484e+00 4.593259811401367188e+00 1.032765388488769531e+00 1.000269532203674316e+00
5.559000000000000000e+03 8.627414703369140625e+00 -2.565611267089843750e+01 -3.254849463701248169e-02 -3.107764571905136108e-02 -1.908784173429012299e-02 -7.251647859811782837e-02
5.560000000000000000e+03 5.644968032836914062e+01 5.007972717285156250e+00 -4.429275989532470703e-01 8.071775548160076141e-03 -1.304567456245422363e-01 2.152341753244400024e-01
5.561000000000000000e+03 5.724797439575195312e+01 4.557575225830078125e+00 -7.011544108390808105e-01 -4.976779222488403320e-02 -2.252766638994216919e-01 1.307997852563858032e-01
5.562000000000000000e+03 4.987815093994140625e+01 -9.264543533325195312e+00 -3.509628176689147949e-01 1.350495815277099609e-01 -6.477396935224533081e-02 -9.565912187099456787e-02
5.563000000000000000e+03 5.102967834472656250e+01 -9.028574943542480469e+00 -5.891806483268737793e-01 -1.582151651382446289e-02 -1.815006434917449951e-01 -9.047982282936573029e-03
5.564000000000000000e+03 2.600557518005371094e+01 -2.214288330078125000e+01 8.816017769277095795e-03 -1.448501646518707275e-01 -4.081024229526519775e-02 -1.494317203760147095e-01
5.565000000000000000e+03 2.525553321838378906e+01 -2.211827850341796875e+01 7.325809565372765064e-05 -1.181469485163688660e-01 -3.542210906744003296e-02 -1.514442563056945801e-01
5.566000000000000000e+03 4.975286102294921875e+01 -1.077084255218505859e+01 -5.209779143333435059e-01 1.856649518013000488e-01 -1.005938872694969177e-01 -4.161356985569000244e-01
5.567000000000000000e+03 5.232614517211914062e+01 2.487383842468261719e+01 2.317489236593246460e-01 7.745169997215270996e-01 3.018797934055328369e-01 2.079660259187221527e-02
5.568000000000000000e+03 3.331229400634765625e+01 1.656078147888183594e+01 3.658666312694549561e-01 -1.979541778564453125e-01 5.037373304367065430e-02 5.082727670669555664e-01
5.569000000000000000e+03 1.813161087036132812e+01 -2.501750564575195312e+01 1.131573244929313660e-01 -4.825171083211898804e-02 1.947168447077274323e-02 -2.478785514831542969e-01
5.570000000000000000e+03 1.872995185852050781e+01 -1.669331741333007812e+01 -1.268464177846908569e-01 -4.312775284051895142e-02 -5.099225044250488281e-02 -2.104236483573913574e-01
5.571000000000000000e+03 1.840430831909179688e+01 -1.621454048156738281e+01 -1.085353195667266846e-01 -2.528045885264873505e-02 -4.014473408460617065e-02 -1.664727330207824707e-01
5.572000000000000000e+03 4.267500686645507812e+01 1.898050498962402344e+01 3.218240439891815186e-01 1.881195306777954102e-01 1.529830694198608398e-01 2.300959527492523193e-01
5.573000000000000000e+03 5.501944732666015625e+01 1.862155342102050781e+01 2.290162444114685059e-01 4.184675514698028564e-01 1.942451298236846924e-01 -3.265029489994049072e-01
5.574000000000000000e+03 5.129125595092773438e+01 -3.498872375488281250e+01 2.367938458919525146e-01 4.611341059207916260e-01 2.093783915042877197e-01 -1.220625825226306915e-02
5.575000000000000000e+03 5.218766021728515625e+01 -3.506727981567382812e+01 3.246473073959350586e-01 5.590269565582275391e-01 2.651022970676422119e-01 -4.251527786254882812e-02
5.576000000000000000e+03 6.103181457519531250e+01 -1.923332786560058594e+01 7.547075152397155762e-01 7.080451250076293945e-01 4.388257861137390137e-01 9.186901897192001343e-02
5.577000000000000000e+03 6.174517059326171875e+01 -1.892801475524902344e+01 7.787256836891174316e-01 9.639990925788879395e-01 5.228174328804016113e-01 1.628478765487670898e-01
5.578000000000000000e+03 2.289765167236328125e+01 6.224047660827636719e+00 7.106976211071014404e-02 -1.529366970062255859e-01 -2.456008084118366241e-02 1.318778395652770996e-01
5.579000000000000000e+03 6.191003036499023438e+01 -2.256432533264160156e+01 5.572953224182128906e-01 1.124494314193725586e+00 5.045369267463684082e-01 2.168852239847183228e-01
5.580000000000000000e+03 1.898643493652343750e+01 -1.610989379882812500e+01 -1.553591042757034302e-01 -3.973592817783355713e-02 -5.852850899100303650e-02 -1.734599620103836060e-01
5.581000000000000000e+03 7.401129150390625000e+01 9.611321449279785156e+00 -4.726902544498443604e-01 6.465431213378906250e+00 1.797822237014770508e+00 -1.302066922187805176e+00
5.582000000000000000e+03 7.532733440399169922e+00 7.875608921051025391e+00 -1.791779845952987671e-01 -7.610648125410079956e-02 -7.658533751964569092e-02 9.030745923519134521e-02
5.583000000000000000e+03 2.348808479309082031e+01 1.395632839202880859e+01 -1.357021331787109375e-01 -1.900006532669067383e-01 -9.771084040403366089e-02 5.723332986235618591e-02
5.584000000000000000e+03 4.320172119140625000e+01 1.001824283599853516e+01 -6.816346049308776855e-01 -1.383360624313354492e-01 -2.459912002086639404e-01 6.709502935409545898e-01
5.585000000000000000e+03 7.332249450683593750e+01 -2.815379905700683594e+01 -2.491128742694854736e-01 5.517675399780273438e+00 1.580568790435791016e+00 1.637402534484863281e+00
5.586000000000000000e+03 8.836652755737304688e+00 1.840834236145019531e+01 1.570949107408523560e-01 -5.899696424603462219e-02 2.942938357591629028e-02 1.068908721208572388e-01
5.587000000000000000e+03 9.018053054809570312e+00 1.766991233825683594e+01 2.148202061653137207e-01 -2.274795994162559509e-02 5.762167274951934814e-02 1.193859204649925232e-01
5.588000000000000000e+03 4.359616088867187500e+01 8.676349639892578125e+00 -8.093981146812438965e-01 -2.347678691148757935e-01 -3.132497966289520264e-01 6.536347270011901855e-01
5.589000000000000000e+03 1.386866474151611328e+01 -2.489199066162109375e+01 1.886087283492088318e-02 -3.072977960109710693e-01 -8.653108030557632446e-02 -2.068387717008590698e-01
5.590000000000000000e+03 4.471366119384765625e+01 -1.755373191833496094e+01 -4.495476186275482178e-01 -1.751723736524581909e-01 -1.874160021543502808e-01 -3.212063014507293701e-01
5.591000000000000000e+03 4.491570663452148438e+01 -1.693468093872070312e+01 -5.911616086959838867e-01 -1.753633022308349609e-01 -2.299574762582778931e-01 -2.257621139287948608e-01
5.592000000000000000e+03 5.842675399780273438e+01 8.811889648437500000e+00 5.200588703155517578e-01 6.966328024864196777e-01 3.650075197219848633e-01 1.596702933311462402e-01
5.593000000000000000e+03 5.715309143066406250e+01 8.269192695617675781e+00 4.858396947383880615e-01 3.725610375404357910e-01 2.575202286243438721e-01 3.695341646671295166e-01
5.594000000000000000e+03 7.622466278076171875e+01 2.091542482376098633e+00 -7.085722684860229492e-01 8.508139610290527344e+00 2.339869976043701172e+00 -3.168745338916778564e-01
5.595000000000000000e+03 3.510242080688476562e+01 2.057366180419921875e+01 1.486418396234512329e-01 -5.677856206893920898e-01 -1.257431358098983765e-01 4.805504679679870605e-01
5.596000000000000000e+03 3.571708679199218750e+01 2.149966621398925781e+01 3.995708748698234558e-02 -5.867671966552734375e-01 -1.640430241823196411e-01 4.369910359382629395e-01
5.597000000000000000e+03 4.166838073730468750e+01 -1.655106163024902344e+01 -3.094601929187774658e-01 -4.940326884388923645e-02 -1.076590418815612793e-01 -2.504752874374389648e-01
5.598000000000000000e+03 3.460690689086914062e+01 -6.081300735473632812e+00 -7.111536711454391479e-02 1.209973618388175964e-01 1.496459823101758957e-02 -3.057893514633178711e-01
5.599000000000000000e+03 5.788670349121093750e+01 -2.212529182434082031e+01 2.704142034053802490e-01 2.680089771747589111e-01 1.615269482135772705e-01 1.688814014196395874e-01
5.600000000000000000e+03 4.400959014892578125e+01 -2.346686744689941406e+01 1.989805549383163452e-01 4.763398319482803345e-02 7.398436218500137329e-02 -4.737621247768402100e-01
5.601000000000000000e+03 4.250938034057617188e+01 -2.447291374206542969e+01 -1.499289181083440781e-02 -6.335747241973876953e-02 -2.350511029362678528e-02 -4.535908102989196777e-01
5.602000000000000000e+03 7.166651916503906250e+01 6.578705787658691406e+00 -6.949759721755981445e-01 2.876809120178222656e+00 6.545498967170715332e-01 -1.937467455863952637e-01
5.603000000000000000e+03 5.333825683593750000e+01 -2.799923515319824219e+01 3.595691621303558350e-01 3.233253955841064453e-01 2.048683613538742065e-01 -9.833883494138717651e-02
5.604000000000000000e+03 5.378260803222656250e+01 2.029290390014648438e+01 2.216259092092514038e-01 3.939546048641204834e-01 1.846741586923599243e-01 -2.647740542888641357e-01
5.605000000000000000e+03 3.363070297241210938e+01 -6.430157184600830078e+00 -3.777606785297393799e-02 -1.287520024925470352e-02 -1.519538089632987976e-02 -2.937954068183898926e-01
5.606000000000000000e+03 6.523308563232421875e+01 -1.561072731018066406e+01 1.138048321008682251e-01 1.748499870300292969e+00 5.586913824081420898e-01 3.882825970649719238e-01
5.607000000000000000e+03 2.594902610778808594e+01 -2.284401893615722656e+01 5.868754163384437561e-02 -1.399393677711486816e-01 -2.437554858624935150e-02 -1.444520503282546997e-01
5.608000000000000000e+03 2.482548904418945312e+01 -2.564031410217285156e+01 2.467431724071502686e-01 -1.196476742625236511e-01 3.812865167856216431e-02 -1.148717254400253296e-01
5.609000000000000000e+03 5.751821136474609375e+01 1.083402156829833984e+01 4.558078944683074951e-01 7.831092476844787598e-01 3.716751337051391602e-01 1.159584745764732361e-01
5.610000000000000000e+03 5.749424743652343750e+01 1.006539535522460938e+01 4.840440750122070312e-01 6.451871395111083984e-01 3.387693464756011963e-01 2.425449639558792114e-01
5.611000000000000000e+03 8.635670661926269531e+00 7.520937919616699219e+00 -2.100828140974044800e-01 -1.180461272597312927e-01 -9.843868762254714966e-02 9.754456579685211182e-02
5.612000000000000000e+03 1.637182044982910156e+01 -2.505840492248535156e+01 6.885217875242233276e-02 -2.478798925876617432e-01 -5.370831117033958435e-02 -2.215137183666229248e-01
5.613000000000000000e+03 5.092586517333984375e+01 3.113122558593750000e+01 2.716347873210906982e-01 8.686370849609375000e-01 3.420815765857696533e-01 9.657197445631027222e-02
5.614000000000000000e+03 6.432511901855468750e+01 2.662531375885009766e+00 -1.008764982223510742e+00 5.218089818954467773e-01 -1.460868120193481445e-01 -3.577607274055480957e-01
5.615000000000000000e+03 3.928224802017211914e+00 2.281156730651855469e+01 -4.561013728380203247e-02 -3.295341432094573975e-01 -1.125432848930358887e-01 -3.109584795311093330e-03
5.616000000000000000e+03 3.856706619262695312e+00 2.010043525695800781e+01 3.482748195528984070e-02 -2.700837850570678711e-01 -7.057689130306243896e-02 -1.918695680797100067e-02
5.617000000000000000e+03 2.177321052551269531e+01 -2.411193847656250000e+01 8.655764162540435791e-02 5.455767363309860229e-02 4.233459383249282837e-02 -1.337753087282180786e-01
5.618000000000000000e+03 6.537369537353515625e+01 -1.246599483489990234e+01 -1.876762866973876953e+00 8.448442816734313965e-01 -3.095755875110626221e-01 4.282227456569671631e-01
5.619000000000000000e+03 5.965997314453125000e+01 2.980249404907226562e+00 -1.457620978355407715e+00 1.540485769510269165e-01 -3.910717368125915527e-01 -1.584371328353881836e-01
5.620000000000000000e+03 5.512089538574218750e+01 -2.779780006408691406e+01 3.033163845539093018e-01 4.593929350376129150e-01 2.288127988576889038e-01 1.139869168400764465e-01
5.621000000000000000e+03 5.579108428955078125e+01 -2.714560317993164062e+01 2.733751833438873291e-01 4.352830052375793457e-01 2.125974595546722412e-01 2.071962952613830566e-01
5.622000000000000000e+03 4.701850891113281250e+01 2.089930915832519531e+01 4.005064964294433594e-01 3.877528309822082520e-01 2.364777922630310059e-01 2.361246794462203979e-01
5.623000000000000000e+03 7.348036956787109375e+01 -3.269152069091796875e+01 1.935369223356246948e-01 4.839658260345458984e+00 1.509958624839782715e+00 7.679622769355773926e-01
5.624000000000000000e+03 2.554038238525390625e+01 -1.450207233428955078e+01 -5.177437663078308105e-01 -1.728324592113494873e-01 -2.071728557348251343e-01 -1.870394200086593628e-01
5.625000000000000000e+03 2.496977996826171875e+01 -1.568558692932128906e+01 -4.193640053272247314e-01 -1.745012998580932617e-01 -1.781595796346664429e-01 -1.709130406379699707e-01
5.626000000000000000e+03 5.812863540649414062e+01 9.531206130981445312e+00 5.445884466171264648e-01 7.531975507736206055e-01 3.893358111381530762e-01 1.802875548601150513e-01
5.627000000000000000e+03 2.399608802795410156e+01 1.329429149627685547e+01 -7.657919079065322876e-02 -1.727619469165802002e-01 -7.480234652757644653e-02 4.834994673728942871e-02
5.628000000000000000e+03 2.880933952331542969e+01 -2.867555999755859375e+01 2.402322441339492798e-01 -8.518605679273605347e-02 4.651385545730590820e-02 -1.423498690128326416e-01
5.629000000000000000e+03 4.562411117553710938e+01 5.170520305633544922e+00 -1.026771426200866699e+00 -2.889759838581085205e-01 -3.947242200374603271e-01 4.161660075187683105e-01
5.630000000000000000e+03 1.186027336120605469e+01 -2.515258789062500000e+01 -6.484878249466419220e-03 -2.009547352790832520e-01 -6.223188340663909912e-02 -1.732616126537322998e-01
5.631000000000000000e+03 1.078765201568603516e+01 -2.530167579650878906e+01 -1.925681158900260925e-02 -1.260148286819458008e-01 -4.358149319887161255e-02 -1.419910192489624023e-01
5.632000000000000000e+03 3.514015197753906250e+01 -3.245267486572265625e+01 2.344612963497638702e-02 -5.471873655915260315e-02 -9.381782263517379761e-03 -3.458780944347381592e-01
5.633000000000000000e+03 3.581169128417968750e+01 -3.123189544677734375e+01 -2.208233578130602837e-03 -9.407871961593627930e-02 -2.888608537614345551e-02 -3.310135602951049805e-01
5.634000000000000000e+03 1.385375308990478516e+01 -2.618645477294921875e+01 1.267352141439914703e-02 -3.183287382125854492e-01 -9.169656783342361450e-02 -1.784346848726272583e-01
5.635000000000000000e+03 3.477822494506835938e+01 2.140319252014160156e+01 1.491318177431821823e-02 -5.688076019287109375e-01 -1.661683320999145508e-01 4.341827929019927979e-01
5.636000000000000000e+03 6.128946304321289062e+01 -1.992890739440917969e+01 7.478485703468322754e-01 8.592897653579711914e-01 4.821414947509765625e-01 1.637981981039047241e-01
5.637000000000000000e+03 1.686725425720214844e+01 -2.274107742309570312e+01 -1.074589267373085022e-01 -1.723770648241043091e-01 -8.395079523324966431e-02 -2.314907163381576538e-01
5.638000000000000000e+03 5.403018951416015625e+01 -3.556426620483398438e+01 4.578805267810821533e-01 7.869199514389038086e-01 3.734401464462280273e-01 -1.177513673901557922e-01
5.639000000000000000e+03 5.330867767333984375e+01 2.199841308593750000e+01 2.122417837381362915e-01 5.149586796760559082e-01 2.181601375341415405e-01 -1.986517757177352905e-01
5.640000000000000000e+03 5.576600265502929688e+01 1.683362960815429688e+01 2.513512969017028809e-01 4.764642715454101562e-01 2.183446586132049561e-01 -3.266614377498626709e-01
5.641000000000000000e+03 5.564157867431640625e+01 1.797802352905273438e+01 2.472870051860809326e-01 4.814648330211639404e-01 2.186255455017089844e-01 -3.381248712539672852e-01
5.642000000000000000e+03 2.209135818481445312e+01 3.006731986999511719e+01 -4.642806574702262878e-02 -4.165216907858848572e-02 -2.642407082021236420e-02 1.057683750987052917e-01
5.643000000000000000e+03 2.327304458618164062e+01 3.149677085876464844e+01 -8.955740183591842651e-02 3.909460455179214478e-02 -1.513883937150239944e-02 1.305142790079116821e-01
5.644000000000000000e+03 1.427718544006347656e+01 -5.896811962127685547e+00 -7.018385920673608780e-03 1.016465760767459869e-02 9.438815759494900703e-04 -1.140124909579753876e-02
5.645000000000000000e+03 1.357095527648925781e+01 -6.947171211242675781e+00 -1.747222617268562317e-02 1.236961502581834793e-02 -1.530783600173890591e-03 -1.271078642457723618e-02
5.646000000000000000e+03 3.725400924682617188e+00 4.480002403259277344e+00 -2.713317237794399261e-02 4.296940285712480545e-03 -6.850869860500097275e-03 -1.833220198750495911e-02
5.647000000000000000e+03 6.149690246582031250e+01 -2.067285346984863281e+01 7.391748428344726562e-01 9.961594939231872559e-01 5.206003189086914062e-01 1.936069428920745850e-01
5.648000000000000000e+03 7.051129913330078125e+01 -3.333662033081054688e+01 5.460612773895263672e-01 3.313209772109985352e+00 1.157781243324279785e+00 5.637210607528686523e-01
5.649000000000000000e+03 4.502829360961914062e+01 -2.329948234558105469e+01 2.875574827194213867e-01 1.329442858695983887e-01 1.261505335569381714e-01 -4.238666594028472900e-01
5.650000000000000000e+03 6.512762451171875000e+01 -1.461279869079589844e+01 -7.136380672454833984e-01 1.407415509223937988e+00 2.081332504749298096e-01 2.869249284267425537e-01
5.651000000000000000e+03 7.629999637603759766e+00 -6.177929878234863281e+00 4.177992697805166245e-03 -2.678001672029495239e-02 -6.780606694519519806e-03 -3.511682851240038872e-03
5.652000000000000000e+03 9.940160751342773438e+00 -5.433570861816406250e+00 1.262934762053191662e-03 -1.760051958262920380e-02 -4.901275504380464554e-03 -1.489842124283313751e-02
5.653000000000000000e+03 6.429038238525390625e+01 -1.155644416809082031e+01 -1.991043806076049805e+00 8.778512477874755859e-01 -3.339577615261077881e-01 3.056715130805969238e-01
5.654000000000000000e+03 6.285363006591796875e+01 -1.181681919097900391e+01 -1.853605389595031738e+00 8.844135999679565430e-01 -2.907575666904449463e-01 1.242211535573005676e-01
5.655000000000000000e+03 3.133523368835449219e+01 2.934514808654785156e+01 -3.034232184290885925e-02 -5.853864550590515137e-01 -1.847186237573623657e-01 3.123812377452850342e-01
5.656000000000000000e+03 2.111982154846191406e+01 -1.719686889648437500e+01 -2.369252145290374756e-01 -7.917144894599914551e-02 -9.482900053262710571e-02 -2.311604171991348267e-01
5.657000000000000000e+03 4.732589340209960938e+01 3.058559417724609375e+01 8.010182529687881470e-02 3.443128168582916260e-01 1.273243874311447144e-01 1.533060986548662186e-02
5.658000000000000000e+03 4.792413711547851562e+01 3.018710899353027344e+01 9.252085536718368530e-02 4.281879365444183350e-01 1.562126427888870239e-01 4.783544689416885376e-02
5.659000000000000000e+03 5.253583908081054688e+01 -1.214155387878417969e+01 -1.071069836616516113e+00 1.127642542123794556e-01 -2.874916493892669678e-01 -5.818137526512145996e-01
5.660000000000000000e+03 5.302556610107421875e+01 -1.144448566436767578e+01 -1.228527903556823730e+00 5.282065644860267639e-02 -3.527121841907501221e-01 -4.296395778656005859e-01
5.661000000000000000e+03 7.595797729492187500e+01 -5.104848742485046387e-01 -1.207893133163452148e+00 9.625272750854492188e+00 2.525213956832885742e+00 1.772404313087463379e-01
5.662000000000000000e+03 4.378356170654296875e+01 7.113963603973388672e+00 -8.049499988555908203e-01 -2.884210944175720215e-01 -3.280113339424133301e-01 5.500752329826354980e-01
5.663000000000000000e+03 4.387154006958007812e+01 5.201504707336425781e+00 -7.954305410385131836e-01 -2.529927492141723633e-01 -3.145269751548767090e-01 2.847223281860351562e-01
5.664000000000000000e+03 5.382505035400390625e+01 2.172384643554687500e+01 1.947414427995681763e-01 4.979937076568603516e-01 2.078205496072769165e-01 -2.338104248046875000e-01
5.665000000000000000e+03 4.790889739990234375e+00 -2.470902633666992188e+01 2.573336660861968994e-02 -4.311492294073104858e-02 -5.214466713368892670e-03 5.650154780596494675e-03
5.666000000000000000e+03 6.340514183044433594e+00 -2.534615325927734375e+01 3.433091042097657919e-04 -1.422148756682872772e-02 -4.163453821092844009e-03 -1.047317776829004288e-02
5.667000000000000000e+03 7.496372985839843750e+01 -1.506104660034179688e+01 -1.608497977256774902e+00 7.433720111846923828e+00 1.747566699981689453e+00 4.261588454246520996e-01
5.668000000000000000e+03 7.437013244628906250e+01 -1.646709251403808594e+01 -1.868673443794250488e+00 6.183507442474365234e+00 1.294450163841247559e+00 5.583215951919555664e-01
5.669000000000000000e+03 4.219741439819335938e+01 5.036143779754638672e+00 -4.873157143592834473e-01 -3.156946599483489990e-01 -2.409031093120574951e-01 2.018973827362060547e-01
5.670000000000000000e+03 6.689380168914794922e+00 1.304264926910400391e+01 3.461900725960731506e-02 -1.157911643385887146e-01 -2.435164712369441986e-02 2.075503021478652954e-01
5.671000000000000000e+03 6.923847961425781250e+01 2.182626342773437500e+01 4.114317893981933594e-02 2.803352594375610352e+00 8.533487319946289062e-01 -1.251866102218627930e+00
5.672000000000000000e+03 5.882424926757812500e+01 1.933202171325683594e+01 1.387329697608947754e-01 8.684416413307189941e-01 3.021523654460906982e-01 -8.504729717969894409e-02
5.673000000000000000e+03 4.175572967529296875e+01 1.597983741760253906e+01 1.620146036148071289e-01 -1.115104034543037415e-01 1.515126042068004608e-02 2.691062688827514648e-01
5.674000000000000000e+03 4.307883834838867188e+01 1.688310241699218750e+01 2.273756265640258789e-01 1.842912584543228149e-01 1.235000640153884888e-01 2.029937803745269775e-01
5.675000000000000000e+03 7.446814727783203125e+01 1.145688152313232422e+01 3.008822500705718994e-01 6.982743740081787109e+00 2.185087919235229492e+00 -1.487805843353271484e+00
5.676000000000000000e+03 7.477632904052734375e+01 1.096816730499267578e+01 1.338729262351989746e-01 7.002271175384521484e+00 2.140843152999877930e+00 -1.493982911109924316e+00
5.677000000000000000e+03 4.231750869750976562e+01 -2.041528511047363281e+01 1.932357996702194214e-01 -1.486642658710479736e-01 1.337146293371915817e-02 -6.361364722251892090e-01
5.678000000000000000e+03 5.265597534179687500e+01 2.071074867248535156e+01 2.464444935321807861e-01 3.645375967025756836e-01 1.832946240901947021e-01 -1.799360662698745728e-01
5.679000000000000000e+03 9.765410423278808594e+00 -2.714957237243652344e+01 -7.188493013381958008e-02 -1.123219728469848633e-01 -5.526207014918327332e-02 -1.021534800529479980e-01
5.680000000000000000e+03 2.403655815124511719e+01 3.649063110351562500e+01 1.649088710546493530e-01 -2.289513647556304932e-01 -1.921274885535240173e-02 1.081955730915069580e-01
5.681000000000000000e+03 7.624249267578125000e+01 6.036629080772399902e-01 -9.913580417633056641e-01 9.212573051452636719e+00 2.466364622116088867e+00 6.581248342990875244e-02
5.682000000000000000e+03 7.575609588623046875e+01 -1.549968624114990234e+01 -1.530124902725219727e+00 8.429038047790527344e+00 2.069673776626586914e+00 2.747657597064971924e-01
5.683000000000000000e+03 3.645299530029296875e+01 -3.424565887451171875e+01 1.552322208881378174e-01 -1.412484943866729736e-01 4.195119254291057587e-03 -3.675461113452911377e-01
5.684000000000000000e+03 3.585540390014648438e+01 -3.542329788208007812e+01 2.542551457881927490e-01 -1.343962699174880981e-01 3.595765680074691772e-02 -3.345327079296112061e-01
5.685000000000000000e+03 3.425355529785156250e+01 2.015921020507812500e+01 1.457773596048355103e-01 -4.909025132656097412e-01 -1.035375446081161499e-01 4.762962460517883301e-01
5.686000000000000000e+03 5.866787338256835938e+01 -2.074703979492187500e+01 4.837855994701385498e-01 2.815457284450531006e-01 2.295994013547897339e-01 5.827812105417251587e-02
5.687000000000000000e+03 5.786823272705078125e+01 -2.092110252380371094e+01 3.616648018360137939e-01 1.983092725276947021e-01 1.679922193288803101e-01 1.313429209403693676e-03
5.688000000000000000e+03 7.349258422851562500e+01 1.423283958435058594e+01 1.214961528778076172e+00 7.226660251617431641e+00 2.532486438751220703e+00 -1.241676926612854004e+00
5.689000000000000000e+03 1.035149478912353516e+01 -3.217015457153320312e+01 -1.127608418464660645e-01 -1.996430456638336182e-01 -9.372116625308990479e-02 -1.475390046834945679e-01
5.690000000000000000e+03 4.287914276123046875e+00 -3.247313690185546875e+01 -3.113988228142261505e-02 -1.337866187095642090e-01 -4.947794973850250244e-02 -7.577423006296157837e-02
5.691000000000000000e+03 1.301018905639648438e+01 -4.952920913696289062e+00 -2.913916541729122400e-04 3.022745368070900440e-04 3.264871111241518520e-06 -1.563809439539909363e-02
5.692000000000000000e+03 2.826278495788574219e+01 -2.811388206481933594e+01 2.649404108524322510e-01 -1.129855588078498840e-01 4.558645188808441162e-02 -1.398395299911499023e-01
5.693000000000000000e+03 5.131516647338867188e+01 2.810748291015625000e+01 2.125328034162521362e-01 9.319633841514587402e-01 3.433488607406616211e-01 1.259027421474456787e-01
5.694000000000000000e+03 5.164614486694335938e+01 2.503462409973144531e+01 2.626355290412902832e-01 7.353193759918212891e-01 2.993864715099334717e-01 9.017738699913024902e-02
5.695000000000000000e+03 1.785146522521972656e+01 2.172214126586914062e+01 1.215460747480392456e-01 8.221500366926193237e-02 6.112832576036453247e-02 1.473893523216247559e-01
5.696000000000000000e+03 3.613375473022460938e+01 2.096850776672363281e+01 1.519298702478408813e-01 -6.042270660400390625e-01 -1.356891542673110962e-01 4.602410197257995605e-01
5.697000000000000000e+03 2.540007019042968750e+01 -1.535099029541015625e+01 -4.484543502330780029e-01 -1.766577214002609253e-01 -1.875336319208145142e-01 -1.719475090503692627e-01
5.698000000000000000e+03 4.719182205200195312e+01 3.601966857910156250e+01 5.216377973556518555e-01 2.336267232894897461e-01 2.265793532133102417e-01 -5.174107849597930908e-02
5.699000000000000000e+03 5.998819351196289062e+01 -2.039808464050292969e+01 6.463273763656616211e-01 4.766615033149719238e-01 3.368966579437255859e-01 1.078106537461280823e-01
5.700000000000000000e+03 5.816930770874023438e+01 1.227086925506591797e+01 4.266590476036071777e-01 1.222790241241455078e+00 4.948347806930541992e-01 -1.538822799921035767e-01
5.701000000000000000e+03 5.777573394775390625e+01 1.158940505981445312e+01 4.267436861991882324e-01 9.454009532928466797e-01 4.116433858871459961e-01 -2.956239879131317139e-02
5.702000000000000000e+03 3.974359130859375000e+01 1.315331554412841797e+01 -3.686859011650085449e-01 -5.712703466415405273e-01 -2.819868624210357666e-01 4.301390051841735840e-01
5.703000000000000000e+03 3.985452651977539062e+01 1.210195541381835938e+01 -6.055313348770141602e-01 -5.559133291244506836e-01 -3.484334051609039307e-01 5.187996625900268555e-01
5.704000000000000000e+03 5.664163589477539062e+01 2.110123252868652344e+01 1.934068053960800171e-01 4.762966036796569824e-01 2.009110301733016968e-01 -2.961777746677398682e-01
5.705000000000000000e+03 5.864843368530273438e+01 2.081276321411132812e+01 1.410198509693145752e-01 6.392677426338195801e-01 2.340862751007080078e-01 -2.792220329865813255e-03
5.706000000000000000e+03 4.001439285278320312e+01 -1.680241775512695312e+01 -1.447197347879409790e-01 3.078792095184326172e-01 4.894784092903137207e-02 -2.853574752807617188e-01
5.707000000000000000e+03 1.059670543670654297e+01 -2.849539184570312500e+01 -9.787243604660034180e-02 -1.813934594392776489e-01 -8.377976715564727783e-02 -1.170633882284164429e-01
5.708000000000000000e+03 1.913477706909179688e+01 -1.721393585205078125e+01 -1.557699441909790039e-01 -4.950228333473205566e-02 -6.158167123794555664e-02 -2.428342849016189575e-01
5.709000000000000000e+03 4.422047042846679688e+01 -2.568441200256347656e+01 1.944483518600463867e-01 1.606003642082214355e-01 1.065146178007125854e-01 -2.514989674091339111e-01
5.710000000000000000e+03 4.246044158935546875e+01 1.808293724060058594e+01 2.796330153942108154e-01 1.133123710751533508e-01 1.178836151957511902e-01 2.317366749048233032e-01
5.711000000000000000e+03 4.022446441650390625e+01 1.754987907409667969e+01 2.921495735645294189e-01 -3.164112269878387451e-01 -7.278500590473413467e-03 3.615618944168090820e-01
5.712000000000000000e+03 6.715399169921875000e+01 -3.697292709350585938e+01 5.060346722602844238e-01 2.449301242828369141e+00 8.866007328033447266e-01 4.163631796836853027e-01
5.713000000000000000e+03 1.413167190551757812e+01 -1.109918498992919922e+01 -7.347049564123153687e-02 8.114960044622421265e-02 2.303731162101030350e-03 -1.600848510861396790e-02
5.714000000000000000e+03 2.384932708740234375e+01 -2.544766044616699219e+01 2.277472913265228271e-01 -6.816492229700088501e-02 4.787471145391464233e-02 -1.090220734477043152e-01
5.715000000000000000e+03 7.281090545654296875e+01 1.797546768188476562e+01 2.995632886886596680e-01 6.151042938232421875e+00 1.935181856155395508e+00 -8.456684350967407227e-01
5.716000000000000000e+03 7.611447143554687500e+01 1.998537635803222656e+01 -5.950561538338661194e-02 6.267059803009033203e+00 1.862266302108764648e+00 -1.866731196641921997e-01
5.717000000000000000e+03 5.414681625366210938e+01 -1.327444076538085938e+01 -9.999571442604064941e-01 3.698578849434852600e-02 -2.888914048671722412e-01 -5.989988446235656738e-01
5.718000000000000000e+03 5.475656509399414062e+01 -1.469814777374267578e+01 -4.878596067428588867e-01 6.183019280433654785e-02 -1.278088241815567017e-01 -4.939984381198883057e-01
5.719000000000000000e+03 6.766972351074218750e+01 3.111614418029785156e+01 4.290025532245635986e-01 2.947399854660034180e+00 1.012920737266540527e+00 -4.567790627479553223e-01
5.720000000000000000e+03 3.105364799499511719e+01 -1.306381988525390625e+01 -4.297197461128234863e-01 -2.936788499355316162e-01 -2.170195728540420532e-01 -6.744918227195739746e-02
5.721000000000000000e+03 2.740272521972656250e+01 8.820759773254394531e+00 2.730533480644226074e-01 3.195181190967559814e-01 1.777714341878890991e-01 1.540243923664093018e-01
5.722000000000000000e+03 2.736986351013183594e+01 9.831793785095214844e+00 2.464158385992050171e-01 2.620469033718109131e-01 1.525388211011886597e-01 1.417190730571746826e-01
5.723000000000000000e+03 2.852823257446289062e+01 1.209158134460449219e+01 -2.568622305989265442e-02 4.027085006237030029e-01 1.131066828966140747e-01 2.381733208894729614e-01
5.724000000000000000e+03 5.789245986938476562e+01 1.801844406127929688e+01 2.225397378206253052e-01 8.668667078018188477e-01 3.268219232559204102e-01 -2.548005282878875732e-01
5.725000000000000000e+03 6.641991424560546875e+01 3.660388708114624023e+00 -3.448003530502319336e-01 8.076600730419158936e-02 -7.921030372381210327e-02 -6.182538270950317383e-01
5.726000000000000000e+03 6.754071807861328125e+01 1.578952908515930176e+00 -7.193586826324462891e-01 -1.935923099517822266e-02 -2.216153740882873535e-01 -1.720912605524063110e-01
5.727000000000000000e+03 2.943220520019531250e+01 -1.382394981384277344e+01 -4.484679102897644043e-01 -2.852568924427032471e-01 -2.201174348592758179e-01 -1.531209498643875122e-01
5.728000000000000000e+03 2.836460304260253906e+01 -1.516112709045410156e+01 -4.375551640987396240e-01 -2.444710135459899902e-01 -2.046078443527221680e-01 -1.805397570133209229e-01
5.729000000000000000e+03 6.161323547363281250e+01 -2.441329002380371094e+01 2.661085128784179688e-01 7.781977653503417969e-01 3.132918775081634521e-01 1.963624805212020874e-01
5.730000000000000000e+03 5.849984741210937500e+01 1.705800247192382812e+01 2.501315474510192871e-01 1.132351160049438477e+00 4.147448241710662842e-01 -2.044003158807754517e-01
5.731000000000000000e+03 5.708877944946289062e+01 1.950544357299804688e+01 2.016520649194717407e-01 6.351707577705383301e-01 2.510468363761901855e-01 -2.797991335391998291e-01
5.732000000000000000e+03 5.236413574218750000e+01 -1.333041572570800781e+01 -8.928375244140625000e-01 1.734197437763214111e-01 -2.158253341913223267e-01 -7.224497199058532715e-01
5.733000000000000000e+03 3.288283157348632812e+01 2.873039627075195312e+01 -8.648258447647094727e-02 -5.259226560592651367e-01 -1.837215721607208252e-01 2.359912991523742676e-01
5.734000000000000000e+03 5.636175918579101562e+01 -2.418869590759277344e+01 1.094621345400810242e-01 2.171140760183334351e-01 9.797286242246627808e-02 2.433526068925857544e-01
5.735000000000000000e+03 3.486663055419921875e+01 1.904921150207519531e+01 2.963582277297973633e-01 -5.447680354118347168e-01 -7.452294230461120605e-02 5.452167987823486328e-01
5.736000000000000000e+03 3.299745941162109375e+01 3.084526634216308594e+01 1.748613417148590088e-01 -4.126716852188110352e-01 -7.134310901165008545e-02 2.101867496967315674e-01
5.737000000000000000e+03 1.914429283142089844e+01 2.033580780029296875e+01 -1.335974484682083130e-01 -6.153724342584609985e-02 -5.854040756821632385e-02 4.365245625376701355e-02
5.738000000000000000e+03 5.949081897735595703e+00 -1.317477130889892578e+01 -5.498931929469108582e-02 -8.410739898681640625e-02 -4.172901436686515808e-02 -3.985767811536788940e-02
5.739000000000000000e+03 5.391064834594726562e+01 -3.057286262512207031e+01 3.325751721858978271e-01 6.736287474632263184e-01 3.018611669540405273e-01 -1.032646670937538147e-01
5.740000000000000000e+03 3.412714004516601562e+01 1.743017005920410156e+01 3.748641610145568848e-01 -4.171159565448760986e-01 -1.267553772777318954e-02 5.597366690635681152e-01
5.741000000000000000e+03 3.769197845458984375e+01 1.534230136871337891e+01 7.283381372690200806e-02 -7.602860927581787109e-01 -2.062356770038604736e-01 4.508339166641235352e-01
5.742000000000000000e+03 9.803007125854492188e+00 -3.172360229492187500e+01 -1.129311397671699524e-01 -1.756639480590820312e-01 -8.657852560281753540e-02 -1.365117281675338745e-01
5.743000000000000000e+03 3.924834060668945312e+01 1.359884929656982422e+01 -2.928018569946289062e-01 -6.409643292427062988e-01 -2.801298499107360840e-01 4.182603061199188232e-01
5.744000000000000000e+03 2.697154235839843750e+01 4.694452285766601562e+00 -8.061601966619491577e-02 1.634769588708877563e-01 2.485828474164009094e-02 1.812560111284255981e-01
5.745000000000000000e+03 2.683169174194335938e+01 5.655213356018066406e+00 5.988271161913871765e-02 1.683814376592636108e-01 6.847923994064331055e-02 1.773394942283630371e-01
5.746000000000000000e+03 5.982249450683593750e+01 1.841082000732421875e+01 1.217939704656600952e-01 1.238206863403320312e+00 4.080002307891845703e-01 1.798644661903381348e-02
5.747000000000000000e+03 5.902184295654296875e+01 2.018415451049804688e+01 9.741575270891189575e-02 7.955137491226196289e-01 2.678788602352142334e-01 2.225433476269245148e-02
5.748000000000000000e+03 2.682477378845214844e+01 -1.534684562683105469e+01 -4.378672540187835693e-01 -2.092701345682144165e-01 -1.941412240266799927e-01 -1.805652529001235962e-01
5.749000000000000000e+03 5.877128982543945312e+01 -1.932254600524902344e+01 5.833272337913513184e-01 1.735448390245437622e-01 2.270616143941879272e-01 -1.001016199588775635e-01
5.750000000000000000e+03 8.554854393005371094e+00 -3.520793151855468750e+01 -4.803631920367479324e-03 -1.768660694360733032e-01 -5.450091138482093811e-02 -1.526447236537933350e-01
5.751000000000000000e+03 6.103126525878906250e+01 -2.381389808654785156e+01 3.812262713909149170e-01 7.063083648681640625e-01 3.262603878974914551e-01 2.885096967220306396e-01
5.752000000000000000e+03 1.319556045532226562e+01 -7.380994319915771484e+00 -1.486891135573387146e-02 8.866705000400543213e-03 -1.800661790184676647e-03 -1.649416983127593994e-02
5.753000000000000000e+03 4.030646133422851562e+01 1.149631118774414062e+01 -6.797936558723449707e-01 -4.700442254543304443e-01 -3.449513614177703857e-01 5.788537263870239258e-01
5.754000000000000000e+03 7.492530822753906250e+01 4.079642868041992188e+01 8.905825763940811157e-02 4.565327167510986328e+00 1.396315693855285645e+00 -1.623571291565895081e-02
5.755000000000000000e+03 7.438117980957031250e+01 3.580576324462890625e+01 1.198199689388275146e-01 4.486163139343261719e+00 1.381794929504394531e+00 -2.072792798280715942e-01
5.756000000000000000e+03 3.271673202514648438e+01 -1.308267307281494141e+01 -4.301472604274749756e-01 -2.187777757644653320e-01 -1.946775168180465698e-01 -4.164903610944747925e-02
5.757000000000000000e+03 3.194098472595214844e+01 -1.249179840087890625e+01 -3.682358860969543457e-01 -2.644684910774230957e-01 -1.898113191127777100e-01 -4.297609254717826843e-02
5.758000000000000000e+03 8.238637924194335938e+00 8.210122108459472656e+00 -2.066160291433334351e-01 -1.097294241189956665e-01 -9.490363299846649170e-02 1.128250882029533386e-01
5.759000000000000000e+03 7.665735721588134766e+00 6.172604560852050781e+00 -1.493049561977386475e-01 -5.659559741616249084e-02 -6.177016347646713257e-02 4.104780033230781555e-02
5.760000000000000000e+03 9.836283683776855469e+00 -2.938110733032226562e+01 -1.139798834919929504e-01 -1.570241004228591919e-01 -8.130119740962982178e-02 -1.128069832921028137e-01
5.761000000000000000e+03 9.196782112121582031e+00 -3.114641571044921875e+01 -1.112571358680725098e-01 -1.490796357393264771e-01 -7.810103148221969604e-02 -1.269835680723190308e-01
5.762000000000000000e+03 4.061681747436523438e+01 1.339163112640380859e+01 -2.398915737867355347e-01 -3.950796425342559814e-01 -1.904913634061813354e-01 4.070171117782592773e-01
5.763000000000000000e+03 4.210389709472656250e+01 1.392782306671142578e+01 -5.553456395864486694e-02 -1.291451901197433472e-01 -5.540392547845840454e-02 3.350810706615447998e-01
5.764000000000000000e+03 4.685864257812500000e+01 3.246584320068359375e+01 2.402887791395187378e-01 2.137075662612915039e-01 1.361989080905914307e-01 -7.238365709781646729e-02
5.765000000000000000e+03 4.719517517089843750e+01 3.161462402343750000e+01 1.628584861755371094e-01 2.814958989620208740e-01 1.333063095808029175e-01 -3.786593303084373474e-02
5.766000000000000000e+03 4.181349945068359375e+01 1.226247119903564453e+01 -3.807691037654876709e-01 -2.196882516145706177e-01 -1.801372021436691284e-01 5.084549784660339355e-01
5.767000000000000000e+03 4.253351211547851562e+01 1.063077735900878906e+01 -6.246032118797302246e-01 -1.600769758224487305e-01 -2.354040592908859253e-01 6.446375846862792969e-01
5.768000000000000000e+03 7.477214050292968750e+01 -2.599607849121093750e+01 3.094750642776489258e-01 7.943152427673339844e+00 2.475788116455078125e+00 6.127790808677673340e-01
5.769000000000000000e+03 3.624020004272460938e+01 -3.286075592041015625e+01 2.133424766361713409e-02 -1.277073919773101807e-01 -3.191194310784339905e-02 -3.612191081047058105e-01
5.770000000000000000e+03 7.256329536437988281e+00 1.517066669464111328e+01 1.572681069374084473e-01 -1.233473196625709534e-01 1.017623487859964371e-02 1.735565513372421265e-01
5.771000000000000000e+03 2.485041046142578125e+01 -2.812264060974121094e+01 2.840965390205383301e-01 -1.434385031461715698e-01 4.219741374254226685e-02 -1.215941160917282104e-01
5.772000000000000000e+03 2.660706138610839844e+01 -2.693631172180175781e+01 2.904507815837860107e-01 -1.667483896017074585e-01 3.711071982979774475e-02 -1.314760297536849976e-01
5.773000000000000000e+03 5.433275985717773438e+01 -2.874978828430175781e+01 3.383420109748840332e-01 5.136584639549255371e-01 2.556001543998718262e-01 9.844389744102954865e-03
5.774000000000000000e+03 5.322867202758789062e+01 -2.953735733032226562e+01 3.736145794391632080e-01 4.822498261928558350e-01 2.567593157291412354e-01 -1.522652059793472290e-01
5.775000000000000000e+03 4.320230865478515625e+01 1.783343124389648438e+01 2.697918415069580078e-01 2.304052710533142090e-01 1.500591337680816650e-01 1.994038373231887817e-01
5.776000000000000000e+03 7.166035461425781250e+01 -2.890858078002929688e+01 2.865485548973083496e-01 3.395920753479003906e+00 1.104740738868713379e+00 1.606082320213317871e+00
5.777000000000000000e+03 5.868281555175781250e+01 9.413246154785156250e+00 5.840647816658020020e-01 9.262982606887817383e-01 4.531089067459106445e-01 7.590444386005401611e-02
5.778000000000000000e+03 5.047981262207031250e+01 2.954617118835449219e+01 2.039490342140197754e-01 8.494032621383666992e-01 3.160056769847869873e-01 1.319108754396438599e-01
5.779000000000000000e+03 2.291668128967285156e+01 1.063395977020263672e+01 1.428584158420562744e-01 -1.762425750494003296e-01 -1.001525018364191055e-02 7.242050766944885254e-02
5.780000000000000000e+03 2.310713386535644531e+01 -1.684392356872558594e+01 -3.084019124507904053e-01 -1.351215094327926636e-01 -1.330570280551910400e-01 -1.937319636344909668e-01
5.781000000000000000e+03 2.692045021057128906e+01 -1.999068260192871094e+01 -1.228059455752372742e-01 -2.094362974166870117e-01 -9.967266768217086792e-02 -1.470406204462051392e-01
5.782000000000000000e+03 4.255999374389648438e+01 8.156917572021484375e+00 -7.636947035789489746e-01 -2.496030777692794800e-01 -3.039893209934234619e-01 6.892775297164916992e-01
5.783000000000000000e+03 4.202644348144531250e+01 7.574892520904541016e+00 -6.472803354263305664e-01 -3.022080957889556885e-01 -2.848465442657470703e-01 6.501942276954650879e-01
5.784000000000000000e+03 5.245522308349609375e+01 -3.097040939331054688e+01 3.528063297271728516e-01 5.155752897262573242e-01 2.605144679546356201e-01 -2.317207455635070801e-01
5.785000000000000000e+03 5.043308258056640625e+01 2.253081130981445312e+01 3.296869397163391113e-01 4.205965995788574219e-01 2.250850647687911987e-01 1.013481020927429199e-01
5.786000000000000000e+03 7.484626770019531250e+01 -1.712221908569335938e+01 -1.768225789070129395e+00 7.132816314697265625e+00 1.609377145767211914e+00 7.578202486038208008e-01
5.787000000000000000e+03 4.940668106079101562e+01 -1.171930694580078125e+01 -6.585896015167236328e-01 2.033923715353012085e-01 -1.365591734647750854e-01 -5.467706918716430664e-01
5.788000000000000000e+03 4.955336761474609375e+01 -1.331855392456054688e+01 -8.132500052452087402e-01 9.441298991441726685e-02 -2.156511098146438599e-01 -5.932145714759826660e-01
5.789000000000000000e+03 9.797068595886230469e+00 -2.778751945495605469e+01 -8.258671313524246216e-02 -1.318045407533645630e-01 -6.431737542152404785e-02 -1.048748269677162170e-01
5.790000000000000000e+03 2.910639762878417969e+01 -1.504556941986083984e+01 -4.452612698078155518e-01 -2.588531374931335449e-01 -2.112343311309814453e-01 -1.727349609136581421e-01
5.791000000000000000e+03 5.763774490356445312e+01 1.253236579895019531e+01 3.682610988616943359e-01 1.009185194969177246e+00 4.132338762283325195e-01 -1.373529434204101562e-01
5.792000000000000000e+03 5.079420852661132812e+01 3.193537139892578125e+01 3.072031140327453613e-01 8.239016532897949219e-01 3.393314182758331299e-01 7.214374095201492310e-02
5.793000000000000000e+03 6.229919815063476562e+01 2.307694196701049805e+00 -1.425109386444091797e+00 6.127560734748840332e-01 -2.437059879302978516e-01 -1.934452503919601440e-01
5.794000000000000000e+03 6.996562194824218750e+01 -3.089500236511230469e+01 7.138914465904235840e-01 2.564072132110595703e+00 9.833890795707702637e-01 6.777971982955932617e-01
5.795000000000000000e+03 5.221622085571289062e+01 -3.167464065551757812e+01 3.203486502170562744e-01 5.456024408340454102e-01 2.597853243350982666e-01 -2.407504022121429443e-01
5.796000000000000000e+03 4.870508575439453125e+01 2.651248168945312500e+01 2.119967788457870483e-01 5.489439964294433594e-01 2.282822281122207642e-01 2.779988348484039307e-01
5.797000000000000000e+03 4.857056045532226562e+01 2.560756683349609375e+01 2.699107527732849121e-01 5.006003975868225098e-01 2.311533540487289429e-01 2.966525256633758545e-01
5.798000000000000000e+03 5.074263381958007812e+01 3.394239044189453125e+01 4.018053114414215088e-01 7.127087116241455078e-01 3.343541920185089111e-01 3.604154288768768311e-02
5.799000000000000000e+03 5.223853683471679688e+01 3.568470382690429688e+01 4.796859323978424072e-01 7.394970655441284180e-01 3.657549023628234863e-01 1.241354495286941528e-01
5.800000000000000000e+03 2.822749900817871094e+01 -3.208038711547851562e+01 6.218918040394783020e-02 -1.191182658076286316e-01 -1.707872562110424042e-02 -1.416848152875900269e-01
5.801000000000000000e+03 2.661383056640625000e+01 3.396852111816406250e+01 1.421103179454803467e-01 -2.044771313667297363e-01 -1.871004514396190643e-02 2.996436059474945068e-01
5.802000000000000000e+03 2.546444129943847656e+01 3.262590789794921875e+01 6.779347546398639679e-03 -3.418126329779624939e-02 -8.220574818551540375e-03 3.272913694381713867e-01
5.803000000000000000e+03 2.829671859741210938e+01 -2.922828865051269531e+01 2.139236181974411011e-01 -1.102945134043693542e-01 3.108873032033443451e-02 -1.458246111869812012e-01
5.804000000000000000e+03 3.083697319030761719e+01 3.105428314208984375e+01 1.712403744459152222e-01 -5.053346157073974609e-01 -1.002282798290252686e-01 3.124431073665618896e-01
5.805000000000000000e+03 5.154847717285156250e+01 3.430475997924804688e+01 4.158971011638641357e-01 7.814067602157592773e-01 3.591911494731903076e-01 8.868146687746047974e-02
5.806000000000000000e+03 4.934447860717773438e+01 3.283767700195312500e+01 3.273822963237762451e-01 5.684098601341247559e-01 2.687376439571380615e-01 -1.086103823035955429e-02
5.807000000000000000e+03 3.097716522216796875e+01 -3.036179351806640625e+01 1.242573484778404236e-01 4.410310834646224976e-02 5.050813779234886169e-02 -1.652665287256240845e-01
5.808000000000000000e+03 4.971748828887939453e+00 3.533555984497070312e+01 1.182824373245239258e-01 -2.913816869258880615e-01 -5.192977562546730042e-02 1.670790091156959534e-02
5.809000000000000000e+03 4.842856597900390625e+01 3.528974151611328125e+01 4.633074402809143066e-01 3.726501464843750000e-01 2.507872879505157471e-01 -4.358480870723724365e-02
5.810000000000000000e+03 6.645215511322021484e+00 4.026307296752929688e+01 -3.849215805530548096e-02 -1.372206658124923706e-01 -5.271384492516517639e-02 -1.662003807723522186e-02
5.811000000000000000e+03 2.875190925598144531e+01 3.496356582641601562e+01 3.042761683464050293e-01 -3.197844326496124268e-01 -4.652486648410558701e-03 2.554428279399871826e-01
5.812000000000000000e+03 1.739227867126464844e+01 4.158511352539062500e+01 1.546006351709365845e-01 -1.983107477426528931e-01 -1.311303395777940750e-02 1.471275836229324341e-02
5.813000000000000000e+03 5.315143585205078125e+01 -3.525141525268554688e+01 3.971131443977355957e-01 6.809553503990173340e-01 3.234205543994903564e-01 -7.072830945253372192e-02
5.814000000000000000e+03 5.203963470458984375e+01 -3.634593200683593750e+01 4.236097335815429688e-01 4.879587590694427490e-01 2.734705507755279541e-01 4.081735014915466309e-02
5.815000000000000000e+03 4.452255725860595703e+00 4.050460052490234375e+01 -2.575775794684886932e-02 -3.348158895969390869e-01 -1.081720888614654541e-01 -1.771087571978569031e-02
5.816000000000000000e+03 6.803675079345703125e+01 3.236442184448242188e+01 4.079290628433227539e-01 3.047145128250122070e+00 1.036522269248962402e+00 -4.137918949127197266e-01
5.817000000000000000e+03 5.380081176757812500e+00 3.701252746582031250e+01 6.122545897960662842e-02 -2.306241542100906372e-01 -5.081960931420326233e-02 -2.111042849719524384e-02
5.818000000000000000e+03 3.284993743896484375e+01 -3.234363937377929688e+01 3.904845565557479858e-02 4.154456034302711487e-02 2.417790517210960388e-02 -2.524551153182983398e-01
5.819000000000000000e+03 3.197496986389160156e+01 -3.179183578491210938e+01 5.772531405091285706e-02 5.335393175482749939e-02 3.332377225160598755e-02 -2.154853940010070801e-01
5.820000000000000000e+03 3.374470520019531250e+01 -3.325135040283203125e+01 5.439980700612068176e-02 -9.914827533066272736e-03 1.334549300372600555e-02 -3.061408996582031250e-01
5.821000000000000000e+03 6.059074401855468750e+00 -3.788327789306640625e+01 5.011327192187309265e-02 -2.058655619621276855e-01 -4.672568663954734802e-02 -1.018728241324424744e-01
5.822000000000000000e+03 7.622805786132812500e+01 -3.798692703247070312e+01 9.136640280485153198e-02 5.829635143280029297e+00 1.776300430297851562e+00 2.454239130020141602e-01
5.823000000000000000e+03 6.648311614990234375e+01 3.285323715209960938e+01 4.942711293697357178e-01 2.771250009536743164e+00 9.796563386917114258e-01 -3.767288029193878174e-01
5.824000000000000000e+03 7.586643981933593750e+01 -3.684577941894531250e+01 9.379511326551437378e-02 5.740115642547607422e+00 1.750173211097717285e+00 2.849447429180145264e-01
5.825000000000000000e+03 5.200000381469726562e+01 -4.149713897705078125e+01 7.733774185180664062e-01 3.079873919486999512e-01 3.244094550609588623e-01 2.772862091660499573e-02
5.826000000000000000e+03 7.515010070800781250e+01 -3.851160430908203125e+01 1.381444334983825684e-01 5.442287921905517578e+00 1.674129724502563477e+00 1.973788142204284668e-01
5.827000000000000000e+03 5.229130935668945312e+01 4.126407241821289062e+01 6.702197790145874023e-01 5.301367044448852539e-01 3.601069450378417969e-01 3.116551972925662994e-02
5.828000000000000000e+03 3.283330535888671875e+01 4.142476654052734375e+01 4.687220156192779541e-01 -1.656781435012817383e-01 9.091316163539886475e-02 5.642253439873456955e-03
5.829000000000000000e+03 3.316184997558593750e+01 3.732009887695312500e+01 4.773522913455963135e-01 -2.075863331556320190e-01 8.092978596687316895e-02 6.349825114011764526e-02
5.830000000000000000e+03 4.568312835693359375e+01 3.796672058105468750e+01 6.079677343368530273e-01 1.585172414779663086e-01 2.299454957246780396e-01 -3.462460124865174294e-03
5.831000000000000000e+03 4.381854629516601562e+01 3.730837631225585938e+01 6.078398823738098145e-01 5.588184669613838196e-02 1.991165280342102051e-01 4.504564404487609863e-02
5.832000000000000000e+03 2.023846054077148438e+01 3.915214920043945312e+01 1.946779936552047729e-01 -2.669134438037872314e-01 -2.167063578963279724e-02 5.316641554236412048e-02
5.833000000000000000e+03 2.847780036926269531e+01 3.330778503417968750e+01 2.200776338577270508e-01 -3.161084651947021484e-01 -2.880924753844738007e-02 3.536598086357116699e-01
5.834000000000000000e+03 2.894099998474121094e+01 3.178450775146484375e+01 1.905527263879776001e-01 -4.106199145317077637e-01 -6.602016091346740723e-02 4.116436541080474854e-01
5.835000000000000000e+03 4.875111103057861328e+00 -3.695183944702148438e+01 1.528953481465578079e-02 -1.998950242996215820e-01 -5.538164451718330383e-02 -9.787300974130630493e-02
5.836000000000000000e+03 3.487479400634765625e+01 -3.672707748413085938e+01 3.060183525085449219e-01 -1.515873372554779053e-01 4.632930457592010498e-02 -2.576374113559722900e-01
5.837000000000000000e+03 7.179765319824218750e+01 3.949677276611328125e+01 1.882739067077636719e-01 3.853252649307250977e+00 1.212457895278930664e+00 -1.333767473697662354e-01
5.838000000000000000e+03 4.828049087524414062e+01 -3.977472305297851562e+01 8.127297163009643555e-01 8.190754801034927368e-02 2.683911621570587158e-01 1.307006552815437317e-02
5.839000000000000000e+03 6.400474071502685547e+00 -1.262086200714111328e+01 -5.220691487193107605e-02 -7.851573079824447632e-02 -3.921679407358169556e-02 -3.299741074442863464e-02
5.840000000000000000e+03 5.866876602172851562e+01 -2.442689132690429688e+01 2.027600109577178955e-01 4.607872366905212402e-01 1.990641653537750244e-01 4.259886443614959717e-01
5.841000000000000000e+03 5.574720764160156250e+01 -1.524344158172607422e+01 -1.505423784255981445e-01 -9.963741898536682129e-02 -7.505393773317337036e-02 -3.367929756641387939e-01
5.842000000000000000e+03 2.324798774719238281e+01 -1.807717132568359375e+01 -2.440200299024581909e-01 -1.182398125529289246e-01 -1.086779534816741943e-01 -2.089368253946304321e-01
5.843000000000000000e+03 1.368527126312255859e+01 -2.560065460205078125e+01 1.834731735289096832e-02 -3.078812360763549805e-01 -8.686017990112304688e-02 -1.877097636461257935e-01
5.844000000000000000e+03 7.325347900390625000e+00 -1.140434837341308594e+01 -4.849120602011680603e-02 -6.611864268779754639e-02 -3.438295423984527588e-02 -2.451224997639656067e-02
5.845000000000000000e+03 7.822641849517822266e+00 -1.082913494110107422e+01 -3.815545886754989624e-02 -6.631813198328018188e-02 -3.134207800030708313e-02 -2.335990406572818756e-02
5.846000000000000000e+03 1.036761379241943359e+01 5.996324062347412109e+00 -2.289659082889556885e-01 -1.335250735282897949e-01 -1.087472960352897644e-01 9.908528625965118408e-02
5.847000000000000000e+03 5.797761154174804688e+01 -1.287056541442871094e+01 -1.209707617759704590e+00 -4.618564248085021973e-01 -5.014691948890686035e-01 -1.333108991384506226e-01
5.848000000000000000e+03 5.899688339233398438e+01 -1.999674415588378906e+01 5.714952945709228516e-01 2.603717744350433350e-01 2.495601177215576172e-01 -1.084764674305915833e-02
5.849000000000000000e+03 7.468191528320312500e+01 1.700581550598144531e+01 5.476984381675720215e-01 6.560294628143310547e+00 2.132397890090942383e+00 -4.684709608554840088e-01
5.850000000000000000e+03 6.055471038818359375e+01 -1.678354644775390625e+01 3.564070761203765869e-01 3.603624701499938965e-01 2.150308638811111450e-01 -1.031650826334953308e-01
5.851000000000000000e+03 5.753929519653320312e+01 -1.754643058776855469e+01 4.603953957557678223e-01 -1.233317404985427856e-01 1.011191010475158691e-01 -2.712614834308624268e-01
5.852000000000000000e+03 4.368974685668945312e+01 1.799664878845214844e+01 2.760264575481414795e-01 3.292682170867919922e-01 1.815884113311767578e-01 1.929231584072113037e-01
5.853000000000000000e+03 7.349324798583984375e+01 -1.491279697418212891e+01 -1.287346839904785156e+00 4.582713127136230469e+00 9.886099100112915039e-01 8.245720267295837402e-01
5.854000000000000000e+03 4.139411544799804688e+01 1.058476734161376953e+01 -7.281905412673950195e-01 -2.881938517093658447e-01 -3.049153089523315430e-01 6.747392416000366211e-01
5.855000000000000000e+03 6.057658195495605469e+00 1.782986831665039062e+01 1.327315568923950195e-01 -2.155732363462448120e-01 -2.485250122845172882e-02 6.472116708755493164e-02
5.856000000000000000e+03 4.233550643920898438e+01 9.075482368469238281e+00 -7.914030551910400391e-01 -2.186018079519271851e-01 -3.030014634132385254e-01 7.318259477615356445e-01
5.857000000000000000e+03 4.309597015380859375e+01 9.404349327087402344e+00 -7.685592174530029297e-01 -1.849021911621093750e-01 -2.860384285449981689e-01 6.865988969802856445e-01
5.858000000000000000e+03 2.642506790161132812e+01 -2.057097244262695312e+01 -9.777544438838958740e-02 -1.800104528665542603e-01 -8.333576470613479614e-02 -1.508037447929382324e-01
5.859000000000000000e+03 2.643148422241210938e+01 -1.919606208801269531e+01 -1.844124644994735718e-01 -1.949516534805297852e-01 -1.138092353940010071e-01 -1.623484641313552856e-01
5.860000000000000000e+03 5.463531112670898438e+01 2.193893814086914062e+01 1.823331862688064575e-01 5.066029429435729980e-01 2.066808342933654785e-01 -2.938846349716186523e-01
5.861000000000000000e+03 2.718774223327636719e+01 -2.530596160888671875e+01 2.393361926078796387e-01 -1.460477113723754883e-01 2.798654325306415558e-02 -1.342385411262512207e-01
5.862000000000000000e+03 1.893180465698242188e+01 -1.534357643127441406e+01 -1.654800772666931152e-01 -2.342016436159610748e-02 -5.667007341980934143e-02 -1.121004447340965271e-01
5.863000000000000000e+03 1.821119117736816406e+01 -1.557905864715576172e+01 -9.925566613674163818e-02 -1.245933771133422852e-02 -3.351449966430664062e-02 -1.193859279155731201e-01
5.864000000000000000e+03 4.389533233642578125e+01 -1.626586914062500000e+01 -5.963286757469177246e-01 -2.030897140502929688e-01 -2.398255169391632080e-01 -1.627762019634246826e-01
5.865000000000000000e+03 4.431193923950195312e+01 -1.669849967956542969e+01 -5.413131713867187500e-01 -1.891053020954132080e-01 -2.191255539655685425e-01 -2.173904478549957275e-01
5.866000000000000000e+03 4.327524185180664062e+01 -1.655040168762207031e+01 -4.755677580833435059e-01 -1.894568502902984619e-01 -1.995073705911636353e-01 -2.204336673021316528e-01
5.867000000000000000e+03 7.349544525146484375e+01 8.036457061767578125e+00 -8.662579655647277832e-01 5.679797172546386719e+00 1.444061636924743652e+00 -8.646131157875061035e-01
5.868000000000000000e+03 7.540752410888671875e+01 8.884610176086425781e+00 -4.042036235332489014e-01 7.261890888214111328e+00 2.057306289672851562e+00 -1.317136883735656738e+00
5.869000000000000000e+03 2.007005882263183594e+01 -2.395223426818847656e+01 1.916656456887722015e-02 7.680151611566543579e-02 2.879042364656925201e-02 -1.905330121517181396e-01
5.870000000000000000e+03 7.100518035888671875e+01 5.243339061737060547e+00 -2.124802321195602417e-01 1.813164710998535156e+00 4.802053272724151611e-01 -3.210323154926300049e-01
5.871000000000000000e+03 7.193370056152343750e+01 3.034171104431152344e+00 -2.602994740009307861e-01 2.719357490539550781e+00 7.377173900604248047e-01 -8.124627470970153809e-01
5.872000000000000000e+03 4.775411987304687500e+01 2.279253005981445312e+01 4.182145297527313232e-01 4.016792774200439453e-01 2.459681332111358643e-01 2.661199569702148438e-01
5.873000000000000000e+03 5.104358673095703125e+01 2.117036247253417969e+01 3.026177883148193359e-01 3.242532312870025635e-01 1.880613118410110474e-01 -1.607023738324642181e-02
5.874000000000000000e+03 4.844514465332031250e+01 2.263920211791992188e+01 3.999745547771453857e-01 3.866137862205505371e-01 2.359765022993087769e-01 2.332650721073150635e-01
5.875000000000000000e+03 1.776319503784179688e+01 -2.236669921875000000e+01 -1.363519132137298584e-01 -7.537275552749633789e-02 -6.351739913225173950e-02 -2.440778762102127075e-01
5.876000000000000000e+03 1.823983573913574219e+01 -2.438377380371093750e+01 3.237420693039894104e-02 -3.193300962448120117e-02 1.323598553426563740e-04 -2.295010536909103394e-01
5.877000000000000000e+03 7.788845825195312500e+01 -8.709733963012695312e+00 1.029018759727478027e+00 1.025120639801025391e+01 3.384067535400390625e+00 -9.923236966133117676e-01
5.878000000000000000e+03 5.785519790649414062e+01 1.494484233856201172e+01 2.977532446384429932e-01 1.109229564666748047e+00 4.220948517322540283e-01 -2.596068084239959717e-01
5.879000000000000000e+03 5.809829330444335938e+01 1.560757732391357422e+01 2.936302721500396729e-01 1.142760276794433594e+00 4.309171438217163086e-01 -2.573661506175994873e-01
5.880000000000000000e+03 5.724885177612304688e+01 1.522249507904052734e+01 2.798911035060882568e-01 8.634882569313049316e-01 3.430137932300567627e-01 -2.888116538524627686e-01
5.881000000000000000e+03 6.682445049285888672e+00 2.064512634277343750e+01 1.846610940992832184e-02 -2.575081586837768555e-01 -7.171261310577392578e-02 4.598678648471832275e-02
5.882000000000000000e+03 3.318627929687500000e+01 -9.769471168518066406e+00 -7.430357486009597778e-02 -1.387683302164077759e-01 -6.392157077789306641e-02 -1.476013511419296265e-01
5.883000000000000000e+03 3.388400650024414062e+01 -8.158992767333984375e+00 1.831089891493320465e-02 -2.704178914427757263e-02 -2.619266975671052933e-03 -2.504846751689910889e-01
5.884000000000000000e+03 8.745504379272460938e+00 5.959537029266357422e+00 -1.722914427518844604e-01 -8.415295183658599854e-02 -7.693332433700561523e-02 5.383437499403953552e-02
5.885000000000000000e+03 3.927281856536865234e+00 1.511598491668701172e+01 6.114634126424789429e-02 -1.846997439861297607e-01 -3.706602007150650024e-02 1.049322932958602905e-01
5.886000000000000000e+03 6.647295475006103516e+00 1.448720359802246094e+01 1.154662519693374634e-01 -1.359297484159469604e-01 -6.139046978205442429e-03 1.818631887435913086e-01
5.887000000000000000e+03 4.993564605712890625e+01 -1.395940494537353516e+01 -7.594205141067504883e-01 -7.078706752508878708e-03 -2.299497723579406738e-01 -6.572401523590087891e-01
5.888000000000000000e+03 6.752353668212890625e+01 2.851783943176269531e+01 4.244747459888458252e-01 2.772212028503417969e+00 9.590060710906982422e-01 -4.795479476451873779e-01
5.889000000000000000e+03 6.816812133789062500e+01 2.920429039001464844e+01 3.913004994392395020e-01 2.966606378555297852e+00 1.007372021675109863e+00 -5.110618472099304199e-01
5.890000000000000000e+03 9.357527732849121094e+00 1.981171607971191406e+01 5.503999069333076477e-02 -5.962388217449188232e-02 -1.375167863443493843e-03 1.397406160831451416e-01
5.891000000000000000e+03 4.386751937866210938e+01 -2.086427307128906250e+01 1.729651689529418945e-01 -1.137778833508491516e-01 1.775618456304073334e-02 -6.244821548461914062e-01
5.892000000000000000e+03 4.233502578735351562e+01 -2.254651260375976562e+01 1.232140660285949707e-01 -1.419652700424194336e-01 -5.625360179692506790e-03 -6.271443963050842285e-01
5.893000000000000000e+03 5.125636672973632812e+01 -1.316734409332275391e+01 -8.248645663261413574e-01 1.231020241975784302e-01 -2.105287611484527588e-01 -7.055412530899047852e-01
5.894000000000000000e+03 6.821969604492187500e+01 1.579075932502746582e+00 -6.032845377922058105e-01 -3.429125249385833740e-02 -1.912727355957031250e-01 -1.894711554050445557e-01
5.895000000000000000e+03 6.949996948242187500e+01 1.451639294624328613e+00 -4.901045560836791992e-01 1.509954184293746948e-01 -1.017327383160591125e-01 -3.746944069862365723e-01
5.896000000000000000e+03 1.191851615905761719e+01 -2.738474655151367188e+01 -6.067693606019020081e-02 -2.364625781774520874e-01 -8.914185315370559692e-02 -1.369723230600357056e-01
5.897000000000000000e+03 1.868520736694335938e+01 -1.462402820587158203e+01 -1.593289375305175781e-01 -9.773786179721355438e-03 -5.073081701993942261e-02 -5.824802070856094360e-02
5.898000000000000000e+03 1.799932670593261719e+01 -1.491355037689208984e+01 -1.001243442296981812e-01 7.675304543226957321e-03 -2.773471176624298096e-02 -6.918425858020782471e-02
5.899000000000000000e+03 7.550769805908203125e+01 -2.752473640441894531e+01 -2.091951370239257812e-01 7.335580825805664062e+00 2.137915611267089844e+00 4.811504781246185303e-01
5.900000000000000000e+03 3.331007385253906250e+01 -6.990964412689208984e+00 -1.862250454723834991e-02 -6.760983914136886597e-02 -2.586970292031764984e-02 -2.874754667282104492e-01
5.901000000000000000e+03 2.166905784606933594e+01 2.885562705993652344e+01 6.502480059862136841e-02 -1.279677301645278931e-01 -1.888287626206874847e-02 2.083224952220916748e-01
5.902000000000000000e+03 6.098432922363281250e+01 5.586855411529541016e+00 -3.525651097297668457e-01 7.009512186050415039e-01 1.045158281922340393e-01 -3.168879151344299316e-01
5.903000000000000000e+03 6.174786090850830078e+00 -1.031120204925537109e+01 -1.782052032649517059e-02 -5.131888389587402344e-02 -2.074182219803333282e-02 -3.297345247119665146e-03
5.904000000000000000e+03 5.985828399658203125e+01 6.336575984954833984e+00 -2.890248782932758331e-02 6.348785758018493652e-01 1.817928403615951538e-01 -1.370593756437301636e-01
5.905000000000000000e+03 5.786656188964843750e+01 7.124349594116210938e+00 3.023773729801177979e-01 3.242699205875396729e-01 1.879941821098327637e-01 2.093298584222793579e-01
5.906000000000000000e+03 6.582443237304687500e+01 -1.333051204681396484e+01 -1.569721341133117676e+00 8.156144022941589355e-01 -2.262320816516876221e-01 4.849557578563690186e-01
5.907000000000000000e+03 4.490128707885742188e+01 5.762336254119873047e+00 -9.442746043205261230e-01 -2.820989191532135010e-01 -3.679120540618896484e-01 4.229387640953063965e-01
5.908000000000000000e+03 6.491215515136718750e+01 -1.366791057586669922e+01 -1.318963885307312012e+00 1.165375232696533203e+00 -4.607658833265304565e-02 2.287693917751312256e-01
5.909000000000000000e+03 4.892754745483398438e+01 2.821810722351074219e+01 1.400122046470642090e-01 6.092156767845153809e-01 2.247683703899383545e-01 1.978057175874710083e-01
5.910000000000000000e+03 5.026696395874023438e+01 2.811542320251464844e+01 1.976252049207687378e-01 7.907298207283020020e-01 2.965065240859985352e-01 1.742599159479141235e-01
5.911000000000000000e+03 7.491184997558593750e+01 3.019953346252441406e+01 8.404557406902313232e-02 4.835393428802490234e+00 1.475831747055053711e+00 -3.965959250926971436e-01
5.912000000000000000e+03 5.677289199829101562e+01 -1.608822441101074219e+01 1.758079528808593750e-01 -2.023702412843704224e-01 -7.968685589730739594e-03 -2.835326194763183594e-01
5.913000000000000000e+03 3.553872680664062500e+01 -3.345348358154296875e+01 6.971288472414016724e-02 -8.375037461519241333e-02 -4.211246967315673828e-03 -3.675146996974945068e-01
5.914000000000000000e+03 7.573068237304687500e+01 2.944336128234863281e+01 4.631668701767921448e-02 5.108945846557617188e+00 1.546578764915466309e+00 -3.643274605274200439e-01
5.915000000000000000e+03 6.221670532226562500e+01 -1.170586395263671875e+01 -1.874386787414550781e+00 7.902464270591735840e-01 -3.252421319484710693e-01 9.005714207887649536e-02
5.916000000000000000e+03 1.685225677490234375e+01 -2.443494987487792969e+01 3.417367860674858093e-02 -1.904018372297286987e-01 -4.686845093965530396e-02 -2.284651547670364380e-01
5.917000000000000000e+03 6.438591766357421875e+01 4.337955951690673828e+00 -6.029358506202697754e-01 6.140098571777343750e-01 3.322197822853922844e-03 -6.345879435539245605e-01
5.918000000000000000e+03 4.456379699707031250e+01 -2.518884277343750000e+01 1.975848227739334106e-01 1.776049435138702393e-01 1.125569269061088562e-01 -2.981373965740203857e-01
5.919000000000000000e+03 7.468669891357421875e+01 -3.036043167114257812e+01 -1.561705023050308228e-01 5.901044845581054688e+00 1.723462343215942383e+00 8.455907702445983887e-01
5.920000000000000000e+03 5.920795440673828125e+01 9.122674942016601562e+00 5.886521935462951660e-01 1.044348359107971191e+00 4.899001419544219971e-01 -1.646362058818340302e-02
5.921000000000000000e+03 5.876161956787109375e+01 1.005552101135253906e+01 6.318459510803222656e-01 1.050381898880004883e+00 5.046683549880981445e-01 1.272636465728282928e-02
5.922000000000000000e+03 1.244611549377441406e+01 -9.531127929687500000e+00 -4.585922509431838989e-02 2.267558872699737549e-02 -6.955090444535017014e-03 -3.186076879501342773e-02
5.923000000000000000e+03 1.110797214508056641e+01 -5.380462169647216797e+00 -1.573438639752566814e-03 -1.213662419468164444e-02 -4.113018978387117386e-03 -1.927877962589263916e-02
5.924000000000000000e+03 3.799814605712890625e+01 1.414417934417724609e+01 -2.131636291742324829e-01 -7.900553345680236816e-01 -3.009656965732574463e-01 4.379953444004058838e-01
5.925000000000000000e+03 4.170431137084960938e+01 1.751909637451171875e+01 2.623572349548339844e-01 -3.477644547820091248e-02 6.827423721551895142e-02 2.613653242588043213e-01
5.926000000000000000e+03 4.527185821533203125e+01 -2.425391960144042969e+01 2.684441208839416504e-01 2.182122617959976196e-01 1.459969133138656616e-01 -3.422256410121917725e-01
5.927000000000000000e+03 7.448328971862792969e+00 -9.604557991027832031e+00 -1.776197180151939392e-02 -5.426604673266410828e-02 -2.160840481519699097e-02 -1.188099104911088943e-02
5.928000000000000000e+03 5.802110195159912109e+00 -5.663641929626464844e+00 6.969768553972244263e-03 -1.619712449610233307e-02 -2.768206642940640450e-03 7.992773316800594330e-03
5.929000000000000000e+03 2.755828285217285156e+01 1.144370555877685547e+01 1.028098985552787781e-01 2.442841827869415283e-01 1.041282191872596741e-01 1.767331212759017944e-01
5.930000000000000000e+03 6.824686527252197266e+00 -5.940870761871337891e+00 5.184439476579427719e-03 -2.215319313108921051e-02 -5.090625956654548645e-03 2.148060826584696770e-03
5.931000000000000000e+03 7.246993064880371094e+00 -5.711665630340576172e+00 6.780454423278570175e-03 -2.188250236213207245e-02 -4.530614241957664490e-03 -5.062996060587465763e-04
5.932000000000000000e+03 6.797515392303466797e+00 -5.506590843200683594e+00 6.799627095460891724e-03 -1.923231594264507294e-02 -3.729806747287511826e-03 1.572538982145488262e-03
5.933000000000000000e+03 6.570955657958984375e+01 2.302224922180175781e+01 3.921267688274383545e-01 1.121841430664062500e+00 4.541904628276824951e-01 -2.819014787673950195e-01
5.934000000000000000e+03 1.243216609954833984e+01 2.065499496459960938e+01 -7.636005990207195282e-03 1.386636793613433838e-01 3.930830210447311401e-02 3.285771012306213379e-01
5.935000000000000000e+03 1.249427032470703125e+01 1.993203163146972656e+01 -2.131751738488674164e-02 1.992235183715820312e-01 5.337180197238922119e-02 3.234376609325408936e-01
5.936000000000000000e+03 7.012947845458984375e+01 4.382824897766113281e+00 4.917622357606887817e-02 8.607379794120788574e-01 2.729742527008056641e-01 -4.861218631267547607e-01
5.937000000000000000e+03 6.829015350341796875e+01 2.329043149948120117e+00 -3.291132450103759766e-01 -8.478779345750808716e-03 -1.012776121497154236e-01 -3.256323635578155518e-01
5.938000000000000000e+03 7.317722320556640625e+01 -3.091859436035156250e+01 1.222979500889778137e-01 4.790797710418701172e+00 1.473928689956665039e+00 1.063634157180786133e+00
5.939000000000000000e+03 7.513923645019531250e+01 -3.102608489990234375e+01 -8.979095518589019775e-02 5.969455718994140625e+00 1.763899326324462891e+00 6.852098107337951660e-01
5.940000000000000000e+03 2.612480735778808594e+01 7.237153053283691406e+00 2.103987932205200195e-01 6.333717703819274902e-02 8.212079107761383057e-02 1.522983312606811523e-01
5.941000000000000000e+03 2.618223762512207031e+01 6.008909702301025391e+00 9.881635010242462158e-02 7.994135469198226929e-02 5.362731218338012695e-02 1.686817407608032227e-01
5.942000000000000000e+03 6.069972038269042969e+00 1.265318393707275391e+01 7.643751334398984909e-03 -1.111204847693443298e-01 -3.104301914572715759e-02 1.980540752410888672e-01
5.943000000000000000e+03 2.536179542541503906e+01 6.783101081848144531e+00 1.715395450592041016e-01 -2.076019905507564545e-02 4.523380473256111145e-02 1.585860848426818848e-01
5.944000000000000000e+03 2.285455894470214844e+01 9.141375541687011719e+00 2.110072970390319824e-01 -1.795427948236465454e-01 9.439350105822086334e-03 1.046686097979545593e-01
5.945000000000000000e+03 2.344324111938476562e+01 5.892926216125488281e+00 4.357934743165969849e-02 -1.343192756175994873e-01 -2.722197771072387695e-02 1.494418978691101074e-01
5.946000000000000000e+03 7.470227813720703125e+01 3.333807754516601562e+01 1.176815629005432129e-01 4.627773284912109375e+00 1.423636436462402344e+00 -2.964574396610260010e-01
5.947000000000000000e+03 7.491294860839843750e+01 3.092728042602539062e+01 8.994445949792861938e-02 4.801307678222656250e+00 1.467375636100769043e+00 -3.863875865936279297e-01
5.948000000000000000e+03 6.064599227905273438e+01 2.190737342834472656e+01 3.282746672630310059e-02 7.633647918701171875e-01 2.388576716184616089e-01 4.758875966072082520e-01
5.949000000000000000e+03 6.514742279052734375e+01 2.584488487243652344e+01 5.515596270561218262e-01 1.864102005958557129e+00 7.246984839439392090e-01 -7.064410299062728882e-02
5.950000000000000000e+03 6.557756042480468750e+01 2.491119194030761719e+01 5.281563997268676758e-01 1.689122319221496582e+00 6.651836037635803223e-01 -2.119490951299667358e-01
5.951000000000000000e+03 7.627405548095703125e+01 -2.821943092346191406e+01 -2.197600007057189941e-01 7.232606410980224609e+00 2.103853940963745117e+00 3.154106736183166504e-01
5.952000000000000000e+03 7.478572082519531250e+01 -2.933068275451660156e+01 -2.775596976280212402e-01 6.254654407501220703e+00 1.793128490447998047e+00 8.826565146446228027e-01
5.953000000000000000e+03 3.995006084442138672e+00 -2.943720245361328125e+01 -3.543681278824806213e-02 -9.050849080085754395e-02 -3.778358921408653259e-02 -2.969097904860973358e-02
5.954000000000000000e+03 4.649944305419921875e+00 -2.870496177673339844e+01 -4.136063158512115479e-02 -7.847698032855987549e-02 -3.595128282904624939e-02 -2.707797661423683167e-02
5.955000000000000000e+03 7.492753601074218750e+01 2.941103744506835938e+01 6.303355842828750610e-02 4.887714385986328125e+00 1.485224366188049316e+00 -4.300290942192077637e-01
5.956000000000000000e+03 2.023259925842285156e+01 -1.672981452941894531e+01 -2.104876339435577393e-01 -6.584027409553527832e-02 -8.289837092161178589e-02 -2.148687839508056641e-01
5.957000000000000000e+03 2.067162895202636719e+01 -1.763399696350097656e+01 -2.134537696838378906e-01 -6.526681035757064819e-02 -8.361617475748062134e-02 -2.500582933425903320e-01
5.958000000000000000e+03 2.204010391235351562e+01 -1.704479598999023438e+01 -2.709226012229919434e-01 -1.047054529190063477e-01 -1.126884147524833679e-01 -2.149557620286941528e-01
5.959000000000000000e+03 6.388981246948242188e+01 -1.268479633331298828e+01 -1.667302489280700684e+00 1.049577713012695312e+00 -1.853174269199371338e-01 1.449464708566665649e-01
5.960000000000000000e+03 4.068214893341064453e+00 -3.086919403076171875e+01 -3.648103401064872742e-02 -1.090419813990592957e-01 -4.365690425038337708e-02 -5.208046361804008484e-02
5.961000000000000000e+03 5.949438095092773438e+01 7.830432415008544922e+00 3.833705484867095947e-01 8.342801332473754883e-01 3.652952015399932861e-01 -5.268420279026031494e-02
5.962000000000000000e+03 4.815622329711914062e+00 -2.713636589050292969e+01 -2.718563750386238098e-02 -5.774439126253128052e-02 -2.547900937497615814e-02 -7.765840739011764526e-03
5.963000000000000000e+03 2.219857978820800781e+01 9.047826766967773438e+00 2.012281119823455811e-01 -1.849907934665679932e-01 4.871196579188108444e-03 1.091316863894462585e-01
5.964000000000000000e+03 2.196829605102539062e+01 7.905970096588134766e+00 2.074333131313323975e-01 -1.784995347261428833e-01 8.680136874318122864e-03 1.127066463232040405e-01
5.965000000000000000e+03 7.113962554931640625e+01 2.134810066223144531e+01 -1.486734151840209961e-01 4.229048728942871094e+00 1.224112629890441895e+00 -1.187622666358947754e+00
5.966000000000000000e+03 6.767134857177734375e+01 2.597307395935058594e+01 4.260145425796508789e-01 2.472404479980468750e+00 8.695256710052490234e-01 -5.995995998382568359e-01
5.967000000000000000e+03 7.524201965332031250e+01 2.211390686035156250e+01 -1.613715142011642456e-01 5.779045581817626953e+00 1.685302257537841797e+00 -3.965713679790496826e-01
5.968000000000000000e+03 7.496899414062500000e+01 2.860978317260742188e+01 4.942312091588973999e-02 4.963756084442138672e+00 1.503953814506530762e+00 -4.417916238307952881e-01
5.969000000000000000e+03 7.604560852050781250e+01 2.151045989990234375e+01 -1.257253289222717285e-01 6.058293819427490234e+00 1.779770493507385254e+00 -2.540529072284698486e-01
5.970000000000000000e+03 7.421880340576171875e+01 2.118449592590332031e+01 -1.961678266525268555e-01 5.703279495239257812e+00 1.652133584022521973e+00 -5.418702363967895508e-01
5.971000000000000000e+03 7.594638061523437500e+01 2.229856300354003906e+01 -1.444439589977264404e-01 5.905217647552490234e+00 1.728232145309448242e+00 -3.095948100090026855e-01
5.972000000000000000e+03 7.510314178466796875e+01 2.322679328918457031e+01 -1.568506509065628052e-01 5.585680007934570312e+00 1.628648757934570312e+00 -4.525125920772552490e-01
5.973000000000000000e+03 7.442546844482421875e+01 2.311201286315917969e+01 -1.682600975036621094e-01 5.406349182128906250e+00 1.571426630020141602e+00 -5.613335371017456055e-01
5.974000000000000000e+03 7.545860290527343750e+01 -2.677415847778320312e+01 -3.526860475540161133e-02 7.578658103942871094e+00 2.263016939163208008e+00 3.991799652576446533e-01
5.975000000000000000e+03 7.594366455078125000e+01 2.629393196105957031e+01 -2.924711070954799652e-02 5.433154106140136719e+00 1.621172070503234863e+00 -3.901655375957489014e-01
5.976000000000000000e+03 7.615182495117187500e+01 -2.746738433837890625e+01 -1.592754423618316650e-01 7.430175304412841797e+00 2.181269884109497070e+00 2.629441916942596436e-01
5.977000000000000000e+03 7.503608703613281250e+01 1.770724296569824219e+01 3.131005167961120605e-01 6.478948593139648438e+00 2.037614583969116211e+00 -3.492814600467681885e-01
5.978000000000000000e+03 7.623944091796875000e+01 1.348101615905761719e+00 -9.245473742485046387e-01 8.838763236999511719e+00 2.374264717102050781e+00 -1.794709265232086182e-01
5.979000000000000000e+03 7.561614990234375000e+01 2.006087541580200195e+00 -8.082266449928283691e-01 7.940909862518310547e+00 2.139804840087890625e+00 -4.506171345710754395e-01
5.980000000000000000e+03 7.597381591796875000e+01 -1.780659294128417969e+01 -1.256092786788940430e+00 8.441588401794433594e+00 2.155648708343505859e+00 1.088714838027954102e+00
5.981000000000000000e+03 7.483670806884765625e+01 2.420132160186767578e+00 -7.948862314224243164e-01 6.800368309020996094e+00 1.801644563674926758e+00 -7.695236802101135254e-01
5.982000000000000000e+03 7.521099853515625000e+01 1.136317157745361328e+01 2.599764466285705566e-01 7.117068767547607422e+00 2.213113546371459961e+00 -1.500857472419738770e+00
5.983000000000000000e+03 7.562104797363281250e+01 1.732969284057617188e+01 3.552969694137573242e-01 6.542571067810058594e+00 2.069360494613647461e+00 -3.187412619590759277e-01
5.984000000000000000e+03 7.594504547119140625e+01 4.658114910125732422e+00 -4.765525460243225098e-01 7.738124370574951172e+00 2.178471565246582031e+00 -6.931969523429870605e-01
5.985000000000000000e+03 7.212879943847656250e+01 1.497319340705871582e+00 -5.718873143196105957e-01 2.808313608169555664e+00 6.709278821945190430e-01 -1.146333456039428711e+00
5.986000000000000000e+03 3.973089933395385742e+00 -3.018354797363281250e+01 -3.608009219169616699e-02 -9.792370349168777466e-02 -4.020113870501518250e-02 -3.956981748342514038e-02
5.987000000000000000e+03 6.672454833984375000e+01 2.357417106628417969e+01 3.992434740066528320e-01 1.586343646049499512e+00 5.956761240959167480e-01 -5.647885203361511230e-01
5.988000000000000000e+03 6.531047058105468750e+01 2.403616905212402344e+01 4.830961823463439941e-01 1.382865190505981445e+00 5.597884058952331543e-01 -1.536063253879547119e-01
5.989000000000000000e+03 7.597036743164062500e+01 1.640503120422363281e+01 5.017038583755493164e-01 6.648865699768066406e+00 2.145170927047729492e+00 -4.103266894817352295e-01
5.990000000000000000e+03 7.570226287841796875e+01 -1.606906318664550781e+01 -1.491693973541259766e+00 8.273392677307128906e+00 2.034509658813476562e+00 4.399855434894561768e-01
5.991000000000000000e+03 7.610535430908203125e+01 1.919453239440917969e+01 1.679729856550693512e-02 6.366773605346679688e+00 1.915071249008178711e+00 -1.772171705961227417e-01
5.992000000000000000e+03 7.392622375488281250e+01 1.882137489318847656e+01 7.083128392696380615e-02 6.138032913208007812e+00 1.862659215927124023e+00 -5.352063179016113281e-01
5.993000000000000000e+03 7.436061096191406250e+01 1.632653617858886719e+01 8.039201498031616211e-01 6.673642158508300781e+00 2.243268728256225586e+00 -6.023013591766357422e-01
5.994000000000000000e+03 7.523707580566406250e+01 3.479797601699829102e+00 -6.142149567604064941e-01 7.131084442138671875e+00 1.955060958862304688e+00 -6.989521384239196777e-01
5.995000000000000000e+03 7.640859985351562500e+01 1.315139770507812500e+01 4.444397687911987305e-01 7.141546726226806641e+00 2.275795936584472656e+00 -1.094312310218811035e+00
5.996000000000000000e+03 7.578936767578125000e+01 1.233732700347900391e+01 4.382395744323730469e-01 7.137355327606201172e+00 2.272678375244140625e+00 -1.353498816490173340e+00
5.997000000000000000e+03 7.599296569824218750e+01 9.196733474731445312e+00 -2.742784917354583740e-01 7.568616390228271484e+00 2.188301324844360352e+00 -1.341977953910827637e+00
5.998000000000000000e+03 7.487590026855468750e+01 -1.606946945190429688e+01 -1.749488711357116699e+00 7.081560611724853516e+00 1.599621653556823730e+00 5.351366996765136719e-01
5.999000000000000000e+03 7.528534698486328125e+01 1.429711055755615234e+01 8.200594782829284668e-01 6.871443271636962891e+00 2.307450771331787109e+00 -1.008220911026000977e+00
6.000000000000000000e+03 7.468686676025390625e+01 1.305671596527099609e+01 7.843890190124511719e-01 6.976361751556396484e+00 2.328225135803222656e+00 -1.344349503517150879e+00
6.001000000000000000e+03 7.630123901367187500e+01 -1.261709117889404297e+01 -1.232530832290649414e+00 1.078915882110595703e+01 2.866988420486450195e+00 -8.636137843132019043e-01
6.002000000000000000e+03 7.606255340576171875e+01 5.543375492095947266e+00 -4.384161233901977539e-01 7.780028820037841797e+00 2.202483892440795898e+00 -7.825266718864440918e-01
6.003000000000000000e+03 7.545105743408203125e+01 6.481268882751464844e+00 -5.111160874366760254e-01 7.196173191070556641e+00 2.005517005920410156e+00 -9.179344177246093750e-01
6.004000000000000000e+03 7.498020935058593750e+01 7.555140495300292969e+00 -5.955787897109985352e-01 6.842950344085693359e+00 1.874211430549621582e+00 -1.050463914871215820e+00
6.005000000000000000e+03 7.514571380615234375e+01 4.850750446319580078e+00 -5.394753813743591309e-01 6.909958362579345703e+00 1.911144852638244629e+00 -7.600625753402709961e-01
6.006000000000000000e+03 7.481266021728515625e+00 9.710517883300781250e+00 -1.664846241474151611e-01 -8.965834975242614746e-02 -7.684288918972015381e-02 1.552384346723556519e-01
6.007000000000000000e+03 7.542910003662109375e+01 1.999062538146972656e+01 -8.617840707302093506e-02 6.168007850646972656e+00 1.824548840522766113e+00 -2.917879521846771240e-01
6.008000000000000000e+03 7.589434814453125000e+01 2.708272361755371094e+01 -1.116113457828760147e-02 5.339745521545410156e+00 1.598575234413146973e+00 -3.956125378608703613e-01
6.009000000000000000e+03 7.516808319091796875e+01 2.399407958984375000e+01 -1.190082803368568420e-01 5.490272998809814453e+00 1.611379504203796387e+00 -4.642952084541320801e-01
6.010000000000000000e+03 5.533406257629394531e+00 -2.465404129028320312e+01 3.030726686120033264e-02 -2.180282212793827057e-02 2.551333047449588776e-03 2.569048199802637100e-03
6.011000000000000000e+03 7.557991027832031250e+01 -1.481284332275390625e+01 -1.532008886337280273e+00 8.401181221008300781e+00 2.060751914978027344e+00 2.223385721445083618e-01
6.012000000000000000e+03 7.626972961425781250e+01 -1.482666683197021484e+01 -1.414724111557006836e+00 9.261288642883300781e+00 2.353969335556030273e+00 -5.451726540923118591e-02
6.013000000000000000e+03 3.528125286102294922e+00 -3.337908935546875000e+01 -2.021778374910354614e-02 -1.480127871036529541e-01 -5.046917125582695007e-02 -7.189379632472991943e-02
6.014000000000000000e+03 8.413273811340332031e+00 -3.391449737548828125e+01 -4.567895829677581787e-02 -1.610084176063537598e-01 -6.200621277093887329e-02 -1.485389322042465210e-01
6.015000000000000000e+03 4.401542186737060547e+00 6.638812065124511719e+00 -7.007320970296859741e-02 -1.107237488031387329e-02 -2.434367500245571136e-02 2.686123922467231750e-02
6.016000000000000000e+03 4.925060272216796875e+00 6.211033344268798828e+00 -7.929369062185287476e-02 -1.361398771405220032e-02 -2.787230350077152252e-02 2.042392641305923462e-02
6.017000000000000000e+03 7.530058288574218750e+01 -1.567323684692382812e+01 -1.640413284301757812e+00 7.838360786437988281e+00 1.859384298324584961e+00 3.931643962860107422e-01
6.018000000000000000e+03 4.052769660949707031e+00 -2.624610710144042969e+01 -6.897193379700183868e-03 -6.064543128013610840e-02 -2.026278711855411530e-02 5.699435714632272720e-03
6.019000000000000000e+03 5.554166316986083984e+00 5.310537815093994141e+00 -7.295882701873779297e-02 -1.409296039491891861e-02 -2.611553668975830078e-02 9.143691277131438255e-04
6.020000000000000000e+03 5.095406532287597656e+00 1.123887443542480469e+01 -4.607152566313743591e-02 -8.320062607526779175e-02 -3.878164663910865784e-02 1.626591831445693970e-01
6.021000000000000000e+03 6.900190734863281250e+01 2.252786445617675781e+01 8.126983046531677246e-02 2.666838407516479492e+00 8.244324326515197754e-01 -1.149181723594665527e+00
6.022000000000000000e+03 7.019705200195312500e+01 2.152273941040039062e+01 -6.187539920210838318e-02 3.552525758743286133e+00 1.047195076942443848e+00 -1.266701698303222656e+00
6.023000000000000000e+03 3.972458124160766602e+00 -1.181509590148925781e+01 -1.388890948146581650e-02 -2.738246694207191467e-02 -1.238141302019357681e-02 2.593332901597023010e-03
6.024000000000000000e+03 3.947822332382202148e+00 1.671407318115234375e+01 7.407835870981216431e-02 -2.171091735363006592e-01 -4.290924221277236938e-02 6.077812612056732178e-02
6.025000000000000000e+03 5.681101322174072266e+00 -2.634713935852050781e+01 -2.387582324445247650e-02 -3.832346946001052856e-02 -1.865978725254535675e-02 -1.063084229826927185e-02
6.026000000000000000e+03 6.523947238922119141e+00 1.878834152221679688e+01 1.140231788158416748e-01 -2.207985371351242065e-01 -3.203260526061058044e-02 5.083915218710899353e-02
6.027000000000000000e+03 4.448412418365478516e+00 1.925984382629394531e+01 6.097437441349029541e-02 -2.579460144042968750e-01 -5.909149348735809326e-02 3.082401119172573090e-03
6.028000000000000000e+03 3.802783489227294922e+00 9.731255531311035156e+00 -5.023743957281112671e-02 -4.614019021391868591e-02 -2.891328930854797363e-02 9.934557974338531494e-02
6.029000000000000000e+03 4.314407825469970703e+00 9.883106231689453125e+00 -6.356913596391677856e-02 -5.046269297599792480e-02 -3.420954942703247070e-02 1.169929653406143188e-01
6.030000000000000000e+03 4.775451660156250000e+00 -1.254222583770751953e+01 -2.718186564743518829e-02 -5.225791037082672119e-02 -2.383193187415599823e-02 -1.232660003006458282e-02
6.031000000000000000e+03 6.341468811035156250e+00 1.365262222290039062e+01 6.820423901081085205e-02 -1.270436197519302368e-01 -1.765181683003902435e-02 1.952575743198394775e-01
6.032000000000000000e+03 5.645220279693603516e+00 2.167304992675781250e+01 -2.995673753321170807e-02 -3.159824013710021973e-01 -1.037817448377609253e-01 2.611265890300273895e-02
6.033000000000000000e+03 4.292558670043945312e+00 1.350879383087158203e+01 3.335916250944137573e-02 -1.409141570329666138e-01 -3.226649761199951172e-02 1.470060199499130249e-01
6.034000000000000000e+03 5.776812553405761719e+00 9.784454345703125000e+00 -1.057671755552291870e-01 -5.905153602361679077e-02 -4.944561421871185303e-02 1.380690187215805054e-01
6.035000000000000000e+03 4.070038795471191406e+00 -9.577205657958984375e+00 -4.214839078485965729e-03 -1.619712449610233307e-02 -6.123588886111974716e-03 1.317722536623477936e-02
6.036000000000000000e+03 4.560575008392333984e+00 -1.144634056091308594e+01 -1.677742600440979004e-02 -3.789419680833816528e-02 -1.640148833394050598e-02 7.682609139010310173e-04
6.037000000000000000e+03 4.845832824707031250e+00 2.145851516723632812e+01 -6.122170947492122650e-03 -3.056427240371704102e-01 -9.352946281433105469e-02 -2.371467882767319679e-03
6.038000000000000000e+03 4.697517871856689453e+00 -1.361596584320068359e+01 -3.568136692047119141e-02 -6.757541745901107788e-02 -3.097703494131565094e-02 -2.611329406499862671e-02
6.039000000000000000e+03 4.728843688964843750e+00 -2.794423675537109375e+01 -3.724939748644828796e-02 -6.655051559209823608e-02 -3.113997355103492737e-02 -1.758762821555137634e-02
6.040000000000000000e+03 4.649742126464843750e+00 2.280407333374023438e+01 -5.894508585333824158e-02 -3.441705107688903809e-01 -1.209346726536750793e-01 1.600127853453159332e-02
6.041000000000000000e+03 5.280529022216796875e+00 -9.794173240661621094e+00 -9.303475730121135712e-03 -3.784555941820144653e-02 -1.414471026510000229e-02 4.325580317527055740e-03
6.042000000000000000e+03 5.709703826904296875e+01 1.729600334167480469e+01 2.529685199260711670e-01 7.518576383590698242e-01 3.014478385448455811e-01 -3.122025132179260254e-01
6.043000000000000000e+03 3.830179214477539062e+00 1.597106838226318359e+01 6.912049651145935059e-02 -2.059991061687469482e-01 -4.106358066201210022e-02 7.977592945098876953e-02
6.044000000000000000e+03 5.050387382507324219e+00 -1.093407249450683594e+01 -1.544359792023897171e-02 -4.021942242980003357e-02 -1.669890619814395905e-02 2.350979717448353767e-03
6.045000000000000000e+03 5.818031311035156250e+00 1.559370994567871094e+01 1.249961853027343750e-01 -1.795734763145446777e-01 -1.637318730354309082e-02 1.358073949813842773e-01
6.046000000000000000e+03 5.291381359100341797e+00 2.002036476135253906e+01 4.938245564699172974e-02 -2.692728340625762939e-01 -6.596711277961730957e-02 8.800491690635681152e-03
6.047000000000000000e+03 5.341082572937011719e+00 2.119901466369628906e+01 -2.601135754957795143e-03 -2.985828816890716553e-01 -9.035521000623703003e-02 9.173408150672912598e-03
6.048000000000000000e+03 3.854576349258422852e+00 -7.244106769561767578e+00 3.580184420570731163e-03 -5.786421243101358414e-03 -6.618710467591881752e-04 1.568645238876342773e-02
6.049000000000000000e+03 4.708052158355712891e+00 1.450501346588134766e+01 6.853586435317993164e-02 -1.655675619840621948e-01 -2.910950779914855957e-02 1.392343193292617798e-01
6.050000000000000000e+03 4.462955951690673828e+00 1.599158668518066406e+01 8.934918045997619629e-02 -2.017442137002944946e-01 -3.371850773692131042e-02 9.305355697870254517e-02
6.051000000000000000e+03 2.476731300354003906e+01 6.411222457885742188e+00 1.108580604195594788e-01 -8.402990549802780151e-02 8.048446848988533020e-03 1.522801220417022705e-01
6.052000000000000000e+03 2.663864517211914062e+01 8.352387428283691406e+00 2.679812014102935791e-01 1.520319283008575439e-01 1.260039359331130981e-01 1.356329768896102905e-01
6.053000000000000000e+03 4.802244663238525391e+00 -8.562939643859863281e+00 -1.667758449912071228e-03 -2.330459281802177429e-02 -7.491705007851123810e-03 1.198416110128164291e-02
6.054000000000000000e+03 5.470546722412109375e+00 -8.261466026306152344e+00 -1.120177548727951944e-04 -2.849226631224155426e-02 -8.581285364925861359e-03 8.310124278068542480e-03
6.055000000000000000e+03 7.438921356201171875e+01 -3.474124145507812500e+01 1.817122846841812134e-01 5.177972793579101562e+00 1.607905507087707520e+00 5.112136602401733398e-01
6.056000000000000000e+03 7.505379486083984375e+01 2.781395149230957031e+01 2.392070740461349487e-02 5.040082454681396484e+00 1.519201040267944336e+00 -4.579767584800720215e-01
6.057000000000000000e+03 7.515859222412109375e+01 2.702690315246582031e+01 -2.085245359921827912e-04 5.140381813049316406e+00 1.542051911354064941e+00 -4.632081389427185059e-01
6.058000000000000000e+03 7.535362243652343750e+01 -3.274973678588867188e+01 2.912778779864311218e-02 5.807395458221435547e+00 1.750957012176513672e+00 5.514062643051147461e-01
6.059000000000000000e+03 7.443193054199218750e+01 -3.276129531860351562e+01 9.207180887460708618e-02 5.364285945892333984e+00 1.636907339096069336e+00 6.897585988044738770e-01
6.060000000000000000e+03 3.508250427246093750e+01 -1.286221504211425781e+01 -4.532597959041595459e-01 1.800477355718612671e-01 -8.196362107992172241e-02 -1.489654034376144409e-01
6.061000000000000000e+03 3.569457626342773438e+01 -1.282190799713134766e+01 -4.977267980575561523e-01 3.222469091415405273e-01 -5.264396965503692627e-02 -1.460385918617248535e-01
6.062000000000000000e+03 5.459605407714843750e+01 -1.230725955963134766e+01 -1.379381299018859863e+00 -1.035594046115875244e-01 -4.448822140693664551e-01 -4.944292604923248291e-01
6.063000000000000000e+03 5.446680068969726562e+01 -1.398911476135253906e+01 -7.653630375862121582e-01 2.189342863857746124e-02 -2.230408787727355957e-01 -5.677177906036376953e-01
6.064000000000000000e+03 4.667046070098876953e+00 -3.312360382080078125e+01 -2.955173514783382416e-02 -1.430226117372512817e-01 -5.177230387926101685e-02 -8.888351917266845703e-02
6.065000000000000000e+03 7.664142131805419922e+00 -3.335395050048828125e+01 -5.750419199466705322e-02 -1.501193046569824219e-01 -6.228704750537872314e-02 -1.345379501581192017e-01
6.066000000000000000e+03 7.418731689453125000e+01 -2.980235481262207031e+01 -1.569956541061401367e-01 5.703998565673828125e+00 1.664100885391235352e+00 1.044913172721862793e+00
6.067000000000000000e+03 5.785817718505859375e+01 -2.426730728149414062e+01 1.788291782140731812e-01 3.992056548595428467e-01 1.734104454517364502e-01 3.702760636806488037e-01
6.068000000000000000e+03 5.706967163085937500e+01 -2.351397895812988281e+01 1.347985565662384033e-01 2.605912089347839355e-01 1.186169236898422241e-01 2.672386765480041504e-01
6.069000000000000000e+03 7.120981216430664062e+00 1.048906326293945312e+01 -1.255013048648834229e-01 -8.940799534320831299e-02 -6.447279453277587891e-02 1.782410293817520142e-01
6.070000000000000000e+03 6.209212875366210938e+01 -2.326397895812988281e+01 4.132710993289947510e-01 1.115722894668579102e+00 4.586981832981109619e-01 1.907354593276977539e-01
6.071000000000000000e+03 6.252857971191406250e+01 -2.220061683654785156e+01 5.861756205558776855e-01 1.381876111030578613e+00 5.904155373573303223e-01 1.767344176769256592e-01
6.072000000000000000e+03 1.061996459960937500e+01 5.446031093597412109e+00 -2.054216861724853516e-01 -1.218543946743011475e-01 -9.818281978368759155e-02 8.818610012531280518e-02
6.073000000000000000e+03 3.836431503295898438e+01 1.365595245361328125e+01 -3.148742914199829102e-01 -7.687289118766784668e-01 -3.250809609889984131e-01 4.507275223731994629e-01
6.074000000000000000e+03 3.971415328979492188e+01 1.463787841796875000e+01 -6.562565267086029053e-02 -5.442681908607482910e-01 -1.829681396484375000e-01 3.691438436508178711e-01
6.075000000000000000e+03 5.969181442260742188e+01 3.761423110961914062e+00 -1.082709193229675293e+00 2.433405667543411255e-01 -2.518105804920196533e-01 -1.795615851879119873e-01
6.076000000000000000e+03 6.053174591064453125e+01 2.946129083633422852e+00 -1.428698778152465820e+00 3.680851161479949951e-01 -3.181840777397155762e-01 -2.382414340972900391e-01
6.077000000000000000e+03 4.280977630615234375e+01 -2.095905303955078125e+01 1.957505792379379272e-01 -1.396031528711318970e-01 1.684422791004180908e-02 -6.542840003967285156e-01
6.078000000000000000e+03 6.279164314270019531e+00 -3.389397430419921875e+01 -3.506869822740554810e-02 -1.513584703207015991e-01 -5.592815205454826355e-02 -1.195170432329177856e-01
6.079000000000000000e+03 1.332978153228759766e+01 -2.668333053588867188e+01 -1.524335518479347229e-02 -3.048476874828338623e-01 -9.602731466293334961e-02 -1.675161719322204590e-01
6.080000000000000000e+03 5.372888565063476562e+01 -1.175225830078125000e+01 -1.342214107513427734e+00 7.580787874758243561e-03 -4.003899991512298584e-01 -4.477096796035766602e-01
6.081000000000000000e+03 5.687460708618164062e+01 7.369059085845947266e+00 4.315057396888732910e-01 2.063204944133758545e-01 1.913478672504425049e-01 3.350345790386199951e-01
6.082000000000000000e+03 7.101617431640625000e+01 -3.268940734863281250e+01 5.148677825927734375e-01 3.528226137161254883e+00 1.212928175926208496e+00 7.011865377426147461e-01
6.083000000000000000e+03 7.449281311035156250e+01 1.247399139404296875e+01 6.382792592048645020e-01 6.990908145904541016e+00 2.288756132125854492e+00 -1.413975954055786133e+00
6.084000000000000000e+03 5.403947353363037109e+00 -3.355982589721679688e+01 -3.023546189069747925e-02 -1.450189650058746338e-01 -5.257632583379745483e-02 -1.053346842527389526e-01
6.085000000000000000e+03 7.388011169433593750e+01 -1.406870079040527344e+01 -1.169004917144775391e+00 5.457502841949462891e+00 1.286549448966979980e+00 1.029947280883789062e+00
6.086000000000000000e+03 7.404125213623046875e+01 -1.503105163574218750e+01 -1.475061774253845215e+00 5.681318759918212891e+00 1.261877059936523438e+00 6.648164391517639160e-01
6.087000000000000000e+03 7.249884796142578125e+01 -1.344495010375976562e+01 -6.250485777854919434e-01 2.556256771087646484e+00 5.793624520301818848e-01 1.472057580947875977e+00
6.088000000000000000e+03 1.837311744689941406e+01 -1.956551742553710938e+01 -2.129670828580856323e-01 -3.510782867670059204e-02 -7.442247122526168823e-02 -3.076367974281311035e-01
6.089000000000000000e+03 7.448773384094238281e+00 5.147163867950439453e+00 -1.096394211053848267e-01 -3.910821303725242615e-02 -4.462429136037826538e-02 1.348088495433330536e-02
6.090000000000000000e+03 5.610714435577392578e+00 7.726994514465332031e+00 -1.143736764788627625e-01 -3.178369998931884766e-02 -4.384721443057060242e-02 6.905134022235870361e-02
6.091000000000000000e+03 2.229288482666015625e+01 6.423123359680175781e+00 8.221463859081268311e-02 -1.606126427650451660e-01 -2.351940236985683441e-02 1.256869882345199585e-01
6.092000000000000000e+03 6.980573272705078125e+01 5.076156616210937500e+00 -2.192182699218392372e-03 6.134971976280212402e-01 1.833914965391159058e-01 -4.301182329654693604e-01
6.093000000000000000e+03 9.313150405883789062e+00 -5.908585071563720703e+00 3.208197653293609619e-03 -2.218062244355678558e-02 -5.691727157682180405e-03 -1.414010580629110336e-02
6.094000000000000000e+03 4.905883789062500000e+00 7.186589241027832031e+00 -8.847717195749282837e-02 -1.979360356926918030e-02 -3.248123452067375183e-02 4.473200440406799316e-02
6.095000000000000000e+03 6.691835784912109375e+01 2.308004379272460938e+00 -5.853244066238403320e-01 4.502609372138977051e-02 -1.620894968509674072e-01 -3.093112111091613770e-01
6.096000000000000000e+03 4.996221065521240234e+00 5.398181915283203125e+00 -6.207110732793807983e-02 -9.380545467138290405e-03 -2.143549546599388123e-02 6.692879833281040192e-04
6.097000000000000000e+03 5.819873046875000000e+01 -1.687899589538574219e+01 3.563060462474822998e-01 -1.057052388787269592e-01 7.518023997545242310e-02 -2.339043766260147095e-01
6.098000000000000000e+03 8.345359802246093750e+00 6.547778129577636719e+00 -1.784678846597671509e-01 -8.447264134883880615e-02 -7.888215780258178711e-02 6.056493893265724182e-02
6.099000000000000000e+03 7.269631958007812500e+01 2.176082611083984375e+01 -2.158219218254089355e-01 5.043680191040039062e+00 1.448357462882995605e+00 -8.739405870437622070e-01
6.100000000000000000e+03 6.971834182739257812e+00 5.760711193084716797e+00 -1.196354925632476807e-01 -3.804400563240051270e-02 -4.730385169386863708e-02 2.134973742067813873e-02
6.101000000000000000e+03 8.124824523925781250e+00 1.831526756286621094e+01 1.593164205551147461e-01 -1.181115806102752686e-01 1.236145384609699249e-02 9.070226550102233887e-02
6.102000000000000000e+03 4.143206787109375000e+01 -1.762157249450683594e+01 -3.464978560805320740e-02 -1.863896287977695465e-02 -1.598662510514259338e-02 -3.570038378238677979e-01
6.103000000000000000e+03 4.280574035644531250e+01 -1.866516876220703125e+01 -2.311844751238822937e-02 -1.617716848850250244e-01 -5.546703934669494629e-02 -4.763808548450469971e-01
6.104000000000000000e+03 5.805916976928710938e+01 4.678260326385498047e+00 -6.377425193786621094e-01 5.214637890458106995e-02 -1.756788343191146851e-01 3.492218628525733948e-02
6.105000000000000000e+03 4.222740554809570312e+01 1.711853027343750000e+01 2.437218725681304932e-01 4.992958530783653259e-02 8.809543401002883911e-02 2.338050305843353271e-01
6.106000000000000000e+03 4.078881835937500000e+01 1.885486602783203125e+01 3.419116735458374023e-01 -1.171439811587333679e-01 6.743030250072479248e-02 3.433906435966491699e-01
6.107000000000000000e+03 7.368251800537109375e+01 3.356177902221679688e+01 1.484674215316772461e-01 4.394655704498291016e+00 1.362936973571777344e+00 -3.218801915645599365e-01
6.108000000000000000e+03 7.473076629638671875e+01 3.158533096313476562e+01 1.034435853362083435e-01 4.698839664459228516e+00 1.440684914588928223e+00 -3.644593954086303711e-01
6.109000000000000000e+03 3.192572784423828125e+01 -9.255481719970703125e+00 -1.270698904991149902e-01 -2.892688214778900146e-01 -1.249016076326370239e-01 -1.707498729228973389e-01
6.110000000000000000e+03 3.333826065063476562e+01 -8.540985107421875000e+00 -1.529028918594121933e-02 -9.625967592000961304e-02 -3.346499055624008179e-02 -2.339706420898437500e-01
6.111000000000000000e+03 2.068857765197753906e+01 -1.684790611267089844e+01 -2.327309399843215942e-01 -7.362432777881622314e-02 -9.190657734870910645e-02 -2.191331386566162109e-01
6.112000000000000000e+03 4.263636016845703125e+01 -1.683967018127441406e+01 -3.273641467094421387e-01 -1.574771255254745483e-01 -1.454523801803588867e-01 -2.595646679401397705e-01
6.113000000000000000e+03 1.369715023040771484e+01 -9.964092254638671875e+00 -6.104769185185432434e-02 5.367888510227203369e-02 -2.210641745477914810e-03 -1.531424000859260559e-02
6.114000000000000000e+03 1.417042922973632812e+01 -9.052055358886718750e+00 -4.595284909009933472e-02 3.841079026460647583e-02 -2.262618159875273705e-03 -3.390370868146419525e-03
6.115000000000000000e+03 6.408439636230468750e+01 2.185849189758300781e+00 -1.139225125312805176e+00 5.202678442001342773e-01 -1.856871992349624634e-01 -2.765260636806488037e-01
6.116000000000000000e+03 6.565434265136718750e+01 2.570827960968017578e+00 -7.748155593872070312e-01 2.637582123279571533e-01 -1.533172130584716797e-01 -3.807655870914459229e-01
6.117000000000000000e+03 7.269136810302734375e+01 6.844612121582031250e+00 -8.155924081802368164e-01 4.361607551574707031e+00 1.063804626464843750e+00 -4.482223391532897949e-01
6.118000000000000000e+03 5.377836227416992188e+01 -2.883217239379882812e+01 3.607875704765319824e-01 4.530364573001861572e-01 2.441472113132476807e-01 -7.456036657094955444e-02
6.119000000000000000e+03 3.157792854309082031e+01 -1.163299942016601562e+01 -2.751827538013458252e-01 -3.039503395557403564e-01 -1.737399250268936157e-01 -6.905476003885269165e-02
6.120000000000000000e+03 4.407433319091796875e+01 -1.728820228576660156e+01 -4.260656535625457764e-01 -1.742277741432189941e-01 -1.800880283117294312e-01 -2.809504866600036621e-01
6.121000000000000000e+03 1.038009548187255859e+01 -2.619514656066894531e+01 -4.287956655025482178e-02 -1.236365064978599548e-01 -4.995482042431831360e-02 -1.217413395643234253e-01
6.122000000000000000e+03 1.044297885894775391e+01 -2.771899414062500000e+01 -8.304142206907272339e-02 -1.602314114570617676e-01 -7.298184931278228760e-02 -1.175107285380363464e-01
6.123000000000000000e+03 6.252454376220703125e+01 1.518419504165649414e+00 -1.523308396339416504e+00 5.679404735565185547e-01 -2.866103649139404297e-01 -7.159962505102157593e-02
6.124000000000000000e+03 3.546041488647460938e+01 1.934262657165527344e+01 3.012858927249908447e-01 -5.958051085472106934e-01 -8.835576474666595459e-02 5.366333127021789551e-01
6.125000000000000000e+03 5.035291671752929688e+01 2.719569587707519531e+01 2.229055166244506836e-01 7.463280558586120605e-01 2.907700836658477783e-01 1.907709538936614990e-01
6.126000000000000000e+03 5.114582824707031250e+01 2.954388236999511719e+01 2.111331820487976074e-01 9.536283016204833984e-01 3.494284451007843018e-01 1.318967044353485107e-01
6.127000000000000000e+03 6.970031738281250000e+01 2.343491554260253906e+01 7.616954296827316284e-02 3.184400081634521484e+00 9.781708717346191406e-01 -1.107627034187316895e+00
6.128000000000000000e+03 5.808948898315429688e+01 2.042827415466308594e+01 1.636400520801544189e-01 6.270905137062072754e-01 2.372191697359085083e-01 -1.184746026992797852e-01
6.129000000000000000e+03 1.447456645965576172e+01 -9.840537071228027344e+00 -6.568283587694168091e-02 5.687572434544563293e-02 -2.642132574692368507e-03 -2.270460594445466995e-03
6.130000000000000000e+03 5.192219161987304688e+01 -1.159794616699218750e+01 -1.001304864883422852e+00 9.923931956291198730e-02 -2.706196606159210205e-01 -5.107082724571228027e-01
6.131000000000000000e+03 4.339165496826171875e+01 6.068024635314941406e+00 -7.291812300682067871e-01 -2.817856371402740479e-01 -3.032900691032409668e-01 4.082511365413665771e-01
6.132000000000000000e+03 2.333901405334472656e+01 -2.385999488830566406e+01 9.543182700872421265e-02 -3.595923259854316711e-02 1.784177869558334351e-02 -1.284932643175125122e-01
6.133000000000000000e+03 2.685692024230957031e+01 1.180644702911376953e+01 8.645053952932357788e-02 7.394496351480484009e-02 4.811865091323852539e-02 1.427658200263977051e-01
6.134000000000000000e+03 7.404135131835937500e+01 1.564523124694824219e+01 1.116045832633972168e+00 6.804301261901855469e+00 2.376104116439819336e+00 -8.057951927185058594e-01
6.135000000000000000e+03 7.450815582275390625e+01 1.464434337615966797e+01 1.040651559829711914e+00 6.861382961273193359e+00 2.370610475540161133e+00 -1.009329199790954590e+00
6.136000000000000000e+03 7.435327148437500000e+01 1.797994422912597656e+01 2.701728045940399170e-01 6.381941795349121094e+00 1.995634317398071289e+00 -4.532728195190429688e-01
6.137000000000000000e+03 6.596792602539062500e+01 4.321191787719726562e+00 -3.450433611869812012e-01 2.061547935009002686e-01 -4.166657105088233948e-02 -7.623984813690185547e-01
6.138000000000000000e+03 6.575150299072265625e+01 3.199528694152832031e+00 -5.986368656158447266e-01 2.583013474941253662e-01 -1.021006479859352112e-01 -5.277555584907531738e-01
6.139000000000000000e+03 5.160003280639648438e+01 2.067647743225097656e+01 2.845897078514099121e-01 3.050696551799774170e-01 1.768978089094161987e-01 -8.708239346742630005e-02
6.140000000000000000e+03 5.249098587036132812e+01 2.180853080749511719e+01 2.482282519340515137e-01 4.539006650447845459e-01 2.106386721134185791e-01 -1.238779947161674500e-01
6.141000000000000000e+03 5.530483245849609375e+01 -1.204312610626220703e+01 -1.591402530670166016e+00 -2.916856706142425537e-01 -5.649264454841613770e-01 -4.630040824413299561e-01
6.142000000000000000e+03 6.871869659423828125e+01 2.868084144592285156e+01 3.794747889041900635e-01 3.088886260986328125e+00 1.040508389472961426e+00 -5.637060999870300293e-01
6.143000000000000000e+03 1.151017856597900391e+01 -4.741379261016845703e+00 3.172825556248426437e-03 -8.491522632539272308e-03 -1.595609006471931934e-03 -1.682528108358383179e-02
6.144000000000000000e+03 1.255374336242675781e+01 -6.068126201629638672e+00 -8.493611589074134827e-03 -8.095357916317880154e-04 -2.790944185107946396e-03 -1.848333515226840973e-02
6.145000000000000000e+03 2.456332778930664062e+01 -2.653585624694824219e+01 2.888639271259307861e-01 -1.173149645328521729e-01 5.146468803286552429e-02 -1.152868047356605530e-01
6.146000000000000000e+03 2.715300750732421875e+01 -1.733757781982421875e+01 -2.993998527526855469e-01 -2.270385921001434326e-01 -1.579315364360809326e-01 -1.749430447816848755e-01
6.147000000000000000e+03 2.637526512145996094e+01 -1.623666000366210938e+01 -3.820595741271972656e-01 -2.019009441137313843e-01 -1.751881539821624756e-01 -1.756744831800460815e-01
6.148000000000000000e+03 2.351487922668457031e+01 1.174597263336181641e+01 7.589250802993774414e-02 -1.728493571281433105e-01 -2.908705361187458038e-02 5.130864307284355164e-02
6.149000000000000000e+03 6.277120971679687500e+01 -2.305008888244628906e+01 4.422655105590820312e-01 1.430604696273803711e+00 5.618610382080078125e-01 1.207086890935897827e-01
6.150000000000000000e+03 6.311887359619140625e+01 -1.637632560729980469e+01 4.250898063182830811e-01 1.179689049720764160e+00 4.814336299896240234e-01 4.520558752119541168e-03
6.151000000000000000e+03 5.949649429321289062e+01 -1.912975692749023438e+01 6.277627944946289062e-01 2.494138181209564209e-01 2.631529867649078369e-01 -3.706489503383636475e-02
6.152000000000000000e+03 3.417364883422851562e+01 1.522513484954833984e+01 7.231074571609497070e-02 -3.773859739303588867e-01 -9.152257442474365234e-02 5.250365138053894043e-01
6.153000000000000000e+03 2.726710510253906250e+01 -2.789771461486816406e+01 2.751627266407012939e-01 -1.551175415515899658e-01 3.601355850696563721e-02 -1.368615329265594482e-01
6.154000000000000000e+03 2.756860923767089844e+01 -2.668890953063964844e+01 2.861973047256469727e-01 -1.419027000665664673e-01 4.328837618231773376e-02 -1.359383314847946167e-01
6.155000000000000000e+03 6.856178283691406250e+01 -2.827890014648437500e+01 4.589426517486572266e-01 8.186907768249511719e-01 3.832900226116180420e-01 1.593435555696487427e-01
6.156000000000000000e+03 5.635564041137695312e+01 -2.562155342102050781e+01 1.667286455631256104e-01 3.452073931694030762e-01 1.535808145999908447e-01 2.759477496147155762e-01
6.157000000000000000e+03 4.407423019409179688e+01 -2.188015747070312500e+01 2.334372997283935547e-01 -5.838546156883239746e-02 5.251554772257804871e-02 -5.973623991012573242e-01
6.158000000000000000e+03 4.341003036499023438e+01 -2.144346618652343750e+01 1.937863379716873169e-01 -1.207697689533233643e-01 2.190496958792209625e-02 -6.439542174339294434e-01
6.159000000000000000e+03 7.404727172851562500e+01 1.731570816040039062e+01 4.952984750270843506e-01 6.503937244415283203e+00 2.099770784378051758e+00 -5.331841111183166504e-01
6.160000000000000000e+03 6.868414306640625000e+01 3.396137237548828125e+00 -3.494767844676971436e-02 1.161735057830810547e-01 2.436774782836437225e-02 -4.788417518138885498e-01
6.161000000000000000e+03 5.145038604736328125e+01 -2.980820083618164062e+01 3.962293863296508789e-01 3.940588533878326416e-01 2.370864748954772949e-01 -2.731758952140808105e-01
6.162000000000000000e+03 6.337250900268554688e+01 -1.540173053741455078e+01 -1.264418810606002808e-01 1.182146072387695312e+00 3.167112767696380615e-01 -3.938100114464759827e-02
6.163000000000000000e+03 4.299164199829101562e+01 1.839726448059082031e+01 2.922930419445037842e-01 2.202114909887313843e-01 1.537513583898544312e-01 2.122949361801147461e-01
6.164000000000000000e+03 6.497882843017578125e+01 2.457225036621093750e+01 5.438717603683471680e-01 1.495072007179260254e+00 6.116831302642822266e-01 -5.967886745929718018e-02
6.165000000000000000e+03 6.520919036865234375e+01 2.320795631408691406e+01 3.976757824420928955e-01 1.042052865028381348e+00 4.319185912609100342e-01 -7.106204330921173096e-02
6.166000000000000000e+03 6.017618560791015625e+01 -1.266377449035644531e+01 -1.424467206001281738e+00 1.421826630830764771e-01 -3.846853673458099365e-01 7.034369558095932007e-02
6.167000000000000000e+03 2.445192909240722656e+01 1.268666172027587891e+01 -9.843773208558559418e-03 -1.601202487945556641e-01 -5.098920688033103943e-02 5.301345139741897583e-02
6.168000000000000000e+03 7.478041839599609375e+01 -2.679481124877929688e+01 -1.001911237835884094e-01 7.494725704193115234e+00 2.218360424041748047e+00 7.744854092597961426e-01
6.169000000000000000e+03 7.851906776428222656e+00 8.943738937377929688e+00 -1.932116895914077759e-01 -1.026551499962806702e-01 -8.876005560159683228e-02 1.308598667383193970e-01
6.170000000000000000e+03 5.211378479003906250e+01 2.409224891662597656e+01 2.387733906507492065e-01 6.774477958679199219e-01 2.748663723468780518e-01 5.981727037578821182e-03
6.171000000000000000e+03 5.100884246826171875e+01 2.590439987182617188e+01 2.645474672317504883e-01 7.410395145416259766e-01 3.016760945320129395e-01 1.510408669710159302e-01
6.172000000000000000e+03 3.252105331420898438e+01 -1.092525672912597656e+01 -1.892525702714920044e-01 -2.129530757665634155e-01 -1.206616908311843872e-01 -8.450622856616973877e-02
6.173000000000000000e+03 7.211736679077148438e+00 -2.595110702514648438e+01 -3.003782592713832855e-02 -1.998633705079555511e-02 -1.500724907964468002e-02 -3.486986830830574036e-02
6.174000000000000000e+03 5.109862518310546875e+01 3.031880569458007812e+01 2.423185855150222778e-01 9.431135654449462891e-01 3.556296527385711670e-01 1.244313120841979980e-01
6.175000000000000000e+03 4.784225082397460938e+01 3.168729972839355469e+01 1.979704052209854126e-01 3.861869871616363525e-01 1.752472221851348877e-01 -2.512846700847148895e-02
6.176000000000000000e+03 4.063373565673828125e+01 1.405750560760498047e+01 -1.230215206742286682e-01 -3.918117880821228027e-01 -1.544499993324279785e-01 3.643257915973663330e-01
6.177000000000000000e+03 4.125563430786132812e+01 1.323651790618896484e+01 -2.480381876230239868e-01 -3.029743134975433350e-01 -1.653037518262863159e-01 4.122498035430908203e-01
6.178000000000000000e+03 3.372460937500000000e+01 1.548974990844726562e+01 1.494826674461364746e-01 -2.617955207824707031e-01 -3.369385376572608948e-02 4.981312453746795654e-01
6.179000000000000000e+03 4.859093475341796875e+01 2.157744598388671875e+01 4.004888236522674561e-01 3.345172107219696045e-01 2.205018103122711182e-01 1.998187005519866943e-01
6.180000000000000000e+03 4.792860794067382812e+01 2.424948120117187500e+01 3.777984976768493652e-01 4.260217845439910889e-01 2.411460727453231812e-01 3.047297298908233643e-01
6.181000000000000000e+03 5.814381027221679688e+01 -1.631744194030761719e+01 2.235893011093139648e-01 -1.404363662004470825e-01 2.494588121771812439e-02 -2.284243702888488770e-01
6.182000000000000000e+03 2.284712791442871094e+01 9.854494094848632812e+00 1.834997832775115967e-01 -1.804102957248687744e-01 9.268472203984856606e-04 9.046421200037002563e-02
6.183000000000000000e+03 7.153486251831054688e+00 1.589035415649414062e+01 1.790321916341781616e-01 -1.438297927379608154e-01 1.056072115898132324e-02 1.512580215930938721e-01
6.184000000000000000e+03 7.416711807250976562e+00 1.819582366943359375e+01 1.558722853660583496e-01 -1.642429083585739136e-01 -2.511188853532075882e-03 7.932727783918380737e-02
6.185000000000000000e+03 1.880535316467285156e+01 2.090184402465820312e+01 -3.350634872913360596e-02 -2.626668848097324371e-02 -1.793191209435462952e-02 6.108928844332695007e-02
6.186000000000000000e+03 5.762497711181640625e+01 8.656488418579101562e+00 5.040562748908996582e-01 4.724613428115844727e-01 2.929552793502807617e-01 3.047925829887390137e-01
6.187000000000000000e+03 3.718600082397460938e+01 1.442741584777832031e+01 -1.441734135150909424e-01 -8.202697634696960449e-01 -2.893329560756683350e-01 4.781439602375030518e-01
6.188000000000000000e+03 5.019783782958984375e+01 2.634593200683593750e+01 2.439246028661727905e-01 6.756721735000610352e-01 2.758790254592895508e-01 2.110547721385955811e-01
6.189000000000000000e+03 7.914416790008544922e+00 -2.576332283020019531e+01 -2.835606969892978668e-02 -2.228042669594287872e-02 -1.519094873219728470e-02 -5.084770545363426208e-02
6.190000000000000000e+03 5.662022399902343750e+01 1.546419620513916016e+01 2.523477971553802490e-01 6.634833216667175293e-01 2.747493386268615723e-01 -3.021382093429565430e-01
6.191000000000000000e+03 5.703885650634765625e+01 1.461557960510253906e+01 2.654938995838165283e-01 8.054373860359191895e-01 3.212793767452239990e-01 -2.644883394241333008e-01
6.192000000000000000e+03 2.655173301696777344e+01 -1.783709716796875000e+01 -2.678852677345275879e-01 -2.110084742307662964e-01 -1.436681151390075684e-01 -1.726721227169036865e-01
6.193000000000000000e+03 6.473137378692626953e+00 1.575617694854736328e+01 1.503217667341232300e-01 -1.656726747751235962e-01 -4.605274181813001633e-03 1.418523192405700684e-01
6.194000000000000000e+03 6.315089035034179688e+01 -9.484889984130859375e+00 -1.577154397964477539e+00 5.291348695755004883e-01 -3.144058585166931152e-01 1.245816200971603394e-01
6.195000000000000000e+03 6.229823684692382812e+01 -1.096633243560791016e+01 -1.930429339408874512e+00 7.352098226547241211e-01 -3.585658371448516846e-01 7.677036523818969727e-02
6.196000000000000000e+03 5.904079437255859375e+01 -2.358824539184570312e+01 2.915557026863098145e-01 4.629476070404052734e-01 2.263509929180145264e-01 3.796233534812927246e-01
6.197000000000000000e+03 5.005789566040039062e+01 -1.138911151885986328e+01 -6.718130707740783691e-01 1.867594271898269653e-01 -1.455160826444625854e-01 -5.128272175788879395e-01
6.198000000000000000e+03 8.805341720581054688e+00 2.059101867675781250e+01 1.549902255646884441e-03 -1.438169032335281372e-01 -4.268009960651397705e-02 1.246733069419860840e-01
6.199000000000000000e+03 4.252456665039062500e+01 9.543373107910156250e+00 -7.461771368980407715e-01 -1.694691032171249390e-01 -2.746938765048980713e-01 6.966070532798767090e-01
6.200000000000000000e+03 7.104374694824218750e+01 -2.848318290710449219e+01 4.196491241455078125e-01 2.586893796920776367e+00 9.019629359245300293e-01 1.481482505798339844e+00
6.201000000000000000e+03 6.933106994628906250e+01 -2.820785903930664062e+01 4.541101157665252686e-01 1.001188755035400391e+00 4.365896582603454590e-01 5.140658020973205566e-01
6.202000000000000000e+03 5.958355712890625000e+01 5.887902736663818359e+00 -1.905098259449005127e-01 4.759021401405334473e-01 8.561769127845764160e-02 -1.129371151328086853e-01
6.203000000000000000e+03 7.234665679931640625e+01 -2.937151908874511719e+01 1.063005626201629639e-01 4.250881195068359375e+00 1.307154417037963867e+00 1.421407222747802734e+00
6.204000000000000000e+03 7.048301696777343750e+01 -2.906037521362304688e+01 5.784268975257873535e-01 2.268665552139282227e+00 8.541277050971984863e-01 1.228421688079833984e+00
6.205000000000000000e+03 1.157838058471679688e+01 -9.137922286987304688e+00 -3.580200672149658203e-02 -1.131348428316414356e-03 -1.108000613749027252e-02 -3.572772815823554993e-02
6.206000000000000000e+03 7.010032653808593750e+01 -3.428905487060546875e+01 5.315030813217163086e-01 3.284156084060668945e+00 1.144697785377502441e+00 4.621540606021881104e-01
6.207000000000000000e+03 3.471518325805664062e+01 -8.947879791259765625e+00 7.722181081771850586e-02 1.139884740114212036e-01 5.736308544874191284e-02 -2.030729353427886963e-01
6.208000000000000000e+03 3.422571563720703125e+01 -8.640928268432617188e+00 3.091024234890937805e-02 2.822209335863590240e-02 1.773970015347003937e-02 -2.335619628429412842e-01
6.209000000000000000e+03 5.839439773559570312e+01 -2.320726013183593750e+01 2.629134356975555420e-01 3.822837173938751221e-01 1.935591399669647217e-01 3.293392360210418701e-01
6.210000000000000000e+03 5.870618057250976562e+01 -2.200137710571289062e+01 4.015347063541412354e-01 3.563504219055175781e-01 2.273655384778976440e-01 2.046015560626983643e-01
6.211000000000000000e+03 5.870627212524414062e+01 1.064570999145507812e+01 6.387748718261718750e-01 1.170044064521789551e+00 5.426456928253173828e-01 -6.443260610103607178e-02
6.212000000000000000e+03 6.198453903198242188e+01 -9.498725891113281250e+00 -1.711087346076965332e+00 5.216225385665893555e-01 -3.568394482135772705e-01 -1.452874541282653809e-01
6.213000000000000000e+03 3.229230880737304688e+01 -1.043293857574462891e+01 -1.571919023990631104e-01 -2.395272254943847656e-01 -1.190157383680343628e-01 -1.115168929100036621e-01
6.214000000000000000e+03 3.497168350219726562e+01 -1.054779529571533203e+01 -4.410671070218086243e-02 1.818174719810485840e-01 4.131323099136352539e-02 -9.639827162027359009e-02
6.215000000000000000e+03 1.149501705169677734e+01 -2.700146293640136719e+01 -5.381678789854049683e-02 -2.094630599021911621e-01 -7.898395508527755737e-02 -1.378761231899261475e-01
6.216000000000000000e+03 6.471811676025390625e+01 5.053408622741699219e+00 -3.575790822505950928e-01 6.305494308471679688e-01 8.189111202955245972e-02 -7.596540451049804688e-01
6.217000000000000000e+03 6.280525207519531250e+01 5.257407665252685547e+00 -4.267717301845550537e-01 8.523992300033569336e-01 1.276882588863372803e-01 -5.378037691116333008e-01
6.218000000000000000e+03 5.982789611816406250e+01 -2.397616767883300781e+01 3.238418102264404297e-01 5.060882568359375000e-01 2.489790171384811401e-01 4.033475220203399658e-01
6.219000000000000000e+03 5.256257629394531250e+01 -3.022627449035644531e+01 3.799383342266082764e-01 4.820326566696166992e-01 2.585912942886352539e-01 -2.175504416227340698e-01
6.220000000000000000e+03 5.366146469116210938e+01 1.959349060058593750e+01 2.255127727985382080e-01 3.424670100212097168e-01 1.703939288854598999e-01 -2.702772319316864014e-01
6.221000000000000000e+03 4.074914169311523438e+01 1.098013019561767578e+01 -7.257727384567260742e-01 -3.902536332607269287e-01 -3.348079025745391846e-01 6.336870193481445312e-01
6.222000000000000000e+03 4.217956542968750000e+01 6.561638355255126953e+00 -5.645498633384704590e-01 -3.116173446178436279e-01 -2.628501653671264648e-01 4.917684495449066162e-01
6.223000000000000000e+03 2.079054450988769531e+01 -2.366543197631835938e+01 1.415016781538724899e-02 6.954222172498703003e-02 2.510771527886390686e-02 -1.810564100742340088e-01
6.224000000000000000e+03 7.527169036865234375e+01 1.272364902496337891e+01 5.982257723808288574e-01 7.017648220062255859e+00 2.284762144088745117e+00 -1.346374273300170898e+00
6.225000000000000000e+03 2.260320854187011719e+01 -2.386153793334960938e+01 7.865665107965469360e-02 -9.737316286191344261e-04 2.330487594008445740e-02 -1.290658414363861084e-01
6.226000000000000000e+03 6.975971984863281250e+01 -3.545862197875976562e+01 5.138852000236511230e-01 3.285089731216430664e+00 1.139692425727844238e+00 4.026901423931121826e-01
6.227000000000000000e+03 7.336907958984375000e+01 -3.364987182617187500e+01 2.467702925205230713e-01 4.748903751373291016e+00 1.498702168464660645e+00 6.777903437614440918e-01
6.228000000000000000e+03 3.257151031494140625e+01 3.031727409362792969e+01 1.204749420285224915e-01 -4.723690152168273926e-01 -1.055682227015495300e-01 2.351340055465698242e-01
6.229000000000000000e+03 2.498781776428222656e+01 1.305989170074462891e+01 -5.393453687429428101e-02 -1.530198752880096436e-01 -6.208632141351699829e-02 6.471860408782958984e-02
6.230000000000000000e+03 8.002010345458984375e+00 2.083159828186035156e+01 -9.593389928340911865e-03 -2.090241312980651855e-01 -6.558525562286376953e-02 9.046807885169982910e-02
6.231000000000000000e+03 7.974269390106201172e+00 1.910555458068847656e+01 1.133610755205154419e-01 -1.494805663824081421e-01 -1.083584688603878021e-02 8.159542828798294067e-02
6.232000000000000000e+03 2.408356475830078125e+01 -1.626009559631347656e+01 -3.676621019840240479e-01 -1.589905768632888794e-01 -1.579958051443099976e-01 -1.727520078420639038e-01
6.233000000000000000e+03 2.263643455505371094e+01 -1.753246307373046875e+01 -2.602792680263519287e-01 -1.127194017171859741e-01 -1.118995994329452515e-01 -2.133905887603759766e-01
6.234000000000000000e+03 9.821194648742675781e+00 -6.515993118286132812e+00 -2.742540324106812477e-03 -2.257806248962879181e-02 -7.596180774271488190e-03 -1.690596528351306915e-02
6.235000000000000000e+03 7.291242218017578125e+01 1.941223907470703125e+01 -7.480974495410919189e-02 5.701319694519042969e+00 1.687952995300292969e+00 -8.236194252967834473e-01
6.236000000000000000e+03 7.255966186523437500e+01 2.081514549255371094e+01 -2.046753615140914917e-01 5.192007064819335938e+00 1.496199488639831543e+00 -9.099652767181396484e-01
6.237000000000000000e+03 5.968378067016601562e+01 -1.306649112701416016e+01 -1.203165769577026367e+00 2.743732649832963943e-03 -3.601266145706176758e-01 2.569637820124626160e-02
6.238000000000000000e+03 5.933232879638671875e+01 -1.243597793579101562e+01 -1.522400140762329102e+00 -1.701904982328414917e-01 -5.077772140502929688e-01 5.270670726895332336e-02
6.239000000000000000e+03 5.840485382080078125e+01 1.902065277099609375e+01 1.545800268650054932e-01 8.692729473114013672e-01 3.071559071540832520e-01 -1.402673870325088501e-01
6.240000000000000000e+03 7.424634552001953125e+01 3.109180641174316406e+01 1.209797635674476624e-01 4.599483966827392578e+00 1.416139125823974609e+00 -3.986811339855194092e-01
6.241000000000000000e+03 4.412964630126953125e+01 5.935488700866699219e+00 -8.349388837814331055e-01 -2.754252552986145020e-01 -3.331092596054077148e-01 4.059072434902191162e-01
6.242000000000000000e+03 4.265442657470703125e+01 7.125015735626220703e+00 -6.798346042633056641e-01 -2.868359684944152832e-01 -2.900011837482452393e-01 5.792200565338134766e-01
6.243000000000000000e+03 5.764532089233398438e+01 2.101976203918457031e+01 1.879185736179351807e-01 4.953477382659912109e-01 2.049798965454101562e-01 -1.852649152278900146e-01
6.244000000000000000e+03 5.617887115478515625e+01 2.059485626220703125e+01 1.948513388633728027e-01 5.046576261520385742e-01 2.098526805639266968e-01 -3.191402256488800049e-01
6.245000000000000000e+03 5.120003223419189453e+00 2.195574569702148438e+01 -3.656088933348655701e-02 -3.252856135368347168e-01 -1.085539534687995911e-01 1.524318009614944458e-02
6.246000000000000000e+03 1.306916427612304688e+01 -6.531960487365722656e+00 -6.397040095180273056e-03 4.185406956821680069e-03 -6.634900928474962711e-04 -1.569982245564460754e-02
6.247000000000000000e+03 4.833063125610351562e+01 2.918255615234375000e+01 8.935879170894622803e-02 5.226663351058959961e-01 1.836075335741043091e-01 1.324602365493774414e-01
6.248000000000000000e+03 3.497570037841796875e+01 1.828250885009765625e+01 3.549939393997192383e-01 -5.639266371726989746e-01 -6.267979741096496582e-02 5.605584383010864258e-01
6.249000000000000000e+03 1.461702537536621094e+01 -1.165102767944335938e+01 -8.000418543815612793e-02 9.976036846637725830e-02 5.926854908466339111e-03 -9.650287218391895294e-03
6.250000000000000000e+03 3.520255279541015625e+01 1.996379852294921875e+01 2.198123186826705933e-01 -5.672773718833923340e-01 -1.042395159602165222e-01 5.115319490432739258e-01
6.251000000000000000e+03 7.963141918182373047e+00 -3.464836883544921875e+01 -2.863819897174835205e-02 -1.678808331489562988e-01 -5.895570665597915649e-02 -1.470663398504257202e-01
6.252000000000000000e+03 8.897888183593750000e+00 -3.317331314086914062e+01 -7.203134149312973022e-02 -1.641476303339004517e-01 -7.085369527339935303e-02 -1.476159244775772095e-01
6.253000000000000000e+03 2.723623657226562500e+01 -2.727170372009277344e+01 2.857583165168762207e-01 -1.529783606529235840e-01 3.983398526906967163e-02 -1.360331922769546509e-01
6.254000000000000000e+03 4.255630874633789062e+01 -1.954786682128906250e+01 1.161686852574348450e-01 -1.489096134901046753e-01 -9.822279214859008789e-03 -5.709196925163269043e-01
6.255000000000000000e+03 4.334812927246093750e+01 -1.903588294982910156e+01 -2.071131207048892975e-02 -1.538034379482269287e-01 -5.235442519187927246e-02 -5.242153406143188477e-01
6.256000000000000000e+03 2.769139862060546875e+01 -2.972485160827636719e+01 1.936609447002410889e-01 -1.403844654560089111e-01 1.598294079303741455e-02 -1.483796536922454834e-01
6.257000000000000000e+03 7.429222869873046875e+01 3.630468368530273438e+00 -5.987069606781005859e-01 5.969003677368164062e+00 1.611088991165161133e+00 -7.847965955734252930e-01
6.258000000000000000e+03 7.234600830078125000e+01 6.230789184570312500e+00 -6.757858395576477051e-01 3.737290382385253906e+00 9.184513092041015625e-01 -3.620334565639495850e-01
6.259000000000000000e+03 1.208511638641357422e+01 -2.596220016479492188e+01 -1.554839033633470535e-02 -2.261340171098709106e-01 -7.250472158193588257e-02 -1.654659956693649292e-01
6.260000000000000000e+03 4.396533584594726562e+01 -1.936256027221679688e+01 -3.236603364348411560e-02 -1.559053361415863037e-01 -5.648140981793403625e-02 -5.421019792556762695e-01
6.261000000000000000e+03 4.364680480957031250e+01 -1.848425292968750000e+01 -1.523236334323883057e-01 -1.609307378530502319e-01 -9.397631138563156128e-02 -4.511826634407043457e-01
6.262000000000000000e+03 6.147318649291992188e+01 -2.313704299926757812e+01 4.439639449119567871e-01 8.789790272712707520e-01 3.968828916549682617e-01 2.492999732494354248e-01
6.263000000000000000e+03 5.217899703979492188e+01 -2.802032661437988281e+01 3.796907961368560791e-01 3.005075156688690186e-01 2.040594965219497681e-01 -2.058429569005966187e-01
6.264000000000000000e+03 5.317085266113281250e+01 2.009630393981933594e+01 2.295632958412170410e-01 3.482858836650848389e-01 1.733547449111938477e-01 -2.283158004283905029e-01
6.265000000000000000e+03 5.036690711975097656e+00 -3.169309425354003906e+01 -4.770151898264884949e-02 -1.181395277380943298e-01 -4.975231364369392395e-02 -7.664524018764495850e-02
6.266000000000000000e+03 6.062091064453125000e+01 -2.017193984985351562e+01 7.101141214370727539e-01 6.344511508941650391e-01 4.033695757389068604e-01 1.174284964799880981e-01
6.267000000000000000e+03 2.888118362426757812e+01 -3.413871765136718750e+01 4.021552205085754395e-02 -1.207430288195610046e-01 -2.415825054049491882e-02 -1.336018890142440796e-01
6.268000000000000000e+03 3.128590393066406250e+01 3.336906814575195312e+01 3.577806651592254639e-01 -3.808878064155578613e-01 -6.932137534022331238e-03 2.431180775165557861e-01
6.269000000000000000e+03 2.645564460754394531e+01 9.617333412170410156e+00 2.504817843437194824e-01 8.730591088533401489e-02 1.013363152742385864e-01 1.246907114982604980e-01
6.270000000000000000e+03 6.345427703857421875e+01 -1.195699596405029297e+01 -1.864477396011352539e+00 9.526460766792297363e-01 -2.735494077205657959e-01 1.660059392452239990e-01
6.271000000000000000e+03 6.191091918945312500e+01 -1.371320819854736328e+01 -1.057740211486816406e+00 6.962783932685852051e-01 -1.084385514259338379e-01 -2.390229376032948494e-03
6.272000000000000000e+03 1.368995761871337891e+01 -5.621164798736572266e+00 -1.637152308830991387e-04 6.082993932068347931e-03 1.775783719494938850e-03 -1.301371958106756210e-02
6.273000000000000000e+03 1.074412918090820312e+01 -7.823738574981689453e+00 -1.594434306025505066e-02 -1.669717766344547272e-02 -9.792455472052097321e-03 -2.607648260891437531e-02
6.274000000000000000e+03 9.172960281372070312e+00 -6.994661808013916016e+00 -1.850876724347472191e-03 -2.814686857163906097e-02 -8.999323472380638123e-03 -1.646104268729686737e-02
6.275000000000000000e+03 6.190138244628906250e+01 3.945945024490356445e+00 -9.613260030746459961e-01 6.825894117355346680e-01 -8.362098038196563721e-02 -3.753054738044738770e-01
6.276000000000000000e+03 1.102527141571044922e+01 -2.592897224426269531e+01 -3.150781244039535522e-02 -1.568195223808288574e-01 -5.649820342659950256e-02 -1.448638290166854858e-01
6.277000000000000000e+03 5.231346130371093750e+01 2.243027114868164062e+01 2.449133098125457764e-01 5.004279613494873047e-01 2.236023843288421631e-01 -7.547467201948165894e-02
6.278000000000000000e+03 6.852205657958984375e+01 -2.907029533386230469e+01 7.021388411521911621e-01 1.320159912109375000e+00 6.066896319389343262e-01 1.826045960187911987e-01
6.279000000000000000e+03 3.493882751464843750e+01 1.747710227966308594e+01 3.563564717769622803e-01 -5.631504058837890625e-01 -6.203817576169967651e-02 5.642544031143188477e-01
6.280000000000000000e+03 3.598402786254882812e+01 1.960161209106445312e+01 2.847878634929656982e-01 -6.182194352149963379e-01 -1.000294685363769531e-01 5.144768953323364258e-01
6.281000000000000000e+03 3.145645332336425781e+01 -3.373423767089843750e+01 6.180688738822937012e-02 -3.268384560942649841e-02 8.736912161111831665e-03 -2.056663930416107178e-01
6.282000000000000000e+03 5.181423187255859375e+01 -2.743310928344726562e+01 3.804652392864227295e-01 2.563919723033905029e-01 1.910571604967117310e-01 -2.428070157766342163e-01
6.283000000000000000e+03 4.765497589111328125e+01 3.113422012329101562e+01 1.296241581439971924e-01 3.758750855922698975e-01 1.516497731208801270e-01 -2.038889564573764801e-03
6.284000000000000000e+03 5.924558639526367188e+00 -3.492268753051757812e+01 -9.011105634272098541e-03 -1.658623963594436646e-01 -5.246204882860183716e-02 -1.221136152744293213e-01
6.285000000000000000e+03 5.619198608398437500e+01 1.742291831970214844e+01 2.489742785692214966e-01 5.681729912757873535e-01 2.451441735029220581e-01 -3.359402418136596680e-01
6.286000000000000000e+03 5.671063613891601562e+01 1.790957260131835938e+01 2.460096478462219238e-01 6.608120203018188477e-01 2.720465064048767090e-01 -3.299670219421386719e-01
6.287000000000000000e+03 2.446260261535644531e+01 -2.513301467895507812e+01 2.181816250085830688e-01 -1.082221865653991699e-01 3.298782929778099060e-02 -1.122925430536270142e-01
6.288000000000000000e+03 4.825614929199218750e+00 -2.547796821594238281e+01 4.942213650792837143e-03 -4.335498064756393433e-02 -1.152382977306842804e-02 5.068382248282432556e-03
6.289000000000000000e+03 7.447203826904296875e+01 -1.550639247894287109e+01 -1.700173735618591309e+00 6.393792152404785156e+00 1.408085584640502930e+00 5.843319892883300781e-01
6.290000000000000000e+03 7.299446868896484375e+01 2.033047676086425781e+01 -1.877321451902389526e-01 5.496057510375976562e+00 1.592497587203979492e+00 -8.014425039291381836e-01
6.291000000000000000e+03 7.309844207763671875e+01 1.852392578125000000e+01 1.278696805238723755e-01 6.047092437744140625e+00 1.852488636970520020e+00 -7.658874392509460449e-01
6.292000000000000000e+03 7.940445899963378906e+00 7.189355373382568359e+00 -1.827349364757537842e-01 -7.925317436456680298e-02 -7.859643548727035522e-02 7.447639107704162598e-02
6.293000000000000000e+03 4.806566619873046875e+01 2.102111244201660156e+01 4.002346694469451904e-01 3.319893777370452881e-01 2.196672111749649048e-01 2.208703309297561646e-01
6.294000000000000000e+03 3.299484634399414062e+01 -1.067736053466796875e+01 -1.448655128479003906e-01 -1.575801670551300049e-01 -9.073370695114135742e-02 -8.979082107543945312e-02
6.295000000000000000e+03 6.131087875366210938e+01 4.403442382812500000e+00 -7.828745245933532715e-01 6.286541223526000977e-01 -4.626611247658729553e-02 -3.325182795524597168e-01
6.296000000000000000e+03 6.242808151245117188e+01 -1.022420024871826172e+01 -1.854733586311340332e+00 6.635761260986328125e-01 -3.573472499847412109e-01 3.358752280473709106e-02
6.297000000000000000e+03 4.060010147094726562e+01 1.667315101623535156e+01 2.190236151218414307e-01 -3.002855181694030762e-01 -2.437856979668140411e-02 3.216413855552673340e-01
6.298000000000000000e+03 1.925902557373046875e+01 -1.831025695800781250e+01 -1.855142265558242798e-01 -4.250995069742202759e-02 -6.840725243091583252e-02 -2.881754636764526367e-01
6.299000000000000000e+03 4.090184783935546875e+01 1.510449790954589844e+01 4.150280728936195374e-02 -3.234774768352508545e-01 -8.459240198135375977e-02 3.208866417407989502e-01
6.300000000000000000e+03 4.135325622558593750e+01 1.548222732543945312e+01 1.312733292579650879e-01 -2.000374644994735718e-01 -2.062924019992351532e-02 2.930518984794616699e-01
6.301000000000000000e+03 2.492085266113281250e+01 3.506093597412109375e+01 1.209181621670722961e-01 -1.784027814865112305e-01 -1.724538765847682953e-02 1.872268021106719971e-01
6.302000000000000000e+03 2.458491134643554688e+01 1.139790439605712891e+01 1.219639033079147339e-01 -1.297955065965652466e-01 -2.349480288103222847e-03 6.452266871929168701e-02
6.303000000000000000e+03 5.974104309082031250e+01 -2.109596252441406250e+01 5.680227279663085938e-01 4.585006535053253174e-01 3.079569935798645020e-01 1.677513867616653442e-01
6.304000000000000000e+03 5.970177459716796875e+01 -1.978014564514160156e+01 6.472046971321105957e-01 3.615122735500335693e-01 3.026151061058044434e-01 1.875580474734306335e-02
6.305000000000000000e+03 5.306193161010742188e+01 -1.283884334564208984e+01 -1.049326300621032715e+00 1.260804086923599243e-01 -2.769737839698791504e-01 -6.418969035148620605e-01
6.306000000000000000e+03 3.288450241088867188e+01 -9.469223976135253906e+00 -8.098054677248001099e-02 -1.714235097169876099e-01 -7.572121918201446533e-02 -1.614514291286468506e-01
6.307000000000000000e+03 3.224332809448242188e+01 -9.903047561645507812e+00 -1.336921453475952148e-01 -2.402016669511795044e-01 -1.121681407094001770e-01 -1.314693093299865723e-01
6.308000000000000000e+03 6.083234405517578125e+01 -2.090274429321289062e+01 6.778357625007629395e-01 7.340201139450073242e-01 4.235567748546600342e-01 1.987268030643463135e-01
6.309000000000000000e+03 3.580993652343750000e+01 2.015338706970214844e+01 2.333266437053680420e-01 -6.109268665313720703e-01 -1.132800653576850891e-01 4.972201287746429443e-01
6.310000000000000000e+03 6.995785522460937500e+01 2.211760902404785156e+01 -4.423159360885620117e-02 3.349565744400024414e+00 9.916002154350280762e-01 -1.220956325531005859e+00
6.311000000000000000e+03 2.780561637878417969e+01 3.428744506835937500e+01 2.120467722415924072e-01 -2.673843502998352051e-01 -1.660127006471157074e-02 3.069381415843963623e-01
6.312000000000000000e+03 7.052430725097656250e+01 -3.021810722351074219e+01 6.269837617874145508e-01 2.721022367477416992e+00 1.004401803016662598e+00 9.696810245513916016e-01
6.313000000000000000e+03 5.196539688110351562e+01 -3.010723495483398438e+01 3.887759745121002197e-01 4.298157095909118652e-01 2.455774992704391479e-01 -2.470100820064544678e-01
6.314000000000000000e+03 5.178118515014648438e+01 -3.069334030151367188e+01 3.750677406787872314e-01 4.515413343906402588e-01 2.479827255010604858e-01 -2.692143619060516357e-01
6.315000000000000000e+03 5.090751266479492188e+01 2.217893409729003906e+01 3.063701689243316650e-01 4.130531549453735352e-01 2.158270031213760376e-01 4.476166516542434692e-02
6.316000000000000000e+03 2.548366737365722656e+01 -2.778928756713867188e+01 2.950296998023986816e-01 -1.677147448062896729e-01 3.819448500871658325e-02 -1.285130381584167480e-01
6.317000000000000000e+03 2.662750244140625000e+01 -2.815572547912597656e+01 2.756051421165466309e-01 -1.723053008317947388e-01 3.098995238542556763e-02 -1.396691352128982544e-01
6.318000000000000000e+03 6.759175872802734375e+01 3.614381313323974609e+00 -1.179465129971504211e-01 -3.877445682883262634e-02 -4.701628908514976501e-02 -5.501616001129150391e-01
6.319000000000000000e+03 6.822032928466796875e+01 3.008397102355957031e+00 -1.433688402175903320e-01 2.188970707356929779e-02 -3.644374012947082520e-02 -4.295007884502410889e-01
6.320000000000000000e+03 3.055043983459472656e+01 -3.080116081237792969e+01 1.111395210027694702e-01 1.496037654578685760e-02 3.782996907830238342e-02 -1.606423705816268921e-01
6.321000000000000000e+03 7.449127197265625000e+01 -3.592205810546875000e+01 1.969588845968246460e-01 5.146455764770507812e+00 1.603024363517761230e+00 3.994667232036590576e-01
6.322000000000000000e+03 4.321454620361328125e+01 6.650966644287109375e+00 -7.402557730674743652e-01 -2.820827960968017578e-01 -3.067015707492828369e-01 4.978241622447967529e-01
6.323000000000000000e+03 4.435705566406250000e+01 -2.288778686523437500e+01 2.424872964620590210e-01 3.990913555026054382e-02 8.471892774105072021e-02 -4.938616752624511719e-01
6.324000000000000000e+03 4.033156204223632812e+01 1.271600914001464844e+01 -4.322454035282135010e-01 -4.597455859184265137e-01 -2.675973176956176758e-01 4.655463099479675293e-01
6.325000000000000000e+03 3.112933540344238281e+01 -3.161059951782226562e+01 7.034320384263992310e-02 2.918943949043750763e-02 2.985979244112968445e-02 -1.834302246570587158e-01
6.326000000000000000e+03 3.160313224792480469e+01 -3.254109573364257812e+01 4.653116315603256226e-02 1.647710800170898438e-02 1.890248060226440430e-02 -2.090370953083038330e-01
6.327000000000000000e+03 2.637782859802246094e+01 1.272957324981689453e+01 -2.504747128114104271e-03 -3.879247978329658508e-02 -1.238916814327239990e-02 1.408648341894149780e-01
6.328000000000000000e+03 2.553561973571777344e+01 1.253492736816406250e+01 1.772064715623855591e-02 -1.215050369501113892e-01 -3.113531693816184998e-02 8.520493656396865845e-02
6.329000000000000000e+03 4.719788360595703125e+01 2.144993209838867188e+01 4.204167127609252930e-01 3.818171620368957520e-01 2.406701594591140747e-01 2.394479960203170776e-01
6.330000000000000000e+03 4.148050308227539062e+01 1.485441398620605469e+01 3.884026408195495605e-02 -2.121563404798507690e-01 -5.199482291936874390e-02 3.090654015541076660e-01
6.331000000000000000e+03 4.771722412109375000e+01 3.753164291381835938e+01 5.668268799781799316e-01 2.849048376083374023e-01 2.555195093154907227e-01 -2.368265762925148010e-02
6.332000000000000000e+03 4.270042037963867188e+01 1.749364852905273438e+01 2.543064355850219727e-01 1.361537426710128784e-01 1.171380504965782166e-01 2.257983982563018799e-01
6.333000000000000000e+03 4.138610839843750000e+01 1.843482398986816406e+01 3.113964200019836426e-01 -4.350217431783676147e-02 8.036828041076660156e-02 2.949977517127990723e-01
6.334000000000000000e+03 9.649605751037597656e+00 -3.029993438720703125e+01 -1.200403943657875061e-01 -1.600947231054306030e-01 -8.404053747653961182e-02 -1.170593351125717163e-01
6.335000000000000000e+03 2.606674957275390625e+01 -2.644534873962402344e+01 2.819641232490539551e-01 -1.618067920207977295e-01 3.604719787836074829e-02 -1.236834228038787842e-01
6.336000000000000000e+03 5.385945510864257812e+01 -2.946500587463378906e+01 3.566906750202178955e-01 5.208227038383483887e-01 2.632540166378021240e-01 -7.981559634208679199e-02
6.337000000000000000e+03 2.888356018066406250e+01 -3.140479278564453125e+01 1.008826196193695068e-01 -7.602410763502120972e-02 7.457552943378686905e-03 -1.526977568864822388e-01
6.338000000000000000e+03 4.791380691528320312e+01 3.246436309814453125e+01 2.773088216781616211e-01 3.821006715297698975e-01 1.978228539228439331e-01 -4.720128327608108521e-02
6.339000000000000000e+03 2.960918045043945312e+01 -3.122413825988769531e+01 1.033198386430740356e-01 -3.950781747698783875e-02 1.914360560476779938e-02 -1.527932137250900269e-01
6.340000000000000000e+03 2.311200904846191406e+01 3.333288955688476562e+01 -1.713406108319759369e-02 -1.013196855783462524e-01 -3.553612157702445984e-02 1.033889949321746826e-01
6.341000000000000000e+03 2.163603782653808594e+01 3.190798950195312500e+01 -9.370963275432586670e-02 -2.149068415164947510e-01 -9.258494526147842407e-02 3.293805196881294250e-02
6.342000000000000000e+03 3.059882736206054688e+01 3.454439163208007812e+01 3.691259324550628662e-01 -3.443092703819274902e-01 7.445000577718019485e-03 2.270452678203582764e-01
6.343000000000000000e+03 3.238840484619140625e+01 3.388877105712890625e+01 4.203474521636962891e-01 -3.363913297653198242e-01 2.518683671951293945e-02 1.844629049301147461e-01
6.344000000000000000e+03 5.008321380615234375e+01 3.215605545043945312e+01 3.002164363861083984e-01 6.965318322181701660e-01 2.990244626998901367e-01 3.292507305741310120e-02
6.345000000000000000e+03 5.304344940185546875e+01 -3.647278594970703125e+01 4.601660370826721191e-01 5.835928916931152344e-01 3.131276667118072510e-01 -8.797909133136272430e-03
6.346000000000000000e+03 8.026042938232421875e+00 -3.668546676635742188e+01 4.092734679579734802e-02 -1.924461126327514648e-01 -4.545563086867332458e-02 -1.361947208642959595e-01
6.347000000000000000e+03 2.922410202026367188e+01 -3.787866973876953125e+01 2.044801265001296997e-01 -2.296355962753295898e-01 -7.546642795205116272e-03 -3.693467378616333008e-02
6.348000000000000000e+03 3.000735855102539062e+01 -3.480661392211914062e+01 7.143412530422210693e-02 -9.921108186244964600e-02 -8.333085104823112488e-03 -1.444120407104492188e-01
6.349000000000000000e+03 3.570276021957397461e+00 -4.081413269042968750e+01 4.370277374982833862e-02 -2.559813857078552246e-01 -6.368358433246612549e-02 -2.447458729147911072e-02
6.350000000000000000e+03 5.744829654693603516e+00 -4.020161056518554688e+01 8.017434179782867432e-02 -2.256497740745544434e-01 -4.364262893795967102e-02 -5.845352634787559509e-02
6.351000000000000000e+03 7.134979248046875000e+01 3.254617309570312500e+01 2.595323920249938965e-01 3.810682773590087891e+00 1.221064567565917969e+00 -4.062972068786621094e-01
6.352000000000000000e+03 5.001346206665039062e+01 3.345890808105468750e+01 3.753720819950103760e-01 6.396047472953796387e-01 3.044930398464202881e-01 9.703000076115131378e-03
6.353000000000000000e+03 5.041058349609375000e+01 3.694704055786132812e+01 5.139588117599487305e-01 5.349988341331481934e-01 3.146873116493225098e-01 1.739330589771270752e-02
6.354000000000000000e+03 8.605299949645996094e+00 3.932881927490234375e+01 -1.847863011062145233e-02 -2.196929976344108582e-02 -1.213437877595424652e-02 2.310808375477790833e-02
6.355000000000000000e+03 5.516184234619140625e+01 -3.882144927978515625e+01 6.809206008911132812e-01 6.382718682289123535e-01 3.957577645778656006e-01 -1.405202746391296387e-01
6.356000000000000000e+03 5.376216506958007812e+01 -3.925383377075195312e+01 6.803043484687805176e-01 4.903587698936462402e-01 3.511989414691925049e-01 -4.509963095188140869e-02
6.357000000000000000e+03 7.342302703857421875e+01 -3.749118423461914062e+01 2.932769656181335449e-01 4.625885486602783203e+00 1.475748777389526367e+00 3.116170465946197510e-01
6.358000000000000000e+03 7.395427703857421875e+01 3.911727142333984375e+01 1.154052317142486572e-01 4.307305335998535156e+00 1.326813220977783203e+00 -7.752440124750137329e-02
6.359000000000000000e+03 3.377224349975585938e+01 -3.535004806518554688e+01 1.683267802000045776e-01 -9.878510236740112305e-02 2.086250297725200653e-02 -2.760879993438720703e-01
6.360000000000000000e+03 4.469416809082031250e+01 4.008621215820312500e+01 6.149936914443969727e-01 1.475604772567749023e-01 2.287662625312805176e-01 1.616857945919036865e-02
6.361000000000000000e+03 2.271303176879882812e+01 3.522659683227539062e+01 8.248427510261535645e-02 -2.180472016334533691e-01 -4.066887870430946350e-02 8.070396631956100464e-02
6.362000000000000000e+03 6.649867248535156250e+01 3.680787658691406250e+01 3.452546894550323486e-01 2.817966699600219727e+00 9.489663839340209961e-01 -2.293575406074523926e-01
6.363000000000000000e+03 3.310444259643554688e+01 3.928525924682617188e+01 4.669050276279449463e-01 -1.668944507837295532e-01 9.000317007303237915e-02 2.530637755990028381e-02
6.364000000000000000e+03 2.994228172302246094e+01 3.868333053588867188e+01 3.959768414497375488e-01 -2.627156078815460205e-01 3.997836634516716003e-02 9.858236461877822876e-02
6.365000000000000000e+03 6.805892181396484375e+01 3.699046707153320312e+01 3.444490134716033936e-01 3.062396526336669922e+00 1.022053599357604980e+00 -3.192485868930816650e-01
6.366000000000000000e+03 6.653392791748046875e+01 3.531287765502929688e+01 3.933100998401641846e-01 2.740865468978881836e+00 9.402526617050170898e-01 -3.151515722274780273e-01
6.367000000000000000e+03 3.259897613525390625e+01 -3.615756988525390625e+01 1.842761933803558350e-01 -1.257224977016448975e-01 1.756610535085201263e-02 -2.016642093658447266e-01
6.368000000000000000e+03 3.494560241699218750e+01 -3.998868560791015625e+01 4.618386030197143555e-01 -1.876795440912246704e-01 8.224771916866302490e-02 -1.034048572182655334e-01
6.369000000000000000e+03 7.039360046386718750e+01 -3.730656814575195312e+01 4.514718353748321533e-01 3.545048952102661133e+00 1.198956251144409180e+00 3.797376155853271484e-01
6.370000000000000000e+03 7.479997253417968750e+01 -4.080282211303710938e+01 1.924393475055694580e-01 5.262205600738525391e+00 1.636393547058105469e+00 6.080989539623260498e-02
6.371000000000000000e+03 7.379619598388671875e+01 -3.908777999877929688e+01 2.472209632396697998e-01 4.776196479797363281e+00 1.507025241851806641e+00 1.553076952695846558e-01
6.372000000000000000e+03 3.127650070190429688e+01 -3.851997375488281250e+01 2.742522656917572021e-01 -2.146870493888854980e-01 1.786956191062927246e-02 -9.266612678766250610e-02
6.373000000000000000e+03 5.445557022094726562e+01 3.822771453857421875e+01 6.172418594360351562e-01 6.302646398544311523e-01 3.742519319057464600e-01 1.838308870792388916e-01
6.374000000000000000e+03 5.827485656738281250e+01 -1.750023078918457031e+01 4.617223441600799561e-01 -8.417915552854537964e-02 1.132629588246345520e-01 -2.206156402826309204e-01
6.375000000000000000e+03 5.428401470184326172e+00 1.760888290405273438e+01 1.161186397075653076e-01 -2.235053032636642456e-01 -3.221600130200386047e-02 5.939183756709098816e-02
6.376000000000000000e+03 5.315236663818359375e+01 -2.873149490356445312e+01 3.804104924201965332e-01 3.824229836463928223e-01 2.288500368595123291e-01 -1.328698843717575073e-01
6.377000000000000000e+03 5.245068359375000000e+01 -2.874743843078613281e+01 3.906644582748413086e-01 3.637540340423583984e-01 2.263255417346954346e-01 -2.012771368026733398e-01
6.378000000000000000e+03 5.607111358642578125e+01 -2.615550994873046875e+01 2.004469484090805054e-01 3.568567931652069092e-01 1.671911180019378662e-01 2.509661912918090820e-01
6.379000000000000000e+03 2.610748672485351562e+01 -2.742517471313476562e+01 2.899208366870880127e-01 -1.685671508312225342e-01 3.640610352158546448e-02 -1.281875371932983398e-01
6.380000000000000000e+03 7.529953002929687500e+01 1.847030258178710938e+01 1.390239000320434570e-01 6.394257068634033203e+00 1.959984302520751953e+00 -2.888413667678833008e-01
6.381000000000000000e+03 4.556581497192382812e+00 2.000748443603515625e+01 4.551223292946815491e-02 -2.724166512489318848e-01 -6.807132810354232788e-02 -5.599605385214090347e-03
6.382000000000000000e+03 2.618758583068847656e+01 1.217026233673095703e+01 5.329174920916557312e-02 -1.280153356492519379e-02 1.214706432074308395e-02 1.181426718831062317e-01
6.383000000000000000e+03 2.723226737976074219e+01 1.235239982604980469e+01 1.473576575517654419e-02 1.249538660049438477e-01 4.190688952803611755e-02 1.819160878658294678e-01
6.384000000000000000e+03 2.378843879699707031e+01 -1.741860580444335938e+01 -2.848986387252807617e-01 -1.445279866456985474e-01 -1.288279891014099121e-01 -1.928110122680664062e-01
6.385000000000000000e+03 2.333095169067382812e+01 -1.929284858703613281e+01 -1.876127123832702637e-01 -9.421863406896591187e-02 -8.454940468072891235e-02 -2.110845297574996948e-01
6.386000000000000000e+03 7.387118530273437500e+01 -2.828706932067871094e+01 -3.696498572826385498e-01 6.066030025482177734e+00 1.708914041519165039e+00 1.269965052604675293e+00
6.387000000000000000e+03 7.494752502441406250e+01 -2.833492469787597656e+01 -3.371081650257110596e-01 6.733412742614746094e+00 1.918891429901123047e+00 8.606538176536560059e-01
6.388000000000000000e+03 8.686558723449707031e+00 -2.633108901977539062e+01 -4.780739173293113708e-02 -5.494277179241180420e-02 -3.082504868507385254e-02 -7.716234028339385986e-02
6.389000000000000000e+03 8.715834617614746094e+00 -2.693346023559570312e+01 -6.768874078989028931e-02 -7.297393679618835449e-02 -4.219880327582359314e-02 -8.055852353572845459e-02
6.390000000000000000e+03 2.441220664978027344e+01 -1.802253341674804688e+01 -2.538921535015106201e-01 -1.477263867855072021e-01 -1.204855665564537048e-01 -1.901354938745498657e-01
6.391000000000000000e+03 5.382707214355468750e+01 -1.251206111907958984e+01 -1.192121505737304688e+00 3.042883612215518951e-02 -3.485077917575836182e-01 -5.667199492454528809e-01
6.392000000000000000e+03 5.766973876953125000e+01 1.654284667968750000e+01 2.745234072208404541e-01 9.365119934082031250e-01 3.633106350898742676e-01 -2.905633747577667236e-01
6.393000000000000000e+03 6.965104675292968750e+01 2.093773841857910156e+00 -2.384219467639923096e-01 3.122478127479553223e-01 2.214775793254375458e-02 -4.491571485996246338e-01
6.394000000000000000e+03 7.051801300048828125e+01 2.481825828552246094e+00 -1.296633630990982056e-01 9.568979740142822266e-01 2.481703907251358032e-01 -6.502476930618286133e-01
6.395000000000000000e+03 5.582482147216796875e+01 -1.348970508575439453e+01 -8.912770152091979980e-01 -2.847804427146911621e-01 -3.528172373771667480e-01 -4.393497407436370850e-01
6.396000000000000000e+03 1.050872611999511719e+01 -6.005258560180664062e+00 1.647479075472801924e-04 -1.669152639806270599e-02 -4.958033561706542969e-03 -1.890916749835014343e-02
6.397000000000000000e+03 5.051356124877929688e+01 2.162570571899414062e+01 3.343380987644195557e-01 3.449691236019134521e-01 2.037921696901321411e-01 5.178146809339523315e-02
6.398000000000000000e+03 3.832738876342773438e+01 1.853368759155273438e+01 3.723152279853820801e-01 -5.485451221466064453e-01 -5.286897346377372742e-02 4.784271121025085449e-01
6.399000000000000000e+03 4.135906219482421875e+01 1.405679035186767578e+01 -6.401982903480529785e-02 -2.622978687286376953e-01 -9.789530932903289795e-02 3.483585715293884277e-01
6.400000000000000000e+03 6.000996112823486328e+00 2.025966835021972656e+01 4.580206051468849182e-02 -2.658545672893524170e-01 -6.601575016975402832e-02 2.553226612508296967e-02
6.401000000000000000e+03 4.445840358734130859e+00 1.663285827636718750e+01 9.025749564170837402e-02 -2.142469286918640137e-01 -3.719683364033699036e-02 7.465343922376632690e-02
6.402000000000000000e+03 6.092144966125488281e+00 1.427386665344238281e+01 9.523474425077438354e-02 -1.484449058771133423e-01 -1.596304960548877716e-02 1.771756559610366821e-01
6.403000000000000000e+03 4.508749485015869141e+00 1.273088455200195312e+01 1.017128676176071167e-02 -1.201903522014617920e-01 -3.300572186708450317e-02 1.588357239961624146e-01
6.404000000000000000e+03 5.823366546630859375e+01 -1.439235210418701172e+01 -4.945826828479766846e-01 -2.530654668807983398e-01 -2.242944389581680298e-01 -1.623623073101043701e-01
6.405000000000000000e+03 3.365555953979492188e+01 -8.998311996459960938e+00 -4.535362124443054199e-03 -6.050196662545204163e-02 -1.951119862496852875e-02 -2.007921934127807617e-01
6.406000000000000000e+03 7.079962158203125000e+01 2.181855773925781250e+01 -1.359004378318786621e-01 3.973312616348266602e+00 1.151223659515380859e+00 -1.223493695259094238e+00
6.407000000000000000e+03 6.482420444488525391e+00 -2.621478843688964844e+01 -2.965747751295566559e-02 -3.039308823645114899e-02 -1.801516860723495483e-02 -2.139210887253284454e-02
6.408000000000000000e+03 6.899090576171875000e+01 2.281798839569091797e+00 -2.355261296033859253e-01 1.408030241727828979e-01 -2.841693535447120667e-02 -3.771910071372985840e-01
6.409000000000000000e+03 6.146754455566406250e+01 -2.209113693237304688e+01 6.009266376495361328e-01 9.917871356010437012e-01 4.778141379356384277e-01 2.494872510433197021e-01
6.410000000000000000e+03 6.054280090332031250e+01 -2.208862686157226562e+01 5.710054039955139160e-01 6.878961920738220215e-01 3.776704668998718262e-01 2.663677632808685303e-01
6.411000000000000000e+03 3.595953750610351562e+01 1.902493476867675781e+01 3.341831266880035400e-01 -6.270942687988281250e-01 -8.787333220243453979e-02 5.316063165664672852e-01
6.412000000000000000e+03 1.835991287231445312e+01 -2.267429351806640625e+01 -1.070864349603652954e-01 -3.499589115381240845e-02 -4.262469708919525146e-02 -2.375702112913131714e-01
6.413000000000000000e+03 1.940935707092285156e+01 -2.419130134582519531e+01 1.733986847102642059e-02 6.043959408998489380e-02 2.333383820950984955e-02 -2.213154733180999756e-01
6.414000000000000000e+03 6.156808471679687500e+01 -1.163757514953613281e+01 -1.883920073509216309e+00 6.256601810455322266e-01 -3.774779736995697021e-01 7.699085026979446411e-02
6.415000000000000000e+03 6.299498748779296875e+01 -1.108614921569824219e+01 -1.935000419616699219e+00 8.263964056968688965e-01 -3.325811922550201416e-01 1.664347797632217407e-01
6.416000000000000000e+03 5.408966064453125000e+00 -1.280709648132324219e+01 -3.894535452127456665e-02 -6.754427403211593628e-02 -3.194689005613327026e-02 -2.176234498620033264e-02
6.417000000000000000e+03 5.018119812011718750e+01 2.516571235656738281e+01 2.918212711811065674e-01 6.049926877021789551e-01 2.690441906452178955e-01 2.063480615615844727e-01
6.418000000000000000e+03 3.487869644165039062e+01 1.671861457824707031e+01 3.149274885654449463e-01 -5.570730566978454590e-01 -7.264367491006851196e-02 5.573827624320983887e-01
6.419000000000000000e+03 6.089130020141601562e+01 -1.224252891540527344e+01 -1.687270402908325195e+00 4.009214341640472412e-01 -3.859046995639801025e-01 9.064385294914245605e-02
6.420000000000000000e+03 3.329757690429687500e+01 -1.222128486633300781e+01 -3.134285807609558105e-01 -1.338301301002502441e-01 -1.341776102781295776e-01 -5.660810694098472595e-02
6.421000000000000000e+03 6.428471374511718750e+01 -1.478124046325683594e+01 -5.863916873931884766e-01 1.377240180969238281e+00 2.372545599937438965e-01 8.410415798425674438e-02
6.422000000000000000e+03 4.903020095825195312e+01 2.902021026611328125e+01 1.302494406700134277e-01 6.162518858909606934e-01 2.239504009485244751e-01 1.497077941894531250e-01
6.423000000000000000e+03 4.963430404663085938e+01 2.820459747314453125e+01 1.737655401229858398e-01 6.885231137275695801e-01 2.586866021156311035e-01 1.847051680088043213e-01
6.424000000000000000e+03 3.494020080566406250e+01 1.530974578857421875e+01 8.060891926288604736e-02 -5.487658381462097168e-01 -1.404470801353454590e-01 5.329107642173767090e-01
6.425000000000000000e+03 3.592102432250976562e+01 1.537888622283935547e+01 1.097908318042755127e-01 -7.073928713798522949e-01 -1.792806088924407959e-01 5.291874408721923828e-01
6.426000000000000000e+03 5.607199192047119141e+00 -1.134564495086669922e+01 -2.454130165278911591e-02 -5.513897910714149475e-02 -2.390408329665660858e-02 -8.504917845129966736e-03
6.427000000000000000e+03 4.308840179443359375e+01 -1.816569137573242188e+01 -1.249714419245719910e-01 -1.562656313180923462e-01 -8.437111973762512207e-02 -4.284043014049530029e-01
6.428000000000000000e+03 7.413224029541015625e+01 3.025671386718750000e+01 1.120375543832778931e-01 4.606412887573242188e+00 1.415535092353820801e+00 -4.436235427856445312e-01
6.429000000000000000e+03 7.535627746582031250e+01 -2.885706520080566406e+01 -2.912026941776275635e-01 6.678830623626708984e+00 1.916288375854492188e+00 6.700387001037597656e-01
6.430000000000000000e+03 2.771965599060058594e+01 -2.856162071228027344e+01 2.513853609561920166e-01 -1.413234621286392212e-01 3.301856666803359985e-02 -1.433802545070648193e-01
6.431000000000000000e+03 7.307113647460937500e+01 7.454908370971679688e+00 -8.924784064292907715e-01 5.026381015777587891e+00 1.240170836448669434e+00 -6.182174682617187500e-01
6.432000000000000000e+03 7.457138824462890625e+01 7.122079849243164062e+00 -6.451300978660583496e-01 6.490081310272216797e+00 1.753485441207885742e+00 -9.457177519798278809e-01
6.433000000000000000e+03 4.410562515258789062e+01 -2.485937309265136719e+01 1.581943184137344360e-01 1.286294013261795044e-01 8.604712039232254028e-02 -3.402310311794281006e-01
6.434000000000000000e+03 4.327364730834960938e+01 -2.478773307800292969e+01 7.270273566246032715e-02 3.064472787082195282e-02 3.100423887372016907e-02 -3.811831176280975342e-01
6.435000000000000000e+03 6.824961090087890625e+01 3.041416931152343750e+01 3.982183337211608887e-01 3.027135372161865234e+00 1.027606129646301270e+00 -4.739662408828735352e-01
6.436000000000000000e+03 6.758630371093750000e+01 2.285922527313232422e+00 -4.690986275672912598e-01 -4.654509015381336212e-03 -1.421259343624114990e-01 -3.030810058116912842e-01
6.437000000000000000e+03 5.674961853027343750e+01 -1.392004585266113281e+01 -6.540706753730773926e-01 -3.561088144779205322e-01 -3.030538260936737061e-01 -3.031134307384490967e-01
6.438000000000000000e+03 5.744145202636718750e+01 -1.372897148132324219e+01 -7.467859387397766113e-01 -3.963530957698822021e-01 -3.429417312145233154e-01 -2.309047132730484009e-01
6.439000000000000000e+03 8.705624580383300781e+00 1.914914512634277344e+01 1.063278913497924805e-01 -9.619509428739547729e-02 3.039838513359427452e-03 1.074846088886260986e-01
6.440000000000000000e+03 4.329138183593750000e+01 -2.044889640808105469e+01 1.512425243854522705e-01 -1.516054868698120117e-01 -1.088874778361059725e-04 -6.289281249046325684e-01
6.441000000000000000e+03 2.438205909729003906e+01 -1.691019058227539062e+01 -3.269137442111968994e-01 -1.606510132551193237e-01 -1.462694257497787476e-01 -1.800314188003540039e-01
6.442000000000000000e+03 5.310296058654785156e+00 -6.726989746093750000e+00 4.214081447571516037e-03 -1.765193976461887360e-02 -4.031357355415821075e-03 1.040975563228130341e-02
6.443000000000000000e+03 5.491597652435302734e+00 -6.134015560150146484e+00 5.716778337955474854e-03 -1.723692752420902252e-02 -3.456044942140579224e-03 9.664813056588172913e-03
6.444000000000000000e+03 2.395541381835937500e+01 6.306531906127929688e+00 8.111629635095596313e-02 -1.208869665861129761e-01 -1.193119958043098450e-02 1.459435969591140747e-01
6.445000000000000000e+03 6.628737640380859375e+01 2.310538864135742188e+01 3.918070197105407715e-01 1.312761545181274414e+00 5.113705992698669434e-01 -4.765186607837677002e-01
6.446000000000000000e+03 6.728969573974609375e+01 2.320558357238769531e+01 3.480345010757446289e-01 1.717451691627502441e+00 6.196458339691162109e-01 -7.497603893280029297e-01
6.447000000000000000e+03 5.161254882812500000e+00 -2.947159385681152344e+01 -5.543980747461318970e-02 -8.425807952880859375e-02 -4.190936684608459473e-02 -4.467604681849479675e-02
6.448000000000000000e+03 6.293881416320800781e+00 -5.930531978607177734e+00 6.115636322647333145e-03 -2.057663537561893463e-02 -4.338299855589866638e-03 4.131997935473918915e-03
6.449000000000000000e+03 6.560367584228515625e+01 2.353803253173828125e+01 4.441896080970764160e-01 1.321902990341186523e+00 5.298277735710144043e-01 -2.479782104492187500e-01
6.450000000000000000e+03 6.637884616851806641e+00 -7.540492534637451172e+00 1.395835424773395061e-03 -3.194959834218025208e-02 -9.166128933429718018e-03 1.280210097320377827e-03
6.451000000000000000e+03 6.230909824371337891e+00 -6.455431461334228516e+00 4.731302149593830109e-03 -2.397091127932071686e-02 -5.771882832050323486e-03 4.855288192629814148e-03
6.452000000000000000e+03 7.335321807861328125e+01 -2.871091842651367188e+01 -1.576414555311203003e-01 5.284994125366210938e+00 1.538205742835998535e+00 1.409473896026611328e+00
6.453000000000000000e+03 1.785531234741210938e+01 -2.335176086425781250e+01 -5.590043589472770691e-02 -6.909734010696411133e-02 -3.749933466315269470e-02 -2.422615289688110352e-01
6.454000000000000000e+03 7.411067962646484375e+01 2.940586471557617188e+01 1.001725345849990845e-01 4.647972106933593750e+00 1.424443364143371582e+00 -4.753967523574829102e-01
6.455000000000000000e+03 2.342941474914550781e+01 7.700818538665771484e+00 2.034747749567031860e-01 -1.616363674402236938e-01 1.255152281373739243e-02 1.219651624560356140e-01
6.456000000000000000e+03 3.982557296752929688e+01 1.850740432739257812e+01 3.370259106159210205e-01 -3.334577083587646484e-01 1.070467056706547737e-03 3.980386853218078613e-01
6.457000000000000000e+03 5.299077987670898438e+00 -2.885513114929199219e+01 -5.144941434264183044e-02 -7.606124877929687500e-02 -3.825319558382034302e-02 -3.910124674439430237e-02
6.458000000000000000e+03 2.509150695800781250e+01 7.854627132415771484e+00 2.264598011970520020e-01 -5.772358551621437073e-02 5.062086135149002075e-02 1.375105679035186768e-01
6.459000000000000000e+03 2.440632438659667969e+01 6.003504753112792969e+00 5.925478786230087280e-02 -9.742619097232818604e-02 -1.145142037421464920e-02 1.565084159374237061e-01
6.460000000000000000e+03 4.197774124145507812e+01 9.563032150268554688e+00 -7.753131985664367676e-01 -2.299465239048004150e-01 -3.015779256820678711e-01 7.265751957893371582e-01
6.461000000000000000e+03 6.454854583740234375e+01 -1.422617530822753906e+01 -9.431636333465576172e-01 1.258749961853027344e+00 9.467588365077972412e-02 1.195444911718368530e-01
6.462000000000000000e+03 5.963589096069335938e+01 -1.846926689147949219e+01 6.106362938880920410e-01 2.433509528636932373e-01 2.561961710453033447e-01 -7.878588885068893433e-02
6.463000000000000000e+03 7.158917999267578125e+01 -3.203839492797851562e+01 4.496824741363525391e-01 3.720310688018798828e+00 1.250997900962829590e+00 8.406901955604553223e-01
6.464000000000000000e+03 7.443250274658203125e+01 -3.126531219482421875e+01 -3.101780638098716736e-02 5.561570644378662109e+00 1.659165859222412109e+00 8.109194636344909668e-01
6.465000000000000000e+03 5.982321929931640625e+01 5.122153759002685547e+00 -5.470858812332153320e-01 3.888301551342010498e-01 -4.747670888900756836e-02 -1.691020578145980835e-01
6.466000000000000000e+03 1.772477531433105469e+01 -2.166372108459472656e+01 -1.981682181358337402e-01 -6.599870324134826660e-02 -7.925007492303848267e-02 -2.520026266574859619e-01
6.467000000000000000e+03 1.832141113281250000e+01 -2.040178680419921875e+01 -2.259602248668670654e-01 -3.045173734426498413e-02 -7.692358642816543579e-02 -2.873978614807128906e-01
6.468000000000000000e+03 1.308262443542480469e+01 -8.607148170471191406e+00 -3.584614023566246033e-02 2.181245200335979462e-02 -4.210106097161769867e-03 -1.796176843345165253e-02
6.469000000000000000e+03 4.847179031372070312e+01 3.136335754394531250e+01 1.952466517686843872e-01 4.913597702980041504e-01 2.059819251298904419e-01 4.441531491465866566e-04
6.470000000000000000e+03 1.962184143066406250e+01 -1.612335014343261719e+01 -1.884399056434631348e-01 -5.021752417087554932e-02 -7.159722596406936646e-02 -1.799502670764923096e-01
6.471000000000000000e+03 7.449398040771484375e+01 2.417333221435546875e+01 -1.272949874401092529e-01 5.289105892181396484e+00 1.548543214797973633e+00 -5.570520162582397461e-01
6.472000000000000000e+03 6.753839111328125000e+01 2.663136863708496094e+01 4.431419968605041504e-01 2.527535676956176758e+00 8.912032842636108398e-01 -5.428843498229980469e-01
6.473000000000000000e+03 7.444918823242187500e+01 2.692266654968261719e+01 3.527233144268393517e-03 4.950807094573974609e+00 1.486300230026245117e+00 -5.359476208686828613e-01
6.474000000000000000e+03 2.352954864501953125e+01 9.777667045593261719e+00 2.035502940416336060e-01 -1.657581925392150879e-01 1.133763045072555542e-02 9.143733978271484375e-02
6.475000000000000000e+03 2.581801605224609375e+01 7.952054500579833984e+00 2.488224804401397705e-01 2.420605346560478210e-02 8.190856128931045532e-02 1.397781372070312500e-01
6.476000000000000000e+03 4.298043823242187500e+01 -2.419784927368164062e+01 4.815736785531044006e-02 -5.508641246706247330e-03 1.279461756348609924e-02 -4.588433802127838135e-01
6.477000000000000000e+03 4.381597518920898438e+01 -2.442202186584472656e+01 1.448010504245758057e-01 8.760771900415420532e-02 6.972263008356094360e-02 -3.922986388206481934e-01
6.478000000000000000e+03 5.569145965576171875e+01 2.107865715026855469e+01 1.956993341445922852e-01 4.737488627433776855e-01 2.008344680070877075e-01 -3.285194337368011475e-01
6.479000000000000000e+03 5.426914596557617188e+01 2.132327461242675781e+01 1.975908875465393066e-01 4.771328866481781006e-01 2.024171352386474609e-01 -2.861459851264953613e-01
6.480000000000000000e+03 4.361826324462890625e+01 -2.251925277709960938e+01 1.889301687479019165e-01 -5.595419555902481079e-02 3.989279270172119141e-02 -5.789557695388793945e-01
6.481000000000000000e+03 5.894114303588867188e+01 8.583770751953125000e+00 4.994637370109558105e-01 7.841268181800842285e-01 3.850771784782409668e-01 7.573250681161880493e-02
6.482000000000000000e+03 1.969442176818847656e+01 -1.684910964965820312e+01 -1.867343187332153320e-01 -5.587704107165336609e-02 -7.278340309858322144e-02 -2.242720723152160645e-01
6.483000000000000000e+03 1.346470642089843750e+01 -9.305456161499023438e+00 -5.358763411641120911e-02 3.814507648348808289e-02 -4.632767755538225174e-03 -1.753020286560058594e-02
6.484000000000000000e+03 6.383819103240966797e+00 -2.761766052246093750e+01 -5.551235750317573547e-02 -5.484502017498016357e-02 -3.310721367597579956e-02 -3.549168631434440613e-02
6.485000000000000000e+03 7.427316284179687500e+01 2.217205238342285156e+01 -1.981080621480941772e-01 5.539235591888427734e+00 1.602338314056396484e+00 -5.619135499000549316e-01
6.486000000000000000e+03 7.473770904541015625e+01 2.167532348632812500e+01 -1.858694851398468018e-01 5.747052669525146484e+00 1.668354988098144531e+00 -4.746504426002502441e-01
6.487000000000000000e+03 7.532988739013671875e+01 2.145472717285156250e+01 -1.587207764387130737e-01 5.921167373657226562e+00 1.728733897209167480e+00 -3.544216156005859375e-01
6.488000000000000000e+03 7.526765441894531250e+01 2.549949836730957031e+01 -5.752545967698097229e-02 5.340375900268554688e+00 1.584855198860168457e+00 -4.608598053455352783e-01
6.489000000000000000e+03 7.402593994140625000e+01 2.363848495483398438e+01 -1.531347483396530151e-01 5.210258483886718750e+00 1.517137169837951660e+00 -6.223366856575012207e-01
6.490000000000000000e+03 7.507640075683593750e+01 1.735931038856506348e+00 -9.402279257774353027e-01 7.420551776885986328e+00 1.944097161293029785e+00 -6.568384170532226562e-01
6.491000000000000000e+03 7.546842956542968750e+01 2.700527667999267578e+00 -7.048412561416625977e-01 7.644478321075439453e+00 2.081891059875488281e+00 -5.703215003013610840e-01
6.492000000000000000e+03 7.523423767089843750e+01 2.625495147705078125e+01 -3.373143076896667480e-02 5.238966464996337891e+00 1.561570525169372559e+00 -4.678048491477966309e-01
6.493000000000000000e+03 7.354629516601562500e+01 2.411299514770507812e+01 -1.205354034900665283e-01 4.959102630615234375e+00 1.451570153236389160e+00 -6.928833127021789551e-01
6.494000000000000000e+03 7.480642700195312500e+01 1.994186401367187500e+01 -9.274073690176010132e-02 6.076370239257812500e+00 1.795088887214660645e+00 -3.793073296546936035e-01
6.495000000000000000e+03 4.945615768432617188e+00 -3.248288726806640625e+01 -3.916048631072044373e-02 -1.290016919374465942e-01 -5.044865608215332031e-02 -8.851740509271621704e-02
6.496000000000000000e+03 8.209755897521972656e+00 -3.260789489746093750e+01 -7.780889421701431274e-02 -1.419686824083328247e-01 -6.593327224254608154e-02 -1.347704976797103882e-01
6.497000000000000000e+03 7.455328369140625000e+01 3.238891601562500000e+01 1.143314912915229797e-01 4.634341716766357422e+00 1.424602031707763672e+00 -3.435522615909576416e-01
6.498000000000000000e+03 7.555831909179687500e+01 1.360155105590820312e+00 -9.776023030281066895e-01 8.067168235778808594e+00 2.126869678497314453e+00 -4.451386332511901855e-01
6.499000000000000000e+03 5.092550754547119141e+00 8.218051910400390625e+00 -1.009205281734466553e-01 -3.267957642674446106e-02 -4.008003324270248413e-02 7.965273410081863403e-02
6.500000000000000000e+03 4.904297828674316406e+00 -2.994780540466308594e+01 -5.018602684140205383e-02 -9.194205701351165771e-02 -4.263842478394508362e-02 -5.081768706440925598e-02
6.501000000000000000e+03 5.235345840454101562e+00 -3.091585350036621094e+01 -5.195710808038711548e-02 -1.044853478670120239e-01 -4.693273827433586121e-02 -6.824568659067153931e-02
6.502000000000000000e+03 7.420464324951171875e+01 2.131959199905395508e+00 -7.877733111381530762e-01 5.990183353424072266e+00 1.560723066329956055e+00 -9.155725240707397461e-01
6.503000000000000000e+03 7.541310882568359375e+01 1.924517250061035156e+01 5.660286173224449158e-03 6.295122146606445312e+00 1.890234708786010742e+00 -2.667155861854553223e-01
6.504000000000000000e+03 7.457494354248046875e+01 1.868274497985839844e+01 1.007467955350875854e-01 6.281384944915771484e+00 1.914639592170715332e+00 -4.044361412525177002e-01
6.505000000000000000e+03 7.476040649414062500e+01 4.131569385528564453e+00 -5.531871914863586426e-01 6.552090644836425781e+00 1.799671053886413574e+00 -7.463943958282470703e-01
6.506000000000000000e+03 7.265425109863281250e+01 3.843684434890747070e+00 -3.668090105056762695e-01 3.714467525482177734e+00 1.004297614097595215e+00 -7.376935482025146484e-01
6.507000000000000000e+03 7.574453735351562500e+01 1.574951839447021484e+01 6.368976235389709473e-01 6.707665443420410156e+00 2.203368902206420898e+00 -5.733845829963684082e-01
6.508000000000000000e+03 7.531134033203125000e+01 1.668874549865722656e+01 5.461295247077941895e-01 6.599952220916748047e+00 2.143824577331542969e+00 -4.259427487850189209e-01
6.509000000000000000e+03 7.476728820800781250e+01 1.934496879577636719e+01 -2.341281250119209290e-02 6.185560226440429688e+00 1.848644256591796875e+00 -3.820054233074188232e-01
6.510000000000000000e+03 7.534111022949218750e+01 5.678162574768066406e+00 -5.098508000373840332e-01 7.109965801239013672e+00 1.980034470558166504e+00 -8.242397308349609375e-01
6.511000000000000000e+03 7.489958953857421875e+01 8.504372596740722656e+00 -5.601061582565307617e-01 6.878487110137939453e+00 1.895514369010925293e+00 -1.229394078254699707e+00
6.512000000000000000e+03 4.730644226074218750e+00 8.686491966247558594e+00 -8.289782702922821045e-02 -3.389383852481842041e-02 -3.503749892115592957e-02 8.878049999475479126e-02
6.513000000000000000e+03 5.352131366729736328e+00 5.785162925720214844e+00 -7.995241880416870117e-02 -1.407960243523120880e-02 -2.820960618555545807e-02 1.126095931977033615e-02
6.514000000000000000e+03 7.446010589599609375e+01 8.056437492370605469e+00 -6.912854313850402832e-01 6.495431423187255859e+00 1.741243839263916016e+00 -1.076436638832092285e+00
6.515000000000000000e+03 7.569417572021484375e+01 8.343430519104003906e+00 -4.278308451175689697e-01 7.425384998321533203e+00 2.099266290664672852e+00 -1.218495488166809082e+00
6.516000000000000000e+03 7.124860382080078125e+01 2.222688293457031250e+01 -1.355700194835662842e-01 4.187278270721435547e+00 1.215512514114379883e+00 -1.105599403381347656e+00
6.517000000000000000e+03 7.404422760009765625e+01 7.580273151397705078e+00 -7.434071302413940430e-01 6.064907073974609375e+00 1.596449971199035645e+00 -9.284372329711914062e-01
6.518000000000000000e+03 7.575174713134765625e+01 7.814128398895263672e+00 -4.458035230636596680e-01 7.461524009704589844e+00 2.104716062545776367e+00 -1.123788595199584961e+00
6.519000000000000000e+03 7.439721679687500000e+01 5.187510490417480469e+00 -5.835314989089965820e-01 6.037377834320068359e+00 1.636153936386108398e+00 -7.575939297676086426e-01
6.520000000000000000e+03 7.421794128417968750e+01 6.699906826019287109e+00 -6.931278705596923828e-01 6.022627830505371094e+00 1.598850011825561523e+00 -8.376910686492919922e-01
6.521000000000000000e+03 7.296063232421875000e+01 4.374800205230712891e+00 -4.436705708503723145e-01 4.247206211090087891e+00 1.141060590744018555e+00 -6.889055371284484863e-01
6.522000000000000000e+03 6.847805786132812500e+01 2.703775215148925781e+01 3.798348605632781982e-01 2.863829612731933594e+00 9.730993509292602539e-01 -6.416806578636169434e-01
6.523000000000000000e+03 4.851072788238525391e+00 -2.630176544189453125e+01 -1.449769735336303711e-02 -4.988355189561843872e-02 -1.931437477469444275e-02 -8.950735209509730339e-04
6.524000000000000000e+03 4.619617462158203125e+00 1.799065017700195312e+01 8.808196336030960083e-02 -2.397574633359909058e-01 -4.550264775753021240e-02 3.257647901773452759e-02
6.525000000000000000e+03 4.320352554321289062e+00 1.714407348632812500e+01 8.501176536083221436e-02 -2.253279834985733032e-01 -4.209486767649650574e-02 5.319318547844886780e-02
6.526000000000000000e+03 2.697416687011718750e+01 -1.593496990203857422e+01 -3.950441777706146240e-01 -2.183081060647964478e-01 -1.840056926012039185e-01 -1.764018386602401733e-01
6.527000000000000000e+03 5.838186740875244141e+00 1.854399871826171875e+01 1.079990863800048828e-01 -2.325027883052825928e-01 -3.735110908746719360e-02 4.181992262601852417e-02
6.528000000000000000e+03 4.418452262878417969e+00 1.861408615112304688e+01 7.539530843496322632e-02 -2.475316673517227173e-01 -5.164090916514396667e-02 1.721740327775478363e-02
6.529000000000000000e+03 6.230679512023925781e+00 -1.167745780944824219e+01 -3.719670698046684265e-02 -6.332809478044509888e-02 -3.015744127333164215e-02 -1.633436232805252075e-02
6.530000000000000000e+03 5.430267333984375000e+00 1.230300712585449219e+01 -7.756163366138935089e-03 -1.076411604881286621e-01 -3.461919724941253662e-02 1.826250404119491577e-01
6.531000000000000000e+03 4.844928741455078125e+00 1.020030498504638672e+01 -7.153735309839248657e-02 -5.864166095852851868e-02 -3.905370458960533142e-02 1.340205669403076172e-01
6.532000000000000000e+03 5.453011989593505859e+00 1.052538394927978516e+01 -7.731495797634124756e-02 -6.698376685380935669e-02 -4.328961670398712158e-02 1.532829850912094116e-01
6.533000000000000000e+03 5.591175556182861328e+00 1.694099617004394531e+01 1.279045641422271729e-01 -2.088780552148818970e-01 -2.429204620420932770e-02 8.549059182405471802e-02
6.534000000000000000e+03 5.328070640563964844e+00 8.824262619018554688e+00 -1.055605188012123108e-01 -4.156551510095596313e-02 -4.413780942559242249e-02 1.002406477928161621e-01
6.535000000000000000e+03 5.204721927642822266e+00 2.069504928588867188e+01 2.471715956926345825e-02 -2.857042551040649414e-01 -7.829613238573074341e-02 2.439413219690322876e-03
6.536000000000000000e+03 4.905985355377197266e+00 1.375775527954101562e+01 5.057440325617790222e-02 -1.472338885068893433e-01 -2.899784781038761139e-02 1.600991785526275635e-01
6.537000000000000000e+03 5.442891597747802734e+00 -2.811364746093750000e+01 -4.941648617386817932e-02 -6.645227968692779541e-02 -3.476062789559364319e-02 -2.961974032223224640e-02
6.538000000000000000e+03 5.679208278656005859e+00 -1.022554874420166016e+01 -1.512913126498460770e-02 -4.561982676386833191e-02 -1.822468824684619904e-02 -9.803982684388756752e-04
6.539000000000000000e+03 4.745630741119384766e+00 -1.034311771392822266e+01 -1.042936835438013077e-02 -3.212295472621917725e-02 -1.276569720357656479e-02 6.439640652388334274e-03
6.540000000000000000e+03 5.509606838226318359e+00 1.401845550537109375e+01 7.089398801326751709e-02 -1.470391303300857544e-01 -2.284354344010353088e-02 1.697843372821807861e-01
6.541000000000000000e+03 4.100184917449951172e+00 1.429999542236328125e+01 5.074930563569068909e-02 -1.646402776241302490e-01 -3.416728973388671875e-02 1.288546174764633179e-01
6.542000000000000000e+03 1.721352767944335938e+01 -2.215274429321289062e+01 -1.681227982044219971e-01 -1.303851604461669922e-01 -8.955238759517669678e-02 -2.285658717155456543e-01
6.543000000000000000e+03 1.889593315124511719e+01 -2.310838699340820312e+01 -6.649654358625411987e-02 1.009758398140547797e-05 -1.994593441486358643e-02 -2.439080029726028442e-01
6.544000000000000000e+03 5.980591773986816406e+00 -1.083626651763916016e+01 -2.232974208891391754e-02 -5.196006968617439270e-02 -2.228694409132003784e-02 -5.811313167214393616e-03
6.545000000000000000e+03 5.261817932128906250e+00 -1.022627735137939453e+01 -1.161677390336990356e-02 -3.877270594239234924e-02 -1.511684339493513107e-02 4.802651703357696533e-03
6.546000000000000000e+03 5.322744369506835938e+00 1.471671962738037109e+01 8.998432755470275879e-02 -1.678377687931060791e-01 -2.335603162646293640e-02 1.489579528570175171e-01
6.547000000000000000e+03 4.777835845947265625e+00 -9.644296646118164062e+00 -4.938004538416862488e-03 -2.760599367320537567e-02 -9.763198904693126678e-03 1.039338950067758560e-02
6.548000000000000000e+03 7.405484771728515625e+01 2.456569671630859375e+01 -1.075425297021865845e-01 5.065470695495605469e+00 1.487378478050231934e+00 -6.267500519752502441e-01
6.549000000000000000e+03 6.027392387390136719e+00 -7.027836322784423828e+00 3.657290944829583168e-03 -2.642533555626869202e-02 -6.830413360148668289e-03 6.028511561453342438e-03
6.550000000000000000e+03 4.610386848449707031e+00 -7.901495933532714844e+00 2.222461858764290810e-03 -1.665093749761581421e-02 -4.328542388975620270e-03 1.352662686258554459e-02
6.551000000000000000e+03 6.406735897064208984e+00 -3.295902252197265625e+01 -4.909110441803932190e-02 -1.367682218551635742e-01 -5.575779452919960022e-02 -1.161815300583839417e-01
6.552000000000000000e+03 5.166919708251953125e+00 -7.265120029449462891e+00 3.663210896775126457e-03 -2.013104781508445740e-02 -4.940351005643606186e-03 1.131116691976785660e-02
6.553000000000000000e+03 5.217967987060546875e+00 -7.763497829437255859e+00 1.073227846063673496e-03 -2.417162433266639709e-02 -6.929519120603799820e-03 1.067644543945789337e-02
6.554000000000000000e+03 7.411875152587890625e+01 2.854186439514160156e+01 7.162413001060485840e-02 4.711921215057373047e+00 1.435063600540161133e+00 -5.170025825500488281e-01
6.555000000000000000e+03 7.455046081542968750e+01 2.619127845764160156e+01 -2.473284676671028137e-02 5.055049419403076172e+00 1.509094953536987305e+00 -5.344364047050476074e-01
6.556000000000000000e+03 1.096862888336181641e+01 -6.689447402954101562e+00 -7.784677669405937195e-03 -1.323733013123273849e-02 -6.306602153927087784e-03 -2.083972096443176270e-02
6.557000000000000000e+03 8.685542106628417969e+00 -6.359708309173583984e+00 1.249213935807347298e-03 -2.694341354072093964e-02 -7.708259858191013336e-03 -1.099150907248258591e-02
6.558000000000000000e+03 3.669520950317382812e+01 1.906619453430175781e+01 3.445542156696319580e-01 -6.361183524131774902e-01 -8.746924996376037598e-02 5.198211073875427246e-01
6.559000000000000000e+03 5.653540802001953125e+01 6.436984062194824219e+00 2.020494192838668823e-01 1.103281453251838684e-01 9.371326863765716553e-02 2.678747475147247314e-01
6.560000000000000000e+03 5.884312438964843750e+01 -2.143456840515136719e+01 4.525472819805145264e-01 3.573496639728546143e-01 2.429690808057785034e-01 1.318829953670501709e-01
6.561000000000000000e+03 1.102264785766601562e+01 -2.741048812866210938e+01 -6.963201612234115601e-02 -1.904813200235366821e-01 -7.803399860858917236e-02 -1.259444206953048706e-01
6.562000000000000000e+03 7.438449096679687500e+01 -3.367983627319335938e+01 1.488439887762069702e-01 5.242646217346191406e+00 1.617447018623352051e+00 5.983541607856750488e-01
6.563000000000000000e+03 7.447649383544921875e+01 -3.195102882385253906e+01 3.082875907421112061e-02 5.463084697723388672e+00 1.648174047470092773e+00 7.439714670181274414e-01
6.564000000000000000e+03 6.373426437377929688e+01 3.003900766372680664e+00 -1.023732423782348633e+00 5.974975228309631348e-01 -1.278704702854156494e-01 -3.805660307407379150e-01
6.565000000000000000e+03 5.508319377899169922e+00 -3.596691894531250000e+01 8.186317980289459229e-03 -1.849577575922012329e-01 -5.303142964839935303e-02 -1.109156832098960876e-01
6.566000000000000000e+03 7.814308643341064453e+00 -3.549979782104492188e+01 4.752953071147203445e-03 -1.752511560916900635e-01 -5.114946141839027405e-02 -1.462643295526504517e-01
6.567000000000000000e+03 5.908921241760253906e+00 6.094017982482910156e+00 -1.026207953691482544e-01 -2.416600845754146576e-02 -3.803604096174240112e-02 2.338690683245658875e-02
6.568000000000000000e+03 6.808878898620605469e+00 7.506985664367675781e+00 -1.516460031270980835e-01 -4.896566644310951233e-02 -6.018350273370742798e-02 7.131407409906387329e-02
6.569000000000000000e+03 5.040712738037109375e+01 -1.198631954193115234e+01 -7.836994528770446777e-01 1.472504138946533203e-01 -1.909347027540206909e-01 -5.977181792259216309e-01
6.570000000000000000e+03 3.097415733337402344e+01 -3.229098129272460938e+01 5.780305340886116028e-02 9.293248876929283142e-03 2.012889087200164795e-02 -1.881738156080245972e-01
6.571000000000000000e+03 4.227446746826171875e+01 -1.837307548522949219e+01 -9.610679990146309137e-05 -1.157658025622367859e-01 -3.475857153534889221e-02 -4.396819472312927246e-01
6.572000000000000000e+03 5.996085739135742188e+01 -2.261184310913085938e+01 4.604074954986572266e-01 5.501056909561157227e-01 3.031539618968963623e-01 3.030214607715606689e-01
6.573000000000000000e+03 6.895034027099609375e+01 2.329120635986328125e+01 1.638664603233337402e-01 2.707090139389038086e+00 8.612869381904602051e-01 -1.068926811218261719e+00
6.574000000000000000e+03 5.821372604370117188e+01 -1.363415718078613281e+01 -8.058857321739196777e-01 -3.295750617980957031e-01 -3.406382203102111816e-01 -1.415708214044570923e-01
6.575000000000000000e+03 7.395538330078125000e+01 3.467051696777343750e+01 1.451271325349807739e-01 4.408186435699462891e+00 1.365994095802307129e+00 -2.758646309375762939e-01
6.576000000000000000e+03 7.246977233886718750e+01 3.254284667968750000e+01 2.081308662891387939e-01 4.100366115570068359e+00 1.292549133300781250e+00 -4.019672274589538574e-01
6.577000000000000000e+03 6.358210754394531250e+01 4.784837245941162109e+00 -5.475275516510009766e-01 7.810630798339843750e-01 7.006067037582397461e-02 -5.902974009513854980e-01
6.578000000000000000e+03 9.504614830017089844e+00 -8.625511169433593750e+00 -1.505278516560792923e-02 -3.803473711013793945e-02 -1.592625677585601807e-02 -2.527602575719356537e-02
6.579000000000000000e+03 5.891226196289062500e+01 4.644687175750732422e+00 -6.782109141349792480e-01 1.752009540796279907e-01 -1.509029865264892578e-01 -7.470784336328506470e-02
6.580000000000000000e+03 2.577319717407226562e+01 -1.634382247924804688e+01 -3.717841804027557373e-01 -1.922934055328369141e-01 -1.692232787609100342e-01 -1.754226386547088623e-01
6.581000000000000000e+03 2.494052124023437500e+01 -1.650963592529296875e+01 -3.633481562137603760e-01 -1.747155338525772095e-01 -1.614191085100173950e-01 -1.739767044782638550e-01
6.582000000000000000e+03 6.853055572509765625e+01 2.408319282531738281e+01 2.744163572788238525e-01 2.562240123748779297e+00 8.509969711303710938e-01 -9.297229051589965820e-01
6.583000000000000000e+03 5.662824630737304688e+01 2.005307769775390625e+01 2.086298614740371704e-01 5.450679063796997070e-01 2.261093407869338989e-01 -3.082473874092102051e-01
6.584000000000000000e+03 5.758174896240234375e+01 1.900144386291503906e+01 2.030965536832809448e-01 7.396250367164611816e-01 2.828164696693420410e-01 -2.537222504615783691e-01
6.585000000000000000e+03 5.304830169677734375e+01 2.133174705505371094e+01 2.260847389698028564e-01 4.305922985076904297e-01 1.970031112432479858e-01 -1.896563321352005005e-01
6.586000000000000000e+03 2.100733184814453125e+01 -1.819062614440917969e+01 -2.149279713630676270e-01 -6.044923141598701477e-02 -8.261316269636154175e-02 -2.566685378551483154e-01
6.587000000000000000e+03 7.400375366210937500e+01 2.788031339645385742e+00 -6.735432147979736328e-01 5.613814353942871094e+00 1.482081413269042969e+00 -8.884422183036804199e-01
6.588000000000000000e+03 4.281577301025390625e+01 -2.003736305236816406e+01 1.548786014318466187e-01 -1.460098177194595337e-01 2.660635160282254219e-03 -6.126113533973693848e-01
6.589000000000000000e+03 6.075512695312500000e+01 -1.287668514251708984e+01 -1.364119410514831543e+00 3.493463695049285889e-01 -3.044318854808807373e-01 5.631269142031669617e-02
6.590000000000000000e+03 6.034398651123046875e+01 -1.215914535522460938e+01 -1.706051230430603027e+00 2.275351434946060181e-01 -4.435548186302185059e-01 7.641282677650451660e-02
6.591000000000000000e+03 5.928676223754882812e+01 -2.154474639892578125e+01 5.029305815696716309e-01 4.104588031768798828e-01 2.740168273448944092e-01 1.738029420375823975e-01
6.592000000000000000e+03 5.900432586669921875e+01 -2.096909713745117188e+01 5.062618255615234375e-01 3.503102362155914307e-01 2.569716274738311768e-01 1.073932573199272156e-01
6.593000000000000000e+03 9.793830871582031250e+00 -9.371691703796386719e+00 -2.714195288717746735e-02 -4.028617590665817261e-02 -2.022843807935714722e-02 -3.394296392798423767e-02
6.594000000000000000e+03 6.301163864135742188e+01 2.416163921356201172e+00 -1.284852504730224609e+00 6.020565629005432129e-01 -2.048387825489044189e-01 -2.416181713342666626e-01
6.595000000000000000e+03 6.299046325683593750e+01 3.219653129577636719e+00 -1.082073330879211426e+00 6.702162623405456543e-01 -1.235571280121803284e-01 -3.637412488460540771e-01
6.596000000000000000e+03 5.115689086914062500e+01 -1.009651374816894531e+01 -7.226020693778991699e-01 4.185305908322334290e-02 -2.042247056961059570e-01 -2.093044221401214600e-01
6.597000000000000000e+03 1.907629394531250000e+01 -1.952354049682617188e+01 -2.081843316555023193e-01 -2.296428009867668152e-02 -6.934458762407302856e-02 -2.976385951042175293e-01
6.598000000000000000e+03 1.307970237731933594e+01 -5.646255493164062500e+00 -1.384211005643010139e-03 -4.620350373443216085e-04 -5.538738332688808441e-04 -1.732520759105682373e-02
6.599000000000000000e+03 5.175261688232421875e+01 2.255111503601074219e+01 2.611564397811889648e-01 4.949647486209869385e-01 2.268363535404205322e-01 -2.259472571313381195e-02
6.600000000000000000e+03 5.150798034667968750e+01 -2.829518699645996094e+01 3.970053791999816895e-01 3.300325870513916016e-01 2.181113809347152710e-01 -2.646974921226501465e-01
6.601000000000000000e+03 6.697225952148437500e+01 2.981079816818237305e+00 -3.804746568202972412e-01 2.420746162533760071e-02 -1.068801581859588623e-01 -4.483041167259216309e-01
6.602000000000000000e+03 1.071225547790527344e+01 -2.680257606506347656e+01 -5.558717250823974609e-02 -1.568340361118316650e-01 -6.372635811567306519e-02 -1.277623772621154785e-01
6.603000000000000000e+03 3.244488143920898438e+01 -8.936335563659667969e+00 -7.863592356443405151e-02 -2.236752361059188843e-01 -9.069334715604782104e-02 -1.950483471155166626e-01
6.604000000000000000e+03 3.578223037719726562e+01 1.748312759399414062e+01 3.575133085250854492e-01 -6.534732580184936523e-01 -8.878799527883529663e-02 5.491485595703125000e-01
6.605000000000000000e+03 2.713172912597656250e+01 1.080397129058837891e+01 1.824017167091369629e-01 1.723581403493881226e-01 1.064279526472091675e-01 1.337982118129730225e-01
6.606000000000000000e+03 5.776100540161132812e+01 1.728499603271484375e+01 2.463470548391342163e-01 9.087834358215332031e-01 3.465391397476196289e-01 -2.817721962928771973e-01
6.607000000000000000e+03 5.371562194824218750e+01 2.106718444824218750e+01 2.188905924558639526e-01 4.407683908939361572e-01 1.978977024555206299e-01 -2.544907927513122559e-01
6.608000000000000000e+03 4.601442813873291016e+00 2.083649253845214844e+01 1.571884192526340485e-02 -2.881818711757659912e-01 -8.173891156911849976e-02 -1.083151344209909439e-02
6.609000000000000000e+03 5.664314651489257812e+01 1.695941925048828125e+01 2.629266381263732910e-01 6.477017402648925781e-01 2.731885015964508057e-01 -3.337605595588684082e-01
6.610000000000000000e+03 6.896277427673339844e+00 -3.533028411865234375e+01 -4.570438992232084274e-03 -1.734814345836639404e-01 -5.341556295752525330e-02 -1.335956007242202759e-01
6.611000000000000000e+03 7.339702606201171875e+01 1.902269363403320312e+01 1.222555339336395264e-02 5.975878715515136719e+00 1.796431303024291992e+00 -6.841755509376525879e-01
6.612000000000000000e+03 7.371130371093750000e+01 1.822974777221679688e+01 2.148782014846801758e-01 6.259390354156494141e+00 1.942280530929565430e+00 -5.776594281196594238e-01
6.613000000000000000e+03 1.867281913757324219e+01 -1.818044853210449219e+01 -1.647024452686309814e-01 -4.375601187348365784e-02 -6.253753602504730225e-02 -2.894393503665924072e-01
6.614000000000000000e+03 6.051158905029296875e+01 3.733203172683715820e+00 -1.102139711380004883e+00 4.274693727493286133e-01 -2.024010866880416870e-01 -2.516901493072509766e-01
6.615000000000000000e+03 5.916256713867187500e+01 5.380316257476806641e+00 -3.892353475093841553e-01 3.078375458717346191e-01 -2.441934496164321899e-02 -7.572214305400848389e-02
6.616000000000000000e+03 6.139377212524414062e+01 -1.821202278137207031e+01 7.238451838493347168e-01 7.335812449455261230e-01 4.372279345989227295e-01 6.992401927709579468e-02
6.617000000000000000e+03 6.244032287597656250e+01 -1.675304985046386719e+01 4.922457635402679443e-01 9.719234704971313477e-01 4.392507672309875488e-01 1.004397403448820114e-02
6.618000000000000000e+03 7.110864257812500000e+01 -2.956315612792968750e+01 4.811705052852630615e-01 2.949410438537597656e+00 1.029174327850341797e+00 1.229168653488159180e+00
6.619000000000000000e+03 2.976863479614257812e+01 -3.616692733764648438e+01 1.127448529005050659e-01 -1.477808803319931030e-01 -1.051080692559480667e-02 -1.140120700001716614e-01
6.620000000000000000e+03 3.434933090209960938e+01 -1.285257530212402344e+01 -4.156579971313476562e-01 -1.004869845928624272e-04 -1.247275471687316895e-01 -1.052491888403892517e-01
6.621000000000000000e+03 6.165584182739257812e+01 -2.144073677062988281e+01 6.751719117164611816e-01 1.059724330902099609e+00 5.204688906669616699e-01 2.225430309772491455e-01
6.622000000000000000e+03 2.367430114746093750e+01 1.049760150909423828e+01 1.647159606218338013e-01 -1.660093963146209717e-01 -3.880325239151716232e-04 7.563469558954238892e-02
6.623000000000000000e+03 2.341909980773925781e+01 9.143483161926269531e+00 2.191151231527328491e-01 -1.696971654891967773e-01 1.482538692653179169e-02 1.044592931866645813e-01
6.624000000000000000e+03 4.048077392578125000e+01 1.820960044860839844e+01 3.141046464443206787e-01 -2.231777459383010864e-01 2.727806568145751953e-02 3.592174947261810303e-01
6.625000000000000000e+03 4.196408462524414062e+01 1.662397956848144531e+01 2.180837839841842651e-01 -4.488896951079368591e-02 5.195844545960426331e-02 2.501517236232757568e-01
6.626000000000000000e+03 5.809581375122070312e+01 8.225057601928710938e+00 4.526231586933135986e-01 5.099703669548034668e-01 2.887780666351318359e-01 2.103937417268753052e-01
6.627000000000000000e+03 5.873201370239257812e+01 7.924804687500000000e+00 4.069602787494659424e-01 6.126322746276855469e-01 3.058777451515197754e-01 1.121364235877990723e-01
6.628000000000000000e+03 3.965473175048828125e+01 1.780998039245605469e+01 3.126660883426666260e-01 -3.932718336582183838e-01 -2.418172545731067657e-02 3.933025300502777100e-01
6.629000000000000000e+03 5.192641067504882812e+01 2.333402442932128906e+01 2.490403950214385986e-01 5.818613767623901367e-01 2.492705434560775757e-01 2.823132788762450218e-03
6.630000000000000000e+03 5.148981857299804688e+01 2.424937820434570312e+01 2.602727413177490234e-01 6.429206132888793945e-01 2.709580063819885254e-01 7.964335381984710693e-02
6.631000000000000000e+03 7.140017032623291016e+00 8.594906806945800781e+00 -1.696106195449829102e-01 -6.836239248514175415e-02 -7.139190286397933960e-02 1.128879636526107788e-01
6.632000000000000000e+03 6.700123596191406250e+01 3.620749235153198242e+00 -2.381482720375061035e-01 -2.055930159986019135e-02 -7.761227339506149292e-02 -5.695255398750305176e-01
6.633000000000000000e+03 4.930146026611328125e+01 2.442305183410644531e+01 3.313506841659545898e-01 4.899286627769470215e-01 2.463838011026382446e-01 2.547889351844787598e-01
6.634000000000000000e+03 1.354792976379394531e+01 -7.784047126770019531e+00 -2.697586640715599060e-02 1.969470269978046417e-02 -2.184348879382014275e-03 -1.109044719487428665e-02
6.635000000000000000e+03 5.043236923217773438e+01 2.879658126831054688e+01 1.944367140531539917e-01 8.182299733161926270e-01 3.038000166416168213e-01 1.519442647695541382e-01
6.636000000000000000e+03 4.945335006713867188e+01 2.718151473999023438e+01 2.021921128034591675e-01 6.427387595176696777e-01 2.534792721271514893e-01 2.294205129146575928e-01
6.637000000000000000e+03 6.817159271240234375e+01 3.600804090499877930e+00 -5.334725230932235718e-02 6.285702344030141830e-03 -1.411846466362476349e-02 -5.111802220344543457e-01
6.638000000000000000e+03 5.755526733398437500e+01 7.730833530426025391e+00 4.093364179134368896e-01 3.275008499622344971e-01 2.210511863231658936e-01 2.863983809947967529e-01
6.639000000000000000e+03 3.347780990600585938e+01 -1.093456935882568359e+01 -1.576067954301834106e-01 -1.056534722447395325e-01 -7.897808402776718140e-02 -8.935122936964035034e-02
6.640000000000000000e+03 2.724106788635253906e+01 -1.637567901611328125e+01 -3.720915913581848145e-01 -2.235213518142700195e-01 -1.786838769912719727e-01 -1.787952631711959839e-01
6.641000000000000000e+03 6.656445312500000000e+01 2.483080863952636719e+01 4.896976649761199951e-01 1.860032796859741211e+00 7.049191594123840332e-01 -4.579618871212005615e-01
6.642000000000000000e+03 2.406128692626953125e+01 -2.225294113159179688e+01 -9.824375621974468231e-03 -7.913143187761306763e-02 -2.668674290180206299e-02 -1.590166389942169189e-01
6.643000000000000000e+03 2.355471992492675781e+01 -2.493185806274414062e+01 1.952541321516036987e-01 -5.653305351734161377e-02 4.161632433533668518e-02 -1.124821081757545471e-01
6.644000000000000000e+03 7.556462097167968750e+01 1.326337623596191406e+01 6.554824113845825195e-01 6.999822616577148438e+00 2.296591520309448242e+00 -1.232057690620422363e+00
6.645000000000000000e+03 2.523348236083984375e+01 -2.272691345214843750e+01 3.944180905818939209e-02 -1.185593977570533752e-01 -2.373527549207210541e-02 -1.476020216941833496e-01
6.646000000000000000e+03 4.118328475952148438e+01 1.637726211547851562e+01 1.872035413980484009e-01 -2.039303630590438843e-01 -5.018047988414764404e-03 2.930876612663269043e-01
6.647000000000000000e+03 4.035741424560546875e+01 1.476292705535888672e+01 -2.675575902685523033e-03 -4.235822856426239014e-01 -1.278773546218872070e-01 3.450725674629211426e-01
6.648000000000000000e+03 4.220510101318359375e+01 1.855993652343750000e+01 3.077737092971801758e-01 1.034896895289421082e-01 1.233790144324302673e-01 2.547016441822052002e-01
6.649000000000000000e+03 6.627309417724609375e+01 2.399772644042968750e+00 -6.901442408561706543e-01 1.535976231098175049e-01 -1.609639823436737061e-01 -3.462481796741485596e-01
6.650000000000000000e+03 2.380449485778808594e+01 -2.419017791748046875e+01 1.341690719127655029e-01 -6.903719156980514526e-02 1.953956112265586853e-02 -1.237682998180389404e-01
6.651000000000000000e+03 8.041104316711425781e+00 -6.800552845001220703e+00 2.057779580354690552e-03 -2.935277484357357025e-02 -8.188498206436634064e-03 -7.819260470569133759e-03
6.652000000000000000e+03 6.273511123657226562e+01 -1.570084285736083984e+01 -6.035499740391969681e-03 1.018818020820617676e+00 3.038347661495208740e-01 -8.164829015731811523e-02
6.653000000000000000e+03 3.191455841064453125e+01 -1.311507225036621094e+01 -4.336750209331512451e-01 -2.558727860450744629e-01 -2.068643420934677124e-01 -3.729162737727165222e-02
6.654000000000000000e+03 4.938137054443359375e+01 2.653232383728027344e+01 2.264546006917953491e-01 5.954190492630004883e-01 2.465620934963226318e-01 2.543073594570159912e-01
6.655000000000000000e+03 4.939017105102539062e+01 2.532556152343750000e+01 2.904972434043884277e-01 5.464102625846862793e-01 2.510722577571868896e-01 2.656954228878021240e-01
6.656000000000000000e+03 3.376791000366210938e+01 -9.625400543212890625e+00 -2.220253646373748779e-02 -4.542574658989906311e-02 -2.028848603367805481e-02 -1.574777811765670776e-01
6.657000000000000000e+03 6.217938232421875000e+01 3.172958374023437500e+00 -1.189837217330932617e+00 6.410278677940368652e-01 -1.646428108215332031e-01 -3.166138231754302979e-01
6.658000000000000000e+03 7.314813995361328125e+01 2.126721572875976562e+01 -2.206537872552871704e-01 5.340287685394287109e+00 1.535890102386474609e+00 -7.717038989067077637e-01
6.659000000000000000e+03 7.115098571777343750e+01 -3.459567260742187500e+01 4.686947762966156006e-01 3.753918409347534180e+00 1.266783952713012695e+00 5.530835390090942383e-01
6.660000000000000000e+03 2.558014106750488281e+01 -2.679808616638183594e+01 2.934779822826385498e-01 -1.601789593696594238e-01 3.998970985412597656e-02 -1.240284517407417297e-01
6.661000000000000000e+03 3.407909393310546875e+01 1.663212203979492188e+01 3.266008198261260986e-01 -3.820745944976806641e-01 -1.664213463664054871e-02 5.315715074539184570e-01
6.662000000000000000e+03 3.889785766601562500e+01 -1.289460659027099609e+01 -6.729850172996520996e-01 5.628209114074707031e-01 -3.304924070835113525e-02 -5.658527836203575134e-02
6.663000000000000000e+03 8.059542655944824219e+00 -2.642123794555664062e+01 -4.986258223652839661e-02 -4.066106304526329041e-02 -2.715709432959556580e-02 -6.014866009354591370e-02
6.664000000000000000e+03 9.831046104431152344e+00 -2.852945327758789062e+01 -1.029229909181594849e-01 -1.431966125965118408e-01 -7.383587956428527832e-02 -1.052948459982872009e-01
6.665000000000000000e+03 7.456750392913818359e+00 -2.664644241333007812e+01 -4.915908351540565491e-02 -3.925452753901481628e-02 -2.652408368885517120e-02 -4.563553258776664734e-02
6.666000000000000000e+03 5.322201919555664062e+01 -3.032495117187500000e+01 3.628256022930145264e-01 5.380973815917968750e-01 2.702769041061401367e-01 -1.658173501491546631e-01
6.667000000000000000e+03 6.893682956695556641e+00 1.729508209228515625e+01 1.682207584381103516e-01 -1.757142990827560425e-01 -2.248060423880815506e-03 9.576304256916046143e-02
6.668000000000000000e+03 9.080208778381347656e+00 -2.841205978393554688e+01 -9.343316406011581421e-02 -1.147869229316711426e-01 -6.246602535247802734e-02 -9.362473338842391968e-02
6.669000000000000000e+03 5.175891876220703125e+01 -2.894534683227539062e+01 3.949493765830993652e-01 3.566759526729583740e-01 2.254876047372817993e-01 -2.464601099491119385e-01
6.670000000000000000e+03 4.988763427734375000e+01 2.681175994873046875e+01 2.350073307752609253e-01 6.860455274581909180e-01 2.763158679008483887e-01 2.092642933130264282e-01
6.671000000000000000e+03 5.030086898803710938e+01 2.582418441772460938e+01 2.675155401229858398e-01 6.528276801109313965e-01 2.761029601097106934e-01 2.183027863502502441e-01
6.672000000000000000e+03 1.186964416503906250e+01 -5.719075202941894531e+00 -1.055472763255238533e-03 -6.840243004262447357e-03 -2.368714660406112671e-03 -1.774189248681068420e-02
6.673000000000000000e+03 5.082107925415039062e+01 2.768088912963867188e+01 2.078334242105484009e-01 8.437816500663757324e-01 3.154845237731933594e-01 1.537850499153137207e-01
6.674000000000000000e+03 4.982227706909179688e+01 2.964367485046386719e+01 1.818108111619949341e-01 7.185497283935546875e-01 2.701081633567810059e-01 1.227660775184631348e-01
6.675000000000000000e+03 7.331152343750000000e+01 -3.606509780883789062e+01 2.936045229434967041e-01 4.626250743865966797e+00 1.475956678390502930e+00 4.449997544288635254e-01
6.676000000000000000e+03 5.612784957885742188e+01 1.850872421264648438e+01 2.327999174594879150e-01 5.496878027915954590e-01 2.347463220357894897e-01 -3.334403932094573975e-01
6.677000000000000000e+03 5.712248229980468750e+01 2.054113197326660156e+01 1.868926733732223511e-01 5.453212261199951172e-01 2.196641713380813599e-01 -2.552407085895538330e-01
6.678000000000000000e+03 7.077046203613281250e+01 -3.144221687316894531e+01 5.696157813072204590e-01 3.171433925628662109e+00 1.122314929962158203e+00 8.258693218231201172e-01
6.679000000000000000e+03 4.934004974365234375e+01 3.062602615356445312e+01 1.868539303541183472e-01 6.303750276565551758e-01 2.451686859130859375e-01 6.167197600007057190e-02
6.680000000000000000e+03 2.158128929138183594e+01 -2.338667678833007812e+01 7.078775204718112946e-03 4.762060567736625671e-02 1.640981435775756836e-02 -1.575262099504470825e-01
6.681000000000000000e+03 4.924988174438476562e+01 -1.430662727355957031e+01 -8.132029771804809570e-01 -4.815512150526046753e-02 -2.584074437618255615e-01 -5.174106359481811523e-01
6.682000000000000000e+03 5.019485092163085938e+01 -1.295684051513671875e+01 -7.809785604476928711e-01 9.943391382694244385e-02 -2.044633924961090088e-01 -6.599921584129333496e-01
6.683000000000000000e+03 1.818144035339355469e+01 -2.382152175903320312e+01 -3.897797781974077225e-03 -5.192089825868606567e-02 -1.674560829997062683e-02 -2.386682629585266113e-01
6.684000000000000000e+03 1.895764350891113281e+01 -2.202838134765625000e+01 -1.489265412092208862e-01 -5.175248719751834869e-03 -4.623053595423698425e-02 -2.511638998985290527e-01
6.685000000000000000e+03 2.694759559631347656e+01 9.308661460876464844e+00 2.729605436325073242e-01 1.880538463592529297e-01 1.383043229579925537e-01 1.394652575254440308e-01
6.686000000000000000e+03 5.454025268554687500e+01 2.003769111633300781e+01 2.167975753545761108e-01 4.310317933559417725e-01 1.943488121032714844e-01 -3.132430016994476318e-01
6.687000000000000000e+03 5.644786071777343750e+01 -1.489755153656005859e+01 -2.594471573829650879e-01 -2.380129098892211914e-01 -1.492380201816558838e-01 -3.069205582141876221e-01
6.688000000000000000e+03 5.082080078125000000e+01 -1.256862449645996094e+01 -8.480743765830993652e-01 1.396589577198028564e-01 -2.125246226787567139e-01 -6.693301200866699219e-01
6.689000000000000000e+03 5.190204620361328125e+01 -1.269221782684326172e+01 -9.325354695320129395e-01 1.337230354547500610e-01 -2.396437227725982666e-01 -6.893118023872375488e-01
6.690000000000000000e+03 3.445463562011718750e+01 -1.205169582366943359e+01 -2.934906184673309326e-01 5.934196710586547852e-02 -7.024459540843963623e-02 -8.675488829612731934e-02
6.691000000000000000e+03 1.779151916503906250e+01 -1.430554771423339844e+01 -9.904105961322784424e-02 2.251904271543025970e-02 -2.295660413801670074e-02 -2.599751390516757965e-02
6.692000000000000000e+03 4.817393875122070312e+01 3.083687782287597656e+01 1.333080083131790161e-01 4.458690583705902100e-01 1.737531274557113647e-01 1.934930309653282166e-02
6.693000000000000000e+03 1.029495716094970703e+01 -7.148498535156250000e+00 -6.643817760050296783e-03 -2.227061614394187927e-02 -8.674330078065395355e-03 -2.265462651848793030e-02
6.694000000000000000e+03 5.096300888061523438e+01 -1.163458347320556641e+01 -8.395936489105224609e-01 1.383511722087860107e-01 -2.103727459907531738e-01 -5.603972077369689941e-01
6.695000000000000000e+03 7.331164550781250000e+01 -3.478769683837890625e+01 2.842956185340881348e-01 4.660208225250244141e+00 1.483351111412048340e+00 5.566493868827819824e-01
6.696000000000000000e+03 6.165607452392578125e+01 5.068909168243408203e+00 -5.546825528144836426e-01 7.452523708343505859e-01 5.717093870043754578e-02 -3.911322355270385742e-01
6.697000000000000000e+03 2.947349357604980469e+01 -3.200026321411132812e+01 7.227509468793869019e-02 -5.094439163804054260e-02 6.399211939424276352e-03 -1.612766832113265991e-01
6.698000000000000000e+03 2.915171241760253906e+01 -3.291244888305664062e+01 4.747208952903747559e-02 -8.509339392185211182e-02 -1.128639187663793564e-02 -1.465470045804977417e-01
6.699000000000000000e+03 1.165248012542724609e+01 -6.457396030426025391e+00 -7.935973815619945526e-03 -9.049814194440841675e-03 -5.095736123621463776e-03 -2.237549610435962677e-02
6.700000000000000000e+03 7.127953338623046875e+01 -3.074678802490234375e+01 4.928712248802185059e-01 3.347060441970825195e+00 1.151979446411132812e+00 1.007600784301757812e+00
6.701000000000000000e+03 7.246292114257812500e+01 7.865248680114746094e+00 -1.039579033851623535e+00 4.422221660614013672e+00 1.014792799949645996e+00 -4.303517937660217285e-01
6.702000000000000000e+03 8.668304443359375000e+00 1.988603019714355469e+01 5.605798587203025818e-02 -1.253640651702880859e-01 -2.079182490706443787e-02 1.100063845515251160e-01
6.703000000000000000e+03 2.621405982971191406e+01 -2.487226867675781250e+01 2.121212780475616455e-01 -1.505629420280456543e-01 1.846750266849994659e-02 -1.341763287782669067e-01
6.704000000000000000e+03 5.609926605224609375e+01 -1.419912147521972656e+01 -5.769191980361938477e-01 -2.402196079492568970e-01 -2.451416403055191040e-01 -3.728047609329223633e-01
6.705000000000000000e+03 5.719541168212890625e+01 1.843280982971191406e+01 2.233761698007583618e-01 7.231338620185852051e-01 2.839530110359191895e-01 -2.952130138874053955e-01
6.706000000000000000e+03 7.381590270996093750e+01 1.936757087707519531e+01 -5.608725920319557190e-02 5.988829135894775391e+00 1.779822587966918945e+00 -5.755121111869812012e-01
6.707000000000000000e+03 2.605725097656250000e+01 1.051185798645019531e+01 2.018331587314605713e-01 1.268320623785257339e-02 6.435491144657135010e-02 1.094337254762649536e-01
6.708000000000000000e+03 3.594311523437500000e+01 -3.215340042114257812e+01 -5.854712333530187607e-03 -1.023148447275161743e-01 -3.245086595416069031e-02 -3.466112315654754639e-01
6.709000000000000000e+03 7.043281555175781250e+01 3.126876831054687500e+01 3.023908734321594238e-01 3.610222339630126953e+00 1.173783898353576660e+00 -4.834720194339752197e-01
6.710000000000000000e+03 9.241885185241699219e+00 -2.704179573059082031e+01 -6.469133496284484863e-02 -9.543368220329284668e-02 -4.803750291466712952e-02 -9.290719032287597656e-02
6.711000000000000000e+03 6.780288696289062500e+01 2.737094306945800781e+01 4.232815504074096680e-01 2.713598251342773438e+00 9.410639405250549316e-01 -5.503532290458679199e-01
6.712000000000000000e+03 6.820079040527343750e+01 2.806231498718261719e+01 4.028530418872833252e-01 2.879515647888183594e+00 9.847105741500854492e-01 -5.567390918731689453e-01
6.713000000000000000e+03 7.029411315917968750e+01 1.841431856155395508e+00 -2.960373461246490479e-01 6.836326718330383301e-01 1.162785962224006653e-01 -5.874950885772705078e-01
6.714000000000000000e+03 7.013025665283203125e+01 3.379056692123413086e+00 2.822540700435638428e-02 8.389607667922973633e-01 2.601558566093444824e-01 -5.312355160713195801e-01
6.715000000000000000e+03 4.295534515380859375e+01 -1.736519622802734375e+01 -2.531302869319915771e-01 -1.650179326534271240e-01 -1.254444569349288940e-01 -3.161796927452087402e-01
6.716000000000000000e+03 2.317724227905273438e+01 6.955550670623779297e+00 1.419286727905273438e-01 -1.581167429685592651e-01 -4.856422543525695801e-03 1.314375698566436768e-01
6.717000000000000000e+03 2.410317802429199219e+01 7.491520404815673828e+00 1.921343207359313965e-01 -1.284360140562057495e-01 1.910949125885963440e-02 1.331255137920379639e-01
6.718000000000000000e+03 8.689002990722656250e+00 -3.188723754882812500e+01 -9.481661021709442139e-02 -1.475344300270080566e-01 -7.270531356334686279e-02 -1.299410760402679443e-01
6.719000000000000000e+03 5.814344406127929688e+00 -3.192964363098144531e+01 -5.708942934870719910e-02 -1.187127307057380676e-01 -5.274064838886260986e-02 -9.469207376241683960e-02
6.720000000000000000e+03 1.271210765838623047e+01 -7.033431053161621094e+00 -1.639268174767494202e-02 4.845529794692993164e-03 -3.464145818725228310e-03 -1.643444597721099854e-02
6.721000000000000000e+03 8.146045684814453125e+00 -1.025100135803222656e+01 -3.222864121198654175e-02 -6.142079085111618042e-02 -2.809482999145984650e-02 -2.286868728697299957e-02
6.722000000000000000e+03 6.582820892333984375e+01 3.791737079620361328e+00 -4.545182883739471436e-01 2.311890274286270142e-01 -6.699877977371215820e-02 -6.548395156860351562e-01
6.723000000000000000e+03 3.751222991943359375e+01 1.839948844909667969e+01 3.658626675605773926e-01 -6.270698904991149902e-01 -7.836216688156127930e-02 5.022656917572021484e-01
6.724000000000000000e+03 2.517383575439453125e+01 -2.620544433593750000e+01 2.716647088527679443e-01 -1.437977105379104614e-01 3.836010023951530457e-02 -1.142257079482078552e-01
6.725000000000000000e+03 2.549473762512207031e+01 -2.525559425354003906e+01 2.290787994861602783e-01 -1.433154344558715820e-01 2.572900801897048950e-02 -1.200599148869514465e-01
6.726000000000000000e+03 6.021949005126953125e+01 -2.104304695129394531e+01 6.168377399444580078e-01 5.812902450561523438e-01 3.594383895397186279e-01 1.744824647903442383e-01
6.727000000000000000e+03 6.036734771728515625e+01 -1.952361106872558594e+01 6.993541717529296875e-01 5.203780531883239746e-01 3.659196496009826660e-01 7.295632362365722656e-02
6.728000000000000000e+03 5.134584426879882812e+01 2.350591659545898438e+01 2.715194523334503174e-01 5.646653771400451660e-01 2.508554458618164062e-01 5.899305269122123718e-02
6.729000000000000000e+03 3.123233795166015625e+01 3.185390663146972656e+01 2.639452219009399414e-01 -4.549079239368438721e-01 -5.728881433606147766e-02 2.822449803352355957e-01
6.730000000000000000e+03 2.945593452453613281e+01 3.286449813842773438e+01 2.668909132480621338e-01 -3.869745135307312012e-01 -3.602508455514907837e-02 3.387254178524017334e-01
6.731000000000000000e+03 6.106593704223632812e+01 -2.161317443847656250e+01 6.341857910156250000e-01 8.173571228981018066e-01 4.354628622531890869e-01 2.332734167575836182e-01
6.732000000000000000e+03 4.855043411254882812e+01 2.995510292053222656e+01 1.104801520705223083e-01 5.371780991554260254e-01 1.942974776029586792e-01 8.544548600912094116e-02
6.733000000000000000e+03 3.994207000732421875e+01 1.688972282409667969e+01 2.440096735954284668e-01 -4.098303616046905518e-01 -4.974620416760444641e-02 3.652602732181549072e-01
6.734000000000000000e+03 6.098997592926025391e+00 1.086980915069580078e+01 -8.108462393283843994e-02 -7.964424043893814087e-02 -4.821865633130073547e-02 1.743405163288116455e-01
6.735000000000000000e+03 3.293533706665039062e+01 -3.413442611694335938e+01 8.558189868927001953e-02 -4.013080522418022156e-02 1.363532803952693939e-02 -2.591358721256256104e-01
6.736000000000000000e+03 5.550335693359375000e+01 5.132520675659179688e+00 -4.399695694446563721e-01 7.122990489006042480e-02 -1.106218993663787842e-01 3.065189421176910400e-01
6.737000000000000000e+03 2.392553138732910156e+01 3.240773010253906250e+01 -4.769292846322059631e-02 9.362247772514820099e-03 -1.149920467287302017e-02 1.824857294559478760e-01
6.738000000000000000e+03 8.437028884887695312e+00 -3.065526580810546875e+01 -1.036157533526420593e-01 -1.278427541255950928e-01 -6.943755596876144409e-02 -1.093280762434005737e-01
6.739000000000000000e+03 6.037833213806152344e+00 -3.113829421997070312e+01 -6.711647659540176392e-02 -1.093259304761886597e-01 -5.293272063136100769e-02 -8.402187377214431763e-02
6.740000000000000000e+03 8.792415618896484375e+00 -2.992724800109863281e+01 -1.061397865414619446e-01 -1.224218532443046570e-01 -6.856849044561386108e-02 -1.059056594967842102e-01
6.741000000000000000e+03 5.951152324676513672e+00 -2.915621185302734375e+01 -6.478521227836608887e-02 -7.908420264720916748e-02 -4.316082596778869629e-02 -5.105141550302505493e-02
6.742000000000000000e+03 5.008977890014648438e+01 3.502014541625976562e+01 4.341950714588165283e-01 5.853984951972961426e-01 3.058780729770660400e-01 -5.318090552464127541e-04
6.743000000000000000e+03 6.703686237335205078e+00 -3.660393905639648438e+01 3.202828764915466309e-02 -1.878307461738586426e-01 -4.674073681235313416e-02 -1.255493909120559692e-01
6.744000000000000000e+03 2.943895530700683594e+01 3.394188690185546875e+01 3.051995038986206055e-01 -3.477608561515808105e-01 -1.276841014623641968e-02 2.792527973651885986e-01
6.745000000000000000e+03 7.020883941650390625e+01 3.861980056762695312e+01 2.522405982017517090e-01 3.545909404754638672e+00 1.139444947242736816e+00 -1.075983345508575439e-01
6.746000000000000000e+03 7.298926544189453125e+01 3.625512313842773438e+01 1.814278513193130493e-01 4.161111831665039062e+00 1.302761912345886230e+00 -2.429387122392654419e-01
6.747000000000000000e+03 7.216712951660156250e+01 -4.144152069091796875e+01 3.400090634822845459e-01 4.320405006408691406e+00 1.398124217987060547e+00 6.579086929559707642e-02
6.748000000000000000e+03 6.878633880615234375e+01 3.313575363159179688e+01 3.785897493362426758e-01 3.191523075103759766e+00 1.071033835411071777e+00 -3.827428519725799561e-01
6.749000000000000000e+03 6.779754638671875000e+01 3.381867980957031250e+01 4.063991606235504150e-01 3.029643774032592773e+00 1.030812859535217285e+00 -3.546795547008514404e-01
6.750000000000000000e+03 6.950852966308593750e+01 -3.904375839233398438e+01 5.139989852905273438e-01 3.230989217758178711e+00 1.123496532440185547e+00 2.880113124847412109e-01
6.751000000000000000e+03 6.848131561279296875e+01 3.164850997924804688e+01 4.118100106716156006e-01 3.088209629058837891e+00 1.050005912780761719e+00 -4.290828704833984375e-01
6.752000000000000000e+03 2.167230796813964844e+01 4.131894683837890625e+01 2.437994480133056641e-01 -2.810750603675842285e-01 -1.118268258869647980e-02 1.871070079505443573e-02
6.753000000000000000e+03 2.629938888549804688e+01 3.555942916870117188e+01 1.988335251808166504e-01 -2.301653474569320679e-01 -9.399545378983020782e-03 2.159053534269332886e-01
6.754000000000000000e+03 2.546661758422851562e+01 3.377849578857421875e+01 7.403862476348876953e-02 -1.277879178524017334e-01 -1.612478867173194885e-02 2.808572649955749512e-01
6.755000000000000000e+03 3.541187286376953125e+01 1.587363433837890625e+01 1.978442817926406860e-01 -6.450156569480895996e-01 -1.341514140367507935e-01 5.343067646026611328e-01
6.756000000000000000e+03 5.146537017822265625e+01 2.180719184875488281e+01 2.897299826145172119e-01 4.046716094017028809e-01 2.083204835653305054e-01 -2.613346464931964874e-02
6.757000000000000000e+03 7.088465118408203125e+01 4.011270523071289062e+00 -2.240391261875629425e-02 1.598347783088684082e+00 4.727831482887268066e-01 -5.557607412338256836e-01
6.758000000000000000e+03 7.336980438232421875e+01 2.583036661148071289e+00 -6.105461716651916504e-01 4.764332294464111328e+00 1.246135830879211426e+00 -9.714856147766113281e-01
6.759000000000000000e+03 4.003446578979492188e+01 1.545915889739990234e+01 8.234394341707229614e-02 -4.584476053714752197e-01 -1.128311008214950562e-01 3.488259315490722656e-01
6.760000000000000000e+03 4.092043685913085938e+01 1.591279888153076172e+01 1.534781605005264282e-01 -2.671375274658203125e-01 -3.409781306982040405e-02 2.999300658702850342e-01
6.761000000000000000e+03 8.246970176696777344e+00 -2.699268722534179688e+01 -6.357455998659133911e-02 -5.962780863046646118e-02 -3.696070984005928040e-02 -6.695467978715896606e-02
6.762000000000000000e+03 4.193489074707031250e+01 1.808908081054687500e+01 2.889347672462463379e-01 3.692283108830451965e-02 9.775727987289428711e-02 2.579634487628936768e-01
6.763000000000000000e+03 1.187281513214111328e+01 -7.069880008697509766e+00 -1.469601690769195557e-02 -4.431601613759994507e-03 -5.738285835832357407e-03 -2.121915668249130249e-02
6.764000000000000000e+03 1.297057819366455078e+01 -7.900281906127929688e+00 -2.998813055455684662e-02 1.333319954574108124e-02 -4.996479488909244537e-03 -1.801712810993194580e-02
6.765000000000000000e+03 6.361683368682861328e+00 1.643289375305175781e+01 1.552544236183166504e-01 -1.817095577716827393e-01 -7.936539128422737122e-03 1.174827590584754944e-01
6.766000000000000000e+03 5.082217693328857422e+00 1.610903739929199219e+01 1.091505661606788635e-01 -2.002120614051818848e-01 -2.731844596564769745e-02 1.037145778536796570e-01
6.767000000000000000e+03 9.003609657287597656e+00 -2.917708396911621094e+01 -1.063028126955032349e-01 -1.219572648406028748e-01 -6.847802549600601196e-02 -9.727631509304046631e-02
6.768000000000000000e+03 7.366259765625000000e+01 7.055765628814697266e+00 -7.659168243408203125e-01 5.559616088867187500e+00 1.438109755516052246e+00 -7.552047371864318848e-01
6.769000000000000000e+03 5.819894790649414062e+01 6.553168296813964844e+00 9.876867383718490601e-02 2.934292852878570557e-01 1.176593899726867676e-01 1.107470020651817322e-01
6.770000000000000000e+03 5.927379989624023438e+01 6.343528747558593750e+00 -1.509535219520330429e-02 4.911044836044311523e-01 1.428027451038360596e-01 -4.406974837183952332e-02
6.771000000000000000e+03 6.006864929199218750e+01 5.588325023651123047e+00 -3.135763108730316162e-01 5.339917540550231934e-01 6.612462550401687622e-02 -1.963311284780502319e-01
6.772000000000000000e+03 5.770040512084960938e+01 -1.563249301910400391e+01 3.470377624034881592e-02 -2.052301913499832153e-01 -5.115792527794837952e-02 -2.290880978107452393e-01
6.773000000000000000e+03 1.850278282165527344e+01 -2.128108406066894531e+01 -1.935358643531799316e-01 -2.740149013698101044e-02 -6.628120690584182739e-02 -2.642353177070617676e-01
6.774000000000000000e+03 1.957067680358886719e+01 -1.776286315917968750e+01 -1.803883165121078491e-01 -5.044524744153022766e-02 -6.925006955862045288e-02 -2.703592479228973389e-01
6.775000000000000000e+03 6.608793640136718750e+01 2.536132621765136719e+01 5.389236807823181152e-01 1.899544000625610352e+00 7.315403223037719727e-01 -3.161575794219970703e-01
6.776000000000000000e+03 6.815100097656250000e+01 2.642588996887207031e+01 3.998244404792785645e-01 2.736452579498291016e+00 9.408831596374511719e-01 -6.623042821884155273e-01
6.777000000000000000e+03 2.528051567077636719e+01 1.136125564575195312e+01 1.332181245088577271e-01 -8.083359897136688232e-02 1.571535877883434296e-02 8.523723483085632324e-02
6.778000000000000000e+03 2.458040809631347656e+01 1.082451820373535156e+01 1.699646413326263428e-01 -1.225774139165878296e-01 1.421617064625024796e-02 7.696036249399185181e-02
6.779000000000000000e+03 7.333035278320312500e+01 3.036037445068359375e+01 1.473389416933059692e-01 4.385319232940673828e+00 1.359797477722167969e+00 -4.785925745964050293e-01
6.780000000000000000e+03 7.242716789245605469e+00 1.898928451538085938e+01 1.143697947263717651e-01 -1.888363808393478394e-01 -2.233997546136379242e-02 6.501841545104980469e-02
6.781000000000000000e+03 2.605156707763671875e+01 -1.733308219909667969e+01 -3.060519993305206299e-01 -1.968966424465179443e-01 -1.508845984935760498e-01 -1.748560667037963867e-01
6.782000000000000000e+03 2.401136970520019531e+01 8.949948310852050781e+00 2.337259203195571899e-01 -1.439003199338912964e-01 2.694767899811267853e-02 1.078129559755325317e-01
6.783000000000000000e+03 2.316375541687011719e+01 8.627607345581054688e+00 2.200367897748947144e-01 -1.743999719619750977e-01 1.369104348123073578e-02 1.117884442210197449e-01
6.784000000000000000e+03 6.759181213378906250e+01 2.959763288497924805e+00 -2.742972373962402344e-01 -2.649752795696258545e-02 -9.023842960596084595e-02 -4.084936380386352539e-01
6.785000000000000000e+03 2.594210433959960938e+01 -2.146133804321289062e+01 -4.485267028212547302e-02 -1.451821029186248779e-01 -5.701043084263801575e-02 -1.529709845781326294e-01
6.786000000000000000e+03 2.468466186523437500e+01 -2.180454444885253906e+01 -2.927757240831851959e-02 -1.060846894979476929e-01 -4.060867801308631897e-02 -1.620225608348846436e-01
6.787000000000000000e+03 3.921834182739257812e+01 1.444902515411376953e+01 -1.048983633518218994e-01 -6.230935454368591309e-01 -2.183975577354431152e-01 3.853856921195983887e-01
6.788000000000000000e+03 6.636119079589843750e+01 3.057529211044311523e+00 -4.909950196743011475e-01 1.085093170404434204e-01 -1.147457137703895569e-01 -4.855675697326660156e-01
6.789000000000000000e+03 2.158416366577148438e+01 -1.765706253051757812e+01 -2.363211512565612793e-01 -8.511305600404739380e-02 -9.643026441335678101e-02 -2.342607080936431885e-01
6.790000000000000000e+03 2.575884437561035156e+01 -2.083883476257324219e+01 -8.255024999380111694e-02 -1.508437097072601318e-01 -7.001818716526031494e-02 -1.622743308544158936e-01
6.791000000000000000e+03 6.997470092773437500e+01 -2.851110267639160156e+01 5.991374254226684570e-01 1.443731069564819336e+00 6.128605008125305176e-01 9.743974208831787109e-01
6.792000000000000000e+03 4.955457305908203125e+01 2.162853050231933594e+01 3.706378936767578125e-01 3.280219435691833496e-01 2.095979452133178711e-01 1.322883367538452148e-01
6.793000000000000000e+03 4.814490127563476562e+01 2.198306846618652344e+01 4.060560762882232666e-01 3.610017299652099609e-01 2.301173359155654907e-01 2.294451445341110229e-01
6.794000000000000000e+03 2.147282218933105469e+01 -1.877908134460449219e+01 -2.087911218404769897e-01 -5.941439419984817505e-02 -8.046165108680725098e-02 -2.507047653198242188e-01
6.795000000000000000e+03 7.328923034667968750e+01 2.944681167602539062e+01 1.322061866521835327e-01 4.419920921325683594e+00 1.365638136863708496e+00 -5.243407487869262695e-01
6.796000000000000000e+03 7.460665130615234375e+01 1.003015232086181641e+01 -2.167176455259323120e-01 6.878560543060302734e+00 1.998552918434143066e+00 -1.447400689125061035e+00
6.797000000000000000e+03 6.125482940673828125e+01 3.736707925796508789e+00 -1.095511078834533691e+00 5.389643907546997070e-01 -1.669639945030212402e-01 -3.009795248508453369e-01
6.798000000000000000e+03 5.701828002929687500e+00 -2.976126480102539062e+01 -6.276052445173263550e-02 -8.671176433563232422e-02 -4.484168812632560730e-02 -5.822023376822471619e-02
6.799000000000000000e+03 7.035412788391113281e+00 1.658414840698242188e+01 1.795798838138580322e-01 -1.597770750522613525e-01 5.940842442214488983e-03 1.215179935097694397e-01
6.800000000000000000e+03 6.325817489624023438e+01 -1.329480648040771484e+01 -1.363169312477111816e+00 1.044064879417419434e+00 -9.573132544755935669e-02 5.131641030311584473e-02
6.801000000000000000e+03 5.886658859252929688e+01 -1.677664566040039062e+01 3.254655599594116211e-01 -3.139138966798782349e-02 8.822225779294967651e-02 -1.893424689769744873e-01
6.802000000000000000e+03 5.898087692260742188e+01 -1.469894123077392578e+01 -3.786420524120330811e-01 -1.167019233107566833e-01 -1.486031860113143921e-01 -1.282370984554290771e-01
6.803000000000000000e+03 6.150234985351562500e+01 -1.232020282745361328e+01 -1.661560177803039551e+00 6.153714060783386230e-01 -3.138566315174102783e-01 7.108367234468460083e-02
6.804000000000000000e+03 6.635031700134277344e+00 -1.106381607055664062e+01 -2.998078987002372742e-02 -6.387071311473846436e-02 -2.815544977784156799e-02 -1.517704594880342484e-02
6.805000000000000000e+03 7.425486755371093750e+01 2.770069885253906250e+01 4.413567110896110535e-02 4.820613384246826172e+00 1.459424734115600586e+00 -5.298066139221191406e-01
6.806000000000000000e+03 5.538046360015869141e+00 1.927137565612792969e+01 8.005934953689575195e-02 -2.528366148471832275e-01 -5.183317884802818298e-02 2.249616384506225586e-02
6.807000000000000000e+03 5.714580059051513672e+00 2.083947944641113281e+01 1.502393838018178940e-02 -2.842837870121002197e-01 -8.077795803546905518e-02 1.634267345070838928e-02
6.808000000000000000e+03 2.591090011596679688e+01 -2.403811454772949219e+01 1.525101661682128906e-01 -1.410217434167861938e-01 3.446527058258652687e-03 -1.361462473869323730e-01
6.809000000000000000e+03 2.517916107177734375e+01 -2.419505500793457031e+01 1.559852659702301025e-01 -1.207237914204597473e-01 1.057844143360853195e-02 -1.285011023283004761e-01
6.810000000000000000e+03 2.428016662597656250e+01 -2.384451484680175781e+01 1.197879165410995483e-01 -8.668304234743118286e-02 9.931462816894054413e-03 -1.290453523397445679e-01
6.811000000000000000e+03 4.437343978881835938e+01 -2.440160179138183594e+01 1.886526793241500854e-01 1.273458153009414673e-01 9.479954838752746582e-02 -3.757945597171783447e-01
6.812000000000000000e+03 6.031664276123046875e+01 -1.565731716156005859e+01 -4.577297344803810120e-02 2.775167822837829590e-01 6.952314823865890503e-02 -1.256854534149169922e-01
6.813000000000000000e+03 7.355603027343750000e+01 3.243593978881835938e+01 1.566978245973587036e-01 4.386072635650634766e+00 1.362831115722656250e+00 -3.659987151622772217e-01
6.814000000000000000e+03 6.943607330322265625e+01 3.046058845520019531e+01 3.471660614013671875e-01 3.325790166854858398e+00 1.101886868476867676e+00 -5.092739462852478027e-01
6.815000000000000000e+03 2.279953193664550781e+01 8.060579299926757812e+00 2.093220353126525879e-01 -1.803917288780212402e-01 8.679090067744255066e-03 1.169245392084121704e-01
6.816000000000000000e+03 6.595493316650390625e+01 2.436182212829589844e+01 5.055550932884216309e-01 1.617506623268127441e+00 6.369185447692871094e-01 -3.293212056159973145e-01
6.817000000000000000e+03 7.212416839599609375e+01 2.130101394653320312e+01 -2.160011082887649536e-01 4.873627185821533203e+00 1.397287845611572266e+00 -1.000350832939147949e+00
6.818000000000000000e+03 7.036989212036132812e+00 -2.811841964721679688e+01 -7.032255828380584717e-02 -6.399653106927871704e-02 -4.029572755098342896e-02 -5.617636442184448242e-02
6.819000000000000000e+03 2.547743225097656250e+01 -1.691226577758789062e+01 -3.347588777542114258e-01 -1.845663487911224365e-01 -1.557975709438323975e-01 -1.740053743124008179e-01
6.820000000000000000e+03 7.066099548339843750e+01 2.234406471252441406e+01 -7.041896134614944458e-02 3.829597234725952148e+00 1.127753496170043945e+00 -1.176076889038085938e+00
6.821000000000000000e+03 7.169690704345703125e+01 2.177967643737792969e+01 -1.852599084377288818e-01 4.544423103332519531e+00 1.307748913764953613e+00 -1.067586898803710938e+00
6.822000000000000000e+03 1.229652023315429688e+01 -8.822704315185546875e+00 -3.971713781356811523e-02 1.254369411617517471e-02 -8.152032271027565002e-03 -2.778878994286060333e-02
6.823000000000000000e+03 5.898885726928710938e+01 -1.341936206817626953e+01 -9.580942392349243164e-01 -1.849347949028015137e-01 -3.429087102413177490e-01 -5.697162076830863953e-02
6.824000000000000000e+03 3.838040161132812500e+01 1.454352569580078125e+01 -8.537244796752929688e-02 -7.282113432884216309e-01 -2.440751343965530396e-01 4.146354198455810547e-01
6.825000000000000000e+03 6.902639770507812500e+01 2.397823143005371094e+01 2.007818371057510376e-01 2.814958572387695312e+00 9.047220945358276367e-01 -9.913874864578247070e-01
6.826000000000000000e+03 6.980014038085937500e+01 2.275555419921875000e+01 3.151937201619148254e-02 3.259464979171752930e+00 9.872953295707702637e-01 -1.173073172569274902e+00
6.827000000000000000e+03 7.383654022216796875e+01 2.267148780822753906e+01 -1.881179958581924438e-01 5.286290168762207031e+00 1.529451727867126465e+00 -6.533238291740417480e-01
6.828000000000000000e+03 7.397129058837890625e+01 2.023614883422851562e+01 -1.576056182384490967e-01 5.816692829132080078e+00 1.697726130485534668e+00 -5.768291354179382324e-01
6.829000000000000000e+03 7.460253906250000000e+01 2.478535652160644531e+01 -9.324923157691955566e-02 5.234505653381347656e+00 1.542376995086669922e+00 -5.452914237976074219e-01
6.830000000000000000e+03 7.457204437255859375e+01 2.546606826782226562e+01 -6.320447474718093872e-02 5.134240150451660156e+00 1.521310687065124512e+00 -5.416606664657592773e-01
6.831000000000000000e+03 7.297731781005859375e+01 2.367217636108398438e+01 -1.352404356002807617e-01 4.827300548553466797e+00 1.407618045806884766e+00 -7.862880825996398926e-01
6.832000000000000000e+03 5.624139785766601562e+00 -2.727151489257812500e+01 -3.998560085892677307e-02 -5.096189305186271667e-02 -2.728424780070781708e-02 -2.062013372778892517e-02
6.833000000000000000e+03 6.403482818603515625e+01 3.646814823150634766e+00 -8.286445140838623047e-01 6.091591119766235352e-01 -6.584561616182327271e-02 -4.932825863361358643e-01
6.834000000000000000e+03 6.241058731079101562e+01 4.523656845092773438e+00 -7.385432720184326172e-01 7.544271349906921387e-01 4.765164107084274292e-03 -4.398785829544067383e-01
6.835000000000000000e+03 6.103922843933105469e+00 7.096240043640136719e+00 -1.241248995065689087e-01 -3.446435555815696716e-02 -4.757677763700485229e-02 5.223053321242332458e-02
6.836000000000000000e+03 5.862966537475585938e+01 5.932734966278076172e+00 -1.418360769748687744e-01 2.845786511898040771e-01 4.282277449965476990e-02 1.909069530665874481e-02
6.837000000000000000e+03 7.444826507568359375e+01 1.397059202194213867e+00 -1.028650641441345215e+00 6.637109279632568359e+00 1.682537674903869629e+00 -8.978265523910522461e-01
6.838000000000000000e+03 7.382389831542968750e+01 3.363244056701660156e+00 -5.696908831596374512e-01 5.309423923492431641e+00 1.421919941902160645e+00 -8.493436574935913086e-01
6.839000000000000000e+03 7.368654632568359375e+01 2.498483276367187500e+01 -7.065764814615249634e-02 4.911036491394042969e+00 1.452113628387451172e+00 -6.552737951278686523e-01
6.840000000000000000e+03 7.380558776855468750e+01 3.923288822174072266e+00 -5.138062834739685059e-01 5.312060832977294922e+00 1.439476370811462402e+00 -7.766466140747070312e-01
6.841000000000000000e+03 7.464237976074218750e+01 5.870101928710937500e+00 -5.636172294616699219e-01 6.401813983917236328e+00 1.751459002494812012e+00 -8.136811852455139160e-01
6.842000000000000000e+03 7.336479949951171875e+01 4.901677608489990234e+00 -5.215760469436645508e-01 4.803344249725341797e+00 1.284530401229858398e+00 -6.663281321525573730e-01
6.843000000000000000e+03 6.035854816436767578e+00 8.989046096801757812e+00 -1.270046532154083252e-01 -4.898379743099212646e-02 -5.279653891921043396e-02 1.143354400992393494e-01
6.844000000000000000e+03 7.478562164306640625e+01 6.550803184509277344e+00 -6.051217317581176758e-01 6.615107059478759766e+00 1.802995562553405762e+00 -8.927441835403442383e-01
6.845000000000000000e+03 7.332993316650390625e+01 6.474640846252441406e+00 -7.466846108436584473e-01 5.037971973419189453e+00 1.287386178970336914e+00 -6.199459433555603027e-01
6.846000000000000000e+03 7.414389038085937500e+01 -3.074823760986328125e+01 -3.116327524185180664e-02 5.471307754516601562e+00 1.632043361663818359e+00 9.303317070007324219e-01
6.847000000000000000e+03 7.362783050537109375e+01 -3.031070327758789062e+01 -3.378121554851531982e-02 5.213571548461914062e+00 1.553937077522277832e+00 1.079935073852539062e+00
6.848000000000000000e+03 6.445643901824951172e+00 1.011508274078369141e+01 -1.180444732308387756e-01 -6.865423172712326050e-02 -5.600961297750473022e-02 1.574649512767791748e-01
6.849000000000000000e+03 5.214301109313964844e+00 1.826715087890625000e+01 1.007129177451133728e-01 -2.393523454666137695e-01 -4.159182682633399963e-02 3.750044479966163635e-02
6.850000000000000000e+03 6.281105518341064453e+00 1.955026626586914062e+01 7.509706914424896240e-02 -2.438789606094360352e-01 -5.063456669449806213e-02 3.502435237169265747e-02
6.851000000000000000e+03 5.644176959991455078e+00 -3.273679733276367188e+01 -4.550518468022346497e-02 -1.337158083915710449e-01 -5.376629531383514404e-02 -9.902924299240112305e-02
6.852000000000000000e+03 6.515084266662597656e+00 -3.220746231079101562e+01 -6.410206109285354614e-02 -1.260097771883010864e-01 -5.703354999423027039e-02 -1.044825389981269836e-01
6.853000000000000000e+03 5.760448455810546875e+00 1.333026885986328125e+01 4.444501549005508423e-02 -1.309163421392440796e-01 -2.594139799475669861e-02 1.877552568912506104e-01
6.854000000000000000e+03 5.145939826965332031e+00 1.302284908294677734e+01 2.367021143436431885e-02 -1.244882345199584961e-01 -3.024540655314922333e-02 1.750229001045227051e-01
6.855000000000000000e+03 5.810533905029296875e+01 1.861730575561523438e+01 1.941364556550979614e-01 8.772945404052734375e-01 3.214293122291564941e-01 -2.186876088380813599e-01
6.856000000000000000e+03 6.641960144042968750e+00 -9.075776100158691406e+00 -8.877833373844623566e-03 -4.559687525033950806e-02 -1.634241268038749695e-02 -2.540718065574765205e-03
6.857000000000000000e+03 5.937427997589111328e+00 1.492297935485839844e+01 1.111377179622650146e-01 -1.605937927961349487e-01 -1.483682263642549515e-02 1.558233946561813354e-01
6.858000000000000000e+03 5.182985305786132812e+00 1.541941642761230469e+01 1.020526289939880371e-01 -1.828511953353881836e-01 -2.423957176506519318e-02 1.254517436027526855e-01
6.859000000000000000e+03 6.820847034454345703e+00 -1.038449668884277344e+01 -2.525835484266281128e-02 -5.725612863898277283e-02 -2.475434541702270508e-02 -1.176827959716320038e-02
6.860000000000000000e+03 5.159750938415527344e+00 -9.093215942382812500e+00 -3.212497103959321976e-03 -2.929735742509365082e-02 -9.752956219017505646e-03 9.496134705841541290e-03
6.861000000000000000e+03 3.371235656738281250e+01 -1.029915237426757812e+01 -7.169681042432785034e-02 -5.102023109793663025e-02 -3.681511059403419495e-02 -1.170891150832176208e-01
6.862000000000000000e+03 6.398160457611083984e+00 -8.487784385681152344e+00 -3.069131867960095406e-03 -3.723958134651184082e-02 -1.209261361509561539e-02 1.522000879049301147e-03
6.863000000000000000e+03 4.253093719482421875e+01 -1.779864883422851562e+01 -1.198210716247558594e-01 -1.384420394897460938e-01 -7.747893780469894409e-02 -3.767597377300262451e-01
6.864000000000000000e+03 7.378151702880859375e+01 2.675572776794433594e+01 1.725629530847072601e-02 4.773150920867919922e+00 1.437122225761413574e+00 -5.915203690528869629e-01
6.865000000000000000e+03 7.339196777343750000e+01 2.540356636047363281e+01 -4.323992878198623657e-02 4.734730243682861328e+00 1.407447099685668945e+00 -6.846063137054443359e-01
6.866000000000000000e+03 5.685309600830078125e+01 5.838311672210693359e+00 -6.981568038463592529e-02 6.882455199956893921e-02 -2.973375667352229357e-04 2.098606526851654053e-01
6.867000000000000000e+03 7.358338928222656250e+01 2.742643547058105469e+01 5.539533868432044983e-02 4.628213882446289062e+00 1.405082821846008301e+00 -5.895849466323852539e-01
6.868000000000000000e+03 2.439332580566406250e+01 1.023320579528808594e+01 1.998160183429718018e-01 -1.263018101453781128e-01 2.205426245927810669e-02 8.517931401729583740e-02
6.869000000000000000e+03 2.637289810180664062e+01 9.013989448547363281e+00 2.753079235553741455e-01 9.248679876327514648e-02 1.103384196758270264e-01 1.334266662597656250e-01
6.870000000000000000e+03 2.666786575317382812e+01 -1.682498359680175781e+01 -3.370548486709594727e-01 -2.127760648727416992e-01 -1.649492681026458740e-01 -1.749600619077682495e-01
6.871000000000000000e+03 7.179234504699707031e+00 -3.425212478637695312e+01 -3.154273703694343567e-02 -1.556168794631958008e-01 -5.614788457751274109e-02 -1.366916000843048096e-01
6.872000000000000000e+03 7.558884429931640625e+01 -2.825741386413574219e+01 -3.139148950576782227e-01 7.032822608947753906e+00 2.015672445297241211e+00 5.433588027954101562e-01
6.873000000000000000e+03 4.986214828491210938e+01 2.765372657775878906e+01 1.875005811452865601e-01 7.110306024551391602e-01 2.695593535900115967e-01 2.000496983528137207e-01
6.874000000000000000e+03 6.825961303710937500e+01 2.344388008117675781e+01 2.540648579597473145e-01 2.303815126419067383e+00 7.673640251159667969e-01 -9.892203211784362793e-01
6.875000000000000000e+03 3.513693237304687500e+01 -1.216223430633544922e+01 -3.391401469707489014e-01 1.954701840877532959e-01 -4.310098290443420410e-02 -1.026884019374847412e-01
6.876000000000000000e+03 4.463405990600585938e+01 -2.385844039916992188e+01 2.299641221761703491e-01 1.232267841696739197e-01 1.059572696685791016e-01 -4.026355147361755371e-01
6.877000000000000000e+03 6.783235549926757812e+00 9.346220016479492188e+00 -1.496357768774032593e-01 -6.872177124023437500e-02 -6.550726294517517090e-02 1.352886408567428589e-01
6.878000000000000000e+03 5.597031593322753906e+00 -2.545101547241210938e+01 1.023579854518175125e-03 -2.891535311937332153e-02 -8.367531932890415192e-03 -6.411061622202396393e-04
6.879000000000000000e+03 5.008177185058593750e+01 2.440461730957031250e+01 3.083890974521636963e-01 5.463984608650207520e-01 2.564362585544586182e-01 2.036971896886825562e-01
6.880000000000000000e+03 7.268706512451171875e+01 3.496604156494140625e+01 1.779242753982543945e-01 4.144913196563720703e+00 1.296851277351379395e+00 -2.850387096405029297e-01
6.881000000000000000e+03 7.252660369873046875e+01 3.373120498657226562e+01 2.025428414344787598e-01 4.092629909515380859e+00 1.288551807403564453e+00 -3.319688737392425537e-01
6.882000000000000000e+03 7.363565063476562500e+01 -3.188665390014648438e+01 1.134696006774902344e-01 4.992809295654296875e+00 1.531883597373962402e+00 8.683774471282958984e-01
6.883000000000000000e+03 7.805945873260498047e+00 -2.724560928344726562e+01 -6.448172032833099365e-02 -5.672030150890350342e-02 -3.636060655117034912e-02 -6.172107905149459839e-02
6.884000000000000000e+03 8.592267990112304688e+00 -2.743529319763183594e+01 -7.368116825819015503e-02 -8.237436413764953613e-02 -4.681665822863578796e-02 -8.130524307489395142e-02
6.885000000000000000e+03 3.432706069946289062e+01 -1.039919090270996094e+01 -5.954101309180259705e-02 3.663729503750801086e-02 -6.871115881949663162e-03 -1.116757616400718689e-01
6.886000000000000000e+03 5.670516967773437500e+00 -7.491291522979736328e+00 2.378939883783459663e-03 -2.616090141236782074e-02 -7.134588435292243958e-03 7.629837840795516968e-03
6.887000000000000000e+03 3.321706390380859375e+01 -1.157628059387207031e+01 -2.337055504322052002e-01 -1.384502202272415161e-01 -1.116467267274856567e-01 -6.162513047456741333e-02
6.888000000000000000e+03 3.255269241333007812e+01 -1.146097469329833984e+01 -2.387007474899291992e-01 -2.090786993503570557e-01 -1.343338340520858765e-01 -6.440942734479904175e-02
6.889000000000000000e+03 7.250349426269531250e+01 -3.249240112304687500e+01 3.111375868320465088e-01 4.283372402191162109e+00 1.378352999687194824e+00 8.286142945289611816e-01
6.890000000000000000e+03 1.738488769531250000e+01 -2.301091003417968750e+01 -7.896720618009567261e-02 -1.164351254701614380e-01 -5.862069875001907349e-02 -2.320478260517120361e-01
6.891000000000000000e+03 2.665066909790039062e+01 -2.551390838623046875e+01 2.495322972536087036e-01 -1.536559164524078369e-01 2.876291610300540924e-02 -1.279282122850418091e-01
6.892000000000000000e+03 2.635410881042480469e+01 -2.598808288574218750e+01 2.670472860336303711e-01 -1.631127595901489258e-01 3.118035569787025452e-02 -1.298444271087646484e-01
6.893000000000000000e+03 1.913524818420410156e+01 -2.022512054443359375e+01 -2.009521424770355225e-01 -1.268346887081861496e-02 -6.409068405628204346e-02 -2.867375910282135010e-01
6.894000000000000000e+03 3.908653640747070312e+01 1.785519409179687500e+01 3.290718495845794678e-01 -4.879333078861236572e-01 -4.765843972563743591e-02 4.220961928367614746e-01
6.895000000000000000e+03 7.871758460998535156e+00 1.996856880187988281e+01 5.478490516543388367e-02 -1.856194585561752319e-01 -3.925036638975143433e-02 8.077690005302429199e-02
6.896000000000000000e+03 3.409649276733398438e+01 -1.111312294006347656e+01 -1.585654467344284058e-01 1.143344305455684662e-02 -4.413960129022598267e-02 -8.444014191627502441e-02
6.897000000000000000e+03 2.266897201538085938e+01 -1.877656745910644531e+01 -2.106634825468063354e-01 -8.818117529153823853e-02 -8.965339511632919312e-02 -2.245355099439620972e-01
6.898000000000000000e+03 7.121897888183593750e+01 2.252270698547363281e+00 -2.081825137138366699e-01 1.697983741760253906e+00 4.469403922557830811e-01 -8.992679119110107422e-01
6.899000000000000000e+03 7.269606018066406250e+01 2.419124603271484375e+00 -5.086432695388793945e-01 3.800601720809936523e+00 9.875875115394592285e-01 -1.013424038887023926e+00
6.900000000000000000e+03 7.202504730224609375e+01 5.617383003234863281e+00 -4.853924810886383057e-01 3.200523853302001953e+00 8.145394325256347656e-01 -3.795922100543975830e-01
6.901000000000000000e+03 7.325445556640625000e+01 3.239882707595825195e+00 -5.166016221046447754e-01 4.668671131134033203e+00 1.245620846748352051e+00 -8.575430512428283691e-01
6.902000000000000000e+03 6.071931457519531250e+01 -1.349504566192626953e+01 -1.092883110046386719e+00 3.258053660392761230e-01 -2.301233261823654175e-01 2.235857397317886353e-02
6.903000000000000000e+03 6.387791824340820312e+01 -1.402373981475830078e+01 -1.060986876487731934e+00 1.199101209640502930e+00 4.143429920077323914e-02 3.637894988059997559e-02
6.904000000000000000e+03 4.918001556396484375e+01 2.979711341857910156e+01 1.459039449691772461e-01 6.301362514495849609e-01 2.328120619058609009e-01 1.058887168765068054e-01
6.905000000000000000e+03 7.341624450683593750e+01 1.985354042053222656e+01 -1.219265609979629517e-01 5.751704692840576172e+00 1.688933491706848145e+00 -6.908506751060485840e-01
6.906000000000000000e+03 3.668389511108398438e+01 1.831305503845214844e+01 3.681558966636657715e-01 -6.614512801170349121e-01 -8.798862248659133911e-02 5.229796767234802246e-01
6.907000000000000000e+03 5.699031066894531250e+01 -1.449179553985595703e+01 -4.318020939826965332e-01 -3.137594163417816162e-01 -2.236684560775756836e-01 -2.840172350406646729e-01
6.908000000000000000e+03 8.173568725585937500e+00 -9.539142608642578125e+00 -2.079631760716438293e-02 -5.326320976018905640e-02 -2.221785858273506165e-02 -1.765620335936546326e-02
6.909000000000000000e+03 5.204743194580078125e+01 2.130366706848144531e+01 2.595050930976867676e-01 3.892220258712768555e-01 1.946181356906890869e-01 -9.978589415550231934e-02
6.910000000000000000e+03 7.303576660156250000e+01 -2.982701683044433594e+01 4.603041708469390869e-02 4.802341938018798828e+00 1.454511761665344238e+00 1.279762268066406250e+00
6.911000000000000000e+03 7.180715942382812500e+01 -3.004991912841796875e+01 3.424303829669952393e-01 3.713030576705932617e+00 1.216638326644897461e+00 1.282513976097106934e+00
6.912000000000000000e+03 1.023678779602050781e+01 -2.707753944396972656e+01 -6.346935778856277466e-02 -1.396892219781875610e-01 -6.094757094979286194e-02 -1.166333779692649841e-01
6.913000000000000000e+03 5.711983871459960938e+01 5.222897052764892578e+00 -3.689914047718048096e-01 1.995370909571647644e-02 -1.047113165259361267e-01 1.517458856105804443e-01
6.914000000000000000e+03 5.788880157470703125e+01 5.475220680236816406e+00 -2.885119318962097168e-01 1.145607307553291321e-01 -5.218535661697387695e-02 7.840736210346221924e-02
6.915000000000000000e+03 6.069288253784179688e+01 -1.856537437438964844e+01 6.965270638465881348e-01 5.434654951095581055e-01 3.719977736473083496e-01 2.946991845965385437e-02
6.916000000000000000e+03 6.171765899658203125e+01 -1.712270927429199219e+01 5.480525493621826172e-01 7.314060330390930176e-01 3.838375806808471680e-01 -1.241757441312074661e-02
6.917000000000000000e+03 5.532862854003906250e+01 2.052937316894531250e+01 2.021795362234115601e-01 4.720363914966583252e-01 2.022647708654403687e-01 -3.297465741634368896e-01
6.918000000000000000e+03 5.973910903930664062e+01 4.500557899475097656e+00 -7.570483088493347168e-01 3.280335962772369385e-01 -1.287044286727905273e-01 -1.729908883571624756e-01
6.919000000000000000e+03 5.001927185058593750e+01 2.211900901794433594e+01 3.464161157608032227e-01 3.696511089801788330e-01 2.148201614618301392e-01 1.168627291917800903e-01
6.920000000000000000e+03 4.904660797119140625e+01 2.221765899658203125e+01 3.816351890563964844e-01 3.627557158470153809e-01 2.233172655105590820e-01 1.947941184043884277e-01
6.921000000000000000e+03 2.563855743408203125e+01 9.100339889526367188e+00 2.583401203155517578e-01 -2.222054172307252884e-03 7.683542370796203613e-02 1.175416558980941772e-01
6.922000000000000000e+03 2.375031852722167969e+01 8.338556289672851562e+00 2.250831574201583862e-01 -1.546200066804885864e-01 2.113894186913967133e-02 1.198572590947151184e-01
6.923000000000000000e+03 7.231309509277343750e+01 -3.353873443603515625e+01 3.697479963302612305e-01 4.195267677307128906e+00 1.369504690170288086e+00 6.902627348899841309e-01
6.924000000000000000e+03 6.096673583984375000e+01 -2.265552330017089844e+01 5.308953523635864258e-01 7.803782224655151367e-01 3.933820724487304688e-01 2.782973051071166992e-01
6.925000000000000000e+03 5.757175827026367188e+01 1.998877906799316406e+01 1.910174190998077393e-01 6.331679224967956543e-01 2.472556084394454956e-01 -2.217830121517181396e-01
6.926000000000000000e+03 2.118307495117187500e+01 -2.132057380676269531e+01 -1.350521147251129150e-01 -2.361045626457780600e-04 -4.058646410703659058e-02 -2.331136763095855713e-01
6.927000000000000000e+03 1.963167190551757812e+01 -1.874959182739257812e+01 -1.979756653308868408e-01 -3.483375161886215210e-02 -6.984282284975051880e-02 -2.880505621433258057e-01
6.928000000000000000e+03 2.494397354125976562e+01 -1.746263504028320312e+01 -2.880172729492187500e-01 -1.693068444728851318e-01 -1.371972411870956421e-01 -1.799880117177963257e-01
6.929000000000000000e+03 2.601266670227050781e+01 -1.827402114868164062e+01 -2.407750189304351807e-01 -1.892428845167160034e-01 -1.290053725242614746e-01 -1.723083406686782837e-01
6.930000000000000000e+03 5.971403884887695312e+01 -2.156167030334472656e+01 5.362986922264099121e-01 4.902234077453613281e-01 3.079566359519958496e-01 1.996147483587265015e-01
6.931000000000000000e+03 4.109583663940429688e+01 1.786029052734375000e+01 2.915634512901306152e-01 -1.315396130084991455e-01 4.800715297460556030e-02 3.080303966999053955e-01
6.932000000000000000e+03 2.570772933959960938e+01 -1.879590988159179688e+01 -2.044881284236907959e-01 -1.730951964855194092e-01 -1.132749915122985840e-01 -1.732797622680664062e-01
6.933000000000000000e+03 2.421026611328125000e+01 9.588903427124023438e+00 2.221762984991073608e-01 -1.367625594139099121e-01 2.562412247061729431e-02 9.741977602243423462e-02
6.934000000000000000e+03 8.979575157165527344e+00 -9.562010765075683594e+00 -2.498942799866199493e-02 -5.309803783893585205e-02 -2.342624031007289886e-02 -2.575202472507953644e-02
6.935000000000000000e+03 1.051676654815673828e+01 -8.930258750915527344e+00 -2.654944173991680145e-02 -2.184528298676013947e-02 -1.451841741800308228e-02 -3.402009606361389160e-02
6.936000000000000000e+03 2.439313125610351562e+01 8.103859901428222656e+00 2.318706065416336060e-01 -1.166137829422950745e-01 3.457704931497573853e-02 1.250348538160324097e-01
6.937000000000000000e+03 5.115603256225585938e+01 2.878391838073730469e+01 2.029063254594802856e-01 9.537687897682189941e-01 3.470025360584259033e-01 1.309619396924972534e-01
6.938000000000000000e+03 6.136904907226562500e+01 2.993019819259643555e+00 -1.350618839263916016e+00 5.553063154220581055e-01 -2.385937720537185669e-01 -2.607159018516540527e-01
6.939000000000000000e+03 6.100127792358398438e+01 -1.560013103485107422e+01 -7.057069987058639526e-02 4.457105398178100586e-01 1.125419512391090393e-01 -1.164356321096420288e-01
6.940000000000000000e+03 7.058052825927734375e+01 2.297238922119140625e+01 -5.059775710105895996e-02 3.727622509002685547e+00 1.103107452392578125e+00 -1.126314759254455566e+00
6.941000000000000000e+03 3.569941329956054688e+01 1.663824653625488281e+01 2.977192401885986328e-01 -6.652517914772033691e-01 -1.102597564458847046e-01 5.462475419044494629e-01
6.942000000000000000e+03 3.663835144042968750e+01 1.749269294738769531e+01 3.474896848201751709e-01 -6.849582791328430176e-01 -1.012405753135681152e-01 5.265796780586242676e-01
6.943000000000000000e+03 5.462306022644042969e+00 6.660646438598632812e+00 -9.935715049505233765e-02 -2.099224925041198730e-02 -3.610482066869735718e-02 3.518202528357505798e-02
6.944000000000000000e+03 5.065433883666992188e+01 2.300631523132324219e+01 3.083063066005706787e-01 4.756162166595458984e-01 2.351767569780349731e-01 1.042300984263420105e-01
6.945000000000000000e+03 7.051472663879394531e+00 1.985016250610351562e+01 6.403537094593048096e-02 -2.252040058374404907e-01 -4.835059121251106262e-02 5.492284521460533142e-02
6.946000000000000000e+03 6.958846282958984375e+01 3.802915811538696289e+00 7.265243679285049438e-02 4.856698215007781982e-01 1.674966812133789062e-01 -5.023027658462524414e-01
6.947000000000000000e+03 5.798987197875976562e+01 -1.505302238464355469e+01 -1.909446865320205688e-01 -2.237030118703842163e-01 -1.243943050503730774e-01 -2.013351321220397949e-01
6.948000000000000000e+03 5.093017959594726562e+01 2.511446952819824219e+01 2.821710109710693359e-01 6.687036156654357910e-01 2.852623760700225830e-01 1.564170122146606445e-01
6.949000000000000000e+03 1.982820701599121094e+01 -2.326128387451171875e+01 -4.430108889937400818e-02 4.627393186092376709e-02 5.918526439927518368e-04 -2.228083163499832153e-01
6.950000000000000000e+03 6.007989501953125000e+01 -1.369419097900390625e+01 -9.612001180648803711e-01 1.474034488201141357e-01 -2.441390007734298706e-01 -1.263591740280389786e-02
6.951000000000000000e+03 2.450855064392089844e+01 -2.016309547424316406e+01 -1.365253031253814697e-01 -1.179413869976997375e-01 -7.634001225233078003e-02 -1.853977143764495850e-01
6.952000000000000000e+03 4.971820449829101562e+01 2.891386032104492188e+01 1.641368120908737183e-01 7.135770320892333984e-01 2.633141577243804932e-01 1.599558144807815552e-01
6.953000000000000000e+03 7.284677124023437500e+01 1.722285866737365723e+00 -6.400749683380126953e-01 4.020920753479003906e+00 1.014253735542297363e+00 -1.181315183639526367e+00
6.954000000000000000e+03 6.881778717041015625e+01 2.766065788269042969e+01 3.686543107032775879e-01 3.046831607818603516e+00 1.024645805358886719e+00 -6.417459249496459961e-01
6.955000000000000000e+03 2.245104217529296875e+01 -2.312207984924316406e+01 1.818584278225898743e-02 2.300938125699758530e-03 6.146034225821495056e-03 -1.514918059110641479e-01
6.956000000000000000e+03 4.871587753295898438e+01 3.073437309265136719e+01 1.718071252107620239e-01 5.411604642868041992e-01 2.138902842998504639e-01 4.232403635978698730e-02
6.957000000000000000e+03 7.495076751708984375e+01 1.366377162933349609e+01 8.390630483627319336e-01 6.931055068969726562e+00 2.331035614013671875e+00 -1.194332599639892578e+00
6.958000000000000000e+03 8.048159599304199219e+00 -2.954043579101562500e+01 -9.661621600389480591e-02 -1.046228408813476562e-01 -6.037171557545661926e-02 -8.962872624397277832e-02
6.959000000000000000e+03 6.045225906372070312e+01 5.158420562744140625e+00 -5.266686677932739258e-01 5.645343065261840820e-01 1.135969161987304688e-02 -2.519550919532775879e-01
6.960000000000000000e+03 7.301708984375000000e+01 5.877205371856689453e+00 -6.303105950355529785e-01 4.513325691223144531e+00 1.164904475212097168e+00 -5.576146245002746582e-01
6.961000000000000000e+03 7.282399749755859375e+01 -3.164282608032226562e+01 2.321846038103103638e-01 4.471887588500976562e+00 1.411221623420715332e+00 9.513105154037475586e-01
6.962000000000000000e+03 9.067326545715332031e+00 -8.078757286071777344e+00 -8.864647708833217621e-03 -3.660117089748382568e-02 -1.363974530249834061e-02 -1.955888234078884125e-02
6.963000000000000000e+03 5.924799346923828125e+01 -2.209508514404296875e+01 4.581919610500335693e-01 4.456544518470764160e-01 2.711539268493652344e-01 2.366006076335906982e-01
6.964000000000000000e+03 7.129640960693359375e+01 2.960203170776367188e+00 -1.549304425716400146e-01 1.942996263504028320e+00 5.364197492599487305e-01 -7.805300354957580566e-01
6.965000000000000000e+03 7.502738952636718750e+00 -1.029917812347412109e+01 -2.714636549353599548e-02 -5.812986567616462708e-02 -2.558287046849727631e-02 -1.472412515431642532e-02
6.966000000000000000e+03 7.719073772430419922e+00 -3.017802047729492188e+01 -9.302736073732376099e-02 -1.037632599472999573e-01 -5.903718620538711548e-02 -9.400560706853866577e-02
6.967000000000000000e+03 6.652167510986328125e+01 2.598680496215820312e+01 5.044741034507751465e-01 2.137863397598266602e+00 7.927012443542480469e-01 -3.995174765586853027e-01
6.968000000000000000e+03 6.462480163574218750e+01 3.172254085540771484e+00 -8.326800465583801270e-01 4.865676462650299072e-01 -1.038337126374244690e-01 -4.723672270774841309e-01
6.969000000000000000e+03 6.378034973144531250e+01 -1.464400196075439453e+01 -6.452797055244445801e-01 1.212781786918640137e+00 1.702506244182586670e-01 6.636259786318987608e-05
6.970000000000000000e+03 6.212426376342773438e+01 -1.240789127349853516e+01 -1.640226364135742188e+00 7.772548794746398926e-01 -2.588914334774017334e-01 6.997115910053253174e-02
6.971000000000000000e+03 6.013850402832031250e+01 -2.166117286682128906e+01 5.744119882583618164e-01 5.761412978172302246e-01 3.451659977436065674e-01 2.279976904392242432e-01
6.972000000000000000e+03 5.709664535522460938e+01 1.669577789306640625e+01 2.678901553153991699e-01 7.863547801971435547e-01 3.162734806537628174e-01 -3.136362135410308838e-01
6.973000000000000000e+03 7.207377624511718750e+01 -3.606299591064453125e+01 3.860755860805511475e-01 4.132965087890625000e+00 1.355712175369262695e+00 4.662424623966217041e-01
6.974000000000000000e+03 7.086384582519531250e+01 -3.585042190551757812e+01 4.625454843044281006e-01 3.683273077011108398e+00 1.243745565414428711e+00 4.593705236911773682e-01
6.975000000000000000e+03 5.195806884765625000e+01 -2.955460548400878906e+01 3.998365700244903564e-01 3.978589773178100586e-01 2.393086701631546021e-01 -2.459988296031951904e-01
6.976000000000000000e+03 6.009197616577148438e+01 -1.892602348327636719e+01 6.783334016799926758e-01 4.006349444389343262e-01 3.236905038356781006e-01 -4.983544815331697464e-03
6.977000000000000000e+03 5.612556076049804688e+01 1.958123588562011719e+01 2.151751518249511719e-01 5.329927206039428711e-01 2.244503647089004517e-01 -3.263747096061706543e-01
6.978000000000000000e+03 5.661767959594726562e+01 1.900145339965820312e+01 2.239122539758682251e-01 5.939559340476989746e-01 2.453604489564895630e-01 -3.242910504341125488e-01
6.979000000000000000e+03 9.661563873291015625e+00 -7.606526851654052734e+00 -7.407794706523418427e-03 -2.917448990046977997e-02 -1.097468566149473190e-02 -2.011476829648017883e-02
6.980000000000000000e+03 1.011295509338378906e+01 -8.249018669128417969e+00 -1.647296547889709473e-02 -2.896822802722454071e-02 -1.363235805183649063e-02 -2.836961485445499420e-02
6.981000000000000000e+03 6.273722839355468750e+01 -1.251642131805419922e+01 -1.646479010581970215e+00 9.192866086959838867e-01 -2.181577384471893311e-01 7.697448879480361938e-02
6.982000000000000000e+03 6.888996124267578125e+01 3.094610214233398438e+01 3.783456087112426758e-01 3.214866399765014648e+00 1.077963590621948242e+00 -4.748759865760803223e-01
6.983000000000000000e+03 5.754083633422851562e+01 -1.433115673065185547e+01 -5.011361837387084961e-01 -3.403328657150268555e-01 -2.524407207965850830e-01 -2.245631068944931030e-01
6.984000000000000000e+03 6.849706172943115234e+00 -2.700574111938476562e+01 -4.944041371345520020e-02 -4.240734502673149109e-02 -2.755432762205600739e-02 -3.745185211300849915e-02
6.985000000000000000e+03 3.222102355957031250e+01 -3.317803955078125000e+01 4.913956299424171448e-02 2.466483740136027336e-03 1.548181381076574326e-02 -2.392507493495941162e-01
6.986000000000000000e+03 3.752979660034179688e+01 1.752266311645507812e+01 3.451063930988311768e-01 -6.590068936347961426e-01 -9.417016059160232544e-02 4.930264949798583984e-01
6.987000000000000000e+03 5.118086242675781250e+01 2.280578994750976562e+01 2.900451123714447021e-01 4.832791090011596680e-01 2.319972664117813110e-01 5.034244060516357422e-02
6.988000000000000000e+03 6.986609649658203125e+01 2.758280277252197266e+00 -7.023497670888900757e-02 5.786911249160766602e-01 1.525368541479110718e-01 -5.032712221145629883e-01
6.989000000000000000e+03 2.461992645263671875e+01 -2.434683036804199219e+01 1.600351035594940186e-01 -1.035109460353851318e-01 1.695724949240684509e-02 -1.218483150005340576e-01
6.990000000000000000e+03 3.666962432861328125e+01 1.580119037628173828e+01 1.633525043725967407e-01 -7.548283934593200684e-01 -1.774427741765975952e-01 5.025424957275390625e-01
6.991000000000000000e+03 3.943193817138671875e+01 1.528875064849853516e+01 7.986088097095489502e-02 -5.522349476814270020e-01 -1.417122036218643188e-01 3.669157922267913818e-01
6.992000000000000000e+03 3.805810165405273438e+01 1.637363815307617188e+01 2.302611917257308960e-01 -6.821497678756713867e-01 -1.355665773153305054e-01 4.479501843452453613e-01
6.993000000000000000e+03 5.865074920654296875e+01 -1.621151351928710938e+01 1.825796365737915039e-01 -8.986910432577133179e-02 2.781315706670284271e-02 -2.025162875652313232e-01
6.994000000000000000e+03 5.827713394165039062e+01 -1.584323883056640625e+01 8.205885440111160278e-02 -1.481771618127822876e-01 -1.983549259603023529e-02 -2.174730449914932251e-01
6.995000000000000000e+03 6.924752044677734375e+01 2.822043991088867188e+01 3.330659568309783936e-01 3.231975078582763672e+00 1.069512248039245605e+00 -6.240582466125488281e-01
6.996000000000000000e+03 7.551136970520019531e+00 -3.203931427001953125e+01 -7.841157913208007812e-02 -1.330939084291458130e-01 -6.345164775848388672e-02 -1.194096580147743225e-01
6.997000000000000000e+03 3.200125885009765625e+01 -3.476966094970703125e+01 9.035020321607589722e-02 -6.376153975725173950e-02 7.976598106324672699e-03 -2.164205461740493774e-01
6.998000000000000000e+03 7.125803375244140625e+01 3.514873504638671875e+01 2.503750920295715332e-01 3.767524480819702148e+00 1.205369830131530762e+00 -2.741735577583312988e-01
6.999000000000000000e+03 6.808213806152343750e+01 3.524241638183593750e+01 3.530557453632354736e-01 3.080555200576782227e+00 1.030083298683166504e+00 -3.006431460380554199e-01
7.000000000000000000e+03 6.930667114257812500e+01 3.212757110595703125e+01 3.581069707870483398e-01 3.360826730728149414e+00 1.115680098533630371e+00 -4.299103617668151855e-01
7.001000000000000000e+03 6.784413146972656250e+01 3.902980422973632812e+01 3.570320308208465576e-01 2.955595731735229492e+00 9.937883019447326660e-01 -1.895751804113388062e-01
7.002000000000000000e+03 4.917755126953125000e+01 3.623007202148437500e+01 5.030301213264465332e-01 4.555285274982452393e-01 2.875675857067108154e-01 -1.934857480227947235e-02
7.003000000000000000e+03 2.770149040222167969e+01 3.558261871337890625e+01 2.506713271141052246e-01 -2.650520801544189453e-01 -4.314222373068332672e-03 2.252507656812667847e-01
7.004000000000000000e+03 3.103990936279296875e+01 -3.296100616455078125e+01 4.421788454055786133e-02 -7.668718229979276657e-03 1.096474938094615936e-02 -1.973323822021484375e-01
7.005000000000000000e+03 2.480641365051269531e+01 3.980092239379882812e+01 2.710703909397125244e-01 -2.757561504840850830e-01 -1.405723975040018559e-03 5.616279691457748413e-02
7.006000000000000000e+03 6.880963802337646484e+00 -4.170418167114257812e+01 1.167778968811035156e-01 -2.237087339162826538e-01 -3.207925334572792053e-02 -1.885016448795795441e-02
7.007000000000000000e+03 7.205484008789062500e+01 4.140480804443359375e+01 1.637834012508392334e-01 3.994704008102416992e+00 1.247546195983886719e+00 -5.075676366686820984e-02
7.008000000000000000e+03 5.141382217407226562e+01 -1.212703704833984375e+01 -8.995145559310913086e-01 1.337185055017471313e-01 -2.297388166189193726e-01 -6.145871877670288086e-01
7.009000000000000000e+03 6.314081192016601562e+01 -1.400732040405273438e+01 -9.952283501625061035e-01 1.024563074111938477e+00 8.800413459539413452e-03 -1.345362048596143723e-02
7.010000000000000000e+03 6.263323211669921875e+01 -1.318856048583984375e+01 -1.349901318550109863e+00 9.104788303375244141e-01 -1.318267285823822021e-01 2.951205521821975708e-02
7.011000000000000000e+03 7.280372619628906250e+01 2.511779975891113281e+01 -3.147920966148376465e-02 4.571745872497558594e+00 1.362079977989196777e+00 -7.539456486701965332e-01
7.012000000000000000e+03 7.389607238769531250e+01 2.610409355163574219e+01 -2.009190991520881653e-02 4.860267639160156250e+00 1.452052712440490723e+00 -6.052073240280151367e-01
7.013000000000000000e+03 2.390528106689453125e+01 -2.114706230163574219e+01 -8.131965994834899902e-02 -8.247225731611251831e-02 -4.913757368922233582e-02 -1.801733523607254028e-01
7.014000000000000000e+03 2.417323303222656250e+01 -2.064402008056640625e+01 -1.142718121409416199e-01 -1.031740531325340271e-01 -6.523375958204269409e-02 -1.837419420480728149e-01
7.015000000000000000e+03 7.645576953887939453e+00 -2.856110572814941406e+01 -8.275321871042251587e-02 -8.232826739549636841e-02 -4.952444881200790405e-02 -7.062646001577377319e-02
7.016000000000000000e+03 4.958284759521484375e+01 2.272792434692382812e+01 3.605800867080688477e-01 4.083945155143737793e-01 2.306923866271972656e-01 1.764016151428222656e-01
7.017000000000000000e+03 7.344002532958984375e+01 3.134673309326171875e+01 1.558381617069244385e-01 4.389430999755859375e+00 1.363580703735351562e+00 -4.287353754043579102e-01
7.018000000000000000e+03 6.129284858703613281e+00 -2.839336395263671875e+01 -6.000478193163871765e-02 -6.616009026765823364e-02 -3.784945979714393616e-02 -4.386942461133003235e-02
7.019000000000000000e+03 3.743183898925781250e+01 1.670196342468261719e+01 2.726124525070190430e-01 -6.975687146186828613e-01 -1.274868696928024292e-01 4.813730716705322266e-01
7.020000000000000000e+03 7.174306488037109375e+01 2.274092102050781250e+01 -1.414610147476196289e-01 4.394575595855712891e+00 1.275934457778930664e+00 -1.016902804374694824e+00
7.021000000000000000e+03 7.396053314208984375e+00 -2.912979507446289062e+01 -8.411744236946105957e-02 -8.516488969326019287e-02 -5.078469961881637573e-02 -7.572088390588760376e-02
7.022000000000000000e+03 5.739234924316406250e+01 -1.484734439849853516e+01 -2.928161323070526123e-01 -2.808490395545959473e-01 -1.720995604991912842e-01 -2.408084422349929810e-01
7.023000000000000000e+03 7.281640625000000000e+01 2.271684074401855469e+01 -1.885902732610702515e-01 4.905177593231201172e+00 1.414976119995117188e+00 -8.375363349914550781e-01
7.024000000000000000e+03 5.081516265869140625e+01 2.435356903076171875e+01 2.861371636390686035e-01 6.013790369033813477e-01 2.662548720836639404e-01 1.402180790901184082e-01
7.025000000000000000e+03 3.838756561279296875e+01 1.765476799011230469e+01 3.247991204261779785e-01 -5.861682295799255371e-01 -7.841072976589202881e-02 4.524402022361755371e-01
7.026000000000000000e+03 6.710319519042968750e+01 2.428269767761230469e+01 4.473368525505065918e-01 1.929478406906127930e+00 7.130445837974548340e-01 -6.292155981063842773e-01
7.027000000000000000e+03 2.210187721252441406e+01 -1.818598937988281250e+01 -2.281569987535476685e-01 -8.631589263677597046e-02 -9.434186667203903198e-02 -2.340908646583557129e-01
7.028000000000000000e+03 6.833778858184814453e+00 -3.148636054992675781e+01 -7.368204742670059204e-02 -1.149531975388526917e-01 -5.659057199954986572e-02 -1.011022776365280151e-01
7.029000000000000000e+03 6.574324131011962891e+00 -2.940770339965820312e+01 -7.134947180747985840e-02 -8.328358083963394165e-02 -4.638991504907608032e-02 -6.373652070760726929e-02
7.030000000000000000e+03 4.055522918701171875e+01 1.562262630462646484e+01 1.232414320111274719e-01 -3.665150403976440430e-01 -7.298208028078079224e-02 3.245657682418823242e-01
7.031000000000000000e+03 7.382296562194824219e+00 -2.760823059082031250e+01 -6.972401589155197144e-02 -6.200745701789855957e-02 -3.951944410800933838e-02 -5.530421808362007141e-02
7.032000000000000000e+03 2.582815551757812500e+01 1.161469650268554688e+01 1.133657991886138916e-01 -4.658703133463859558e-02 2.003363147377967834e-02 9.847962856292724609e-02
7.033000000000000000e+03 2.466361618041992188e+01 8.722286224365234375e+00 2.452300786972045898e-01 -9.926128387451171875e-02 4.379063844680786133e-02 1.168147772550582886e-01
7.034000000000000000e+03 2.490627288818359375e+01 9.360341072082519531e+00 2.441051900386810303e-01 -8.249939978122711182e-02 4.848174005746841431e-02 1.054415404796600342e-01
7.035000000000000000e+03 7.299765014648437500e+01 2.718801498413085938e+01 6.087701767683029175e-02 4.465886116027832031e+00 1.358029007911682129e+00 -6.587022542953491211e-01
7.036000000000000000e+03 7.372460174560546875e+01 2.171442985534667969e+01 -2.113629728555679321e-01 5.434263229370117188e+00 1.566870093345642090e+00 -6.605381965637207031e-01
7.037000000000000000e+03 2.488311195373535156e+01 -2.356435966491699219e+01 1.103934720158576965e-01 -1.096898913383483887e-01 2.110741479555144906e-04 -1.364469230175018311e-01
7.038000000000000000e+03 7.358659362792968750e+01 2.076082801818847656e+01 -1.925560683012008667e-01 5.601294040679931641e+00 1.622621417045593262e+00 -6.699666976928710938e-01
7.039000000000000000e+03 6.724722862243652344e+00 1.803059005737304688e+01 1.455417871475219727e-01 -1.954358816146850586e-01 -1.496822573244571686e-02 7.211750000715255737e-02
7.040000000000000000e+03 7.223899841308593750e+01 2.224975776672363281e+01 -1.914653480052947998e-01 4.745249271392822266e+00 1.366135120391845703e+00 -9.517353773117065430e-01
7.041000000000000000e+03 9.153108596801757812e+00 -2.769623947143554688e+01 -8.431972563266754150e-02 -1.025239899754524231e-01 -5.605311691761016846e-02 -8.976181596517562866e-02
7.042000000000000000e+03 7.406144714355468750e+01 4.533222675323486328e+00 -5.392644405364990234e-01 5.599576473236083984e+00 1.518093705177307129e+00 -7.579411864280700684e-01
7.043000000000000000e+03 7.130118560791015625e+01 3.499108076095581055e+00 -9.223885834217071533e-02 1.980636477470397949e+00 5.665192604064941406e-01 -6.926037073135375977e-01
7.044000000000000000e+03 7.369384765625000000e+01 5.521914482116699219e+00 -5.914626717567443848e-01 5.285756587982177734e+00 1.408288240432739258e+00 -6.804630160331726074e-01
7.045000000000000000e+03 7.173918151855468750e+01 5.001178741455078125e+00 -3.075217604637145996e-01 2.738513708114624023e+00 7.292975783348083496e-01 -4.520843029022216797e-01
7.046000000000000000e+03 5.138243675231933594e+00 9.523813247680664062e+00 -9.357012063264846802e-02 -4.758854582905769348e-02 -4.234759882092475891e-02 1.214879229664802551e-01
7.047000000000000000e+03 7.394324493408203125e+01 2.548431968688964844e+01 -5.414348095655441284e-02 4.947947502136230469e+00 1.468141317367553711e+00 -6.183133125305175781e-01
7.048000000000000000e+03 7.314266967773437500e+01 2.459436035156250000e+01 -9.104474633932113647e-02 4.753929615020751953e+00 1.398865461349487305e+00 -7.385717034339904785e-01
7.049000000000000000e+03 7.318632125854492188e+00 -8.900515556335449219e+00 -9.179638698697090149e-03 -4.525456950068473816e-02 -1.633026264607906342e-02 -6.808407604694366455e-03
7.050000000000000000e+03 5.692927837371826172e+00 -9.823771476745605469e+00 -1.172722224146127701e-02 -4.202279448509216309e-02 -1.612500473856925964e-02 3.168332157656550407e-03
7.051000000000000000e+03 7.053065299987792969e+00 -8.207612037658691406e+00 -3.680372377857565880e-03 -4.102988913655281067e-02 -1.341307908296585083e-02 -2.946288557723164558e-03
7.052000000000000000e+03 6.036281585693359375e+00 -9.250122070312500000e+00 -6.808249745517969131e-03 -4.031698778271675110e-02 -1.413757074624300003e-02 2.182546537369489670e-03
7.053000000000000000e+03 6.067486286163330078e+00 -7.943410396575927734e+00 -3.200075007043778896e-04 -3.272379189729690552e-02 -9.913139976561069489e-03 5.334286950528621674e-03
7.054000000000000000e+03 2.585145378112792969e+01 -1.932945251464843750e+01 -1.770562678575515747e-01 -1.716800779104232788e-01 -1.046209037303924561e-01 -1.685558557510375977e-01
7.055000000000000000e+03 7.324347686767578125e+01 2.595146751403808594e+01 -3.560189623385667801e-03 4.648290634155273438e+00 1.393419146537780762e+00 -6.780992746353149414e-01
7.056000000000000000e+03 7.311244201660156250e+01 2.656379699707031250e+01 3.473237901926040649e-02 4.531296730041503906e+00 1.369808673858642578e+00 -6.673873066902160645e-01
7.057000000000000000e+03 2.511224746704101562e+01 1.002255439758300781e+01 2.246453166007995605e-01 -6.909394264221191406e-02 4.666541144251823425e-02 9.378910064697265625e-02
7.058000000000000000e+03 6.140955734252929688e+01 -1.296832180023193359e+01 -1.361545324325561523e+00 5.761772990226745605e-01 -2.356103807687759399e-01 4.440732300281524658e-02
7.059000000000000000e+03 5.855469894409179688e+01 7.173290252685546875e+00 2.542746365070343018e-01 4.403131008148193359e-01 2.083763182163238525e-01 1.040750443935394287e-01
7.060000000000000000e+03 1.984048271179199219e+01 -1.998841857910156250e+01 -1.954397708177566528e-01 -1.190839894115924835e-02 -6.220445036888122559e-02 -2.795495986938476562e-01
7.061000000000000000e+03 3.983913803100585938e+01 1.617538070678710938e+01 1.919102966785430908e-01 -4.536026120185852051e-01 -7.850769162178039551e-02 3.571429848670959473e-01
7.062000000000000000e+03 4.083234786987304688e+01 1.725922775268554688e+01 2.558792233467102051e-01 -2.239652872085571289e-01 9.574180468916893005e-03 3.178414702415466309e-01
7.063000000000000000e+03 3.912965393066406250e+01 1.603172874450683594e+01 1.658296734094619751e-01 -5.697165131568908691e-01 -1.211660578846931458e-01 3.857635557651519775e-01
7.064000000000000000e+03 3.382329559326171875e+01 -1.180095481872558594e+01 -2.606424987316131592e-01 -4.998392611742019653e-02 -9.318792819976806641e-02 -7.478253543376922607e-02
7.065000000000000000e+03 7.250878906250000000e+01 -3.051145172119140625e+01 2.019274979829788208e-01 4.298096179962158203e+00 1.350007057189941406e+00 1.163109183311462402e+00
7.066000000000000000e+03 2.581588172912597656e+01 9.813910484313964844e+00 2.468067407608032227e-01 7.574836257845163345e-03 7.631447166204452515e-02 1.122324913740158081e-01
7.067000000000000000e+03 6.242077636718750000e+01 -1.498120307922363281e+01 -4.091377854347229004e-01 8.712741732597351074e-01 1.386409103870391846e-01 -8.183509856462478638e-02
7.068000000000000000e+03 2.053777313232421875e+01 -2.290916252136230469e+01 -5.854168534278869629e-02 4.735417664051055908e-02 -3.356253029778599739e-03 -2.008780688047409058e-01
7.069000000000000000e+03 1.966421318054199219e+01 -2.157382392883300781e+01 -1.610384434461593628e-01 9.078639559447765350e-03 -4.558794200420379639e-02 -2.501903772354125977e-01
7.070000000000000000e+03 7.209995269775390625e+01 4.100772857666015625e+00 -2.912328243255615234e-01 3.092192888259887695e+00 8.402880430221557617e-01 -6.443105936050415039e-01
7.071000000000000000e+03 7.069035339355468750e+01 3.090429306030273438e+00 -3.601078689098358154e-02 1.321346759796142578e+00 3.856008052825927734e-01 -7.033358216285705566e-01
7.072000000000000000e+03 5.943601226806640625e+01 -1.408773994445800781e+01 -6.843745112419128418e-01 -3.903235122561454773e-02 -2.170220613479614258e-01 -7.427554577589035034e-02
7.073000000000000000e+03 2.387825012207031250e+01 -1.862524604797363281e+01 -2.226832956075668335e-01 -1.276728063821792603e-01 -1.051068305969238281e-01 -1.999625861644744873e-01
7.074000000000000000e+03 2.550814437866210938e+01 -1.790596008300781250e+01 -2.648334801197052002e-01 -1.802969574928283691e-01 -1.335391253232955933e-01 -1.786264926195144653e-01
7.075000000000000000e+03 7.133283233642578125e+01 -3.350526809692382812e+01 4.521299302577972412e-01 3.736604928970336914e+00 1.256620407104492188e+00 6.507222652435302734e-01
7.076000000000000000e+03 1.118807411193847656e+01 -8.499305725097656250e+00 -2.728543244302272797e-02 -1.052617561072111130e-02 -1.134348195046186447e-02 -3.151134029030799866e-02
7.077000000000000000e+03 7.085025024414062500e+01 4.558949947357177734e+00 -1.071878001093864441e-01 1.601447820663452148e+00 4.482780098915100098e-01 -4.287693500518798828e-01
7.078000000000000000e+03 1.236196899414062500e+01 -7.597768783569335938e+00 -1.991582475602626801e-02 4.253996536135673523e-03 -4.698548465967178345e-03 -2.225488796830177307e-02
7.079000000000000000e+03 1.135201930999755859e+01 -7.417146205902099609e+00 -1.407154835760593414e-02 -1.080759614706039429e-02 -7.463743444532155991e-03 -2.559943310916423798e-02
7.080000000000000000e+03 5.800188064575195312e+01 1.947527694702148438e+01 1.725104302167892456e-01 7.503299713134765625e-01 2.768521308898925781e-01 -1.770203709602355957e-01
7.081000000000000000e+03 3.744326019287109375e+01 1.601721382141113281e+01 2.029621601104736328e-01 -7.336919903755187988e-01 -1.592189520597457886e-01 4.651136994361877441e-01
7.082000000000000000e+03 1.932447433471679688e+01 -2.092293357849121094e+01 -1.877515465021133423e-01 2.071595663437619805e-04 -5.626331642270088196e-02 -2.733290791511535645e-01
7.083000000000000000e+03 2.003451919555664062e+01 -2.058812904357910156e+01 -1.797511726617813110e-01 -2.351999748498201370e-03 -5.463095381855964661e-02 -2.659585177898406982e-01
7.084000000000000000e+03 4.935531616210937500e+01 2.351849365234375000e+01 3.573677241802215576e-01 4.431413710117340088e-01 2.401527315378189087e-01 2.192342132329940796e-01
7.085000000000000000e+03 2.378855895996093750e+01 -2.333063316345214844e+01 6.593798846006393433e-02 -5.939935147762298584e-02 1.961591886356472969e-03 -1.388467848300933838e-01
7.086000000000000000e+03 7.367843627929687500e+01 -2.926137542724609375e+01 -1.886226087808609009e-01 5.440090179443359375e+00 1.575440168380737305e+00 1.274222254753112793e+00
7.087000000000000000e+03 2.494846343994140625e+01 -1.975002670288085938e+01 -1.621744632720947266e-01 -1.414026618003845215e-01 -9.107314050197601318e-02 -1.789379864931106567e-01
7.088000000000000000e+03 5.982223510742187500e+01 -1.722906303405761719e+01 4.506943821907043457e-01 1.933363676071166992e-01 1.932092308998107910e-01 -1.192488372325897217e-01
7.089000000000000000e+03 6.098158645629882812e+01 -1.750252723693847656e+01 5.700120925903320312e-01 5.349761843681335449e-01 3.314964771270751953e-01 -2.929043211042881012e-02
7.090000000000000000e+03 6.204541015625000000e+01 -1.603794097900390625e+01 1.397457122802734375e-01 7.795400619506835938e-01 2.757857441902160645e-01 -8.872151374816894531e-02
7.091000000000000000e+03 2.450125694274902344e+01 -2.292415046691894531e+01 4.122625291347503662e-02 -9.310135990381240845e-02 -1.556253246963024139e-02 -1.462140530347824097e-01
7.092000000000000000e+03 6.776439666748046875e+00 -2.874121284484863281e+01 -7.245440781116485596e-02 -7.475428283214569092e-02 -4.416260868310928345e-02 -5.717503279447555542e-02
7.093000000000000000e+03 2.535669326782226562e+01 8.455205917358398438e+00 2.618646025657653809e-01 -2.631925977766513824e-02 7.066360861063003540e-02 1.238828003406524658e-01
7.094000000000000000e+03 8.846411705017089844e+00 -8.724163055419921875e+00 -1.279554981738328934e-02 -4.198489710688591003e-02 -1.643413305282592773e-02 -2.034124732017517090e-02
7.095000000000000000e+03 8.516860008239746094e+00 -7.501972198486328125e+00 -3.039660630747675896e-03 -3.502332419157028198e-02 -1.141889579594135284e-02 -1.272718422114849091e-02
7.096000000000000000e+03 3.656762695312500000e+01 1.662817955017089844e+01 2.959261238574981689e-01 -7.133532166481018066e-01 -1.252281218767166138e-01 5.225400924682617188e-01
7.097000000000000000e+03 6.858091735839843750e+01 2.497412300109863281e+01 3.133520185947418213e-01 2.687463760375976562e+00 9.002447128295898438e-01 -8.249170184135437012e-01
7.098000000000000000e+03 6.767723846435546875e+01 2.384451484680175781e+01 3.566089272499084473e-01 2.018676042556762695e+00 7.125855088233947754e-01 -8.089610934257507324e-01
7.099000000000000000e+03 7.238788604736328125e+01 4.706393241882324219e+00 -3.677471280097961426e-01 3.592178106307983398e+00 9.673292636871337891e-01 -5.659675598144531250e-01
7.100000000000000000e+03 6.313805389404296875e+01 -1.473479938507080078e+01 -6.156989932060241699e-01 1.085879445075988770e+00 1.410541385412216187e-01 -5.407063290476799011e-02
7.101000000000000000e+03 7.314455986022949219e+00 -7.164934635162353516e+00 1.498446101322770119e-03 -3.265633061528205872e-02 -9.347365237772464752e-03 -2.583703491836786270e-03
7.102000000000000000e+03 7.785338878631591797e+00 -7.917420387268066406e+00 -2.995375078171491623e-03 -3.842177987098693848e-02 -1.242514606565237045e-02 -8.619382046163082123e-03
7.103000000000000000e+03 6.970098876953125000e+01 3.518378448486328125e+01 3.234912157058715820e-01 3.411373376846313477e+00 1.120459318161010742e+00 -3.222080767154693604e-01
7.104000000000000000e+03 6.780308246612548828e+00 -9.703333854675292969e+00 -1.459025498479604721e-02 -4.915466904640197754e-02 -1.912347599864006042e-02 -5.470971576869487762e-03
7.105000000000000000e+03 6.249357986450195312e+01 -1.385712528228759766e+01 -1.018372893333435059e+00 9.113568067550659180e-01 -3.210482001304626465e-02 -1.456600055098533630e-02
7.106000000000000000e+03 6.206357955932617188e+01 -1.432105159759521484e+01 -7.734549641609191895e-01 7.731569409370422363e-01 -8.939280814956873655e-05 -5.394722521305084229e-02
7.107000000000000000e+03 7.998520851135253906e+00 -3.135022354125976562e+01 -9.242999553680419922e-02 -1.257582306861877441e-01 -6.545646488666534424e-02 -1.167977228760719299e-01
7.108000000000000000e+03 2.013064384460449219e+01 -2.220445442199707031e+01 -1.126573756337165833e-01 2.746160328388214111e-02 -2.555873245000839233e-02 -2.313494831323623657e-01
7.109000000000000000e+03 7.247354888916015625e+01 2.950662422180175781e+01 1.770201921463012695e-01 4.168601989746093750e+00 1.303686738014221191e+00 -5.613652467727661133e-01
7.110000000000000000e+03 6.932394409179687500e+01 2.921766853332519531e+01 3.379660248756408691e-01 3.277040243148803711e+00 1.084501862525939941e+00 -5.692586302757263184e-01
7.111000000000000000e+03 3.843025970458984375e+01 1.566518020629882812e+01 1.314028799533843994e-01 -6.681194305419921875e-01 -1.610149741172790527e-01 4.160663187503814697e-01
7.112000000000000000e+03 2.480149459838867188e+01 7.243772029876708984e+00 1.918209642171859741e-01 -7.460468262434005737e-02 3.516488522291183472e-02 1.423444151878356934e-01
7.113000000000000000e+03 7.246183013916015625e+01 3.142450332641601562e+01 2.037423104047775269e-01 4.125972747802734375e+00 1.298914432525634766e+00 -4.443694949150085449e-01
7.114000000000000000e+03 6.202578735351562500e+01 -1.307190608978271484e+01 -1.368775963783264160e+00 7.591398954391479492e-01 -1.828908324241638184e-01 2.973275445401668549e-02
7.115000000000000000e+03 5.949365997314453125e+01 -1.653855133056640625e+01 2.788558304309844971e-01 9.289152920246124268e-02 1.115242093801498413e-01 -1.635489761829376221e-01
7.116000000000000000e+03 1.185290241241455078e+01 -8.093192100524902344e+00 -2.519749104976654053e-02 1.333485561190173030e-04 -7.519242819398641586e-03 -2.504499256610870361e-02
7.117000000000000000e+03 6.760253143310546875e+01 2.490662574768066406e+01 4.166702032089233398e-01 2.248767137527465820e+00 7.996311783790588379e-01 -6.917446851730346680e-01
7.118000000000000000e+03 3.882226181030273438e+01 1.499500751495361328e+01 9.455177932977676392e-04 -6.594136953353881836e-01 -1.975404620170593262e-01 4.005452096462249756e-01
7.119000000000000000e+03 7.066460609436035156e+00 -3.271734237670898438e+01 -6.156020238995552063e-02 -1.342971324920654297e-01 -5.875720083713531494e-02 -1.205088943243026733e-01
7.120000000000000000e+03 7.221564483642578125e+01 -3.474520874023437500e+01 3.791111707687377930e-01 4.180316925048828125e+00 1.367828488349914551e+00 5.694280862808227539e-01
7.121000000000000000e+03 3.117679023742675781e+01 -3.650021362304687500e+01 1.487502157688140869e-01 -1.326717287302017212e-01 4.823544528335332870e-03 -1.451560258865356445e-01
7.122000000000000000e+03 3.100359153747558594e+01 -3.508646774291992188e+01 1.004587411880493164e-01 -9.255372732877731323e-02 2.371505368500947952e-03 -1.777492016553878784e-01
7.123000000000000000e+03 6.956668853759765625e+01 3.123597908020019531e+01 3.540440201759338379e-01 3.372054100036621094e+00 1.117829442024230957e+00 -4.836003184318542480e-01
7.124000000000000000e+03 6.990740203857421875e+01 3.368857192993164062e+01 3.168501853942871094e-01 3.470715522766113281e+00 1.136269688606262207e+00 -3.599197268486022949e-01
7.125000000000000000e+03 6.980862426757812500e+01 3.685957336425781250e+01 3.003825247287750244e-01 3.351071119308471680e+00 1.095436096191406250e+00 -2.061100751161575317e-01
7.126000000000000000e+03 2.601107215881347656e+01 3.744874954223632812e+01 2.628896832466125488e-01 -2.614710330963134766e-01 4.255901440046727657e-04 1.277202516794204712e-01
7.127000000000000000e+03 2.385566520690917969e+01 3.423690032958984375e+01 3.856405243277549744e-02 -1.195598095655441284e-01 -2.429872937500476837e-02 1.501476019620895386e-01
7.128000000000000000e+03 7.143544006347656250e+01 3.657776641845703125e+01 2.075646519660949707e-01 3.861740589141845703e+00 1.220791578292846680e+00 -2.274232506752014160e-01
7.129000000000000000e+03 5.014730834960937500e+01 2.299231529235839844e+01 3.332501649856567383e-01 4.454623460769653320e-01 2.336137592792510986e-01 1.473506987094879150e-01
7.130000000000000000e+03 5.072730636596679688e+01 2.363300895690917969e+01 2.959749400615692139e-01 5.321567654609680176e-01 2.484395205974578857e-01 1.237723380327224731e-01
7.131000000000000000e+03 1.871822738647460938e+01 -2.368824958801269531e+01 -3.800576180219650269e-02 -1.509037450887262821e-03 -1.185443904250860214e-02 -2.297530919313430786e-01
7.132000000000000000e+03 1.945244026184082031e+01 -2.263387680053710938e+01 -9.626555442810058594e-02 1.950761117041110992e-02 -2.302738465368747711e-02 -2.281111925840377808e-01
7.133000000000000000e+03 6.100279617309570312e+01 -1.403354740142822266e+01 -8.392584919929504395e-01 4.415825605392456055e-01 -1.193027719855308533e-01 -3.383212909102439880e-02
7.134000000000000000e+03 2.135729789733886719e+01 -2.263461875915527344e+01 -5.315709859132766724e-02 3.120169416069984436e-02 -6.586621515452861786e-03 -1.919561773538589478e-01
7.135000000000000000e+03 3.934840393066406250e+01 1.724557113647460938e+01 2.790620028972625732e-01 -4.751750528812408447e-01 -5.883391201496124268e-02 3.963326513767242432e-01
7.136000000000000000e+03 5.964186859130859375e+01 -1.502783584594726562e+01 -2.465212047100067139e-01 5.848685279488563538e-02 -5.641030892729759216e-02 -1.226117685437202454e-01
7.137000000000000000e+03 2.364652824401855469e+01 -2.029070091247558594e+01 -1.382847130298614502e-01 -8.787915855646133423e-02 -6.784916669130325317e-02 -1.959661543369293213e-01
7.138000000000000000e+03 2.330067825317382812e+01 -2.274229621887207031e+01 9.095091372728347778e-03 -3.994005918502807617e-02 -9.253490716218948364e-03 -1.526541262865066528e-01
7.139000000000000000e+03 8.231024742126464844e+00 -2.775935935974121094e+01 -8.022635430097579956e-02 -8.049125224351882935e-02 -4.821528121829032898e-02 -7.299440354108810425e-02
7.140000000000000000e+03 7.886187553405761719e+00 -2.807455635070800781e+01 -7.963565737009048462e-02 -7.548078894615173340e-02 -4.653493314981460571e-02 -7.140319049358367920e-02
7.141000000000000000e+03 7.265270709991455078e+00 -3.079607963562011719e+01 -8.507530391216278076e-02 -1.113777980208396912e-01 -5.893593281507492065e-02 -9.561477601528167725e-02
7.142000000000000000e+03 7.123482704162597656e+00 -2.970411109924316406e+01 -8.417443186044692993e-02 -9.446483105421066284e-02 -5.359177663922309875e-02 -7.914766669273376465e-02
7.143000000000000000e+03 2.508705139160156250e+01 -2.096748161315917969e+01 -7.894533127546310425e-02 -1.276785135269165039e-01 -6.198715418577194214e-02 -1.670836508274078369e-01
7.144000000000000000e+03 2.037812995910644531e+01 -1.718606567382812500e+01 -2.083405107259750366e-01 -6.597292423248291016e-02 -8.229403197765350342e-02 -2.403145134449005127e-01
7.145000000000000000e+03 7.041308593750000000e+01 2.363973617553710938e+01 3.046909533441066742e-02 3.613143682479858398e+00 1.093083858489990234e+00 -1.058817386627197266e+00
7.146000000000000000e+03 7.256151580810546875e+01 2.418836402893066406e+01 -8.921982347965240479e-02 4.593269824981689453e+00 1.351215004920959473e+00 -8.275846242904663086e-01
7.147000000000000000e+03 6.023821258544921875e+01 -1.791837501525878906e+01 5.903614759445190430e-01 3.328008353710174561e-01 2.769486904144287109e-01 -6.258911639451980591e-02
7.148000000000000000e+03 7.260548400878906250e+01 3.153097867965698242e+00 -3.879691362380981445e-01 3.636054754257202148e+00 9.744256734848022461e-01 -8.551403880119323730e-01
7.149000000000000000e+03 7.326520538330078125e+01 2.221837425231933594e+01 -2.085034102201461792e-01 5.183000087738037109e+00 1.492349028587341309e+00 -7.539637684822082520e-01
7.150000000000000000e+03 7.397370910644531250e+01 6.132717132568359375e+00 -6.564446091651916504e-01 5.673798084259033203e+00 1.505206108093261719e+00 -7.467800974845886230e-01
7.151000000000000000e+03 7.133106994628906250e+01 2.328991127014160156e+01 -7.402767986059188843e-02 4.104959487915039062e+00 1.209279537200927734e+00 -1.033780932426452637e+00
7.152000000000000000e+03 2.529670524597167969e+01 1.070789813995361328e+01 1.839595586061477661e-01 -6.460119038820266724e-02 3.580750897526741028e-02 9.078917652368545532e-02
7.153000000000000000e+03 6.021027755737304688e+01 -1.504989910125732422e+01 -2.678338289260864258e-01 2.457650899887084961e-01 -6.620622240006923676e-03 -1.223595216870307922e-01
7.154000000000000000e+03 6.808223724365234375e+01 2.444653511047363281e+01 3.661959171295166016e-01 2.372291088104248047e+00 8.215461373329162598e-01 -8.468956351280212402e-01
7.155000000000000000e+03 7.270320892333984375e+01 5.285517215728759766e+00 -5.109036564826965332e-01 4.013346672058105469e+00 1.050732851028442383e+00 -5.234206914901733398e-01
7.156000000000000000e+03 7.197493743896484375e+01 2.374061584472656250e+01 -9.430056065320968628e-02 4.406456947326660156e+00 1.293646931648254395e+00 -9.114846587181091309e-01
7.157000000000000000e+03 4.992594242095947266e+00 1.676411247253417969e+01 1.078593209385871887e-01 -2.125334441661834717e-01 -3.140223398804664612e-02 7.978735119104385376e-02
7.158000000000000000e+03 5.709877967834472656e+00 1.626896095275878906e+01 1.312204599380493164e-01 -1.936305165290832520e-01 -1.872302033007144928e-02 1.102608591318130493e-01
7.159000000000000000e+03 6.181984901428222656e+00 -9.768440246582031250e+00 -1.411707885563373566e-02 -4.817967489361763000e-02 -1.868902705609798431e-02 -2.226886805146932602e-03
7.160000000000000000e+03 6.891182708740234375e+01 2.450554847717285156e+01 2.721247971057891846e-01 2.809459209442138672e+00 9.244751930236816406e-01 -9.117606878280639648e-01
7.161000000000000000e+03 7.019953918457031250e+01 2.504450607299804688e+01 1.610870063304901123e-01 3.432437658309936523e+00 1.078057408332824707e+00 -9.297029376029968262e-01
7.162000000000000000e+03 7.240625000000000000e+01 2.637584495544433594e+01 5.475203320384025574e-02 4.313821315765380859e+00 1.310571908950805664e+00 -7.412995696067810059e-01
7.163000000000000000e+03 2.131220626831054688e+01 -1.983836746215820312e+01 -1.807116270065307617e-01 -3.353934735059738159e-02 -6.427529454231262207e-02 -2.494435012340545654e-01
7.164000000000000000e+03 2.068960952758789062e+01 -2.171537208557128906e+01 -1.281114965677261353e-01 2.089531160891056061e-02 -3.216485679149627686e-02 -2.286171764135360718e-01
7.165000000000000000e+03 7.237971496582031250e+01 2.865303230285644531e+01 1.550857126712799072e-01 4.185215473175048828e+00 1.302090406417846680e+00 -6.153892278671264648e-01
7.166000000000000000e+03 6.973166656494140625e+01 2.872215652465820312e+01 3.269192874431610107e-01 3.373533010482788086e+00 1.110135674476623535e+00 -6.071538329124450684e-01
7.167000000000000000e+03 7.152292633056640625e+01 4.411122798919677734e+00 -1.995500326156616211e-01 2.391862392425537109e+00 6.576937437057495117e-01 -4.872260391712188721e-01
7.168000000000000000e+03 8.282034873962402344e+00 -2.891079330444335938e+01 -9.384705871343612671e-02 -9.775839000940322876e-02 -5.748163536190986633e-02 -8.795697987079620361e-02
7.169000000000000000e+03 7.237702941894531250e+01 2.321961784362792969e+01 -1.446013152599334717e-01 4.640369415283203125e+00 1.348730325698852539e+00 -8.853185176849365234e-01
7.170000000000000000e+03 2.031024742126464844e+01 -2.116268730163574219e+01 -1.591899693012237549e-01 1.283078733831644058e-02 -4.390775412321090698e-02 -2.541261613368988037e-01
7.171000000000000000e+03 2.505346870422363281e+01 -1.854579544067382812e+01 -2.219646126031875610e-01 -1.599658876657485962e-01 -1.145791485905647278e-01 -1.809604763984680176e-01
7.172000000000000000e+03 2.197446060180664062e+01 -2.173167991638183594e+01 -9.062813967466354370e-02 -3.412257181480526924e-03 -2.821211889386177063e-02 -1.996776461601257324e-01
7.173000000000000000e+03 5.913927078247070312e+01 -1.588746070861816406e+01 4.740786552429199219e-02 -2.710573188960552216e-02 6.090639624744653702e-03 -1.635733246803283691e-01
7.174000000000000000e+03 6.129830169677734375e+01 -1.637471199035644531e+01 2.462797760963439941e-01 5.576131343841552734e-01 2.411678731441497803e-01 -8.850906044244766235e-02
7.175000000000000000e+03 2.501893615722656250e+01 -2.474576950073242188e+01 1.904796361923217773e-01 -1.221467629075050354e-01 2.049986273050308228e-02 -1.262743175029754639e-01
7.176000000000000000e+03 8.077818870544433594e+00 -8.733764648437500000e+00 -1.058675348758697510e-02 -4.776581004261970520e-02 -1.750576868653297424e-02 -1.366659905761480331e-02
7.177000000000000000e+03 5.993283462524414062e+01 -1.457698059082031250e+01 -4.906128942966461182e-01 1.392971575260162354e-01 -1.053947210311889648e-01 -8.266470581293106079e-02
7.178000000000000000e+03 5.863491439819335938e+01 -1.535475349426269531e+01 -9.965073317289352417e-02 -1.361457705497741699e-01 -7.073895633220672607e-02 -1.687232702970504761e-01
7.179000000000000000e+03 7.213627624511718750e+01 2.475270462036132812e+01 -3.173680976033210754e-02 4.331548690795898438e+00 1.289943456649780273e+00 -8.500734567642211914e-01
7.180000000000000000e+03 7.001374816894531250e+01 2.934119796752929688e+01 3.088868260383605957e-01 3.453419685363769531e+00 1.128691911697387695e+00 -5.808284878730773926e-01
7.181000000000000000e+03 7.045713806152343750e+01 3.845671415328979492e+00 3.293175995349884033e-02 1.219070315361022949e+00 3.756006062030792236e-01 -5.854517221450805664e-01
7.182000000000000000e+03 7.136172485351562500e+01 3.927140951156616211e+00 -1.410955637693405151e-01 2.142306089401245117e+00 6.003631949424743652e-01 -5.596863031387329102e-01
7.183000000000000000e+03 7.323840332031250000e+01 2.856731414794921875e+01 1.131721958518028259e-01 4.449767589569091797e+00 1.368881940841674805e+00 -5.645781755447387695e-01
7.184000000000000000e+03 6.171485519409179688e+01 -1.531756877899169922e+01 -2.107391357421875000e-01 6.746256351470947266e-01 1.391659528017044067e-01 -1.040163561701774597e-01
7.185000000000000000e+03 7.248725891113281250e+01 3.041805267333984375e+01 1.925915479660034180e-01 4.152945518493652344e+00 1.303661227226257324e+00 -5.006054043769836426e-01
7.186000000000000000e+03 7.204366302490234375e+01 -3.124506950378417969e+01 3.495388329029083252e-01 3.987843036651611328e+00 1.301214575767517090e+00 1.033525824546813965e+00
7.187000000000000000e+03 7.026805877685546875e+01 3.242389678955078125e+01 3.199666440486907959e-01 3.557965993881225586e+00 1.163379788398742676e+00 -4.304353892803192139e-01
7.188000000000000000e+03 7.170901489257812500e+01 2.956220817565917969e+01 2.178218811750411987e-01 3.967439413070678711e+00 1.255578398704528809e+00 -5.717680454254150391e-01
7.189000000000000000e+03 7.026046752929687500e+01 3.020849418640136719e+01 3.121249675750732422e-01 3.548236370086669922e+00 1.158108472824096680e+00 -5.417075157165527344e-01
7.190000000000000000e+03 7.144145965576171875e+01 3.134716606140136719e+01 2.602582275867462158e-01 3.848370075225830078e+00 1.232588529586791992e+00 -4.780941307544708252e-01
7.191000000000000000e+03 7.125358581542968750e+01 3.380387496948242188e+01 2.651033401489257812e-01 3.786425113677978516e+00 1.215458512306213379e+00 -3.564345538616180420e-01
7.192000000000000000e+03 6.814737701416015625e+01 2.545376396179199219e+01 3.932770490646362305e-01 2.569854974746704102e+00 8.889396190643310547e-01 -7.450104951858520508e-01
7.193000000000000000e+03 6.916920471191406250e+01 2.669154739379882812e+01 3.269923925399780273e-01 3.093880176544189453e+00 1.026261806488037109e+00 -7.383867502212524414e-01
7.194000000000000000e+03 7.231196594238281250e+01 2.709215736389160156e+01 9.745863080024719238e-02 4.230949878692626953e+00 1.298522591590881348e+00 -6.956806778907775879e-01
7.195000000000000000e+03 3.057652473449707031e+01 -3.408047103881835938e+01 5.182931944727897644e-02 -5.693329498171806335e-02 -1.531192800030112267e-03 -1.775540262460708618e-01
7.196000000000000000e+03 6.139646911621093750e+01 -1.461336421966552734e+01 -5.474414229393005371e-01 5.554955601692199707e-01 2.416247036308050156e-03 -7.555916905403137207e-02
7.197000000000000000e+03 7.106817626953125000e+01 2.386886787414550781e+01 -2.623696438968181610e-02 3.905675172805786133e+00 1.163831472396850586e+00 -1.019912123680114746e+00
7.198000000000000000e+03 6.077400588989257812e+01 -1.488663864135742188e+01 -3.863717615604400635e-01 3.730085790157318115e-01 -4.008951131254434586e-03 -9.086642414331436157e-02
7.199000000000000000e+03 7.153022003173828125e+01 2.871478462219238281e+01 2.110088467597961426e-01 3.912472248077392578e+00 1.237044334411621094e+00 -6.195068955421447754e-01
7.200000000000000000e+03 8.420211791992187500e+00 -2.829835319519042969e+01 -8.993750810623168945e-02 -9.227039664983749390e-02 -5.466237291693687439e-02 -8.233531564474105835e-02
7.201000000000000000e+03 2.240517616271972656e+01 -2.082501602172851562e+01 -1.294606626033782959e-01 -3.556080535054206848e-02 -4.950644448399543762e-02 -2.115393579006195068e-01
7.202000000000000000e+03 2.260890769958496094e+01 -2.147970581054687500e+01 -9.341870248317718506e-02 -2.980452962219715118e-02 -3.696697205305099487e-02 -1.929743289947509766e-01
7.203000000000000000e+03 6.131930541992187500e+01 -1.359017276763916016e+01 -1.094437718391418457e+00 5.520390272140502930e-01 -1.627196073532104492e-01 1.512859482318162918e-02
7.204000000000000000e+03 6.874272918701171875e+01 2.601424217224121094e+01 3.324290812015533447e-01 2.892085075378417969e+00 9.673542380332946777e-01 -7.426967620849609375e-01
7.205000000000000000e+03 7.147735595703125000e+01 2.780920982360839844e+01 1.830119341611862183e-01 3.907638549804687500e+00 1.227195143699645996e+00 -6.813507080078125000e-01
7.206000000000000000e+03 6.963245391845703125e+01 2.412641143798828125e+01 1.563100516796112061e-01 3.142579078674316406e+00 9.896667599678039551e-01 -1.020242094993591309e+00
7.207000000000000000e+03 7.256210327148437500e+01 2.571600532531738281e+01 8.380743674933910370e-03 4.415321350097656250e+00 1.327110648155212402e+00 -7.540517449378967285e-01
7.208000000000000000e+03 7.157917785644531250e+01 2.426988983154296875e+01 -2.796704880893230438e-02 4.141382694244384766e+00 1.234024643898010254e+00 -9.368177652359008789e-01
7.209000000000000000e+03 6.938764190673828125e+01 2.734309577941894531e+01 3.105797171592712402e-01 3.223847627639770508e+00 1.060328245162963867e+00 -6.906532645225524902e-01
7.210000000000000000e+03 7.156361389160156250e+01 2.695612907409667969e+01 1.502247154712677002e-01 3.969788312911987305e+00 1.236003875732421875e+00 -7.356741428375244141e-01
7.211000000000000000e+03 2.093663597106933594e+01 -1.932951164245605469e+01 -1.948337703943252563e-01 -3.519231081008911133e-02 -6.900782883167266846e-02 -2.632973194122314453e-01
7.212000000000000000e+03 2.045424842834472656e+01 -1.973170280456542969e+01 -1.899043619632720947e-01 -1.962051540613174438e-02 -6.285746395587921143e-02 -2.688424587249755859e-01
7.213000000000000000e+03 2.198949623107910156e+01 -1.938020706176757812e+01 -1.899065077304840088e-01 -5.717873573303222656e-02 -7.412557303905487061e-02 -2.391976267099380493e-01
7.214000000000000000e+03 2.453131103515625000e+01 -1.916301918029785156e+01 -1.894975155591964722e-01 -1.346116214990615845e-01 -9.723274409770965576e-02 -1.864716410636901855e-01
7.215000000000000000e+03 6.007844924926757812e+01 -1.619054794311523438e+01 1.648603826761245728e-01 2.048219144344329834e-01 1.109046861529350281e-01 -1.311676651239395142e-01
7.216000000000000000e+03 2.179110145568847656e+01 -2.106420326232910156e+01 -1.351471543312072754e-01 -1.681884378194808960e-02 -4.558980092406272888e-02 -2.218738347291946411e-01
7.217000000000000000e+03 2.068804359436035156e+01 -2.023903274536132812e+01 -1.801149994134902954e-01 -9.898504242300987244e-03 -5.700405314564704895e-02 -2.610933780670166016e-01
7.218000000000000000e+03 2.445417785644531250e+01 -2.116669654846191406e+01 -7.456304132938385010e-02 -1.007910370826721191e-01 -5.260622128844261169e-02 -1.711565852165222168e-01
7.219000000000000000e+03 2.399260330200195312e+01 -1.971596527099609375e+01 -1.632439345121383667e-01 -1.068182736635208130e-01 -8.101866394281387329e-02 -1.930900067090988159e-01
7.220000000000000000e+03 2.218400001525878906e+01 -2.241349220275878906e+01 -4.648270457983016968e-02 7.607795414514839649e-04 -1.371657755225896835e-02 -1.768248230218887329e-01
7.221000000000000000e+03 6.973207092285156250e+01 2.781621551513671875e+01 3.142284750938415527e-01 3.343039512634277344e+00 1.097180366516113281e+00 -6.739062070846557617e-01
7.222000000000000000e+03 7.230172729492187500e+01 2.785284614562988281e+01 1.409048736095428467e-01 4.197223186492919922e+00 1.301438450813293457e+00 -6.429956555366516113e-01
7.223000000000000000e+03 7.163359069824218750e+01 3.035724449157714844e+01 2.396200448274612427e-01 3.917188644409179688e+00 1.247042655944824219e+00 -5.286840796470642090e-01
7.224000000000000000e+03 2.038460540771484375e+01 -1.917531204223632812e+01 -2.018520534038543701e-01 -3.248926624655723572e-02 -7.030239701271057129e-02 -2.748989462852478027e-01
7.225000000000000000e+03 7.175249481201171875e+01 3.631114721298217773e+00 -2.166980206966400146e-01 2.622912406921386719e+00 7.218643426895141602e-01 -6.790054440498352051e-01
7.226000000000000000e+03 6.996085357666015625e+01 2.659509849548339844e+01 2.636607885360717773e-01 3.375700235366821289e+00 1.091808319091796875e+00 -7.646089196205139160e-01
7.227000000000000000e+03 7.307624053955078125e+01 2.781473350524902344e+01 9.351038187742233276e-02 4.458481311798095703e+00 1.365597486495971680e+00 -6.171454787254333496e-01
7.228000000000000000e+03 7.002682495117187500e+01 2.580054473876953125e+01 2.123728841543197632e-01 3.370104074478149414e+00 1.074743151664733887e+00 -8.424431681632995605e-01
7.229000000000000000e+03 7.104216003417968750e+01 2.985506057739257812e+01 2.600341737270355225e-01 3.760935783386230469e+00 1.206290960311889648e+00 -5.522376894950866699e-01
7.230000000000000000e+03 2.342875289916992188e+01 -2.082585144042968750e+01 -1.097897440195083618e-01 -6.952514499425888062e-02 -5.379446595907211304e-02 -1.915815323591232300e-01
7.231000000000000000e+03 2.300970268249511719e+01 -2.003023529052734375e+01 -1.590404808521270752e-01 -6.974792480468750000e-02 -6.863652169704437256e-02 -2.111966013908386230e-01
7.232000000000000000e+03 2.228001976013183594e+01 -2.009229660034179688e+01 -1.649784445762634277e-01 -5.035964027047157288e-02 -6.460142135620117188e-02 -2.266114503145217896e-01
7.233000000000000000e+03 7.101185607910156250e+01 2.448082923889160156e+01 4.269744828343391418e-02 3.857125997543334961e+00 1.169947028160095215e+00 -9.544386863708496094e-01
7.234000000000000000e+03 7.181945037841796875e+01 2.542679023742675781e+01 3.728752210736274719e-02 4.157725811004638672e+00 1.258504033088684082e+00 -8.407226204872131348e-01
7.235000000000000000e+03 7.166477966308593750e+01 2.617799758911132812e+01 9.264084696769714355e-02 4.031093120574951172e+00 1.237120151519775391e+00 -7.926394939422607422e-01
7.236000000000000000e+03 7.078601074218750000e+01 2.677081298828125000e+01 1.871159821748733521e-01 3.699641942977905273e+00 1.166027307510375977e+00 -7.725948095321655273e-01
7.237000000000000000e+03 7.100183868408203125e+01 2.520870780944824219e+01 7.836854457855224609e-02 3.806761741638183594e+00 1.165539026260375977e+00 -8.942627310752868652e-01
7.238000000000000000e+03 2.093450355529785156e+01 -2.077773094177246094e+01 -1.591248363256454468e-01 -5.365158896893262863e-03 -4.934700205922126770e-02 -2.434439212083816528e-01
7.239000000000000000e+03 2.292089843750000000e+01 -2.209930229187011719e+01 -4.311737418174743652e-02 -2.917746268212795258e-02 -2.168845199048519135e-02 -1.732808798551559448e-01
7.240000000000000000e+03 2.354870605468750000e+01 -2.168018341064453125e+01 -5.979943647980690002e-02 -6.297698616981506348e-02 -3.683292493224143982e-02 -1.740516424179077148e-01
7.241000000000000000e+03 3.871669387817382812e+01 1.682221603393554688e+01 2.702924609184265137e-01 -5.829244852066040039e-01 -9.378960728645324707e-02 4.215944707393646240e-01
7.242000000000000000e+03 7.030582427978515625e+01 2.432810211181640625e+01 8.325587958097457886e-02 3.500871419906616211e+00 1.075238227844238281e+00 -9.976535439491271973e-01
7.243000000000000000e+03 2.127419662475585938e+01 -2.191765022277832031e+01 -1.018603071570396423e-01 1.579631119966506958e-02 -2.581919915974140167e-02 -2.097074091434478760e-01
7.244000000000000000e+03 7.066798400878906250e+01 2.759264564514160156e+01 2.419367581605911255e-01 3.643034696578979492e+00 1.165491461753845215e+00 -6.978543996810913086e-01
7.245000000000000000e+03 6.922475433349609375e+01 2.546009063720703125e+01 2.848903238773345947e-01 3.038607835769653320e+00 9.970494508743286133e-01 -8.358964920043945312e-01
7.246000000000000000e+03 6.949298858642578125e+01 2.479755401611328125e+01 2.044428586959838867e-01 3.107885837554931641e+00 9.936985969543457031e-01 -9.262574315071105957e-01
7.247000000000000000e+03 2.312472724914550781e+01 -2.121236419677734375e+01 -9.391301870346069336e-02 -4.886311292648315430e-02 -4.283284023404121399e-02 -1.904596984386444092e-01
7.248000000000000000e+03 7.087622070312500000e+01 2.598597717285156250e+01 1.518821567296981812e-01 3.755632400512695312e+00 1.172254323959350586e+00 -8.259766697883605957e-01
7.249000000000000000e+03 2.158206558227539062e+01 -2.042288970947265625e+01 -1.613249033689498901e-01 -2.679812349379062653e-02 -5.643691122531890869e-02 -2.397354990243911743e-01
7.250000000000000000e+03 6.997272491455078125e+01 2.731035995483398438e+01 2.757828831672668457e-01 3.382928133010864258e+00 1.097613334655761719e+00 -7.130500674247741699e-01
7.251000000000000000e+03 4.811389923095703125e+01 4.112664413452148438e+01 6.195348501205444336e-01 2.902444303035736084e-01 2.729337811470031738e-01 -4.604231100529432297e-03
7.252000000000000000e+03 9.395843505859375000e+00 -4.079244995117187500e+01 1.859816610813140869e-01 -1.934336125850677490e-01 -2.235582098364830017e-03 -5.711070448160171509e-02
7.253000000000000000e+03 3.189564704895019531e+01 -4.109727478027343750e+01 3.831278979778289795e-01 -2.478381991386413574e-01 4.058691114187240601e-02 -3.504543006420135498e-02
7.254000000000000000e+03 6.759034729003906250e+01 4.132274246215820312e+01 3.796848058700561523e-01 2.877456665039062500e+00 9.771424531936645508e-01 -4.456077516078948975e-02
7.255000000000000000e+03 2.832852935791015625e+01 4.108031463623046875e+01 3.676148951053619385e-01 -2.784610688686370850e-01 2.674614638090133667e-02 3.401194885373115540e-02
7.256000000000000000e+03 6.290049362182617188e+01 4.115853118896484375e+01 7.009997963905334473e-01 1.625091195106506348e+00 6.978272795677185059e-01 -1.106138303875923157e-01
7.257000000000000000e+03 5.964716339111328125e+01 3.825299453735351562e+01 8.662952780723571777e-01 7.709276676177978516e-01 4.911668896675109863e-01 -8.817871659994125366e-02
7.258000000000000000e+03 3.355339050292968750e+01 1.406216144561767578e+00 -2.048324584960937500e+00 -7.224245369434356689e-02 -6.361700892448425293e-01 -2.274006232619285583e-02
7.259000000000000000e+03 2.930602073669433594e+01 -2.999259233474731445e+00 -3.124606097117066383e-03 -2.514631487429141998e-02 -8.481276221573352814e-03 -1.525407377630472183e-02
7.260000000000000000e+03 3.900375747680664062e+01 4.048352241516113281e+00 5.610446333885192871e-01 5.212881565093994141e-01 3.246998190879821777e-01 3.888253867626190186e-01
7.261000000000000000e+03 1.830600738525390625e+01 -3.473424613475799561e-01 3.587771789170801640e-04 -1.081018615514039993e-02 -3.135422710329294205e-03 -6.430243607610464096e-03
7.262000000000000000e+03 2.159384155273437500e+01 -1.423174476623535156e+01 -4.644869863986968994e-01 -7.919270545244216919e-02 -1.631039083003997803e-01 -6.127692386507987976e-02
7.263000000000000000e+03 3.991490554809570312e+01 3.746064186096191406e+00 -4.862952604889869690e-02 -3.108289539813995361e-01 -1.078375428915023804e-01 -3.191498816013336182e-01
7.264000000000000000e+03 6.834374237060546875e+01 -5.078063607215881348e-01 -1.941250443458557129e+00 -3.257175385951995850e-01 -6.800904273986816406e-01 -1.342960894107818604e-01
7.265000000000000000e+03 6.918694305419921875e+01 -1.208833694458007812e+00 -3.564483404159545898e+00 -3.185194134712219238e-01 -1.164900779724121094e+00 -5.750693082809448242e-01
7.266000000000000000e+03 3.078430175781250000e+01 5.228095650672912598e-01 -7.568130493164062500e-01 2.017754316329956055e-01 -1.665112823247909546e-01 -1.148370653390884399e-01
7.267000000000000000e+03 4.985910415649414062e+01 -3.390106964111328125e+01 3.787670657038688660e-02 2.300458103418350220e-01 8.037675917148590088e-02 -5.692677944898605347e-02
7.268000000000000000e+03 3.847444915771484375e+01 -3.459923553466796875e+01 2.347024530172348022e-01 -2.127462923526763916e-01 6.586851086467504501e-03 -3.383766114711761475e-01
7.269000000000000000e+03 4.153248977661132812e+01 -3.022427797317504883e+00 -1.062577605247497559e+00 -2.688156068325042725e-01 -3.994179368019104004e-01 5.120790004730224609e-02
7.270000000000000000e+03 4.695755004882812500e+01 7.268573284149169922e+00 -1.009571075439453125e+00 -6.705338954925537109e-01 -5.040314793586730957e-01 8.467777371406555176e-01
7.271000000000000000e+03 4.744805526733398438e+01 1.939717864990234375e+01 3.931577205657958984e-01 3.514690101146697998e-01 2.233880162239074707e-01 2.459032088518142700e-01
7.272000000000000000e+03 5.390332031250000000e+01 6.486498355865478516e+00 5.233969688415527344e-01 6.842801570892333984e-01 3.623031377792358398e-01 4.948672950267791748e-01
7.273000000000000000e+03 6.572049713134765625e+01 3.825304031372070312e+01 4.569068551063537598e-01 2.425945043563842773e+00 8.648555874824523926e-01 -1.783927381038665771e-01
7.274000000000000000e+03 1.386369228363037109e+01 -4.043313980102539062e+01 2.791366875171661377e-01 -6.323699653148651123e-02 6.476990878582000732e-02 -7.696951925754547119e-02
7.275000000000000000e+03 1.404457092285156250e+01 -3.965472412109375000e+01 2.865992784500122070e-01 -2.556673064827919006e-02 7.830976694822311401e-02 -1.056107282638549805e-01
7.276000000000000000e+03 3.009692192077636719e+01 -4.609402179718017578e+00 3.870852291584014893e-03 -2.021927684545516968e-01 -5.949657782912254333e-02 -8.825872093439102173e-02
7.277000000000000000e+03 3.590202713012695312e+01 3.464092636108398438e+01 5.587957501411437988e-01 -3.900950029492378235e-02 1.559358686208724976e-01 9.566125273704528809e-02
7.278000000000000000e+03 4.638653564453125000e+01 6.925899028778076172e+00 -1.101455330848693848e+00 -5.119180083274841309e-01 -4.840120077133178711e-01 7.042172551155090332e-01
7.279000000000000000e+03 2.337083816528320312e+01 2.741213989257812500e+01 4.682323038578033447e-01 3.578944504261016846e-01 2.478380203247070312e-01 4.481065273284912109e-01
7.280000000000000000e+03 5.470089721679687500e+01 2.364558792114257812e+01 1.926878094673156738e-01 6.336702704429626465e-01 2.479074150323867798e-01 -3.004490137100219727e-01
7.281000000000000000e+03 8.771021842956542969e+00 1.486809539794921875e+01 1.843894273042678833e-01 -1.293712295591831207e-02 5.143569409847259521e-02 1.914330422878265381e-01
7.282000000000000000e+03 5.603809738159179688e+01 1.063660335540771484e+01 2.127096056938171387e-01 4.084900617599487305e-01 1.863598972558975220e-01 2.754315733909606934e-01
7.283000000000000000e+03 5.987124633789062500e+01 -3.967749786376953125e+01 1.090637564659118652e+00 5.066207647323608398e-01 4.791775047779083252e-01 -2.340977489948272705e-01
7.284000000000000000e+03 5.729902267456054688e+01 -3.760680007934570312e+01 7.734908461570739746e-01 7.342495918273925781e-01 4.523221552371978760e-01 -5.405420660972595215e-01
7.285000000000000000e+03 5.632094192504882812e+01 -3.874240112304687500e+01 7.612792253494262695e-01 6.826471090316772461e-01 4.331778883934020996e-01 -2.686054408550262451e-01
7.286000000000000000e+03 6.088129806518554688e+01 -9.651116371154785156e+00 -1.911122322082519531e+00 2.670766711235046387e-01 -4.932136833667755127e-01 -2.798619270324707031e-01
7.287000000000000000e+03 6.086942291259765625e+01 3.648445129394531250e+01 7.923342585563659668e-01 8.187075257301330566e-01 4.833125472068786621e-01 -3.531427085399627686e-01
7.288000000000000000e+03 4.090518951416015625e+01 4.051784515380859375e+00 -3.125010430812835693e-01 -3.264599442481994629e-01 -1.916882991790771484e-01 -2.005401253700256348e-01
7.289000000000000000e+03 2.109471511840820312e+01 -4.037238693237304688e+01 4.554606378078460693e-01 -5.097177345305681229e-03 1.351090371608734131e-01 7.708819210529327393e-02
7.290000000000000000e+03 3.285632705688476562e+01 1.396979904174804688e+01 -3.008304238319396973e-01 1.252795606851577759e-01 -5.266526341438293457e-02 4.121609926223754883e-01
7.291000000000000000e+03 1.455341434478759766e+01 3.773026657104492188e+01 1.080763563513755798e-01 -9.660205245018005371e-02 3.442292800173163414e-03 1.116321906447410583e-01
7.292000000000000000e+03 6.190449714660644531e+00 3.900194168090820312e+01 -1.231377571821212769e-02 -1.686377376317977905e-01 -5.428545549511909485e-02 -2.450390346348285675e-02
7.293000000000000000e+03 6.014395523071289062e+01 -4.562624692916870117e-01 -1.976471543312072754e+00 2.355494216317310929e-04 -5.928707718849182129e-01 6.588932275772094727e-01
7.294000000000000000e+03 1.981322860717773438e+01 1.752557754516601562e+01 -3.088306188583374023e-01 -1.564574986696243286e-01 -1.395864337682723999e-01 1.270203441381454468e-01
7.295000000000000000e+03 6.869029998779296875e+01 -1.527489757537841797e+01 -2.801162004470825195e-01 -4.252868592739105225e-01 -2.116209268569946289e-01 1.928771495819091797e+00
7.296000000000000000e+03 2.030467224121093750e+01 -4.156412124633789062e+01 4.795745015144348145e-01 2.641483396291732788e-02 1.517968028783798218e-01 5.528210848569869995e-02
7.297000000000000000e+03 7.105152130126953125e+01 1.796219062805175781e+01 6.451729536056518555e-01 4.901281833648681641e+00 1.663936495780944824e+00 -1.771795749664306641e+00
7.298000000000000000e+03 4.899102401733398438e+01 -8.753794670104980469e+00 -1.329762041568756104e-01 2.746014595031738281e-01 4.248757287859916687e-02 -1.895746029913425446e-02
7.299000000000000000e+03 5.073738861083984375e+01 -3.432389497756958008e+00 -1.326673775911331177e-01 -6.456931680440902710e-02 -5.917100980877876282e-02 1.979227811098098755e-01
7.300000000000000000e+03 5.004832458496093750e+01 -3.376720666885375977e+00 -1.920382827520370483e-01 -6.957219447940587997e-03 -5.969864875078201294e-02 2.024271637201309204e-01
7.301000000000000000e+03 4.863124465942382812e+01 -3.767709732055664062e+01 6.291711330413818359e-01 2.430897951126098633e-02 1.960440278053283691e-01 1.053600236773490906e-01
7.302000000000000000e+03 3.376000976562500000e+01 1.338440895080566406e+01 -4.428999722003936768e-01 -1.679893881082534790e-01 -1.832668036222457886e-01 4.659689366817474365e-01
7.303000000000000000e+03 6.453145599365234375e+01 2.640218925476074219e+01 5.285165905952453613e-01 1.965872645378112793e+00 7.483167648315429688e-01 1.062799915671348572e-01
7.304000000000000000e+03 3.790639114379882812e+01 -1.199735641479492188e+01 -3.918249607086181641e-01 6.755949258804321289e-01 8.513098955154418945e-02 -1.264760047197341919e-01
7.305000000000000000e+03 3.867004394531250000e+01 -2.988845062255859375e+01 9.145015501417219639e-04 -5.637890100479125977e-01 -1.688623577356338501e-01 -1.791412979364395142e-01
7.306000000000000000e+03 2.370463609695434570e+00 3.878016281127929688e+01 6.068286020308732986e-04 -5.651264190673828125e-01 -1.693558841943740845e-01 -1.780049130320549011e-02
7.307000000000000000e+03 5.056955718994140625e+01 -3.480445480346679688e+01 1.528686434030532837e-01 3.334567248821258545e-01 1.458976119756698608e-01 -5.023099016398191452e-03
7.308000000000000000e+03 5.058805465698242188e+01 -3.419796371459960938e+01 1.305007189512252808e-01 3.801521956920623779e-01 1.531958729028701782e-01 -7.634831964969635010e-02
7.309000000000000000e+03 2.237743377685546875e+01 1.776678085327148438e+01 -2.471833676099777222e-01 -3.201687932014465332e-01 -1.702056527137756348e-01 1.721497327089309692e-01
7.310000000000000000e+03 6.458916473388671875e+01 2.778939247131347656e+01 3.308303356170654297e-01 2.284245729446411133e+00 7.845228314399719238e-01 3.768240287899971008e-02
7.311000000000000000e+03 5.060094451904296875e+01 -4.633031368255615234e+00 -2.040529549121856689e-01 -7.902801781892776489e-02 -8.492428809404373169e-02 3.034707903861999512e-01
7.312000000000000000e+03 5.693672180175781250e+01 3.801108169555664062e+01 7.966567277908325195e-01 5.652828812599182129e-01 4.085818827152252197e-01 2.074091583490371704e-01
7.313000000000000000e+03 6.150982284545898438e+01 3.785276412963867188e+01 7.248162031173706055e-01 1.203363656997680664e+00 5.784539580345153809e-01 -2.516879737377166748e-01
7.314000000000000000e+03 1.164495944976806641e+01 -3.648412704467773438e+01 8.346266299486160278e-02 -1.626636981964111328e-01 -2.376031316816806793e-02 -1.250048279762268066e-01
7.315000000000000000e+03 6.286537933349609375e+01 3.474647140502929688e+01 4.242644608020782471e-01 1.782254099845886230e+00 6.619555950164794922e-01 -6.711272597312927246e-01
7.316000000000000000e+03 4.328802108764648438e+00 -2.246378326416015625e+01 6.757979840040206909e-02 -5.256529152393341064e-02 4.504351876676082611e-03 -2.617399953305721283e-02
7.317000000000000000e+03 3.662721252441406250e+01 -2.924122047424316406e+01 1.913939486257731915e-03 -2.534146904945373535e-01 -7.545022666454315186e-02 -2.802171409130096436e-01
7.318000000000000000e+03 1.463643360137939453e+01 -3.962426757812500000e+01 2.866514027118682861e-01 5.782470107078552246e-02 1.033428311347961426e-01 -1.586105972528457642e-01
7.319000000000000000e+03 1.422514057159423828e+01 -3.907281875610351562e+01 1.879213750362396240e-01 5.227905139327049255e-02 7.206013053655624390e-02 -1.299471855163574219e-01
7.320000000000000000e+03 1.380124855041503906e+01 -3.957600784301757812e+01 2.865900993347167969e-01 -2.354815229773521423e-02 7.891258597373962402e-02 -1.059615015983581543e-01
7.321000000000000000e+03 1.376566028594970703e+01 -3.981984710693359375e+01 2.846568226814270020e-01 -2.357020974159240723e-02 7.832598686218261719e-02 -1.054622828960418701e-01
7.322000000000000000e+03 1.383275127410888672e+01 -3.936143112182617188e+01 2.885313332080841064e-01 -2.365109138190746307e-02 7.946407794952392578e-02 -1.069376170635223389e-01
7.323000000000000000e+03 6.351029396057128906e+00 2.468659973144531250e+01 -1.880133002996444702e-01 -5.390244722366333008e-01 -2.181113213300704956e-01 2.267782837152481079e-01
7.324000000000000000e+03 3.756269454956054688e+01 -1.252683258056640625e+01 -5.168625712394714355e-01 6.565553545951843262e-01 4.190783947706222534e-02 -1.135658472776412964e-01
7.325000000000000000e+03 3.707408523559570312e+01 -1.224065685272216797e+01 -4.401064515113830566e-01 5.967225432395935059e-01 4.698481783270835876e-02 -1.337537169456481934e-01
7.326000000000000000e+03 2.270307922363281250e+01 2.745787429809570312e+01 3.896428346633911133e-01 7.738987356424331665e-02 1.401098221540451050e-01 3.547259569168090820e-01
7.327000000000000000e+03 2.200976562500000000e+01 3.127946472167968750e+01 -1.138032302260398865e-01 -1.027066335082054138e-01 -6.495295464992523193e-02 6.805195659399032593e-02
7.328000000000000000e+03 4.644973754882812500e+01 2.605016517639160156e+01 1.553320437669754028e-01 4.671306908130645752e-01 1.867388188838958740e-01 2.942648828029632568e-01
7.329000000000000000e+03 1.189465522766113281e+01 5.718726634979248047e+00 -2.663260996341705322e-01 -1.836200505495071411e-01 -1.349838525056838989e-01 1.333431005477905273e-01
7.330000000000000000e+03 5.178257751464843750e+01 3.037661170959472656e+01 2.360429912805557251e-01 1.076597571372985840e+00 3.937921822071075439e-01 1.489512473344802856e-01
7.331000000000000000e+03 6.279993057250976562e+01 -4.163371658325195312e+01 1.188103079795837402e+00 7.884855866432189941e-01 5.929765701293945312e-01 4.647232592105865479e-02
7.332000000000000000e+03 6.546891784667968750e+01 -4.049463653564453125e+01 8.768946528434753418e-01 1.520938634872436523e+00 7.193499803543090820e-01 1.928549557924270630e-01
7.333000000000000000e+03 3.132339477539062500e+00 -3.969596099853515625e+01 3.006976656615734100e-02 -2.493844479322433472e-01 -6.579440832138061523e-02 -4.631960764527320862e-02
7.334000000000000000e+03 3.808822631835937500e+01 -3.404217147827148438e+01 1.250280886888504028e-01 -2.045099139213562012e-01 -2.384454943239688873e-02 -3.328673839569091797e-01
7.335000000000000000e+03 5.136080169677734375e+01 2.710356521606445312e+01 2.417739629745483398e-01 8.795878887176513672e-01 3.364085555076599121e-01 1.239508688449859619e-01
7.336000000000000000e+03 1.735917472839355469e+01 -2.390254402160644531e+01 9.242689236998558044e-03 -1.320220381021499634e-01 -3.683380410075187683e-02 -2.357089966535568237e-01
7.337000000000000000e+03 8.595154762268066406e+00 1.613836288452148438e+01 2.316947728395462036e-01 -3.657646104693412781e-02 5.853549391031265259e-02 1.669679284095764160e-01
7.338000000000000000e+03 4.119520568847656250e+01 4.669586181640625000e+00 -2.189729958772659302e-01 -3.624314367771148682e-01 -1.744213253259658813e-01 8.199052512645721436e-02
7.339000000000000000e+03 6.141940307617187500e+01 -9.807566642761230469e+00 -1.903618097305297852e+00 4.557294249534606934e-01 -4.343665838241577148e-01 -2.473277747631072998e-01
7.340000000000000000e+03 4.964225387573242188e+01 -3.763234329223632812e+01 5.723947882652282715e-01 1.558490991592407227e-01 2.184731662273406982e-01 1.220322772860527039e-01
7.341000000000000000e+03 5.010811614990234375e+01 3.921936273574829102e+00 -1.189783692359924316e+00 -2.608576416969299316e-01 -4.351924061775207520e-01 9.647070169448852539e-01
7.342000000000000000e+03 6.805263519287109375e+01 -3.791973495483398438e+01 5.271725654602050781e-01 2.739144086837768555e+00 9.798950552940368652e-01 2.698441743850708008e-01
7.343000000000000000e+03 3.663828849792480469e+00 2.792575454711914062e+01 -8.660176396369934082e-02 -4.284998178482055664e-01 -1.545304656028747559e-01 1.848775744438171387e-01
7.344000000000000000e+03 1.865931320190429688e+01 2.265539360046386719e+01 2.669671773910522461e-01 6.533676385879516602e-02 9.969118237495422363e-02 1.446356177330017090e-01
7.345000000000000000e+03 5.456792831420898438e+01 -3.095998954772949219e+01 3.106791973114013672e-01 7.979621887207031250e-01 3.325924277305603027e-01 -3.362349048256874084e-02
7.346000000000000000e+03 7.665073394775390625e+01 -1.134129142761230469e+01 -4.418869614601135254e-01 1.186464214324951172e+01 3.426826715469360352e+00 -1.626790523529052734e+00
7.347000000000000000e+03 3.800540924072265625e+01 -2.799397945404052734e+00 -4.537949860095977783e-01 1.356370896100997925e-01 -9.544736146926879883e-02 3.314633294939994812e-02
7.348000000000000000e+03 3.651383590698242188e+01 -3.518180131912231445e+00 -3.445632457733154297e-01 1.921681761741638184e-01 -4.571852087974548340e-02 -8.186634629964828491e-02
7.349000000000000000e+03 3.667128372192382812e+01 -4.066399574279785156e+00 -3.385488986968994141e-01 2.343921214342117310e-01 -3.124703280627727509e-02 -1.156016811728477478e-01
7.350000000000000000e+03 2.352807617187500000e+01 -2.629191017150878906e+01 2.840557396411895752e-01 -4.824383556842803955e-02 7.074356824159622192e-02 -1.140870451927185059e-01
7.351000000000000000e+03 7.339520263671875000e+01 -1.620709419250488281e+01 -1.773905158042907715e+00 4.098550319671630859e+00 6.973934769630432129e-01 4.965263009071350098e-01
7.352000000000000000e+03 6.577868652343750000e+01 -2.657068252563476562e+01 -5.226305723190307617e-01 1.611062765121459961e+00 3.265296518802642822e-01 -6.034669280052185059e-01
7.353000000000000000e+03 6.642796325683593750e+01 -2.745151710510253906e+01 -1.887693256139755249e-01 1.491605281829833984e+00 3.908508121967315674e-01 -6.177003979682922363e-01
7.354000000000000000e+03 4.616804504394531250e+01 6.214843273162841797e+00 -1.080025672912597656e+00 -4.446145594120025635e-01 -4.573920667171478271e-01 5.786172151565551758e-01
7.355000000000000000e+03 6.841938018798828125e+01 -3.430948638916015625e+01 5.369511246681213379e-01 2.757548570632934570e+00 9.883498549461364746e-01 2.886432707309722900e-01
7.356000000000000000e+03 4.138890075683593750e+01 8.057726860046386719e+00 -6.748341321945190430e-01 -3.377631306648254395e-01 -3.037791848182678223e-01 7.321608662605285645e-01
7.357000000000000000e+03 5.519945144653320312e+01 -3.693008422851562500e+01 5.481730103492736816e-01 8.279383182525634766e-01 4.128334224224090576e-01 -2.034242898225784302e-01
7.358000000000000000e+03 4.177113723754882812e+01 -2.338223838806152344e+01 -1.343768462538719177e-02 -2.095402479171752930e-01 -6.689337641000747681e-02 -5.763542652130126953e-01
7.359000000000000000e+03 4.961264419555664062e+01 3.781541585922241211e+00 -1.190834283828735352e+00 -3.291907608509063721e-01 -4.560075104236602783e-01 8.779529333114624023e-01
7.360000000000000000e+03 2.230360603332519531e+01 3.290275955200195312e+01 -4.813504591584205627e-02 -1.443098783493041992e-01 -5.773347616195678711e-02 5.917370691895484924e-02
7.361000000000000000e+03 4.248915100097656250e+01 -2.393244171142578125e+01 2.338457666337490082e-02 -9.009230881929397583e-02 -2.001231908798217773e-02 -5.043514966964721680e-01
7.362000000000000000e+03 6.798309326171875000e+01 -3.348131561279296875e+01 5.389876961708068848e-01 2.633689403533935547e+00 9.518030881881713867e-01 2.556235492229461670e-01
7.363000000000000000e+03 6.746906280517578125e+01 -1.346195030212402344e+01 -1.276798129081726074e+00 -8.255814760923385620e-02 -4.078068733215332031e-01 1.008003234863281250e+00
7.364000000000000000e+03 3.080581855773925781e+01 -2.879314994812011719e+01 2.360240668058395386e-01 5.338418483734130859e-02 8.682247251272201538e-02 -1.497294157743453979e-01
7.365000000000000000e+03 3.448942184448242188e+01 1.491882896423339844e+01 -4.089961946010589600e-02 -4.488473832607269287e-01 -1.469240933656692505e-01 5.331240296363830566e-01
7.366000000000000000e+03 5.401729965209960938e+01 5.470454216003417969e+00 -2.513837516307830811e-01 4.649159014225006104e-01 6.405964493751525879e-02 4.154153764247894287e-01
7.367000000000000000e+03 3.585644912719726562e+01 -3.031419372558593750e+01 1.314921490848064423e-02 -9.999272227287292480e-02 -2.605305239558219910e-02 -3.126981854438781738e-01
7.368000000000000000e+03 6.192828750610351562e+01 2.069249534606933594e+01 -1.989643722772598267e-01 1.005054712295532227e+00 2.418271005153656006e-01 5.306700468063354492e-01
7.369000000000000000e+03 5.727970504760742188e+01 1.197911357879638672e+01 3.496014475822448730e-01 8.271937370300292969e-01 3.530385494232177734e-01 -2.099113352596759796e-02
7.370000000000000000e+03 6.530980682373046875e+01 2.708326148986816406e+01 4.668861925601959229e-01 2.176875591278076172e+00 7.931285500526428223e-01 -9.380206465721130371e-02
7.371000000000000000e+03 3.731682205200195312e+01 -3.113072586059570312e+01 -4.803123325109481812e-02 -3.128577768802642822e-01 -1.082666963338851929e-01 -2.708358168601989746e-01
7.372000000000000000e+03 4.693351364135742188e+01 2.275767564773559570e+00 -9.420186281204223633e-01 -1.159802600741386414e-01 -3.173996806144714355e-01 2.867862284183502197e-01
7.373000000000000000e+03 6.650527191162109375e+01 -2.829296684265136719e+01 1.928538829088211060e-01 1.549600124359130859e+00 5.227361917495727539e-01 -5.720136165618896484e-01
7.374000000000000000e+03 6.616088867187500000e+01 2.372961616516113281e+01 4.374378025531768799e-01 1.507867097854614258e+00 5.835914611816406250e-01 -3.897562921047210693e-01
7.375000000000000000e+03 2.120382499694824219e+01 1.810988807678222656e+01 -2.550216615200042725e-01 -2.435613870620727539e-01 -1.495749205350875854e-01 1.009087413549423218e-01
7.376000000000000000e+03 2.120053291320800781e+01 1.702351188659667969e+01 -2.571878135204315186e-01 -2.245140671730041504e-01 -1.445105522871017456e-01 1.228803396224975586e-01
7.377000000000000000e+03 2.755500602722167969e+01 6.668957233428955078e+00 1.800711303949356079e-01 3.221893310546875000e-01 1.506781429052352905e-01 1.373847424983978271e-01
7.378000000000000000e+03 4.766338348388671875e+01 2.214013290405273438e+01 4.213643968105316162e-01 3.875670135021209717e-01 2.426794320344924927e-01 2.471989542245864868e-01
7.379000000000000000e+03 6.431593322753906250e+01 2.304804039001464844e+01 3.080390095710754395e-01 1.016575694084167480e+00 3.973844051361083984e-01 2.244780659675598145e-01
7.380000000000000000e+03 5.302620697021484375e+01 2.294383430480957031e+01 2.140549570322036743e-01 5.865941047668457031e-01 2.401947230100631714e-01 -1.380778253078460693e-01
7.381000000000000000e+03 5.516379547119140625e+01 2.150971794128417969e+01 1.816987544298171997e-01 4.935749769210815430e-01 2.025821208953857422e-01 -3.217838108539581299e-01
7.382000000000000000e+03 1.300470161437988281e+01 -1.127065753936767578e+01 -6.287071108818054199e-02 5.544327944517135620e-02 -2.228229306638240814e-03 -3.717313706874847412e-02
7.383000000000000000e+03 2.211914253234863281e+01 1.199750995635986328e+01 3.095007501542568207e-02 -1.786628961563110352e-01 -4.431384429335594177e-02 3.272265940904617310e-02
7.384000000000000000e+03 4.816716766357421875e+01 -2.667966461181640625e+01 3.434592485427856445e-01 4.275393486022949219e-01 2.312995791435241699e-01 -3.029564023017883301e-01
7.385000000000000000e+03 7.397366333007812500e+01 -1.589353084564208984e+01 -1.688818216323852539e+00 5.353323459625244141e+00 1.099351644515991211e+00 5.364163517951965332e-01
7.386000000000000000e+03 2.811106920242309570e+00 2.684884643554687500e+01 -8.223224431276321411e-02 -3.500049412250518799e-01 -1.296711564064025879e-01 1.174452230334281921e-01
7.387000000000000000e+03 6.631575775146484375e+01 -2.663000106811523438e+01 -5.393338203430175781e-01 1.463809728622436523e+00 2.773427665233612061e-01 -5.818452239036560059e-01
7.388000000000000000e+03 6.462094116210937500e+01 -2.581324958801269531e+01 -4.467834830284118652e-01 1.696381568908691406e+00 3.748794198036193848e-01 -5.235379934310913086e-01
7.389000000000000000e+03 5.367839050292968750e+01 -3.123454666137695312e+01 3.347838521003723145e-01 6.883535385131835938e-01 3.069412410259246826e-01 -1.434126943349838257e-01
7.390000000000000000e+03 5.386876296997070312e+01 -3.648131561279296875e+01 4.929734468460083008e-01 6.962434053421020508e-01 3.567650616168975830e-01 -7.062325626611709595e-02
7.391000000000000000e+03 5.452788543701171875e+01 -3.665718460083007812e+01 5.210048556327819824e-01 7.906123399734497070e-01 3.934851586818695068e-01 -1.555403321981430054e-01
7.392000000000000000e+03 5.986387252807617188e+01 -1.221515750885009766e+01 -1.657424211502075195e+00 1.479824539273977280e-02 -4.927877783775329590e-01 7.820678502321243286e-02
7.393000000000000000e+03 4.509440612792968750e+01 6.384578227996826172e+00 -9.379060268402099609e-01 -3.405243456363677979e-01 -3.835291266441345215e-01 4.946306943893432617e-01
7.394000000000000000e+03 6.683986663818359375e+01 -2.784372711181640625e+01 -2.340648323297500610e-03 1.340860486030578613e+00 4.015559554100036621e-01 -5.386617183685302734e-01
7.395000000000000000e+03 2.534470939636230469e+01 -2.883352279663085938e+01 2.562015950679779053e-01 -1.748019605875015259e-01 2.441988699138164520e-02 -1.332671046257019043e-01
7.396000000000000000e+03 3.012971878051757812e+01 -2.919066619873046875e+01 2.097031027078628540e-01 2.716592513024806976e-03 6.372591108083724976e-02 -1.431038230657577515e-01
7.397000000000000000e+03 6.455967712402343750e+01 1.751216173171997070e+00 -1.165884733200073242e+00 4.468577504158020020e-01 -2.157080918550491333e-01 -2.172033339738845825e-01
7.398000000000000000e+03 6.628218841552734375e+01 4.693561553955078125e+00 -2.357242256402969360e-01 9.215848892927169800e-02 -4.306972399353981018e-02 -8.248867392539978027e-01
7.399000000000000000e+03 6.651126098632812500e+01 3.397124862670898438e+01 4.267572462558746338e-01 2.745248317718505859e+00 9.516016244888305664e-01 -3.213090300559997559e-01
7.400000000000000000e+03 6.934963226318359375e+01 -2.897255516052246094e+01 6.954619884490966797e-01 1.524994134902954102e+00 6.661368608474731445e-01 5.700988769531250000e-01
7.401000000000000000e+03 5.926689529418945312e+01 -2.278610038757324219e+01 3.921833336353302002e-01 4.609380960464477539e-01 2.559364140033721924e-01 3.211901783943176270e-01
7.402000000000000000e+03 5.975263595581054688e+01 -2.202044105529785156e+01 5.169262886047363281e-01 5.171844959259033203e-01 3.102332353591918945e-01 2.586227655410766602e-01
7.403000000000000000e+03 5.863150787353515625e+01 -2.263317680358886719e+01 3.192590475082397461e-01 3.884593248367309570e-01 2.123155146837234497e-01 2.735894918441772461e-01
7.404000000000000000e+03 1.170272636413574219e+01 2.054617118835449219e+01 -1.950934343039989471e-02 1.073464378714561462e-01 2.635112777352333069e-02 2.777075171470642090e-01
7.405000000000000000e+03 4.830513000488281250e+01 -1.397221183776855469e+01 -8.488241434097290039e-01 -4.042374435812234879e-03 -2.558599710464477539e-01 -4.039806127548217773e-01
7.406000000000000000e+03 5.417253875732421875e+01 -3.733858489990234375e+01 5.696657299995422363e-01 6.552973985671997070e-01 3.674889504909515381e-01 -8.925436437129974365e-02
7.407000000000000000e+03 1.854067420959472656e+01 3.422596740722656250e+01 2.711710333824157715e-02 -3.211514353752136230e-01 -8.821029961109161377e-02 1.279282718896865845e-01
7.408000000000000000e+03 4.502144241333007812e+01 -2.552436447143554688e+01 2.427741736173629761e-01 2.228278368711471558e-01 1.396805942058563232e-01 -2.559910714626312256e-01
7.409000000000000000e+03 4.193135261535644531e+00 -4.383475780487060547e+00 6.540421862155199051e-03 -3.849318716675043106e-03 8.073309436440467834e-04 1.210859883576631546e-02
7.410000000000000000e+03 2.071920394897460938e+00 3.683051681518554688e+01 2.438136935234069824e-02 -5.980046391487121582e-01 -1.720869839191436768e-01 -5.119864828884601593e-03
7.411000000000000000e+03 2.742947769165039062e+01 1.346905517578125000e+01 -1.238056197762489319e-01 5.783485621213912964e-02 -1.979123055934906006e-02 2.176848948001861572e-01
7.412000000000000000e+03 4.557971954345703125e+01 -1.591563415527343750e+01 -8.144439458847045898e-01 -1.856154799461364746e-01 -3.000178039073944092e-01 -1.094813793897628784e-01
7.413000000000000000e+03 5.506147766113281250e+01 -3.776963806152343750e+01 5.988554954528808594e-01 7.118021845817565918e-01 3.931972980499267578e-01 -1.654940247535705566e-01
7.414000000000000000e+03 1.124812030792236328e+01 4.543385028839111328e+00 -1.553715914487838745e-01 -1.070587709546089172e-01 -7.872910797595977783e-02 8.943714946508407593e-02
7.415000000000000000e+03 3.293414592742919922e+00 -3.680855941772460938e+01 3.281256882473826408e-03 -2.071399539709091187e-01 -6.115761026740074158e-02 -7.469569146633148193e-02
7.416000000000000000e+03 1.101523685455322266e+01 -3.011077880859375000e+01 -1.284846514463424683e-01 -2.228021919727325439e-01 -1.053860560059547424e-01 -1.279223710298538208e-01
7.417000000000000000e+03 3.452848434448242188e+01 1.563065242767333984e+01 1.438718587160110474e-01 -4.571168422698974609e-01 -9.397349506616592407e-02 5.230213999748229980e-01
7.418000000000000000e+03 6.518726348876953125e+01 -1.309595775604248047e+01 -1.622976660728454590e+00 9.761430025100708008e-01 -1.940501183271408081e-01 3.353270292282104492e-01
7.419000000000000000e+03 4.785242080688476562e+01 3.343319702148437500e+01 3.365800380706787109e-01 3.499307930469512939e-01 2.059532403945922852e-01 -6.134175136685371399e-02
7.420000000000000000e+03 3.418807220458984375e+01 1.599632740020751953e+01 2.571559548377990723e-01 -3.839869201183319092e-01 -3.804928809404373169e-02 5.232744216918945312e-01
7.421000000000000000e+03 5.747689819335937500e+01 1.586363697052001953e+01 2.756943106651306152e-01 9.266760349273681641e-01 3.607110977172851562e-01 -2.990088164806365967e-01
7.422000000000000000e+03 6.709851837158203125e+01 2.547787094116210938e+01 4.830104410648345947e-01 2.209469079971313477e+00 8.077438473701477051e-01 -5.548884868621826172e-01
7.423000000000000000e+03 3.202380752563476562e+01 -1.116059589385986328e+01 -2.376671433448791504e-01 -2.784458994865417480e-01 -1.548339128494262695e-01 -7.902514934539794922e-02
7.424000000000000000e+03 5.091516494750976562e+00 -1.329464912414550781e+01 -4.228699579834938049e-02 -6.751883774995803833e-02 -3.294174745678901672e-02 -2.786853164434432983e-02
7.425000000000000000e+03 3.411421585083007812e+01 1.959728622436523438e+01 2.094064950942993164e-01 -4.518445730209350586e-01 -7.273142784833908081e-02 5.123153328895568848e-01
7.426000000000000000e+03 4.371957397460937500e+01 9.296928405761718750e+00 -7.728082537651062012e-01 -2.078948616981506348e-01 -2.942109405994415283e-01 6.608939766883850098e-01
7.427000000000000000e+03 4.468396377563476562e+01 2.055752754211425781e+01 4.299769401550292969e-01 4.179641306400299072e-01 2.543823122978210449e-01 2.175767123699188232e-01
7.428000000000000000e+03 4.940308761596679688e+01 -6.901896953582763672e+00 -2.667294442653656006e-01 1.725689321756362915e-01 -2.824814803898334503e-02 2.832915782928466797e-01
7.429000000000000000e+03 6.459036254882812500e+01 -1.314291954040527344e+01 -1.544812202453613281e+00 1.104234099388122559e+00 -1.321734338998794556e-01 2.020497322082519531e-01
7.430000000000000000e+03 1.842786216735839844e+01 2.147664260864257812e+01 5.806822702288627625e-02 3.365477547049522400e-02 2.751690149307250977e-02 9.550285339355468750e-02
7.431000000000000000e+03 2.531944084167480469e+01 -1.610219764709472656e+01 -3.891532719135284424e-01 -1.774585396051406860e-01 -1.699835509061813354e-01 -1.743236333131790161e-01
7.432000000000000000e+03 5.737905883789062500e+01 -2.232441520690917969e+01 1.789862513542175293e-01 2.285114228725433350e-01 1.222492977976799011e-01 1.717049628496170044e-01
7.433000000000000000e+03 6.731993865966796875e+01 -2.806365776062011719e+01 1.795657724142074585e-01 1.160380005836486816e+00 4.019837081432342529e-01 -4.171713888645172119e-01
7.434000000000000000e+03 7.784148406982421875e+01 -9.298050880432128906e+00 1.034819960594177246e+00 1.019928264617919922e+01 3.370230674743652344e+00 -1.463091492652893066e+00
7.435000000000000000e+03 6.644835662841796875e+01 4.203149318695068359e+00 -2.604456841945648193e-01 4.383205249905586243e-02 -6.498409062623977661e-02 -7.188326716423034668e-01
7.436000000000000000e+03 5.485849380493164062e+01 -1.301670169830322266e+01 -1.112280488014221191e+00 -1.367609202861785889e-01 -3.747124075889587402e-01 -5.490899085998535156e-01
7.437000000000000000e+03 5.543594741821289062e+01 -1.447235107421875000e+01 -5.254377126693725586e-01 -1.042285710573196411e-01 -1.888998746871948242e-01 -4.248897731304168701e-01
7.438000000000000000e+03 2.720270395278930664e+00 2.624432563781738281e+01 -8.004835247993469238e-02 -3.375850617885589600e-01 -1.252900213003158569e-01 9.045599400997161865e-02
7.439000000000000000e+03 6.508760833740234375e+01 2.791791200637817383e+00 -8.419094085693359375e-01 3.634122908115386963e-01 -1.435491293668746948e-01 -3.970065414905548096e-01
7.440000000000000000e+03 5.796756744384765625e+01 9.074503898620605469e+00 5.379179716110229492e-01 6.260116696357727051e-01 3.491788804531097412e-01 2.292073071002960205e-01
7.441000000000000000e+03 1.514451599121093750e+01 -1.203034591674804688e+01 -7.860109955072402954e-02 1.068767607212066650e-01 8.482697419822216034e-03 4.145486280322074890e-03
7.442000000000000000e+03 2.599997138977050781e+01 -2.008139038085937500e+01 -1.322870254516601562e-01 -1.772795021533966064e-01 -9.286995977163314819e-02 -1.621356755495071411e-01
7.443000000000000000e+03 1.657034492492675781e+01 -2.331081199645996094e+01 -5.242529883980751038e-02 -2.117618024349212646e-01 -7.925613224506378174e-02 -2.248270660638809204e-01
7.444000000000000000e+03 3.304149246215820312e+01 -8.986881256103515625e+00 -5.302570760250091553e-02 -1.459925174713134766e-01 -5.970546975731849670e-02 -1.901880949735641479e-01
7.445000000000000000e+03 7.218642425537109375e+01 -2.839044570922851562e+01 3.099815547466278076e-02 3.995343923568725586e+00 1.207902669906616211e+00 1.700707197189331055e+00
7.446000000000000000e+03 7.269731140136718750e+01 -2.874705314636230469e+01 -1.988945156335830688e-02 4.645977020263671875e+00 1.387826323509216309e+00 1.602305412292480469e+00
7.447000000000000000e+03 1.279444885253906250e+01 -1.035122013092041016e+01 -5.769577622413635254e-02 3.693104907870292664e-02 -6.229418329894542694e-03 -3.545781597495079041e-02
7.448000000000000000e+03 6.440460968017578125e+01 -1.252382278442382812e+01 -1.766509175300598145e+00 1.009846329689025879e+00 -2.269988358020782471e-01 2.474947869777679443e-01
7.449000000000000000e+03 5.904494857788085938e+01 -1.745215225219726562e+01 4.743915200233459473e-01 6.549537181854248047e-02 1.619660705327987671e-01 -1.672496646642684937e-01
7.450000000000000000e+03 5.831656265258789062e+01 -1.812337875366210938e+01 5.112522840499877930e-01 -2.169136889278888702e-02 1.468682736158370972e-01 -2.103817760944366455e-01
7.451000000000000000e+03 5.132795715332031250e+01 -1.116712474822998047e+01 -8.680591583251953125e-01 1.016298010945320129e-01 -2.299288064241409302e-01 -4.386700987815856934e-01
7.452000000000000000e+03 6.402804565429687500e+01 2.240655136108398438e+01 1.392022520303726196e-01 8.474329710006713867e-01 2.959905564785003662e-01 3.261022269725799561e-01
7.453000000000000000e+03 2.993712425231933594e+01 -1.421356487274169922e+01 -4.697282314300537109e-01 -2.677009701728820801e-01 -2.212287634611129761e-01 -1.413658112287521362e-01
7.454000000000000000e+03 5.224936294555664062e+01 -2.706283950805664062e+01 3.524053096771240234e-01 2.053868770599365234e-01 1.673376560211181641e-01 -1.891536563634872437e-01
7.455000000000000000e+03 3.454265594482421875e+01 -5.001205921173095703e+00 -1.413518637418746948e-01 1.035481840372085571e-01 -1.134110428392887115e-02 -2.601453959941864014e-01
7.456000000000000000e+03 1.897753906250000000e+01 2.194018554687500000e+01 1.148679628968238831e-01 -1.179943978786468506e-02 3.092055767774581909e-02 9.171470999717712402e-02
7.457000000000000000e+03 3.020684623718261719e+01 -3.313530731201171875e+01 5.315301194787025452e-02 -4.862983524799346924e-02 1.356953172944486141e-03 -1.733466833829879761e-01
7.458000000000000000e+03 3.269293594360351562e+01 -6.760363101959228516e+00 -3.136667236685752869e-02 -1.320519596338272095e-01 -4.902559146285057068e-02 -2.704990506172180176e-01
7.459000000000000000e+03 6.082209014892578125e+01 1.961560440063476562e+01 -6.684765219688415527e-02 1.154249191284179688e+00 3.262204527854919434e-01 2.716552019119262695e-01
7.460000000000000000e+03 3.259960174560546875e+01 -1.242958736419677734e+01 -3.457896709442138672e-01 -2.105517089366912842e-01 -1.669024229049682617e-01 -4.217322915792465210e-02
7.461000000000000000e+03 6.319612503051757812e+01 1.709797978401184082e+00 -1.391628265380859375e+00 5.601419806480407715e-01 -2.494458854198455811e-01 -1.421450078487396240e-01
7.462000000000000000e+03 2.384624290466308594e+01 6.862329006195068359e+00 1.496216654777526855e-01 -1.352038383483886719e-01 4.325351212173700333e-03 1.412609517574310303e-01
7.463000000000000000e+03 3.278798294067382812e+01 -1.029498195648193359e+01 -1.304790824651718140e-01 -1.947075873613357544e-01 -9.755600243806838989e-02 -1.197420805692672729e-01
7.464000000000000000e+03 3.274914932250976562e+01 -9.878782272338867188e+00 -1.112168133258819580e-01 -1.989447325468063354e-01 -9.304846078157424927e-02 -1.342149674892425537e-01
7.465000000000000000e+03 2.684506797790527344e+01 3.363643169403076172e+00 -3.347140252590179443e-01 1.146557778120040894e-01 -6.601747125387191772e-02 1.883244514465332031e-01
7.466000000000000000e+03 6.399736404418945312e+01 -1.214534187316894531e+01 -1.847391963005065918e+00 9.500306844711303711e-01 -2.692084014415740967e-01 2.160255312919616699e-01
7.467000000000000000e+03 6.393638992309570312e+01 -1.332354640960693359e+01 -1.397678613662719727e+00 1.103633761405944824e+00 -8.821345865726470947e-02 1.133261322975158691e-01
7.468000000000000000e+03 5.754991531372070312e+00 3.507766723632812500e+01 1.571290343999862671e-01 -2.005399465560913086e-01 -1.302327401936054230e-02 1.828915439546108246e-02
7.469000000000000000e+03 2.993390798568725586e+00 3.816637039184570312e+01 1.024489197880029678e-02 -4.999451935291290283e-01 -1.469101011753082275e-01 -1.385906524956226349e-02
7.470000000000000000e+03 3.562071228027343750e+01 2.067885589599609375e+01 1.610814481973648071e-01 -5.908164381980895996e-01 -1.289204955101013184e-01 4.784196019172668457e-01
7.471000000000000000e+03 6.895484924316406250e+01 4.142107963562011719e+00 7.579634338617324829e-02 1.602474898099899292e-01 7.081314921379089355e-02 -5.192031860351562500e-01
7.472000000000000000e+03 4.933411788940429688e+01 3.437534332275390625e+01 4.062408506870269775e-01 5.304703116416931152e-01 2.810133695602416992e-01 -2.729346975684165955e-02
7.473000000000000000e+03 4.094150161743164062e+01 1.164217853546142578e+01 -6.004085540771484375e-01 -3.589156568050384521e-01 -2.877972722053527832e-01 5.633297562599182129e-01
7.474000000000000000e+03 7.731362152099609375e+01 -2.040954971313476562e+01 5.535165220499038696e-02 8.920682907104492188e+00 2.692810297012329102e+00 1.519788265228271484e+00
7.475000000000000000e+03 1.908351135253906250e+01 -1.888661956787109375e+01 -1.930298060178756714e-01 -3.339514508843421936e-02 -6.792748719453811646e-02 -3.006199300289154053e-01
7.476000000000000000e+03 2.526447677612304688e+01 1.196968650817871094e+01 6.660530716180801392e-02 -1.041801720857620239e-01 -1.127245742827653885e-02 7.772050052881240845e-02
7.477000000000000000e+03 6.360821533203125000e+01 2.408537387847900391e+00 -1.186276912689208984e+00 5.921140313148498535e-01 -1.782488524913787842e-01 -2.840214371681213379e-01
7.478000000000000000e+03 2.556318473815917969e+01 -2.029106712341308594e+01 -1.186473369598388672e-01 -1.505803167819976807e-01 -8.076829463243484497e-02 -1.668049842119216919e-01
7.479000000000000000e+03 2.694223022460937500e+01 -2.636845207214355469e+01 2.779600322246551514e-01 -1.538022160530090332e-01 3.724734112620353699e-02 -1.313644051551818848e-01
7.480000000000000000e+03 5.256189727783203125e+01 -2.950995254516601562e+01 3.859444856643676758e-01 4.258542656898498535e-01 2.435396313667297363e-01 -1.983195394277572632e-01
7.481000000000000000e+03 2.221525192260742188e+01 8.371488571166992188e+00 2.172390371561050415e-01 -1.823211312294006348e-01 1.047536917030811310e-02 1.105955243110656738e-01
7.482000000000000000e+03 5.898942184448242188e+01 -1.818202972412109375e+01 5.577847361564636230e-01 9.941261261701583862e-02 1.971592009067535400e-01 -1.392098069190979004e-01
7.483000000000000000e+03 2.552752113342285156e+01 -1.974277114868164062e+01 -1.598675101995468140e-01 -1.567639857530593872e-01 -9.498944878578186035e-02 -1.707350164651870728e-01
7.484000000000000000e+03 7.083884429931640625e+01 3.579871416091918945e+00 -3.970766812562942505e-02 1.558157563209533691e+00 4.555349647998809814e-01 -6.381326913833618164e-01
7.485000000000000000e+03 7.749870300292968750e+01 -1.279687690734863281e+01 -7.472640275955200195e-01 1.053958034515380859e+01 2.937694787979125977e+00 -1.513182759284973145e+00
7.486000000000000000e+03 7.757057189941406250e+01 -1.353006267547607422e+01 -8.078719973564147949e-01 1.039846992492675781e+01 2.877179384231567383e+00 -1.140856981277465820e+00
7.487000000000000000e+03 2.295808601379394531e+01 -2.069783210754394531e+01 -1.259765774011611938e-01 -5.309645459055900574e-02 -5.372191220521926880e-02 -2.041809707880020142e-01
7.488000000000000000e+03 1.222327995300292969e+01 -6.643026828765869141e+00 -8.899345993995666504e-03 -1.021782867610454559e-03 -2.976338844746351242e-03 -1.986015960574150085e-02
7.489000000000000000e+03 8.489043235778808594e+00 3.895775794982910156e+00 -7.331442832946777344e-02 -4.138885810971260071e-02 -3.441098704934120178e-02 3.823215607553720474e-03
7.490000000000000000e+03 8.595029830932617188e+00 5.068592071533203125e+00 -1.301041692495346069e-01 -6.205276772379875183e-02 -5.764707922935485840e-02 2.818831987679004669e-02
7.491000000000000000e+03 5.910919952392578125e+01 -2.053483772277832031e+01 5.409073233604431152e-01 3.344131708145141602e-01 2.625961303710937500e-01 5.184663087129592896e-02
7.492000000000000000e+03 5.954835891723632812e+01 -2.068838691711425781e+01 5.820854306221008301e-01 3.898953199386596680e-01 2.915942072868347168e-01 9.913214296102523804e-02
7.493000000000000000e+03 2.169845342636108398e+00 3.101319503784179688e+01 2.315687760710716248e-02 -4.817941784858703613e-01 -1.375911980867385864e-01 1.513628959655761719e-01
7.494000000000000000e+03 2.400107955932617188e+01 1.114642143249511719e+01 1.303249299526214600e-01 -1.554620712995529175e-01 -7.541140541434288025e-03 6.405474990606307983e-02
7.495000000000000000e+03 5.049470138549804688e+01 3.024548339843750000e+01 2.275949120521545410e-01 8.330414295196533203e-01 3.181909024715423584e-01 1.129010692238807678e-01
7.496000000000000000e+03 5.028040695190429688e+01 3.088042640686035156e+01 2.457926869392395020e-01 7.813501358032226562e-01 3.081428408622741699e-01 8.015564084053039551e-02
7.497000000000000000e+03 5.770908832550048828e+00 -8.758381843566894531e+00 -3.847116604447364807e-03 -3.560039401054382324e-02 -1.183425355702638626e-02 5.876103416085243225e-03
7.498000000000000000e+03 2.253335189819335938e+01 7.044245719909667969e+00 1.505431383848190308e-01 -1.712405383586883545e-01 -6.209219805896282196e-03 1.166697293519973755e-01
7.499000000000000000e+03 7.777245330810546875e+01 -4.150762081146240234e+00 2.232985496520996094e-01 1.045459270477294922e+01 3.203367471694946289e+00 1.738415241241455078e+00
7.500000000000000000e+03 2.922793149948120117e+00 3.701776885986328125e+01 2.861437760293483734e-02 -4.958417415618896484e-01 -1.401682198047637939e-01 -5.318587180227041245e-03
7.501000000000000000e+03 4.011710357666015625e+01 1.371293735504150391e+01 -2.113750874996185303e-01 -5.008400678634643555e-01 -2.136645466089248657e-01 3.936955928802490234e-01
7.502000000000000000e+03 5.937119674682617188e+01 -2.108142852783203125e+01 5.117380619049072266e-01 3.972190618515014648e-01 2.726871371269226074e-01 1.221374943852424622e-01
7.503000000000000000e+03 7.719218444824218750e+01 -3.522814559936523438e+01 3.255459666252136230e-02 6.354469299316406250e+00 1.916107177734375000e+00 2.904226183891296387e-01
7.504000000000000000e+03 7.219611358642578125e+01 1.831767272949218750e+01 2.055074870586395264e-01 5.761834144592285156e+00 1.790202379226684570e+00 -1.106590628623962402e+00
7.505000000000000000e+03 1.041922187805175781e+01 -3.144990539550781250e+01 -1.254566460847854614e-01 -1.961954832077026367e-01 -9.649564325809478760e-02 -1.355164349079132080e-01
7.506000000000000000e+03 3.529973220825195312e+01 2.107654762268066406e+01 9.018041938543319702e-02 -5.770743489265441895e-01 -1.460681855678558350e-01 4.595472812652587891e-01
7.507000000000000000e+03 5.969886779785156250e+01 -1.564289474487304688e+01 -5.389157682657241821e-02 6.188449636101722717e-02 2.397876698523759842e-03 -1.250479370355606079e-01
7.508000000000000000e+03 7.437705993652343750e+01 1.194008064270019531e+01 4.785288870334625244e-01 6.966688156127929688e+00 2.233565092086791992e+00 -1.464572787284851074e+00
7.509000000000000000e+03 7.480750274658203125e+01 1.175413131713867188e+01 3.914821743965148926e-01 7.017467498779296875e+00 2.222684860229492188e+00 -1.469196796417236328e+00
7.510000000000000000e+03 2.712133598327636719e+01 -2.894173049926757812e+01 2.341547012329101562e-01 -1.589546650648117065e-01 2.256001159548759460e-02 -1.448466777801513672e-01
7.511000000000000000e+03 1.285038089752197266e+01 -2.728511047363281250e+01 -4.719174280762672424e-02 -2.904768586158752441e-01 -1.013005822896957397e-01 -1.497552543878555298e-01
7.512000000000000000e+03 6.044587326049804688e+01 -1.429276752471923828e+01 -6.359876394271850586e-01 2.760034203529357910e-01 -1.079952567815780640e-01 -6.264615803956985474e-02
7.513000000000000000e+03 2.525991630554199219e+01 -2.155994796752929688e+01 -4.234210029244422913e-02 -1.270572245121002197e-01 -5.081979557871818542e-02 -1.620945334434509277e-01
7.514000000000000000e+03 4.994846343994140625e+01 3.034576988220214844e+01 2.073050737380981445e-01 7.404600381851196289e-01 2.843295335769653320e-01 9.309818595647811890e-02
7.515000000000000000e+03 2.364681625366210938e+01 4.655865669250488281e+00 -1.331656426191329956e-01 -1.073973178863525391e-01 -7.216888666152954102e-02 1.766132265329360962e-01
7.516000000000000000e+03 1.973574829101562500e+01 -1.936340904235839844e+01 -1.999898552894592285e-01 -2.373361960053443909e-02 -6.711704283952713013e-02 -2.865893244743347168e-01
7.517000000000000000e+03 7.677124786376953125e+01 -6.816260814666748047e+00 1.568633437156677246e+00 1.428531360626220703e+01 4.756184101104736328e+00 2.060230970382690430e-01
7.518000000000000000e+03 7.697296905517578125e+01 -1.962921905517578125e+01 -2.841191589832305908e-01 8.972007751464843750e+00 2.606366634368896484e+00 1.583600163459777832e+00
7.519000000000000000e+03 1.124687290191650391e+01 -2.651766586303710938e+01 -3.969824314117431641e-02 -1.867348551750183105e-01 -6.792993098497390747e-02 -1.391749531030654907e-01
7.520000000000000000e+03 8.957428932189941406e+00 4.623520851135253906e+00 -1.197638809680938721e-01 -6.281552463769912720e-02 -5.477382242679595947e-02 2.364699728786945343e-02
7.521000000000000000e+03 1.994605255126953125e+01 -1.739526367187500000e+01 -1.886184811592102051e-01 -6.059863790869712830e-02 -7.476513087749481201e-02 -2.472573518753051758e-01
7.522000000000000000e+03 9.453125953674316406e+00 -4.928008079528808594e+00 5.961032584309577942e-03 -1.686524413526058197e-02 -3.271263325586915016e-03 -1.276554819196462631e-02
7.523000000000000000e+03 5.932083129882812500e+01 1.951819038391113281e+01 8.159955590963363647e-02 9.948582649230957031e-01 3.229373395442962646e-01 9.182787500321865082e-03
7.524000000000000000e+03 4.045418167114257812e+01 1.613017654418945312e+01 1.729958802461624146e-01 -3.529508411884307861e-01 -5.398648977279663086e-02 3.287909328937530518e-01
7.525000000000000000e+03 9.909912109375000000e+00 -2.659902191162109375e+01 -5.175253376364707947e-02 -1.079136803746223450e-01 -4.789986461400985718e-02 -1.123453006148338318e-01
7.526000000000000000e+03 7.530045318603515625e+01 8.045568466186523438e+00 -5.145685076713562012e-01 7.155463218688964844e+00 1.992268443107604980e+00 -1.162521839141845703e+00
7.527000000000000000e+03 2.012488746643066406e+01 -1.789327239990234375e+01 -2.013465166091918945e-01 -5.324567854404449463e-02 -7.637766003608703613e-02 -2.696231603622436523e-01
7.528000000000000000e+03 5.539310932159423828e+00 -9.458531379699707031e+00 -7.555203046649694443e-03 -3.958358243107795715e-02 -1.414163596928119659e-02 5.163287743926048279e-03
7.529000000000000000e+03 9.215097427368164062e+00 -4.401012420654296875e+00 5.633425898849964142e-03 -1.464345119893550873e-02 -2.703007543459534645e-03 -1.064423937350511551e-02
7.530000000000000000e+03 7.622329711914062500e+01 -1.897762680053710938e+01 -6.942589282989501953e-01 8.588273048400878906e+00 2.368204116821289062e+00 1.528384327888488770e+00
7.531000000000000000e+03 7.631870269775390625e+01 1.197511482238769531e+01 2.910869717597961426e-01 7.330171585083007812e+00 2.286377429962158203e+00 -1.306622624397277832e+00
7.532000000000000000e+03 7.657277679443359375e+01 -1.862137413024902344e+01 -7.646667957305908203e-01 8.874105453491210938e+00 2.432831525802612305e+00 1.365930676460266113e+00
7.533000000000000000e+03 3.964532089233398438e+01 1.407686424255371094e+01 -1.617634147405624390e-01 -5.634145736694335938e-01 -2.175533920526504517e-01 3.809189200401306152e-01
7.534000000000000000e+03 7.503388977050781250e+01 1.220482349395751953e+01 5.011515021324157715e-01 7.032617092132568359e+00 2.260130643844604492e+00 -1.448157072067260742e+00
7.535000000000000000e+03 7.322264099121093750e+01 3.883373498916625977e+00 -4.496558606624603271e-01 4.576013565063476562e+00 1.237907290458679199e+00 -7.647740244865417480e-01
7.536000000000000000e+03 7.703784179687500000e+01 1.441516780853271484e+01 3.904809355735778809e-01 6.986152648925781250e+00 2.212990045547485352e+00 -6.909904479980468750e-01
7.537000000000000000e+03 7.647842407226562500e+01 1.256030464172363281e+01 3.523586094379425049e-01 7.276996612548828125e+00 2.288806676864624023e+00 -1.196505665779113770e+00
7.538000000000000000e+03 7.614133453369140625e+01 1.765318107604980469e+01 2.402846366167068481e-01 6.545397758483886719e+00 2.035704851150512695e+00 -2.287233471870422363e-01
7.539000000000000000e+03 3.497018098831176758e+00 3.479868316650390625e+01 8.179071545600891113e-02 -4.417173564434051514e-01 -1.079779863357543945e-01 4.508104175329208374e-02
7.540000000000000000e+03 4.581432342529296875e+00 2.198801994323730469e+01 -2.552065812051296234e-02 -3.181624114513397217e-01 -1.031049191951751709e-01 -2.510017249733209610e-03
7.541000000000000000e+03 5.868738937377929688e+01 1.851892662048339844e+01 1.623032540082931519e-01 1.007714271545410156e+00 3.510052561759948730e-01 -1.381318420171737671e-01
7.542000000000000000e+03 7.380746459960937500e+01 -3.122407341003417969e+01 4.852703586220741272e-02 5.153245449066162109e+00 1.560531854629516602e+00 9.232943058013916016e-01
7.543000000000000000e+03 4.542430400848388672e+00 -7.231336116790771484e+00 2.610484138131141663e-03 -1.321316324174404144e-02 -3.180803731083869934e-03 1.372930221259593964e-02
7.544000000000000000e+03 7.566469669342041016e+00 -5.233492851257324219e+00 6.409128196537494659e-03 -2.027179300785064697e-02 -4.158799536526203156e-03 -2.587192924693226814e-03
7.545000000000000000e+03 7.029086303710937500e+01 2.827741622924804688e+01 2.721370160579681396e-01 3.522967576980590820e+00 1.138531327247619629e+00 -6.490378975868225098e-01
7.546000000000000000e+03 5.458484172821044922e+00 -3.027150535583496094e+01 -5.718533322215080261e-02 -9.890756756067276001e-02 -4.682787135243415833e-02 -6.185514479875564575e-02
7.547000000000000000e+03 6.281237125396728516e+00 -5.492207050323486328e+00 6.220639683306217194e-03 -1.672738790512084961e-02 -3.152024233713746071e-03 5.226143170148134232e-03
7.548000000000000000e+03 3.930678606033325195e+00 1.035661029815673828e+01 -4.538540169596672058e-02 -5.992681160569190979e-02 -3.159366175532341003e-02 1.196362227201461792e-01
7.549000000000000000e+03 7.073933410644531250e+01 2.898502731323242188e+01 2.669489681720733643e-01 3.666651964187622070e+00 1.180080294609069824e+00 -6.083517074584960938e-01
7.550000000000000000e+03 7.559037017822265625e+01 7.213277339935302734e+00 -5.029271841049194336e-01 7.334919929504394531e+00 2.049597740173339844e+00 -1.020995616912841797e+00
7.551000000000000000e+03 7.460546112060546875e+01 2.057591629028320312e+01 -1.526639014482498169e-01 5.918580532073974609e+00 1.729774951934814453e+00 -4.474152922630310059e-01
7.552000000000000000e+03 6.297758865356445312e+01 -3.427310466766357422e+00 5.622494965791702271e-02 3.535854339133948088e-04 1.697356067597866058e-02 8.820525370538234711e-03
7.553000000000000000e+03 6.430092620849609375e+01 -4.072709083557128906e+00 2.109594829380512238e-02 -6.336728576570749283e-03 4.427765961736440659e-03 -1.980686187744140625e-02
7.554000000000000000e+03 6.615777587890625000e+01 -2.918966054916381836e+00 -2.232796046882867813e-03 4.334003315307199955e-04 -5.398187204264104366e-04 5.460391403175890446e-04
7.555000000000000000e+03 6.357865905761718750e+01 -4.003059387207031250e+00 2.984513342380523682e-02 -2.022422291338443756e-02 2.886273432523012161e-03 -1.340017933398485184e-02
7.556000000000000000e+03 6.542019653320312500e+01 -3.088247299194335938e+00 3.795785829424858093e-03 7.651185151189565659e-04 1.368271303363144398e-03 -3.015711205080151558e-03
7.557000000000000000e+03 6.457591247558593750e+01 -3.285033226013183594e+00 1.955065876245498657e-02 9.752428159117698669e-04 6.157770752906799316e-03 -6.848439108580350876e-03
7.558000000000000000e+03 6.687069702148437500e+01 -2.854792594909667969e+00 -4.165158898103982210e-04 -2.460031246300786734e-04 -1.987557043321430683e-04 3.255812625866383314e-04
7.559000000000000000e+03 6.516509246826171875e+01 -4.016923427581787109e+00 4.524354822933673859e-03 6.916871294379234314e-03 3.432367695495486259e-03 -1.823694631457328796e-02
7.560000000000000000e+03 6.375104141235351562e+01 -3.356088638305664062e+00 4.326384142041206360e-02 -6.667976733297109604e-03 1.097876019775867462e-02 -2.735320013016462326e-03
7.561000000000000000e+03 6.298404693603515625e+01 -3.924177885055541992e+00 3.382150456309318542e-02 -6.936374586075544357e-03 8.065539412200450897e-03 8.668123744428157806e-03
7.562000000000000000e+03 6.308998107910156250e+01 -4.404487609863281250e+00 3.246786445379257202e-02 -2.936114743351936340e-02 9.320148383267223835e-04 -1.385789248161017895e-03
7.563000000000000000e+03 6.598447418212890625e+01 -3.973387718200683594e+00 -3.100919537246227264e-03 9.477004408836364746e-03 1.912825391627848148e-03 -3.673560218885540962e-03
7.564000000000000000e+03 6.643041992187500000e+01 -3.377655744552612305e+00 2.231346443295478821e-03 5.124705494381487370e-04 8.231450919993221760e-04 -1.417530467733740807e-03
7.565000000000000000e+03 6.573755645751953125e+01 -3.370942831039428711e+00 7.393814623355865479e-03 1.847019535489380360e-03 2.772250212728977203e-03 -1.941687427461147308e-03
7.566000000000000000e+03 1.704789733886718750e+01 2.184620499610900879e-01 -2.774238586425781250e-02 -4.156664479523897171e-03 -9.569715708494186401e-03 -1.213160622864961624e-02
7.567000000000000000e+03 1.772966766357421875e+01 2.638264298439025879e-01 -2.305070869624614716e-02 9.668083861470222473e-03 -4.014787264168262482e-03 1.798155833967030048e-03
7.568000000000000000e+03 1.636662292480468750e+01 1.679807603359222412e-01 -2.257278561592102051e-02 3.965984564274549484e-03 -5.582040641456842422e-03 -6.615541875362396240e-03
7.569000000000000000e+03 1.841096687316894531e+01 3.041588366031646729e-01 -4.407443851232528687e-02 -2.251212717965245247e-03 -1.389769557863473892e-02 -1.650246232748031616e-02
7.570000000000000000e+03 1.773421287536621094e+01 1.005771040916442871e+00 -4.554789140820503235e-02 -1.340462546795606613e-02 -1.768575422465801239e-02 -7.668691687285900116e-03
7.571000000000000000e+03 1.700853157043457031e+01 9.574801325798034668e-01 -3.962128981947898865e-02 8.031236007809638977e-03 -9.477016516029834747e-03 -3.570212516933679581e-03
7.572000000000000000e+03 1.845942306518554688e+01 1.049030065536499023e+00 -3.928373754024505615e-02 2.696708403527736664e-02 -3.694996703416109085e-03 7.392982020974159241e-03
7.573000000000000000e+03 1.628334617614746094e+01 9.040722846984863281e-01 -3.436866030097007751e-02 -4.725691396743059158e-03 -1.172830630093812943e-02 -6.442450452595949173e-03
7.574000000000000000e+03 1.987107276916503906e+01 4.345702007412910461e-02 -5.741918087005615234e-02 4.727370664477348328e-02 -3.043642034754157066e-03 -1.317416969686746597e-02
7.575000000000000000e+03 2.072495651245117188e+01 6.014696359634399414e-01 -6.498518586158752441e-02 -1.159692779183387756e-01 -5.428633838891983032e-02 -3.211978077888488770e-02
7.576000000000000000e+03 2.293786239624023438e+01 -3.050775229930877686e-01 8.866985887289047241e-02 9.335266426205635071e-03 2.940153703093528748e-02 2.755032107234001160e-02
7.577000000000000000e+03 2.312017631530761719e+01 1.445127129554748535e-01 -2.024056464433670044e-01 2.364034019410610199e-02 -5.362958833575248718e-02 7.871560752391815186e-03
7.578000000000000000e+03 2.395331382751464844e+01 3.362258896231651306e-02 -2.718629837036132812e-01 -3.416128084063529968e-02 -9.180728346109390259e-02 9.987507760524749756e-02
7.579000000000000000e+03 2.684564208984375000e+01 -9.302700757980346680e-01 -7.809775322675704956e-02 -3.559454530477523804e-02 -3.410768881440162659e-02 7.889207452535629272e-03
7.580000000000000000e+03 2.751040458679199219e+01 -1.280374765396118164e+00 -3.102640993893146515e-02 2.478349953889846802e-02 -1.872873166576027870e-03 3.367841988801956177e-02
7.581000000000000000e+03 2.803494644165039062e+01 -1.810520648956298828e+00 -2.790803276002407074e-02 -1.780687086284160614e-02 -1.371447090059518814e-02 -1.550081558525562286e-02
7.582000000000000000e+03 2.932235717773437500e+01 -2.434976577758789062e+00 -2.526367828249931335e-02 -4.128068313002586365e-02 -1.996330916881561279e-02 2.446237253025174141e-03
7.583000000000000000e+03 1.912479972839355469e+01 2.294156253337860107e-01 -1.224480010569095612e-02 3.545761108398437500e-03 -2.609711838886141777e-03 1.311476062983274460e-02
7.584000000000000000e+03 2.147913932800292969e+01 4.466063976287841797e-01 -1.293086409568786621e-01 1.146747618913650513e-01 -4.390163347125053406e-03 1.716409437358379364e-02
7.585000000000000000e+03 2.857819366455078125e+01 -2.246380090713500977e+00 5.279679782688617706e-03 2.934822440147399902e-02 1.038837153464555740e-02 8.561233989894390106e-03
7.586000000000000000e+03 2.932799530029296875e+01 -1.671779394149780273e+00 -4.198686033487319946e-02 8.424636907875537872e-03 -1.006866712123155594e-02 1.385428477078676224e-02
7.587000000000000000e+03 3.012563133239746094e+01 -2.641122102737426758e+00 -3.755423426628112793e-02 -5.684587731957435608e-02 -2.832003310322761536e-02 -5.239426344633102417e-02
7.588000000000000000e+03 3.010111618041992188e+01 -1.870075702667236328e+00 -6.856733560562133789e-02 -3.659425675868988037e-02 -3.154847770929336548e-02 -1.262461114674806595e-02
7.589000000000000000e+03 2.615677833557128906e+01 -6.120481491088867188e-01 -1.235892698168754578e-01 2.012694068253040314e-02 -3.103869967162609100e-02 5.944819748401641846e-02
7.590000000000000000e+03 2.543780899047851562e+01 -3.434176146984100342e-01 -2.810855507850646973e-01 -9.294650703668594360e-02 -1.122096180915832520e-01 9.874653816223144531e-02
7.591000000000000000e+03 2.470047950744628906e+01 -1.143367812037467957e-01 -5.760250091552734375e-01 2.372858673334121704e-02 -1.656889319419860840e-01 1.474430561065673828e-01
7.592000000000000000e+03 2.226067733764648438e+01 2.969752848148345947e-01 -1.377335190773010254e-01 -6.946397572755813599e-02 -6.215925142168998718e-02 4.359331727027893066e-02
7.593000000000000000e+03 2.209705162048339844e+01 -1.917648315429687500e-01 4.559565335512161255e-02 -4.208966344594955444e-02 1.051796367391943932e-03 -4.929145798087120056e-02
7.594000000000000000e+03 2.060986137390136719e+01 -1.332322061061859131e-01 -7.661947607994079590e-02 -1.011111885309219360e-01 -5.331919714808464050e-02 -1.322550466284155846e-03
7.595000000000000000e+03 1.996829414367675781e+01 7.828119397163391113e-01 -3.786518424749374390e-02 6.686975061893463135e-02 8.701370097696781158e-03 4.618640989065170288e-02
7.596000000000000000e+03 1.920414733886718750e+01 9.734236001968383789e-01 -5.712034180760383606e-02 -3.450906276702880859e-02 -2.748882211744785309e-02 -1.014186628162860870e-02
7.597000000000000000e+03 2.861398124694824219e+01 -1.491032123565673828e+00 -5.910122767090797424e-02 -3.261969238519668579e-02 -2.751627564430236816e-02 2.876144461333751678e-02
7.598000000000000000e+03 2.133948898315429688e+01 -1.719620227813720703e-01 6.450913846492767334e-02 1.195628494024276733e-01 5.522159859538078308e-02 5.627967789769172668e-02
7.599000000000000000e+03 3.171501731872558594e+01 -2.317536830902099609e+00 -1.106771379709243774e-01 -5.696391314268112183e-02 -5.029231682419776917e-02 -1.125773787498474121e-01
7.600000000000000000e+03 3.159167480468750000e+01 -1.573781251907348633e+00 -1.477319747209548950e-01 -4.755901917815208435e-02 -5.858729779720306396e-02 -7.979936897754669189e-02
7.601000000000000000e+03 3.092625236511230469e+01 -2.603541374206542969e+00 -6.390280276536941528e-02 -8.751177787780761719e-02 -4.542437568306922913e-02 -8.433081209659576416e-02
7.602000000000000000e+03 3.329127502441406250e+01 -1.721204519271850586e+00 -1.859125345945358276e-01 -2.247106283903121948e-02 -6.251507997512817383e-02 -1.097170189023017883e-01
7.603000000000000000e+03 3.305626296997070312e+01 -1.019069790840148926e+00 -2.238035202026367188e-01 -4.173628613352775574e-02 -7.966194301843643188e-02 -9.425994753837585449e-02
7.604000000000000000e+03 3.232479095458984375e+01 -1.299670934677124023e+00 -1.896255165338516235e-01 -3.105938993394374847e-02 -6.620547175407409668e-02 -9.520928561687469482e-02
7.605000000000000000e+03 3.250396728515625000e+01 -2.022616147994995117e+00 -1.494543552398681641e-01 -5.361828580498695374e-02 -6.092179194092750549e-02 -1.141935959458351135e-01
7.606000000000000000e+03 3.085874366760253906e+01 -1.838975429534912109e+00 -1.121422201395034790e-01 -2.940327674150466919e-02 -4.246364906430244446e-02 -5.922900885343551636e-02
7.607000000000000000e+03 3.381026458740234375e+01 -7.248246073722839355e-01 -2.363304197788238525e-01 -2.297500707209110260e-02 -7.779163122177124023e-02 -9.286223351955413818e-02
7.608000000000000000e+03 3.458703231811523438e+01 -4.199312925338745117e-01 -2.264016121625900269e-01 -2.244756743311882019e-02 -7.465475052595138550e-02 -7.199814170598983765e-02
7.609000000000000000e+03 3.405215835571289062e+01 -1.424708485603332520e+00 -2.161938697099685669e-01 -6.845794618129730225e-03 -6.691189855337142944e-02 -8.311692625284194946e-02
7.610000000000000000e+03 3.536509704589843750e+01 -1.194015666842460632e-01 -1.882342845201492310e-01 -1.164528541266918182e-03 -5.681964755058288574e-02 -5.038352310657501221e-02
7.611000000000000000e+03 3.614285659790039062e+01 1.828823834657669067e-01 -1.347815394401550293e-01 2.562566893175244331e-03 -3.966569155454635620e-02 -2.003167569637298584e-02
7.612000000000000000e+03 3.691955184936523438e+01 4.870322942733764648e-01 -6.908809393644332886e-02 1.541205029934644699e-02 -1.610281318426132202e-02 4.365390632301568985e-03
7.613000000000000000e+03 3.769688415527343750e+01 7.879440784454345703e-01 -1.257768273353576660e-02 6.681320257484912872e-03 -1.768908812664449215e-03 1.880033500492572784e-02
7.614000000000000000e+03 3.846224212646484375e+01 2.872591614723205566e-01 -3.926931321620941162e-02 -6.057840306311845779e-03 -1.359814684838056564e-02 3.957010433077812195e-02
7.615000000000000000e+03 3.847284317016601562e+01 1.084994435310363770e+00 1.764596812427043915e-02 -1.498064491897821426e-03 4.844370763748884201e-03 1.197728980332612991e-02
7.616000000000000000e+03 3.478684234619140625e+01 -1.136123776435852051e+00 -2.246027886867523193e-01 2.078721299767494202e-02 -6.114467233419418335e-02 -5.899158492684364319e-02
7.617000000000000000e+03 3.552282333374023438e+01 -8.519025444984436035e-01 -2.228827625513076782e-01 3.202965483069419861e-02 -5.725593119859695435e-02 -2.462037838995456696e-02
7.618000000000000000e+03 3.625850296020507812e+01 -5.659272074699401855e-01 -1.979594379663467407e-01 4.666639491915702820e-02 -4.538791626691818237e-02 1.858800998888909817e-03
7.619000000000000000e+03 3.699311447143554688e+01 -2.780858278274536133e-01 -1.632413715124130249e-01 3.956589475274085999e-02 -3.710264340043067932e-02 2.698622643947601318e-02
7.620000000000000000e+03 3.772836685180664062e+01 6.517409812659025192e-03 -1.080992966890335083e-01 2.302974462509155273e-02 -2.552086487412452698e-02 3.815341368317604065e-02
7.621000000000000000e+03 4.027894592285156250e+01 -2.541387975215911865e-01 1.088089775294065475e-02 -4.929989948868751526e-02 -1.152570080012083054e-02 6.654430180788040161e-02
7.622000000000000000e+03 4.047003936767578125e+01 4.750773012638092041e-01 1.268640160560607910e-01 8.708562701940536499e-03 4.067177698016166687e-02 -2.929155342280864716e-02
7.623000000000000000e+03 3.969956207275390625e+01 2.476016059517860413e-02 -1.334692235104739666e-03 -3.338623791933059692e-02 -1.041627861559391022e-02 5.651729553937911987e-02
7.624000000000000000e+03 4.085557556152343750e+01 -5.415500402450561523e-01 -4.355758428573608398e-04 -7.088680565357208252e-02 -2.139671333134174347e-02 6.248385831713676453e-02
7.625000000000000000e+03 4.111045455932617188e+01 1.569967120885848999e-01 1.815652400255203247e-01 6.231050472706556320e-03 5.633888393640518188e-02 -5.517268553376197815e-02
7.626000000000000000e+03 3.982687759399414062e+01 7.846456766128540039e-01 7.815892994403839111e-02 -6.734126713126897812e-03 2.142744138836860657e-02 -1.442393846809864044e-02
7.627000000000000000e+03 3.911914825439453125e+01 2.937080264091491699e-01 -3.963959868997335434e-03 -1.813150569796562195e-02 -6.628639996051788330e-03 3.684445098042488098e-02
7.628000000000000000e+03 3.918268203735351562e+01 1.084262847900390625e+00 3.980750963091850281e-02 -5.359578877687454224e-03 1.033437997102737427e-02 2.048169262707233429e-03
7.629000000000000000e+03 4.250700378417968750e+01 -3.963981866836547852e-01 2.028995603322982788e-01 2.224171161651611328e-02 6.754238158464431763e-02 -8.200188726186752319e-02
7.630000000000000000e+03 4.151531600952148438e+01 -8.242236971855163574e-01 -9.243770502507686615e-03 -5.938988178968429565e-02 -2.059009671211242676e-02 3.101848810911178589e-02
7.631000000000000000e+03 4.375409698486328125e+01 -1.632939934730529785e+00 -2.634034156799316406e-01 4.740830138325691223e-02 -6.479853391647338867e-02 -8.623926341533660889e-02
7.632000000000000000e+03 4.300669479370117188e+01 -1.363770723342895508e+00 -1.862345486879348755e-01 4.159400705248117447e-03 -5.462254211306571960e-02 -6.967438012361526489e-02
7.633000000000000000e+03 4.394734954833984375e+01 -9.159503579139709473e-01 1.762338541448116302e-02 5.286689102649688721e-02 2.114708162844181061e-02 -8.091365545988082886e-02
7.634000000000000000e+03 4.178872680664062500e+01 -1.361862868070602417e-01 2.109290212392807007e-01 2.277163788676261902e-02 7.011019438505172729e-02 -7.147839665412902832e-02
7.635000000000000000e+03 4.322666549682617188e+01 -6.564318537712097168e-01 1.358859241008758545e-01 2.448409795761108398e-02 4.811100661754608154e-02 -1.008233502507209778e-01
7.636000000000000000e+03 4.226031494140625000e+01 -1.094086289405822754e+00 -8.044386655092239380e-02 -3.638977557420730591e-02 -3.505009412765502930e-02 -4.578882455825805664e-02
7.637000000000000000e+03 4.469203567504882812e+01 -1.104038357734680176e+00 -1.171090900897979736e-01 2.176830917596817017e-02 -2.860223315656185150e-02 -5.076309666037559509e-02
7.638000000000000000e+03 4.700760269165039062e+01 -2.182412624359130859e+00 -3.372152745723724365e-01 1.809228397905826569e-02 -9.573689848184585571e-02 4.780759569257497787e-03
7.639000000000000000e+03 4.453843307495117188e+01 -1.829608321189880371e+00 -3.099118173122406006e-01 6.125281378626823425e-02 -7.459770143032073975e-02 -9.215239435434341431e-02
7.640000000000000000e+03 4.618450164794921875e+01 -2.070826292037963867e+00 -3.657392263412475586e-01 4.121886938810348511e-02 -9.735610336065292358e-02 -4.458832740783691406e-02
7.641000000000000000e+03 4.700347900390625000e+01 -1.434312224388122559e+00 -4.017211198806762695e-01 -8.432088419795036316e-03 -1.230459585785865784e-01 1.034591160714626312e-02
7.642000000000000000e+03 4.546185302734375000e+01 -1.219994664192199707e+00 -2.313348501920700073e-01 1.976142823696136475e-02 -6.347202509641647339e-02 -1.980381086468696594e-02
7.643000000000000000e+03 4.536082458496093750e+01 -1.953074812889099121e+00 -3.300544321537017822e-01 4.882660880684852600e-02 -8.436834812164306641e-02 -6.634520739316940308e-02
7.644000000000000000e+03 4.623295593261718750e+01 -1.330235958099365234e+00 -3.182357847690582275e-01 1.024823822081089020e-02 -9.239625930786132812e-02 6.646193563938140869e-03
7.645000000000000000e+03 4.851011657714843750e+01 -1.236653327941894531e+00 -2.468467205762863159e-01 9.588340297341346741e-03 -7.117751240730285645e-02 -5.658751353621482849e-03
7.646000000000000000e+03 4.858726501464843750e+01 -1.977923154830932617e+00 -2.815283238887786865e-01 3.171341493725776672e-02 -7.494447380304336548e-02 8.104800432920455933e-02
7.647000000000000000e+03 4.780811309814453125e+01 -2.150522232055664062e+00 -3.100002408027648926e-01 1.999070122838020325e-02 -8.700285851955413818e-02 6.430480629205703735e-02
7.648000000000000000e+03 4.925864410400390625e+01 -1.067628383636474609e+00 -1.565987616777420044e-01 5.610627587884664536e-03 -4.529643803834915161e-02 8.826544508337974548e-03
7.649000000000000000e+03 5.000643920898437500e+01 -8.943891525268554688e-01 -8.217460662126541138e-02 3.999724518507719040e-03 -2.345246449112892151e-02 1.363272871822118759e-02
7.650000000000000000e+03 5.014590454101562500e+01 -1.621544718742370605e+00 -1.272525340318679810e-01 6.218126043677330017e-03 -3.631032630801200867e-02 6.533747166395187378e-02
7.651000000000000000e+03 4.936695098876953125e+01 -1.801841139793395996e+00 -1.976152360439300537e-01 2.416446246206760406e-02 -5.203523114323616028e-02 7.447790354490280151e-02
7.652000000000000000e+03 4.776212310791015625e+01 -1.402195334434509277e+00 -3.711547851562500000e-01 -1.061319373548030853e-02 -1.145303994417190552e-01 -5.615328438580036163e-03
7.653000000000000000e+03 5.157225418090820312e+01 -1.315138578414916992e+00 -3.373562544584274292e-02 -1.524371560662984848e-02 -1.469380129128694534e-02 2.315254881978034973e-02
7.654000000000000000e+03 5.295627212524414062e+01 -1.038722634315490723e+00 -1.995405880734324455e-03 -1.526268082670867443e-03 -1.056502107530832291e-03 -4.565744660794734955e-03
7.655000000000000000e+03 5.290069961547851562e+01 -2.949934005737304688e-01 4.952077753841876984e-03 2.601756714284420013e-04 1.563675934448838234e-03 -1.279986230656504631e-03
7.656000000000000000e+03 5.145984268188476562e+01 -5.828963518142700195e-01 -1.160662970505654812e-03 -2.361377235502004623e-03 -1.056612120009958744e-03 7.849268615245819092e-03
7.657000000000000000e+03 5.088082885742187500e+01 -1.458093881607055664e+00 -7.003387808799743652e-02 -6.477873306721448898e-03 -2.295352518558502197e-02 4.482232406735420227e-02
7.658000000000000000e+03 5.073999786376953125e+01 -7.315950989723205566e-01 -2.985637076199054718e-02 7.371507235802710056e-04 -8.735765703022480011e-03 1.320065557956695557e-02
7.659000000000000000e+03 5.226421737670898438e+01 -1.175352215766906738e+00 -1.096787117421627045e-02 -1.155470963567495346e-02 -6.756774149835109711e-03 4.974271170794963837e-03
7.660000000000000000e+03 5.218022537231445312e+01 -4.373664855957031250e-01 7.532507181167602539e-03 -2.459147013723850250e-03 1.522007980383932590e-03 1.037023146636784077e-03
7.661000000000000000e+03 5.375558853149414062e+01 -2.739388346672058105e-01 1.976137515157461166e-03 1.499424888606881723e-05 5.973395309410989285e-04 -9.330253815278410912e-04
7.662000000000000000e+03 5.449021530151367188e+01 -2.173187285661697388e-01 5.358095513656735420e-04 9.285153355449438095e-04 4.392974660731852055e-04 -8.037884254008531570e-04
7.663000000000000000e+03 5.503413009643554688e+01 -1.123937517404556274e-01 -5.730608245357871056e-04 -5.087265162728726864e-04 -3.245362022425979376e-04 4.914726596325635910e-04
7.664000000000000000e+03 5.623500823974609375e+01 -1.787128448486328125e-01 5.149094431544654071e-05 1.161037362180650234e-04 5.027840597904287279e-05 -5.658693771692924201e-05
7.665000000000000000e+03 5.380104446411132812e+01 -1.022010684013366699e+00 -2.106837695464491844e-03 2.991346409544348717e-03 2.653526316862553358e-04 -1.055801287293434143e-03
7.666000000000000000e+03 5.568458557128906250e+01 -1.279204636812210083e-01 5.849646186106838286e-05 1.049765050993300974e-04 4.904188972432166338e-05 -1.091940503101795912e-04
7.667000000000000000e+03 5.561457443237304688e+01 -2.342342436313629150e-01 -1.834364084061235189e-04 -3.549257235135883093e-04 -1.615086512174457312e-04 2.149675856344401836e-04
7.668000000000000000e+03 5.495091629028320312e+01 -3.635899424552917480e-01 4.150865133851766586e-04 5.591673543676733971e-04 2.922761486843228340e-04 -9.832427895162254572e-05
7.669000000000000000e+03 5.436752319335937500e+01 1.211553573608398438e+00 -3.084604501724243164e+00 -1.012672260403633118e-01 -9.557615518569946289e-01 3.135803341865539551e-01
7.670000000000000000e+03 5.676253509521484375e+01 1.141292095184326172e+00 -3.161351680755615234e+00 -2.970141172409057617e-01 -1.037509799003601074e+00 6.227259039878845215e-01
7.671000000000000000e+03 5.804644393920898438e+01 5.211447477340698242e-01 -3.699204921722412109e+00 -1.087249994277954102e+00 -1.435936450958251953e+00 4.097725450992584229e-01
7.672000000000000000e+03 5.761878204345703125e+01 3.807170093059539795e-01 -4.172851562500000000e+00 -1.339655995368957520e+00 -1.653752326965332031e+00 8.669437170028686523e-01
7.673000000000000000e+03 5.827437591552734375e+01 -1.142329126596450806e-01 -3.673910379409790039e+00 -1.254629850387573242e+00 -1.478562116622924805e+00 1.891457319259643555e+00
7.674000000000000000e+03 5.359053039550781250e+01 5.318914055824279785e-01 -3.796723127365112305e+00 -1.804825961589813232e-01 -1.193161725997924805e+00 2.139188051223754883e-01
7.675000000000000000e+03 5.585708236694335938e+01 2.361906617879867554e-01 -3.719992637634277344e+00 -2.055897004902362823e-02 -1.122165441513061523e+00 3.903223276138305664e-01
7.676000000000000000e+03 5.518864822387695312e+01 1.134868502616882324e+00 -3.151222467422485352e+00 -4.768498986959457397e-02 -9.596722126007080078e-01 3.713271915912628174e-01
7.677000000000000000e+03 5.716899871826171875e+01 3.485960662364959717e-01 -4.595073223114013672e+00 -4.532840549945831299e-01 -1.514507174491882324e+00 9.345997571945190430e-01
7.678000000000000000e+03 5.357163238525390625e+01 1.277818441390991211e+00 -2.727136135101318359e+00 -2.177950441837310791e-01 -8.834793567657470703e-01 3.369816541671752930e-01
7.679000000000000000e+03 5.619508361816406250e+01 6.495326757431030273e-01 -3.613613605499267578e+00 1.262575685977935791e-01 -1.046206831932067871e+00 2.992450594902038574e-01
7.680000000000000000e+03 5.600151824951171875e+01 1.130702972412109375e+00 -3.207272529602050781e+00 -2.470949292182922363e-02 -9.695945978164672852e-01 4.627865254878997803e-01
7.681000000000000000e+03 5.718099975585937500e+01 5.920210108160972595e-02 -5.145540237426757812e+00 -1.228285804390907288e-01 -1.580510616302490234e+00 -8.256408572196960449e-02
7.682000000000000000e+03 5.776745986938476562e+01 3.935844823718070984e-02 -6.611736774444580078e+00 -1.304090380668640137e+00 -2.374748229980468750e+00 1.906775474548339844e+00
7.683000000000000000e+03 5.434143829345703125e+01 4.678209424018859863e-01 -3.662143468856811523e+00 -2.036860771477222443e-02 -1.104753613471984863e+00 3.544721901416778564e-01
7.684000000000000000e+03 5.511758422851562500e+01 3.933301866054534912e-01 -3.679756164550781250e+00 -6.387238949537277222e-02 -1.123088479042053223e+00 3.649670481681823730e-01
7.685000000000000000e+03 5.671972274780273438e+01 7.524058818817138672e-01 -3.663041114807128906e+00 -2.340208739042282104e-01 -1.169118642807006836e+00 7.876928448677062988e-01
7.686000000000000000e+03 5.748215103149414062e+01 9.700721502304077148e-01 -3.104188919067382812e+00 -7.838469147682189941e-01 -1.166410684585571289e+00 7.011574506759643555e-01
7.687000000000000000e+03 5.725094223022460938e+01 6.461482644081115723e-01 -3.764115571975708008e+00 -6.371245384216308594e-01 -1.320372104644775391e+00 7.737771868705749512e-01
7.688000000000000000e+03 5.652948760986328125e+01 6.956791877746582031e-02 -3.484783411026000977e+00 1.684415191411972046e-01 -9.949026107788085938e-01 1.091032922267913818e-01
7.689000000000000000e+03 5.664768981933593750e+01 4.178313910961151123e-01 -4.266050815582275391e+00 1.662609279155731201e-01 -1.229936957359313965e+00 4.611570537090301514e-01
7.690000000000000000e+03 5.045067596435546875e+01 7.608052492141723633e-01 -1.570114135742187500e+00 4.911676049232482910e-02 -4.562992155551910400e-01 2.456443756818771362e-01
7.691000000000000000e+03 5.059151077270507812e+01 3.430651128292083740e-02 -1.460408687591552734e+00 -4.902791697531938553e-03 -4.395934343338012695e-01 -1.027090102434158325e-01
7.692000000000000000e+03 5.284211730957031250e+01 4.887914061546325684e-01 -3.339805126190185547e+00 -1.527598798274993896e-01 -1.047769427299499512e+00 -7.710587233304977417e-02
7.693000000000000000e+03 5.209175872802734375e+01 3.407791554927825928e-01 -2.447046756744384766e+00 5.062801297754049301e-03 -7.325952053070068359e-01 -1.847114562988281250e-01
7.694000000000000000e+03 5.200776672363281250e+01 1.078764796257019043e+00 -2.397972583770751953e+00 3.138071298599243164e-02 -7.099775671958923340e-01 3.923454880714416504e-01
7.695000000000000000e+03 5.278653335571289062e+01 1.232732176780700684e+00 -2.539934873580932617e+00 -1.350468844175338745e-01 -8.024945259094238281e-01 4.987780749797821045e-01
7.696000000000000000e+03 5.122899246215820312e+01 9.213988184928894043e-01 -1.933089017868041992e+00 9.133801609277725220e-02 -5.525253415107727051e-01 2.625741362571716309e-01
7.697000000000000000e+03 5.134140396118164062e+01 1.891566067934036255e-01 -1.900557279586791992e+00 -1.396888401359319687e-02 -5.743578672409057617e-01 -1.288017183542251587e-01
7.698000000000000000e+03 4.773153305053710938e+01 2.793712317943572998e-01 -7.253056764602661133e-01 2.655046805739402771e-02 -2.096265703439712524e-01 1.031840518116950989e-01
7.699000000000000000e+03 4.898356246948242188e+01 2.312663495540618896e-01 -9.697992801666259766e-01 1.806738041341304779e-02 -2.855195701122283936e-01 1.082987338304519653e-01
7.700000000000000000e+03 4.772686386108398438e+01 -7.346830368041992188e-01 -3.387302458286285400e-01 3.441608510911464691e-03 -1.005865857005119324e-01 -2.391795814037322998e-02
7.701000000000000000e+03 4.850590896606445312e+01 4.470436275005340576e-01 -9.252416491508483887e-01 4.118175059556961060e-02 -2.652179598808288574e-01 1.673985421657562256e-01
7.702000000000000000e+03 4.965979766845703125e+01 5.728724002838134766e-01 -1.232172250747680664e+00 4.844889044761657715e-02 -3.551169931888580322e-01 1.802118867635726929e-01
7.703000000000000000e+03 4.985495758056640625e+01 -1.416693180799484253e-01 -1.099425196647644043e+00 -1.149834599345922470e-02 -3.332770466804504395e-01 -7.883755117654800415e-02
7.704000000000000000e+03 4.771175384521484375e+01 -2.315331995487213135e-01 -5.644365549087524414e-01 3.045408800244331360e-02 -1.601947396993637085e-01 4.193818569183349609e-02
7.705000000000000000e+03 4.844728851318359375e+01 -5.625565052032470703e-01 -5.265842080116271973e-01 -5.198209546506404877e-03 -1.595347225666046143e-01 -4.314492270350456238e-02
7.706000000000000000e+03 4.914781570434570312e+01 -3.561015129089355469e-01 -7.884835004806518555e-01 -4.595027770847082138e-03 -2.379235625267028809e-01 -6.280956417322158813e-02
7.707000000000000000e+03 4.839570236206054688e+01 -7.538548856973648071e-02 -6.932955980300903320e-01 2.999140881001949310e-02 -1.989912539720535278e-01 1.980212517082691193e-02
7.708000000000000000e+03 4.487638854980468750e+01 -3.404561579227447510e-01 -3.447081148624420166e-01 -6.507229059934616089e-03 -1.053646057844161987e-01 5.523503944277763367e-02
7.709000000000000000e+03 4.561632156372070312e+01 -4.665780663490295410e-01 -3.509606420993804932e-01 4.212129861116409302e-04 -1.051618307828903198e-01 4.807128012180328369e-02
7.710000000000000000e+03 4.631862258911132812e+01 -6.191682815551757812e-01 -3.405837714672088623e-01 -9.668693877756595612e-03 -1.050757393240928650e-01 4.119699075818061829e-02
7.711000000000000000e+03 4.701073455810546875e+01 -7.599012255668640137e-01 -2.991972863674163818e-01 1.827782392501831055e-02 -8.427584171295166016e-02 1.951336301863193512e-02
7.712000000000000000e+03 4.698373413085937500e+01 2.279398143291473389e-01 -6.187429428100585938e-01 1.598180271685123444e-02 -1.808283329010009766e-01 9.367795288562774658e-02
7.713000000000000000e+03 4.508298492431640625e+01 3.775442838668823242e-01 -5.358700752258300781e-01 1.130127441138029099e-02 -1.573706418275833130e-01 1.017895191907882690e-01
7.714000000000000000e+03 4.587632369995117188e+01 2.437933832406997681e-01 -5.400271415710449219e-01 -5.191984120756387711e-03 -1.635657399892807007e-01 7.686819136142730713e-02
7.715000000000000000e+03 4.651185607910156250e+01 -2.970636822283267975e-02 -5.096432566642761230e-01 2.276786416769027710e-02 -1.460626274347305298e-01 6.118426099419593811e-02
7.716000000000000000e+03 4.705047988891601562e+01 -2.730993330478668213e-01 -4.695639908313751221e-01 2.342915348708629608e-02 -1.338404566049575806e-01 2.422055974602699280e-02
7.717000000000000000e+03 4.301383972167968750e+01 1.033388495445251465e+00 -7.048971056938171387e-01 -1.910700835287570953e-02 -2.172012329101562500e-01 8.183141052722930908e-02
7.718000000000000000e+03 4.345863342285156250e+01 8.591742068529129028e-02 -4.588181078433990479e-01 -4.880520701408386230e-02 -1.522869914770126343e-01 1.074027568101882935e-01
7.719000000000000000e+03 4.207683563232421875e+01 5.882251858711242676e-01 -6.426853537559509277e-01 -8.789487183094024658e-02 -2.191740721464157104e-01 1.541319936513900757e-01
7.720000000000000000e+03 4.434420394897460938e+01 5.560463070869445801e-01 -5.738850831985473633e-01 -1.691888784989714622e-03 -1.726730912923812866e-01 7.903059571981430054e-02
7.721000000000000000e+03 4.415095138549804688e+01 -1.609432697296142578e-01 -3.664091825485229492e-01 2.586560789495706558e-03 -1.091467887163162231e-01 9.505227208137512207e-02
7.722000000000000000e+03 4.235024261474609375e+01 1.276262640953063965e+00 -7.583879828453063965e-01 3.029956109821796417e-02 -2.184265255928039551e-01 1.528935432434082031e-01
7.723000000000000000e+03 4.367860412597656250e+01 7.932562828063964844e-01 -6.006886363029479980e-01 1.644644699990749359e-02 -1.752726584672927856e-01 1.108039319515228271e-01
7.724000000000000000e+03 4.276715087890625000e+01 3.357003033161163330e-01 -5.298683047294616699e-01 -7.515117991715669632e-03 -1.612150371074676514e-01 1.637626588344573975e-01
7.725000000000000000e+03 4.008607864379882812e+01 2.347794055938720703e+00 -1.975955247879028320e+00 -3.252167254686355591e-02 -6.025431156158447266e-01 -4.333286583423614502e-01
7.726000000000000000e+03 3.924859237670898438e+01 1.918622970581054688e+00 -3.374922752380371094e+00 -7.389780879020690918e-01 -1.234170317649841309e+00 -2.559127658605575562e-02
7.727000000000000000e+03 4.066986846923828125e+01 1.245835542678833008e+00 -1.165672302246093750e+00 -1.895219087600708008e-01 -4.065582454204559326e-01 2.619713246822357178e-01
7.728000000000000000e+03 4.163364028930664062e+01 1.592744350433349609e+00 -1.031125664710998535e+00 -1.212702691555023193e-02 -3.129758238792419434e-01 4.199725762009620667e-02
7.729000000000000000e+03 4.137876510620117188e+01 8.941976428031921387e-01 -7.901924252510070801e-01 -1.277287304401397705e-02 -2.408895790576934814e-01 2.676567435264587402e-01
7.730000000000000000e+03 3.931212234497070312e+01 2.709177732467651367e+00 -9.966514110565185547e-01 -6.327180862426757812e-01 -4.888108670711517334e-01 -7.775849103927612305e-01
7.731000000000000000e+03 4.086096572875976562e+01 1.975051641464233398e+00 -1.175110816955566406e+00 8.180490881204605103e-02 -3.279917538166046143e-01 9.675903618335723877e-02
7.732000000000000000e+03 3.995876693725585938e+01 1.587908506393432617e+00 -1.665211439132690430e+00 2.967406250536441803e-02 -4.906612336635589600e-01 4.747044742107391357e-01
7.733000000000000000e+03 3.318261718750000000e+01 7.811875939369201660e-01 -1.025805592536926270e+00 3.938202559947967529e-02 -2.959270775318145752e-01 -4.105966687202453613e-01
7.734000000000000000e+03 3.406509399414062500e+01 5.168127417564392090e-01 -5.980590581893920898e-01 -4.694023728370666504e-01 -3.202384412288665771e-01 -4.907937347888946533e-01
7.735000000000000000e+03 3.456334686279296875e+01 1.281935572624206543e+00 -3.596691370010375977e+00 -3.138000071048736572e-01 -1.173147439956665039e+00 -4.075486063957214355e-01
7.736000000000000000e+03 3.788114929199218750e+01 2.492715597152709961e+00 -4.787205159664154053e-01 9.179028272628784180e-01 1.317546814680099487e-01 5.699810981750488281e-01
7.737000000000000000e+03 3.661830520629882812e+01 1.925509929656982422e+00 -2.353253841400146484e+00 -3.180114030838012695e-01 -8.013795614242553711e-01 -6.841903328895568848e-01
7.738000000000000000e+03 3.353151702880859375e+01 -1.363087892532348633e-01 -1.690259575843811035e-01 -1.654470711946487427e-01 -1.003419086337089539e-01 -2.425378859043121338e-01
7.739000000000000000e+03 3.472558593750000000e+01 3.938025832176208496e-01 7.407803088426589966e-03 5.681509897112846375e-02 1.926687173545360565e-02 -8.231231570243835449e-02
7.740000000000000000e+03 3.577708053588867188e+01 7.632904648780822754e-01 -2.351359724998474121e-01 2.099963873624801636e-01 -7.541872560977935791e-03 4.097524657845497131e-02
7.741000000000000000e+03 3.592239379882812500e+01 1.621054768562316895e+00 -4.126783370971679688e+00 -2.282733172178268433e-01 -1.306517004966735840e+00 -7.339271306991577148e-01
7.742000000000000000e+03 3.786200332641601562e+01 1.691667318344116211e+00 -3.668127059936523438e+00 -3.950478509068489075e-02 -1.112289547920227051e+00 -1.201408386230468750e+00
7.743000000000000000e+03 3.854475402832031250e+01 1.946171998977661133e+00 -4.331493854522705078e+00 -9.918711781501770020e-01 -1.597009539604187012e+00 -1.140911221504211426e+00
7.744000000000000000e+03 3.857223129272460938e+01 2.750447750091552734e+00 -8.013984560966491699e-02 -4.855195879936218262e-01 -1.696978360414505005e-01 1.457512527704238892e-01
7.745000000000000000e+03 3.724591064453125000e+01 2.222234725952148438e+00 -8.950111865997314453e-01 6.465245485305786133e-01 -7.454599440097808838e-02 4.098195116966962814e-03
7.746000000000000000e+03 3.519757843017578125e+01 1.456056714057922363e+00 -4.990017414093017578e+00 -2.641748785972595215e-01 -1.576257705688476562e+00 -4.386136829853057861e-01
7.747000000000000000e+03 3.390794372558593750e+01 1.009933352470397949e+00 -1.881524920463562012e+00 -4.139579832553863525e-01 -6.886448860168457031e-01 -4.572040438652038574e-01
7.748000000000000000e+03 3.335908126831054688e+01 3.143023252487182617e-01 -8.690238595008850098e-01 -1.665050089359283447e-01 -3.106586635112762451e-01 -4.620902836322784424e-01
7.749000000000000000e+03 3.509892272949218750e+01 8.875037431716918945e-01 -8.250229358673095703e-01 -2.086319625377655029e-01 -3.100964725017547607e-01 -1.633013933897018433e-01
7.750000000000000000e+03 3.727110671997070312e+01 1.605347871780395508e+00 -2.712091684341430664e+00 6.290749907493591309e-01 -6.249049901962280273e-01 -4.316762685775756836e-01
7.751000000000000000e+03 3.696109390258789062e+01 1.159478187561035156e+00 -2.918086767196655273e+00 7.015257608145475388e-03 -8.733214735984802246e-01 -2.625043690204620361e-01
7.752000000000000000e+03 3.673530960083007812e+01 1.520705103874206543e+00 -2.535608291625976562e+00 1.897289007902145386e-01 -7.037638425827026367e-01 1.424891650676727295e-01
7.753000000000000000e+03 3.419689559936523438e+01 1.028028503060340881e-01 -1.163193285465240479e-01 -9.945729374885559082e-02 -6.473298370838165283e-02 2.581155672669410706e-02
7.754000000000000000e+03 3.636455917358398438e+01 9.085562825202941895e-01 -8.466819524765014648e-01 -1.357664912939071655e-01 -2.947345376014709473e-01 -1.259422004222869873e-01
7.755000000000000000e+03 3.614214706420898438e+01 1.236272931098937988e+00 -2.620357751846313477e+00 1.499515920877456665e-01 -7.411218285560607910e-01 2.503732144832611084e-01
7.756000000000000000e+03 3.083432960510253906e+01 -2.170480340719223022e-01 -7.221288084983825684e-01 9.208484739065170288e-02 -1.890131831169128418e-01 -9.764226526021957397e-02
7.757000000000000000e+03 3.085270309448242188e+01 -9.999262094497680664e-01 -4.794476032257080078e-01 3.612619265913963318e-02 -1.329964250326156616e-01 -8.354195952415466309e-02
7.758000000000000000e+03 3.216926574707031250e+01 -6.736713051795959473e-01 -6.410006284713745117e-01 -1.554659605026245117e-01 -2.389399707317352295e-01 -2.104046791791915894e-01
7.759000000000000000e+03 3.193232536315917969e+01 -3.087860345840454102e-01 -6.697679758071899414e-01 -7.279107719659805298e-02 -2.227677106857299805e-01 -1.801763027906417847e-01
7.760000000000000000e+03 3.283817291259765625e+01 -3.977768719196319580e-01 -5.372613668441772461e-01 -1.711871661245822906e-02 -1.663140356540679932e-01 -2.759511172771453857e-01
7.761000000000000000e+03 3.245020675659179688e+01 5.051715970039367676e-01 -8.927798271179199219e-01 -1.507216785103082657e-02 -2.723556160926818848e-01 -3.030631542205810547e-01
7.762000000000000000e+03 3.264751434326171875e+01 4.808262735605239868e-02 -5.985199213027954102e-01 -1.066063158214092255e-02 -1.827541738748550415e-01 -3.695134818553924561e-01
7.763000000000000000e+03 3.166022682189941406e+01 1.470156908035278320e-01 -6.930102705955505371e-01 1.041882112622261047e-01 -1.766466200351715088e-01 -2.064187377691268921e-01
7.764000000000000000e+03 3.155240631103515625e+01 -8.315400481224060059e-01 -5.831822752952575684e-01 5.967223085463047028e-03 -1.731645166873931885e-01 -2.137602418661117554e-01
7.765000000000000000e+03 1.934750747680664062e+01 2.503316402435302734e+00 -6.073369383811950684e-01 -9.339199960231781006e-02 -2.102186828851699829e-01 1.253018677234649658e-01
7.766000000000000000e+03 2.005070304870605469e+01 1.556338667869567871e+00 -8.154210448265075684e-01 -5.429301410913467407e-02 -2.609142065048217773e-01 2.069649845361709595e-01
7.767000000000000000e+03 1.928076362609863281e+01 1.756027221679687500e+00 -8.863517045974731445e-01 -7.775732874870300293e-02 -2.892327308654785156e-01 1.702790707349777222e-01
7.768000000000000000e+03 2.158648109436035156e+01 1.168682336807250977e+00 -8.217967152595520020e-01 -6.417462974786758423e-02 -2.657914161682128906e-01 2.239142954349517822e-01
7.769000000000000000e+03 2.367008972167968750e+01 1.447997570037841797e+00 -7.355207204818725586e-01 -7.708480954170227051e-02 -2.437816560268402100e-01 2.422669976949691772e-01
7.770000000000000000e+03 2.398398971557617188e+01 4.397454857826232910e-01 -9.361836314201354980e-01 -5.723264068365097046e-02 -2.980248928070068359e-01 2.624291777610778809e-01
7.771000000000000000e+03 2.469887161254882812e+01 3.147436380386352539e-01 -9.652164578437805176e-01 -7.591937482357025146e-02 -3.123407661914825439e-01 2.565516531467437744e-01
7.772000000000000000e+03 2.544874572753906250e+01 1.382237821817398071e-01 -9.773929119110107422e-01 -6.400963664054870605e-02 -3.124207556247711182e-01 2.622011899948120117e-01
7.773000000000000000e+03 2.621586036682128906e+01 -5.536601319909095764e-02 -9.829273223876953125e-01 -6.282213330268859863e-02 -3.137248456478118896e-01 2.538791596889495850e-01
7.774000000000000000e+03 2.698533821105957031e+01 -2.535507977008819580e-01 -9.660025835037231445e-01 -5.083873495459556580e-02 -3.050523996353149414e-01 2.388614714145660400e-01
7.775000000000000000e+03 2.775543594360351562e+01 -4.530771672725677490e-01 -9.201322197914123535e-01 -3.575614094734191895e-02 -2.867664992809295654e-01 2.078975588083267212e-01
7.776000000000000000e+03 2.852570533752441406e+01 -6.533444523811340332e-01 -8.351653814315795898e-01 -2.333620935678482056e-02 -2.575504779815673828e-01 1.682581752538681030e-01
7.777000000000000000e+03 2.929591369628906250e+01 -8.534791469573974609e-01 -7.049708962440490723e-01 1.218212489038705826e-02 -2.078366279602050781e-01 1.058661043643951416e-01
7.778000000000000000e+03 2.926732444763183594e+01 -8.137164264917373657e-02 -7.496499419212341309e-01 8.979251235723495483e-02 -1.979572325944900513e-01 2.420224621891975403e-02
7.779000000000000000e+03 3.006589889526367188e+01 -1.052599668502807617e+00 -5.090820789337158203e-01 3.821169957518577576e-02 -1.412611156702041626e-01 2.100477553904056549e-02
7.780000000000000000e+03 3.002997589111328125e+01 -2.785830497741699219e-01 -7.298287153244018555e-01 1.468687802553176880e-01 -1.748879700899124146e-01 -4.223413765430450439e-02
7.781000000000000000e+03 2.011011505126953125e+01 2.305536985397338867e+00 -6.794876456260681152e-01 -6.985048949718475342e-02 -2.248014509677886963e-01 1.514049768447875977e-01
7.782000000000000000e+03 2.087202262878417969e+01 2.111250400543212891e+00 -6.710641384124755859e-01 -6.906710565090179443e-02 -2.220393717288970947e-01 1.893149763345718384e-01
7.783000000000000000e+03 2.163122558593750000e+01 1.921698689460754395e+00 -6.834396719932556152e-01 -7.464352250099182129e-02 -2.274249643087387085e-01 2.066566497087478638e-01
7.784000000000000000e+03 2.237293434143066406e+01 1.747608900070190430e+00 -6.852924823760986328e-01 -7.863315939903259277e-02 -2.291776835918426514e-01 2.207982540130615234e-01
7.785000000000000000e+03 2.307785034179687500e+01 1.625204563140869141e+00 -7.001636624336242676e-01 -7.347446680068969727e-02 -2.320914268493652344e-01 2.291564494371414185e-01
7.786000000000000000e+03 2.305267715454101562e+01 1.058224320411682129e+00 -8.288072347640991211e-01 -6.721323728561401367e-02 -2.688061296939849854e-01 2.452904134988784790e-01
7.787000000000000000e+03 2.399843406677246094e+01 1.009448885917663574e+00 -7.885448932647705078e-01 -6.709586828947067261e-02 -2.566922307014465332e-01 2.447596639394760132e-01
7.788000000000000000e+03 2.545682334899902344e+01 9.007857441902160645e-01 -7.980166673660278320e-01 -5.377702042460441589e-02 -2.555381059646606445e-01 2.341623306274414062e-01
7.789000000000000000e+03 2.621660423278808594e+01 7.091050744056701660e-01 -8.144224286079406738e-01 -3.506550192832946777e-02 -2.548463940620422363e-01 2.202432751655578613e-01
7.790000000000000000e+03 2.774151420593261719e+01 3.152121007442474365e-01 -8.143669366836547852e-01 1.714652031660079956e-02 -2.391661256551742554e-01 1.465296298265457153e-01
7.791000000000000000e+03 2.850444984436035156e+01 1.168539151549339294e-01 -7.915763258934020996e-01 6.329711526632308960e-02 -2.184837609529495239e-01 8.351972699165344238e-02
7.792000000000000000e+03 2.081994628906250000e+01 1.360142946243286133e+00 -8.106986880302429199e-01 -6.102783605456352234e-02 -2.615179717540740967e-01 2.127998620271682739e-01
7.793000000000000000e+03 2.697874832153320312e+01 5.128293633460998535e-01 -8.231413960456848145e-01 -5.069707054644823074e-03 -2.484633326530456543e-01 1.840478032827377319e-01
7.794000000000000000e+03 2.471428298950195312e+01 1.075396537780761719e+00 -7.714746594429016113e-01 -6.791354715824127197e-02 -2.518164813518524170e-01 2.484694272279739380e-01
7.795000000000000000e+03 2.338191413879394531e+01 6.188696026802062988e-01 -8.949342966079711914e-01 -7.758701592683792114e-02 -2.917563915252685547e-01 2.439263015985488892e-01
7.796000000000000000e+03 2.233552169799804688e+01 9.926834106445312500e-01 -8.457401394844055176e-01 -6.793040037155151367e-02 -2.741011679172515869e-01 2.359365075826644897e-01
7.797000000000000000e+03 1.611225318908691406e+01 2.416136503219604492e+00 -3.464215099811553955e-01 1.203278824687004089e-02 -1.003166139125823975e-01 1.405795663595199585e-01
7.798000000000000000e+03 1.692862129211425781e+01 2.473628282546997070e+00 -4.428398311138153076e-01 1.653808169066905975e-02 -1.278905272483825684e-01 1.304862201213836670e-01
7.799000000000000000e+03 1.619552993774414062e+01 1.680045008659362793e+00 -3.746995925903320312e-01 6.331005599349737167e-03 -1.105105802416801453e-01 3.104752674698829651e-02
7.800000000000000000e+03 1.774459457397460938e+01 2.528052330017089844e+00 -5.452487468719482422e-01 -1.471453811973333359e-02 -1.679889857769012451e-01 1.586043983697891235e-01
7.801000000000000000e+03 1.851055526733398438e+01 1.834378838539123535e+00 -8.260196447372436523e-01 -5.569800734519958496e-02 -2.645153105258941650e-01 7.648982852697372437e-02
7.802000000000000000e+03 1.855901145935058594e+01 2.579250097274780273e+00 -5.598742365837097168e-01 -7.652511447668075562e-02 -1.909198015928268433e-01 1.682561784982681274e-01
7.803000000000000000e+03 1.696798706054687500e+01 1.734610080718994141e+00 -4.952584803104400635e-01 -2.394873183220624924e-03 -1.492960005998611450e-01 3.185710310935974121e-02
7.804000000000000000e+03 1.774004745483398438e+01 1.786107659339904785e+00 -6.291592121124267578e-01 1.050886139273643494e-02 -1.855951100587844849e-01 2.770013548433780670e-02
7.805000000000000000e+03 1.307423973083496094e+01 1.803115367889404297e+00 -2.538423985242843628e-02 6.080316379666328430e-04 -7.432862650603055954e-03 7.277172058820724487e-02
7.806000000000000000e+03 1.322374725341796875e+01 1.078295350074768066e+00 6.309435516595840454e-02 1.159164216369390488e-02 2.240579761564731598e-02 3.923460468649864197e-02
7.807000000000000000e+03 1.396254444122314453e+01 1.243136167526245117e+00 -3.844094462692737579e-03 5.983436014503240585e-03 6.418024422600865364e-04 4.028347879648208618e-02
7.808000000000000000e+03 1.470126342773437500e+01 1.407449364662170410e+00 -9.813106060028076172e-02 1.601131074130535126e-02 -2.463592588901519775e-02 3.283886238932609558e-02
7.809000000000000000e+03 1.544029712677001953e+01 1.569983482360839844e+00 -2.346717119216918945e-01 2.076455624774098396e-03 -6.977857649326324463e-02 3.105066902935504913e-02
7.810000000000000000e+03 1.532874107360839844e+01 2.303210496902465820e+00 -2.577877044677734375e-01 2.633466012775897980e-02 -6.943590939044952393e-02 1.369654089212417603e-01
7.811000000000000000e+03 1.382568740844726562e+01 1.970758438110351562e+00 -8.990393579006195068e-02 1.510027144104242325e-02 -2.244110032916069031e-02 9.176132827997207642e-02
7.812000000000000000e+03 1.457705688476562500e+01 2.137874126434326172e+00 -1.751238554716110229e-01 1.717398315668106079e-02 -4.738495871424674988e-02 1.175486221909523010e-01
7.813000000000000000e+03 1.104393005371093750e+01 6.161050796508789062e-01 1.388101428747177124e-01 1.286039827391505241e-03 4.202885553240776062e-02 2.993284538388252258e-02
7.814000000000000000e+03 1.093760776519775391e+01 1.349887132644653320e+00 7.026892900466918945e-02 -9.154989384114742279e-03 1.833418197929859161e-02 2.129549905657768250e-02
7.815000000000000000e+03 1.032133674621582031e+01 4.645727574825286865e-01 1.325733065605163574e-01 -2.219577552750706673e-03 3.910611942410469055e-02 1.921513490378856659e-02
7.816000000000000000e+03 1.176770782470703125e+01 7.675349712371826172e-01 1.306896060705184937e-01 7.214737590402364731e-03 4.137130081653594971e-02 3.390317410230636597e-02
7.817000000000000000e+03 1.234649181365966797e+01 1.644436478614807129e+00 2.115057222545146942e-02 1.160053652711212635e-03 6.693187635391950607e-03 5.078198015689849854e-02
7.818000000000000000e+03 1.249242305755615234e+01 9.189449548721313477e-01 1.058959588408470154e-01 3.545286832377314568e-03 3.283237293362617493e-02 3.910044208168983459e-02
7.819000000000000000e+03 1.023481845855712891e+01 1.202500104904174805e+00 8.725958317518234253e-02 -1.664678938686847687e-02 2.118383720517158508e-02 1.238893531262874603e-02
7.820000000000000000e+03 1.164158153533935547e+01 1.497171759605407715e+00 4.923215880990028381e-02 -6.057427730411291122e-03 1.295241899788379669e-02 3.783603757619857788e-02
7.821000000000000000e+03 7.887229919433593750e+00 3.867234289646148682e-01 1.304321885108947754e-01 -1.537407515570521355e-03 3.866843506693840027e-02 -4.878106061369180679e-03
7.822000000000000000e+03 8.716233253479003906e+00 3.873925805091857910e-01 1.381493508815765381e-01 -8.583413437008857727e-04 4.118730500340461731e-02 -2.149743726477026939e-03
7.823000000000000000e+03 7.056899547576904297e+00 3.878324329853057861e-01 1.173022612929344177e-01 -1.451379212085157633e-04 3.514713793992996216e-02 -6.832347251474857330e-03
7.824000000000000000e+03 6.178035259246826172e+00 1.128378868103027344e+00 6.566042453050613403e-02 -1.159713254310190678e-03 1.935021206736564636e-02 -2.008662372827529907e-02
7.825000000000000000e+03 4.565147399902343750e+00 3.867084681987762451e-01 6.459061801433563232e-02 -5.874280395801179111e-05 1.935956254601478577e-02 -8.172445930540561676e-03
7.826000000000000000e+03 3.734298944473266602e+00 3.859201967716217041e-01 4.649191349744796753e-02 3.920731833204627037e-04 1.406519580632448196e-02 -7.761409506201744080e-03
7.827000000000000000e+03 2.903336763381958008e+00 3.870553672313690186e-01 2.964447811245918274e-02 3.237383789382874966e-04 8.990464732050895691e-03 -6.999384146183729172e-03
7.828000000000000000e+03 2.880990266799926758e+00 1.127055406570434570e+00 2.303767204284667969e-02 2.340274164453148842e-03 7.613384164869785309e-03 -1.839557290077209473e-02
7.829000000000000000e+03 2.073071718215942383e+00 3.892002105712890625e-01 1.544183585792779922e-02 9.305341518484055996e-04 4.911710973829030991e-03 -5.550299771130084991e-03
7.830000000000000000e+03 2.057110071182250977e+00 1.129200220108032227e+00 1.390172261744737625e-02 3.657620167359709740e-03 5.267802625894546509e-03 -1.483483798801898956e-02
7.831000000000000000e+03 1.234333992004394531e+00 1.129331231117248535e+00 6.442190147936344147e-03 5.478876642882823944e-03 3.576320130378007889e-03 -9.357298724353313446e-03
7.832000000000000000e+03 4.116423428058624268e-01 1.129539847373962402e+00 1.536606228910386562e-03 4.305061884224414825e-03 1.752500422298908234e-03 -3.116655629128217697e-03
7.833000000000000000e+03 4.148346781730651855e-01 3.895398080348968506e-01 9.711408056318759918e-04 7.859115139581263065e-04 5.271157133392989635e-04 -8.581258589401841164e-04
7.834000000000000000e+03 4.530031204223632812e+00 1.126708507537841797e+00 4.451887309551239014e-02 5.254079005680978298e-04 1.351328380405902863e-02 -2.136074937880039215e-02
7.835000000000000000e+03 5.353859424591064453e+00 1.127378344535827637e+00 5.528003349900245667e-02 -6.744902930222451687e-04 1.638166233897209167e-02 -2.122728526592254639e-02
7.836000000000000000e+03 6.225920200347900391e+00 3.883788883686065674e-01 1.010181009769439697e-01 -5.711884587071835995e-04 3.013407438993453979e-02 -7.672264240682125092e-03
7.837000000000000000e+03 7.002630233764648438e+00 1.127832412719726562e+00 7.435952126979827881e-02 -3.204078413546085358e-03 2.134663239121437073e-02 -1.681436039507389069e-02
7.838000000000000000e+03 7.826575756072998047e+00 1.126723408699035645e+00 8.110196143388748169e-02 -3.548651235178112984e-03 2.326599135994911194e-02 -1.280962303280830383e-02
7.839000000000000000e+03 9.544963836669921875e+00 3.890661597251892090e-01 1.326161175966262817e-01 -6.252374500036239624e-03 3.790912404656410217e-02 6.340554449707269669e-03
7.840000000000000000e+03 9.471539497375488281e+00 1.129066109657287598e+00 9.034804254770278931e-02 -1.326492149382829666e-02 2.312493696808815002e-02 5.065634381026029587e-03
7.841000000000000000e+03 3.705567836761474609e+00 1.125920176506042480e+00 3.346698358654975891e-02 9.943064069375395775e-04 1.033838745206594467e-02 -2.054697833955287933e-02
7.842000000000000000e+03 1.243910908699035645e+00 3.893312513828277588e-01 5.544609855860471725e-03 1.222776249051094055e-03 2.030215924605727196e-03 -3.182902000844478607e-03
7.843000000000000000e+03 5.395359992980957031e+00 3.873783648014068604e-01 8.313082903623580933e-02 1.101982052205130458e-04 2.497230842709541321e-02 -8.181803859770298004e-03
7.844000000000000000e+03 8.649193763732910156e+00 1.127392530441284180e+00 8.336267620325088501e-02 -8.829125203192234039e-03 2.236006408929824829e-02 -4.168602172285318375e-03
7.845000000000000000e+03 1.338139057159423828e+01 3.142086565494537354e-01 -1.719417423009872437e-02 -4.573233891278505325e-03 -6.530222482979297638e-03 -6.051460746675729752e-03
7.846000000000000000e+03 1.410687160491943359e+01 4.760258793830871582e-01 -2.213673479855060577e-02 4.897992475889623165e-04 -6.494080647826194763e-03 -8.131337352097034454e-03
7.847000000000000000e+03 1.353089809417724609e+01 -4.106113612651824951e-01 -9.733043611049652100e-03 -9.085012716241180897e-04 -3.192463424056768417e-03 -1.088463515043258667e-02
7.848000000000000000e+03 1.483218193054199219e+01 6.374483108520507812e-01 -2.713630534708499908e-02 -4.171767737716436386e-03 -9.392421692609786987e-03 -7.408155594021081924e-03
7.849000000000000000e+03 1.495638942718505859e+01 -9.297639876604080200e-02 -1.668522320687770844e-02 1.128006959334015846e-03 -4.667164757847785950e-03 -9.962965734302997589e-03
7.850000000000000000e+03 1.566942024230957031e+01 6.387124955654144287e-02 -2.336603030562400818e-02 -2.882746979594230652e-03 -7.874633185565471649e-03 -9.302152320742607117e-03
7.851000000000000000e+03 1.555786418914794922e+01 7.970982789993286133e-01 -2.909649536013603210e-02 2.366470173001289368e-03 -8.019007742404937744e-03 -7.165625225752592087e-03
7.852000000000000000e+03 1.424372863769531250e+01 -2.515964508056640625e-01 -1.436561997979879379e-02 -5.064497701823711395e-03 -5.829035304486751556e-03 -9.297021664679050446e-03
7.853000000000000000e+03 6.218961715698242188e+01 -3.544780254364013672e+00 4.012064263224601746e-02 6.188979023136198521e-04 1.222186163067817688e-02 1.391907501965761185e-02
7.854000000000000000e+03 6.142840194702148438e+01 -4.621355533599853516e+00 2.215378219261765480e-03 2.272476442158222198e-02 7.482043001800775528e-03 3.198238089680671692e-02
7.855000000000000000e+03 6.229060745239257812e+01 -4.522155284881591797e+00 2.323951013386249542e-02 -1.480071339756250381e-02 2.531639067456126213e-03 2.816211059689521790e-02
7.856000000000000000e+03 6.166500854492187500e+01 -3.954722881317138672e+00 2.799571491777896881e-02 5.921205505728721619e-03 1.017507631331682205e-02 2.019573934376239777e-02
7.857000000000000000e+03 6.101048278808593750e+01 -3.887228012084960938e+00 9.866398759186267853e-03 9.345860220491886139e-03 5.763677414506673813e-03 9.613325819373130798e-03
7.858000000000000000e+03 6.081988525390625000e+01 -4.670522689819335938e+00 -4.313047975301742554e-03 4.218554496765136719e-02 1.136174891144037247e-02 1.555783580988645554e-02
7.859000000000000000e+03 6.230106735229492188e+01 -4.019287109375000000e+00 3.303425014019012451e-02 -3.655361477285623550e-03 8.813667111098766327e-03 2.073419280350208282e-02
7.860000000000000000e+03 1.115754413604736328e+01 -1.603091955184936523e-01 2.433468587696552277e-03 1.033344189636409283e-03 1.040043891407549381e-03 -3.405335359275341034e-03
7.861000000000000000e+03 1.126386642456054688e+01 -8.940912485122680664e-01 4.261569119989871979e-03 -5.469810683280229568e-03 -3.624724631663411856e-04 -8.517588488757610321e-03
7.862000000000000000e+03 1.049932956695556641e+01 -1.051980972290039062e+00 8.206464350223541260e-03 -8.020852110348641872e-04 2.221313770860433578e-03 -8.146844804286956787e-03
7.863000000000000000e+03 1.279222297668457031e+01 -5.713624954223632812e-01 -5.614643916487693787e-03 -5.704296752810478210e-03 -3.395682200789451599e-03 -9.424389339983463287e-03
7.864000000000000000e+03 1.264629268646240234e+01 1.541289687156677246e-01 -1.083042751997709274e-02 7.639746181666851044e-04 -3.019935917109251022e-03 -6.128042005002498627e-03
7.865000000000000000e+03 1.190196800231933594e+01 -3.807745641097426414e-03 -4.478171933442354202e-03 -4.039292689412832260e-03 -2.555239479988813400e-03 -3.952771425247192383e-03
7.866000000000000000e+03 1.202809429168701172e+01 -7.334445118904113770e-01 -7.045480306260287762e-04 -1.465767272748053074e-03 -6.510945968329906464e-04 -9.689322672784328461e-03
7.867000000000000000e+03 1.041281127929687500e+01 -3.140535950660705566e-01 1.002099923789501190e-02 -2.981254830956459045e-03 2.111923415213823318e-03 -1.969495089724659920e-03
7.868000000000000000e+03 8.950648307800292969e+00 -1.127177476882934570e+00 1.437459047883749008e-02 -3.895436748280189931e-05 4.300690721720457077e-03 -3.493947209790349007e-03
7.869000000000000000e+03 9.654337882995605469e+00 -3.896256983280181885e-01 1.633266545832157135e-02 1.985439797863364220e-03 5.495431832969188690e-03 -2.089423593133687973e-03
7.870000000000000000e+03 8.111012458801269531e+00 -3.855062127113342285e-01 2.138292603194713593e-02 1.445040456019341946e-03 6.848390214145183563e-03 -5.857712822034955025e-04
7.871000000000000000e+03 7.337950229644775391e+00 -3.871315717697143555e-01 2.168378047645092010e-02 -1.834378577768802643e-03 5.954820662736892700e-03 1.728829374769702554e-04
7.872000000000000000e+03 6.565063476562500000e+00 -3.886615037918090820e-01 2.078437805175781250e-02 1.056364271789789200e-03 6.552222650498151779e-03 7.069046259857714176e-04
7.873000000000000000e+03 5.792575359344482422e+00 -3.895556330680847168e-01 1.872157119214534760e-02 -1.308449776843190193e-03 5.223936401307582855e-03 1.185599132440984249e-03
7.874000000000000000e+03 5.020018577575683594e+00 -3.902509510517120361e-01 1.583515293896198273e-02 7.257707766257226467e-04 4.968277178704738617e-03 1.617858069948852062e-03
7.875000000000000000e+03 4.246604442596435547e+00 -3.901863992214202881e-01 1.234863512217998505e-02 -6.733539630658924580e-04 3.502584295347332954e-03 1.686143921688199043e-03
7.876000000000000000e+03 3.473218679428100586e+00 -3.899813890457153320e-01 8.769912645220756531e-03 4.756425041705369949e-04 2.773666521534323692e-03 1.797203323803842068e-03
7.877000000000000000e+03 2.700762510299682617e+00 -3.899726569652557373e-01 5.290477536618709564e-03 -1.358789595542475581e-04 1.546379644423723221e-03 1.512927818112075329e-03
7.878000000000000000e+03 1.928606271743774414e+00 -3.900973796844482422e-01 2.574325772002339363e-03 4.296555416658520699e-04 9.011943475343286991e-04 1.144420588389039040e-03
7.879000000000000000e+03 1.157287955284118652e+00 -3.904983699321746826e-01 7.952715386636555195e-04 2.059457183349877596e-04 3.003651800099760294e-04 5.381287191994488239e-04
7.880000000000000000e+03 3.859849572181701660e-01 -3.903989493846893311e-01 1.436017046216875315e-04 1.438369217794388533e-04 8.623158646514639258e-05 1.234338997164741158e-04
7.881000000000000000e+03 3.889317214488983154e-01 -1.130398988723754883e+00 2.381377416895702481e-04 7.079840288497507572e-04 2.838365326169878244e-04 5.170702934265136719e-04
7.882000000000000000e+03 9.728007316589355469e+00 -1.129625678062438965e+00 1.132579240947961807e-02 -3.506868379190564156e-03 2.345677232369780540e-03 -5.806218832731246948e-03
7.883000000000000000e+03 8.172894477844238281e+00 -1.125506162643432617e+00 1.592559181153774261e-02 -3.037342103198170662e-03 3.866475075483322144e-03 -1.766224973835051060e-03
7.884000000000000000e+03 7.393939018249511719e+00 -1.127131581306457520e+00 1.661368459463119507e-02 -1.263795420527458191e-04 4.946191795170307159e-03 2.779243222903460264e-04
7.885000000000000000e+03 6.615158557891845703e+00 -1.128661513328552246e+00 1.613486371934413910e-02 -2.382404869422316551e-03 4.125737585127353668e-03 1.634078915230929852e-03
7.886000000000000000e+03 5.836776733398437500e+00 -1.129555583000183105e+00 1.498197391629219055e-02 -1.068930851033655927e-05 4.491385538130998611e-03 3.282834310084581375e-03
7.887000000000000000e+03 5.058326244354248047e+00 -1.130250930786132812e+00 1.302370056509971619e-02 -1.548007829114794731e-03 3.442707704380154610e-03 3.970705438405275345e-03
7.888000000000000000e+03 4.279018878936767578e+00 -1.130186438560485840e+00 1.066743955016136169e-02 4.694246163126081228e-04 3.341059433296322823e-03 4.939967766404151917e-03
7.889000000000000000e+03 3.499739646911621094e+00 -1.129981398582458496e+00 7.879007607698440552e-03 -2.935113734565675259e-04 2.275648759678006172e-03 4.530029837042093277e-03
7.890000000000000000e+03 2.721390008926391602e+00 -1.129972696304321289e+00 5.686266347765922546e-03 1.001477241516113281e-03 2.006323076784610748e-03 4.291486460715532303e-03
7.891000000000000000e+03 1.943340182304382324e+00 -1.130097389221191406e+00 3.292447188869118690e-03 7.755188271403312683e-04 1.220389734953641891e-03 3.205900080502033234e-03
7.892000000000000000e+03 8.882872581481933594e+00 -3.871774673461914062e-01 1.953585818409919739e-02 -2.398198703303933144e-03 5.141297820955514908e-03 -1.150943688116967678e-03
7.893000000000000000e+03 1.166128277778625488e+00 -1.130498409271240234e+00 1.534135430119931698e-03 1.525106141343712807e-03 9.177724714390933514e-04 1.963424496352672577e-03
