# el_label, x, y, sXX, sYY, sZZ, sXY
1.000000000000000000e+00 1.558220195770263672e+01 1.168801546096801758e+00 3.572833776473999023e+00 -2.169190406799316406e+00 4.210929870605468750e-01 -2.562788426876068115e-01
2.000000000000000000e+00 1.539343070983886719e+01 1.105692148208618164e+00 3.719884634017944336e+00 1.293015837669372559e+00 1.503870129585266113e+00 1.712980389595031738e+00
3.000000000000000000e+00 1.520465946197509766e+01 1.042582750320434570e+00 1.958932161331176758e+00 7.145813852548599243e-02 6.091170907020568848e-01 8.494450449943542480e-01
4.000000000000000000e+00 1.501588821411132812e+01 9.794733524322509766e-01 9.919580817222595215e-01 3.616133630275726318e-01 4.060714244842529297e-01 6.488886475563049316e-01
5.000000000000000000e+00 1.560604858398437500e+01 1.115487337112426758e+00 1.185613822937011719e+01 6.818760931491851807e-02 3.577297925949096680e+00 5.663142204284667969e+00
6.000000000000000000e+00 1.543317604064941406e+01 1.016835212707519531e+00 5.631158351898193359e+00 1.773037433624267578e+00 2.221258640289306641e+00 3.124680757522583008e+00
7.000000000000000000e+00 1.526030349731445312e+01 9.181830286979675293e-01 4.364634513854980469e+00 1.990960240364074707e+00 1.906678438186645508e+00 3.333777904510498047e+00
8.000000000000000000e+00 1.508743000030517578e+01 8.195308446884155273e-01 2.963619709014892578e+00 1.417418003082275391e+00 1.314311385154724121e+00 2.460769653320312500e+00
9.000000000000000000e+00 1.563981914520263672e+01 1.067835807800292969e+00 1.255828380584716797e+01 6.609475612640380859e+00 5.750328063964843750e+00 1.051988410949707031e+01
1.000000000000000000e+01 1.548945903778076172e+01 9.374160170555114746e-01 7.970793724060058594e+00 4.183621883392333984e+00 3.646324634552001953e+00 6.616252422332763672e+00
1.100000000000000000e+01 1.533909988403320312e+01 8.069962263107299805e-01 5.233439922332763672e+00 4.082861900329589844e+00 2.794890403747558594e+00 5.110736370086669922e+00
1.200000000000000000e+01 1.518874073028564453e+01 6.765764355659484863e-01 4.059124469757080078e+00 3.755454063415527344e+00 2.344373464584350586e+00 4.769445896148681641e+00
1.300000000000000000e+01 1.568221950531005859e+01 1.027670502662658691e+00 1.147325801849365234e+01 1.347327518463134766e+01 7.483960151672363281e+00 1.321895027160644531e+01
1.400000000000000000e+01 1.556012725830078125e+01 8.704738616943359375e-01 7.458850860595703125e+00 8.965681076049804688e+00 4.927359580993652344e+00 8.971523284912109375e+00
1.500000000000000000e+01 1.543803501129150391e+01 7.132771611213684082e-01 5.537955284118652344e+00 7.276583194732666016e+00 3.844361543655395508e+00 7.297196388244628906e+00
1.600000000000000000e+01 1.531594276428222656e+01 5.560805201530456543e-01 3.948287963867187500e+00 6.491198062896728516e+00 3.131845712661743164e+00 6.183280944824218750e+00
1.700000000000000000e+01 1.573162937164306641e+01 9.965283870697021484e-01 8.953004837036132812e+00 2.080950546264648438e+01 8.928752899169921875e+00 1.344216060638427734e+01
1.800000000000000000e+01 1.564247608184814453e+01 8.185703158378601074e-01 6.261188030242919922e+00 1.403021335601806641e+01 6.087420463562011719e+00 1.008750247955322266e+01
1.900000000000000000e+01 1.555332279205322266e+01 6.406122446060180664e-01 4.488308429718017578e+00 1.150259971618652344e+01 4.797272682189941406e+00 8.126664161682128906e+00
2.000000000000000000e+01 1.546416950225830078e+01 4.626541435718536377e-01 3.279067754745483398e+00 9.935752868652343750e+00 3.964446306228637695e+00 7.252867221832275391e+00
2.100000000000000000e+01 1.578615570068359375e+01 9.756011962890625000e-01 6.704595088958740234e+00 2.695690155029296875e+01 1.009844875335693359e+01 1.184196090698242188e+01
2.200000000000000000e+01 1.573335361480712891e+01 7.836915850639343262e-01 4.686850547790527344e+00 1.911028480529785156e+01 7.139140605926513672e+00 9.312981605529785156e+00
2.300000000000000000e+01 1.568055152893066406e+01 5.917820334434509277e-01 3.199511289596557617e+00 1.560629653930664062e+01 5.641742229461669922e+00 8.070165634155273438e+00
2.400000000000000000e+01 1.562774944305419922e+01 3.998724818229675293e-01 2.289914608001708984e+00 1.368709564208984375e+01 4.793103218078613281e+00 6.980379104614257812e+00
2.500000000000000000e+01 1.584371280670166016e+01 9.656896591186523438e-01 5.440275669097900391e+00 3.166189956665039062e+01 1.113065242767333984e+01 8.486121177673339844e+00
2.600000000000000000e+01 1.582928276062011719e+01 7.671724557876586914e-01 3.540914535522460938e+00 2.317259788513183594e+01 8.014053344726562500e+00 7.509307861328125000e+00
2.700000000000000000e+01 1.581485176086425781e+01 5.686551928520202637e-01 2.269740819931030273e+00 1.918926048278808594e+01 6.437700271606445312e+00 6.554412364959716797e+00
2.800000000000000000e+01 1.580042171478271484e+01 3.701379895210266113e-01 1.347361683845520020e+00 1.681493949890136719e+01 5.448690414428710938e+00 6.027598857879638672e+00
2.900000000000000000e+01 1.590209865570068359e+01 9.671732187271118164e-01 5.591754913330078125e+00 3.434024429321289062e+01 1.197959995269775391e+01 4.600319385528564453e+00
3.000000000000000000e+01 1.592659187316894531e+01 7.696449756622314453e-01 3.348794221878051758e+00 2.591962623596191406e+01 8.780526161193847656e+00 4.665450572967529297e+00
3.100000000000000000e+01 1.595108509063720703e+01 5.721167325973510742e-01 2.018930673599243164e+00 2.172022819519042969e+01 7.121747493743896484e+00 4.468303680419921875e+00
3.200000000000000000e+01 1.597557830810546875e+01 3.745884895324707031e-01 1.061327099800109863e+00 1.902313232421875000e+01 6.025337696075439453e+00 4.057100772857666016e+00
3.300000000000000000e+01 1.595907783508300781e+01 9.799949526786804199e-01 7.249832153320312500e+00 3.495792388916015625e+01 1.266232681274414062e+01 6.309872269630432129e-01
3.400000000000000000e+01 1.602155876159667969e+01 7.910144925117492676e-01 4.262690544128417969e+00 2.725605010986328125e+01 9.455622673034667969e+00 1.806393742561340332e+00
3.500000000000000000e+01 1.608403778076171875e+01 6.020340919494628906e-01 2.684236288070678711e+00 2.290531158447265625e+01 7.676864147186279297e+00 1.808848738670349121e+00
3.600000000000000000e+01 1.614651870727539062e+01 4.130536913871765137e-01 1.678804755210876465e+00 2.025977706909179688e+01 6.581574440002441406e+00 2.019527435302734375e+00
3.700000000000000000e+01 1.601247215270996094e+01 1.003664255142211914e+00 1.024563789367675781e+01 3.414519500732421875e+01 1.331724929809570312e+01 -2.443139791488647461e+00
3.800000000000000000e+01 1.611054801940917969e+01 8.304634094238281250e-01 6.195487976074218750e+00 2.688614273071289062e+01 9.924489021301269531e+00 -8.623260259628295898e-01
3.900000000000000000e+01 1.620862388610839844e+01 6.572625637054443359e-01 4.183801651000976562e+00 2.317095756530761719e+01 8.206427574157714844e+00 -3.312516510486602783e-01
4.000000000000000000e+01 1.630669784545898438e+01 4.840616881847381592e-01 3.111131429672241211e+00 2.030081176757812500e+01 7.023582935333251953e+00 -3.043253719806671143e-01
4.100000000000000000e+01 1.606023597717285156e+01 1.037275433540344238e+00 1.341072177886962891e+01 3.192087745666503906e+01 1.359947967529296875e+01 -4.416299819946289062e+00
4.200000000000000000e+01 1.619015312194824219e+01 8.864820003509521484e-01 9.277122497558593750e+00 2.584943008422851562e+01 1.053796577453613281e+01 -2.670182704925537109e+00
4.300000000000000000e+01 1.632007217407226562e+01 7.356885671615600586e-01 6.348915576934814453e+00 2.182821273803710938e+01 8.453138351440429688e+00 -1.872377753257751465e+00
4.400000000000000000e+01 1.644998931884765625e+01 5.848951339721679688e-01 4.719133377075195312e+00 1.991724777221679688e+01 7.390914440155029297e+00 -1.517747163772583008e+00
4.500000000000000000e+01 1.610054206848144531e+01 1.079542279243469238e+00 1.751226234436035156e+01 2.991294288635253906e+01 1.422756195068359375e+01 -4.740341663360595703e+00
4.600000000000000000e+01 1.625732994079589844e+01 9.569266438484191895e-01 1.182747650146484375e+01 2.357712745666503906e+01 1.062138080596923828e+01 -3.713644266128540039e+00
4.700000000000000000e+01 1.641411972045898438e+01 8.343110680580139160e-01 9.740414619445800781e+00 2.045320320129394531e+01 9.058085441589355469e+00 -2.461870193481445312e+00
4.800000000000000000e+01 1.657090950012207031e+01 7.116955518722534180e-01 6.808833599090576172e+00 1.754494476318359375e+01 7.306133747100830078e+00 -1.635240077972412109e+00
4.900000000000000000e+01 1.613184928894042969e+01 1.128847241401672363e+00 2.032695960998535156e+01 2.717861175537109375e+01 1.425167083740234375e+01 -4.260222434997558594e+00
5.000000000000000000e+01 1.630950927734375000e+01 1.039101600646972656e+00 1.502127075195312500e+01 2.203024673461914062e+01 1.111545562744140625e+01 -3.195557832717895508e+00
5.100000000000000000e+01 1.648716926574707031e+01 9.493560791015625000e-01 1.190085697174072266e+01 1.810077095031738281e+01 9.000488281250000000e+00 -2.545651435852050781e+00
5.200000000000000000e+01 1.666482734680175781e+01 8.596105575561523438e-01 1.087635803222656250e+01 1.615517616271972656e+01 8.109459877014160156e+00 -1.639352083206176758e+00
5.300000000000000000e+01 1.615295791625976562e+01 1.183303713798522949e+00 2.259615707397460938e+01 2.564105415344238281e+01 1.447116374969482422e+01 -2.725560426712036133e+00
5.400000000000000000e+01 1.634469032287597656e+01 1.129862308502197266e+00 1.719714355468750000e+01 2.026174736022949219e+01 1.123766708374023438e+01 -1.986107349395751953e+00
5.500000000000000000e+01 1.653642082214355469e+01 1.076421141624450684e+00 1.409604072570800781e+01 1.668779563903808594e+01 9.235151290893554688e+00 -1.540617465972900391e+00
5.600000000000000000e+01 1.672815513610839844e+01 1.022979855537414551e+00 1.209515762329101562e+01 1.486980915069580078e+01 8.089489936828613281e+00 -1.150563955307006836e+00
5.700000000000000000e+01 1.616306114196777344e+01 1.240827679634094238e+00 2.381283760070800781e+01 2.523391914367675781e+01 1.471402740478515625e+01 -6.847927570343017578e-01
5.800000000000000000e+01 1.636152839660644531e+01 1.225735664367675781e+00 1.849596405029296875e+01 1.877727317810058594e+01 1.118197059631347656e+01 -1.960133463144302368e-01
5.900000000000000000e+01 1.655999565124511719e+01 1.210643768310546875e+00 1.523414230346679688e+01 1.652870750427246094e+01 9.528855323791503906e+00 4.645594954490661621e-02
6.000000000000000000e+01 1.675846481323242188e+01 1.195551872253417969e+00 1.262956905364990234e+01 1.303174686431884766e+01 7.698394775390625000e+00 6.942417025566101074e-01
6.100000000000000000e+01 1.616177177429199219e+01 1.299217939376831055e+00 2.366473579406738281e+01 2.476030921936035156e+01 1.452751350402832031e+01 1.637359738349914551e+00
6.200000000000000000e+01 1.635938072204589844e+01 1.323052883148193359e+00 1.866914749145507812e+01 1.927811431884765625e+01 1.138417816162109375e+01 1.517476201057434082e+00
6.300000000000000000e+01 1.655698776245117188e+01 1.346887826919555664e+00 1.524665451049804688e+01 1.573028469085693359e+01 9.293081283569335938e+00 2.205788612365722656e+00
6.400000000000000000e+01 1.675459671020507812e+01 1.370722651481628418e+00 1.380207538604736328e+01 1.371508026123046875e+01 8.255146026611328125e+00 1.793362021446228027e+00
6.500000000000000000e+01 1.614913940429687500e+01 1.356240153312683105e+00 2.272555160522460938e+01 2.564884185791015625e+01 1.451231765747070312e+01 3.222800493240356445e+00
6.600000000000000000e+01 1.633832740783691406e+01 1.418089747428894043e+00 1.744157218933105469e+01 2.009138107299804688e+01 1.125988674163818359e+01 3.430357456207275391e+00
6.700000000000000000e+01 1.652751541137695312e+01 1.479939460754394531e+00 1.476832675933837891e+01 1.618877410888671875e+01 9.287130355834960938e+00 3.430595874786376953e+00
6.800000000000000000e+01 1.671670341491699219e+01 1.541789174079895020e+00 1.250156688690185547e+01 1.488918209075927734e+01 8.217225074768066406e+00 3.154940605163574219e+00
6.900000000000000000e+01 1.612564849853515625e+01 1.409711956977844238e+00 2.063685226440429688e+01 2.763779830932617188e+01 1.448239517211914062e+01 4.458062171936035156e+00
7.000000000000000000e+01 1.629917526245117188e+01 1.507209658622741699e+00 1.556363582611083984e+01 2.110453987121582031e+01 1.100045299530029297e+01 4.457441329956054688e+00
7.100000000000000000e+01 1.647270202636718750e+01 1.604707360267639160e+00 1.304773235321044922e+01 1.790739822387695312e+01 9.286539077758789062e+00 3.996313571929931641e+00
7.200000000000000000e+01 1.664622879028320312e+01 1.702204942703247070e+00 1.049647617340087891e+01 1.528311538696289062e+01 7.733877658843994141e+00 4.537819385528564453e+00
7.300000000000000000e+01 1.609219551086425781e+01 1.457587480545043945e+00 1.767733001708984375e+01 2.918385124206542969e+01 1.405835437774658203e+01 4.904625415802001953e+00
7.400000000000000000e+01 1.624342155456542969e+01 1.587002158164978027e+00 1.322981834411621094e+01 2.328882408142089844e+01 1.095559310913085938e+01 4.241085529327392578e+00
7.500000000000000000e+01 1.639464759826660156e+01 1.716416835784912109e+00 1.048580837249755859e+01 1.906748580932617188e+01 8.865987777709960938e+00 4.085977554321289062e+00
7.600000000000000000e+01 1.654587364196777344e+01 1.845831513404846191e+00 9.396671295166015625e+00 1.632427597045898438e+01 7.716284275054931641e+00 4.370803356170654297e+00
7.700000000000000000e+01 1.605006408691406250e+01 1.498034477233886719e+00 1.478249549865722656e+01 3.140765762329101562e+01 1.385704612731933594e+01 3.966122150421142578e+00
7.800000000000000000e+01 1.617320251464843750e+01 1.654413819313049316e+00 1.043705081939697266e+01 2.468750762939453125e+01 1.053736782073974609e+01 3.252509593963623047e+00
7.900000000000000000e+01 1.629633903503417969e+01 1.810793161392211914e+00 8.331537246704101562e+00 2.069837760925292969e+01 8.708973884582519531e+00 3.031126022338867188e+00
8.000000000000000000e+01 1.641947746276855469e+01 1.967172503471374512e+00 7.218031406402587891e+00 1.705298233032226562e+01 7.281303882598876953e+00 2.707099676132202148e+00
8.100000000000000000e+01 1.600086402893066406e+01 1.529505252838134766e+00 1.187236118316650391e+01 3.296908187866210938e+01 1.345243263244628906e+01 1.893195748329162598e+00
8.200000000000000000e+01 1.609120178222656250e+01 1.706865191459655762e+00 8.122412681579589844e+00 2.570303535461425781e+01 1.014763450622558594e+01 1.221230387687683105e+00
8.300000000000000000e+01 1.618153762817382812e+01 1.884225010871887207e+00 6.588070392608642578e+00 2.134382820129394531e+01 8.379570007324218750e+00 1.163169264793395996e+00
8.400000000000000000e+01 1.627187538146972656e+01 2.061584949493408203e+00 4.718845367431640625e+00 1.868388557434082031e+01 7.020819187164306641e+00 9.042710065841674805e-01
8.500000000000000000e+01 1.594647884368896484e+01 1.550795555114746094e+00 9.282285690307617188e+00 3.339707565307617188e+01 1.280380821228027344e+01 -1.181149363517761230e+00
8.600000000000000000e+01 1.600055885314941406e+01 1.742348790168762207e+00 7.047061443328857422e+00 2.565937423706054688e+01 9.811930656433105469e+00 -1.517858028411865234e+00
8.700000000000000000e+01 1.605463790893554688e+01 1.933902263641357422e+00 4.944205284118652344e+00 2.120532035827636719e+01 7.844857692718505859e+00 -1.252814412117004395e+00
8.800000000000000000e+01 1.610871887207031250e+01 2.125455617904663086e+00 4.264993667602539062e+00 1.874762153625488281e+01 6.903784751892089844e+00 -6.088999509811401367e-01
8.900000000000000000e+01 1.588898849487304688e+01 1.561090469360351562e+00 8.648143768310546875e+00 3.252719879150390625e+01 1.235260295867919922e+01 -4.893297195434570312e+00
9.000000000000000000e+01 1.590474224090576172e+01 1.759507060050964355e+00 6.153251171112060547e+00 2.417102241516113281e+01 9.097282409667968750e+00 -4.477327823638916016e+00
9.100000000000000000e+01 1.592049503326416016e+01 1.957923769950866699e+00 5.127392292022705078e+00 2.010952949523925781e+01 7.571076393127441406e+00 -3.610940456390380859e+00
9.200000000000000000e+01 1.593624877929687500e+01 2.156340360641479492e+00 3.890515565872192383e+00 1.684475135803222656e+01 6.220580101013183594e+00 -3.060176372528076172e+00
9.300000000000000000e+01 1.583059406280517578e+01 1.559996128082275391e+00 8.680953979492187500e+00 2.960626411437988281e+01 1.148616504669189453e+01 -8.712143898010253906e+00
9.400000000000000000e+01 1.580741786956787109e+01 1.757683277130126953e+00 7.018752098083496094e+00 2.160689926147460938e+01 8.587695121765136719e+00 -6.959065437316894531e+00
9.500000000000000000e+01 1.578424167633056641e+01 1.955370426177978516e+00 5.514722347259521484e+00 1.745644378662109375e+01 6.891349792480468750e+00 -5.846964836120605469e+00
9.600000000000000000e+01 1.576106643676757812e+01 2.153057575225830078e+00 4.574683189392089844e+00 1.517186069488525391e+01 5.923963069915771484e+00 -5.088078022003173828e+00
9.700000000000000000e+01 1.577353000640869141e+01 1.547554612159729004e+00 1.038346099853515625e+01 2.519218063354492188e+01 1.067269229888916016e+01 -1.156943893432617188e+01
9.800000000000000000e+01 1.571231174468994141e+01 1.736947298049926758e+00 8.356723785400390625e+00 1.767008781433105469e+01 7.808043479919433594e+00 -8.748056411743164062e+00
9.900000000000000000e+01 1.565109348297119141e+01 1.926339983940124512e+00 6.735495090484619141e+00 1.425488758087158203e+01 6.297114849090576172e+00 -7.280019760131835938e+00
1.000000000000000000e+02 1.558987426757812500e+01 2.115732669830322266e+00 5.727819919586181641e+00 1.228019237518310547e+01 5.402403831481933594e+00 -6.028134346008300781e+00
1.010000000000000000e+02 1.571998023986816406e+01 1.524241685867309570e+00 1.289628791809082031e+01 1.943593215942382812e+01 9.699666023254394531e+00 -1.297540760040283203e+01
1.020000000000000000e+02 1.562306118011474609e+01 1.698092460632324219e+00 1.000762844085693359e+01 1.318024539947509766e+01 6.956362247467041016e+00 -9.402315139770507812e+00
1.030000000000000000e+02 1.552614307403564453e+01 1.871943354606628418e+00 8.242506027221679688e+00 1.045768737792968750e+01 5.610057830810546875e+00 -7.518834590911865234e+00
1.040000000000000000e+02 1.542922496795654297e+01 2.045794010162353516e+00 7.067128658294677734e+00 8.568758010864257812e+00 4.690765857696533203e+00 -6.362788677215576172e+00
1.050000000000000000e+02 1.567199325561523438e+01 1.490949630737304688e+00 1.534228992462158203e+01 1.309831619262695312e+01 8.532181739807128906e+00 -1.259543037414550781e+01
1.060000000000000000e+02 1.554308414459228516e+01 1.642605781555175781e+00 1.147014045715332031e+01 8.647185325622558594e+00 6.035197734832763672e+00 -8.586842536926269531e+00
1.070000000000000000e+02 1.541417407989501953e+01 1.794261932373046875e+00 9.403512954711914062e+00 6.552228450775146484e+00 4.786722660064697266e+00 -6.835113048553466797e+00
1.080000000000000000e+02 1.528526401519775391e+01 1.945918083190917969e+00 8.087102890014648438e+00 5.313774585723876953e+00 4.020263195037841797e+00 -5.776412487030029297e+00
1.090000000000000000e+02 1.563140583038330078e+01 1.448952555656433105e+00 1.678269577026367188e+01 7.349442005157470703e+00 7.239641189575195312e+00 -1.029925632476806641e+01
1.100000000000000000e+02 1.547543811798095703e+01 1.572610616683959961e+00 1.210844707489013672e+01 4.429034709930419922e+00 4.961244583129882812e+00 -6.679392814636230469e+00
1.110000000000000000e+02 1.531947040557861328e+01 1.696268677711486816e+00 9.677304267883300781e+00 3.390346527099609375e+00 3.920295238494873047e+00 -5.089817523956298828e+00
1.120000000000000000e+02 1.516350173950195312e+01 1.819926619529724121e+00 8.232151985168457031e+00 2.738812923431396484e+00 3.291289567947387695e+00 -4.477848052978515625e+00
1.130000000000000000e+02 1.559977149963378906e+01 1.399857401847839355e+00 1.654146194458007812e+01 2.548201084136962891e+00 5.726898670196533203e+00 -6.598837375640869141e+00
1.140000000000000000e+02 1.542271423339843750e+01 1.490785360336303711e+00 1.106591415405273438e+01 1.461182713508605957e+00 3.758128881454467773e+00 -3.939612150192260742e+00
1.150000000000000000e+02 1.524565601348876953e+01 1.581713199615478516e+00 8.924435615539550781e+00 1.157973170280456543e+00 3.024722814559936523e+00 -2.988008022308349609e+00
1.160000000000000000e+02 1.506859874725341797e+01 1.672641038894653320e+00 7.295427322387695312e+00 1.022614240646362305e+00 2.495412588119506836e+00 -2.512125015258789062e+00
1.170000000000000000e+02 1.557830047607421875e+01 1.345542907714843750e+00 1.335350227355957031e+01 -3.497130274772644043e-01 3.901136636734008789e+00 -2.458444595336914062e+00
1.180000000000000000e+02 1.538692855834960938e+01 1.400261163711547852e+00 8.555778503417968750e+00 -2.784615159034729004e-01 2.483195304870605469e+00 -1.070623993873596191e+00
1.190000000000000000e+02 1.519555664062500000e+01 1.454979419708251953e+00 6.391233921051025391e+00 3.719310462474822998e-01 2.028949499130249023e+00 -1.000900983810424805e+00
1.200000000000000000e+02 1.500418472290039062e+01 1.509697675704956055e+00 5.917507171630859375e+00 1.113565489649772644e-01 1.808659076690673828e+00 -1.162379503250122070e+00
1.210000000000000000e+02 1.556781387329101562e+01 1.288087487220764160e+00 7.298521041870117188e+00 -1.772718429565429688e+00 1.657740831375122070e+00 1.697237253189086914e+00
1.220000000000000000e+02 1.536945056915283203e+01 1.304502248764038086e+00 3.433509826660156250e+00 6.841303408145904541e-02 1.050576925277709961e+00 4.470161497592926025e-01
1.230000000000000000e+02 1.517108821868896484e+01 1.320916891098022461e+00 4.075774192810058594e+00 5.851210281252861023e-02 1.240285873413085938e+00 -2.376348823308944702e-01
1.240000000000000000e+02 1.497272491455078125e+01 1.337331652641296387e+00 3.264992713928222656e+00 -9.219837188720703125e-02 9.518383145332336426e-01 1.456983759999275208e-02
1.250000000000000000e+02 1.556871318817138672e+01 1.229689955711364746e+00 -4.805890560150146484e+00 -9.166826009750366211e-01 -1.716771841049194336e+00 1.713281869888305664e+00
1.260000000000000000e+02 1.537094974517822266e+01 1.207172989845275879e+00 9.294970631599426270e-01 4.776651859283447266e-01 4.221486747264862061e-01 -2.484526187181472778e-01
1.270000000000000000e+02 1.517318725585937500e+01 1.184655904769897461e+00 4.434026181697845459e-01 -2.055134326219558716e-01 7.136675715446472168e-02 2.665313184261322021e-01
1.280000000000000000e+02 1.497542381286621094e+01 1.162138938903808594e+00 5.842650532722473145e-01 1.136018261313438416e-01 2.093600630760192871e-01 4.130170494318008423e-02
1.290000000000000000e+02 1.216193008422851562e+01 -3.253968656063079834e-01 -1.662246108055114746e+00 4.676311090588569641e-02 -4.846449196338653564e-01 -3.062857091426849365e-01
1.300000000000000000e+02 1.108255004882812500e+01 -9.926878213882446289e-01 -9.615234732627868652e-01 -2.398977056145668030e-02 -2.956539690494537354e-01 -1.917405873537063599e-01
1.310000000000000000e+02 1.300631809234619141e+01 -5.910189747810363770e-01 -2.152969092130661011e-01 8.096799850463867188e-01 1.783149242401123047e-01 6.935216188430786133e-01
1.320000000000000000e+02 1.047753429412841797e+01 -1.198503613471984863e+00 -6.339699029922485352e-01 -3.317223489284515381e-02 -2.001426517963409424e-01 -3.290592730045318604e-01
1.330000000000000000e+02 1.046356582641601562e+01 -7.442316412925720215e-01 -1.485248804092407227e+00 -2.609277665615081787e-01 -5.238529443740844727e-01 -5.008104443550109863e-01
1.340000000000000000e+02 1.291535663604736328e+01 -4.184910655021667480e-01 -7.222450971603393555e-01 7.288878560066223145e-01 1.992834964767098427e-03 5.041818618774414062e-01
1.350000000000000000e+02 1.044193363189697266e+01 -2.267714887857437134e-01 -2.763255357742309570e+00 -2.110702097415924072e-01 -8.922976255416870117e-01 -5.289430618286132812e-01
1.360000000000000000e+02 1.280275249481201172e+01 -1.882408261299133301e-01 -1.399730920791625977e+00 3.303406238555908203e-01 -3.208170831203460693e-01 1.072753071784973145e-01
1.370000000000000000e+02 1.282437801361083984e+01 2.603525519371032715e-01 -2.343892574310302734e+00 -8.156958222389221191e-02 -7.276386618614196777e-01 -5.971400737762451172e-01
1.380000000000000000e+02 1.268755722045898438e+01 4.351400434970855713e-01 -3.026825428009033203e+00 -7.989468425512313843e-02 -9.320160746574401855e-01 -7.118376493453979492e-01
1.390000000000000000e+02 1.280628681182861328e+01 6.603093445301055908e-02 -2.128240585327148438e+00 5.957935377955436707e-02 -6.205983757972717285e-01 -2.320431768894195557e-01
1.400000000000000000e+02 1.217054748535156250e+01 -8.088908791542053223e-01 -6.699900031089782715e-01 5.147867798805236816e-01 -4.656096920371055603e-02 1.679783463478088379e-01
1.410000000000000000e+02 1.294344043731689453e+01 -8.088904619216918945e-01 -1.758247166872024536e-01 9.537881016731262207e-01 2.333890199661254883e-01 7.785002589225769043e-01
1.420000000000000000e+02 1.267334079742431641e+01 -6.856525540351867676e-01 -4.378399252891540527e-01 8.105185627937316895e-01 1.118035838007926941e-01 5.326758027076721191e-01
1.430000000000000000e+02 1.195614624023437500e+01 1.182769685983657837e-01 -2.825535774230957031e+00 -1.753990650177001953e-01 -9.002804160118103027e-01 -6.203590035438537598e-01
1.440000000000000000e+02 1.248648357391357422e+01 2.161343842744827271e-01 -2.777708768844604492e+00 -8.804353326559066772e-02 -8.597257137298583984e-01 -5.921148061752319336e-01
1.450000000000000000e+02 1.121848964691162109e+01 -7.346130907535552979e-02 -2.714200258255004883e+00 -1.030240058898925781e-01 -8.451672792434692383e-01 -6.409388780593872070e-01
1.460000000000000000e+02 1.157728099822998047e+01 -6.221800446510314941e-01 -1.328344464302062988e+00 -8.459674566984176636e-02 -4.238823354244232178e-01 -3.553713560104370117e-01
1.470000000000000000e+02 1.661734771728515625e+01 4.104675650596618652e-01 4.155889034271240234e+00 1.732353591918945312e+01 6.443827629089355469e+00 -9.794407486915588379e-01
1.480000000000000000e+02 1.668121719360351562e+01 5.842735767364501953e-01 5.394555568695068359e+00 1.624569511413574219e+01 6.492074966430664062e+00 -1.062225818634033203e+00
1.490000000000000000e+02 1.649347305297851562e+01 2.087207555770874023e+00 5.412771224975585938e+00 1.511641216278076172e+01 6.158755302429199219e+00 2.368347644805908203e+00
1.500000000000000000e+02 1.591788959503173828e+01 2.586662054061889648e+00 2.870044231414794922e+00 1.286308193206787109e+01 4.719937801361083984e+00 -2.672576189041137695e+00
1.510000000000000000e+02 1.402394199371337891e+01 7.068161964416503906e-01 -1.923821568489074707e+00 1.880115419626235962e-01 -5.207430124282836914e-01 -1.609462350606918335e-01
1.520000000000000000e+02 1.333043384552001953e+01 -7.241360545158386230e-01 6.606663111597299576e-03 1.881378412246704102e+00 5.663955211639404297e-01 1.196264743804931641e+00
1.530000000000000000e+02 1.363606452941894531e+01 6.245588064193725586e-01 -2.546479940414428711e+00 -6.212067790329456329e-03 -7.658076286315917969e-01 -4.385439157485961914e-01
1.540000000000000000e+02 1.599674606323242188e+01 7.560548372566699982e-03 6.010241061449050903e-02 1.545635318756103516e+01 4.654936790466308594e+00 4.119789600372314453e+00
1.550000000000000000e+02 1.588054370880126953e+01 -2.001013308763504028e-01 -6.803985238075256348e-01 1.467267704010009766e+01 4.197683811187744141e+00 4.474701881408691406e+00
1.560000000000000000e+02 1.535962200164794922e+01 2.898249626159667969e-01 2.469920396804809570e+00 8.982811927795410156e+00 3.435819625854492188e+00 6.443926334381103516e+00
1.570000000000000000e+02 1.501708507537841797e+01 5.300903916358947754e-01 2.836410522460937500e+00 3.251193523406982422e+00 1.826281189918518066e+00 4.019098281860351562e+00
1.580000000000000000e+02 1.510406494140625000e+01 -3.381886780261993408e-01 5.189298391342163086e-01 7.823418617248535156e+00 2.502704620361328125e+00 4.930460929870605469e+00
1.590000000000000000e+02 1.421295452117919922e+01 4.619684219360351562e-01 -3.063825666904449463e-01 6.663190126419067383e-01 1.079809367656707764e-01 8.687214851379394531e-01
1.600000000000000000e+02 1.369993400573730469e+01 -2.113615423440933228e-01 -6.114454194903373718e-02 1.332609295845031738e+00 3.814394176006317139e-01 1.340163707733154297e+00
1.610000000000000000e+02 1.372445487976074219e+01 -6.330490708351135254e-01 2.680585384368896484e-01 2.113825559616088867e+00 7.145652174949645996e-01 1.862911701202392578e+00
1.620000000000000000e+02 1.352911567687988281e+01 -6.778036355972290039e-01 1.479464769363403320e-01 1.881280779838562012e+00 6.087681651115417480e-01 1.643452763557434082e+00
1.630000000000000000e+02 1.274522590637207031e+01 1.996552109718322754e+00 1.538449406623840332e+00 -7.453633099794387817e-02 4.391739368438720703e-01 -1.319182276725769043e+00
1.640000000000000000e+02 1.289401245117187500e+01 1.369603157043457031e+00 3.855889439582824707e-01 -1.766473650932312012e-01 6.268247961997985840e-02 -5.609107017517089844e-01
1.650000000000000000e+02 1.314132308959960938e+01 1.384152650833129883e+00 7.574673891067504883e-01 -1.378407478332519531e-01 1.858879923820495605e-01 -4.850643575191497803e-01
1.660000000000000000e+02 1.554966068267822266e+01 2.333849191665649414e+00 4.963510990142822266e+00 1.028227806091308594e+01 4.573736667633056641e+00 -4.891437530517578125e+00
1.670000000000000000e+02 1.300709438323974609e+01 7.583000659942626953e-01 -6.653403639793395996e-01 -9.178091585636138916e-02 -2.271363735198974609e-01 -1.798961013555526733e-01
1.680000000000000000e+02 1.315074634552001953e+01 9.981876015663146973e-01 -2.132604420185089111e-01 -7.828422635793685913e-02 -8.746340125799179077e-02 -2.624863386154174805e-01
1.690000000000000000e+02 1.359544467926025391e+01 1.991463065147399902e+00 2.600291013717651367e+00 -1.492356806993484497e-01 7.353165745735168457e-01 -1.455030083656311035e+00
1.700000000000000000e+02 1.322113132476806641e+01 1.867409467697143555e+00 1.776144266128540039e+00 -1.796561926603317261e-01 4.789464175701141357e-01 -1.172725319862365723e+00
1.710000000000000000e+02 1.438161373138427734e+01 1.043189048767089844e+00 3.127561211585998535e-01 -9.298543445765972137e-03 9.103727340698242188e-02 -2.736206988629419357e-05
1.720000000000000000e+02 1.478742122650146484e+01 1.562590718269348145e+00 4.916734218597412109e+00 9.188596159219741821e-02 1.502586126327514648e+00 -9.239766597747802734e-01
1.730000000000000000e+02 1.452404403686523438e+01 1.574982523918151855e+00 3.879691600799560547e+00 -3.837329149246215820e-02 1.152395486831665039e+00 -8.375884294509887695e-01
1.740000000000000000e+02 1.477591896057128906e+01 1.135913729667663574e+00 4.927262663841247559e-01 -4.860854521393775940e-02 1.332353204488754272e-01 9.401585906744003296e-02
1.750000000000000000e+02 1.681591224670410156e+01 1.817847847938537598e+00 9.804815292358398438e+00 1.381723213195800781e+01 7.086614131927490234e+00 4.649312973022460938e+00
1.760000000000000000e+02 1.619001197814941406e+01 2.253609895706176758e+00 3.693842887878417969e+00 1.776375389099121094e+01 6.437279224395751953e+00 -2.090416252613067627e-01
1.770000000000000000e+02 1.582823181152343750e+01 2.357130289077758789e+00 3.480720520019531250e+00 1.463455390930175781e+01 5.434582233428955078e+00 -3.573848247528076172e+00
1.780000000000000000e+02 1.482577133178710938e+01 9.155029058456420898e-01 2.603082954883575439e-01 1.757199764251708984e-01 1.308084875345230103e-01 4.221620857715606689e-01
1.790000000000000000e+02 1.451560497283935547e+01 5.346346497535705566e-01 5.334337949752807617e-01 9.746847748756408691e-01 4.524355530738830566e-01 1.582231402397155762e+00
1.800000000000000000e+02 1.517496871948242188e+01 3.853900134563446045e-01 2.983452320098876953e+00 5.810319900512695312e+00 2.638131618499755859e+00 5.575649261474609375e+00
1.810000000000000000e+02 1.540300846099853516e+01 4.868928715586662292e-02 1.329722285270690918e+00 1.000803184509277344e+01 3.401326179504394531e+00 6.014008998870849609e+00
1.820000000000000000e+02 1.567556285858154297e+01 7.182759791612625122e-02 6.902096271514892578e-01 1.346219921112060547e+01 4.245722770690917969e+00 5.772717475891113281e+00
1.830000000000000000e+02 1.623062705993652344e+01 2.935075163841247559e-01 1.201755642890930176e+00 1.862986564636230469e+01 5.949486732482910156e+00 1.824458837509155273e+00
1.840000000000000000e+02 1.689871025085449219e+01 7.433496117591857910e-01 7.718962192535400391e+00 1.343400001525878906e+01 6.345888614654541016e+00 -1.371155261993408203e+00
1.850000000000000000e+02 1.703235626220703125e+01 1.414515376091003418e+00 1.042102813720703125e+01 1.143446636199951172e+01 6.556648254394531250e+00 1.951734781265258789e+00
1.860000000000000000e+02 1.430850410461425781e+01 -4.709154069423675537e-01 7.267230153083801270e-01 3.556717395782470703e+00 1.285032153129577637e+00 2.981593847274780273e+00
1.870000000000000000e+02 1.325280570983886719e+01 -2.999003529548645020e-01 -6.915242075920104980e-01 5.893367528915405273e-01 -3.065622411668300629e-02 7.067705988883972168e-01
1.880000000000000000e+02 1.325192928314208984e+01 5.597246885299682617e-01 -2.948889255523681641e+00 2.762783877551555634e-02 -8.763784170150756836e-01 -6.856463551521301270e-01
1.890000000000000000e+02 1.344409751892089844e+01 5.940046310424804688e-01 -2.810421705245971680e+00 -1.301355808973312378e-01 -8.821671605110168457e-01 -4.939351975917816162e-01
1.900000000000000000e+02 1.305898571014404297e+01 5.150254368782043457e-01 -3.119400978088378906e+00 -3.517358899116516113e-01 -1.041341066360473633e+00 -5.931296944618225098e-01
1.910000000000000000e+02 1.489465045928955078e+01 2.433761596679687500e+00 5.372019767761230469e+00 3.586709976196289062e+00 2.687618970870971680e+00 -4.662773132324218750e+00
1.920000000000000000e+02 1.702473831176757812e+01 1.908510327339172363e+00 8.563305854797363281e+00 1.156888866424560547e+01 6.039658069610595703e+00 4.409832000732421875e+00
1.930000000000000000e+02 1.671728134155273438e+01 2.169160366058349609e+00 5.483993530273437500e+00 1.348976802825927734e+01 5.692128181457519531e+00 3.409570217132568359e+00
1.940000000000000000e+02 1.476211452484130859e+01 1.343939661979675293e+00 2.823025703430175781e+00 -1.395599544048309326e-02 8.427209258079528809e-01 -1.629634052515029907e-01
1.950000000000000000e+02 1.634754753112792969e+01 2.172335863113403320e+00 4.872607707977294922e+00 1.712821197509765625e+01 6.600245952606201172e+00 1.141450643539428711e+00
1.960000000000000000e+02 1.549182319641113281e+01 2.581833124160766602e+00 4.317960262298583984e+00 8.208743095397949219e+00 3.758010864257812500e+00 -4.723368644714355469e+00
1.970000000000000000e+02 1.666233634948730469e+01 1.985495924949645996e+00 8.469027519226074219e+00 1.454522514343261719e+01 6.904275894165039062e+00 4.201816082000732422e+00
1.980000000000000000e+02 1.409554862976074219e+01 2.294092178344726562e+00 4.010090351104736328e+00 4.589736759662628174e-01 1.340719103813171387e+00 -2.548558235168457031e+00
1.990000000000000000e+02 1.528190994262695312e+01 2.528615951538085938e+00 4.578920364379882812e+00 7.182854652404785156e+00 3.528532505035400391e+00 -5.309494972229003906e+00
2.000000000000000000e+02 1.605035972595214844e+01 2.318916797637939453e+00 3.979309082031250000e+00 1.588572502136230469e+01 5.959510326385498047e+00 -1.988048672676086426e+00
2.010000000000000000e+02 1.648222541809082031e+01 2.421281576156616211e+00 3.862950563430786133e+00 1.392786026000976562e+01 5.337243080139160156e+00 2.297300100326538086e+00
2.020000000000000000e+02 1.508933162689208984e+01 2.477306842803955078e+00 5.095221519470214844e+00 4.974682331085205078e+00 3.020971059799194336e+00 -4.861302375793457031e+00
2.030000000000000000e+02 1.534784698486328125e+01 2.263342142105102539e+00 6.086461544036865234e+00 7.314857482910156250e+00 4.020395755767822266e+00 -5.745122909545898438e+00
2.040000000000000000e+02 1.700721931457519531e+01 9.697803258895874023e-01 9.467231750488281250e+00 1.216358947753906250e+01 6.489246368408203125e+00 2.657587230205535889e-01
2.050000000000000000e+02 1.644599151611328125e+01 4.329695552587509155e-02 7.008054256439208984e-01 1.666859054565429688e+01 5.210818767547607422e+00 1.017370343208312988e+00
2.060000000000000000e+02 1.687911796569824219e+01 4.356670081615447998e-01 5.330211162567138672e+00 1.405786895751953125e+01 5.816423892974853516e+00 -1.173618197441101074e+00
2.070000000000000000e+02 1.443065738677978516e+01 7.797829508781433105e-01 -9.283417463302612305e-01 1.086763665080070496e-01 -2.458996176719665527e-01 2.154727727174758911e-01
2.080000000000000000e+02 1.637952804565429688e+01 3.660104274749755859e-01 2.818417310714721680e+00 1.931041336059570312e+01 6.638649463653564453e+00 -8.331862837076187134e-02
2.090000000000000000e+02 1.653930854797363281e+01 4.719394147396087646e-01 4.105714321136474609e+00 1.861574935913085938e+01 6.816439151763916016e+00 -1.446316957473754883e+00
2.100000000000000000e+02 1.553148841857910156e+01 2.101162075996398926e-01 1.730513691902160645e+00 1.178189563751220703e+01 4.053722858428955078e+00 6.603968143463134766e+00
2.110000000000000000e+02 1.697328376770019531e+01 1.188833832740783691e+00 1.296062946319580078e+01 1.174119663238525391e+01 7.410547733306884766e+00 5.391088128089904785e-01
2.120000000000000000e+02 1.549693393707275391e+01 -6.494627147912979126e-02 7.032769322395324707e-01 1.085648632049560547e+01 3.467928886413574219e+00 5.747066497802734375e+00
2.130000000000000000e+02 1.640252876281738281e+01 2.856135964393615723e-01 2.134912014007568359e+00 1.863178825378417969e+01 6.230010032653808594e+00 4.651650488376617432e-01
2.140000000000000000e+02 1.469191169738769531e+01 2.396576881408691406e+00 5.368441581726074219e+00 2.208707571029663086e+00 2.273144721984863281e+00 -3.978083133697509766e+00
2.150000000000000000e+02 1.380834197998046875e+01 9.513232707977294922e-01 -1.101160496473312378e-01 -8.667829632759094238e-02 -5.903830379247665405e-02 -1.137303337454795837e-01
2.160000000000000000e+02 1.449060249328613281e+01 2.360315561294555664e+00 4.874358177185058594e+00 1.352939963340759277e+00 1.868189454078674316e+00 -3.404927015304565430e+00
2.170000000000000000e+02 1.487822341918945312e+01 1.753966808319091797e+00 6.311917304992675781e+00 7.414575815200805664e-01 2.116012573242187500e+00 -2.404861211776733398e+00
2.180000000000000000e+02 1.360842037200927734e+01 1.527263998985290527e+00 1.693713903427124023e+00 -1.818616092205047607e-01 4.535557031631469727e-01 -6.511082649230957031e-01
2.190000000000000000e+02 1.352685070037841797e+01 2.179603338241577148e+00 2.826888084411621094e+00 -9.248179383575916290e-03 8.452919721603393555e-01 -1.723596334457397461e+00
2.200000000000000000e+02 1.360089015960693359e+01 9.246245622634887695e-01 -2.345866262912750244e-01 -3.826988860964775085e-02 -8.185695111751556396e-02 -1.579978018999099731e-01
2.210000000000000000e+02 1.400585174560546875e+01 9.833451509475708008e-01 4.775839298963546753e-02 -8.095041848719120026e-03 1.189900469034910202e-02 -6.146024167537689209e-02
2.220000000000000000e+02 1.419917392730712891e+01 1.016883969306945801e+00 1.518509238958358765e-01 -3.946431353688240051e-02 3.371598199009895325e-02 -4.243268817663192749e-02
2.230000000000000000e+02 1.391204261779785156e+01 1.161833524703979492e+00 6.722744703292846680e-01 -8.845156431198120117e-02 1.751468628644943237e-01 -1.310315281152725220e-01
2.240000000000000000e+02 1.452371883392333984e+01 1.320741891860961914e+00 2.071667671203613281e+00 -5.481735616922378540e-02 6.050550937652587891e-01 -7.259523868560791016e-02
2.250000000000000000e+02 1.320181941986083984e+01 8.024810552597045898e-01 -5.480113029479980469e-01 3.205681452527642250e-03 -1.634416878223419189e-01 -1.923552751541137695e-01
2.260000000000000000e+02 1.365239334106445312e+01 3.543504178524017334e-01 -1.480608940124511719e+00 2.018751651048660278e-01 -3.836201429367065430e-01 1.489873081445693970e-01
2.270000000000000000e+02 1.404112815856933594e+01 4.614679813385009766e-01 -9.542903304100036621e-01 4.372490942478179932e-01 -1.551123708486557007e-01 4.539345204830169678e-01
2.280000000000000000e+02 1.451615715026855469e+01 -4.371819496154785156e-01 8.810991048812866211e-01 4.334220409393310547e+00 1.564595818519592285e+00 3.513744592666625977e+00
2.290000000000000000e+02 1.403694343566894531e+01 -2.737066149711608887e-01 4.349157214164733887e-01 2.180020332336425781e+00 7.844808101654052734e-01 2.082948923110961914e+00
2.300000000000000000e+02 1.335605907440185547e+01 1.960285007953643799e-01 -1.444136261940002441e+00 2.208661139011383057e-01 -3.669810295104980469e-01 2.148780822753906250e-01
2.310000000000000000e+02 1.551446628570556641e+01 -2.481686472892761230e-01 1.560957729816436768e-01 1.106797027587890625e+01 3.367219924926757812e+00 5.486135482788085938e+00
2.320000000000000000e+02 1.570588016510009766e+01 -2.235230654478073120e-01 -1.431777626276016235e-01 1.283734035491943359e+01 3.808248758316040039e+00 4.970706462860107422e+00
2.330000000000000000e+02 1.410638999938964844e+01 -5.297247171401977539e-01 5.173406004905700684e-01 2.955860614776611328e+00 1.041960358619689941e+00 2.494180202484130859e+00
2.340000000000000000e+02 1.329120635986328125e+01 -5.118477940559387207e-01 -2.246806770563125610e-01 1.092881798744201660e+00 2.604603469371795654e-01 9.440855979919433594e-01
2.350000000000000000e+02 1.532502079010009766e+01 -1.045088544487953186e-01 8.686767816543579102e-01 9.174558639526367188e+00 3.012970685958862305e+00 5.695413589477539062e+00
2.360000000000000000e+02 1.471625328063964844e+01 -4.246625900268554688e-01 8.915429711341857910e-01 5.310258388519287109e+00 1.860540390014648438e+00 4.064804077148437500e+00
2.370000000000000000e+02 1.296272182464599609e+01 9.637094140052795410e-01 -4.181748032569885254e-01 -1.318485587835311890e-01 -1.650070101022720337e-01 -3.193371295928955078e-01
2.380000000000000000e+02 1.350951576232910156e+01 1.188931584358215332e+00 5.247787237167358398e-01 -1.204806268215179443e-01 1.212894320487976074e-01 -2.318745553493499756e-01
2.390000000000000000e+02 1.292758941650390625e+01 1.166218280792236328e+00 2.035782188177108765e-01 -1.186696812510490417e-01 2.547256089746952057e-02 -3.298824429512023926e-01
2.400000000000000000e+02 1.284910964965820312e+01 1.577091574668884277e+00 8.123646974563598633e-01 -1.585383117198944092e-01 1.961479187011718750e-01 -6.926963329315185547e-01
2.410000000000000000e+02 1.320933055877685547e+01 -8.985691517591476440e-02 -1.016815662384033203e+00 5.791069865226745605e-01 -1.313126236200332642e-01 4.311823844909667969e-01
2.420000000000000000e+02 1.344120407104492188e+01 -1.180262421257793903e-03 -8.782661557197570801e-01 5.610134005546569824e-01 -9.517581015825271606e-02 4.882567226886749268e-01
2.430000000000000000e+02 1.480193233489990234e+01 4.043788015842437744e-01 2.004609823226928711e+00 2.702623367309570312e+00 1.412169933319091797e+00 3.430797100067138672e+00
2.440000000000000000e+02 1.371457672119140625e+01 2.228221416473388672e+00 3.088737726211547852e+00 -4.631495475769042969e-02 9.127268195152282715e-01 -1.867314696311950684e+00
2.450000000000000000e+02 1.454342079162597656e+01 1.845150828361511230e+00 4.989411830902099609e+00 3.667905330657958984e-01 1.606860756874084473e+00 -1.891886830329895020e+00
2.460000000000000000e+02 1.314452266693115234e+01 2.081146955490112305e+00 2.127388477325439453e+00 -1.141675040125846863e-01 6.039662957191467285e-01 -1.474754333496093750e+00
2.470000000000000000e+02 1.497360420227050781e+01 1.909923434257507324e+00 7.259133338928222656e+00 2.124267578125000000e+00 2.815020322799682617e+00 -3.836723804473876953e+00
2.480000000000000000e+02 1.390314960479736328e+01 2.265081405639648438e+00 3.541751146316528320e+00 2.693194448947906494e-01 1.143321156501770020e+00 -2.156648159027099609e+00
2.490000000000000000e+02 1.339464092254638672e+01 8.575173616409301758e-01 -3.878591358661651611e-01 -7.324648648500442505e-02 -1.383316814899444580e-01 -1.799852102994918823e-01
2.500000000000000000e+02 1.345700454711914062e+01 3.641504347324371338e-01 -1.778018951416015625e+00 2.440646588802337646e-01 -4.601862728595733643e-01 -9.286046028137207031e-02
2.510000000000000000e+02 1.408402347564697266e+01 -5.619117245078086853e-02 3.010014891624450684e-01 1.814706325531005859e+00 6.347123384475708008e-01 1.900944709777832031e+00
2.520000000000000000e+02 1.301555728912353516e+01 1.821204900741577148e+00 1.554538369178771973e+00 -1.668598353862762451e-01 4.163035750389099121e-01 -1.080234885215759277e+00
2.530000000000000000e+02 1.315506649017333984e+01 1.118174195289611816e-01 -1.427453637123107910e+00 4.783983230590820312e-01 -2.847165763378143311e-01 8.267948403954505920e-03
2.540000000000000000e+02 1.490692996978759766e+01 7.174445986747741699e-01 1.952823519706726074e+00 1.349143147468566895e+00 9.905900359153747559e-01 2.190965890884399414e+00
2.550000000000000000e+02 1.507168865203857422e+01 1.870184093713760376e-01 2.198959589004516602e+00 5.626355171203613281e+00 2.347594499588012695e+00 5.090703010559082031e+00
2.560000000000000000e+02 1.279840469360351562e+01 1.785984992980957031e+00 1.022018313407897949e+00 -7.325083762407302856e-02 2.846302390098571777e-01 -1.068947911262512207e+00
2.570000000000000000e+02 1.395420646667480469e+01 1.789278864860534668e+00 2.977426290512084961e+00 -7.340354472398757935e-02 8.712068200111389160e-01 -1.143115878105163574e+00
2.580000000000000000e+02 1.349704456329345703e+01 -4.585160911083221436e-01 -1.524139940738677979e-01 1.524971723556518555e+00 4.117673337459564209e-01 1.379351854324340820e+00
2.590000000000000000e+02 1.341425800323486328e+01 1.925113320350646973e+00 2.278430938720703125e+00 -1.323934495449066162e-01 6.438112854957580566e-01 -1.266613721847534180e+00
2.600000000000000000e+02 1.441458129882812500e+01 -5.404732748866081238e-02 8.959790468215942383e-01 2.756371021270751953e+00 1.095705032348632812e+00 2.837841033935546875e+00
2.610000000000000000e+02 1.455735874176025391e+01 -2.088676244020462036e-01 1.072703242301940918e+00 3.851514339447021484e+00 1.477265238761901855e+00 3.550989627838134766e+00
2.620000000000000000e+02 1.410931873321533203e+01 2.757124602794647217e-01 4.926634952425956726e-02 9.477695226669311523e-01 2.991107404232025146e-01 1.280356764793395996e+00
2.630000000000000000e+02 1.438326835632324219e+01 3.602853119373321533e-01 5.363745093345642090e-01 1.260895252227783203e+00 5.391809344291687012e-01 1.684101939201354980e+00
2.640000000000000000e+02 1.331317806243896484e+01 1.076139330863952637e+00 9.847258031368255615e-02 -5.481249839067459106e-02 1.309802569448947906e-02 -2.579965293407440186e-01
2.650000000000000000e+02 1.476336002349853516e+01 1.895792365074157715e+00 6.093234062194824219e+00 8.745216131210327148e-01 2.090326786041259766e+00 -2.601771831512451172e+00
2.660000000000000000e+02 1.426057529449462891e+01 1.307860314846038818e-01 4.069583415985107422e-01 1.648132443428039551e+00 6.165272593498229980e-01 1.943258404731750488e+00
2.670000000000000000e+02 1.330119800567626953e+01 1.654065012931823730e+00 1.590437650680541992e+00 -1.692450940608978271e-01 4.263577759265899658e-01 -8.429099917411804199e-01
2.680000000000000000e+02 1.350306129455566406e+01 1.725779056549072266e+00 1.925932288169860840e+00 -1.936821937561035156e-01 5.196750164031982422e-01 -9.764233827590942383e-01
2.690000000000000000e+02 1.379709339141845703e+01 1.651702404022216797e+00 2.218996047973632812e+00 -1.745608448982238770e-01 6.133306026458740234e-01 -8.726989030838012695e-01
2.700000000000000000e+02 1.369475936889648438e+01 5.336216464638710022e-02 -4.952884614467620850e-01 8.550219535827636719e-01 1.079200431704521179e-01 8.933085799217224121e-01
2.710000000000000000e+02 1.427062511444091797e+01 1.597293257713317871e+00 3.130598306655883789e+00 -9.640269726514816284e-02 9.102587103843688965e-01 -7.121209502220153809e-01
2.720000000000000000e+02 1.457533073425292969e+01 3.231099545955657959e-01 1.226519584655761719e+00 2.058727979660034180e+00 9.855743050575256348e-01 2.549614429473876953e+00
2.730000000000000000e+02 1.461799621582031250e+01 1.015364378690719604e-01 1.340981483459472656e+00 2.943331480026245117e+00 1.285293817520141602e+00 3.279154777526855469e+00
2.740000000000000000e+02 1.391514396667480469e+01 -5.815933942794799805e-01 4.652565717697143555e-01 2.521968841552734375e+00 8.961676359176635742e-01 2.210288524627685547e+00
2.750000000000000000e+02 1.368656635284423828e+01 -4.208077490329742432e-01 4.386737570166587830e-02 1.783628702163696289e+00 5.482488274574279785e-01 1.569899916648864746e+00
2.760000000000000000e+02 1.347469806671142578e+01 -2.371387034654617310e-01 -3.814156353473663330e-01 1.033749818801879883e+00 1.957002729177474976e-01 9.044376611709594727e-01
2.770000000000000000e+02 1.490851116180419922e+01 -3.893118202686309814e-01 6.676602959632873535e-01 6.316950798034667969e+00 2.095383405685424805e+00 4.273016452789306641e+00
2.780000000000000000e+02 1.471888923645019531e+01 -2.376707494258880615e-01 1.051636815071105957e+00 4.968905925750732422e+00 1.806162834167480469e+00 4.073534011840820312e+00
2.790000000000000000e+02 1.488937568664550781e+01 -2.072058469057083130e-01 1.062168121337890625e+00 5.927575588226318359e+00 2.096923112869262695e+00 4.542183399200439453e+00
2.800000000000000000e+02 1.530708599090576172e+01 -2.931666374206542969e-01 4.717119932174682617e-01 9.015552520751953125e+00 2.846179246902465820e+00 5.333887100219726562e+00
2.810000000000000000e+02 1.517929077148437500e+01 -5.127676576375961304e-02 1.214855551719665527e+00 7.622575283050537109e+00 2.651229143142700195e+00 5.361227989196777344e+00
2.820000000000000000e+02 1.328402328491210938e+01 3.628960847854614258e-01 -2.299780845642089844e+00 6.993276625871658325e-02 -6.689544320106506348e-01 -2.116419672966003418e-01
2.830000000000000000e+02 1.310263824462890625e+01 3.108715713024139404e-01 -2.381469011306762695e+00 -5.768870469182729721e-03 -7.161713838577270508e-01 -4.269118607044219971e-01
2.840000000000000000e+02 1.385819530487060547e+01 4.013893604278564453e-01 -1.195019960403442383e+00 4.225482046604156494e-01 -2.317415177822113037e-01 3.265086114406585693e-01
2.850000000000000000e+02 1.382948589324951172e+01 6.646994352340698242e-01 -2.281295537948608398e+00 -4.391235485672950745e-02 -6.975623369216918945e-01 -3.378876745700836182e-01
2.860000000000000000e+02 1.422436618804931641e+01 7.331147789955139160e-01 -1.421308755874633789e+00 1.555239558219909668e-01 -3.797354400157928467e-01 9.653327614068984985e-02
2.870000000000000000e+02 1.471262645721435547e+01 6.214140057563781738e-01 1.093117594718933105e+00 1.126824617385864258e+00 6.659826636314392090e-01 1.827946305274963379e+00
2.880000000000000000e+02 1.463209629058837891e+01 8.514459133148193359e-01 -3.442162573337554932e-01 1.461639851331710815e-01 -5.941567942500114441e-02 3.002578318119049072e-01
2.890000000000000000e+02 1.607292366027832031e+01 -1.419398486614227295e-01 -2.660286426544189453e-01 1.454173564910888672e+01 4.282711982727050781e+00 4.051901817321777344e+00
2.900000000000000000e+02 1.625271224975585938e+01 1.390694528818130493e-01 1.000931024551391602e+00 1.788110542297363281e+01 5.664610862731933594e+00 1.524615526199340820e+00
2.910000000000000000e+02 1.294747829437255859e+01 2.036659240722656250e+00 1.643089175224304199e+00 -1.508478671312332153e-01 4.476723968982696533e-01 -1.368662595748901367e+00
2.920000000000000000e+02 1.308111763000488281e+01 1.606893897056579590e+00 1.097044467926025391e+00 -1.616176813840866089e-01 2.806280255317687988e-01 -8.287235498428344727e-01
2.930000000000000000e+02 1.333743095397949219e+01 2.129200935363769531e+00 2.375393867492675781e+00 -1.469800025224685669e-01 6.685241460800170898e-01 -1.593431830406188965e+00
2.940000000000000000e+02 1.376065921783447266e+01 2.057641029357910156e+00 3.051603317260742188e+00 -7.554102223366498947e-03 9.132147431373596191e-01 -1.616733312606811523e+00
2.950000000000000000e+02 1.457351684570312500e+01 1.098849177360534668e+00 4.325102865695953369e-01 -6.666530855000019073e-03 1.277531236410140991e-01 1.900059916079044342e-02
2.960000000000000000e+02 1.429595088958740234e+01 1.213023066520690918e+00 1.331828832626342773e+00 -5.801806226372718811e-02 3.821432292461395264e-01 -7.950490713119506836e-02
2.970000000000000000e+02 1.392193317413330078e+01 2.074271917343139648e+00 3.438716173171997070e+00 -5.423126276582479477e-03 1.029987931251525879e+00 -1.750684976577758789e+00
2.980000000000000000e+02 1.411933517456054688e+01 1.855896830558776855e+00 3.534796714782714844e+00 -7.186680287122726440e-02 1.038879036903381348e+00 -1.358093142509460449e+00
2.990000000000000000e+02 1.410947799682617188e+01 2.068324565887451172e+00 3.904276132583618164e+00 1.696239709854125977e-01 1.222169995307922363e+00 -1.939911484718322754e+00
3.000000000000000000e+02 1.431560230255126953e+01 2.083765983581542969e+00 4.573074340820312500e+00 4.044238626956939697e-01 1.493249535560607910e+00 -2.324950456619262695e+00
3.010000000000000000e+02 1.429211044311523438e+01 2.325914144515991211e+00 4.463773250579833984e+00 8.536083698272705078e-01 1.595214486122131348e+00 -2.951769590377807617e+00
3.020000000000000000e+02 1.452227306365966797e+01 2.102387666702270508e+00 5.197164058685302734e+00 9.149326086044311523e-01 1.833629012107849121e+00 -2.806295871734619141e+00
3.030000000000000000e+02 1.473468208312988281e+01 2.130516052246093750e+00 5.696130752563476562e+00 1.541560769081115723e+00 2.171307325363159180e+00 -3.430532455444335938e+00
3.040000000000000000e+02 1.586635589599609375e+01 1.735788583755493164e-01 8.975690007209777832e-01 1.589970779418945312e+01 5.039183139801025391e+00 4.990545749664306641e+00
3.050000000000000000e+02 1.580068778991699219e+01 -8.195462077856063843e-02 -1.006057560443878174e-01 1.401421165466308594e+01 4.174081802368164062e+00 5.076963901519775391e+00
3.060000000000000000e+02 1.606771850585937500e+01 2.227730005979537964e-01 7.426096796989440918e-01 1.842341613769531250e+01 5.749807834625244141e+00 3.161296606063842773e+00
3.070000000000000000e+02 1.720086479187011719e+01 1.194846034049987793e+00 1.048649501800537109e+01 1.074451160430908203e+01 6.369302272796630859e+00 1.178449273109436035e+00
3.080000000000000000e+02 1.698106956481933594e+01 1.623503446578979492e+00 9.636933326721191406e+00 1.173833084106445312e+01 6.412579059600830078e+00 3.503315687179565430e+00
3.090000000000000000e+02 1.496658992767333984e+01 2.139418125152587891e+00 6.516351222991943359e+00 2.979125499725341797e+00 2.848643064498901367e+00 -4.352759838104248047e+00
3.100000000000000000e+02 1.517263889312744141e+01 2.178111314773559570e+00 6.683312892913818359e+00 5.052917480468750000e+00 3.520869016647338867e+00 -5.407494544982910156e+00
3.110000000000000000e+02 1.645698928833007812e+01 2.194999933242797852e+00 4.870159626007080078e+00 1.527674388885498047e+01 6.044071197509765625e+00 1.984197974205017090e+00
3.120000000000000000e+02 1.368517684936523438e+01 1.816489100456237793e+00 2.516533613204956055e+00 -1.470834165811538696e-01 7.108350992202758789e-01 -1.113291144371032715e+00
3.130000000000000000e+02 1.384719848632812500e+01 1.922699451446533203e+00 2.949100017547607422e+00 -1.055678352713584900e-01 8.530596494674682617e-01 -1.393198609352111816e+00
3.140000000000000000e+02 1.503821182250976562e+01 -5.245547741651535034e-03 1.506267309188842773e+00 6.212729454040527344e+00 2.315699100494384766e+00 5.042275905609130859e+00
3.150000000000000000e+02 1.485102367401123047e+01 1.827109158039093018e-01 1.950201869010925293e+00 4.021108150482177734e+00 1.791393041610717773e+00 4.159776210784912109e+00
3.160000000000000000e+02 1.506176757812500000e+01 -1.639866977930068970e-01 1.019509434700012207e+00 6.945020675659179688e+00 2.389358997344970703e+00 4.987053871154785156e+00
3.170000000000000000e+02 1.525556850433349609e+01 1.211463734507560730e-01 1.953036069869995117e+00 8.247446060180664062e+00 3.060144662857055664e+00 6.008396148681640625e+00
3.180000000000000000e+02 1.469226074218750000e+01 -7.828941196203231812e-02 1.269140601158142090e+00 4.148258686065673828e+00 1.625219702720642090e+00 3.900942564010620117e+00
3.190000000000000000e+02 1.486790943145751953e+01 -2.418164350092411041e-02 1.411006808280944824e+00 5.121046543121337891e+00 1.959616065025329590e+00 4.465931415557861328e+00
3.200000000000000000e+02 1.628233528137207031e+01 2.321615695953369141e+00 4.208043098449707031e+00 1.608457946777343750e+01 6.087786674499511719e+00 6.400401592254638672e-01
3.210000000000000000e+02 1.338788223266601562e+01 1.428194522857666016e+00 1.090074777603149414e+00 -1.842148154973983765e-01 2.717579901218414307e-01 -5.546379685401916504e-01
3.220000000000000000e+02 1.385388565063476562e+01 -3.382337987422943115e-01 2.058916389942169189e-01 1.854886651039123535e+00 6.182335019111633301e-01 1.799076795578002930e+00
3.230000000000000000e+02 1.314621257781982422e+01 1.178916573524475098e+00 2.078181505203247070e-01 -1.439683288335800171e-01 1.915494166314601898e-02 -3.661718964576721191e-01
3.240000000000000000e+02 1.393957138061523438e+01 1.497015118598937988e+00 2.158154249191284180e+00 -1.346457302570343018e-01 6.070525646209716797e-01 -5.586403608322143555e-01
3.250000000000000000e+02 1.374316501617431641e+01 1.324326038360595703e+00 1.197886228561401367e+00 -1.471607685089111328e-01 3.152176439762115479e-01 -3.330273330211639404e-01
3.260000000000000000e+02 1.393140316009521484e+01 1.333579421043395996e-01 -1.760848611593246460e-01 9.827215075492858887e-01 2.419909983873367310e-01 1.178320646286010742e+00
3.270000000000000000e+02 1.423418331146240234e+01 -2.193942517042160034e-01 7.109148502349853516e-01 2.656791687011718750e+00 1.010311961174011230e+00 2.550783872604370117e+00
3.280000000000000000e+02 1.412445735931396484e+01 1.356635928153991699e+00 1.766272187232971191e+00 -1.209591701626777649e-01 4.935939013957977295e-01 -3.173814117908477783e-01
3.290000000000000000e+02 1.407850265502929688e+01 1.671486020088195801e+00 2.852527618408203125e+00 -1.561667919158935547e-01 8.089082241058349609e-01 -9.262376427650451660e-01
3.300000000000000000e+02 1.431711769104003906e+01 1.844308376312255859e+00 4.175251483917236328e+00 7.874041795730590820e-02 1.276197552680969238e+00 -1.554641127586364746e+00
3.310000000000000000e+02 1.097471237182617188e+01 1.065320491790771484e+00 -8.180444240570068359e-01 7.859007455408573151e-03 -2.430556267499923706e-01 -3.742389678955078125e-01
3.320000000000000000e+02 1.087430191040039062e+01 1.484941005706787109e+00 -4.751207530498504639e-01 1.474145799875259399e-01 -9.831184893846511841e-02 -6.284108757972717285e-01
3.330000000000000000e+02 1.033962249755859375e+01 3.538515865802764893e-01 -1.523067235946655273e+00 2.205396443605422974e-02 -4.503040015697479248e-01 -2.768478095531463623e-01
3.340000000000000000e+02 1.234487152099609375e+01 8.456060290336608887e-01 -7.969521284103393555e-01 -2.083365321159362793e-01 -3.015865981578826904e-01 -3.605324327945709229e-01
3.350000000000000000e+02 1.233786392211914062e+01 1.393222689628601074e+00 1.284111291170120239e-01 -2.579383254051208496e-01 -3.885815292596817017e-02 -5.707411170005798340e-01
3.360000000000000000e+02 1.263704776763916016e+01 6.874443888664245605e-01 -9.823778867721557617e-01 -6.986439228057861328e-02 -3.156726956367492676e-01 -2.832701802253723145e-01
3.370000000000000000e+02 1.265500164031982422e+01 1.309296727180480957e+00 3.444009125232696533e-01 -1.931942850351333618e-01 4.536199197173118591e-02 -5.357743501663208008e-01
3.380000000000000000e+02 1.242961025238037109e+01 1.157421708106994629e+00 -2.234358042478561401e-01 -2.416754961013793945e-01 -1.395333856344223022e-01 -5.312362313270568848e-01
3.390000000000000000e+02 1.237089252471923828e+01 1.878266572952270508e+00 7.929819226264953613e-01 -1.190119460225105286e-01 2.021909952163696289e-01 -1.052930712699890137e+00
3.400000000000000000e+02 1.021378612518310547e+01 1.329292535781860352e+00 -7.895679473876953125e-01 1.199576929211616516e-01 -2.008830755949020386e-01 -3.856408894062042236e-01
3.410000000000000000e+02 1.268558597564697266e+01 1.128066301345825195e+00 -2.826354205608367920e-01 -1.164560765027999878e-01 -1.197274476289749146e-01 -4.408356249332427979e-01
3.420000000000000000e+02 1.260257816314697266e+01 1.496378779411315918e+00 4.374359250068664551e-01 -2.255406230688095093e-01 6.356859207153320312e-02 -6.428777575492858887e-01
3.430000000000000000e+02 1.252705287933349609e+01 1.673903942108154297e+00 5.964947938919067383e-01 -2.046680152416229248e-01 1.175480261445045471e-01 -8.012375831604003906e-01
3.440000000000000000e+02 1.195548343658447266e+01 1.425113558769226074e+00 1.673761382699012756e-02 -1.267575025558471680e-01 -3.300596773624420166e-02 -6.229174733161926270e-01
3.450000000000000000e+02 1.144993305206298828e+01 1.528442144393920898e+00 -1.948600411415100098e-01 -4.839105159044265747e-02 -7.297533005475997925e-02 -6.907114386558532715e-01
3.460000000000000000e+02 1.027521896362304688e+01 8.484448790550231934e-01 -1.311952710151672363e+00 8.055198937654495239e-02 -3.694202005863189697e-01 -2.758800685405731201e-01
3.470000000000000000e+02 1.109235191345214844e+01 5.644772648811340332e-01 -1.448963999748229980e+00 -7.677014917135238647e-02 -4.577202498912811279e-01 -3.759520351886749268e-01
3.480000000000000000e+02 1.182187461853027344e+01 7.376104593276977539e-01 -1.211541175842285156e+00 -5.747558549046516418e-02 -3.807050287723541260e-01 -3.980400860309600830e-01
3.490000000000000000e+02 1.269460487365722656e+01 9.240605831146240234e-01 -3.512207865715026855e-01 -7.303711026906967163e-02 -1.272773593664169312e-01 -2.499621808528900146e-01
3.500000000000000000e+02 7.810750007629394531e+00 2.994419336318969727e-01 -1.931598782539367676e+00 3.038805164396762848e-02 -5.703632235527038574e-01 2.400110103189945221e-02
3.510000000000000000e+02 8.600476264953613281e+00 3.508205413818359375e-01 -1.879459619522094727e+00 1.431207638233900070e-02 -5.595442652702331543e-01 -2.600070647895336151e-02
3.520000000000000000e+02 9.477040290832519531e+00 8.237390518188476562e-01 -1.396796464920043945e+00 1.319911926984786987e-01 -3.794415891170501709e-01 -2.137969434261322021e-01
3.530000000000000000e+02 9.489749908447265625e+00 1.268576860427856445e+00 -1.033203244209289551e+00 2.308804541826248169e-01 -2.406968474388122559e-01 -2.398443967103958130e-01
3.540000000000000000e+02 7.053365230560302734e+00 2.422493249177932739e-01 -1.848652124404907227e+00 -2.757239900529384613e-02 -5.628673434257507324e-01 4.423980787396430969e-02
3.550000000000000000e+02 6.277618408203125000e+00 2.192459702491760254e-01 -1.700964331626892090e+00 2.798049338161945343e-02 -5.018951892852783203e-01 4.530313238501548767e-02
3.560000000000000000e+02 4.620449066162109375e+00 2.863654196262359619e-01 -1.094703793525695801e+00 1.227502478286623955e-03 -3.280428647994995117e-01 1.076189279556274414e-01
3.570000000000000000e+02 3.753355264663696289e+00 2.686114311218261719e-01 -7.609174251556396484e-01 -6.176621653139591217e-03 -2.301282137632369995e-01 1.020011156797409058e-01
3.580000000000000000e+02 2.127550840377807617e+00 2.725609540939331055e-01 -2.034325450658798218e-01 2.458862261846661568e-03 -6.029210612177848816e-02 7.411831617355346680e-02
3.590000000000000000e+02 1.100191473960876465e+00 1.125633239746093750e+00 -8.840752393007278442e-02 -1.019927784800529480e-01 -5.712009221315383911e-02 1.247236877679824829e-01
3.600000000000000000e+02 2.217926025390625000e+00 7.661274671554565430e-01 -2.802210748195648193e-01 -2.325591631233692169e-02 -9.104309976100921631e-02 1.828103363513946533e-01
3.610000000000000000e+02 6.931881308555603027e-01 3.856331706047058105e-01 -1.364115066826343536e-02 -1.535099814645946026e-03 -4.552875179797410965e-03 1.067203376442193985e-02
3.620000000000000000e+02 3.887475728988647461e-01 9.569520354270935059e-01 -1.469717361032962799e-02 -3.717804327607154846e-02 -1.556256506592035294e-02 2.784065343439579010e-02
3.630000000000000000e+02 2.926116228103637695e+00 2.634338140487670898e-01 -4.627150893211364746e-01 -7.198718842118978500e-03 -1.409741342067718506e-01 7.907837629318237305e-02
3.640000000000000000e+02 6.956471443176269531e+00 7.093673348426818848e-01 -1.543614745140075684e+00 -7.614830043166875839e-03 -4.653688669204711914e-01 1.104751750826835632e-01
3.650000000000000000e+02 9.495215415954589844e+00 3.151621818542480469e-01 -1.675477385520935059e+00 3.818500787019729614e-02 -4.911876916885375977e-01 -9.936667233705520630e-02
3.660000000000000000e+02 8.823438644409179688e+00 1.193739056587219238e+00 -1.175810098648071289e+00 1.276145279407501221e-01 -3.144586682319641113e-01 -1.210193336009979248e-01
3.670000000000000000e+02 8.123241424560546875e+00 1.090820550918579102e+00 -1.285347580909729004e+00 1.034656688570976257e-01 -3.545645773410797119e-01 -9.877997450530529022e-03
3.680000000000000000e+02 6.930703163146972656e+00 1.227118015289306641e+00 -1.154948830604553223e+00 1.062505021691322327e-01 -3.146094977855682373e-01 2.097173929214477539e-01
3.690000000000000000e+02 6.278646469116210938e+00 1.049775362014770508e+00 -1.146983861923217773e+00 7.540351897478103638e-02 -3.214741051197052002e-01 2.677492797374725342e-01
3.700000000000000000e+02 5.477630138397216797e+00 2.574896514415740967e-01 -1.392952919006347656e+00 1.383252092637121677e-03 -4.174709022045135498e-01 1.035026982426643372e-01
3.710000000000000000e+02 3.709334135055541992e+00 1.254651188850402832e+00 -5.766353011131286621e-01 -2.643623575568199158e-02 -1.809214651584625244e-01 4.088412821292877197e-01
3.720000000000000000e+02 3.742196798324584961e+00 7.632625699043273926e-01 -6.773791313171386719e-01 -9.978014975786209106e-03 -2.062071561813354492e-01 2.623647451400756836e-01
3.730000000000000000e+02 1.657649517059326172e+00 9.365699887275695801e-01 -1.604246646165847778e-01 -7.000392675399780273e-02 -6.912857294082641602e-02 1.666055023670196533e-01
3.740000000000000000e+02 5.374961376190185547e+00 9.618686437606811523e-01 -1.066549301147460938e+00 2.069948241114616394e-02 -3.137549459934234619e-01 2.825839221477508545e-01
3.750000000000000000e+02 1.377962827682495117e+00 3.200970590114593506e-01 -5.332995206117630005e-02 -2.537715435028076172e-02 -2.361213229596614838e-02 2.974266372621059418e-02
3.760000000000000000e+02 2.157315492630004883e+00 1.253566503524780273e+00 -2.448945492506027222e-01 -1.047396063804626465e-01 -1.048902496695518494e-01 2.877756357192993164e-01
3.770000000000000000e+02 2.902574777603149414e+00 1.253493547439575195e+00 -3.986819684505462646e-01 -5.875794589519500732e-02 -1.372319757938385010e-01 3.560985326766967773e-01
3.780000000000000000e+02 4.527801036834716797e+00 1.270081520080566406e+00 -7.447843551635742188e-01 1.666723005473613739e-02 -2.184351235628128052e-01 4.001267254352569580e-01
3.790000000000000000e+02 5.299495220184326172e+00 1.317229747772216797e+00 -8.645813465118408203e-01 4.452666267752647400e-02 -2.460164129734039307e-01 3.770975172519683838e-01
3.800000000000000000e+02 5.748952388763427734e+00 6.900773048400878906e-01 -1.274955272674560547e+00 3.081310912966728210e-02 -3.732426762580871582e-01 2.103959470987319946e-01
3.810000000000000000e+02 5.929389953613281250e+00 1.299995541572570801e+00 -1.051054477691650391e+00 9.166626632213592529e-02 -2.878164649009704590e-01 3.108862340450286865e-01
3.820000000000000000e+02 7.484387397766113281e+00 9.093722701072692871e-01 -1.399150967597961426e+00 4.000109434127807617e-02 -4.077449440956115723e-01 8.062815666198730469e-02
3.830000000000000000e+02 6.333733558654785156e+00 6.344251632690429688e-01 -1.471721410751342773e+00 4.290354251861572266e-02 -4.286453425884246826e-01 1.467603892087936401e-01
3.840000000000000000e+02 2.934974670410156250e+00 7.569273114204406738e-01 -4.357095062732696533e-01 -2.893697097897529602e-02 -1.393939405679702759e-01 2.421771883964538574e-01
3.850000000000000000e+02 4.600981712341308594e+00 7.964469790458679199e-01 -9.338109493255615234e-01 3.302039112895727158e-03 -2.791526615619659424e-01 2.832158803939819336e-01
3.860000000000000000e+02 7.580737113952636719e+00 -1.132103443145751953e+00 -7.959243655204772949e-01 -3.816856443881988525e-02 -2.502278685569763184e-01 -3.184425234794616699e-01
3.870000000000000000e+02 6.770516633987426758e-01 -1.113468766212463379e+00 -4.625044390559196472e-02 -4.143316671252250671e-02 -2.630508318543434143e-02 -3.954989835619926453e-02
3.880000000000000000e+02 9.765894889831542969e+00 -1.246698617935180664e+00 -8.376697897911071777e-01 -2.577438056468963623e-01 -3.286240696907043457e-01 -4.387535750865936279e-01
3.890000000000000000e+02 8.655323982238769531e+00 -4.138574898242950439e-01 -1.693570017814636230e+00 -2.166110649704933167e-02 -5.145693421363830566e-01 -1.737723052501678467e-01
3.900000000000000000e+02 9.050297737121582031e+00 -1.205274462699890137e+00 -8.526460528373718262e-01 -1.420767903327941895e-01 -2.984168529510498047e-01 -4.411330819129943848e-01
3.910000000000000000e+02 9.258152961730957031e+00 -5.903072357177734375e-01 -1.835988640785217285e+00 -9.555670619010925293e-02 -5.794636011123657227e-01 -3.320708274841308594e-01
3.920000000000000000e+02 8.332511901855468750e+00 -1.153857469558715820e+00 -8.547155261039733887e-01 -8.958502113819122314e-02 -2.832901775836944580e-01 -4.118604958057403564e-01
3.930000000000000000e+02 7.909443378448486328e+00 -3.921034634113311768e-01 -1.375813961029052734e+00 -1.516790781170129776e-02 -4.172945916652679443e-01 -1.333925873041152954e-01
3.940000000000000000e+02 7.140843391418457031e+00 -3.861422836780548096e-01 -1.119646191596984863e+00 -4.407878965139389038e-03 -3.372162282466888428e-01 -1.101849004626274109e-01
3.950000000000000000e+02 5.243055820465087891e+00 -1.128008961677551270e+00 -4.564096927642822266e-01 -2.358263358473777771e-02 -1.439976990222930908e-01 -2.046712487936019897e-01
3.960000000000000000e+02 2.861304283142089844e+00 -7.269236445426940918e-01 -1.810990422964096069e-01 -2.571427728980779648e-03 -5.510114133358001709e-02 -1.117553785443305969e-01
3.970000000000000000e+02 2.784121274948120117e+00 -1.230029702186584473e+00 -1.635062247514724731e-01 -2.548358589410781860e-02 -5.669694393873214722e-02 -1.580146253108978271e-01
3.980000000000000000e+02 3.721570372581481934e-01 -5.563701987266540527e-01 4.165834398008882999e-04 2.300963271409273148e-03 8.152640075422823429e-04 1.460929051972925663e-03
3.990000000000000000e+02 9.713428497314453125e+00 -2.683661282062530518e-01 -2.451124429702758789e+00 -7.122117280960083008e-02 -7.567036747932434082e-01 -2.885584533214569092e-01
4.000000000000000000e+02 6.806243419647216797e+00 -1.126142263412475586e+00 -6.771979331970214844e-01 -3.735997527837753296e-02 -2.143673747777938843e-01 -2.715579271316528320e-01
4.010000000000000000e+02 6.027825832366943359e+00 -1.126051068305969238e+00 -5.549113154411315918e-01 -2.349837683141231537e-02 -1.735229045152664185e-01 -2.327529042959213257e-01
4.020000000000000000e+02 6.368319034576416016e+00 -3.860510885715484619e-01 -9.039493799209594727e-01 -8.235814049839973450e-03 -2.736555635929107666e-01 -9.809134155511856079e-02
4.030000000000000000e+02 4.783596992492675781e+00 -3.889620006084442139e-01 -5.451127886772155762e-01 -1.221052091568708420e-02 -1.671969890594482422e-01 -7.300739735364913940e-02
4.040000000000000000e+02 3.587217807769775391e+00 -1.179473757743835449e+00 -2.372459322214126587e-01 -1.057991478592157364e-02 -7.434775680303573608e-02 -1.690364480018615723e-01
4.050000000000000000e+02 2.790675640106201172e+00 -2.568939030170440674e-01 -1.990327239036560059e-01 4.485327750444412231e-03 -5.836421996355056763e-02 -2.440503612160682678e-02
4.060000000000000000e+02 1.058799862861633301e+00 -3.734687864780426025e-01 -1.409695856273174286e-02 -1.392834074795246124e-02 -8.407589979469776154e-03 -1.538907270878553391e-02
4.070000000000000000e+02 9.788278579711914062e+00 -7.550647854804992676e-01 -1.565800786018371582e+00 -1.953768879175186157e-01 -5.283532738685607910e-01 -5.544487237930297852e-01
4.080000000000000000e+02 5.589442729949951172e+00 -3.880089521408081055e-01 -7.106328606605529785e-01 -3.364404430612921715e-03 -2.141991853713989258e-01 -8.569866418838500977e-02
4.090000000000000000e+02 4.431316852569580078e+00 -1.128962039947509766e+00 -3.361796736717224121e-01 -2.591288648545742035e-02 -1.086277738213539124e-01 -1.891202330589294434e-01
4.100000000000000000e+02 4.084866523742675781e+00 -3.005224168300628662e-01 -4.043420851230621338e-01 -1.080962643027305603e-02 -1.245455145835876465e-01 -4.964660853147506714e-02
4.110000000000000000e+02 2.057205438613891602e+00 -1.199126243591308594e+00 -9.355106204748153687e-02 -4.601871222257614136e-02 -4.187093302607536316e-02 -1.053644940257072449e-01
4.120000000000000000e+02 1.726045846939086914e+00 -4.113185703754425049e-01 -7.887645065784454346e-02 -1.040409039705991745e-02 -2.678416296839714050e-02 -3.719101846218109131e-02
4.130000000000000000e+02 2.314522504806518555e+00 -5.800862312316894531e-01 -1.174299642443656921e-01 -8.307300740852952003e-04 -3.547820821404457092e-02 -6.518639624118804932e-02
4.140000000000000000e+02 1.350191235542297363e+00 -1.151318550109863281e+00 -4.325881600379943848e-02 -3.861391171813011169e-02 -2.456181868910789490e-02 -6.674338132143020630e-02
4.150000000000000000e+02 3.456787109375000000e+00 -2.321061044931411743e-01 -2.697761654853820801e-01 -2.660902682691812515e-03 -8.173112571239471436e-02 -1.788680441677570343e-02
4.160000000000000000e+02 3.555228710174560547e+00 -6.515797972679138184e-01 -3.165693283081054688e-01 -5.103302188217639923e-03 -9.650178998708724976e-02 -1.131472215056419373e-01
4.170000000000000000e+02 3.566465616226196289e+00 -1.896332263946533203e+00 -1.455271542072296143e-01 -5.118752270936965942e-02 -5.901440605521202087e-02 -2.339439243078231812e-01
4.180000000000000000e+02 4.323539257049560547e+00 -1.883878111839294434e+00 -1.888019740581512451e-01 -1.749618537724018097e-02 -6.188944727182388306e-02 -2.521414160728454590e-01
4.190000000000000000e+02 8.332598686218261719e+00 -2.628324270248413086e+00 2.837290465831756592e-01 -1.167726218700408936e-01 5.008693039417266846e-02 -3.063905835151672363e-01
4.200000000000000000e+02 2.161058235168457031e+01 2.870887279510498047e+00 2.444264650344848633e+00 1.402241945266723633e+00 1.153952002525329590e+00 2.712580204010009766e+00
4.210000000000000000e+02 1.774401283264160156e+01 9.635400176048278809e-01 7.039990901947021484e+00 8.592311859130859375e+00 4.689690589904785156e+00 1.464263558387756348e+00
4.220000000000000000e+02 5.318757295608520508e-01 -1.057361125946044922e+01 -4.652666300535202026e-02 -8.818521499633789062e-01 -2.785136401653289795e-01 -7.747846096754074097e-02
4.230000000000000000e+02 6.694347381591796875e+00 -1.486105728149414062e+01 2.244605779647827148e+00 4.402617931365966797e+00 1.994166970252990723e+00 2.817576408386230469e+00
4.240000000000000000e+02 1.021210289001464844e+01 -1.262959766387939453e+01 -3.091329574584960938e+00 4.603382572531700134e-02 -9.135887026786804199e-01 1.383160233497619629e+00
4.250000000000000000e+02 8.971776962280273438e+00 -1.301234531402587891e+01 6.181404590606689453e-01 1.690451622009277344e+00 6.925776004791259766e-01 1.734916806221008301e+00
4.260000000000000000e+02 1.291256904602050781e+01 -1.232664394378662109e+01 -3.876728773117065430e+00 -1.853193789720535278e-01 -1.218614459037780762e+00 1.379315376281738281e+00
4.270000000000000000e+02 1.451817607879638672e+01 -9.789192199707031250e+00 1.352914571762084961e+00 4.909309864044189453e+00 1.878667354583740234e+00 1.644995659589767456e-01
4.280000000000000000e+02 1.560860061645507812e+01 -1.366939926147460938e+01 -4.073937892913818359e+00 7.098348140716552734e+00 9.073230624198913574e-01 1.011857297271490097e-02
4.290000000000000000e+02 1.586908817291259766e+01 -8.916273117065429688e+00 2.604813575744628906e+00 9.305970191955566406e+00 3.573235034942626953e+00 -8.660584092140197754e-01
4.300000000000000000e+02 1.689612770080566406e+01 -7.090947628021240234e+00 6.137683987617492676e-01 1.523096847534179688e+01 4.753420829772949219e+00 -3.201120719313621521e-02
4.310000000000000000e+02 1.721269226074218750e+01 -4.279471397399902344e+00 1.250043869018554688e+00 1.353227424621582031e+01 4.434695720672607422e+00 2.988103151321411133e+00
4.320000000000000000e+02 3.596174478530883789e+00 -2.068135261535644531e+01 -5.554342865943908691e-01 2.926610708236694336e+00 7.113529443740844727e-01 1.877479910850524902e+00
4.330000000000000000e+02 6.252859592437744141e+00 -2.198453521728515625e+01 -2.187814235687255859e+00 7.009955495595932007e-02 -6.353144049644470215e-01 8.089464902877807617e-01
4.340000000000000000e+02 9.005922317504882812e+00 -2.315210723876953125e+01 -5.203457355499267578e+00 -3.553449213504791260e-01 -1.667640686035156250e+00 4.754991233348846436e-01
4.350000000000000000e+02 7.518536090850830078e+00 -2.282373237609863281e+01 -4.241250038146972656e+00 -6.593990325927734375e-01 -1.470194697380065918e+00 1.007627606391906738e+00
4.360000000000000000e+02 4.210268974304199219e+00 -2.408068275451660156e+01 -1.342608928680419922e+00 2.463222503662109375e+00 3.361840844154357910e-01 3.849511966109275818e-03
4.370000000000000000e+02 6.084972620010375977e-01 -3.034515571594238281e+01 2.689957385882735252e-03 2.590336084365844727e+00 7.779078483581542969e-01 -1.065293028950691223e-01
4.380000000000000000e+02 1.302114009857177734e+01 -3.677666473388671875e+01 -6.845889985561370850e-02 2.623395919799804688e+00 7.664811015129089355e-01 -1.507762260735034943e-02
4.390000000000000000e+02 1.274705219268798828e+01 -3.526595306396484375e+01 1.907830685377120972e-01 4.247308254241943359e+00 1.331427335739135742e+00 1.172202453017234802e-01
4.400000000000000000e+02 1.268290996551513672e+01 -3.070296859741210938e+01 1.567025542259216309e+00 4.577499389648437500e+00 1.843357563018798828e+00 1.815608143806457520e+00
4.410000000000000000e+02 1.417586803436279297e+01 -2.986203575134277344e+01 2.001180887222290039e+00 5.377398967742919922e+00 2.213573932647705078e+00 3.072468519210815430e+00
4.420000000000000000e+02 1.493928337097167969e+01 -2.862061882019042969e+01 1.814456105232238770e+00 4.231905460357666016e+00 1.813908457756042480e+00 2.741798877716064453e+00
4.430000000000000000e+02 1.192814922332763672e+01 -2.262321281433105469e+01 -2.256916046142578125e+00 5.636615157127380371e-01 -5.079763531684875488e-01 1.548709422349929810e-01
4.440000000000000000e+02 1.050534248352050781e+01 -2.303428840637207031e+01 -4.038606166839599609e+00 -2.015627920627593994e-01 -1.272050738334655762e+00 -8.375720679759979248e-02
4.450000000000000000e+02 1.087738132476806641e+01 -2.419789505004882812e+01 -2.278319835662841797e+00 6.340713500976562500e-01 -4.932745397090911865e-01 1.055958271026611328e+00
4.460000000000000000e+02 7.590204715728759766e+00 -3.862514114379882812e+01 -5.386823415756225586e-01 2.846479654312133789e+00 6.923391819000244141e-01 7.567627429962158203e-01
4.470000000000000000e+02 9.799180984497070312e+00 -3.429800796508789062e+01 7.336073517799377441e-01 2.712679386138916016e+00 1.033885955810546875e+00 1.146182656288146973e+00
4.480000000000000000e+02 6.440349221229553223e-01 -3.173437690734863281e+01 4.092664271593093872e-02 2.427007436752319336e+00 7.403801679611206055e-01 -5.004370212554931641e-02
4.490000000000000000e+02 9.627183675765991211e-01 -3.727219390869140625e+01 5.795884132385253906e-02 2.737046241760253906e+00 8.385015130043029785e-01 1.354308724403381348e-01
4.500000000000000000e+02 3.263384819030761719e+00 -3.782405090332031250e+01 2.341875806450843811e-02 2.767761707305908203e+00 8.373541235923767090e-01 4.186971783638000488e-01
4.510000000000000000e+02 2.214793205261230469e+01 -3.977911758422851562e+01 -1.873681902885437012e+00 7.282890081405639648e-01 -3.436178565025329590e-01 -1.651341021060943604e-01
4.520000000000000000e+02 2.253589439392089844e+01 -4.150469970703125000e+01 -2.412622690200805664e+00 1.122342348098754883e+00 -3.870840966701507568e-01 2.806418538093566895e-01
4.530000000000000000e+02 2.504911231994628906e+01 -4.036230087280273438e+01 -2.230794191360473633e+00 4.144201278686523438e+00 5.740221142768859863e-01 -4.706348180770874023e-01
4.540000000000000000e+02 2.608154106140136719e+01 -3.837544631958007812e+01 -9.541522264480590820e-01 5.238339424133300781e+00 1.285256266593933105e+00 -7.238507866859436035e-01
4.550000000000000000e+02 3.935592651367187500e+01 -3.442031097412109375e+01 9.702973365783691406e-01 8.291792869567871094e+00 2.778627157211303711e+00 -1.004854083061218262e+00
4.560000000000000000e+02 3.906926345825195312e+01 -3.228299331665039062e+01 1.960097551345825195e+00 1.163256740570068359e+01 4.077799797058105469e+00 2.388275146484375000e+00
4.570000000000000000e+02 3.886729049682617188e+01 -3.569787979125976562e+01 -1.016242146492004395e+00 5.006471157073974609e+00 1.197068691253662109e+00 1.153513669967651367e+00
4.580000000000000000e+02 3.610367202758789062e+01 -2.962742996215820312e+01 -9.826751351356506348e-01 1.025068998336791992e+00 1.271817460656166077e-02 1.265213847160339355e+00
4.590000000000000000e+02 3.673777008056640625e+01 -3.121204376220703125e+01 1.487837433815002441e+00 3.055553197860717773e+00 1.363017201423645020e+00 1.571702599525451660e+00
4.600000000000000000e+02 3.017303276062011719e+01 -2.529454612731933594e+01 9.991657733917236328e-01 4.300149440765380859e+00 1.589794516563415527e+00 -2.051795005798339844e+00
4.610000000000000000e+02 2.936211585998535156e+01 -2.431641769409179688e+01 1.387821912765502930e+00 8.709453582763671875e+00 3.029182672500610352e+00 -2.551263570785522461e+00
4.620000000000000000e+02 2.849381256103515625e+01 -2.535767364501953125e+01 -5.440032482147216797e-01 7.039973735809326172e+00 1.948791146278381348e+00 9.055520594120025635e-02
4.630000000000000000e+02 2.248947906494140625e+01 -2.805711936950683594e+01 -9.384594559669494629e-01 1.080579876899719238e+00 4.263613745570182800e-02 6.611903756856918335e-02
4.640000000000000000e+02 2.331558990478515625e+01 -2.707064056396484375e+01 -1.552543759346008301e+00 3.171035289764404297e+00 4.855474233627319336e-01 -3.525874912738800049e-01
4.650000000000000000e+02 2.345664978027343750e+01 -2.905077171325683594e+01 -4.240793362259864807e-02 3.060022354125976562e+00 9.052843451499938965e-01 -1.038638353347778320e+00
4.660000000000000000e+02 2.520448875427246094e+01 -2.893690681457519531e+01 -1.219941973686218262e+00 5.934438228607177734e+00 1.414348840713500977e+00 2.177720963954925537e-01
4.670000000000000000e+02 3.253841400146484375e+01 -3.648372650146484375e+01 4.005892574787139893e-01 3.209842205047607422e+00 1.083129525184631348e+00 1.471620798110961914e-01
4.680000000000000000e+02 2.495790672302246094e+01 -3.346100997924804688e+01 -3.559719026088714600e-02 8.239407539367675781e+00 2.461143016815185547e+00 -3.446623086929321289e-01
4.690000000000000000e+02 2.350482749938964844e+01 -3.892823791503906250e+01 -8.788449168205261230e-01 1.737574458122253418e+00 2.576188743114471436e-01 5.207560062408447266e-01
4.700000000000000000e+02 3.730702209472656250e+01 -3.756714630126953125e+01 -1.223961234092712402e+00 4.446186542510986328e+00 9.666675925254821777e-01 8.624915480613708496e-01
4.710000000000000000e+02 4.080749130249023438e+01 -3.615419769287109375e+01 5.148353576660156250e-01 1.201251268386840820e+00 5.148259401321411133e-01 -3.246033787727355957e-01
4.720000000000000000e+02 4.877083969116210938e+01 -3.594705581665039062e+01 3.106293976306915283e-01 4.818919181823730469e+00 1.538864612579345703e+00 1.730293154716491699e+00
4.730000000000000000e+02 4.978841018676757812e+01 -3.747351455688476562e+01 -1.727477431297302246e+00 6.594466686248779297e+00 1.460096716880798340e+00 7.031294703483581543e-01
4.740000000000000000e+02 4.778957366943359375e+01 -3.686278915405273438e+01 -3.623566031455993652e-02 2.078166961669921875e+00 6.125794053077697754e-01 5.059823989868164062e-01
4.750000000000000000e+02 5.718803787231445312e+01 -3.757651519775390625e+01 -4.686554074287414551e-01 5.328835487365722656e+00 1.458054065704345703e+00 -1.789007425308227539e+00
4.760000000000000000e+02 5.595551300048828125e+01 -3.623645401000976562e+01 4.007428586483001709e-01 8.722517013549804688e+00 2.736978054046630859e+00 -1.674666166305541992e+00
4.770000000000000000e+02 5.920157241821289062e+01 -4.051912307739257812e+01 -8.761287331581115723e-01 1.457713842391967773e+00 1.744755357503890991e-01 -1.188495993614196777e+00
4.780000000000000000e+02 5.911980438232421875e+01 -3.772478485107421875e+01 -1.522205352783203125e+00 1.267131686210632324e+00 -7.652209699153900146e-02 -4.039010033011436462e-02
4.790000000000000000e+02 6.003528213500976562e+01 -3.812162017822265625e+01 -3.994169712066650391e+00 -1.356185436248779297e+00 -1.605106592178344727e+00 1.336501002311706543e+00
4.800000000000000000e+02 6.136930465698242188e+01 -3.837672424316406250e+01 -3.803968191146850586e+00 -1.543793082237243652e-01 -1.187504172325134277e+00 -3.828209340572357178e-01
4.810000000000000000e+02 6.429502868652343750e+01 -3.736050415039062500e+01 -1.309130430221557617e+00 7.177958488464355469e-01 -1.774003654718399048e-01 3.445753157138824463e-01
4.820000000000000000e+02 7.007639312744140625e+01 -3.531989288330078125e+01 6.809600591659545898e-01 5.935641765594482422e+00 1.984980583190917969e+00 -1.312268495559692383e+00
4.830000000000000000e+02 7.793342590332031250e+01 -4.162837219238281250e+01 -4.042068123817443848e-02 7.899960994720458984e+00 2.357861995697021484e+00 -1.184952072799205780e-02
4.840000000000000000e+02 7.787415313720703125e+01 -3.684580230712890625e+01 -2.019248157739639282e-02 7.512071132659912109e+00 2.247563600540161133e+00 -1.564626842737197876e-01
4.850000000000000000e+02 7.770915222167968750e+01 -3.027849197387695312e+01 -7.125302404165267944e-02 7.443301677703857422e+00 2.211614608764648438e+00 5.322057753801345825e-02
4.860000000000000000e+02 7.370532226562500000e+01 -2.080735778808593750e+01 5.141937732696533203e-01 1.300478553771972656e+01 4.055693626403808594e+00 -1.147712230682373047e+00
4.870000000000000000e+02 7.227439880371093750e+01 -1.766086196899414062e+01 9.115311503410339355e-01 3.523268461227416992e+00 1.330439925193786621e+00 -1.596539378166198730e+00
4.880000000000000000e+02 7.801579284667968750e+01 -1.090214538574218750e+01 -4.084999561309814453e-01 9.752199172973632812e+00 2.803109884262084961e+00 -1.082429051399230957e+00
4.890000000000000000e+02 7.934420776367187500e+01 -1.244931793212890625e+01 -2.390044778585433960e-01 1.056473922729492188e+01 3.097720384597778320e+00 -2.111478000879287720e-01
4.900000000000000000e+02 7.312368774414062500e+01 -1.148228168487548828e+01 -2.377279520034790039e+00 6.904186606407165527e-01 -5.060582160949707031e-01 -9.762296825647354126e-02
4.910000000000000000e+02 7.108945465087890625e+01 -1.213792324066162109e+01 -2.356688737869262695e+00 -2.874061763286590576e-01 -7.932284474372863770e-01 -8.733434081077575684e-01
4.920000000000000000e+02 6.960236358642578125e+01 -1.329841232299804688e+01 -5.180274844169616699e-01 1.510127335786819458e-01 -1.101044341921806335e-01 -1.732930898666381836e+00
4.930000000000000000e+02 6.960269927978515625e+01 -1.540177440643310547e+01 -9.133917093276977539e-01 3.288861364126205444e-02 -2.641509175300598145e-01 -1.094531655311584473e+00
4.940000000000000000e+02 7.033755493164062500e+01 -1.642710685729980469e+01 -7.774321436882019043e-01 1.514440476894378662e-01 -1.877964287996292114e-01 -4.576300978660583496e-01
4.950000000000000000e+02 7.348072814941406250e+01 -1.953357696533203125e+01 1.179149746894836426e+00 9.826804161071777344e+00 3.301786184310913086e+00 -1.974164128303527832e+00
4.960000000000000000e+02 7.832102966308593750e+01 -1.780195045471191406e+01 -2.707301639020442963e-02 8.652725219726562500e+00 2.587695837020874023e+00 1.001753211021423340e+00
4.970000000000000000e+02 7.697047424316406250e+01 -1.148149204254150391e+01 -9.831062555313110352e-01 9.572316169738769531e+00 2.576762914657592773e+00 -6.364622116088867188e-01
4.980000000000000000e+02 7.655468750000000000e+01 -8.877515792846679688e+00 8.990246057510375977e-01 1.071288204193115234e+01 3.483572006225585938e+00 -8.096792697906494141e-01
4.990000000000000000e+02 7.682720184326171875e+01 -7.389888763427734375e+00 1.185478091239929199e+00 1.073954391479492188e+01 3.577506542205810547e+00 -4.472953677177429199e-01
5.000000000000000000e+02 7.712203216552734375e+01 -5.965330123901367188e+00 7.995192408561706543e-01 1.015290451049804688e+01 3.285727262496948242e+00 2.370609194040298462e-01
5.010000000000000000e+02 7.939158630371093750e+01 2.755053043365478516e+00 -6.983642280101776123e-02 9.347585678100585938e+00 2.783324718475341797e+00 -1.934775710105895996e-01
5.020000000000000000e+02 6.905715179443359375e+01 4.082859516143798828e+00 7.783096283674240112e-02 2.312079191207885742e+00 7.169730663299560547e-01 1.969047188758850098e+00
5.030000000000000000e+02 6.688309478759765625e+01 5.817456245422363281e+00 -1.349326372146606445e+00 4.927352070808410645e-01 -2.569773495197296143e-01 7.581871747970581055e-01
5.040000000000000000e+02 6.316814422607421875e+01 6.043428421020507812e+00 -1.053297996520996094e+00 3.342872619628906250e+00 6.868723630905151367e-01 -1.669961690902709961e+00
5.050000000000000000e+02 6.323927688598632812e+01 8.384184837341308594e+00 6.421482563018798828e-01 1.757565140724182129e+00 7.199140191078186035e-01 -1.074935793876647949e+00
5.060000000000000000e+02 6.097881698608398438e+01 -3.409217596054077148e+00 1.849883794784545898e+00 1.232456970214843750e+01 4.252336025238037109e+00 -2.490129709243774414e+00
5.070000000000000000e+02 6.491481781005859375e+01 -3.265916347503662109e+00 1.464452266693115234e+00 7.822434425354003906e+00 2.786066055297851562e+00 1.324525833129882812e+00
5.080000000000000000e+02 6.122534942626953125e+01 -4.779369354248046875e+00 2.910771965980529785e-01 1.121468448638916016e+01 3.451728582382202148e+00 -7.918008565902709961e-01
5.090000000000000000e+02 6.334974670410156250e+01 -6.723670959472656250e+00 1.776228666305541992e+00 9.544028282165527344e+00 3.396076917648315430e+00 3.633100092411041260e-01
5.100000000000000000e+02 6.175553131103515625e+01 -1.023725032806396484e+01 -8.815134763717651367e-01 7.320424079895019531e+00 1.931673169136047363e+00 1.047021031379699707e+00
5.110000000000000000e+02 6.130306625366210938e+01 -8.976405143737792969e+00 1.162587285041809082e+00 8.419605255126953125e+00 2.874657869338989258e+00 1.793585538864135742e+00
5.120000000000000000e+02 5.808047866821289062e+01 -1.092763233184814453e+01 -1.089885115623474121e+00 1.283661246299743652e+00 5.813283845782279968e-02 1.645567566156387329e-01
5.130000000000000000e+02 5.976956939697265625e+01 -1.112371730804443359e+01 -6.240543127059936523e-01 5.142007827758789062e+00 1.355386137962341309e+00 2.439584255218505859e+00
5.140000000000000000e+02 5.688698196411132812e+01 -1.033438205718994141e+01 -1.346510410308837891e+00 5.950078368186950684e-01 -2.254507690668106079e-01 -9.041716456413269043e-01
5.150000000000000000e+02 5.381672286987304688e+01 -1.119445323944091797e+01 2.590712904930114746e-01 3.867790937423706055e+00 1.238058686256408691e+00 -2.917498588562011719e+00
5.160000000000000000e+02 4.767724227905273438e+01 -6.496973514556884766e+00 1.676065206527709961e+00 8.009561538696289062e+00 2.905688047409057617e+00 -1.677237629890441895e+00
5.170000000000000000e+02 4.796213912963867188e+01 -5.006320476531982422e+00 8.020704984664916992e-01 6.218441963195800781e+00 2.106153726577758789e+00 -1.128911733627319336e+00
5.180000000000000000e+02 4.899301528930664062e+01 -5.069328308105468750e+00 1.291774272918701172e+00 7.250664710998535156e+00 2.562731742858886719e+00 -6.171661615371704102e-01
5.190000000000000000e+02 4.572875213623046875e+01 -5.470139980316162109e+00 1.649904131889343262e+00 2.454538583755493164e+00 1.231332898139953613e+00 -2.095898866653442383e+00
5.200000000000000000e+02 4.999174880981445312e+01 -7.378007411956787109e+00 2.169765472412109375e+00 7.721001625061035156e+00 2.967230081558227539e+00 3.458974361419677734e-01
5.210000000000000000e+02 4.829540634155273438e+01 -1.028429603576660156e+01 2.294335603713989258e+00 1.064561271667480469e+01 3.881984472274780273e+00 1.436514019966125488e+00
5.220000000000000000e+02 4.990736007690429688e+01 -1.344725227355957031e+01 -8.582437038421630859e-01 4.141044139862060547e+00 9.848400950431823730e-01 -2.177526243031024933e-02
5.230000000000000000e+02 4.736047744750976562e+01 -1.116451740264892578e+01 2.533761501312255859e+00 1.144094753265380859e+01 4.192412853240966797e+00 3.275548458099365234e+00
5.240000000000000000e+02 4.538216018676757812e+01 -1.301059722900390625e+01 -2.199839115142822266e+00 2.620945692062377930e+00 1.263319551944732666e-01 1.252424478530883789e+00
5.250000000000000000e+02 4.278939437866210938e+01 -1.376572513580322266e+01 -7.082926750183105469e+00 -1.900607347488403320e-01 -2.181896209716796875e+00 -3.558476269245147705e-01
5.260000000000000000e+02 4.065456008911132812e+01 -1.980827713012695312e+01 2.263761997222900391e+00 6.106503486633300781e+00 2.511079549789428711e+00 -1.310099840164184570e+00
5.270000000000000000e+02 4.166389465332031250e+01 -1.419223976135253906e+01 -4.375591278076171875e+00 6.875166296958923340e-01 -1.106422305107116699e+00 -1.017772078514099121e+00
5.280000000000000000e+02 4.083895492553710938e+01 -1.328028583526611328e+01 -3.958778858184814453e+00 1.521094441413879395e+00 -7.313053011894226074e-01 -8.390660285949707031e-01
5.290000000000000000e+02 3.746666717529296875e+01 -1.183962726593017578e+01 2.496293038129806519e-01 5.988229751586914062e+00 1.871357679367065430e+00 -2.362989187240600586e+00
5.300000000000000000e+02 3.697001647949218750e+01 -7.847343921661376953e+00 1.116683363914489746e+00 9.076102256774902344e+00 3.057835817337036133e+00 -3.123722672462463379e-01
5.310000000000000000e+02 3.752267837524414062e+01 -5.957430839538574219e+00 1.686109423637390137e+00 6.606530189514160156e+00 2.487791776657104492e+00 2.041328191757202148e+00
5.320000000000000000e+02 3.662450027465820312e+01 -6.673470497131347656e+00 1.775939822196960449e+00 6.997458934783935547e+00 2.632019519805908203e+00 6.530347466468811035e-01
5.330000000000000000e+02 3.909343719482421875e+01 -4.102926254272460938e+00 4.103639125823974609e-01 2.149540901184082031e+00 7.679714560508728027e-01 1.762618422508239746e+00
5.340000000000000000e+02 3.731043624877929688e+01 8.694095611572265625e-01 9.261200204491615295e-03 3.261661052703857422e+00 9.812766909599304199e-01 2.641167402267456055e+00
5.350000000000000000e+02 4.231823348999023438e+01 -3.462827205657958984e+00 -2.528452157974243164e+00 1.714109480381011963e-01 -7.071123719215393066e-01 1.041544303297996521e-01
5.360000000000000000e+02 4.104290390014648438e+01 -3.230844974517822266e+00 -1.948716044425964355e+00 3.746228516101837158e-01 -4.722279608249664307e-01 5.685860514640808105e-01
5.370000000000000000e+02 4.467792510986328125e+01 -4.737584114074707031e+00 7.340826988220214844e-01 1.513506889343261719e+00 6.742768883705139160e-01 -1.151239275932312012e+00
5.380000000000000000e+02 7.814631652832031250e+01 3.986387491226196289e+00 -1.014591604471206665e-01 8.188836097717285156e+00 2.426213026046752930e+00 -6.495407223701477051e-01
5.390000000000000000e+02 7.934294891357421875e+01 8.303964614868164062e+00 -3.251286922022700310e-03 6.654459953308105469e+00 1.995362639427185059e+00 -3.761132657527923584e-01
5.400000000000000000e+02 7.204856872558593750e+01 1.389086532592773438e+01 6.978337168693542480e-01 1.345708084106445312e+01 4.246474266052246094e+00 -1.272975444793701172e+00
5.410000000000000000e+02 7.193367767333984375e+01 1.052808189392089844e+01 1.693015456199645996e+00 1.242807388305664062e+01 4.236326694488525391e+00 2.372134685516357422e+00
5.420000000000000000e+02 7.139827728271484375e+01 9.437879562377929688e+00 1.623881936073303223e+00 8.254111289978027344e+00 2.963398218154907227e+00 3.139769077301025391e+00
5.430000000000000000e+02 7.251287078857421875e+01 9.061823844909667969e+00 3.723449110984802246e-01 9.352320671081542969e+00 2.917399644851684570e+00 2.650575339794158936e-01
5.440000000000000000e+02 6.900183868408203125e+01 7.323090076446533203e+00 2.209370024502277374e-02 9.762505888938903809e-01 2.995032966136932373e-01 9.455876946449279785e-01
5.450000000000000000e+02 7.935289001464843750e+01 1.250455284118652344e+01 8.201540261507034302e-02 5.235981464385986328e+00 1.595399022102355957e+00 -4.131466895341873169e-02
5.460000000000000000e+02 7.938861083984375000e+01 1.666185569763183594e+01 1.651280187070369720e-02 6.253722667694091797e+00 1.881070613861083984e+00 2.558042407035827637e-01
5.470000000000000000e+02 7.017998504638671875e+01 1.760001754760742188e+01 3.585615754127502441e-01 3.399010181427001953e+00 1.127271533012390137e+00 -1.567901253700256348e+00
5.480000000000000000e+02 7.169143676757812500e+01 1.521593093872070312e+01 1.515949726104736328e+00 1.192935371398925781e+01 4.033591270446777344e+00 -2.612405061721801758e+00
5.490000000000000000e+02 7.813683319091796875e+01 1.790779685974121094e+01 -7.141509652137756348e-02 6.948235988616943359e+00 2.063046216964721680e+00 5.968664288520812988e-01
5.500000000000000000e+02 7.936670684814453125e+01 2.362775230407714844e+01 -1.317468192428350449e-02 7.641793251037597656e+00 2.288585662841796875e+00 -2.645587362349033356e-02
5.510000000000000000e+02 6.780055236816406250e+01 3.081009864807128906e+01 9.369291067123413086e-01 5.329021453857421875e+00 1.879785180091857910e+00 8.971009254455566406e-01
5.520000000000000000e+02 6.367832183837890625e+01 3.033497047424316406e+01 2.977564334869384766e-01 7.340263366699218750e+00 2.291405916213989258e+00 1.460202336311340332e-01
5.530000000000000000e+02 6.431344604492187500e+01 3.150994682312011719e+01 6.841481328010559082e-01 6.373099803924560547e+00 2.117174386978149414e+00 1.950457692146301270e-02
5.540000000000000000e+02 6.354309844970703125e+01 2.907377243041992188e+01 8.376919478178024292e-02 7.700289726257324219e+00 2.335217714309692383e+00 5.602759718894958496e-01
5.550000000000000000e+02 6.344039535522460938e+01 2.775391197204589844e+01 7.686148881912231445e-01 9.775942802429199219e+00 3.163367271423339844e+00 1.365281581878662109e+00
5.560000000000000000e+02 6.318266677856445312e+01 2.642953109741210938e+01 2.600351333618164062e+00 1.109651660919189453e+01 4.109060287475585938e+00 3.706794500350952148e+00
5.570000000000000000e+02 6.475177764892578125e+01 2.134386253356933594e+01 -1.169571280479431152e+00 2.372409582138061523e+00 3.608514964580535889e-01 3.072491168975830078e+00
5.580000000000000000e+02 6.227919006347656250e+01 2.394793319702148438e+01 9.096068739891052246e-01 5.835280895233154297e+00 2.023466348648071289e+00 3.367827177047729492e+00
5.590000000000000000e+02 5.843179702758789062e+01 2.328929901123046875e+01 -5.520725727081298828e+00 2.115729078650474548e-02 -1.649870514869689941e+00 -2.533778846263885498e-01
5.600000000000000000e+02 5.719194412231445312e+01 2.332902908325195312e+01 -3.385201930999755859e+00 4.747849702835083008e-01 -8.731250762939453125e-01 -6.092493534088134766e-01
5.610000000000000000e+02 5.547612762451171875e+01 2.437878417968750000e+01 2.626477181911468506e-01 2.743466138839721680e+00 9.018341302871704102e-01 -1.625370144844055176e+00
5.620000000000000000e+02 5.465765380859375000e+01 2.536539268493652344e+01 1.670939207077026367e+00 4.822469711303710938e+00 1.948022723197937012e+00 -2.644968748092651367e+00
5.630000000000000000e+02 4.837795639038085938e+01 2.323470497131347656e+01 1.470499753952026367e+00 5.343634605407714844e+00 2.044240236282348633e+00 9.151991009712219238e-01
5.640000000000000000e+02 4.573046493530273438e+01 2.482855796813964844e+01 3.058973312377929688e+00 1.194533824920654297e+01 4.501293659210205078e+00 4.334923267364501953e+00
5.650000000000000000e+02 4.508840942382812500e+01 2.364418029785156250e+01 3.167682886123657227e+00 7.798423290252685547e+00 3.289831876754760742e+00 4.406281948089599609e+00
5.660000000000000000e+02 4.620987319946289062e+01 2.216732978820800781e+01 1.192506328225135803e-01 7.355085849761962891e+00 2.242300987243652344e+00 2.767229080200195312e+00
5.670000000000000000e+02 4.356693267822265625e+01 2.065667343139648438e+01 -1.052407860755920410e+00 5.039650440216064453e+00 1.196172833442687988e+00 2.676026344299316406e+00
5.680000000000000000e+02 4.079311370849609375e+01 2.030172348022460938e+01 4.248861372470855713e-01 8.653446435928344727e-01 3.870692551136016846e-01 6.907436996698379517e-03
5.690000000000000000e+02 4.070695877075195312e+01 2.165912437438964844e+01 -2.822462320327758789e+00 3.672631829977035522e-02 -8.357207775115966797e-01 1.209976151585578918e-01
5.700000000000000000e+02 3.936206817626953125e+01 2.182995223999023438e+01 -1.795339941978454590e+00 2.894981801509857178e-01 -4.517525434494018555e-01 -1.499941796064376831e-01
5.710000000000000000e+02 3.944369125366210938e+01 2.029822731018066406e+01 6.789687275886535645e-01 1.086187839508056641e+00 5.295469760894775391e-01 -1.240187644958496094e+00
5.720000000000000000e+02 3.703705215454101562e+01 1.146175289154052734e+01 -6.256870627403259277e-01 7.603703141212463379e-01 4.040497913956642151e-02 -4.393211603164672852e-01
5.730000000000000000e+02 3.593275070190429688e+01 1.218750858306884766e+01 -2.521222352981567383e+00 2.712155282497406006e-01 -6.750020384788513184e-01 1.403691526502370834e-02
5.740000000000000000e+02 3.762770462036132812e+01 1.255296325683593750e+01 -3.800228238105773926e-01 2.876976728439331055e+00 7.490861415863037109e-01 -1.635006546974182129e+00
5.750000000000000000e+02 3.920476150512695312e+01 1.024716567993164062e+01 3.798192739486694336e-01 5.947402000427246094e+00 1.898166418075561523e+00 -8.840620517730712891e-01
5.760000000000000000e+02 4.066231536865234375e+01 7.749982833862304688e+00 7.083055377006530762e-01 9.022727966308593750e+00 2.919310092926025391e+00 4.870274066925048828e-01
5.770000000000000000e+02 3.962956237792968750e+01 6.165257453918457031e+00 3.385233283042907715e-01 1.273563671112060547e+01 3.922247886657714844e+00 2.072242945432662964e-01
5.780000000000000000e+02 3.875915527343750000e+01 2.917823791503906250e+00 3.493429183959960938e+00 7.996062278747558594e+00 3.446847438812255859e+00 3.637582540512084961e+00
5.790000000000000000e+02 4.155477905273437500e+01 -3.185302615165710449e-01 2.553566992282867432e-01 3.229525804519653320e+00 1.045464754104614258e+00 -2.041534036397933960e-01
5.800000000000000000e+02 3.588328552246093750e+01 1.151016712188720703e+00 -1.185311913490295410e+00 1.371552944183349609e+00 5.587228760123252869e-02 1.732469320297241211e+00
5.810000000000000000e+02 3.578328704833984375e+01 -3.108072578907012939e-01 -4.604716300964355469e-01 2.058035135269165039e+00 4.792690277099609375e-01 2.762251853942871094e+00
5.820000000000000000e+02 3.442566680908203125e+01 1.156034111976623535e+00 -3.928379535675048828e+00 -2.676535546779632568e-01 -1.258809924125671387e+00 8.717387914657592773e-01
5.830000000000000000e+02 3.303359222412109375e+01 1.754657626152038574e+00 -3.069652318954467773e+00 -3.730504214763641357e-02 -9.320871829986572266e-01 7.125613093376159668e-01
5.840000000000000000e+02 3.087079811096191406e+01 3.704836368560791016e+00 3.364688754081726074e-01 2.484656810760498047e+00 8.463376760482788086e-01 -1.684198260307312012e+00
5.850000000000000000e+02 3.058816909790039062e+01 -1.153290510177612305e+00 9.087162613868713379e-01 6.043225288391113281e+00 2.085582494735717773e+00 -1.861019968986511230e+00
5.860000000000000000e+02 2.901395606994628906e+01 7.607069969177246094e+00 1.163694858551025391e+00 1.045562934875488281e+01 3.485797405242919922e+00 9.959865212440490723e-01
5.870000000000000000e+02 2.946311759948730469e+01 9.562856674194335938e+00 2.587225914001464844e+00 8.907752037048339844e+00 3.448493242263793945e+00 3.517153739929199219e+00
5.880000000000000000e+02 2.749379348754882812e+01 9.633603096008300781e+00 3.193939924240112305e+00 4.975093364715576172e+00 2.450709819793701172e+00 9.805409312248229980e-01
5.890000000000000000e+02 3.027347946166992188e+01 1.315923213958740234e+01 -7.672221064567565918e-01 5.844780445098876953e+00 1.523267507553100586e+00 4.129638671875000000e+00
5.900000000000000000e+02 3.128297615051269531e+01 1.466766071319580078e+01 -1.120992422103881836e+00 7.313592910766601562e+00 1.857780098915100098e+00 4.075054645538330078e+00
5.910000000000000000e+02 3.287724685668945312e+01 1.353656291961669922e+01 -3.486993908882141113e-01 3.028232574462890625e+00 8.038599491119384766e-01 2.413139820098876953e+00
5.920000000000000000e+02 7.694406127929687500e+01 2.334908103942871094e+01 -1.876721531152725220e-01 7.038364410400390625e+00 2.055207729339599609e+00 -1.724903583526611328e-01
5.930000000000000000e+02 7.927052307128906250e+01 2.926700210571289062e+01 2.675682492554187775e-02 7.122811317443847656e+00 2.144870519638061523e+00 -3.350830450654029846e-02
5.940000000000000000e+02 6.895420074462890625e+01 3.628516006469726562e+01 -3.501584827899932861e-01 5.501743316650390625e+00 1.545475482940673828e+00 4.514181613922119141e-01
5.950000000000000000e+02 6.134350204467773438e+01 3.791755294799804688e+01 -4.392994046211242676e-01 1.680492639541625977e+00 3.723579645156860352e-01 -7.560636401176452637e-01
5.960000000000000000e+02 6.311973953247070312e+01 3.797415161132812500e+01 -7.111335992813110352e-01 2.717228651046752930e+00 6.018285155296325684e-01 -4.801581501960754395e-01
5.970000000000000000e+02 5.859691619873046875e+01 3.593712997436523438e+01 -2.392567873001098633e+00 1.536442190408706665e-01 -6.716770529747009277e-01 6.016315817832946777e-01
5.980000000000000000e+02 5.848731231689453125e+01 3.769767761230468750e+01 -2.414632737636566162e-01 1.091920495033264160e+00 2.551371455192565918e-01 9.804171323776245117e-01
5.990000000000000000e+02 5.604329299926757812e+01 3.495157241821289062e+01 5.703280568122863770e-01 2.819783687591552734e+00 1.017033457756042480e+00 1.741491913795471191e+00
6.000000000000000000e+02 6.208571624755859375e+01 3.665478515625000000e+01 -1.158431410789489746e+00 2.388455390930175781e+00 3.690071702003479004e-01 -9.834992885589599609e-01
6.010000000000000000e+02 6.174046325683593750e+01 3.454858016967773438e+01 -6.388778686523437500e-01 1.300305008888244629e+00 1.984281390905380249e-01 -2.310494333505630493e-01
6.020000000000000000e+02 6.265042877197265625e+01 3.351583099365234375e+01 9.417619556188583374e-02 3.001623868942260742e+00 9.287400245666503906e-01 -9.699381589889526367e-01
6.030000000000000000e+02 6.335773086547851562e+01 3.242114639282226562e+01 6.759454607963562012e-01 6.085446834564208984e+00 2.028417587280273438e+00 -7.037830948829650879e-01
6.040000000000000000e+02 7.938423919677734375e+01 3.216420745849609375e+01 3.108792006969451904e-02 7.079549312591552734e+00 2.133191108703613281e+00 2.252859435975551605e-02
6.050000000000000000e+02 7.914962768554687500e+01 3.738633728027343750e+01 7.516703102737665176e-03 7.345470905303955078e+00 2.205896377563476562e+00 2.324956282973289490e-02
6.060000000000000000e+02 7.155614471435546875e+01 3.847809600830078125e+01 -2.983587086200714111e-01 5.885827541351318359e+00 1.676240682601928711e+00 3.116088211536407471e-01
6.070000000000000000e+02 7.702065277099609375e+01 3.799058532714843750e+01 -1.161567568778991699e-01 7.002713680267333984e+00 2.065967082977294922e+00 1.769248992204666138e-01
6.080000000000000000e+02 5.290434265136718750e+01 3.575574493408203125e+01 -1.042778730392456055e+00 5.803314685821533203e+00 1.428160786628723145e+00 6.147894859313964844e-01
6.090000000000000000e+02 4.968788146972656250e+01 3.458154678344726562e+01 -7.513515353202819824e-01 5.943246364593505859e+00 1.557568430900573730e+00 -1.474258452653884888e-01
6.100000000000000000e+02 5.359016036987304688e+01 3.081351280212402344e+01 1.242476344108581543e+00 1.035645008087158203e+01 3.479677915573120117e+00 1.668879032135009766e+00
6.110000000000000000e+02 5.418982315063476562e+01 3.291116333007812500e+01 1.697788476943969727e+00 8.180202484130859375e+00 2.963397264480590820e+00 2.862069129943847656e+00
6.120000000000000000e+02 4.822797012329101562e+01 3.142316246032714844e+01 3.996520936489105225e-01 6.456705570220947266e+00 2.056907415390014648e+00 3.013661205768585205e-01
6.130000000000000000e+02 5.359632110595703125e+01 2.956801414489746094e+01 1.575039140880107880e-02 9.468729972839355469e+00 2.845344066619873047e+00 4.909315407276153564e-01
6.140000000000000000e+02 5.355574035644531250e+01 2.833583641052246094e+01 6.100093722343444824e-01 9.238482475280761719e+00 2.954547643661499023e+00 -2.116984128952026367e-01
6.150000000000000000e+02 4.268893432617187500e+01 4.095957565307617188e+01 -6.593412160873413086e-01 2.504983425140380859e+00 5.536926388740539551e-01 -2.840689718723297119e-01
6.160000000000000000e+02 4.326793289184570312e+01 3.587054443359375000e+01 -1.297117590904235840e+00 2.183105945587158203e+00 2.657965123653411865e-01 -1.069395542144775391e+00
6.170000000000000000e+02 4.319092941284179688e+01 3.304349899291992188e+01 -5.696696639060974121e-01 1.212088346481323242e+00 1.927255988121032715e-01 -5.090850591659545898e-01
6.180000000000000000e+02 4.193715286254882812e+01 3.422332000732421875e+01 -1.689058423042297363e+00 5.103735327720642090e-01 -3.536054790019989014e-01 -1.307472735643386841e-01
6.190000000000000000e+02 4.510717391967773438e+01 3.098075294494628906e+01 9.007586240768432617e-01 4.654440879821777344e+00 1.666559815406799316e+00 -1.594307780265808105e+00
6.200000000000000000e+02 4.606392669677734375e+01 2.894761657714843750e+01 9.912148118019104004e-01 8.614720344543457031e+00 2.881780385971069336e+00 -1.039967775344848633e+00
6.210000000000000000e+02 4.614752578735351562e+01 2.759161376953125000e+01 4.230292737483978271e-01 1.044578742980957031e+01 3.260644912719726562e+00 1.184069439768791199e-01
6.220000000000000000e+02 3.875977706909179688e+01 3.459663391113281250e+01 -2.275514125823974609e+00 3.563020825386047363e-01 -5.757636427879333496e-01 3.220239579677581787e-01
6.230000000000000000e+02 3.785610198974609375e+01 3.655361557006835938e+01 -1.235873222351074219e+00 2.294752120971679688e+00 3.176636695861816406e-01 1.342154383659362793e+00
6.240000000000000000e+02 3.623168945312500000e+01 3.360905456542968750e+01 -3.618540763854980469e-01 4.600792884826660156e+00 1.271681666374206543e+00 1.228160858154296875e+00
6.250000000000000000e+02 4.032964706420898438e+01 3.488133621215820312e+01 -2.448931217193603516e+00 1.749519854784011841e-01 -6.821938157081604004e-01 8.476407825946807861e-02
6.260000000000000000e+02 3.623065948486328125e+01 3.718775939941406250e+01 -1.206410050392150879e+00 3.096597909927368164e+00 5.670563578605651855e-01 7.713832259178161621e-01
6.270000000000000000e+02 3.021372604370117188e+01 3.647483825683593750e+01 -8.131610155105590820e-01 4.220931529998779297e+00 1.022331237792968750e+00 -5.582819581031799316e-01
6.280000000000000000e+02 2.761902236938476562e+01 2.877773475646972656e+01 -1.109294772148132324e+00 1.687886118888854980e-01 -2.821518480777740479e-01 -1.708650439977645874e-01
6.290000000000000000e+02 2.961717605590820312e+01 2.892859268188476562e+01 3.217843547463417053e-02 2.614100933074951172e+00 7.938838005065917969e-01 -1.313487410545349121e+00
6.300000000000000000e+02 2.870378303527832031e+01 2.790110206604003906e+01 -9.086800366640090942e-02 7.293261289596557617e-01 1.915374398231506348e-01 -2.679138779640197754e-01
6.310000000000000000e+02 3.064187049865722656e+01 2.598275184631347656e+01 9.166481494903564453e-01 4.045333862304687500e+00 1.488594651222229004e+00 -1.642408847808837891e+00
6.320000000000000000e+02 3.139194869995117188e+01 2.491268920898437500e+01 9.708465933799743652e-01 8.568782806396484375e+00 2.861888885498046875e+00 -1.739167332649230957e+00
6.330000000000000000e+02 3.430802154541015625e+01 2.402725982666015625e+01 8.592344075441360474e-02 8.863488197326660156e+00 2.684823513031005859e+00 -1.313062906265258789e-01
6.340000000000000000e+02 3.391987609863281250e+01 2.564137077331542969e+01 5.973033905029296875e-01 9.793542861938476562e+00 3.117253780364990234e+00 3.096226751804351807e-01
6.350000000000000000e+02 3.520518112182617188e+01 2.664193153381347656e+01 1.044092535972595215e+00 1.268121433258056641e+01 4.117592334747314453e+00 -1.760551452636718750e+00
6.360000000000000000e+02 3.408321380615234375e+01 2.665852546691894531e+01 1.053359031677246094e+00 1.006911754608154297e+01 3.336742877960205078e+00 1.372243314981460571e-01
6.370000000000000000e+02 3.603115844726562500e+01 3.227442169189453125e+01 6.427223086357116699e-01 6.073789119720458984e+00 2.014953374862670898e+00 1.816748738288879395e+00
6.380000000000000000e+02 3.505327987670898438e+01 2.966114807128906250e+01 9.696412682533264160e-01 1.156477546691894531e+01 3.760325193405151367e+00 1.200419783592224121e+00
6.390000000000000000e+02 2.780791091918945312e+01 3.658836746215820312e+01 -4.104152917861938477e-01 3.631896018981933594e+00 9.664442539215087891e-01 -3.200210034847259521e-01
6.400000000000000000e+02 2.285404586791992188e+01 4.107392883300781250e+01 -1.099651098251342773e+00 3.770800113677978516e+00 8.013447523117065430e-01 6.034404784440994263e-02
6.410000000000000000e+02 2.547405242919921875e+01 2.894113731384277344e+01 -1.404036045074462891e+00 2.118482589721679688e-01 -3.576563298702239990e-01 2.363809049129486084e-01
6.420000000000000000e+02 2.850029182434082031e+01 3.001152801513671875e+01 3.616722226142883301e-01 1.663865804672241211e+00 6.076614260673522949e-01 -1.376562833786010742e+00
6.430000000000000000e+02 1.882043647766113281e+01 3.778007507324218750e+01 -8.503883481025695801e-01 3.088391542434692383e+00 6.714009642601013184e-01 -5.914446115493774414e-01
6.440000000000000000e+02 1.702327537536621094e+01 3.476736831665039062e+01 -1.094005554914474487e-01 1.968593835830688477e+00 5.577579736709594727e-01 -1.315511465072631836e+00
6.450000000000000000e+02 1.204241371154785156e+01 3.476238632202148438e+01 -1.441437363624572754e+00 1.093311980366706848e-01 -3.996318578720092773e-01 1.915404200553894043e-01
6.460000000000000000e+02 1.619751167297363281e+01 3.371953582763671875e+01 -2.667903304100036621e-01 4.507730901241302490e-01 5.519483238458633423e-02 -2.067067176103591919e-01
6.470000000000000000e+02 1.844702720642089844e+01 3.269457244873046875e+01 1.166334867477416992e+00 4.304043292999267578e+00 1.641113400459289551e+00 -2.036972761154174805e+00
6.480000000000000000e+02 1.994412422180175781e+01 2.788841247558593750e+01 2.737583220005035400e-01 1.057096672058105469e+01 3.253417491912841797e+00 -1.423053145408630371e-01
6.490000000000000000e+02 2.447394943237304688e+01 2.827373504638671875e+01 -2.380593568086624146e-01 2.046640634536743164e+00 5.425744056701660156e-01 4.339692294597625732e-01
6.500000000000000000e+02 2.090501976013183594e+01 2.570901107788085938e+01 -8.286061882972717285e-01 8.525060653686523438e+00 2.308936357498168945e+00 -1.116047978401184082e+00
6.510000000000000000e+02 1.991457939147949219e+01 2.484533500671386719e+01 -1.480585813522338867e+00 7.217916011810302734e+00 1.721199035644531250e+00 -7.984920740127563477e-01
6.520000000000000000e+02 2.035451507568359375e+01 2.370591163635253906e+01 -1.731717959046363831e-02 7.550548076629638672e+00 2.259969234466552734e+00 -5.279800891876220703e-01
6.530000000000000000e+02 1.728393173217773438e+01 2.419573593139648438e+01 -1.847167372703552246e+00 -8.500267863273620605e-01 -8.091582655906677246e-01 -1.307582974433898926e+00
6.540000000000000000e+02 1.743940925598144531e+01 1.904875564575195312e+01 -9.395318031311035156e-01 -3.095277249813079834e-01 -3.747178614139556885e-01 7.402474284172058105e-01
6.550000000000000000e+02 1.482476997375488281e+01 1.884065628051757812e+01 -1.260162353515625000e+00 -1.293556988239288330e-01 -4.168554246425628662e-01 2.343982309103012085e-01
6.560000000000000000e+02 1.717348861694335938e+01 2.059857368469238281e+01 9.887492060661315918e-01 -1.273144781589508057e-01 2.584304213523864746e-01 1.492390185594558716e-01
6.570000000000000000e+02 1.693039894104003906e+01 2.196786880493164062e+01 8.941287994384765625e-01 -4.098385572433471680e-01 1.452870815992355347e-01 -9.819433838129043579e-02
6.580000000000000000e+02 1.895078086853027344e+01 1.692007064819335938e+01 -1.415316224098205566e+00 1.937245249748229980e+00 1.565787047147750854e-01 4.106355458498001099e-02
6.590000000000000000e+02 2.251958274841308594e+01 1.764601707458496094e+01 -1.700113654136657715e+00 8.472133636474609375e+00 2.031605958938598633e+00 -4.665289223194122314e-01
6.600000000000000000e+02 2.055943489074707031e+01 1.166624546051025391e+01 8.413779139518737793e-01 1.115569019317626953e+01 3.599120378494262695e+00 8.142503350973129272e-02
6.610000000000000000e+02 2.109877967834472656e+01 1.053029441833496094e+01 1.747802734375000000e+00 9.245209693908691406e+00 3.297903537750244141e+00 4.031423032283782959e-01
6.620000000000000000e+02 2.093422126770019531e+01 8.737020492553710938e+00 8.805344700813293457e-01 6.847219944000244141e+00 2.318326234817504883e+00 4.319837689399719238e-01
6.630000000000000000e+02 2.009184646606445312e+01 8.028110504150390625e+00 1.736570745706558228e-01 6.675768852233886719e+00 2.054827690124511719e+00 2.138548612594604492e+00
6.640000000000000000e+02 1.912595558166503906e+01 7.673153877258300781e+00 1.769077479839324951e-01 4.291892051696777344e+00 1.340639948844909668e+00 2.435596227645874023e+00
6.650000000000000000e+02 1.792466545104980469e+01 7.319371223449707031e+00 -1.745943069458007812e+00 2.016219377517700195e+00 8.108288794755935669e-02 1.226494073867797852e+00
6.660000000000000000e+02 1.711488914489746094e+01 2.745763301849365234e+00 3.497988224029541016e+00 1.057256317138671875e+01 4.221165657043457031e+00 3.749574899673461914e+00
6.670000000000000000e+02 1.753281974792480469e+01 2.196035623550415039e+00 6.267867565155029297e+00 9.094850540161132812e+00 4.608815193176269531e+00 4.672325134277343750e+00
6.680000000000000000e+02 1.806595039367675781e+01 1.661146759986877441e+00 6.659591674804687500e+00 6.614451885223388672e+00 3.982213020324707031e+00 3.650691986083984375e+00
6.690000000000000000e+02 2.514403533935546875e+01 2.317308425903320312e+00 4.596143364906311035e-01 2.284059524536132812e+00 8.231021761894226074e-01 -7.106715440750122070e-01
6.700000000000000000e+02 1.074912071228027344e+01 3.510682296752929688e+01 -1.888056874275207520e+00 -2.753885984420776367e-01 -6.490336656570434570e-01 -4.268262907862663269e-02
6.710000000000000000e+02 8.900458335876464844e+00 3.715245819091796875e+01 -4.655326902866363525e-01 6.180675327777862549e-02 -1.211177781224250793e-01 6.429618597030639648e-02
6.720000000000000000e+02 9.288913726806640625e+00 3.508946990966796875e+01 -2.063193798065185547e+00 -5.003904104232788086e-01 -7.690752148628234863e-01 -4.582973122596740723e-01
6.730000000000000000e+02 1.185435485839843750e+01 3.618507385253906250e+01 -1.180719375610351562e+00 -1.090506091713905334e-02 -3.574873507022857666e-01 -4.433972239494323730e-01
6.740000000000000000e+02 1.944541096687316895e+00 4.167144393920898438e+01 2.325242608785629272e-01 2.998281002044677734e+00 9.692416191101074219e-01 6.567004323005676270e-02
6.750000000000000000e+02 3.534832954406738281e+00 3.841643524169921875e+01 -2.327074855566024780e-01 2.568792104721069336e+00 7.008253931999206543e-01 -1.148610562086105347e-01
6.760000000000000000e+02 5.839981436729431152e-01 3.329505157470703125e+01 -8.847156912088394165e-02 2.870241641998291016e+00 8.345310091972351074e-01 -2.347188591957092285e-01
6.770000000000000000e+02 1.763690471649169922e+00 3.320610046386718750e+01 -1.091530919075012207e-01 2.593780040740966797e+00 7.453880906105041504e-01 -6.091799139976501465e-01
6.780000000000000000e+02 7.861392498016357422e+00 3.418138122558593750e+01 -1.297110915184020996e+00 -1.410059817135334015e-02 -3.933634459972381592e-01 -5.123032331466674805e-01
6.790000000000000000e+02 6.844390392303466797e+00 3.312989044189453125e+01 -5.712384581565856934e-01 1.053096652030944824e+00 1.445574760437011719e-01 -1.102618351578712463e-01
6.800000000000000000e+02 5.973977565765380859e+00 3.097772216796875000e+01 -6.429671496152877808e-02 2.937628030776977539e+00 8.619993925094604492e-01 1.000640690326690674e-01
6.810000000000000000e+02 5.755954742431640625e+00 2.828488349914550781e+01 2.277931571006774902e-01 5.918703556060791016e+00 1.843949079513549805e+00 -2.989436388015747070e-01
6.820000000000000000e+02 3.333253145217895508e+00 2.703138351440429688e+01 6.059752106666564941e-01 2.301234722137451172e+00 8.721629977226257324e-01 -5.362620353698730469e-01
6.830000000000000000e+02 6.060686707496643066e-01 2.475043869018554688e+01 -1.386648043990135193e-02 -1.954802423715591431e-01 -6.280401349067687988e-02 6.110522896051406860e-02
6.840000000000000000e+02 1.732304930686950684e+00 2.185239410400390625e+01 -1.047753170132637024e-01 7.331786751747131348e-01 1.885210126638412476e-01 5.010902881622314453e-02
6.850000000000000000e+02 1.792754292488098145e+00 1.772083282470703125e+01 -8.889389038085937500e-02 2.117079049348831177e-01 3.684420511126518250e-02 -4.551441967487335205e-01
6.860000000000000000e+02 1.570562481880187988e+00 1.062914085388183594e+01 1.193673461675643921e-01 -1.356573939323425293e+00 -3.711619973182678223e-01 -7.772398740053176880e-02
6.870000000000000000e+02 2.022860288619995117e+00 4.472014904022216797e+00 -1.668567955493927002e-02 -5.732701420783996582e-01 -1.769867539405822754e-01 5.414789319038391113e-01
6.880000000000000000e+02 1.015925693511962891e+01 1.877694725990295410e+00 -4.723249077796936035e-01 3.030692338943481445e-01 -5.077669396996498108e-02 -5.491034984588623047e-01
6.890000000000000000e+02 1.082731628417968750e+01 1.988604664802551270e+00 -1.655040681362152100e-01 2.424733936786651611e-01 2.309079654514789581e-02 -7.566441893577575684e-01
6.900000000000000000e+02 1.149233245849609375e+01 2.125247716903686523e+00 4.079619348049163818e-01 5.081512033939361572e-03 1.239130347967147827e-01 -9.702706933021545410e-01
6.910000000000000000e+02 1.215241336822509766e+01 2.226603984832763672e+00 1.009212255477905273e+00 2.416507527232170105e-02 3.100132048130035400e-01 -1.316883206367492676e+00
6.920000000000000000e+02 1.320500564575195312e+01 2.443876504898071289e+00 2.490779161453247070e+00 3.890516236424446106e-02 7.589052915573120117e-01 -2.020764827728271484e+00
6.930000000000000000e+02 1.596626472473144531e+01 3.065121412277221680e+00 1.940473437309265137e+00 1.000583744049072266e+01 3.583893299102783203e+00 -1.640925288200378418e+00
6.940000000000000000e+02 1.867900848388671875e+01 2.102614402770996094e+00 5.044165134429931641e+00 4.867664337158203125e+00 2.973548650741577148e+00 4.406322956085205078e+00
6.950000000000000000e+02 1.628259468078613281e+01 -4.550087451934814453e-01 -1.544751167297363281e+00 1.470430660247802734e+01 3.947866678237915039e+00 2.766847133636474609e+00
6.960000000000000000e+02 1.134370803833007812e+01 -1.564306497573852539e+00 -3.020604141056537628e-02 2.353781759738922119e-01 6.155164167284965515e-02 -2.854080684483051300e-02
6.970000000000000000e+02 5.257783889770507812e+01 -1.558046722412109375e+01 -2.600324153900146484e+00 1.485316276550292969e+00 -3.345023989677429199e-01 -1.985489487648010254e+00
6.980000000000000000e+02 5.446481704711914062e+01 -1.737350463867187500e+01 1.861651539802551270e+00 6.702325820922851562e+00 2.569193124771118164e+00 -2.701000452041625977e+00
6.990000000000000000e+02 5.434304046630859375e+01 -1.562466239929199219e+01 -1.474599719047546387e+00 5.672868728637695312e+00 1.259480714797973633e+00 -3.020784854888916016e+00
7.000000000000000000e+02 5.730339431762695312e+01 -1.879059600830078125e+01 1.667039394378662109e+00 6.996942520141601562e+00 2.599194526672363281e+00 -6.297676265239715576e-02
7.010000000000000000e+02 6.470272827148437500e+01 -2.015557098388671875e+01 2.409269213676452637e-01 9.875077247619628906e+00 3.034801244735717773e+00 -1.826669275760650635e-02
7.020000000000000000e+02 6.447081756591796875e+01 -1.746690368652343750e+01 -3.498984277248382568e-01 6.479301452636718750e+00 1.838820934295654297e+00 3.082968592643737793e-01
7.030000000000000000e+02 6.303031539916992188e+01 -1.770842170715332031e+01 1.403923798352479935e-02 6.882124900817871094e+00 2.068849086761474609e+00 -4.307754933834075928e-01
7.040000000000000000e+02 6.683520507812500000e+01 -1.045098114013671875e+01 1.282712578773498535e+00 3.515473365783691406e+00 1.439455747604370117e+00 -1.892862439155578613e+00
7.050000000000000000e+02 6.297981262207031250e+01 -1.000049304962158203e+01 -1.016906872391700745e-01 8.201997756958007812e+00 2.430092096328735352e+00 5.910859107971191406e-01
7.060000000000000000e+02 6.553521728515625000e+01 -1.086054420471191406e+01 -3.155588209629058838e-01 6.458437442779541016e+00 1.842863678932189941e+00 -1.152362823486328125e+00
7.070000000000000000e+02 5.577935409545898438e+01 -1.816626739501953125e+01 1.663524746894836426e+00 8.092269897460937500e+00 2.926738500595092773e+00 -1.545679450035095215e+00
7.080000000000000000e+02 5.543857192993164062e+01 -2.064995002746582031e+01 5.329748392105102539e-01 1.166368579864501953e+01 3.658998012542724609e+00 -2.989212870597839355e-01
7.090000000000000000e+02 5.758240127563476562e+01 -2.458596801757812500e+01 -1.983695775270462036e-01 6.210510730743408203e+00 1.803642392158508301e+00 9.749115109443664551e-01
7.100000000000000000e+02 5.645564270019531250e+01 -2.218467903137207031e+01 2.327371120452880859e+00 8.120459556579589844e+00 3.134349107742309570e+00 1.201723814010620117e+00
7.110000000000000000e+02 5.469976043701171875e+01 -2.599291801452636719e+01 -2.618417024612426758e+00 7.397968769073486328e+00 1.433865547180175781e+00 2.331568002700805664e+00
7.120000000000000000e+02 5.552663803100585938e+01 -2.662730407714843750e+01 -1.312438488006591797e+00 7.462001800537109375e+00 1.844868898391723633e+00 2.345481634140014648e+00
7.130000000000000000e+02 5.786032485961914062e+01 -2.690864562988281250e+01 -2.386624336242675781e+00 6.853859424591064453e+00 1.340170502662658691e+00 1.899861216545104980e+00
7.140000000000000000e+02 5.732778930664062500e+01 -2.910259246826171875e+01 1.192404031753540039e+00 6.845991134643554688e+00 2.411518573760986328e+00 3.136065959930419922e+00
7.150000000000000000e+02 5.313391876220703125e+01 -2.593644523620605469e+01 -2.482729434967041016e+00 2.455059766769409180e+00 -8.300913497805595398e-03 1.488806009292602539e+00
7.160000000000000000e+02 4.670677947998046875e+01 -2.841937828063964844e+01 4.044397771358489990e-01 2.668503999710083008e+00 9.218831062316894531e-01 -2.571623325347900391e+00
7.170000000000000000e+02 4.956476593017578125e+01 -2.562043571472167969e+01 -2.061159372329711914e+00 3.014498949050903320e+00 2.860018908977508545e-01 -2.396271467208862305e+00
7.180000000000000000e+02 4.889688110351562500e+01 -2.443216896057128906e+01 9.516279399394989014e-02 3.292866706848144531e+00 1.016408801078796387e+00 -2.237780570983886719e+00
7.190000000000000000e+02 4.408975601196289062e+01 -2.277798652648925781e+01 3.180454492568969727e+00 4.229410171508789062e+00 2.222959518432617188e+00 1.631111204624176025e-01
7.200000000000000000e+02 4.702492523193359375e+01 -2.216252136230468750e+01 2.956566095352172852e+00 8.873493194580078125e+00 3.549017667770385742e+00 -3.080950498580932617e+00
7.210000000000000000e+02 4.488936614990234375e+01 -2.773832893371582031e+01 -2.855910778045654297e+00 1.145828962326049805e+00 -5.130245685577392578e-01 -5.529098510742187500e-01
7.220000000000000000e+02 4.592553329467773438e+01 -2.731105232238769531e+01 -1.334321022033691406e+00 2.696786165237426758e+00 4.087395071983337402e-01 -2.076827764511108398e+00
7.230000000000000000e+02 4.771928787231445312e+01 -2.923567199707031250e+01 3.163990974426269531e+00 4.445055484771728516e+00 2.282713890075683594e+00 -3.776980161666870117e+00
7.240000000000000000e+02 4.930459976196289062e+01 -3.144085121154785156e+01 2.529246330261230469e+00 1.133915424346923828e+01 4.160520076751708984e+00 -3.361942529678344727e+00
7.250000000000000000e+02 4.963056945800781250e+01 -3.260619735717773438e+01 9.701305031776428223e-01 1.087881660461425781e+01 3.554684162139892578e+00 -9.389523863792419434e-01
7.260000000000000000e+02 5.039192962646484375e+01 -3.348074340820312500e+01 1.862979412078857422e+00 9.201772689819335938e+00 3.319425582885742188e+00 1.059877201914787292e-01
7.270000000000000000e+02 4.665465545654296875e+01 -2.066101646423339844e+01 1.624400138854980469e+00 1.052207565307617188e+01 3.643942594528198242e+00 -4.634765982627868652e-01
7.280000000000000000e+02 4.016261672973632812e+01 -1.627756690979003906e+01 -9.161971807479858398e-01 4.618778705596923828e+00 1.110774397850036621e+00 -2.189105272293090820e+00
7.290000000000000000e+02 4.748271560668945312e+01 -1.666874885559082031e+01 -1.513188123703002930e+00 5.895374774932861328e+00 1.314656019210815430e+00 2.559480190277099609e+00
7.300000000000000000e+02 4.888571166992187500e+01 -1.664173126220703125e+01 -2.329888582229614258e+00 2.339357852935791016e+00 2.840784145519137383e-03 1.130620956420898438e+00
7.310000000000000000e+02 5.013611221313476562e+01 -1.629827308654785156e+01 -5.132945060729980469e+00 -2.812657505273818970e-02 -1.548321604728698730e+00 -7.044708132743835449e-01
7.320000000000000000e+02 7.383064270019531250e+01 -2.208857154846191406e+01 6.959698200225830078e-01 1.358364582061767578e+01 4.283885002136230469e+00 5.186346173286437988e-01
7.330000000000000000e+02 7.939190673828125000e+01 -2.633053970336914062e+01 -4.229933768510818481e-02 7.285132408142089844e+00 2.172849893569946289e+00 -2.033888399600982666e-01
7.340000000000000000e+02 7.183506011962890625e+01 -2.603852462768554688e+01 -1.538216710090637207e+00 1.610626339912414551e+00 2.172290161252021790e-02 1.197286725044250488e+00
7.350000000000000000e+02 7.098924255371093750e+01 -2.712934684753417969e+01 -1.536731481552124023e+00 1.461758971214294434e+00 -2.249175310134887695e-02 1.173402309417724609e+00
7.360000000000000000e+02 6.966140747070312500e+01 -2.651308441162109375e+01 -3.684364795684814453e+00 -2.287247180938720703e-01 -1.173926830291748047e+00 1.413887888193130493e-01
7.370000000000000000e+02 6.851200866699218750e+01 -2.914360237121582031e+01 1.877570629119873047e+00 4.072632789611816406e+00 1.785060882568359375e+00 -1.548826098442077637e+00
7.380000000000000000e+02 6.716018676757812500e+01 -2.541023254394531250e+01 3.335752189159393311e-01 4.516191005706787109e+00 1.454929947853088379e+00 -2.371358871459960938e+00
7.390000000000000000e+02 6.353385543823242188e+01 -2.760639572143554688e+01 9.149504303932189941e-01 4.268776893615722656e+00 1.555118203163146973e+00 -2.617245912551879883e+00
7.400000000000000000e+02 6.569558715820312500e+01 -2.898226737976074219e+01 2.550318956375122070e+00 9.734300613403320312e+00 3.685385942459106445e+00 -3.835895776748657227e+00
7.410000000000000000e+02 6.569332885742187500e+01 -3.033917045593261719e+01 2.830023527145385742e+00 1.252505779266357422e+01 4.606524467468261719e+00 -4.109820365905761719e+00
7.420000000000000000e+02 6.602990722656250000e+01 -3.305485916137695312e+01 3.126219809055328369e-01 9.434586524963378906e+00 2.924162626266479492e+00 -7.505393624305725098e-01
7.430000000000000000e+02 6.612595367431640625e+01 -3.440730667114257812e+01 5.231946110725402832e-01 8.118636131286621094e+00 2.592549085617065430e+00 -4.406857490539550781e-02
7.440000000000000000e+02 6.517414093017578125e+01 -3.639593887329101562e+01 2.311896681785583496e-01 4.301231384277343750e+00 1.359726309776306152e+00 6.647791266441345215e-01
7.450000000000000000e+02 6.726490020751953125e+01 -4.150635528564453125e+01 -1.549181103706359863e+00 4.683039188385009766e+00 9.401574134826660156e-01 -1.235567033290863037e-02
7.460000000000000000e+02 6.577069854736328125e+01 -3.783181381225585938e+01 -2.341847658157348633e+00 5.094182014465332031e+00 8.257003426551818848e-01 7.889086008071899414e-02
7.470000000000000000e+02 6.113636398315429688e+01 -2.644786453247070312e+01 -4.435619354248046875e+00 -3.410411477088928223e-01 -1.432998180389404297e+00 -3.471105396747589111e-01
7.480000000000000000e+02 6.471701812744140625e+01 -2.163141632080078125e+01 2.015914201736450195e+00 1.242186355590820312e+01 4.331333160400390625e+00 -2.387531995773315430e+00
7.490000000000000000e+02 6.694857025146484375e+01 -1.635060501098632812e+01 -2.695934057235717773e+00 2.337843924760818481e-01 -7.386448979377746582e-01 -3.197124898433685303e-01
7.500000000000000000e+02 6.827388000488281250e+01 -1.599870109558105469e+01 -2.359488487243652344e+00 2.196103520691394806e-02 -7.012582421302795410e-01 -6.629760265350341797e-01
7.510000000000000000e+02 6.241140365600585938e+01 -2.678988456726074219e+01 -2.532721757888793945e+00 1.943115711212158203e+00 -1.768818050622940063e-01 -9.153529405593872070e-01
7.520000000000000000e+02 6.604272460937500000e+01 -2.439709091186523438e+01 2.258613109588623047e+00 7.378560543060302734e+00 2.891151905059814453e+00 -4.386127948760986328e+00
7.530000000000000000e+02 6.576420593261718750e+01 -2.654988098144531250e+01 -1.354364156723022461e+00 7.898652076721191406e+00 1.963286399841308594e+00 -2.898626565933227539e+00
7.540000000000000000e+02 5.585257720947265625e+01 -3.328100585937500000e+01 9.935647249221801758e-01 1.132704639434814453e+01 3.696183443069458008e+00 1.610176563262939453e-01
7.550000000000000000e+02 5.200455856323242188e+01 -3.148926353454589844e+01 3.135085582733154297e+00 6.585913181304931641e+00 2.916299581527709961e+00 -3.506160676479339600e-01
7.560000000000000000e+02 5.976179885864257812e+01 -2.602918243408203125e+01 -2.217617273330688477e+00 1.722529649734497070e+00 -1.485263109207153320e-01 7.939918637275695801e-01
7.570000000000000000e+02 1.455667591094970703e+01 -1.426659393310546875e+01 -2.383278846740722656e+00 2.126591920852661133e+00 -7.700604200363159180e-02 3.163840472698211670e-01
7.580000000000000000e+02 1.621568298339843750e+01 -1.217854404449462891e+01 -2.812326908111572266e+00 7.723984718322753906e+00 1.473497271537780762e+00 -1.200287938117980957e-01
7.590000000000000000e+02 1.850197601318359375e+01 -1.107902717590332031e+01 1.290032744407653809e+00 5.277526855468750000e+00 1.970267891883850098e+00 -3.242039203643798828e+00
7.600000000000000000e+02 2.065736198425292969e+01 -1.320954895019531250e+01 -3.149893522262573242e+00 1.172625899314880371e+00 -5.931802392005920410e-01 2.873334884643554688e-01
7.610000000000000000e+02 1.945737266540527344e+01 -1.221290206909179688e+01 -6.702902317047119141e-01 2.999652385711669922e+00 6.988086700439453125e-01 -1.048647165298461914e+00
7.620000000000000000e+02 1.535327911376953125e+01 -1.530919456481933594e+01 5.982787162065505981e-02 7.147140979766845703e+00 2.162090539932250977e+00 -1.287739992141723633e+00
7.630000000000000000e+02 2.042325973510742188e+01 -1.724077224731445312e+01 1.044120430946350098e+00 1.994837880134582520e+00 9.116874933242797852e-01 -1.214384317398071289e+00
7.640000000000000000e+02 2.222097396850585938e+01 -2.605913925170898438e+01 -1.521729350090026855e+00 1.666709184646606445e+00 4.349393397569656372e-02 -6.095845103263854980e-01
7.650000000000000000e+02 2.719210052490234375e+01 -1.919593048095703125e+01 1.881267547607421875e+00 5.973136425018310547e+00 2.356321096420288086e+00 4.464106559753417969e-01
7.660000000000000000e+02 2.212266540527343750e+01 -1.373681068420410156e+01 -6.677075862884521484e+00 -5.535840392112731934e-01 -2.169198036193847656e+00 2.917996346950531006e-01
7.670000000000000000e+02 2.969852638244628906e+01 -1.848522186279296875e+01 1.829925775527954102e+00 9.644861221313476562e+00 3.442436218261718750e+00 3.967902898788452148e+00
7.680000000000000000e+02 2.923455619812011719e+01 -1.974058914184570312e+01 1.755600452423095703e+00 1.180559730529785156e+01 4.068359375000000000e+00 3.022317886352539062e+00
7.690000000000000000e+02 2.752749061584472656e+01 -2.193665313720703125e+01 2.023433446884155273e+00 7.482750415802001953e+00 2.851855278015136719e+00 1.947372704744338989e-01
7.700000000000000000e+02 2.878255271911621094e+01 -2.232359504699707031e+01 1.320993661880493164e+00 1.222817707061767578e+01 4.064751148223876953e+00 -8.161148428916931152e-01
7.710000000000000000e+02 1.595554733276367188e+01 -1.847374534606933594e+01 3.583036363124847412e-01 1.034071731567382812e+01 3.209706306457519531e+00 3.466082811355590820e-01
7.720000000000000000e+02 1.603924179077148438e+01 -1.720681381225585938e+01 8.167028427124023438e-01 9.982003211975097656e+00 3.239611864089965820e+00 -9.133726954460144043e-01
7.730000000000000000e+02 1.779409980773925781e+01 -2.162898826599121094e+01 1.230051517486572266e+00 3.556191205978393555e+00 1.435872912406921387e+00 -8.722561597824096680e-02
7.740000000000000000e+02 1.727028083801269531e+01 -2.687614822387695312e+01 -1.433635592460632324e+00 8.743618130683898926e-01 -1.677821427583694458e-01 6.154401302337646484e-01
7.750000000000000000e+02 4.833054542541503906e+00 -1.960046195983886719e+01 3.602832555770874023e-01 6.455475330352783203e+00 2.044727563858032227e+00 8.397835493087768555e-01
7.760000000000000000e+02 4.361203193664550781e+00 -1.866821861267089844e+01 1.136725664138793945e+00 6.133798122406005859e+00 2.181157112121582031e+00 1.694453358650207520e+00
7.770000000000000000e+02 2.144886493682861328e+00 -1.844373130798339844e+01 7.884561419486999512e-01 1.481840133666992188e+00 6.810888648033142090e-01 1.254333853721618652e+00
7.780000000000000000e+02 3.415319919586181641e+00 -1.828987884521484375e+01 1.121994376182556152e+00 3.404511451721191406e+00 1.357951760292053223e+00 1.605516910552978516e+00
7.790000000000000000e+02 4.663334369659423828e+00 -1.586407661437988281e+01 1.205471515655517578e+00 4.571356296539306641e+00 1.733048439025878906e+00 1.274399876594543457e+00
7.800000000000000000e+02 1.877298831939697266e+00 -1.432850456237792969e+01 1.077625229954719543e-01 1.306307911872863770e-01 7.151799649000167847e-02 -1.757594645023345947e-01
7.810000000000000000e+02 4.753113555908203125e+01 1.871287727355957031e+01 -1.659034132957458496e+00 2.290411233901977539e+00 1.894131153821945190e-01 1.635413765907287598e+00
7.820000000000000000e+02 5.075045013427734375e+01 1.798606872558593750e+01 -5.115838050842285156e-01 1.319966197013854980e+00 2.425147145986557007e-01 -4.796559214591979980e-01
7.830000000000000000e+02 5.279919052124023438e+01 1.601230049133300781e+01 1.617590904235839844e+00 3.349180936813354492e+00 1.490031480789184570e+00 -2.140320539474487305e+00
7.840000000000000000e+02 5.370098495483398438e+01 1.493127632141113281e+01 1.732790708541870117e+00 5.159723281860351562e+00 2.067754268646240234e+00 -2.765104770660400391e+00
7.850000000000000000e+02 5.740349960327148438e+01 1.308982372283935547e+01 1.642325758934020996e+00 8.283309936523437500e+00 2.977690458297729492e+00 5.809270143508911133e-01
7.860000000000000000e+02 5.453644180297851562e+01 1.969864654541015625e+01 -4.459738135337829590e-01 4.455251693725585938e+00 1.202783346176147461e+00 -2.504112005233764648e+00
7.870000000000000000e+02 5.444585800170898438e+01 1.380481243133544922e+01 1.486148595809936523e+00 8.219081878662109375e+00 2.911569118499755859e+00 -2.052898883819580078e+00
7.880000000000000000e+02 5.485823822021484375e+01 1.039243125915527344e+01 3.635876476764678955e-01 1.122582530975341797e+01 3.476823806762695312e+00 6.844792366027832031e-01
7.890000000000000000e+02 6.056145477294921875e+01 7.758850574493408203e+00 7.713467627763748169e-02 5.498165607452392578e+00 1.672590017318725586e+00 -1.310272455215454102e+00
7.900000000000000000e+02 5.443266677856445312e+01 7.741548061370849609e+00 2.458250999450683594e+00 9.967232704162597656e+00 3.727645158767700195e+00 3.523420095443725586e+00
7.910000000000000000e+02 5.775162887573242188e+01 2.226815938949584961e+00 -1.002426385879516602e+00 2.903207540512084961e+00 5.702343583106994629e-01 -1.437971234321594238e+00
7.920000000000000000e+02 5.187316513061523438e+01 3.807735443115234375e+00 -4.109652638435363770e-01 3.050214767456054688e+00 7.917748689651489258e-01 2.284960985183715820e+00
7.930000000000000000e+02 5.810319900512695312e+01 1.029277563095092773e+00 -2.348263263702392578e+00 1.979935765266418457e+00 -1.104982495307922363e-01 -1.682372927665710449e+00
7.940000000000000000e+02 5.550939178466796875e+01 3.746916949748992920e-01 -2.212332010269165039e+00 1.122090697288513184e+00 -3.270724415779113770e-01 7.870163321495056152e-01
7.950000000000000000e+02 5.389671325683593750e+01 -5.059330463409423828e-01 5.054277777671813965e-01 4.976075649261474609e+00 1.644451141357421875e+00 2.059627294540405273e+00
7.960000000000000000e+02 5.298623275756835938e+01 6.256337642669677734e+00 2.157993316650390625e+00 4.332214355468750000e+00 1.947062253952026367e+00 2.800581693649291992e+00
7.970000000000000000e+02 5.086775207519531250e+01 4.901465415954589844e+00 -1.319471836090087891e+00 7.037445306777954102e-01 -1.847181916236877441e-01 1.021731972694396973e+00
7.980000000000000000e+02 4.989361572265625000e+01 2.369686603546142578e+00 5.060264840722084045e-02 3.044987916946411133e+00 9.286772012710571289e-01 -1.810221076011657715e-01
7.990000000000000000e+02 4.760028076171875000e+01 7.319513320922851562e+00 -2.628351747989654541e-01 6.695388555526733398e-01 1.220111027359962463e-01 -7.971127331256866455e-02
8.000000000000000000e+02 4.863188934326171875e+01 6.388131618499755859e+00 -1.636062979698181152e+00 -7.231049984693527222e-02 -5.125120878219604492e-01 4.119431376457214355e-01
8.010000000000000000e+02 4.658986663818359375e+01 8.246193885803222656e+00 2.316631078720092773e-01 1.564360737800598145e+00 5.388071537017822266e-01 -8.511874079704284668e-01
8.020000000000000000e+02 4.442375564575195312e+01 9.737111091613769531e+00 6.478472948074340820e-01 7.715434074401855469e+00 2.508984565734863281e+00 -5.374039411544799805e-01
8.030000000000000000e+02 4.457152557373046875e+01 1.245746803283691406e+01 7.826887369155883789e-01 1.258600139617919922e+01 4.010606765747070312e+00 -1.130402237176895142e-01
8.040000000000000000e+02 4.495132446289062500e+01 1.534926033020019531e+01 1.761632084846496582e+00 1.129563140869140625e+01 3.917178869247436523e+00 3.077901124954223633e+00
8.050000000000000000e+02 4.466183853149414062e+01 1.388307285308837891e+01 8.910716176033020020e-01 1.276059722900390625e+01 4.095500469207763672e+00 1.618794918060302734e+00
8.060000000000000000e+02 4.209492111206054688e+01 2.178058433532714844e+01 -1.720688343048095703e+00 6.320794820785522461e-01 -3.265826702117919922e-01 6.548431515693664551e-01
8.070000000000000000e+02 4.546482467651367188e+01 2.006293487548828125e+01 -1.381488800048828125e+00 6.580966472625732422e+00 1.559843301773071289e+00 2.811159133911132812e+00
8.080000000000000000e+02 1.658510208129882812e+01 6.910524368286132812e+00 -4.951910018920898438e+00 5.158889293670654297e-01 -1.330806374549865723e+00 -4.393879473209381104e-01
8.090000000000000000e+02 1.114818000793457031e+01 8.385872840881347656e+00 2.567503929138183594e+00 3.891689777374267578e+00 1.937758088111877441e+00 -3.032351732254028320e+00
8.100000000000000000e+02 9.774824142456054688e+00 1.079553031921386719e+01 1.530284643173217773e+00 8.629689216613769531e+00 3.047991991043090820e+00 -2.271173000335693359e+00
8.110000000000000000e+02 9.446570396423339844e+00 1.340748977661132812e+01 2.177103757858276367e-01 5.590952873229980469e+00 1.742599010467529297e+00 1.110772117972373962e-01
8.120000000000000000e+02 9.529319763183593750e+00 1.212997913360595703e+01 3.785368204116821289e-01 7.326413631439208984e+00 2.311485290527343750e+00 -5.091544985771179199e-01
8.130000000000000000e+02 7.612768650054931641e+00 1.379138660430908203e+01 3.900736570358276367e-01 3.470029115676879883e+00 1.158030867576599121e+00 -1.067680597305297852e+00
8.140000000000000000e+02 5.733993053436279297e+00 1.902325820922851562e+01 -7.040641307830810547e-01 2.102567672729492188e+00 4.195510745048522949e-01 -8.844316005706787109e-01
8.150000000000000000e+02 1.122212791442871094e+01 1.826145935058593750e+01 -5.461550951004028320e-01 9.449189901351928711e-01 1.196291744709014893e-01 1.045714244246482849e-01
8.160000000000000000e+02 1.304944801330566406e+01 1.812372589111328125e+01 -7.951453924179077148e-01 -7.480032742023468018e-02 -2.609837353229522705e-01 -1.125739589333534241e-01
8.170000000000000000e+02 3.162972259521484375e+01 -1.583693695068359375e+01 -1.656405568122863770e+00 2.959058284759521484e+00 3.907957971096038818e-01 1.077270030975341797e+00
8.180000000000000000e+02 3.032405090332031250e+01 -1.501690006256103516e+01 -3.512701034545898438e+00 5.920275211334228516e+00 7.222721576690673828e-01 1.454351425170898438e+00
8.190000000000000000e+02 2.691999626159667969e+01 -1.249552059173583984e+01 -2.250109195709228516e+00 1.548014998435974121e+00 -2.106283009052276611e-01 7.349736094474792480e-01
8.200000000000000000e+02 2.493540382385253906e+01 -1.353564548492431641e+01 -4.929450988769531250e+00 7.374944537878036499e-02 -1.456710577011108398e+00 -8.258771896362304688e-01
8.210000000000000000e+02 3.389687728881835938e+01 -1.477258777618408203e+01 -8.513980865478515625e+00 -6.869921088218688965e-01 -2.760291814804077148e+00 3.432277590036392212e-02
8.220000000000000000e+02 3.751608657836914062e+01 -1.347725963592529297e+01 -2.729722738265991211e+00 5.519103527069091797e+00 8.368142843246459961e-01 -2.214891195297241211e+00
8.230000000000000000e+02 3.807659912109375000e+01 -1.076886177062988281e+01 3.525822877883911133e+00 7.898756980895996094e+00 3.427373886108398438e+00 -4.668014526367187500e+00
8.240000000000000000e+02 3.695959091186523438e+01 -1.607622909545898438e+01 -6.893288493156433105e-01 3.545277357101440430e+00 8.567845821380615234e-01 -1.362561225891113281e+00
8.250000000000000000e+02 3.783126068115234375e+01 -1.701977539062500000e+01 1.067173838615417480e+00 5.551872730255126953e+00 1.985713958740234375e+00 -3.023856163024902344e+00
8.260000000000000000e+02 4.145291900634765625e+01 -2.493596267700195312e+01 2.502438306808471680e+00 5.676622390747070312e+00 2.453718185424804688e+00 1.753792166709899902e+00
8.270000000000000000e+02 4.593555450439453125e+01 -1.766856575012207031e+01 1.477931290864944458e-01 6.097130298614501953e+00 1.873476982116699219e+00 1.130386710166931152e+00
8.280000000000000000e+02 3.890799331665039062e+01 -1.752454185485839844e+01 1.332473993301391602e+00 6.067656993865966797e+00 2.220039367675781250e+00 -2.782263278961181641e+00
8.290000000000000000e+02 3.980441665649414062e+01 -2.242879486083984375e+01 1.225032508373260498e-01 9.256072998046875000e+00 2.813572883605957031e+00 -1.547894030809402466e-01
8.300000000000000000e+02 4.295019912719726562e+01 -2.194203758239746094e+01 3.153149604797363281e+00 5.013942718505859375e+00 2.450127840042114258e+00 5.214115381240844727e-01
8.310000000000000000e+02 4.118292236328125000e+01 -2.777252578735351562e+01 -3.292742490768432617e+00 4.182977676391601562e+00 2.670705020427703857e-01 9.299491047859191895e-01
8.320000000000000000e+02 3.987757110595703125e+01 -2.776090431213378906e+01 -2.682855844497680664e+00 8.923207283020019531e+00 1.872105479240417480e+00 1.888866662979125977e+00
8.330000000000000000e+02 3.730743789672851562e+01 -2.842042160034179688e+01 -3.137969017028808594e+00 2.565505504608154297e+00 -1.717390865087509155e-01 7.108302712440490723e-01
8.340000000000000000e+02 3.365803909301757812e+01 -2.916982460021972656e+01 -3.120469808578491211e+00 -3.085539937019348145e-01 -1.028707146644592285e+00 -3.968934714794158936e-01
8.350000000000000000e+02 3.291302490234375000e+01 -2.810915756225585938e+01 -3.443176984786987305e+00 -3.862291201949119568e-02 -1.044539928436279297e+00 4.206296503543853760e-01
8.360000000000000000e+02 3.108727645874023438e+01 -2.625030517578125000e+01 -1.033625230193138123e-01 1.956388473510742188e+00 5.559077858924865723e-01 -9.332665801048278809e-01
8.370000000000000000e+02 3.025886726379394531e+01 -1.733170700073242188e+01 1.393992900848388672e+00 6.970311641693115234e+00 2.509291410446166992e+00 3.080331563949584961e+00
8.380000000000000000e+02 3.271401214599609375e+01 -1.518197727203369141e+01 -5.831689357757568359e+00 3.910035789012908936e-01 -1.632205724716186523e+00 -4.925800263881683350e-01
8.390000000000000000e+02 1.451282024383544922e+01 -2.146524047851562500e+01 1.865303516387939453e+00 3.948395967483520508e+00 1.744109869003295898e+00 2.521047592163085938e+00
8.400000000000000000e+02 2.002681159973144531e+01 -2.650823402404785156e+01 -4.326815128326416016e+00 -5.285579562187194824e-01 -1.456611871719360352e+00 6.391127705574035645e-01
8.410000000000000000e+02 1.720100975036621094e+01 -4.031128692626953125e+01 -2.683130025863647461e+00 -4.397771060466766357e-01 -9.368721842765808105e-01 1.128373622894287109e+00
8.420000000000000000e+02 1.886575508117675781e+01 -4.084540557861328125e+01 -3.196193218231201172e+00 -5.893844366073608398e-01 -1.135673284530639648e+00 -3.281461000442504883e-01
8.430000000000000000e+02 1.539998340606689453e+01 -4.073955917358398438e+01 -2.108099222183227539e+00 6.522482261061668396e-03 -6.304730176925659180e-01 3.765643835067749023e-01
8.440000000000000000e+02 1.524124717712402344e+01 -3.897811508178710938e+01 -8.001497983932495117e-01 -2.234362512826919556e-01 -3.070757985115051270e-01 9.524028897285461426e-01
8.450000000000000000e+02 2.867953872680664062e+01 5.170888900756835938e+00 1.767506957054138184e+00 7.778518199920654297e+00 2.863807439804077148e+00 -1.425666809082031250e+00
8.460000000000000000e+02 3.188401985168457031e+01 -2.011690139770507812e+00 1.516546368598937988e+00 4.508220672607421875e+00 1.807430028915405273e+00 -1.339573025703430176e+00
8.470000000000000000e+02 2.936431503295898438e+01 -3.433887004852294922e+00 2.666447162628173828e+00 1.040510368347167969e+01 3.921465396881103516e+00 -4.102041244506835938e+00
8.480000000000000000e+02 3.126782798767089844e+01 -5.837852954864501953e+00 1.879732847213745117e+00 7.998260021209716797e+00 2.963397741317749023e+00 -1.220940470695495605e+00
8.490000000000000000e+02 3.094530677795410156e+01 -4.544692993164062500e+00 2.497894525527954102e+00 7.352032184600830078e+00 2.954977989196777344e+00 -2.149688482284545898e+00
8.500000000000000000e+02 3.061362266540527344e+01 -8.711188316345214844e+00 2.224519729614257812e+00 8.560014724731445312e+00 3.235360383987426758e+00 1.438159942626953125e+00
8.510000000000000000e+02 2.789579772949218750e+01 -1.159915065765380859e+01 1.265423417091369629e+00 3.747877120971679688e+00 1.503990173339843750e+00 2.340444326400756836e+00
8.520000000000000000e+02 2.883361053466796875e+01 -1.059653854370117188e+01 2.618040084838867188e+00 7.285061359405517578e+00 2.970930337905883789e+00 4.187224864959716797e+00
8.530000000000000000e+02 2.300724792480468750e+01 4.054246842861175537e-01 -1.293189883232116699e+00 1.927421092987060547e-01 -3.301343619823455811e-01 1.895072683691978455e-02
8.540000000000000000e+02 1.569758033752441406e+01 2.317975044250488281e+01 -8.554775118827819824e-01 -6.594206094741821289e-01 -4.544694423675537109e-01 -6.534577608108520508e-01
8.550000000000000000e+02 1.032976722717285156e+01 2.259628295898437500e+01 -2.533144950866699219e-01 3.194948732852935791e-01 1.985411159694194794e-02 -2.873094379901885986e-01
8.560000000000000000e+02 8.963737487792968750e+00 2.227148628234863281e+01 -2.338436692953109741e-01 1.276700496673583984e+00 3.128570318222045898e-01 -8.199365735054016113e-01
8.570000000000000000e+02 7.421566486358642578e+00 2.440328979492187500e+01 1.282373785972595215e+00 2.278264522552490234e+00 1.068191409111022949e+00 -1.827275633811950684e+00
8.580000000000000000e+02 1.902868986129760742e+00 2.594118309020996094e+01 2.003477215766906738e-01 9.917106628417968750e-01 3.576175272464752197e-01 -1.021605283021926880e-01
8.590000000000000000e+02 6.498509216308593750e+01 2.015948677062988281e+01 -3.890019655227661133e+00 3.387514352798461914e-01 -1.065380454063415527e+00 5.565996766090393066e-01
8.600000000000000000e+02 6.391846084594726562e+01 2.491163825988769531e+01 1.520438075065612793e+00 6.459509372711181641e+00 2.393984079360961914e+00 1.643794536590576172e+00
8.610000000000000000e+02 6.369102478027343750e+01 1.988454627990722656e+01 1.597706973552703857e-01 3.021352529525756836e+00 9.543370008468627930e-01 2.666493892669677734e+00
8.620000000000000000e+02 6.097972869873046875e+01 1.983607101440429688e+01 2.717414200305938721e-01 6.655162811279296875e+00 2.078071355819702148e+00 2.460518360137939453e+00
8.630000000000000000e+02 5.449515151977539062e+01 1.581908130645751953e+01 1.101231098175048828e+00 5.817540168762207031e+00 2.075631380081176758e+00 -1.627990484237670898e+00
8.640000000000000000e+02 6.112113571166992188e+01 1.613804626464843750e+01 1.433680653572082520e+00 1.229434680938720703e+01 4.118408203125000000e+00 3.198721647262573242e+00
8.650000000000000000e+02 6.067377090454101562e+01 1.341420841217041016e+01 3.722685873508453369e-01 1.067268562316894531e+01 3.313486099243164062e+00 2.615691721439361572e-01
8.660000000000000000e+02 5.655690002441406250e+01 1.223112201690673828e+01 1.516658782958984375e+00 8.629504203796386719e+00 3.043848991394042969e+00 4.723883569240570068e-01
8.670000000000000000e+02 6.159884643554687500e+01 1.010395717620849609e+01 1.846269249916076660e+00 5.957108497619628906e+00 2.341013193130493164e+00 -2.472628593444824219e+00
8.680000000000000000e+02 6.626522827148437500e+01 2.031085586547851562e+01 -5.344867229461669922e+00 -2.779848873615264893e-01 -1.686855673789978027e+00 6.497644186019897461e-01
8.690000000000000000e+02 6.824383544921875000e+01 1.955351257324218750e+01 -3.009318828582763672e+00 3.357008099555969238e-01 -8.020853996276855469e-01 4.277714192867279053e-01
8.700000000000000000e+02 6.920101928710937500e+01 1.859482192993164062e+01 -5.948007702827453613e-01 1.447833657264709473e+00 2.559098601341247559e-01 -3.145684897899627686e-01
8.710000000000000000e+02 6.937950897216796875e+01 2.052562904357910156e+01 -1.921359062194824219e+00 3.330355405807495117e+00 4.226988554000854492e-01 -1.498686909675598145e+00
8.720000000000000000e+02 6.863104248046875000e+01 2.160085868835449219e+01 -9.776048660278320312e-01 2.454941272735595703e+00 4.432009458541870117e-01 -1.369500875473022461e+00
8.730000000000000000e+02 6.405184936523437500e+01 7.481034755706787109e+00 -1.110570549964904785e+00 8.185166716575622559e-01 -8.761616051197052002e-02 -3.143455684185028076e-01
8.740000000000000000e+02 3.240512847900390625e+01 2.397120666503906250e+01 8.433061242103576660e-01 1.026764583587646484e+01 3.333285570144653320e+00 -4.180291891098022461e-01
8.750000000000000000e+02 3.024133872985839844e+01 1.555206966400146484e+01 2.157089561223983765e-01 3.706309318542480469e+00 1.176605463027954102e+00 3.393235683441162109e+00
8.760000000000000000e+02 2.955321121215820312e+01 1.471928310394287109e+01 -1.925523877143859863e+00 2.806524515151977539e+00 2.643001973628997803e-01 2.908245801925659180e+00
8.770000000000000000e+02 2.722079086303710938e+01 1.511866378784179688e+01 -6.783270359039306641e+00 -6.024239063262939453e-01 -2.215708255767822266e+00 1.120254993438720703e+00
8.780000000000000000e+02 2.544572830200195312e+01 1.569849681854248047e+01 -5.200672626495361328e+00 -1.001920342445373535e+00 -1.860777854919433594e+00 1.672814369201660156e+00
8.790000000000000000e+02 2.199270057678222656e+01 1.380643463134765625e+01 3.297518491744995117e-01 8.182328224182128906e+00 2.553623914718627930e+00 -6.301856637001037598e-01
8.800000000000000000e+02 2.451293945312500000e+01 1.648110198974609375e+01 -2.400349378585815430e+00 3.051669001579284668e-01 -6.285547614097595215e-01 1.146236300468444824e+00
8.810000000000000000e+02 1.802554893493652344e+01 1.778388977050781250e+01 -2.160327672958374023e+00 -1.966358274221420288e-01 -7.070890069007873535e-01 1.145297765731811523e+00
8.820000000000000000e+02 2.223567771911621094e+01 2.161023521423339844e+01 8.064725399017333984e-01 1.607054138183593750e+01 5.063104152679443359e+00 5.425701737403869629e-01
8.830000000000000000e+02 2.318231582641601562e+01 2.767712402343750000e+01 -4.776867851614952087e-02 5.005587100982666016e+00 1.487345457077026367e+00 4.102011322975158691e-01
8.840000000000000000e+02 2.332594490051269531e+01 2.657583618164062500e+01 -1.069761738181114197e-01 5.725759506225585938e+00 1.685634970664978027e+00 1.000271916389465332e+00
8.850000000000000000e+02 3.792789077758789062e+01 2.174769973754882812e+01 -3.774026334285736084e-01 1.615717768669128418e+00 3.714945316314697266e-01 -9.223652482032775879e-01
8.860000000000000000e+02 3.662559127807617188e+01 2.412848663330078125e+01 8.969951868057250977e-01 3.029186010360717773e+00 1.177854299545288086e+00 -1.551984667778015137e+00
8.870000000000000000e+02 5.307781219482421875e+01 3.219450378417968750e+01 1.587078809738159180e+00 8.817764282226562500e+00 3.121453046798706055e+00 1.674879193305969238e+00
8.880000000000000000e+02 7.245782470703125000e+01 -1.311200499534606934e+00 -1.402739524841308594e+00 1.407952785491943359e+00 1.563962548971176147e-03 -3.323516249656677246e-01
8.890000000000000000e+02 6.782914733886718750e+01 6.836490631103515625e+00 -1.560896158218383789e+00 3.432299792766571045e-01 -3.652998507022857666e-01 3.968144357204437256e-01
8.900000000000000000e+02 7.429430389404296875e+01 -3.569468498229980469e+00 8.631159663200378418e-01 7.484869956970214844e+00 2.504395723342895508e+00 -2.587466239929199219e+00
8.910000000000000000e+02 7.669071197509765625e+01 1.691380143165588379e-01 -6.251928210258483887e-01 8.029923439025878906e+00 2.221419095993041992e+00 -3.065013885498046875e-01
8.920000000000000000e+02 7.698567199707031250e+01 -3.567862033843994141e+00 -7.769741117954254150e-02 9.370680809020996094e+00 2.787894964218139648e+00 4.151959121227264404e-01
8.930000000000000000e+02 6.003208160400390625e+01 -9.429835319519042969e+00 9.293903708457946777e-01 5.079557895660400391e+00 1.802684426307678223e+00 2.344788312911987305e+00
8.940000000000000000e+02 6.124569320678710938e+01 -7.622884273529052734e+00 1.697005033493041992e+00 1.041601657867431641e+01 3.633906602859497070e+00 1.976109862327575684e+00
8.950000000000000000e+02 6.766116333007812500e+01 -1.460100769996643066e+00 1.679213881492614746e+00 2.756639957427978516e+00 1.330756187438964844e+00 2.023263931274414062e+00
8.960000000000000000e+02 6.672445678710937500e+01 -2.502933025360107422e+00 2.194444656372070312e+00 4.595610618591308594e+00 2.037016630172729492e+00 2.932905912399291992e+00
8.970000000000000000e+02 6.847985076904296875e+01 -2.360639125108718872e-01 4.907901585102081299e-01 1.901740550994873047e+00 7.177591919898986816e-01 1.923273801803588867e+00
8.980000000000000000e+02 6.981253051757812500e+01 -7.161370515823364258e-01 -3.741631507873535156e-01 5.696235895156860352e-01 5.863814055919647217e-02 9.620363116264343262e-01
8.990000000000000000e+02 4.516428756713867188e+01 -3.854585266113281250e+01 -2.776152849197387695e+00 4.962259829044342041e-01 -6.839780211448669434e-01 3.327758610248565674e-01
9.000000000000000000e+02 4.302595520019531250e+01 -3.848089599609375000e+01 -2.857359647750854492e+00 3.489412069320678711e-01 -7.525255084037780762e-01 -4.966508597135543823e-02
9.010000000000000000e+02 4.681536483764648438e+01 -3.786874008178710938e+01 -1.719341754913330078e+00 8.169915080070495605e-01 -2.707051038742065430e-01 5.889428853988647461e-01
9.020000000000000000e+02 4.151587295532226562e+01 -3.745005035400390625e+01 -1.688818693161010742e+00 4.091010987758636475e-01 -3.839152753353118896e-01 -2.813705205917358398e-01
9.030000000000000000e+02 3.959399795532226562e+01 -3.103822517395019531e+01 1.903895378112792969e+00 1.140016174316406250e+01 3.991217136383056641e+00 4.487774848937988281e+00
9.040000000000000000e+02 3.780482101440429688e+01 -2.732908248901367188e+01 -1.691068649291992188e+00 2.745164632797241211e+00 3.162287771701812744e-01 1.037824034690856934e+00
9.050000000000000000e+02 4.022715759277343750e+01 -2.991057586669921875e+01 2.051804542541503906e+00 8.695666313171386719e+00 3.224241256713867188e+00 3.850317955017089844e+00
9.060000000000000000e+02 4.080687332153320312e+01 -2.537295532226562500e+01 1.793486833572387695e+00 6.300708293914794922e+00 2.428258419036865234e+00 2.497344017028808594e+00
9.070000000000000000e+02 4.016746902465820312e+01 -2.465243721008300781e+01 2.436560392379760742e+00 1.038989067077636719e+01 3.847935438156127930e+00 2.712721586227416992e+00
9.080000000000000000e+02 5.677523040771484375e+01 5.592920780181884766e-01 -3.462532758712768555e+00 2.119058966636657715e-01 -9.751880764961242676e-01 -3.880680799484252930e-01
9.090000000000000000e+02 5.871516036987304688e+01 -4.582648351788520813e-02 -1.049278497695922852e+00 2.471076965332031250e+00 4.265395700931549072e-01 -1.451770544052124023e+00
9.100000000000000000e+02 5.958166503906250000e+01 -1.030888557434082031e+00 1.855577111244201660e+00 4.467616558074951172e+00 1.896957993507385254e+00 -2.766151428222656250e+00
9.110000000000000000e+02 5.284481048583984375e+01 -2.235545635223388672e+00 1.075042486190795898e+00 8.388769149780273438e+00 2.839143514633178711e+00 2.251452207565307617e+00
9.120000000000000000e+02 5.075128936767578125e+01 -2.794285583496093750e+01 6.994743943214416504e-01 4.143438816070556641e+00 1.452873945236206055e+00 -8.100255131721496582e-01
9.130000000000000000e+02 5.081085205078125000e+01 -2.679619026184082031e+01 -4.120908677577972412e-01 2.857992887496948242e+00 7.337706089019775391e-01 -1.912555575370788574e+00
9.140000000000000000e+02 3.965546417236328125e+01 4.841832160949707031e+00 1.682090163230895996e+00 1.265395832061767578e+01 4.300814628601074219e+00 2.094851255416870117e+00
9.150000000000000000e+02 4.109444427490234375e+01 5.227345466613769531e+00 1.957714438438415527e+00 7.966640472412109375e+00 2.977306604385375977e+00 5.506983995437622070e-01
9.160000000000000000e+02 2.066930198669433594e+01 7.073919773101806641e+00 4.010137915611267090e-01 5.617656230926513672e+00 1.805601000785827637e+00 1.833281517028808594e+00
9.170000000000000000e+02 2.180483055114746094e+01 2.200400680303573608e-01 -8.035557270050048828e-01 -6.363656371831893921e-02 -2.601577043533325195e-01 1.196537539362907410e-01
9.180000000000000000e+02 9.019689559936523438e+00 -1.847731828689575195e+00 -2.282987534999847412e-01 -1.657457798719406128e-01 -1.182133629918098450e-01 -4.239268600940704346e-01
9.190000000000000000e+02 2.732386779785156250e+01 -3.023534011840820312e+01 -3.639000356197357178e-01 5.912352085113525391e+00 1.664535522460937500e+00 -1.216920018196105957e-01
9.200000000000000000e+02 2.498418235778808594e+01 -3.214594268798828125e+01 7.641884088516235352e-01 8.646031379699707031e+00 2.823065757751464844e+00 -1.050043702125549316e+00
9.210000000000000000e+02 6.590806579589843750e+01 -3.167684555053710938e+01 9.705588817596435547e-01 1.168949222564697266e+01 3.798015356063842773e+00 -1.932786464691162109e+00
9.220000000000000000e+02 6.904321289062500000e+01 -2.785389900207519531e+01 9.937900304794311523e-01 1.846804380416870117e+00 8.521783351898193359e-01 -9.083299040794372559e-01
9.230000000000000000e+02 7.822558593750000000e+01 -2.606584358215332031e+01 -1.326826512813568115e-01 7.542802333831787109e+00 2.223035812377929688e+00 -4.693031907081604004e-01
9.240000000000000000e+02 7.936775207519531250e+01 -2.353495979309082031e+01 1.003512516617774963e-01 6.479622364044189453e+00 1.973992109298706055e+00 -6.817355006933212280e-02
9.250000000000000000e+02 7.929286956787109375e+01 -3.336966323852539062e+01 -2.572430297732353210e-02 7.661411285400390625e+00 2.290706157684326172e+00 2.250951342284679413e-02
9.260000000000000000e+02 4.901106262207031250e+01 -8.698787689208984375e+00 2.576703310012817383e+00 8.284611701965332031e+00 3.258394479751586914e+00 4.218501150608062744e-01
9.270000000000000000e+02 3.894604873657226562e+01 -1.163389205932617188e+01 2.491512537002563477e+00 4.884433746337890625e+00 2.212784051895141602e+00 -3.865869045257568359e+00
9.280000000000000000e+02 4.959758758544921875e+01 1.876506614685058594e+01 -3.125722646713256836e+00 1.823390722274780273e-01 -8.830150961875915527e-01 8.812402188777923584e-02
9.290000000000000000e+02 3.340060424804687500e+01 1.740561866760253906e+01 2.462646722793579102e+00 6.347140789031982422e+00 2.642936229705810547e+00 1.700089573860168457e-01
9.300000000000000000e+02 2.360781288146972656e+01 1.726175880432128906e+01 -1.074557304382324219e+00 4.516700744628906250e+00 1.032643079757690430e+00 -5.542827844619750977e-01
9.310000000000000000e+02 3.188473129272460938e+01 1.806445693969726562e+01 1.592474222183227539e+00 1.269865036010742188e+01 4.287337303161621094e+00 1.998599290847778320e+00
9.320000000000000000e+02 6.630961608886718750e+01 3.179580497741699219e+01 5.495645999908447266e-01 5.549007415771484375e+00 1.829571604728698730e+00 7.869311571121215820e-01
9.330000000000000000e+02 4.634209442138671875e+01 3.036269187927246094e+01 8.392162322998046875e-01 6.682481288909912109e+00 2.256509304046630859e+00 -8.266064524650573730e-01
9.340000000000000000e+02 1.076694107055664062e+01 2.000440597534179688e+01 -5.556212067604064941e-01 9.957115650177001953e-01 1.320271044969558716e-01 -1.170748993754386902e-01
9.350000000000000000e+02 8.641393661499023438e+00 1.921523666381835938e+01 -6.872571110725402832e-01 2.089177131652832031e+00 4.205760061740875244e-01 -6.729495525360107422e-01
9.360000000000000000e+02 2.245353507995605469e+01 2.292518043518066406e+01 4.053595662117004395e-01 1.485958766937255859e+01 4.579484462738037109e+00 1.862766504287719727e+00
9.370000000000000000e+02 1.850636839866638184e+00 1.625848770141601562e+01 -5.259155854582786560e-02 -8.743744343519210815e-02 -4.200870171189308167e-02 -5.644078850746154785e-01
9.380000000000000000e+02 8.972178459167480469e+00 1.456584358215332031e+01 3.071138858795166016e-01 4.163500785827636719e+00 1.341184377670288086e+00 -1.427814066410064697e-01
9.390000000000000000e+02 2.046454620361328125e+01 2.091838836669921875e+01 1.684720635414123535e+00 7.995476722717285156e+00 2.904059171676635742e+00 -2.008273750543594360e-01
9.400000000000000000e+02 1.554913640022277832e+00 9.273025512695312500e+00 1.219352036714553833e-01 -1.388730645179748535e+00 -3.800386488437652588e-01 1.025169119238853455e-01
9.410000000000000000e+02 3.585974502563476562e+01 -1.022848320007324219e+01 2.793391704559326172e+00 5.221319198608398438e+00 2.404413223266601562e+00 -1.435560584068298340e+00
9.420000000000000000e+02 2.397162246704101562e+01 1.385488510131835938e+01 -4.381112456321716309e-01 4.217573165893554688e+00 1.133838534355163574e+00 -1.409455895423889160e+00
9.430000000000000000e+02 3.920363235473632812e+01 8.841938018798828125e+00 5.430122017860412598e-01 8.165208816528320312e+00 2.612466335296630859e+00 -1.584809303283691406e+00
9.440000000000000000e+02 4.210867309570312500e+01 1.277589511871337891e+01 1.261618256568908691e+00 7.589555740356445312e+00 2.655352354049682617e+00 4.849708676338195801e-01
9.450000000000000000e+02 5.096437454223632812e+01 -1.477741432189941406e+01 -1.160208106040954590e+00 1.153010487556457520e+00 -2.159283729270100594e-03 -1.041930556297302246e+00
9.460000000000000000e+02 7.450263500213623047e+00 -1.891420006752014160e+00 -2.699459195137023926e-01 -8.439033478498458862e-02 -1.063008755445480347e-01 -3.670577704906463623e-01
9.470000000000000000e+02 8.236546516418457031e+00 -1.871702909469604492e+00 -2.705210447311401367e-01 -1.236000806093215942e-01 -1.182363405823707581e-01 -3.798608481884002686e-01
9.480000000000000000e+02 6.662495613098144531e+00 -1.906564235687255859e+00 -2.626560926437377930e-01 -8.413026481866836548e-02 -1.040359064936637878e-01 -3.227480947971343994e-01
9.490000000000000000e+02 5.090319156646728516e+00 -1.906913161277770996e+00 -2.067906856536865234e-01 -6.498871743679046631e-02 -8.153382688760757446e-02 -2.697523534297943115e-01
9.500000000000000000e+02 2.802967071533203125e+00 -1.973859310150146484e+00 -1.110875234007835388e-01 -4.008112847805023193e-02 -4.535059630870819092e-02 -1.900480538606643677e-01
9.510000000000000000e+02 3.025234937667846680e+00 -2.862429380416870117e+00 -2.833439595997333527e-02 -9.689452499151229858e-02 -3.756867721676826477e-02 -2.265688031911849976e-01
9.520000000000000000e+02 2.027596712112426758e+00 -2.082313776016235352e+00 -7.117791473865509033e-02 -9.406341612339019775e-02 -4.957240074872970581e-02 -1.678518950939178467e-01
9.530000000000000000e+02 1.230283260345458984e+00 -2.167724132537841797e+00 -3.165907040238380432e-02 -1.071985140442848206e-01 -4.165727645158767700e-02 -1.116842925548553467e-01
9.540000000000000000e+02 4.121729433536529541e-01 -2.201012611389160156e+00 4.364036023616790771e-03 -1.209831535816192627e-01 -3.498573601245880127e-02 -4.489824548363685608e-02
9.550000000000000000e+02 2.121685981750488281e+00 -4.164123153686523438e+01 -1.413439214229583740e-01 3.093767404556274414e+00 8.857269883155822754e-01 4.077859967947006226e-02
9.560000000000000000e+02 1.188893437385559082e+00 -3.864393234252929688e+01 -3.167181089520454407e-02 2.912414550781250000e+00 8.642228245735168457e-01 1.292836964130401611e-01
9.570000000000000000e+02 7.367596030235290527e-01 -3.451970672607421875e+01 4.645762965083122253e-02 2.427981615066528320e+00 7.423318028450012207e-01 4.994795471429824829e-02
9.580000000000000000e+02 6.838799715042114258e-01 -3.312857437133789062e+01 3.758628619834780693e-03 2.372169971466064453e+00 7.127786278724670410e-01 -9.935767389833927155e-03
9.590000000000000000e+02 5.821678638458251953e-01 -2.895769309997558594e+01 3.006481379270553589e-02 2.881702423095703125e+00 8.735301494598388672e-01 -1.421933323144912720e-01
9.600000000000000000e+02 5.842174291610717773e-01 -2.755906295776367188e+01 -3.528892621397972107e-02 3.236286640167236328e+00 9.602993130683898926e-01 -1.448085755109786987e-01
9.610000000000000000e+02 1.717357158660888672e+00 -2.738931655883789062e+01 -3.819559514522552490e-02 2.827044248580932617e+00 8.366546034812927246e-01 -3.790807127952575684e-01
9.620000000000000000e+02 2.137591361999511719e+00 -2.296499252319335938e+01 -7.337764501571655273e-01 2.851609230041503906e+00 6.353498697280883789e-01 6.972873210906982422e-01
9.630000000000000000e+02 7.319856882095336914e-01 -2.178811645507812500e+01 -1.019125357270240784e-01 2.546692132949829102e+00 7.334339022636413574e-01 5.878349542617797852e-01
9.640000000000000000e+02 7.152053713798522949e-01 -2.035182380676269531e+01 -2.681432291865348816e-03 1.308569431304931641e+00 3.917663991451263428e-01 7.210662364959716797e-01
9.650000000000000000e+02 2.139105796813964844e+00 -1.700904655456542969e+01 4.997635185718536377e-01 1.198326230049133301e+00 5.094269514083862305e-01 6.814465522766113281e-01
9.660000000000000000e+02 6.266216635704040527e-01 -1.474084568023681641e+01 1.132619157433509827e-01 -1.544250488281250000e+00 -4.292965829372406006e-01 -1.365925837308168411e-02
9.670000000000000000e+02 5.902991890907287598e-01 -1.335365390777587891e+01 -4.924851283431053162e-02 -1.397396802902221680e+00 -4.339935779571533203e-01 -1.358546018600463867e-01
9.680000000000000000e+02 1.766580104827880859e+00 -1.300137138366699219e+01 3.990595042705535889e-02 -2.881799591705203056e-03 1.110724546015262604e-02 -2.018105685710906982e-01
9.690000000000000000e+02 5.161297321319580078e-01 -9.186923027038574219e+00 1.629876345396041870e-02 -7.325915694236755371e-01 -2.148878425359725952e-01 -2.211624942719936371e-02
9.700000000000000000e+02 5.051810741424560547e-01 -7.802747249603271484e+00 -1.259192824363708496e-02 -6.496066451072692871e-01 -1.986595690250396729e-01 -3.275632113218307495e-02
9.710000000000000000e+02 1.524454116821289062e+00 -7.691538333892822266e+00 1.447803713381290436e-02 -3.195090889930725098e-01 -9.150931239128112793e-02 -3.382251784205436707e-02
9.720000000000000000e+02 5.027563571929931641e-01 -6.412535190582275391e+00 1.177176088094711304e-02 -5.609405636787414551e-01 -1.647506356239318848e-01 -2.748425304889678955e-02
9.730000000000000000e+02 7.168360137939453125e+01 -4.127581787109375000e+01 -8.796417117118835449e-01 6.525814533233642578e+00 1.693851947784423828e+00 -2.444206476211547852e-01
9.740000000000000000e+02 3.246542358398437500e+01 -4.118928909301757812e+01 -1.283114194869995117e+00 4.596005439758300781e+00 9.938673377037048340e-01 4.368661344051361084e-02
9.750000000000000000e+02 7.569235992431640625e+01 4.049755859375000000e+01 -9.075198322534561157e-02 6.881932258605957031e+00 2.037353992462158203e+00 1.883038133382797241e-01
9.760000000000000000e+02 7.802220153808593750e+01 4.173471069335937500e+01 5.266930535435676575e-02 7.291489601135253906e+00 2.203247785568237305e+00 -1.456018351018428802e-02
9.770000000000000000e+02 7.874504852294921875e+01 3.877398300170898438e+01 -3.659618645906448364e-02 7.343244075775146484e+00 2.191994428634643555e+00 -8.714150637388229370e-03
9.780000000000000000e+02 7.771737670898437500e+01 3.682190322875976562e+01 -6.773198395967483521e-02 7.069603443145751953e+00 2.100561380386352539e+00 1.357204169034957886e-01
9.790000000000000000e+02 7.941080474853515625e+01 3.468085479736328125e+01 1.880427822470664978e-02 7.243250370025634766e+00 2.178616285324096680e+00 3.887956589460372925e-02
9.800000000000000000e+02 7.698989868164062500e+01 3.399552917480468750e+01 7.256183773279190063e-02 6.750294208526611328e+00 2.046856641769409180e+00 1.704299896955490112e-01
9.810000000000000000e+02 7.950816345214843750e+01 3.338848495483398438e+01 -2.473570965230464935e-02 7.158948898315429688e+00 2.140264034271240234e+00 3.669179603457450867e-02
9.820000000000000000e+02 7.922337341308593750e+01 3.077421951293945312e+01 5.440192762762308121e-03 7.077144145965576172e+00 2.124775171279907227e+00 -2.381284022703766823e-03
9.830000000000000000e+02 7.784998321533203125e+01 2.920274925231933594e+01 4.549468681216239929e-02 6.866853237152099609e+00 2.073704242706298828e+00 -9.602032601833343506e-02
9.840000000000000000e+02 7.933287811279296875e+01 2.643233299255371094e+01 1.135098561644554138e-02 7.368920326232910156e+00 2.214081287384033203e+00 -6.804034858942031860e-02
9.850000000000000000e+02 7.676530456542968750e+01 2.616681480407714844e+01 5.823606997728347778e-02 6.742259025573730469e+00 2.040148496627807617e+00 -2.886655330657958984e-01
9.860000000000000000e+02 7.935099029541015625e+01 2.502988624572753906e+01 -1.910975389182567596e-02 7.522558689117431641e+00 2.251034736633300781e+00 -6.195466220378875732e-02
9.870000000000000000e+02 7.938668823242187500e+01 2.083025550842285156e+01 -3.823778033256530762e-02 7.542863368988037109e+00 2.251387596130371094e+00 1.136478036642074585e-01
9.880000000000000000e+02 7.938722991943359375e+01 1.943583488464355469e+01 -2.180380374193191528e-02 7.235903263092041016e+00 2.164229869842529297e+00 1.849072724580764771e-01
9.890000000000000000e+02 7.817372894287109375e+01 2.069322967529296875e+01 -1.775955259799957275e-01 7.324012756347656250e+00 2.143925189971923828e+00 2.379674017429351807e-01
9.900000000000000000e+02 7.938364410400390625e+01 1.804562950134277344e+01 -2.607090026140213013e-02 6.787977218627929688e+00 2.028571844100952148e+00 2.395165264606475830e-01
9.910000000000000000e+02 7.938997650146484375e+01 1.389185428619384766e+01 6.699837744235992432e-02 5.332721710205078125e+00 1.619916081428527832e+00 1.252093911170959473e-01
9.920000000000000000e+02 7.804216003417968750e+01 1.248243904113769531e+01 3.248808383941650391e-01 6.339636802673339844e+00 1.999355196952819824e+00 -8.399292826652526855e-02
9.930000000000000000e+02 7.933450317382812500e+01 1.111665630340576172e+01 4.276885837316513062e-02 5.455387115478515625e+00 1.649446725845336914e+00 -1.726147681474685669e-01
9.940000000000000000e+02 7.932273101806640625e+01 6.900036811828613281e+00 -6.607666146010160446e-03 7.419263839721679688e+00 2.223796844482421875e+00 -3.653517663478851318e-01
9.950000000000000000e+02 7.933884429931640625e+01 5.506190776824951172e+00 -2.742169238626956940e-02 8.123635292053222656e+00 2.428864002227783203e+00 -3.325438201427459717e-01
9.960000000000000000e+02 7.799369812011718750e+01 5.342817783355712891e+00 -1.007934138178825378e-01 7.797959804534912109e+00 2.309149980545043945e+00 -8.435072898864746094e-01
9.970000000000000000e+02 7.937732696533203125e+01 4.125022888183593750e+00 -1.378822047263383865e-02 8.795435905456542969e+00 2.634494304656982422e+00 -2.850570082664489746e-01
9.980000000000000000e+02 7.936128234863281250e+01 6.110355257987976074e-03 -1.373892724514007568e-01 9.766391754150390625e+00 2.888700723648071289e+00 5.199783295392990112e-02
9.990000000000000000e+02 7.935715484619140625e+01 -1.402503967285156250e+00 8.105969987809658051e-03 9.518201828002929688e+00 2.857892513275146484e+00 1.916903555393218994e-01
1.000000000000000000e+03 7.941004180908203125e+01 -2.811241865158081055e+00 -1.044082194566726685e-01 9.018830299377441406e+00 2.674326658248901367e+00 2.925834357738494873e-01
1.001000000000000000e+03 7.949967193603515625e+01 -4.175165653228759766e+00 6.501899659633636475e-02 8.213660240173339844e+00 2.483603715896606445e+00 3.536929488182067871e-01
1.002000000000000000e+03 7.852106475830078125e+01 -4.248016357421875000e+00 5.823494866490364075e-02 8.739433288574218750e+00 2.639300584793090820e+00 7.327240705490112305e-01
1.003000000000000000e+03 7.495501708984375000e+01 -9.552708625793457031e+00 1.100810408592224121e+00 1.180109786987304688e+01 3.870572566986083984e+00 2.009802103042602539e+00
1.004000000000000000e+03 7.937023162841796875e+01 -8.224571228027343750e+00 1.829467117786407471e-01 7.886907100677490234e+00 2.420956134796142578e+00 -3.995816707611083984e-01
1.005000000000000000e+03 7.933402252197265625e+01 -1.104557609558105469e+01 1.094860490411520004e-02 9.846446990966796875e+00 2.957218885421752930e+00 -4.994455575942993164e-01
1.006000000000000000e+03 7.939012908935546875e+01 -1.525156307220458984e+01 -7.439769804477691650e-02 1.031289958953857422e+01 3.071550607681274414e+00 2.240937352180480957e-01
1.007000000000000000e+03 7.370182037353515625e+01 -1.644884109497070312e+01 -5.230455994606018066e-01 5.304881095886230469e+00 1.434550642967224121e+00 1.020350754261016846e-01
1.008000000000000000e+03 7.943769073486328125e+01 -1.801140975952148438e+01 5.303888395428657532e-02 8.617365837097167969e+00 2.601121425628662109e+00 3.821924924850463867e-01
1.009000000000000000e+03 7.826203155517578125e+01 -1.910356712341308594e+01 9.549570083618164062e-02 8.171138763427734375e+00 2.479990243911743164e+00 9.668481945991516113e-01
1.010000000000000000e+03 7.443324279785156250e+01 -2.333445167541503906e+01 1.332545518875122070e+00 1.175246620178222656e+01 3.925503492355346680e+00 8.796380758285522461e-01
1.011000000000000000e+03 7.810040283203125000e+01 -2.326012802124023438e+01 4.007788002490997314e-01 7.482376098632812500e+00 2.364946365356445312e+00 -1.193623840808868408e-01
1.012000000000000000e+03 7.937829589843750000e+01 -2.493668174743652344e+01 4.828397184610366821e-02 6.816908836364746094e+00 2.059557914733886719e+00 -2.201481610536575317e-01
1.013000000000000000e+03 7.928839111328125000e+01 -2.910634994506835938e+01 -3.303952142596244812e-02 7.737746238708496094e+00 2.311411857604980469e+00 -4.160495474934577942e-02
1.014000000000000000e+03 7.777851867675781250e+01 -3.184090614318847656e+01 -1.055642031133174896e-02 7.348182201385498047e+00 2.201287746429443359e+00 1.096452847123146057e-01
1.015000000000000000e+03 7.925804901123046875e+01 -3.195926475524902344e+01 1.875617355108261108e-02 7.707447528839111328e+00 2.317861080169677734e+00 1.246415730565786362e-02
1.016000000000000000e+03 7.932983398437500000e+01 -3.608682632446289062e+01 -3.974725678563117981e-02 7.685516357421875000e+00 2.293730735778808594e+00 -2.316475845873355865e-02
1.017000000000000000e+03 7.922369384765625000e+01 -3.739488220214843750e+01 4.790669307112693787e-02 7.761032104492187500e+00 2.342681646347045898e+00 -5.229914933443069458e-02
1.018000000000000000e+03 7.897724151611328125e+01 -3.868683242797851562e+01 -2.051738090813159943e-02 7.840283393859863281e+00 2.345929861068725586e+00 -5.363736674189567566e-02
1.019000000000000000e+03 7.859676361083984375e+01 -4.004633331298828125e+01 -9.097377769649028778e-03 7.886428356170654297e+00 2.363199234008789062e+00 -3.829409554600715637e-02
1.020000000000000000e+03 6.865976715087890625e+01 3.856795120239257812e+01 -5.284555554389953613e-01 5.251486301422119141e+00 1.416909217834472656e+00 1.554957777261734009e-01
1.021000000000000000e+03 4.338065981864929199e-01 2.197355031967163086e+00 -2.380330488085746765e-02 -2.556012272834777832e-01 -8.382136374711990356e-02 9.581524133682250977e-02
1.022000000000000000e+03 2.352746486663818359e+00 3.092205286026000977e+00 -1.249962151050567627e-01 -2.897211909294128418e-01 -1.244152188301086426e-01 5.513879060745239258e-01
1.023000000000000000e+03 4.714582920074462891e+00 2.716588973999023438e+00 -3.979657292366027832e-01 9.561865776777267456e-02 -9.070412069559097290e-02 5.849492549896240234e-01
1.024000000000000000e+03 2.688282012939453125e+00 5.131817817687988281e+00 3.225399181246757507e-02 -4.339249432086944580e-01 -1.205012872815132141e-01 6.321513652801513672e-01
1.025000000000000000e+03 5.145568847656250000e-01 9.271477699279785156e+00 9.616281837224960327e-03 -2.228197336196899414e+00 -6.655743122100830078e-01 3.559416159987449646e-02
1.026000000000000000e+03 5.339974164962768555e-01 1.206054973602294922e+01 2.147311717271804810e-02 -2.067403793334960938e+00 -6.137791872024536133e-01 -1.119542494416236877e-01
1.027000000000000000e+03 1.581043958663940430e+00 1.198580169677734375e+01 1.541866660118103027e-01 -1.184799671173095703e+00 -3.091839253902435303e-01 -2.895515263080596924e-01
1.028000000000000000e+03 6.154146194458007812e-01 1.631291770935058594e+01 -5.760543514043092728e-03 -7.078727483749389648e-01 -2.140899896621704102e-01 -2.050435543060302734e-01
1.029000000000000000e+03 5.996435284614562988e-01 1.773640632629394531e+01 -2.500071004033088684e-02 -2.795193195343017578e-01 -9.135600924491882324e-02 -1.692716926336288452e-01
1.030000000000000000e+03 5.751149058341979980e-01 2.195476341247558594e+01 -5.542167276144027710e-02 1.465713381767272949e-01 2.734489925205707550e-02 6.331241130828857422e-02
1.031000000000000000e+03 3.027535438537597656e+00 2.438020133972167969e+01 1.496002227067947388e-01 1.811907052993774414e+00 5.884521603584289551e-01 1.279158294200897217e-01
1.032000000000000000e+03 4.503250598907470703e+00 2.536855125427246094e+01 7.228667736053466797e-01 3.181956291198730469e+00 1.171446919441223145e+00 -2.792617976665496826e-01
1.033000000000000000e+03 2.159087657928466797e+00 2.871717453002929688e+01 1.761453300714492798e-01 1.655798077583312988e+00 5.495830178260803223e-01 -7.491626143455505371e-01
1.034000000000000000e+03 2.641824960708618164e+00 2.986680221557617188e+01 1.665984541177749634e-01 2.161040067672729492e+00 6.982915401458740234e-01 -1.066538810729980469e+00
1.035000000000000000e+03 7.084659934043884277e-01 3.050863075256347656e+01 -9.236782044172286987e-02 1.388038158416748047e+00 3.887011110782623291e-01 -3.873382806777954102e-01
1.036000000000000000e+03 3.135156631469726562e+00 3.146877288818359375e+01 -1.721518635749816895e-01 2.625982522964477539e+00 7.361491918563842773e-01 -1.053057074546813965e+00
1.037000000000000000e+03 6.738626360893249512e-01 3.605429458618164062e+01 -8.440298587083816528e-02 3.497988462448120117e+00 1.024075627326965332e+00 -5.772630125284194946e-02
1.038000000000000000e+03 2.146439790725708008e+00 3.720940780639648438e+01 -1.733076125383377075e-01 3.007087707519531250e+00 8.501340150833129883e-01 -4.051802307367324829e-02
1.039000000000000000e+03 8.436006307601928711e-01 3.880864715576171875e+01 -1.214006915688514709e-02 3.345178127288818359e+00 9.999114274978637695e-01 8.532426506280899048e-02
1.040000000000000000e+03 1.157530784606933594e+00 4.016683959960937500e+01 -1.019598245620727539e-01 3.111771106719970703e+00 9.029433727264404297e-01 1.918890327215194702e-01
1.041000000000000000e+03 9.431382179260253906e+00 1.848233103752136230e+00 -6.947979927062988281e-01 2.950522303581237793e-01 -1.199237331748008728e-01 -3.625555634498596191e-01
1.042000000000000000e+03 8.636365890502929688e+00 1.867355108261108398e+00 -8.413572907447814941e-01 2.625041902065277100e-01 -1.736559271812438965e-01 -1.868868023157119751e-01
1.043000000000000000e+03 7.824537754058837891e+00 1.881563425064086914e+00 -8.290324211120605469e-01 2.555468380451202393e-01 -1.720456629991531372e-01 2.962811477482318878e-02
1.044000000000000000e+03 7.009100437164306641e+00 1.887728214263916016e+00 -8.386768698692321777e-01 2.355582565069198608e-01 -1.809355765581130981e-01 2.135159224271774292e-01
1.045000000000000000e+03 5.382416725158691406e+00 1.893258571624755859e+00 -7.100770473480224609e-01 1.041346043348312378e-01 -1.817827373743057251e-01 4.511319696903228760e-01
1.046000000000000000e+03 4.575157165527343750e+00 1.904134392738342285e+00 -5.713071227073669434e-01 3.533248975872993469e-02 -1.607923805713653564e-01 5.125340223312377930e-01
1.047000000000000000e+03 3.765027284622192383e+00 1.927898406982421875e+00 -4.542422890663146973e-01 -2.841536328196525574e-02 -1.447972953319549561e-01 5.141666531562805176e-01
1.048000000000000000e+03 2.126157999038696289e+00 2.047808885574340820e+00 -2.031310945749282837e-01 -1.942510157823562622e-01 -1.192146316170692444e-01 4.076443314552307129e-01
1.049000000000000000e+03 1.289610862731933594e+00 2.140450239181518555e+00 -9.679257869720458984e-02 -2.748806178569793701e-01 -1.115019544959068298e-01 2.753007709980010986e-01
1.050000000000000000e+03 1.211220741271972656e+01 7.379715442657470703e+00 2.115919828414916992e+00 3.046483278274536133e+00 1.548720955848693848e+00 -2.545620918273925781e+00
1.051000000000000000e+03 1.260521984100341797e+01 2.265015840530395508e+00 1.464445352554321289e+00 -5.225693434476852417e-02 4.236565530300140381e-01 -1.525601267814636230e+00
1.052000000000000000e+03 1.385925483703613281e+01 2.537659883499145508e+00 3.596904277801513672e+00 4.250127673149108887e-01 1.206575036048889160e+00 -2.738828182220458984e+00
1.053000000000000000e+03 1.281445980072021484e+01 2.319156885147094727e+00 1.901648640632629395e+00 1.208301167935132980e-02 5.741195082664489746e-01 -1.708505392074584961e+00
1.054000000000000000e+03 1.406066989898681641e+01 2.560436487197875977e+00 3.993367195129394531e+00 8.230906724929809570e-01 1.444937348365783691e+00 -2.998073339462280273e+00
1.055000000000000000e+03 1.461509704589843750e+01 2.691123485565185547e+00 4.396667003631591797e+00 2.566045045852661133e+00 2.088813781738281250e+00 -4.217180728912353516e+00
1.056000000000000000e+03 1.499919128417968750e+01 2.801650285720825195e+00 3.915315628051757812e+00 4.882926464080810547e+00 2.639472484588623047e+00 -4.617871761322021484e+00
1.057000000000000000e+03 1.546287250518798828e+01 2.988501071929931641e+00 2.740581989288330078e+00 7.690724849700927734e+00 3.129391908645629883e+00 -4.218605518341064453e+00
1.058000000000000000e+03 1.520319938659667969e+01 2.901152610778808594e+00 3.457665205001831055e+00 6.100110530853271484e+00 2.867332696914672852e+00 -4.338871955871582031e+00
1.059000000000000000e+03 1.537052154541015625e+01 -5.537892580032348633e-01 -8.445868641138076782e-02 9.639122962951660156e+00 2.866399288177490234e+00 4.945632457733154297e+00
1.060000000000000000e+03 1.523305606842041016e+01 -9.052286744117736816e-01 -3.659393787384033203e-01 8.875683784484863281e+00 2.552923440933227539e+00 4.224479675292968750e+00
1.061000000000000000e+03 1.499800586700439453e+01 -6.850147247314453125e-01 2.295859158039093018e-01 7.612152099609375000e+00 2.352521419525146484e+00 4.355982303619384766e+00
1.062000000000000000e+03 1.379296302795410156e+01 -8.820690512657165527e-01 4.643380343914031982e-01 2.598156929016113281e+00 9.187484979629516602e-01 2.187381982803344727e+00
1.063000000000000000e+03 1.723516082763671875e+01 -3.119754314422607422e+00 4.505556821823120117e-01 1.129927635192871094e+01 3.524949550628662109e+00 2.630306720733642578e+00
1.064000000000000000e+03 1.365343666076660156e+01 -1.188141584396362305e+00 4.446085989475250244e-01 2.901611804962158203e+00 1.003866076469421387e+00 2.104375600814819336e+00
1.065000000000000000e+03 1.208184814453125000e+01 -1.411886811256408691e+00 1.411404311656951904e-01 7.202954292297363281e-01 2.584307491779327393e-01 4.028977155685424805e-01
1.066000000000000000e+03 1.058119487762451172e+01 -1.718670010566711426e+00 -1.149825900793075562e-01 1.414416451007127762e-02 -3.025152720510959625e-02 -2.203343659639358521e-01
1.067000000000000000e+03 9.802429199218750000e+00 -1.814638137817382812e+00 -8.812842518091201782e-02 -1.183751076459884644e-01 -6.195105984807014465e-02 -3.089594244956970215e-01
1.068000000000000000e+03 5.507926940917968750e+01 -2.327665901184082031e+01 1.892475485801696777e+00 1.018106269836425781e+01 3.622061491012573242e+00 3.269481897354125977e+00
1.069000000000000000e+03 7.344122314453125000e+01 -1.806164741516113281e+01 4.666840732097625732e-01 6.745252132415771484e+00 2.163580894470214844e+00 -1.111886501312255859e+00
1.070000000000000000e+03 6.514189147949218750e+01 -2.310302925109863281e+01 3.209802627563476562e+00 1.168796730041503906e+01 4.469330787658691406e+00 -4.775899410247802734e+00
1.071000000000000000e+03 5.238326644897460938e+01 -7.493148326873779297e+00 2.067156791687011719e+00 7.758228778839111328e+00 2.947615623474121094e+00 -1.734474658966064453e+00
1.072000000000000000e+03 3.986288452148437500e+01 -1.252462959289550781e+01 6.643904447555541992e-01 3.670504331588745117e+00 1.300468444824218750e+00 -2.215441226959228516e+00
1.073000000000000000e+03 3.704327392578125000e+01 -1.025535392761230469e+01 3.150417566299438477e+00 8.021641731262207031e+00 3.351617813110351562e+00 -3.297409534454345703e+00
1.074000000000000000e+03 3.967077255249023438e+01 -2.898994684219360352e+00 -6.764145493507385254e-01 2.414032936096191406e+00 5.212855339050292969e-01 1.765907049179077148e+00
1.075000000000000000e+03 6.353129577636718750e+01 -3.977364349365234375e+01 -1.411834955215454102e+00 1.050881624221801758e+00 -1.082860231399536133e-01 4.997358918190002441e-01
1.076000000000000000e+03 5.610647964477539062e+01 -3.184804725646972656e+01 1.337628841400146484e+00 1.109941291809082031e+01 3.731112480163574219e+00 1.948305964469909668e+00
1.077000000000000000e+03 1.644878578186035156e+01 -1.607529258728027344e+01 3.748888075351715088e-01 8.196416854858398438e+00 2.571391820907592773e+00 -7.941880226135253906e-01
1.078000000000000000e+03 1.389535999298095703e+01 -2.819843101501464844e+01 7.054550051689147949e-01 3.881711483001708984e+00 1.376149892807006836e+00 1.892989039421081543e+00
1.079000000000000000e+03 7.822141647338867188e+00 -1.385838413238525391e+01 2.239271640777587891e+00 2.705955266952514648e+00 1.483568072319030762e+00 2.270188093185424805e+00
1.080000000000000000e+03 4.215434265136718750e+01 6.876872539520263672e+00 9.671106338500976562e-01 7.282311916351318359e+00 2.474826812744140625e+00 5.277034640312194824e-01
1.081000000000000000e+03 1.011228656768798828e+01 1.551438713073730469e+01 3.311729133129119873e-01 3.465101957321166992e+00 1.138882398605346680e+00 5.791478157043457031e-01
1.082000000000000000e+03 3.895027160644531250e+01 -1.865065956115722656e+01 1.921824574470520020e+00 6.787042617797851562e+00 2.612660169601440430e+00 -3.157061815261840820e+00
1.083000000000000000e+03 3.969388961791992188e+01 -2.112812423706054688e+01 1.205691814422607422e+00 8.967254638671875000e+00 3.051883697509765625e+00 -1.357247471809387207e+00
1.084000000000000000e+03 3.608129501342773438e+01 -2.838041496276855469e+01 -4.778749465942382812e+00 5.816652625799179077e-02 -1.416175007820129395e+00 -6.791605949401855469e-01
1.085000000000000000e+03 2.427863883972167969e+01 -3.008160209655761719e+01 6.102623343467712402e-01 6.443519115447998047e+00 2.116134405136108398e+00 -1.541503190994262695e+00
1.086000000000000000e+03 2.487108421325683594e+01 -3.626563644409179688e+01 1.853086054325103760e-01 7.556515216827392578e+00 2.322547197341918945e+00 5.103666782379150391e-01
1.087000000000000000e+03 1.281181716918945312e+01 -3.381182098388671875e+01 3.596857786178588867e-01 5.346009731292724609e+00 1.711708664894104004e+00 6.796771883964538574e-01
1.088000000000000000e+03 1.307250404357910156e+01 -3.241836929321289062e+01 7.649781703948974609e-01 6.258253097534179688e+00 2.106969356536865234e+00 1.602087020874023438e+00
1.089000000000000000e+03 1.597770500183105469e+01 -2.753897094726562500e+01 9.186778068542480469e-01 3.004505872726440430e+00 1.176955103874206543e+00 1.975043058395385742e+00
1.090000000000000000e+03 3.215383148193359375e+01 8.739023804664611816e-01 -1.812049031257629395e+00 2.788933277130126953e+00 2.930653095245361328e-01 -9.864854812622070312e-01
1.091000000000000000e+03 2.992879104614257812e+01 -6.112922191619873047e+00 6.209930777549743652e-01 9.777013778686523438e+00 3.119401931762695312e+00 -1.058662295341491699e+00
1.092000000000000000e+03 2.957475090026855469e+01 -9.522639274597167969e+00 2.255692720413208008e+00 1.022934627532958984e+01 3.745511770248413086e+00 3.048561811447143555e+00
1.093000000000000000e+03 2.625259971618652344e+01 -1.367914581298828125e+01 -3.284795284271240234e+00 1.737824916839599609e+00 -4.640910625457763672e-01 4.253739416599273682e-01
1.094000000000000000e+03 2.357855796813964844e+01 -1.377469062805175781e+01 -6.878281116485595703e+00 -6.306637525558471680e-01 -2.252683401107788086e+00 -9.202675819396972656e-01
1.095000000000000000e+03 1.696204566955566406e+01 -5.632962703704833984e+00 1.130231142044067383e+00 1.487700653076171875e+01 4.802171230316162109e+00 1.812002897262573242e+00
1.096000000000000000e+03 1.968124961853027344e+01 4.097247719764709473e-01 2.791946649551391602e+00 1.662408471107482910e+00 1.336306571960449219e+00 1.499703764915466309e+00
1.097000000000000000e+03 1.346991157531738281e+01 3.468083190917968750e+01 -1.386134624481201172e+00 1.135054528713226318e-01 -3.817887604236602783e-01 -1.135012786835432053e-02
1.098000000000000000e+03 1.493157482147216797e+01 3.433884429931640625e+01 -8.951695561408996582e-01 7.722329813987016678e-03 -2.662341594696044922e-01 -1.176106557250022888e-01
1.099000000000000000e+03 1.991741371154785156e+01 3.232732009887695312e+01 5.995126366615295410e-01 6.807092666625976562e+00 2.221981525421142578e+00 -1.022049188613891602e+00
1.100000000000000000e+03 2.297787284851074219e+01 2.542678451538085938e+01 5.161991119384765625e-01 9.364150047302246094e+00 2.964104652404785156e+00 1.819458007812500000e+00
1.101000000000000000e+03 1.456775379180908203e+01 2.159328269958496094e+01 -2.247770316898822784e-02 -6.657570600509643555e-01 -2.064704298973083496e-01 -1.252160817384719849e-01
1.102000000000000000e+03 1.306120014190673828e+01 2.266744422912597656e+01 -4.093198180198669434e-01 -1.394985318183898926e-01 -1.646455079317092896e-01 1.769935898482799530e-02
1.103000000000000000e+03 6.487628936767578125e+00 2.549522972106933594e+01 1.734919309616088867e+00 4.676880836486816406e+00 1.923539996147155762e+00 -2.125925540924072266e+00
1.104000000000000000e+03 7.105652618408203125e+01 1.648629379272460938e+01 1.365580439567565918e+00 6.949874877929687500e+00 2.494636535644531250e+00 -2.804183006286621094e+00
1.105000000000000000e+03 7.288853454589843750e+01 1.153235721588134766e+01 1.669364929199218750e+00 1.182822227478027344e+01 4.049276351928710938e+00 6.980549097061157227e-01
1.106000000000000000e+03 6.439465332031250000e+01 6.449451923370361328e+00 -1.950697898864746094e+00 1.073512554168701172e+00 -2.631556093692779541e-01 -5.470995306968688965e-01
1.107000000000000000e+03 6.080579376220703125e+01 1.480400180816650391e+01 7.465286254882812500e-01 1.195940876007080078e+01 3.811781167984008789e+00 1.471419930458068848e+00
1.108000000000000000e+03 6.208288192749023438e+01 1.857662963867187500e+01 3.401164293289184570e+00 8.302169799804687500e+00 3.511000156402587891e+00 4.729586601257324219e+00
1.109000000000000000e+03 3.180392456054687500e+01 2.052501487731933594e+01 2.414967417716979980e-01 1.107667732238769531e+01 3.395452260971069336e+00 -1.838821545243263245e-02
1.110000000000000000e+03 3.225887680053710938e+01 1.696352386474609375e+01 3.443926811218261719e+00 9.681768417358398438e+00 3.937708377838134766e+00 2.273568391799926758e+00
1.111000000000000000e+03 2.836590194702148438e+01 1.510785293579101562e+01 -4.741565227508544922e+00 6.393126845359802246e-01 -1.230675816535949707e+00 1.161260008811950684e+00
1.112000000000000000e+03 2.250971794128417969e+01 1.895577812194824219e+01 6.778765320777893066e-01 1.185527896881103516e+01 3.759946584701538086e+00 -2.258425951004028320e+00
1.113000000000000000e+03 2.166872215270996094e+01 2.725815963745117188e+01 -3.693152368068695068e-01 8.697654724121093750e+00 2.498501777648925781e+00 -7.330034971237182617e-01
1.114000000000000000e+03 4.779870605468750000e+01 3.003989791870117188e+01 9.730994105339050293e-01 7.140336990356445312e+00 2.434031009674072266e+00 5.632358789443969727e-01
1.115000000000000000e+03 4.607550048828125000e+01 2.618281745910644531e+01 1.405997276306152344e+00 1.235237503051757812e+01 4.127511978149414062e+00 1.918626427650451660e+00
1.116000000000000000e+03 4.339221954345703125e+01 2.218384170532226562e+01 9.100719690322875977e-01 3.483481884002685547e+00 1.318066120147705078e+00 2.488338708877563477e+00
1.117000000000000000e+03 3.579828262329101562e+01 2.528857994079589844e+01 1.346429824829101562e+00 8.163554191589355469e+00 2.852995157241821289e+00 -2.325741052627563477e+00
1.118000000000000000e+03 6.487768554687500000e+01 2.872304534912109375e+01 1.037707805633544922e+00 7.100454807281494141e+00 2.441448688507080078e+00 1.354528546333312988e+00
1.119000000000000000e+03 5.974219512939453125e+01 2.352866744995117188e+01 -2.955667018890380859e+00 6.456207633018493652e-01 -6.930139064788818359e-01 4.093419015407562256e-01
1.120000000000000000e+03 5.504153442382812500e+01 3.392771911621093750e+01 1.531894087791442871e+00 4.991271972656250000e+00 1.956949830055236816e+00 2.606152772903442383e+00
1.121000000000000000e+03 7.932083892822265625e+01 -9.629964828491210938e+00 -3.127967193722724915e-02 8.853661537170410156e+00 2.646714448928833008e+00 -5.131413340568542480e-01
1.122000000000000000e+03 6.543705749511718750e+01 -8.323575973510742188e+00 1.896511554718017578e+00 1.105529785156250000e+01 3.885542869567871094e+00 -2.327548980712890625e+00
1.123000000000000000e+03 6.391458892822265625e+01 -5.669447898864746094e+00 1.903330087661743164e+00 9.808402061462402344e+00 3.513519763946533203e+00 -2.076739966869354248e-01
1.124000000000000000e+03 3.948775863647460938e+01 7.532019138336181641e+00 8.121565580368041992e-01 1.155677032470703125e+01 3.710678100585937500e+00 -9.563449025154113770e-01
1.125000000000000000e+03 2.985335159301757812e+01 4.574149131774902344e+00 1.604547023773193359e+00 6.199255943298339844e+00 2.341140985488891602e+00 -2.472697496414184570e+00
1.126000000000000000e+03 3.017484092712402344e+01 1.065518474578857422e+01 3.818784475326538086e+00 7.660143375396728516e+00 3.443678379058837891e+00 4.828882694244384766e+00
1.127000000000000000e+03 4.087942123413085938e+01 -2.887366294860839844e+01 -7.806362509727478027e-01 4.506432056427001953e+00 1.117738723754882812e+00 1.659714698791503906e+00
1.128000000000000000e+03 6.040382385253906250e+01 -2.147702217102050781e+00 2.411131381988525391e+00 8.579558372497558594e+00 3.297206878662109375e+00 -3.900241613388061523e+00
1.129000000000000000e+03 5.445282745361328125e+01 -9.009922981262207031e+00 1.672789692878723145e+00 2.868547916412353516e+00 1.362401247024536133e+00 -2.393724203109741211e+00
1.130000000000000000e+03 5.248424148559570312e+01 -4.856545448303222656e+00 8.107007741928100586e-01 1.209547042846679688e+01 3.871851205825805664e+00 1.271011233329772949e-01
1.131000000000000000e+03 5.263070297241210938e+01 -1.007641196250915527e+00 7.339331507682800293e-01 6.586358547210693359e+00 2.196087598800659180e+00 1.441603779792785645e+00
1.132000000000000000e+03 1.252707004547119141e+01 2.572188854217529297e+00 1.708000063896179199e+00 2.275446243584156036e-02 5.192263722419738770e-01 -1.886299729347229004e+00
1.133000000000000000e+03 1.301084613800048828e+01 2.374535560607910156e+00 2.069809675216674805e+00 -3.356986120343208313e-02 6.108719110488891602e-01 -1.822290301322937012e+00
1.134000000000000000e+03 1.364479923248291016e+01 2.529785394668579102e+00 3.134151697158813477e+00 3.040304183959960938e-01 1.031454563140869141e+00 -2.436116456985473633e+00
1.135000000000000000e+03 1.384728336334228516e+01 2.859634160995483398e+00 3.340776681900024414e+00 8.416780233383178711e-01 1.254736423492431641e+00 -3.173140048980712891e+00
1.136000000000000000e+03 1.480309677124023438e+01 2.750745296478271484e+00 4.219964981079101562e+00 3.385640859603881836e+00 2.281681776046752930e+00 -4.271957397460937500e+00
1.137000000000000000e+03 1.636628723144531250e+01 4.693117618560791016e+00 -5.071449279785156250e-02 4.393774986267089844e+00 1.302918076515197754e+00 4.164619147777557373e-01
1.138000000000000000e+03 1.277194690704345703e+01 -1.291145682334899902e+00 1.983413845300674438e-01 1.470595240592956543e+00 5.006809830665588379e-01 9.228537082672119141e-01
1.139000000000000000e+03 1.484452724456787109e+01 -1.281924605369567871e+00 1.134483725763857365e-03 7.236795425415039062e+00 2.171379089355468750e+00 3.472826242446899414e+00
1.140000000000000000e+03 1.901258659362792969e+01 -1.353614687919616699e+00 -4.397014677524566650e-01 2.939261198043823242e+00 7.498679161071777344e-01 4.256555438041687012e-01
1.141000000000000000e+03 1.597377777099609375e+01 -4.753448963165283203e-01 -1.052179813385009766e+00 1.341689872741699219e+01 3.709415912628173828e+00 3.492098093032836914e+00
1.142000000000000000e+03 1.455267238616943359e+01 -7.686525583267211914e-01 4.074988663196563721e-01 5.316668510437011719e+00 1.717250227928161621e+00 3.404586791992187500e+00
1.143000000000000000e+03 1.517490196228027344e+01 -5.981054902076721191e-01 1.680374443531036377e-01 8.587365150451660156e+00 2.626620769500732422e+00 4.770453453063964844e+00
1.144000000000000000e+03 1.433777904510498047e+01 -7.762603163719177246e-01 5.428589582443237305e-01 4.296278953552246094e+00 1.451741456985473633e+00 3.072095632553100586e+00
1.145000000000000000e+03 1.343811225891113281e+01 -9.932724237442016602e-01 2.922285497188568115e-01 2.287722826004028320e+00 7.739853858947753906e-01 1.673590421676635742e+00
1.146000000000000000e+03 1.555112648010253906e+01 -4.876388609409332275e-01 -3.607879877090454102e-01 1.070060348510742188e+01 3.101944684982299805e+00 4.777184963226318359e+00
1.147000000000000000e+03 1.573530483245849609e+01 -4.592185914516448975e-01 -8.065021634101867676e-01 1.219811725616455078e+01 3.417484521865844727e+00 4.500956535339355469e+00
1.148000000000000000e+03 1.479185581207275391e+01 -7.626721858978271484e-01 2.815266251564025879e-01 6.558032512664794922e+00 2.051867723464965820e+00 3.888161659240722656e+00
1.149000000000000000e+03 1.409478664398193359e+01 -1.021570324897766113e+00 4.920164644718170166e-01 3.871056795120239258e+00 1.308921933174133301e+00 2.695403099060058594e+00
1.150000000000000000e+03 1.360317802429199219e+01 -9.212163686752319336e-01 4.417079091072082520e-01 2.415664434432983398e+00 8.572116494178771973e-01 1.833366513252258301e+00
1.151000000000000000e+03 1.200011539459228516e+01 2.734234094619750977e+00 1.102571487426757812e+00 2.742573022842407227e-01 4.130486547946929932e-01 -1.734306573867797852e+00
1.152000000000000000e+03 1.069587230682373047e+01 2.533149003982543945e+00 1.286056190729141235e-01 4.145717620849609375e-01 1.629532128572463989e-01 -9.849773049354553223e-01
1.153000000000000000e+03 1.131314849853515625e+01 2.727774858474731445e+00 6.224074959754943848e-01 3.666111528873443604e-01 2.967056035995483398e-01 -1.400914192199707031e+00
1.154000000000000000e+03 1.013889884948730469e+01 2.472766637802124023e+00 -1.951268464326858521e-01 4.699852168560028076e-01 8.245750516653060913e-02 -7.109463214874267578e-01
1.155000000000000000e+03 1.398206996917724609e+01 6.754158496856689453e+00 -2.149555683135986328e+00 6.234117746353149414e-01 -4.578431546688079834e-01 -1.440094709396362305e+00
1.156000000000000000e+03 1.867849922180175781e+01 5.089054107666015625e-01 3.737429857254028320e+00 4.744436264038085938e+00 2.544559717178344727e+00 1.740385890007019043e+00
1.157000000000000000e+03 1.741426658630371094e+01 2.372993081808090210e-01 4.391787052154541016e+00 1.125788497924804688e+01 4.694901466369628906e+00 -6.516632437705993652e-01
1.158000000000000000e+03 2.049157714843750000e+01 2.809645891189575195e+00 3.065511465072631836e+00 2.216041326522827148e+00 1.584465861320495605e+00 3.434079408645629883e+00
1.159000000000000000e+03 1.684133911132812500e+01 3.359532117843627930e+00 1.661092758178710938e+00 9.311636924743652344e+00 3.291818857192993164e+00 2.186887025833129883e+00
1.160000000000000000e+03 1.680551528930664062e+01 -2.617584764957427979e-01 2.234045714139938354e-01 1.394327354431152344e+01 4.250003337860107422e+00 8.862976431846618652e-01
1.161000000000000000e+03 1.601212120056152344e+01 -9.262349009513854980e-01 -1.359075665473937988e+00 1.221720218658447266e+01 3.257437944412231445e+00 3.329815626144409180e+00
1.162000000000000000e+03 1.730045127868652344e+01 -9.288399219512939453e-01 -1.125829696655273438e+00 1.149934959411621094e+01 3.112055778503417969e+00 8.380165100097656250e-01
1.163000000000000000e+03 3.692269563674926758e+00 -2.632874488830566406e+00 -5.678511410951614380e-02 -5.601569265127182007e-02 -3.384024277329444885e-02 -2.375248968601226807e-01
1.164000000000000000e+03 6.722884654998779297e+00 -2.733138084411621094e+00 1.037195697426795959e-01 -8.440106362104415894e-02 5.795552395284175873e-03 -2.952155768871307373e-01
1.165000000000000000e+03 7.657350540161132812e+00 -3.507550001144409180e+00 5.891839265823364258e-01 -6.648386269807815552e-02 1.568100303411483765e-01 -1.265468448400497437e-01
1.166000000000000000e+03 7.529934883117675781e+00 -2.685873270034790039e+00 1.828203052282333374e-01 -1.186497211456298828e-01 1.925117336213588715e-02 -2.889285385608673096e-01
1.167000000000000000e+03 5.874119758605957031e+00 -1.914097428321838379e+00 -2.519074678421020508e-01 -3.794626519083976746e-02 -8.695612102746963501e-02 -2.946451604366302490e-01
1.168000000000000000e+03 5.911295890808105469e+00 -2.757315158843994141e+00 6.262918561697006226e-02 -9.238753467798233032e-02 -8.927505463361740112e-03 -2.746131718158721924e-01
1.169000000000000000e+03 4.335119724273681641e+00 -2.649961948394775391e+00 -2.832243591547012329e-02 -5.287991836667060852e-02 -2.436070516705513000e-02 -2.745410799980163574e-01
1.170000000000000000e+03 1.418237447738647461e+00 -3.531935691833496094e+00 8.260088972747325897e-03 -2.138999998569488525e-01 -6.169197708368301392e-02 -1.570301204919815063e-01
1.171000000000000000e+03 3.406158208847045898e+00 -3.565474033355712891e+00 6.589579582214355469e-02 -7.753769308328628540e-02 -3.492569085210561752e-03 -2.394691854715347290e-01
1.172000000000000000e+03 4.654961824417114258e-01 -3.603919029235839844e+00 -9.324638172984123230e-03 -2.833409905433654785e-01 -8.779969066381454468e-02 -5.210864543914794922e-02
1.173000000000000000e+03 5.005208849906921387e-01 -5.010333061218261719e+00 7.529311347752809525e-03 -4.389169514179229736e-01 -1.294162869453430176e-01 -5.595061555504798889e-02
1.174000000000000000e+03 9.122788429260253906e+00 -2.559454917907714844e+00 4.365529417991638184e-01 -1.145289912819862366e-01 9.660718590021133423e-02 -2.221117019653320312e-01
1.175000000000000000e+03 1.208844947814941406e+01 -2.059442520141601562e+00 7.471887469291687012e-01 1.217827916145324707e+00 5.895050168037414551e-01 6.044492721557617188e-01
1.176000000000000000e+03 1.266553401947021484e+01 -1.957471609115600586e+00 8.703359961509704590e-01 1.944589853286743164e+00 8.444777727127075195e-01 1.018705248832702637e+00
1.177000000000000000e+03 9.906332015991210938e+00 -2.472008466720581055e+00 5.196192860603332520e-01 1.004089135676622391e-02 1.588980555534362793e-01 -1.877089291810989380e-01
1.178000000000000000e+03 1.067940902709960938e+01 -2.350641489028930664e+00 6.462914347648620605e-01 2.138314098119735718e-01 2.580368518829345703e-01 -4.912370350211858749e-03
1.179000000000000000e+03 1.129462528228759766e+01 -4.504810810089111328e+00 2.133247137069702148e+00 1.291674375534057617e+00 1.027476429939270020e+00 6.795413494110107422e-01
1.180000000000000000e+03 9.478774070739746094e+00 2.555157899856567383e+00 -3.092342913150787354e-01 4.703392684459686279e-01 4.833149537444114685e-02 -5.565204620361328125e-01
1.181000000000000000e+03 6.193527698516845703e+00 1.889422774314880371e+00 -7.936208844184875488e-01 1.578745543956756592e-01 -1.907238960266113281e-01 3.611981272697448730e-01
1.182000000000000000e+03 1.467925786972045898e+00 6.644127845764160156e+00 6.820648163557052612e-02 -1.155427455902099609e+00 -3.261663019657135010e-01 3.646377027034759521e-01
1.183000000000000000e+03 2.728760480880737305e+00 3.983708620071411133e+00 -6.758343428373336792e-02 -2.991090714931488037e-01 -1.100077480077743530e-01 6.152138113975524902e-01
1.184000000000000000e+03 5.761548042297363281e+00 4.426530361175537109e+00 1.937426626682281494e-02 5.256912112236022949e-01 1.635196506977081299e-01 5.262818932533264160e-01
1.185000000000000000e+03 2.949674844741821289e+00 1.973138213157653809e+00 -3.289457857608795166e-01 -1.010156795382499695e-01 -1.289884299039840698e-01 4.931947588920593262e-01
1.186000000000000000e+03 1.499127984046936035e+00 3.433851242065429688e+00 -5.096144229173660278e-02 -4.940021932125091553e-01 -1.634890884160995483e-01 4.214186370372772217e-01
1.187000000000000000e+03 8.706232070922851562e+00 2.616359233856201172e+00 -3.915955126285552979e-01 5.079970955848693848e-01 3.492048382759094238e-02 -3.032135665416717529e-01
1.188000000000000000e+03 7.083534240722656250e+00 2.674499034881591797e+00 -5.164570212364196777e-01 4.233954846858978271e-01 -2.791847102344036102e-02 2.023661583662033081e-01
1.189000000000000000e+03 5.487415790557861328e+00 2.689796686172485352e+00 -4.382909834384918213e-01 1.849410086870193481e-01 -7.600499689579010010e-02 5.286747217178344727e-01
1.190000000000000000e+03 6.275044918060302734e+00 2.675656318664550781e+00 -5.016671419143676758e-01 3.165771365165710449e-01 -5.552700161933898926e-02 3.933475315570831299e-01
1.191000000000000000e+03 3.981908035278320312e+01 -2.365324020385742188e+01 1.313681125640869141e+00 1.156281757354736328e+01 3.862949609756469727e+00 1.788414359092712402e+00
1.192000000000000000e+03 4.867410278320312500e+01 -3.024703025817871094e+01 3.893578767776489258e+00 8.065501213073730469e+00 3.587723731994628906e+00 -4.690072059631347656e+00
1.193000000000000000e+03 4.847080230712890625e+01 -2.640858840942382812e+01 -1.264023065567016602e+00 5.087063789367675781e+00 1.146912217140197754e+00 -3.456560134887695312e+00
1.194000000000000000e+03 4.736215972900390625e+01 2.594325637817382812e+01 2.683160066604614258e+00 8.199489593505859375e+00 3.264795064926147461e+00 1.979404926300048828e+00
1.195000000000000000e+03 4.753813171386718750e+01 2.874580192565917969e+01 1.270512342453002930e+00 7.480651378631591797e+00 2.625349044799804688e+00 6.508144140243530273e-01
1.196000000000000000e+03 1.861099624633789062e+01 -2.652904319763183594e+01 -4.171151161193847656e+00 -9.944398701190948486e-02 -1.281178593635559082e+00 4.837073385715484619e-02
1.197000000000000000e+03 2.972115516662597656e+01 2.697411346435546875e+01 3.391176164150238037e-01 1.626448154449462891e+00 5.896697044372558594e-01 -9.085559844970703125e-01
1.198000000000000000e+03 3.155865287780761719e+01 3.065548133850097656e+01 4.334549605846405029e-01 5.137478828430175781e+00 1.671280145645141602e+00 -1.648666501045227051e+00
1.199000000000000000e+03 4.654605484008789062e+01 -1.221464443206787109e+01 9.213948249816894531e-01 5.674026489257812500e+00 1.978626489639282227e+00 3.378942489624023438e+00
1.200000000000000000e+03 5.099079132080078125e+01 -9.716302871704101562e+00 1.730779886245727539e+00 6.279992103576660156e+00 2.403231620788574219e+00 -7.354751825332641602e-01
1.201000000000000000e+03 3.306573104858398438e+01 1.604045867919921875e+01 2.202942848205566406e+00 5.348953723907470703e+00 2.265568971633911133e+00 2.456648349761962891e-01
1.202000000000000000e+03 3.118448638916015625e+01 1.626892852783203125e+01 3.763112545013427734e+00 9.444648742675781250e+00 3.962328433990478516e+00 4.319132328033447266e+00
1.203000000000000000e+03 6.074384689331054688e+01 3.548899078369140625e+01 -2.041426658630371094e+00 4.072086513042449951e-01 -4.902653992176055908e-01 1.607909202575683594e-01
1.204000000000000000e+03 4.962919235229492188e+01 -3.483311462402343750e+01 1.367547988891601562e+00 8.290125846862792969e+00 2.897302150726318359e+00 1.311643481254577637e+00
1.205000000000000000e+03 4.262825775146484375e+01 -4.104611587524414062e+01 -1.209434747695922852e+00 3.650731742382049561e-01 -2.533084750175476074e-01 -3.764653205871582031e-01
1.206000000000000000e+03 3.923868179321289062e+01 -3.973837661743164062e+01 -1.865292668342590332e+00 2.874199390411376953e+00 3.026720583438873291e-01 -6.004773080348968506e-02
1.207000000000000000e+03 5.287402725219726562e+01 -3.394634628295898438e+01 1.900528192520141602e+00 7.454050064086914062e+00 2.806373596191406250e+00 -5.589485168457031250e-01
1.208000000000000000e+03 4.957751464843750000e+01 -2.952689170837402344e+01 2.404360771179199219e+00 6.353756427764892578e+00 2.627435207366943359e+00 -2.080469846725463867e+00
1.209000000000000000e+03 4.762809753417968750e+01 -7.951119422912597656e+00 1.447575688362121582e+00 1.097059726715087891e+01 3.725451946258544922e+00 -1.801181435585021973e+00
1.210000000000000000e+03 4.780452346801757812e+01 -9.174846649169921875e+00 1.161969900131225586e+00 1.306043052673339844e+01 4.266720294952392578e+00 4.542107582092285156e-01
1.211000000000000000e+03 5.810026550292968750e+01 4.122613525390625000e+01 -3.728474378585815430e-01 2.343058109283447266e+00 5.910632014274597168e-01 4.001654386520385742e-01
1.212000000000000000e+03 5.981912231445312500e+01 3.663980484008789062e+01 -1.835976600646972656e+00 3.445190489292144775e-01 -4.474372565746307373e-01 4.877866432070732117e-02
1.213000000000000000e+03 2.441452598571777344e+01 2.995227241516113281e+01 2.975098788738250732e-01 2.598288059234619141e+00 8.687393665313720703e-01 1.386311292648315430e+00
1.214000000000000000e+03 1.988021659851074219e+01 2.919393348693847656e+01 4.218046069145202637e-01 1.206231880187988281e+01 3.745237112045288086e+00 -8.622819781303405762e-01
1.215000000000000000e+03 5.727005004882812500e+01 3.568411254882812500e+01 -9.836649298667907715e-01 1.104179739952087402e+00 3.615446761250495911e-02 9.826269149780273438e-01
1.216000000000000000e+03 1.518879127502441406e+01 -2.396118545532226562e+01 -1.462341666221618652e+00 3.885203123092651367e+00 7.268583774566650391e-01 1.977029800415039062e+00
1.217000000000000000e+03 1.844749641418457031e+01 -2.558995628356933594e+01 -1.961692333221435547e+00 3.216536045074462891e-01 -4.920116066932678223e-01 1.102340340614318848e+00
1.218000000000000000e+03 2.619211006164550781e+01 1.471762943267822266e+01 -4.143393039703369141e+00 -8.287894725799560547e-01 -1.491654753684997559e+00 7.595495581626892090e-01
1.219000000000000000e+03 4.372047424316406250e+01 -2.759223747253417969e+01 -6.899891376495361328e+00 -7.457225918769836426e-01 -2.293684244155883789e+00 -7.307224720716476440e-02
1.220000000000000000e+03 4.353935241699218750e+01 -4.059274196624755859e+00 -7.874410152435302734e-01 4.187124073505401611e-01 -1.106185838580131531e-01 -3.539871275424957275e-01
1.221000000000000000e+03 4.281396102905273438e+01 -2.323669433593750000e+00 -3.499740958213806152e-01 1.178401470184326172e+00 2.485282123088836670e-01 -1.288981437683105469e+00
1.222000000000000000e+03 3.574356460571289062e+01 -4.076056957244873047e+00 1.187186002731323242e+00 4.592272758483886719e+00 1.733837723731994629e+00 7.637382745742797852e-01
1.223000000000000000e+03 3.823933410644531250e+01 -4.988600730895996094e+00 2.072331905364990234e+00 3.967023849487304688e+00 1.811806678771972656e+00 2.539397954940795898e+00
1.224000000000000000e+03 3.563158798217773438e+01 -9.109144210815429688e+00 3.310946702957153320e+00 5.072280883789062500e+00 2.514968395233154297e+00 -1.236546754837036133e+00
1.225000000000000000e+03 3.708009338378906250e+01 -9.041913986206054688e+00 2.459579944610595703e+00 1.022499752044677734e+01 3.805373430252075195e+00 -2.895149230957031250e+00
1.226000000000000000e+03 2.107830047607421875e+01 1.998917388916015625e+01 1.336139798164367676e+00 9.735610961914062500e+00 3.321525096893310547e+00 2.834855318069458008e-01
1.227000000000000000e+03 2.119522666931152344e+01 1.656024932861328125e+01 -2.685570955276489258e+00 9.338547706604003906e+00 1.995893001556396484e+00 8.320649862289428711e-01
1.228000000000000000e+03 3.189835739135742188e+01 2.294245719909667969e+01 5.468183755874633789e-01 1.152069282531738281e+01 3.620253324508666992e+00 -6.868247389793395996e-01
1.229000000000000000e+03 3.372892379760742188e+01 2.315837287902832031e+01 2.938398718833923340e-01 8.766157150268554688e+00 2.717999219894409180e+00 -2.251563221216201782e-01
1.230000000000000000e+03 4.251821136474609375e+01 -2.770272827148437500e+01 -5.880646228790283203e+00 2.037685215473175049e-01 -1.703063368797302246e+00 -6.215999126434326172e-01
1.231000000000000000e+03 2.164180946350097656e+01 3.202173614501953125e+01 3.511612415313720703e-01 5.747522354125976562e+00 1.829605102539062500e+00 7.587421536445617676e-01
1.232000000000000000e+03 3.168838500976562500e+01 1.371074295043945312e+01 -1.782503128051757812e+00 5.779524326324462891e+00 1.199106335639953613e+00 2.942839145660400391e+00
1.233000000000000000e+03 2.876345825195312500e+01 1.281328487396240234e+01 4.482533931732177734e-01 3.443212509155273438e+00 1.167439699172973633e+00 2.717242479324340820e+00
1.234000000000000000e+03 3.657066345214843750e+01 1.655903434753417969e+01 2.418128728866577148e+00 2.544468641281127930e+00 1.488779187202453613e+00 -1.881212115287780762e+00
1.235000000000000000e+03 3.550603485107421875e+01 -6.959190368652343750e+00 2.311007976531982422e+00 6.357693195343017578e+00 2.600610256195068359e+00 -6.614098548889160156e-01
1.236000000000000000e+03 2.221685981750488281e+01 2.024100303649902344e+01 1.205685377120971680e+00 1.602872848510742188e+01 5.170323848724365234e+00 -1.416468024253845215e+00
1.237000000000000000e+03 2.007377624511718750e+01 1.871230697631835938e+01 -1.055933475494384766e+00 7.422381401062011719e+00 1.909934401512145996e+00 3.169762194156646729e-01
1.238000000000000000e+03 3.537423706054687500e+01 -1.251015567779541016e+01 -7.135840058326721191e-01 2.717288017272949219e+00 6.011112332344055176e-01 -1.560641527175903320e+00
1.239000000000000000e+03 3.730561447143554688e+01 -4.220097064971923828e+00 4.864259362220764160e-01 4.679379463195800781e+00 1.549741625785827637e+00 1.398497819900512695e+00
1.240000000000000000e+03 3.659838485717773438e+01 -4.993376731872558594e+00 1.696054458618164062e+00 5.007051944732666016e+00 2.010931968688964844e+00 7.005668282508850098e-01
1.241000000000000000e+03 4.450815963745117188e+01 -1.454589843750000000e+01 -3.119911432266235352e+00 2.392480611801147461e+00 -2.182292342185974121e-01 2.069168806076049805e+00
1.242000000000000000e+03 4.405899810791015625e+01 -1.348376941680908203e+01 -5.927388668060302734e+00 3.464488983154296875e-01 -1.674281954765319824e+00 -3.018688559532165527e-01
1.243000000000000000e+03 3.062239456176757812e+01 2.784676742553710938e+01 3.857735097408294678e-01 4.057436943054199219e+00 1.332963109016418457e+00 -1.313736796379089355e+00
1.244000000000000000e+03 3.742507934570312500e+01 2.306749343872070312e+01 -3.600292503833770752e-01 1.590133547782897949e+00 3.690312802791595459e-01 -7.379249334335327148e-01
1.245000000000000000e+03 3.151085662841796875e+01 2.676432037353515625e+01 1.616273522377014160e-01 6.520419120788574219e+00 2.004614114761352539e+00 -1.038983225822448730e+00
1.246000000000000000e+03 3.362209320068359375e+01 3.041001892089843750e+01 7.605064511299133301e-01 7.765908241271972656e+00 2.557924509048461914e+00 -7.026980519294738770e-01
1.247000000000000000e+03 4.720265197753906250e+01 -1.418124294281005859e+01 -3.215086698532104492e+00 6.501484394073486328e+00 9.859192371368408203e-01 2.864795684814453125e+00
1.248000000000000000e+03 3.199311828613281250e+01 -2.721678733825683594e+01 -9.007389545440673828e-01 8.837794661521911621e-01 -5.087857134640216827e-03 1.471669971942901611e-01
1.249000000000000000e+03 2.632298851013183594e+01 -3.372906112670898438e+01 6.406951546669006348e-01 6.548417568206787109e+00 2.156733751296997070e+00 -7.838389277458190918e-01
1.250000000000000000e+03 2.161611557006835938e+01 1.514937686920166016e+01 -3.414332866668701172e-01 9.156035423278808594e+00 2.644380569458007812e+00 2.841823734343051910e-02
1.251000000000000000e+03 4.584536743164062500e+01 -1.421034622192382812e+01 -3.242814540863037109e+00 4.801149368286132812e+00 4.675005078315734863e-01 2.705924987792968750e+00
1.252000000000000000e+03 2.266837692260742188e+01 2.419534873962402344e+01 4.968226552009582520e-01 1.257110309600830078e+01 3.920377731323242188e+00 2.011072874069213867e+00
1.253000000000000000e+03 2.125724792480468750e+01 2.186655044555664062e+01 1.208572626113891602e+00 1.123528385162353516e+01 3.733157157897949219e+00 -1.060912832617759705e-01
1.254000000000000000e+03 1.832230186462402344e+01 2.492293930053710938e+01 -1.678693413734436035e+00 9.186202287673950195e-02 -4.760494232177734375e-01 -8.684625625610351562e-01
1.255000000000000000e+03 4.665713119506835938e+01 -6.203800201416015625e+00 1.978324651718139648e+00 5.813542366027832031e+00 2.337560176849365234e+00 -2.759307622909545898e+00
1.256000000000000000e+03 4.504600143432617188e+01 -3.822618722915649414e+00 2.064380943775177002e-01 2.367481470108032227e+00 7.721758484840393066e-01 -1.795413613319396973e+00
1.257000000000000000e+03 2.134673881530761719e+01 2.830797004699707031e+01 2.647557258605957031e-01 7.980705738067626953e+00 2.473638296127319336e+00 -8.906410932540893555e-01
1.258000000000000000e+03 2.036513900756835938e+01 1.416553592681884766e+01 1.222215771675109863e+00 1.418771839141845703e+01 4.622980117797851562e+00 -1.228877067565917969e+00
1.259000000000000000e+03 2.384012603759765625e+01 1.539295768737792969e+01 -2.747864961624145508e+00 4.690253257751464844e+00 5.827164649963378906e-01 -1.017677545547485352e+00
1.260000000000000000e+03 4.703199768066406250e+01 -4.780537605285644531e+00 4.710181951522827148e-01 5.616052150726318359e+00 1.826121091842651367e+00 -1.663610458374023438e+00
1.261000000000000000e+03 2.154157447814941406e+01 2.293552589416503906e+01 5.893592834472656250e-01 1.202376174926757812e+01 3.783936500549316406e+00 2.788079380989074707e-01
1.262000000000000000e+03 3.786244964599609375e+01 -3.178737449645996094e+01 2.430499315261840820e+00 5.537880420684814453e+00 2.390513896942138672e+00 1.590144157409667969e+00
1.263000000000000000e+03 3.294103240966796875e+01 2.051585769653320312e+01 2.332824021577835083e-01 9.658746719360351562e+00 2.967608690261840820e+00 -8.128388971090316772e-02
1.264000000000000000e+03 3.184955596923828125e+01 1.927593612670898438e+01 2.957166545093059540e-02 1.148307514190673828e+01 3.453794002532958984e+00 2.993055880069732666e-01
1.265000000000000000e+03 3.181019210815429688e+01 2.176303672790527344e+01 -1.494814902544021606e-01 1.135658931732177734e+01 3.362132310867309570e+00 -8.208849281072616577e-02
1.266000000000000000e+03 3.308908081054687500e+01 2.240661048889160156e+01 3.225338459014892578e-01 9.254877090454101562e+00 2.873223304748535156e+00 -4.588077664375305176e-01
1.267000000000000000e+03 5.084134292602539062e+01 -1.132280731201171875e+01 1.148679971694946289e+00 5.252140998840332031e+00 1.920246362686157227e+00 -1.211429715156555176e+00
1.268000000000000000e+03 5.175538635253906250e+01 -8.738620758056640625e+00 1.660834431648254395e+00 6.202906131744384766e+00 2.359122276306152344e+00 -7.458223104476928711e-01
1.269000000000000000e+03 4.141553878784179688e+01 -1.758929133415222168e+00 7.895195484161376953e-02 1.979893445968627930e+00 6.176536083221435547e-01 4.727609157562255859e-01
1.270000000000000000e+03 3.595847702026367188e+01 -1.349715137481689453e+01 -2.306835889816284180e+00 3.160316467285156250e+00 2.560442090034484863e-01 -2.091137647628784180e+00
1.271000000000000000e+03 3.678321838378906250e+01 -1.272622108459472656e+01 -1.208487749099731445e+00 5.049125194549560547e+00 1.152191281318664551e+00 -2.474591732025146484e+00
1.272000000000000000e+03 3.986357879638671875e+01 -3.771867752075195312e+01 -1.989015102386474609e+00 2.578614234924316406e+00 1.768797188997268677e-01 -6.603057682514190674e-02
1.273000000000000000e+03 4.006669235229492188e+01 -3.526539230346679688e+01 6.098144054412841797e-01 2.922468900680541992e+00 1.059684991836547852e+00 -1.789356112480163574e+00
1.274000000000000000e+03 4.928734207153320312e+01 -3.972008514404296875e+01 -2.406427860260009766e+00 5.161758422851562500e+00 8.265992403030395508e-01 5.587894320487976074e-01
1.275000000000000000e+03 4.986890411376953125e+01 -2.693684959411621094e+01 -1.397471547126770020e+00 3.763198137283325195e+00 7.097179889678955078e-01 -2.761170148849487305e+00
1.276000000000000000e+03 4.662364959716796875e+01 -4.111223602294921875e+01 -1.581210017204284668e+00 2.118437290191650391e+00 1.611682027578353882e-01 4.560406804084777832e-01
1.277000000000000000e+03 5.814097595214843750e+01 2.032820892333984375e+01 5.750789642333984375e-01 3.765430212020874023e+00 1.302152752876281738e+00 -1.640924066305160522e-01
1.278000000000000000e+03 3.884945678710937500e+01 -2.771871566772460938e+01 -2.814283609390258789e+00 8.670824050903320312e+00 1.756962299346923828e+00 1.950232267379760742e+00
1.279000000000000000e+03 3.700952911376953125e+01 -3.344857406616210938e+01 2.009765863418579102e+00 4.236184120178222656e+00 1.873784899711608887e+00 2.172731161117553711e+00
1.280000000000000000e+03 3.841261291503906250e+01 -3.378626632690429688e+01 1.634979486465454102e+00 8.019276618957519531e+00 2.896276712417602539e+00 1.318579792976379395e+00
1.281000000000000000e+03 5.314583206176757812e+01 -3.278369903564453125e+01 3.081047773361206055e+00 7.242289066314697266e+00 3.097001075744628906e+00 2.575333043932914734e-02
1.282000000000000000e+03 4.780192184448242188e+01 -2.537468338012695312e+01 -1.260500311851501465e+00 5.061205387115478516e+00 1.140211462974548340e+00 -3.386635303497314453e+00
1.283000000000000000e+03 4.794216537475585938e+01 -2.341238021850585938e+01 2.480904817581176758e+00 4.721485614776611328e+00 2.160717010498046875e+00 -3.670943737030029297e+00
1.284000000000000000e+03 6.642986297607421875e+01 2.958774948120117188e+01 1.203217387199401855e+00 5.690965652465820312e+00 2.068254947662353516e+00 1.142583608627319336e+00
1.285000000000000000e+03 6.534304046630859375e+01 3.525392532348632812e+01 -8.179763555526733398e-01 4.831872463226318359e+00 1.204168915748596191e+00 3.194683790206909180e-01
1.286000000000000000e+03 3.937893295288085938e+01 -2.546192550659179688e+01 2.403827428817749023e+00 1.208528614044189453e+01 4.346734046936035156e+00 4.606053829193115234e+00
1.287000000000000000e+03 3.864896011352539062e+01 -2.644181442260742188e+01 1.959090113639831543e+00 7.375492095947265625e+00 2.800374746322631836e+00 3.639265298843383789e+00
1.288000000000000000e+03 3.488469696044921875e+01 -2.860054588317871094e+01 -5.627194881439208984e+00 -5.658804178237915039e-01 -1.857922554016113281e+00 -2.921322584152221680e-01
1.289000000000000000e+03 3.251562118530273438e+01 -3.009438323974609375e+01 -6.593835949897766113e-01 1.437803506851196289e+00 2.335259616374969482e-01 -1.246148586273193359e+00
1.290000000000000000e+03 2.834648132324218750e+01 -2.355344963073730469e+01 1.410208463668823242e+00 9.425373077392578125e+00 3.250674486160278320e+00 -8.537038564682006836e-01
1.291000000000000000e+03 3.830680084228515625e+01 -2.974559402465820312e+01 -1.025294542312622070e+00 6.426007270812988281e+00 1.620213747024536133e+00 1.425904273986816406e+00
1.292000000000000000e+03 3.588816833496093750e+01 -1.530073451995849609e+01 -5.564516067504882812e+00 7.956811785697937012e-01 -1.430650472640991211e+00 -1.335719972848892212e-02
1.293000000000000000e+03 2.759534072875976562e+01 -2.467992591857910156e+01 2.623994052410125732e-01 6.726144790649414062e+00 2.096563100814819336e+00 1.339306030422449112e-02
1.294000000000000000e+03 2.469649696350097656e+01 -1.499101924896240234e+01 -2.368821382522583008e+00 7.652252316474914551e-01 -4.810788333415985107e-01 5.534633994102478027e-01
1.295000000000000000e+03 4.857810974121093750e+01 -1.540037918090820312e+01 -3.544601440429687500e+00 5.143040657043457031e+00 4.795316457748413086e-01 2.515039920806884766e+00
1.296000000000000000e+03 3.503120803833007812e+01 -1.147341442108154297e+01 1.546802282333374023e+00 3.356188535690307617e+00 1.470897197723388672e+00 -7.979067564010620117e-01
1.297000000000000000e+03 2.968444442749023438e+01 -1.289823532104492188e+01 -2.401809692382812500e+00 6.504461765289306641e+00 1.230795621871948242e+00 2.179076433181762695e+00
1.298000000000000000e+03 3.826841354370117188e+01 -1.257496452331542969e+01 -6.933467984199523926e-01 6.229697704315185547e+00 1.660905241966247559e+00 -2.869097709655761719e+00
1.299000000000000000e+03 2.791028594970703125e+01 -1.680461692810058594e+01 -7.150106430053710938e-01 5.936305522918701172e+00 1.566388487815856934e+00 1.178397893905639648e+00
1.300000000000000000e+03 3.049626541137695312e+01 -1.613479232788085938e+01 -1.108739495277404785e+00 5.936130046844482422e+00 1.448217153549194336e+00 2.043449163436889648e+00
1.301000000000000000e+03 4.356673812866210938e+01 -2.663011932373046875e+01 -1.126128792762756348e+00 6.090598553419113159e-02 -3.195668458938598633e-01 -1.035353541374206543e+00
1.302000000000000000e+03 3.851522064208984375e+01 -2.864259910583496094e+01 -2.123290300369262695e+00 7.049267292022705078e+00 1.477792978286743164e+00 2.166165590286254883e+00
1.303000000000000000e+03 2.787381935119628906e+01 -2.074384689331054688e+01 2.115541458129882812e+00 8.712227821350097656e+00 3.248330831527709961e+00 5.302326679229736328e-01
1.304000000000000000e+03 4.005056762695312500e+01 -1.413503837585449219e+01 -2.910996913909912109e+00 4.672121047973632812e+00 5.283373594284057617e-01 -2.841629028320312500e+00
1.305000000000000000e+03 2.892668533325195312e+01 -2.104427909851074219e+01 6.323240399360656738e-01 1.266785430908203125e+01 3.990053653717041016e+00 1.427052736282348633e+00
1.306000000000000000e+03 3.016723251342773438e+01 -2.711531066894531250e+01 -1.088040471076965332e+00 4.282243251800537109e+00 9.582607746124267578e-01 -8.192292451858520508e-01
1.307000000000000000e+03 3.936074447631835938e+01 -1.984966850280761719e+01 1.438281536102294922e+00 7.675367832183837891e+00 2.734094858169555664e+00 -2.666799783706665039e+00
1.308000000000000000e+03 4.043565368652343750e+01 -1.863120651245117188e+01 1.604179382324218750e+00 5.151730537414550781e+00 2.026772975921630859e+00 -1.777314543724060059e+00
1.309000000000000000e+03 2.904131126403808594e+01 -1.706274223327636719e+01 -7.180311679840087891e-01 7.219604492187500000e+00 1.950471997261047363e+00 1.682200789451599121e+00
1.310000000000000000e+03 2.865558242797851562e+01 -1.822852706909179688e+01 1.218785405158996582e+00 7.670050621032714844e+00 2.666650772094726562e+00 1.641278982162475586e+00
1.311000000000000000e+03 5.394953155517578125e+01 2.638184928894042969e+01 1.569727301597595215e+00 7.985767364501953125e+00 2.866648435592651367e+00 -2.064872741699218750e+00
1.312000000000000000e+03 5.121938705444335938e+01 2.822679901123046875e+01 1.667259812355041504e+00 7.286156177520751953e+00 2.686024904251098633e+00 7.905479073524475098e-01
1.313000000000000000e+03 4.466202163696289062e+01 -1.739502143859863281e+01 4.850001335144042969e-01 4.996012210845947266e+00 1.644303679466247559e+00 8.926850557327270508e-01
1.314000000000000000e+03 4.727911758422851562e+01 -1.786212158203125000e+01 1.463513612747192383e+00 7.648495674133300781e+00 2.733602762222290039e+00 2.814527988433837891e+00
1.315000000000000000e+03 3.097295379638671875e+01 -2.811743354797363281e+01 -2.071029424667358398e+00 3.156041622161865234e+00 3.255036175251007080e-01 -6.837468147277832031e-01
1.316000000000000000e+03 2.847291564941406250e+01 -2.703629875183105469e+01 -1.456823229789733887e+00 6.061668395996093750e+00 1.381453514099121094e+00 -4.174502100795507431e-03
1.317000000000000000e+03 2.932790946960449219e+01 -2.618041610717773438e+01 -1.167870163917541504e+00 6.382236480712890625e+00 1.564309835433959961e+00 -9.965109229087829590e-01
1.318000000000000000e+03 6.263617324829101562e+01 2.524063682556152344e+01 3.290449857711791992e+00 7.878362178802490234e+00 3.350643634796142578e+00 4.353699207305908203e+00
1.319000000000000000e+03 6.592749023437500000e+01 2.712885093688964844e+01 2.268852710723876953e+00 5.103476524353027344e+00 2.211698770523071289e+00 1.206380844116210938e+00
1.320000000000000000e+03 1.152929592132568359e+01 -1.266911220550537109e+01 -5.269532680511474609e+00 -8.893915414810180664e-01 -1.847677350044250488e+00 1.859762310981750488e+00
1.321000000000000000e+03 9.919072151184082031e+00 -1.174213600158691406e+01 -1.423242330551147461e+00 4.583737552165985107e-01 -2.894605994224548340e-01 2.892453908920288086e+00
1.322000000000000000e+03 5.431933975219726562e+01 5.137612223625183105e-01 -8.808708786964416504e-01 3.586858034133911133e+00 8.117961287498474121e-01 2.225441217422485352e+00
1.323000000000000000e+03 6.228749847412109375e+01 2.112978553771972656e+01 -1.808673024177551270e+00 5.882911205291748047e+00 1.222271561622619629e+00 3.422239065170288086e+00
1.324000000000000000e+03 6.101973342895507812e+01 2.110535812377929688e+01 -9.789990186691284180e-01 5.701132774353027344e+00 1.416640162467956543e+00 2.767391204833984375e+00
1.325000000000000000e+03 1.620288848876953125e+01 -3.971963119506835938e+01 -2.993619918823242188e+00 -1.084858417510986328e+00 -1.223543524742126465e+00 1.190745353698730469e+00
1.326000000000000000e+03 1.397306251525878906e+01 -3.808288192749023438e+01 -8.737859129905700684e-01 1.089064955711364746e+00 6.458370387554168701e-02 1.201980337500572205e-01
1.327000000000000000e+03 6.098288726806640625e+01 2.387693595886230469e+01 4.573428034782409668e-01 3.358899831771850586e+00 1.144872784614562988e+00 2.548748493194580078e+00
1.328000000000000000e+03 5.322978210449218750e+01 3.428454589843750000e+01 -1.473440080881118774e-01 6.751098155975341797e+00 1.981126308441162109e+00 6.605247259140014648e-01
1.329000000000000000e+03 4.699957656860351562e+01 3.186770057678222656e+01 1.000404637306928635e-02 5.692015171051025391e+00 1.710605740547180176e+00 -6.344250589609146118e-02
1.330000000000000000e+03 5.175993347167968750e+01 3.168252563476562500e+01 1.294012665748596191e+00 7.244872093200683594e+00 2.561665534973144531e+00 8.759200572967529297e-01
1.331000000000000000e+03 5.981323623657226562e+01 2.234846115112304688e+01 -1.491170644760131836e+00 2.746664047241210938e+00 3.766480088233947754e-01 2.387771606445312500e+00
1.332000000000000000e+03 5.991077041625976562e+01 5.688516497611999512e-01 -1.478877902030944824e+00 5.497975349426269531e+00 1.205729246139526367e+00 -2.348666906356811523e+00
1.333000000000000000e+03 5.444456863403320312e+01 2.371478271484375000e+01 -7.320882081985473633e-01 4.881127834320068359e+00 1.244711875915527344e+00 -2.139117479324340820e+00
1.334000000000000000e+03 1.662092590332031250e+01 -4.186148452758789062e+01 -2.578076124191284180e+00 -6.418962478637695312e-01 -9.659917354583740234e-01 1.518740803003311157e-01
1.335000000000000000e+03 6.576440429687500000e+01 -1.693502616882324219e+01 -1.224826693534851074e+00 3.825993537902832031e+00 7.803500294685363770e-01 7.734398245811462402e-01
1.336000000000000000e+03 6.389193344116210938e+01 -1.618123054504394531e+01 -1.716107845306396484e+00 6.235981941223144531e+00 1.355962276458740234e+00 2.146938890218734741e-01
1.337000000000000000e+03 6.392013168334960938e+01 3.444421005249023438e+01 -8.652622699737548828e-01 4.717463493347167969e+00 1.155660390853881836e+00 1.604944169521331787e-01
1.338000000000000000e+03 2.540419960021972656e+01 -3.086377906799316406e+01 4.951521158218383789e-01 7.228167533874511719e+00 2.316995859146118164e+00 -7.359580993652343750e-01
1.339000000000000000e+03 6.104122543334960938e+01 2.244766616821289062e+01 -2.146804809570312500e+00 5.031692028045654297e+00 8.654662370681762695e-01 3.336436271667480469e+00
1.340000000000000000e+03 5.659495544433593750e+01 3.752506637573242188e+01 -8.295325040817260742e-01 2.500565290451049805e+00 5.013098716735839844e-01 1.538103699684143066e+00
1.341000000000000000e+03 5.409801483154296875e+01 3.509776687622070312e+01 -7.487331628799438477e-01 6.341142177581787109e+00 1.677722692489624023e+00 1.332641243934631348e+00
1.342000000000000000e+03 6.306740188598632812e+01 3.561250305175781250e+01 -1.319905042648315430e+00 3.287158489227294922e+00 5.901759862899780273e-01 -5.305280685424804688e-01
1.343000000000000000e+03 6.512962341308593750e+01 2.987049293518066406e+01 8.337360024452209473e-01 6.229951858520507812e+00 2.119106292724609375e+00 7.475386261940002441e-01
1.344000000000000000e+03 2.629772949218750000e+01 -3.507187652587890625e+01 3.880064189434051514e-01 6.371759414672851562e+00 2.027929782867431641e+00 -3.486268222332000732e-01
1.345000000000000000e+03 2.445421791076660156e+01 -3.767505645751953125e+01 3.673597276210784912e-01 4.982954502105712891e+00 1.605094194412231445e+00 5.572968721389770508e-01
1.346000000000000000e+03 5.602698516845703125e+01 2.317750549316406250e+01 -1.471305131912231445e+00 2.711815118789672852e+00 3.721529841423034668e-01 -1.699857115745544434e+00
1.347000000000000000e+03 1.353788280487060547e+01 -3.110238838195800781e+01 1.505374073982238770e+00 6.240136146545410156e+00 2.323653221130371094e+00 2.588515281677246094e+00
1.348000000000000000e+03 9.328302383422851562e+00 -3.713538360595703125e+01 -1.172218322753906250e-01 2.764133453369140625e+00 7.940735220909118652e-01 9.712839722633361816e-01
1.349000000000000000e+03 2.694264411926269531e+01 -2.563507652282714844e+01 -7.333813309669494629e-01 6.518788337707519531e+00 1.735622048377990723e+00 3.513453900814056396e-01
1.350000000000000000e+03 2.064992713928222656e+01 -4.061171340942382812e+01 -2.925232887268066406e+00 -1.770628392696380615e-01 -9.306886792182922363e-01 -6.152081489562988281e-01
1.351000000000000000e+03 6.198374557495117188e+01 5.701449871063232422e+00 -1.267111182212829590e+00 4.416209697723388672e+00 9.447295069694519043e-01 -1.767992973327636719e+00
1.352000000000000000e+03 6.237617492675781250e+01 -1.013430237770080566e+00 1.871221065521240234e-01 7.141359329223632812e+00 2.198544502258300781e+00 -4.862414896488189697e-01
1.353000000000000000e+03 6.069420242309570312e+01 1.204317665100097656e+01 8.312672376632690430e-01 9.824154853820800781e+00 3.196626663208007812e+00 -9.759694337844848633e-01
1.354000000000000000e+03 5.541537857055664062e+01 1.289740657806396484e+01 1.354514360427856445e+00 8.953265190124511719e+00 3.092334032058715820e+00 -6.460975408554077148e-01
1.355000000000000000e+03 1.331121826171875000e+01 -2.947397041320800781e+01 1.636550664901733398e+00 4.345975875854492188e+00 1.794757962226867676e+00 2.040574312210083008e+00
1.356000000000000000e+03 1.579123783111572266e+01 -1.972362899780273438e+01 1.872150182723999023e+00 8.886068344116210938e+00 3.227465629577636719e+00 2.068753004074096680e+00
1.357000000000000000e+03 1.089368343353271484e+01 -3.836675643920898438e+01 -9.765998125076293945e-01 2.776736497879028320e+00 5.400410294532775879e-01 6.541404724121093750e-01
1.358000000000000000e+03 7.240843963623046875e+01 -1.250363731384277344e+01 -1.777965784072875977e+00 7.268151640892028809e-01 -3.153451979160308838e-01 -3.830169737339019775e-01
1.359000000000000000e+03 7.208866119384765625e+01 -1.374544811248779297e+01 -5.268667340278625488e-01 1.418021321296691895e+00 2.673463821411132812e-01 -4.406415820121765137e-01
1.360000000000000000e+03 2.136964797973632812e+01 -2.709749412536621094e+01 -2.470114946365356445e+00 -1.547124832868576050e-01 -7.874482274055480957e-01 7.359868884086608887e-01
1.361000000000000000e+03 1.163581371307373047e+01 -3.345250701904296875e+01 9.125250577926635742e-01 4.019877910614013672e+00 1.479720950126647949e+00 1.161436557769775391e+00
1.362000000000000000e+03 1.537632846832275391e+01 -2.521921539306640625e+01 -1.759157061576843262e+00 3.772531986236572266e+00 6.040124893188476562e-01 2.095818519592285156e+00
1.363000000000000000e+03 1.222914409637451172e+01 -2.368056678771972656e+01 -1.984704017639160156e+00 1.233314633369445801e+00 -2.254167944192886353e-01 1.390600562095642090e+00
1.364000000000000000e+03 2.322362518310546875e+01 -2.515340232849121094e+01 -2.174345403909683228e-01 2.890481472015380859e+00 8.019140958786010742e-01 -6.848210692405700684e-01
1.365000000000000000e+03 2.492992973327636719e+01 -3.483704376220703125e+01 3.797521591186523438e-01 7.698089599609375000e+00 2.423352479934692383e+00 -7.923878729343414307e-02
1.366000000000000000e+03 2.684260749816894531e+01 -3.135289382934570312e+01 2.466787099838256836e-01 5.949914455413818359e+00 1.858977913856506348e+00 -3.439794480800628662e-01
1.367000000000000000e+03 5.256521606445312500e+01 -6.168034076690673828e+00 1.532230138778686523e+00 1.043016529083251953e+01 3.588718652725219727e+00 -1.896040081977844238e+00
1.368000000000000000e+03 5.260808181762695312e+01 -3.501748800277709961e+00 9.040570855140686035e-01 1.079219627380371094e+01 3.508876085281372070e+00 1.757457613945007324e+00
1.369000000000000000e+03 6.136179733276367188e+01 -6.204013347625732422e+00 7.012938857078552246e-01 1.098004817962646484e+01 3.504402637481689453e+00 3.680303096771240234e-01
1.370000000000000000e+03 6.450908660888671875e+01 -2.851253128051757812e+01 2.599685192108154297e+00 8.385621070861816406e+00 3.295591831207275391e+00 -4.512240409851074219e+00
1.371000000000000000e+03 2.421900558471679688e+01 5.903774499893188477e-01 -1.332942008972167969e+00 1.111918017268180847e-01 -3.665250539779663086e-01 -2.251626104116439819e-01
1.372000000000000000e+03 1.097261714935302734e+01 1.655864906311035156e+01 1.470463350415229797e-02 1.225261330604553223e+00 3.719897866249084473e-01 4.727792143821716309e-01
1.373000000000000000e+03 1.199205780029296875e+01 1.744828224182128906e+01 -1.990106850862503052e-01 3.191695511341094971e-01 3.604765608906745911e-02 -4.138876497745513916e-02
1.374000000000000000e+03 5.512407684326171875e+01 -1.133321189880371094e+01 -1.769045442342758179e-01 3.201158046722412109e+00 9.072760343551635742e-01 -2.697196006774902344e+00
1.375000000000000000e+03 5.642752838134765625e+01 -1.161123752593994141e+01 4.437176138162612915e-02 2.549321889877319336e+00 7.781080603599548340e-01 -1.963426589965820312e+00
1.376000000000000000e+03 7.362605285644531250e+01 -2.420780181884765625e+01 1.632077455520629883e+00 1.230377578735351562e+01 4.180756092071533203e+00 2.350238084793090820e+00
1.377000000000000000e+03 7.285899353027343750e+01 -2.521781349182128906e+01 1.251634955406188965e+00 6.218430042266845703e+00 2.241019487380981445e+00 2.578145027160644531e+00
1.378000000000000000e+03 5.304405593872070312e+01 2.540677833557128906e+01 1.092371582984924316e+00 5.960856914520263672e+00 2.115968465805053711e+00 -5.569113492965698242e-01
1.379000000000000000e+03 4.844871139526367188e+01 1.956534767150878906e+01 -1.989760637283325195e+00 1.108125329017639160e+00 -2.644905745983123779e-01 1.205466985702514648e+00
1.380000000000000000e+03 2.057766151428222656e+01 3.458464813232421875e+01 -7.676443457603454590e-01 4.441213607788085938e+00 1.102070808410644531e+00 7.241762429475784302e-02
1.381000000000000000e+03 1.973355293273925781e+01 3.051713943481445312e+01 1.703397631645202637e+00 1.012769126892089844e+01 3.549326658248901367e+00 -1.967337250709533691e+00
1.382000000000000000e+03 6.976879119873046875e+01 -1.209906101226806641e+01 -1.096678614616394043e+00 3.651407733559608459e-02 -3.180493712425231934e-01 -7.362558841705322266e-01
1.383000000000000000e+03 6.851238250732421875e+01 -1.178266525268554688e+01 5.503945350646972656e-01 1.043734669685363770e+00 4.782387614250183105e-01 -9.998136162757873535e-01
1.384000000000000000e+03 7.590889739990234375e+01 1.466856288909912109e+01 7.189472317695617676e-01 7.618897438049316406e+00 2.501353502273559570e+00 6.605513691902160645e-01
1.385000000000000000e+03 1.924322509765625000e+01 2.586655998229980469e+01 -5.724151730537414551e-01 5.650109767913818359e+00 1.523308396339416504e+00 2.691674232482910156e-01
1.386000000000000000e+03 6.838794708251953125e+01 -2.612752532958984375e+01 -2.975994110107421875e+00 9.893397688865661621e-01 -5.959963202476501465e-01 -1.631278246641159058e-01
1.387000000000000000e+03 8.313543319702148438e+00 2.343921661376953125e+01 6.922243833541870117e-01 1.533898830413818359e+00 6.678369641304016113e-01 -1.084872961044311523e+00
1.388000000000000000e+03 6.512085723876953125e+01 -6.272746086120605469e+00 8.717388510704040527e-01 1.220994281768798828e+01 3.924504518508911133e+00 1.339758932590484619e-01
1.389000000000000000e+03 7.815186309814453125e+01 1.653164100646972656e+01 3.406731784343719482e-02 6.683627605438232422e+00 2.015308380126953125e+00 6.234346628189086914e-01
1.390000000000000000e+03 5.888497924804687500e+01 2.814149141311645508e+00 -1.306599497795104980e+00 4.093927860260009766e+00 8.361985087394714355e-01 -2.207361936569213867e+00
1.391000000000000000e+03 6.570099639892578125e+01 6.455842494964599609e+00 -2.490414619445800781e+00 6.776425242424011230e-02 -7.267951369285583496e-01 8.290875703096389771e-03
1.392000000000000000e+03 4.446134948730468750e+01 6.804829120635986328e+00 2.521926462650299072e-01 5.306625843048095703e+00 1.667645573616027832e+00 -5.200675725936889648e-01
1.393000000000000000e+03 4.087682342529296875e+01 6.483391761779785156e+00 1.380999445915222168e+00 9.587610244750976562e+00 3.290582895278930664e+00 8.138776421546936035e-01
1.394000000000000000e+03 4.559007263183593750e+01 1.669965744018554688e+01 2.539942026138305664e+00 9.325019836425781250e+00 3.559488534927368164e+00 3.963056325912475586e+00
1.395000000000000000e+03 2.904860877990722656e+01 6.407759666442871094e+00 1.272883415222167969e+00 1.021717166900634766e+01 3.447016477584838867e+00 -1.436047196388244629e+00
1.396000000000000000e+03 2.710953330993652344e+01 7.451924085617065430e-01 -3.569673597812652588e-01 4.618433952331542969e+00 1.278439998626708984e+00 -2.552636861801147461e+00
1.397000000000000000e+03 5.895921707153320312e+01 -1.006610202789306641e+01 -1.195564389228820801e+00 1.214145898818969727e+00 5.574443843215703964e-03 8.694646358489990234e-01
1.398000000000000000e+03 6.514820861816406250e+01 -9.865977287292480469e+00 2.283704131841659546e-01 8.040697097778320312e+00 2.480720281600952148e+00 -7.734539508819580078e-01
1.399000000000000000e+03 6.233253097534179688e+01 1.979845428466796875e+01 8.983997702598571777e-01 6.539124965667724609e+00 2.231257438659667969e+00 3.465031623840332031e+00
1.400000000000000000e+03 8.797843933105468750e+00 -2.436325263977050781e+01 -2.257746934890747070e+00 -5.950966477394104004e-01 -8.558530807495117188e-01 2.492415904998779297e-01
1.401000000000000000e+03 6.649528741836547852e-01 -2.470647239685058594e+01 -1.343945860862731934e-01 3.633805274963378906e+00 1.049823164939880371e+00 3.264543786644935608e-02
1.402000000000000000e+03 5.312067985534667969e+00 -2.081038475036621094e+01 -7.071112990379333496e-01 2.611010789871215820e+00 5.711698532104492188e-01 5.115038529038429260e-02
1.403000000000000000e+03 7.415657806396484375e+01 -1.067696285247802734e+01 -3.943904042243957520e-01 4.182929039001464844e+00 1.136561512947082520e+00 1.395660281181335449e+00
1.404000000000000000e+03 7.228020191192626953e+00 3.567735671997070312e+01 -1.142617464065551758e+00 8.791517019271850586e-01 -7.903972268104553223e-02 2.343991845846176147e-01
1.405000000000000000e+03 5.498802566528320312e+01 -3.489807891845703125e+01 1.471833944320678711e+00 9.806774139404296875e+00 3.383582353591918945e+00 -7.269098758697509766e-01
1.406000000000000000e+03 7.072157287597656250e+01 6.510437488555908203e+00 -5.009543299674987793e-01 4.705106735229492188e+00 1.261245727539062500e+00 1.532509565353393555e+00
1.407000000000000000e+03 7.132359313964843750e+01 8.207062721252441406e+00 9.938404560089111328e-01 6.224056243896484375e+00 2.165369033813476562e+00 1.964268207550048828e+00
1.408000000000000000e+03 7.013491821289062500e+01 7.898759841918945312e+00 1.278850793838500977e+00 3.764413595199584961e+00 1.512979269027709961e+00 1.983807682991027832e+00
1.409000000000000000e+03 6.175906753540039062e+01 -2.390999984741210938e+01 1.976558685302734375e+00 3.556066989898681641e+00 1.659787654876708984e+00 -1.169760942459106445e+00
1.410000000000000000e+03 5.559502792358398438e+01 -9.879048347473144531e+00 6.490038037300109863e-01 2.215845108032226562e+00 8.594546318054199219e-01 -1.701181530952453613e+00
1.411000000000000000e+03 5.349081802368164062e+01 -8.039548873901367188e+00 2.228898048400878906e+00 5.492204189300537109e+00 2.316330671310424805e+00 -2.771059036254882812e+00
1.412000000000000000e+03 3.432785797119140625e+01 -2.387130558490753174e-01 7.660224288702011108e-02 9.169949293136596680e-01 2.980791628360748291e-01 1.061076045036315918e+00
1.413000000000000000e+03 5.861857414245605469e+00 2.682184982299804688e+01 1.067642688751220703e+00 6.591863632202148438e+00 2.297852039337158203e+00 -1.525704860687255859e+00
1.414000000000000000e+03 5.832982063293457031e+00 2.966656303405761719e+01 1.004923433065414429e-01 4.466639995574951172e+00 1.370139718055725098e+00 1.305106729269027710e-01
1.415000000000000000e+03 7.123889160156250000e+01 1.847062492370605469e+01 -1.006701707839965820e+00 5.941843509674072266e+00 1.480542540550231934e+00 -1.069737434387207031e+00
1.416000000000000000e+03 1.371150779724121094e+01 3.626965332031250000e+01 -5.569753050804138184e-01 2.259044647216796875e-01 -9.932124614715576172e-02 -2.993408739566802979e-01
1.417000000000000000e+03 3.097804260253906250e+01 1.166178512573242188e+01 2.493412494659423828e+00 5.755705356597900391e+00 2.474735498428344727e+00 4.234999656677246094e+00
1.418000000000000000e+03 3.151200294494628906e+01 1.265240859985351562e+01 -2.942096292972564697e-01 4.827037334442138672e+00 1.359848260879516602e+00 3.793269872665405273e+00
1.419000000000000000e+03 6.156945037841796875e+01 1.739862632751464844e+01 2.599375963211059570e+00 1.097810840606689453e+01 4.073245525360107422e+00 4.680006027221679688e+00
1.420000000000000000e+03 1.980377578735351562e+01 1.601829719543457031e+01 7.909023761749267578e-02 8.671169281005859375e+00 2.625077724456787109e+00 -1.947385549545288086e+00
1.421000000000000000e+03 2.067615699768066406e+01 1.541933059692382812e+01 1.337625831365585327e-01 1.196734523773193359e+01 3.630332231521606445e+00 -5.570135712623596191e-01
1.422000000000000000e+03 5.910570907592773438e+01 -2.715428352355957031e+01 -2.126095294952392578e+00 1.422040343284606934e+00 -2.112164795398712158e-01 9.369444847106933594e-01
1.423000000000000000e+03 6.732620239257812500e+01 3.682247400283813477e+00 -3.018278256058692932e-02 1.704585790634155273e+00 5.023208856582641602e-01 1.621419429779052734e+00
1.424000000000000000e+03 7.034034729003906250e+01 6.605342030525207520e-01 2.082311213016510010e-01 1.290605187416076660e+00 4.496509134769439697e-01 1.582299113273620605e+00
1.425000000000000000e+03 5.904629135131835938e+01 -1.182362651824951172e+01 -2.520779371261596680e-01 3.569023370742797852e+00 9.950836300849914551e-01 1.396350383758544922e+00
1.426000000000000000e+03 2.929695844650268555e+00 2.171394920349121094e+01 -2.847928106784820557e-01 1.345983266830444336e+00 3.183571398258209229e-01 -4.658323898911476135e-02
1.427000000000000000e+03 7.023747253417968750e+01 1.951469230651855469e+01 -1.988276481628417969e+00 4.218869686126708984e+00 6.691780090332031250e-01 -1.000021815299987793e+00
1.428000000000000000e+03 6.510164737701416016e+00 1.305886745452880859e+01 7.542541623115539551e-01 2.495732069015502930e+00 9.749958515167236328e-01 -1.113702654838562012e+00
1.429000000000000000e+03 1.035014247894287109e+01 9.535093307495117188e+00 2.720861196517944336e+00 6.237277030944824219e+00 2.687441349029541016e+00 -3.484721660614013672e+00
1.430000000000000000e+03 7.363922119140625000e+01 1.337888336181640625e+01 1.525135159492492676e+00 9.858282089233398438e+00 3.415025234222412109e+00 9.233290702104568481e-02
1.431000000000000000e+03 7.226852416992187500e+01 1.261649513244628906e+01 7.036303877830505371e-01 1.361325836181640625e+01 4.295066356658935547e+00 1.497133970260620117e-01
1.432000000000000000e+03 7.943100738525390625e+01 -1.663450431823730469e+01 -6.264406442642211914e-02 9.563638687133789062e+00 2.850298404693603516e+00 3.880306482315063477e-01
1.433000000000000000e+03 6.093466567993164062e+01 8.624941825866699219e+00 -8.362131565809249878e-02 5.698430538177490234e+00 1.684442758560180664e+00 -1.028581142425537109e+00
1.434000000000000000e+03 6.242030334472656250e+01 9.338181495666503906e+00 1.450881481170654297e+00 2.284409999847412109e+00 1.120587468147277832e+00 -2.141292333602905273e+00
1.435000000000000000e+03 6.232535552978515625e+01 8.005752563476562500e+00 -3.261858224868774414e-01 3.317466497421264648e+00 8.973842263221740723e-01 -1.449647665023803711e+00
1.436000000000000000e+03 2.616470336914062500e+01 -1.023012250661849976e-01 2.049581855535507202e-01 1.981701135635375977e+00 6.559977531433105469e-01 -1.436096787452697754e+00
1.437000000000000000e+03 5.670207977294921875e+00 3.239485168457031250e+01 -4.076350927352905273e-01 2.220610618591308594e+00 5.438926219940185547e-01 -3.257329463958740234e-01
1.438000000000000000e+03 6.006201171875000000e+01 -3.886169052124023438e+01 -2.291440963745117188e+00 -1.421585232019424438e-01 -7.300798296928405762e-01 -8.738337159156799316e-01
1.439000000000000000e+03 4.977460861206054688e+01 5.702371120452880859e+00 -2.653724670410156250e+00 -1.793010532855987549e-01 -8.499076962471008301e-01 5.629783868789672852e-01
1.440000000000000000e+03 4.527114105224609375e+01 -2.604409599304199219e+01 -1.082442045211791992e+00 3.035760879516601562e+00 5.859956741333007812e-01 -2.434358119964599609e+00
1.441000000000000000e+03 4.686283111572265625e+01 -1.914725112915039062e+01 1.228250026702880859e+00 9.735003471374511719e+00 3.288976192474365234e+00 2.514455556869506836e+00
1.442000000000000000e+03 6.527776336669921875e+01 8.141051232814788818e-02 1.236479133367538452e-01 5.089505672454833984e+00 1.563946008682250977e+00 1.058357834815979004e+00
1.443000000000000000e+03 6.635251617431640625e+01 -1.516561794281005859e+01 -1.299676537513732910e+00 2.772436380386352539e+00 4.418279528617858887e-01 7.504631280899047852e-01
1.444000000000000000e+03 6.476473999023437500e+01 -1.880192184448242188e+01 5.647287964820861816e-01 7.837391853332519531e+00 2.520636320114135742e+00 7.024392485618591309e-01
1.445000000000000000e+03 2.734089469909667969e+01 1.123971557617187500e+01 2.356541633605957031e+00 3.400456905364990234e+00 1.727099537849426270e+00 7.669947147369384766e-01
1.446000000000000000e+03 2.006970405578613281e+01 9.635820388793945312e+00 1.735967397689819336e+00 8.817021369934082031e+00 3.165896654129028320e+00 2.466134309768676758e+00
1.447000000000000000e+03 6.147641372680664062e+01 -2.518603134155273438e+01 7.316428422927856445e-01 1.780482172966003418e+00 7.536374926567077637e-01 -9.624397158622741699e-01
1.448000000000000000e+03 7.937239074707031250e+01 -2.213416671752929688e+01 6.772363185882568359e-02 6.499807357788085938e+00 1.970259308815002441e+00 1.267130076885223389e-01
1.449000000000000000e+03 4.725802993774414062e+01 -3.599698543548583984e+00 5.657711625099182129e-01 5.118972778320312500e+00 1.705423116683959961e+00 -1.778877019882202148e+00
1.450000000000000000e+03 5.108966064453125000e+01 -1.284669876098632812e+00 2.338067293167114258e-01 6.587477684020996094e+00 2.046385288238525391e+00 -1.383745670318603516e-01
1.451000000000000000e+03 1.186163902282714844e+01 2.132167053222656250e+01 -3.238053023815155029e-01 1.760754287242889404e-01 -4.431896656751632690e-02 9.422169998288154602e-03
1.452000000000000000e+03 5.013354492187500000e+01 -5.020995616912841797e+00 1.645536422729492188e+00 7.603473186492919922e+00 2.774702787399291992e+00 1.760326884686946869e-02
1.453000000000000000e+03 6.656962585449218750e+01 -3.585375213623046875e+01 3.198215961456298828e-01 6.462481498718261719e+00 2.034690856933593750e+00 -3.484579324722290039e-01
1.454000000000000000e+03 6.339576339721679688e+01 -1.894242095947265625e+01 6.312867999076843262e-01 7.132023334503173828e+00 2.328993082046508789e+00 -7.159441709518432617e-01
1.455000000000000000e+03 5.263458251953125000e+01 -9.305898666381835938e+00 1.083535313606262207e+00 5.624823570251464844e+00 2.012507677078247070e+00 -1.560731887817382812e+00
1.456000000000000000e+03 5.727143859863281250e+01 8.692148208618164062e+00 1.399826765060424805e+00 7.608262062072753906e+00 2.702426671981811523e+00 2.781119942665100098e-01
1.457000000000000000e+03 5.186247634887695312e+01 5.705577373504638672e+00 -7.717072963714599609e-01 7.886584401130676270e-01 5.085350945591926575e-03 1.434403419494628906e+00
1.458000000000000000e+03 7.819997406005859375e+01 -1.516359519958496094e+01 -3.849846124649047852e-01 9.412679672241210938e+00 2.708308458328247070e+00 6.888861656188964844e-01
1.459000000000000000e+03 1.663787484169006348e+00 -1.166770458221435547e+01 -8.447688072919845581e-02 -1.759887486696243286e-01 -7.813968509435653687e-02 -2.327116429805755615e-01
1.460000000000000000e+03 6.139650344848632812e+01 -3.950713348388671875e+01 -2.136495351791381836e+00 -5.919250845909118652e-01 -8.185260891914367676e-01 1.584908664226531982e-01
1.461000000000000000e+03 2.030160140991210938e+01 2.670924949645996094e+01 -9.977101534605026245e-02 8.854866981506347656e+00 2.626528978347778320e+00 -8.506449460983276367e-01
1.462000000000000000e+03 5.814997553825378418e-01 3.193233108520507812e+01 3.163503110408782959e-02 2.184345483779907227e+00 6.647942066192626953e-01 -3.031647801399230957e-01
1.463000000000000000e+03 1.920960235595703125e+01 2.298802566528320312e+01 2.567877471446990967e-01 4.137101173400878906e+00 1.318166732788085938e+00 -2.075814455747604370e-01
1.464000000000000000e+03 7.666039943695068359e+00 2.163331985473632812e+01 -4.232726097106933594e-01 2.273644447326660156e+00 5.551115870475769043e-01 -9.938195943832397461e-01
1.465000000000000000e+03 1.776792144775390625e+01 2.342747688293457031e+01 -4.531832411885261536e-02 6.327962875366210938e-02 5.388392601162195206e-03 -3.834663033485412598e-01
1.466000000000000000e+03 5.137899398803710938e+01 -1.601421737670898438e+01 -5.308280944824218750e+00 5.181780550628900528e-03 -1.590929746627807617e+00 -9.651950597763061523e-01
1.467000000000000000e+03 5.305148696899414062e+01 -1.385925674438476562e+01 -9.234343171119689941e-01 3.000614881515502930e+00 6.231541633605957031e-01 -3.025747299194335938e+00
1.468000000000000000e+03 6.045993804931640625e+00 3.460065841674804688e+01 -1.077972769737243652e+00 1.710911512374877930e+00 1.898816227912902832e-01 -3.134458661079406738e-01
1.469000000000000000e+03 7.306568145751953125e+01 -1.433601951599121094e+01 -7.311657667160034180e-01 3.058761835098266602e+00 6.982787847518920898e-01 7.382922619581222534e-02
1.470000000000000000e+03 7.127151489257812500e+01 -1.703138351440429688e+01 7.604869604110717773e-01 8.885934352874755859e-01 4.947241246700286865e-01 -6.112854480743408203e-01
1.471000000000000000e+03 5.350285720825195312e+01 -1.006280994415283203e+01 1.012475609779357910e+00 4.640695571899414062e+00 1.695951342582702637e+00 -2.324260234832763672e+00
1.472000000000000000e+03 2.040081024169921875e+01 1.290176582336425781e+01 -6.525209546089172363e-01 1.205769824981689453e+01 3.421553134918212891e+00 -5.724337100982666016e-01
1.473000000000000000e+03 1.934425163269042969e+01 8.683711051940917969e+00 1.382243394851684570e+00 4.985568046569824219e+00 1.910343408584594727e+00 2.686399459838867188e+00
1.474000000000000000e+03 1.729555892944335938e+01 3.317395401000976562e+01 5.494201779365539551e-01 1.317561149597167969e+00 5.600944161415100098e-01 -1.006999135017395020e+00
1.475000000000000000e+03 6.683947753906250000e+01 -2.652073478698730469e+01 -1.932417869567871094e+00 6.180144786834716797e+00 1.274317979812622070e+00 -2.664458036422729492e+00
1.476000000000000000e+03 1.472622871398925781e+01 2.024252891540527344e+01 -2.591980695724487305e-01 -7.503297924995422363e-01 -3.028583526611328125e-01 5.007487535476684570e-01
1.477000000000000000e+03 1.613064002990722656e+01 1.876137924194335938e+01 -1.788809537887573242e+00 -8.014003038406372070e-01 -7.770629525184631348e-01 8.731877207756042480e-01
1.478000000000000000e+03 2.261803054809570312e+01 2.877030944824218750e+01 1.837693154811859131e-01 5.496611118316650391e+00 1.704114079475402832e+00 1.406836062669754028e-01
1.479000000000000000e+03 1.679786300659179688e+01 2.325818824768066406e+01 -7.611314654350280762e-01 -7.429147958755493164e-01 -4.512138962745666504e-01 -8.882845640182495117e-01
1.480000000000000000e+03 1.441981697082519531e+01 2.288143920898437500e+01 -4.338564276695251465e-01 -1.106505468487739563e-01 -1.633520871400833130e-01 -2.180368602275848389e-01
1.481000000000000000e+03 7.480222582817077637e-01 2.901947212219238281e+01 1.198096871376037598e-01 7.287762761116027832e-01 2.545757889747619629e-01 -3.636600375175476074e-01
1.482000000000000000e+03 4.674685001373291016e+00 2.825018501281738281e+01 6.465095877647399902e-01 4.135657787322998047e+00 1.434650182723999023e+00 -1.000288963317871094e+00
1.483000000000000000e+03 7.153301239013671875e+00 3.482540845870971680e+00 -2.340062558650970459e-01 6.865637898445129395e-01 1.357672512531280518e-01 1.527421623468399048e-01
1.484000000000000000e+03 1.522582054138183594e+01 6.756197452545166016e+00 -6.862872123718261719e+00 -4.201774299144744873e-01 -2.184914827346801758e+00 -1.198282241821289062e+00
1.485000000000000000e+03 1.322915935516357422e+01 2.144188308715820312e+01 -3.778448104858398438e-01 -1.689819246530532837e-01 -1.640480309724807739e-01 2.322146594524383545e-01
1.486000000000000000e+03 1.167815399169921875e+01 2.258041000366210938e+01 -5.731648206710815430e-01 5.515235662460327148e-02 -1.554037481546401978e-01 8.964440971612930298e-02
1.487000000000000000e+03 6.425170421600341797e+00 2.377950096130371094e+01 1.890035420656204224e-01 3.465456485748291016e+00 1.096338033676147461e+00 -1.136422991752624512e+00
1.488000000000000000e+03 7.095433044433593750e+01 -1.493558502197265625e+01 -1.813078373670578003e-01 1.181549668312072754e+00 3.000725507736206055e-01 -1.446411728858947754e+00
1.489000000000000000e+03 3.749315643310546875e+01 3.391350555419921875e+01 -6.855380535125732422e-01 2.428421497344970703e+00 5.228649973869323730e-01 9.715380072593688965e-01
1.490000000000000000e+03 3.162440490722656250e+01 2.865689277648925781e+01 4.832835495471954346e-01 5.862439632415771484e+00 1.903716921806335449e+00 -1.261351704597473145e+00
1.491000000000000000e+03 6.301051712036132812e+01 -2.423731040954589844e+01 1.326714396476745605e+00 5.388474941253662109e+00 2.014556884765625000e+00 -2.058351278305053711e+00
1.492000000000000000e+03 6.502917480468750000e+01 -2.728508186340332031e+01 -1.267234444618225098e+00 8.617887496948242188e+00 2.205195903778076172e+00 -2.605793476104736328e+00
1.493000000000000000e+03 3.646361541748046875e+01 2.133127975463867188e+01 5.472216606140136719e-01 4.258216381072998047e+00 1.441631436347961426e+00 -1.590044736862182617e+00
1.494000000000000000e+03 7.813715362548828125e+01 -2.468804550170898438e+01 2.310554981231689453e-01 7.498541831970214844e+00 2.318879127502441406e+00 -4.247842729091644287e-01
1.495000000000000000e+03 7.542378234863281250e+01 -2.446076202392578125e+01 1.077479720115661621e+00 8.820637702941894531e+00 2.969435214996337891e+00 -3.601096943020820618e-02
1.496000000000000000e+03 5.387345123291015625e+01 -2.484372711181640625e+01 -1.830290555953979492e+00 3.940588474273681641e+00 6.330893635749816895e-01 2.065865755081176758e+00
1.497000000000000000e+03 6.542913055419921875e+01 -4.980474472045898438e+00 1.159523367881774902e+00 1.102172279357910156e+01 3.654373884201049805e+00 2.018834114074707031e+00
1.498000000000000000e+03 6.596250152587890625e+01 -3.698640823364257812e+00 2.180693864822387695e+00 7.623845577239990234e+00 2.941361904144287109e+00 3.093583583831787109e+00
1.499000000000000000e+03 4.561653518676757812e+01 9.138110160827636719e+00 7.411723136901855469e-01 5.040914058685302734e+00 1.734625935554504395e+00 -1.472493052482604980e+00
1.500000000000000000e+03 4.466719818115234375e+01 1.110223579406738281e+01 5.415103435516357422e-01 9.920848846435546875e+00 3.138707876205444336e+00 -1.149100780487060547e+00
1.501000000000000000e+03 5.544570922851562500e+01 2.918036937713623047e+00 -9.436236619949340820e-01 3.922413587570190430e+00 8.936369419097900391e-01 1.275243163108825684e+00
1.502000000000000000e+03 7.115155029296875000e+01 -8.428345918655395508e-01 -2.220568180084228516e+00 -5.007221549749374390e-02 -6.811921000480651855e-01 2.946299314498901367e-01
1.503000000000000000e+03 3.568577957153320312e+01 3.496894454956054688e+01 -1.632176280021667480e+00 4.256897449493408203e+00 7.874163985252380371e-01 5.275695323944091797e-01
1.504000000000000000e+03 7.289193725585937500e+01 -3.275774121284484863e-01 -9.610544443130493164e-01 3.185243606567382812e+00 6.672567725181579590e-01 -1.068191409111022949e+00
1.505000000000000000e+03 6.909106445312500000e+01 1.156541466712951660e+00 2.715721428394317627e-01 1.842842936515808105e+00 6.343245506286621094e-01 1.921063303947448730e+00
1.506000000000000000e+03 6.301921081542968750e+01 -3.817595291137695312e+01 -2.704411983489990234e+00 4.798368513584136963e-01 -6.673725247383117676e-01 -1.650491654872894287e-01
1.507000000000000000e+03 5.306401443481445312e+01 3.152249336242675781e+00 -1.258005976676940918e+00 4.635701656341552734e+00 1.013308644294738770e+00 2.415983676910400391e+00
1.508000000000000000e+03 5.431151580810546875e+01 6.491355895996093750e+00 1.733590483665466309e+00 7.181452274322509766e+00 2.674512863159179688e+00 2.505509614944458008e+00
1.509000000000000000e+03 7.731363677978515625e+01 3.242416381835937500e+01 4.947632178664207458e-02 6.752282142639160156e+00 2.040527582168579102e+00 7.032327353954315186e-02
1.510000000000000000e+03 7.932268524169921875e+01 3.603152084350585938e+01 -1.967301219701766968e-02 7.304688453674316406e+00 2.185504674911499023e+00 2.746885083615779877e-02
1.511000000000000000e+03 7.938969421386718750e+01 -2.075277900695800781e+01 8.739572018384933472e-02 6.922554016113281250e+00 2.102984905242919922e+00 2.948351502418518066e-01
1.512000000000000000e+03 7.659877014160156250e+01 -2.810148811340332031e+01 -4.262281954288482666e-01 7.723273277282714844e+00 2.189113616943359375e+00 -1.990397647023200989e-02
1.513000000000000000e+03 7.935935211181640625e+01 -2.771907424926757812e+01 -3.691831231117248535e-02 7.607524394989013672e+00 2.271181821823120117e+00 -1.150488927960395813e-01
1.514000000000000000e+03 7.722139739990234375e+01 -3.780109405517578125e+01 1.246102433651685715e-02 7.453198432922363281e+00 2.239697933197021484e+00 -2.226255238056182861e-01
1.515000000000000000e+03 7.932656097412109375e+01 -3.474468231201171875e+01 5.852059274911880493e-02 7.650723457336425781e+00 2.312773227691650391e+00 -1.833200454711914062e-02
1.516000000000000000e+03 7.547273254394531250e+01 -2.751161003112792969e+01 -7.174629569053649902e-01 7.737591266632080078e+00 2.106038331985473633e+00 4.500862658023834229e-01
1.517000000000000000e+03 7.576928710937500000e+01 -2.880016136169433594e+01 -3.427959680557250977e-01 7.253721237182617188e+00 2.073277711868286133e+00 3.978344798088073730e-01
1.518000000000000000e+03 7.924517822265625000e+01 -3.052483749389648438e+01 -2.610119991004467010e-02 7.740870952606201172e+00 2.314430952072143555e+00 1.085788290947675705e-02
1.519000000000000000e+03 7.787372589111328125e+01 -3.328925704956054688e+01 9.491879492998123169e-02 7.338510990142822266e+00 2.230028867721557617e+00 1.436412613838911057e-02
1.520000000000000000e+03 7.484840393066406250e+01 -3.742151641845703125e+01 2.455957792699337006e-02 6.853897571563720703e+00 2.063537120819091797e+00 -5.559315681457519531e-01
1.521000000000000000e+03 7.628712463378906250e+01 -3.895000839233398438e+01 -1.044422090053558350e-01 7.445576667785644531e+00 2.202340364456176758e+00 -3.225856721401214600e-01
1.522000000000000000e+03 7.821059417724609375e+01 1.518294715881347656e+01 1.034947261214256287e-01 6.403758049011230469e+00 1.952175736427307129e+00 5.399092435836791992e-01
1.523000000000000000e+03 7.939825439453125000e+01 1.527950000762939453e+01 1.648434251546859741e-02 5.724580764770507812e+00 1.722319483757019043e+00 2.183596044778823853e-01
1.524000000000000000e+03 7.937923431396484375e+01 2.222736358642578125e+01 -3.742891177535057068e-02 7.667112827301025391e+00 2.288905143737792969e+00 2.770159207284450531e-02
1.525000000000000000e+03 7.853924560546875000e+01 3.296245956420898438e+01 1.879436336457729340e-02 7.046173572540283203e+00 2.119490385055541992e+00 6.346621364355087280e-02
1.526000000000000000e+03 7.795074462890625000e+01 2.774731636047363281e+01 6.316055357456207275e-02 6.951662540435791016e+00 2.104446887969970703e+00 -1.509922891855239868e-01
1.527000000000000000e+03 7.930732727050781250e+01 2.783948898315429688e+01 -1.894240034744143486e-03 7.224183559417724609e+00 2.166686773300170898e+00 -5.871244892477989197e-02
1.528000000000000000e+03 7.808063507080078125e+01 2.491065597534179688e+01 -1.915720291435718536e-02 7.181842803955078125e+00 2.148805618286132812e+00 -1.758621335029602051e-01
1.529000000000000000e+03 7.812664031982421875e+01 2.349738502502441406e+01 -1.161508485674858093e-01 7.299327373504638672e+00 2.154953002929687500e+00 -9.943364560604095459e-02
1.530000000000000000e+03 7.270292663574218750e+01 1.580629825592041016e+01 8.792971372604370117e-01 9.331400871276855469e+00 3.063209295272827148e+00 -3.343662917613983154e-01
1.531000000000000000e+03 7.696201324462890625e+01 1.920781135559082031e+01 -3.530225157737731934e-01 7.282541275024414062e+00 2.078855514526367188e+00 5.271125435829162598e-01
1.532000000000000000e+03 7.386944580078125000e+01 9.109398841857910156e+00 5.836225748062133789e-01 8.292113304138183594e+00 2.662720918655395508e+00 -3.994987905025482178e-01
1.533000000000000000e+03 7.808137512207031250e+01 9.635209083557128906e+00 1.975941359996795654e-01 6.720006942749023438e+00 2.075280427932739258e+00 -7.479353547096252441e-01
1.534000000000000000e+03 7.934774017333984375e+01 9.714413642883300781e+00 7.353876531124114990e-02 5.941620826721191406e+00 1.804547786712646484e+00 -2.945237755775451660e-01
1.535000000000000000e+03 7.491713714599609375e+01 -1.686035919189453125e+01 -4.455780088901519775e-01 7.436871051788330078e+00 2.097388029098510742e+00 6.484391689300537109e-01
1.536000000000000000e+03 7.934283447265625000e+01 -1.385312938690185547e+01 -6.011609360575675964e-02 1.065484809875488281e+01 3.178419589996337891e+00 7.484192401170730591e-02
1.537000000000000000e+03 7.942107391357421875e+01 -1.938174438476562500e+01 -3.753808140754699707e-02 7.691899776458740234e+00 2.296308517456054688e+00 3.816844820976257324e-01
1.538000000000000000e+03 7.696212768554687500e+01 -2.287132835388183594e+01 7.899274826049804688e-01 8.148203849792480469e+00 2.681439399719238281e+00 1.239816695451736450e-01
1.539000000000000000e+03 7.944650268554687500e+01 -6.850343227386474609e+00 1.067848131060600281e-01 7.298351764678955078e+00 2.221540927886962891e+00 -4.082138463854789734e-02
1.540000000000000000e+03 7.951451110839843750e+01 -5.507416248321533203e+00 4.880166798830032349e-02 7.441576957702636719e+00 2.247113466262817383e+00 1.806881725788116455e-01
1.541000000000000000e+03 7.806826782226562500e+01 4.351347684860229492e-02 -2.615459263324737549e-01 8.880121231079101562e+00 2.585572481155395508e+00 -5.135928094387054443e-02
1.542000000000000000e+03 7.938103485107421875e+01 1.387493729591369629e+00 -4.099476616829633713e-03 9.694489479064941406e+00 2.907116889953613281e+00 -1.057868599891662598e-01
1.543000000000000000e+03 7.806510925292968750e+01 8.221393585205078125e+00 2.531588077545166016e-02 7.061006069183349609e+00 2.125896692276000977e+00 -8.659336566925048828e-01
1.544000000000000000e+03 7.850218200683593750e+01 4.022721481323242188e+01 -2.549418248236179352e-02 7.317432403564453125e+00 2.187581539154052734e+00 -3.575693070888519287e-02
1.545000000000000000e+03 7.594838714599609375e+01 3.715137481689453125e+01 -1.108638420701026917e-01 6.648781299591064453e+00 1.961375355720520020e+00 2.292523235082626343e-01
1.546000000000000000e+03 7.692099761962890625e+01 9.523415565490722656e+00 2.480941861867904663e-01 7.196915149688720703e+00 2.233502864837646484e+00 -9.396269917488098145e-01
1.547000000000000000e+03 7.812909698486328125e+01 1.395101666450500488e+00 -2.632975280284881592e-01 8.724817276000976562e+00 2.538455724716186523e+00 -2.907254993915557861e-01
1.548000000000000000e+03 7.817200469970703125e+01 2.691311597824096680e+00 -1.370740234851837158e-01 8.485071182250976562e+00 2.504399299621582031e+00 -5.597397089004516602e-01
1.549000000000000000e+03 7.524298858642578125e+01 -2.969036340713500977e+00 -3.405178487300872803e-01 8.746007919311523438e+00 2.521647214889526367e+00 -6.324993968009948730e-01
1.550000000000000000e+03 7.530237579345703125e+01 3.767482936382293701e-02 -9.014052152633666992e-01 6.991732597351074219e+00 1.827098131179809570e+00 -8.489667177200317383e-01
1.551000000000000000e+03 7.580796813964843750e+01 -5.466920375823974609e+00 1.272052645683288574e+00 1.215839385986328125e+01 4.029133796691894531e+00 -1.008694529533386230e+00
1.552000000000000000e+03 7.855388641357421875e+01 -5.334391117095947266e+00 3.353459239006042480e-01 8.672101020812988281e+00 2.702234268188476562e+00 4.448964297771453857e-01
1.553000000000000000e+03 7.799069976806640625e+01 -1.370915985107421875e+01 -4.450707435607910156e-01 9.460318565368652344e+00 2.704574346542358398e+00 9.927324950695037842e-02
1.554000000000000000e+03 7.550559234619140625e+01 -1.424037170410156250e+01 -1.084857463836669922e+00 7.375367164611816406e+00 1.887152910232543945e+00 8.070843219757080078e-01
1.555000000000000000e+03 7.593180847167968750e+01 -1.846891212463378906e+01 1.617382019758224487e-01 8.443968772888183594e+00 2.581712007522583008e+00 1.190928220748901367e+00
1.556000000000000000e+03 7.814118957519531250e+01 -2.043289947509765625e+01 1.911803483963012695e-01 7.872960090637207031e+00 2.419242143630981445e+00 7.807190418243408203e-01
1.557000000000000000e+03 7.792272949218750000e+01 -9.390115737915039062e+00 2.912445962429046631e-01 9.432407379150390625e+00 2.917095661163330078e+00 -1.207909345626831055e+00
1.558000000000000000e+03 5.388441848754882812e+01 -3.418489456176757812e+01 1.836345076560974121e+00 8.012600898742675781e+00 2.954683780670166016e+00 -2.948620617389678955e-01
1.559000000000000000e+03 5.544254684448242188e+01 -2.969531822204589844e+01 1.028927683830261230e+00 7.604662895202636719e+00 2.590077161788940430e+00 1.765649795532226562e+00
1.560000000000000000e+03 5.660351181030273438e+01 -3.044438362121582031e+01 1.816208481788635254e+00 9.608974456787109375e+00 3.427555084228515625e+00 3.269725561141967773e+00
1.561000000000000000e+03 4.475666427612304688e+01 2.235707664489746094e+01 9.498661160469055176e-01 6.248363494873046875e+00 2.159468889236450195e+00 3.255820989608764648e+00
1.562000000000000000e+03 2.360113525390625000e+01 1.290920257568359375e+01 9.783511757850646973e-01 5.313817977905273438e+00 1.887650728225708008e+00 -1.709127664566040039e+00
1.563000000000000000e+03 3.973269271850585938e+01 3.755940628051757812e+01 -5.953993797302246094e-01 1.422260284423828125e+00 2.480582892894744873e-01 3.515202701091766357e-01
1.564000000000000000e+03 7.486593627929687500e+01 -4.745749473571777344e+00 1.236749410629272461e+00 1.204151439666748047e+01 3.983479022979736328e+00 -2.596782445907592773e+00
1.565000000000000000e+03 2.047289466857910156e+01 1.706402778625488281e+01 -2.932191133499145508e+00 9.150093078613281250e+00 1.865370631217956543e+00 1.207904577255249023e+00
1.566000000000000000e+03 1.972442626953125000e+01 1.774912261962890625e+01 -2.109163045883178711e+00 6.860778331756591797e+00 1.425484657287597656e+00 -2.128172665834426880e-01
1.567000000000000000e+03 5.935170364379882812e+01 1.229985904693603516e+01 1.499680638313293457e+00 8.545156478881835938e+00 3.013451337814331055e+00 2.996749281883239746e-01
1.568000000000000000e+03 5.475046920776367188e+01 9.025885581970214844e+00 1.397933602333068848e+00 1.237525081634521484e+01 4.131955623626708984e+00 2.248905181884765625e+00
1.569000000000000000e+03 7.544705963134765625e+01 -6.806479930877685547e+00 6.868268847465515137e-01 1.445231628417968750e+01 4.541742801666259766e+00 -8.226738572120666504e-01
1.570000000000000000e+03 7.532609558105468750e+01 -8.197414398193359375e+00 7.470788955688476562e-01 1.449596118927001953e+01 4.572912216186523438e+00 6.165096163749694824e-01
1.571000000000000000e+03 3.283687210083007812e+01 1.236426734924316406e+01 -1.964163661003112793e+00 1.287678837776184082e+00 -2.029454410076141357e-01 1.475858092308044434e+00
1.572000000000000000e+03 3.406533050537109375e+01 1.231575393676757812e+01 -4.052452087402343750e+00 -1.212778612971305847e-01 -1.252118945121765137e+00 8.395726978778839111e-02
1.573000000000000000e+03 1.096045398712158203e+01 3.408968925476074219e+00 4.887861311435699463e-01 8.103823661804199219e-01 3.897505402565002441e-01 -1.541087388992309570e+00
1.574000000000000000e+03 6.440683746337890625e+01 -4.497853755950927734e+00 1.942732334136962891e+00 9.350385665893554688e+00 3.387935400009155273e+00 5.053482055664062500e-01
1.575000000000000000e+03 5.862633895874023438e+01 -3.854595565795898438e+01 -1.631783008575439453e+00 2.548856735229492188e+00 2.751221060752868652e-01 -8.288373798131942749e-02
1.576000000000000000e+03 6.609764862060546875e+01 -9.407783508300781250e+00 1.681596159934997559e+00 6.498314380645751953e+00 2.453973054885864258e+00 -3.206904649734497070e+00
1.577000000000000000e+03 3.521845626831054688e+01 2.096470451354980469e+01 6.363413333892822266e-01 5.785614490509033203e+00 1.926586866378784180e+00 -1.132481694221496582e+00
1.578000000000000000e+03 8.103510856628417969e+00 1.274021339416503906e+01 8.585240244865417480e-01 4.131973266601562500e+00 1.497149229049682617e+00 -1.083331823348999023e+00
1.579000000000000000e+03 4.651884460449218750e+01 1.782814979553222656e+01 2.333581209182739258e+00 5.628563404083251953e+00 2.388643264770507812e+00 3.504611968994140625e+00
1.580000000000000000e+03 9.205701828002929688e+00 1.646852684020996094e+01 -5.537028312683105469e-01 2.950129508972167969e+00 7.189279794692993164e-01 -5.125656723976135254e-01
1.581000000000000000e+03 2.185292053222656250e+01 1.229139804840087891e+01 8.188574910163879395e-01 8.286309242248535156e+00 2.731549978256225586e+00 -9.117761850357055664e-01
1.582000000000000000e+03 5.039261627197265625e+01 2.907849693298339844e+01 1.779933691024780273e+00 6.886876106262207031e+00 2.600043058395385742e+00 1.246559977531433105e+00
1.583000000000000000e+03 1.419433879852294922e+01 3.184793472290039062e+00 3.142608404159545898e+00 1.661429643630981445e+00 1.441211462020874023e+00 -3.822207450866699219e+00
1.584000000000000000e+03 1.720226097106933594e+01 5.406612873077392578e+00 -1.106682538986206055e+00 3.703703641891479492e+00 7.791063189506530762e-01 2.380083322525024414e+00
1.585000000000000000e+03 1.010520553588867188e+01 6.782850265502929688e+00 8.852793574333190918e-01 3.136416196823120117e+00 1.206508636474609375e+00 -1.536504507064819336e+00
1.586000000000000000e+03 7.897536277770996094e+00 2.658786773681640625e+00 -5.072206258773803711e-01 4.862664937973022461e-01 -6.286237388849258423e-03 -3.260184451937675476e-02
1.587000000000000000e+03 7.357779693603515625e+01 -1.329406642913818359e+01 -9.080041646957397461e-01 3.712359905242919922e+00 8.413067460060119629e-01 8.111439943313598633e-01
1.588000000000000000e+03 4.418446350097656250e+01 3.195764923095703125e+01 3.408834636211395264e-01 2.012816190719604492e+00 7.061098814010620117e-01 -1.139273762702941895e+00
1.589000000000000000e+03 3.361713409423828125e+01 2.804133033752441406e+01 1.315506935119628906e+00 9.140970230102539062e+00 3.136943101882934570e+00 -2.889569699764251709e-01
1.590000000000000000e+03 3.550461959838867188e+01 3.104069709777832031e+01 8.727970123291015625e-01 8.955961227416992188e+00 2.948627471923828125e+00 2.099200487136840820e+00
1.591000000000000000e+03 5.490657806396484375e+01 1.169944763183593750e+01 5.974230766296386719e-01 1.042465019226074219e+01 3.306622028350830078e+00 -4.176397025585174561e-01
1.592000000000000000e+03 5.613183975219726562e+01 1.575089359283447266e+01 1.487479686737060547e+00 6.343861103057861328e+00 2.349402189254760742e+00 -5.210934877395629883e-01
1.593000000000000000e+03 4.512694931030273438e+01 3.306853103637695312e+01 -7.266632318496704102e-01 4.191065788269042969e+00 1.039320826530456543e+00 -9.955252408981323242e-01
1.594000000000000000e+03 5.822812271118164062e+01 -2.801929283142089844e+01 1.249993085861206055e+00 4.740479946136474609e+00 1.797141909599304199e+00 1.867980599403381348e+00
1.595000000000000000e+03 5.660464859008789062e+01 -2.694291305541992188e+01 -2.073348283767700195e+00 7.028548240661621094e+00 1.486559987068176270e+00 1.925742387771606445e+00
1.596000000000000000e+03 4.653269958496093750e+01 1.943769454956054688e+01 -1.432887077331542969e+00 6.079021453857421875e+00 1.393840312957763672e+00 3.302433252334594727e+00
1.597000000000000000e+03 4.569955062866210938e+01 1.846097755432128906e+01 -6.943915486335754395e-01 7.196835994720458984e+00 1.950733304023742676e+00 2.529244422912597656e+00
1.598000000000000000e+03 5.916085052490234375e+01 1.107494354248046875e+01 1.484561324119567871e+00 7.862508296966552734e+00 2.804120779037475586e+00 1.412901580333709717e-01
1.599000000000000000e+03 5.181108856201171875e+01 1.703367996215820312e+01 6.861207485198974609e-01 2.023790121078491211e+00 8.129732608795166016e-01 -1.548361897468566895e+00
1.600000000000000000e+03 5.019192504882812500e+01 -3.069799613952636719e+01 3.152202129364013672e+00 7.347767829895019531e+00 3.149991035461425781e+00 -1.593140959739685059e+00
1.601000000000000000e+03 6.756168365478515625e+01 -3.287084579467773438e+01 1.424605488777160645e+00 7.507481098175048828e+00 2.679625988006591797e+00 -1.702633857727050781e+00
1.602000000000000000e+03 6.707393646240234375e+01 -3.030096626281738281e+01 2.925011157989501953e+00 6.568154335021972656e+00 2.847949743270874023e+00 -2.175080537796020508e+00
1.603000000000000000e+03 6.268594741821289062e+01 -7.727005004882812500e+00 1.882663726806640625e+00 8.994296073913574219e+00 3.263087987899780273e+00 1.353588998317718506e-01
1.604000000000000000e+03 6.453889465332031250e+01 -7.395981788635253906e+00 1.656816005706787109e+00 1.086478233337402344e+01 3.756479501724243164e+00 -9.244332909584045410e-01
1.605000000000000000e+03 4.070696640014648438e+01 1.156925392150878906e+01 3.908175528049468994e-01 6.851625442504882812e+00 2.172732830047607422e+00 1.079370751976966858e-01
1.606000000000000000e+03 3.498572921752929688e+01 3.406570434570312500e+01 -1.036016702651977539e+00 5.792308807373046875e+00 1.426887631416320801e+00 2.647261917591094971e-01
1.607000000000000000e+03 2.945544052124023438e+01 3.105937004089355469e+01 5.108346343040466309e-01 2.836775302886962891e+00 1.004282951354980469e+00 -1.515138030052185059e+00
1.608000000000000000e+03 1.363648509979248047e+01 -1.335393238067626953e+01 -5.346417427062988281e+00 -1.280941963195800781e-01 -1.642353534698486328e+00 1.774121522903442383e+00
1.609000000000000000e+03 7.818157958984375000e+01 -2.961417198181152344e+00 -2.055782228708267212e-01 8.955175399780273438e+00 2.624879121780395508e+00 7.006814479827880859e-01
1.610000000000000000e+03 4.347727966308593750e+01 1.406866550445556641e+01 1.818143725395202637e+00 9.331366539001464844e+00 3.344853162765502930e+00 8.244925737380981445e-01
1.611000000000000000e+03 3.802898788452148438e+01 1.063539409637451172e+01 4.463375210762023926e-01 3.330931425094604492e+00 1.133180618286132812e+00 -1.166263222694396973e+00
1.612000000000000000e+03 6.641314697265625000e+01 -6.566507220268249512e-01 3.929882049560546875e-01 4.372682094573974609e+00 1.429701089859008789e+00 1.850490689277648926e+00
1.613000000000000000e+03 6.318348693847656250e+01 -2.194930553436279297e+00 1.154039025306701660e+00 7.792931556701660156e+00 2.684091091156005859e+00 -1.534518301486968994e-01
1.614000000000000000e+03 3.493844985961914062e+01 2.815998458862304688e+01 7.845128178596496582e-01 1.318337154388427734e+01 4.190365314483642578e+00 -1.264516822993755341e-02
1.615000000000000000e+03 5.621955871582031250e+01 -2.831724739074707031e+01 5.767356976866722107e-02 7.559985160827636719e+00 2.285297632217407227e+00 2.143222808837890625e+00
1.616000000000000000e+03 7.810385894775390625e+01 -7.887272357940673828e+00 6.705822944641113281e-01 9.117840766906738281e+00 2.936526775360107422e+00 -5.507364273071289062e-01
1.617000000000000000e+03 7.453311920166015625e+01 -1.716772556304931641e+00 -8.529481291770935059e-01 6.499148845672607422e+00 1.693860292434692383e+00 -9.725726842880249023e-01
1.618000000000000000e+03 7.351811218261718750e+01 -2.344162940979003906e+00 3.058543503284454346e-01 4.040326595306396484e+00 1.303854227066040039e+00 -1.321764945983886719e+00
1.619000000000000000e+03 6.793151092529296875e+01 -3.418273162841796875e+01 1.098542809486389160e+00 6.424155235290527344e+00 2.256809473037719727e+00 -1.505925416946411133e+00
1.620000000000000000e+03 7.155306243896484375e+01 -2.923010635375976562e+01 8.501768112182617188e-01 3.278832197189331055e+00 1.238702654838562012e+00 1.057718038558959961e+00
1.621000000000000000e+03 6.409809875488281250e+01 -2.637124633789062500e+01 -1.487008690834045410e+00 7.686681270599365234e+00 1.859901785850524902e+00 -2.788342952728271484e+00
1.622000000000000000e+03 3.407562637329101562e+01 -1.172864246368408203e+01 1.144106030464172363e+00 2.766860485076904297e+00 1.173290014266967773e+00 6.753287464380264282e-02
1.623000000000000000e+03 3.010742378234863281e+01 -7.462366580963134766e+00 8.862659931182861328e-01 9.681416511535644531e+00 3.170304775238037109e+00 3.752252757549285889e-01
1.624000000000000000e+03 3.469707107543945312e+01 2.214689445495605469e+01 7.605932652950286865e-02 7.724357604980468750e+00 2.340125083923339844e+00 -7.514992952346801758e-01
1.625000000000000000e+03 3.593181991577148438e+01 2.259882545471191406e+01 -1.709160804748535156e-01 5.591187000274658203e+00 1.626081347465515137e+00 -1.451341629028320312e+00
1.626000000000000000e+03 4.592380523681640625e+01 3.229423522949218750e+01 -4.827220141887664795e-01 5.207207202911376953e+00 1.417345523834228516e+00 -6.312584280967712402e-01
1.627000000000000000e+03 6.719390106201171875e+01 -1.171989727020263672e+01 2.755262851715087891e-01 2.988525390625000000e+00 9.792155027389526367e-01 -1.196851372718811035e+00
1.628000000000000000e+03 7.085942840576171875e+01 -1.358501815795898438e+01 -2.529981732368469238e-01 2.930695116519927979e-01 1.202140655368566513e-02 -1.253479361534118652e+00
1.629000000000000000e+03 3.190397262573242188e+01 2.759768962860107422e+00 -7.474713325500488281e-01 1.527517318725585938e+00 2.340137809514999390e-01 -1.490072607994079590e-01
1.630000000000000000e+03 4.366275024414062500e+01 1.561442756652832031e+01 1.912109017372131348e+00 8.202332496643066406e+00 3.034332513809204102e+00 1.196532011032104492e+00
1.631000000000000000e+03 5.146603393554687500e+01 1.897315597534179688e+01 -1.306974887847900391e+00 2.925595521926879883e+00 4.855861961841583252e-01 -1.718076944351196289e+00
1.632000000000000000e+03 5.257720947265625000e+01 1.794848442077636719e+01 -4.957838729023933411e-02 3.558137893676757812e+00 1.052567839622497559e+00 -1.780439615249633789e+00
1.633000000000000000e+03 5.357257843017578125e+01 1.688490486145019531e+01 5.694732069969177246e-01 4.228263378143310547e+00 1.439321041107177734e+00 -2.048630714416503906e+00
1.634000000000000000e+03 3.966669464111328125e+01 1.904952764511108398e+00 1.146649345755577087e-01 6.896518707275390625e+00 2.103355169296264648e+00 7.299199104309082031e-01
1.635000000000000000e+03 3.785016250610351562e+01 2.058670759201049805e+00 1.910242080688476562e+00 3.512631654739379883e+00 1.626862049102783203e+00 3.226430416107177734e+00
1.636000000000000000e+03 5.615926361083984375e+01 1.132086181640625000e+01 1.317805528640747070e+00 9.004333496093750000e+00 3.096641778945922852e+00 6.057404279708862305e-01
1.637000000000000000e+03 3.714830017089843750e+01 -5.526726841926574707e-01 -7.045512199401855469e-01 3.582232952117919922e+00 8.633045554161071777e-01 3.016425609588623047e+00
1.638000000000000000e+03 5.151792049407958984e+00 -1.744913673400878906e+01 1.402207374572753906e+00 7.450176715850830078e+00 2.655715227127075195e+00 2.416891574859619141e+00
1.639000000000000000e+03 5.789386272430419922e+00 -1.612050628662109375e+01 1.961271047592163086e+00 5.834647178649902344e+00 2.338775396347045898e+00 2.968503475189208984e+00
1.640000000000000000e+03 3.402159500122070312e+01 1.330665969848632812e+01 -1.460541486740112305e-01 1.071771621704101562e+00 2.777152359485626221e-01 5.114815235137939453e-01
1.641000000000000000e+03 2.565311050415039062e+01 4.951622009277343750e+00 1.829599261283874512e+00 3.957146406173706055e+00 1.736023664474487305e+00 3.132208809256553650e-02
1.642000000000000000e+03 1.817640304565429688e+01 -1.284563922882080078e+01 -2.457102775573730469e+00 6.259224414825439453e+00 1.140636563301086426e+00 -1.337765455245971680e+00
1.643000000000000000e+03 4.001856613159179688e+01 3.571825981140136719e+00 2.773340225219726562e+00 9.421244621276855469e+00 3.658375501632690430e+00 1.766096711158752441e+00
1.644000000000000000e+03 4.053783035278320312e+01 1.025061702728271484e+01 -1.308491732925176620e-02 7.934597492218017578e+00 2.376453638076782227e+00 2.995669245719909668e-01
1.645000000000000000e+03 4.488150405883789062e+01 -1.553821659088134766e+01 -1.617343902587890625e+00 3.791573047637939453e+00 6.522687077522277832e-01 1.704062581062316895e+00
1.646000000000000000e+03 2.737219619750976562e+01 8.100263595581054688e+00 2.768069028854370117e+00 5.958594799041748047e+00 2.617999076843261719e+00 1.733585745096206665e-01
1.647000000000000000e+03 2.850197982788085938e+01 8.709933280944824219e+00 2.492750406265258789e+00 8.126093864440917969e+00 3.185653209686279297e+00 1.624542236328125000e+00
1.648000000000000000e+03 2.920692253112792969e+01 1.369850063323974609e+01 -1.353181958198547363e+00 3.267202377319335938e+00 5.742061138153076172e-01 3.443841218948364258e+00
1.649000000000000000e+03 1.743747901916503906e+01 -1.756766128540039062e+01 1.221377730369567871e+00 5.669864177703857422e+00 2.067372560501098633e+00 -6.362850666046142578e-01
1.650000000000000000e+03 1.325923442840576172e+01 -2.210372543334960938e+01 -3.525391221046447754e-02 9.326917529106140137e-01 2.692313492298126221e-01 1.124560475349426270e+00
1.651000000000000000e+03 2.933310127258300781e+01 -2.187222719192504883e+00 2.665037870407104492e+00 8.203019142150878906e+00 3.260417222976684570e+00 -3.508064985275268555e+00
1.652000000000000000e+03 1.665971946716308594e+01 -1.061974334716796875e+01 -4.082097485661506653e-02 9.957871437072753906e+00 2.975115060806274414e+00 -9.282101988792419434e-01
1.653000000000000000e+03 3.007356834411621094e+01 2.732309103012084961e+00 -9.355152249336242676e-01 5.533502101898193359e+00 1.379396080970764160e+00 -1.886369943618774414e+00
1.654000000000000000e+03 2.719691467285156250e+01 -8.857232332229614258e-01 2.233225584030151367e+00 3.630229473114013672e+00 1.759036540985107422e+00 -3.102473735809326172e+00
1.655000000000000000e+03 5.541618347167968750e+01 -1.936141014099121094e+01 1.233802795410156250e+00 1.026737117767333984e+01 3.450351953506469727e+00 -1.768010020256042480e+00
1.656000000000000000e+03 5.656510543823242188e+01 -1.701788330078125000e+01 6.266289949417114258e-01 6.359303474426269531e+00 2.095779895782470703e+00 -5.198608040809631348e-01
1.657000000000000000e+03 5.076620483398437500e+01 -2.535936737060546875e+01 -4.001476764678955078e+00 7.190170884132385254e-01 -9.847379326820373535e-01 -8.344640731811523438e-01
1.658000000000000000e+03 8.899441719055175781e+00 -2.705548667907714844e+01 1.086178869009017944e-01 7.209970355033874512e-01 2.488844841718673706e-01 1.869405806064605713e-01
1.659000000000000000e+03 5.197688293457031250e+01 -2.545088577270507812e+01 -4.727194309234619141e+00 6.438269019126892090e-01 -1.225010156631469727e+00 2.229507416486740112e-01
1.660000000000000000e+03 5.358516693115234375e+01 -1.480095100402832031e+01 -9.036360383033752441e-01 3.694653749465942383e+00 8.373053073883056641e-01 -3.521747827529907227e+00
1.661000000000000000e+03 5.342921066284179688e+01 -1.655268859863281250e+01 -9.381442070007324219e-01 2.339090824127197266e+00 4.202839434146881104e-01 -1.898280858993530273e+00
1.662000000000000000e+03 1.636623764038085938e+01 -2.224628448486328125e+01 9.178081154823303223e-02 4.217875480651855469e+00 1.292896866798400879e+00 7.775995731353759766e-01
1.663000000000000000e+03 1.590344619750976562e+01 -2.096928024291992188e+01 1.732722520828247070e+00 6.151478767395019531e+00 2.365260362625122070e+00 1.618992686271667480e+00
1.664000000000000000e+03 1.273145866394042969e+01 -2.587647628784179688e+01 -9.437857866287231445e-01 2.847808122634887695e+00 5.712066888809204102e-01 1.713387489318847656e+00
1.665000000000000000e+03 6.171488761901855469e-01 -2.614472579956054688e+01 -9.392614010721445084e-04 3.536087751388549805e+00 1.060544490814208984e+00 -9.841814637184143066e-02
1.666000000000000000e+03 1.357323741912841797e+01 -2.320842742919921875e+01 -1.175148606300354004e+00 2.908796310424804688e+00 5.200942754745483398e-01 2.177108526229858398e+00
1.667000000000000000e+03 1.993621706962585449e+00 -1.565556049346923828e+01 2.936867475509643555e-01 5.238018035888671875e-01 2.452465742826461792e-01 1.840472519397735596e-01
1.668000000000000000e+03 6.660908460617065430e-01 -1.612702751159667969e+01 -4.908246546983718872e-02 -1.548781752586364746e+00 -4.793592691421508789e-01 4.378526937216520309e-03
1.669000000000000000e+03 1.704647636413574219e+01 -1.955956649780273438e+01 1.863991260528564453e+00 5.526020050048828125e+00 2.217003345489501953e+00 -6.253120303153991699e-02
1.670000000000000000e+03 1.805206298828125000e+01 -1.904282569885253906e+01 1.962825894355773926e+00 3.975406169891357422e+00 1.781469702720642090e+00 -9.337211251258850098e-01
1.671000000000000000e+03 4.096799087524414062e+01 -2.110926628112792969e+01 1.962817430496215820e+00 6.458220481872558594e+00 2.526311397552490234e+00 -4.666234552860260010e-01
1.672000000000000000e+03 4.685018920898437500e+01 -2.632987022399902344e+01 -1.132743477821350098e+00 4.780958652496337891e+00 1.094464540481567383e+00 -3.498080730438232422e+00
1.673000000000000000e+03 5.535900115966796875e+01 -2.201190376281738281e+01 1.411010265350341797e+00 1.300914764404296875e+01 4.326047420501708984e+00 1.890332221984863281e+00
1.674000000000000000e+03 5.691109466552734375e+01 -1.985864257812500000e+01 2.066092491149902344e+00 7.493325710296630859e+00 2.867825508117675781e+00 5.062846094369888306e-02
1.675000000000000000e+03 5.513597488403320312e+01 -2.765304183959960938e+01 -1.271759390830993652e+00 7.084352970123291016e+00 1.743778109550476074e+00 1.628159403800964355e+00
1.676000000000000000e+03 1.757122039794921875e+01 -9.954372406005859375e+00 3.116981983184814453e+00 1.178859806060791016e+01 4.471673965454101562e+00 -4.560508251190185547e+00
1.677000000000000000e+03 1.699061012268066406e+01 -8.602236747741699219e+00 2.241641521453857422e+00 1.589928054809570312e+01 5.442276954650878906e+00 -2.601883411407470703e+00
1.678000000000000000e+03 1.535465955734252930e+00 -4.005654144287109375e+01 2.040573861449956894e-03 3.042713165283203125e+00 9.134261012077331543e-01 1.203775405883789062e-01
1.679000000000000000e+03 7.281122207641601562e-01 3.743942642211914062e+01 -2.875206433236598969e-02 3.483503580093383789e+00 1.036425471305847168e+00 5.224809795618057251e-02
1.680000000000000000e+03 6.357321739196777344e-01 3.466309356689453125e+01 8.846875280141830444e-03 3.292472839355468750e+00 9.903959035873413086e-01 -1.485514193773269653e-01
1.681000000000000000e+03 6.704960465431213379e-01 2.755764007568359375e+01 2.898247167468070984e-02 1.318133473396301270e-01 4.823874682188034058e-02 -2.005575448274612427e-01
1.682000000000000000e+03 6.323706507682800293e-01 2.614947128295898438e+01 1.078762114048004150e-01 -1.765589118003845215e-01 -2.060480974614620209e-02 -6.286574155092239380e-02
1.683000000000000000e+03 8.216815590858459473e-01 -3.589986419677734375e+01 -4.696782212704420090e-03 2.549674034118652344e+00 7.634931206703186035e-01 7.582776993513107300e-02
1.684000000000000000e+03 2.034195423126220703e+00 -3.273221206665039062e+01 1.446441709995269775e-01 2.379685640335083008e+00 7.572989463806152344e-01 -1.122047286480665207e-02
1.685000000000000000e+03 5.876289606094360352e-01 2.335146522521972656e+01 3.472222387790679932e-02 -2.999100461602210999e-02 1.419366104528307915e-03 8.034331351518630981e-02
1.686000000000000000e+03 2.002186775207519531e+00 2.731318855285644531e+01 3.547333478927612305e-01 1.223795413970947266e+00 4.735586345195770264e-01 -4.541406929492950439e-01
1.687000000000000000e+03 2.643460988998413086e+00 3.257718658447265625e+01 -2.510024607181549072e-01 2.589400053024291992e+00 7.015192508697509766e-01 -8.880996704101562500e-01
1.688000000000000000e+03 4.266016006469726562e+00 3.505847167968750000e+01 -6.773858070373535156e-01 2.218018293380737305e+00 4.621897637844085693e-01 -3.610607683658599854e-01
1.689000000000000000e+03 1.954616427421569824e+00 3.449137878417968750e+01 -2.394064515829086304e-01 2.777355194091796875e+00 7.613846659660339355e-01 -4.641624391078948975e-01
1.690000000000000000e+03 2.300066471099853516e+00 3.845236968994140625e+01 -1.644394993782043457e-01 2.896119832992553711e+00 8.195040822029113770e-01 2.353913038969039917e-01
1.691000000000000000e+03 2.824964284896850586e+00 -2.838910293579101562e+01 8.786542713642120361e-02 2.360374927520751953e+00 7.344720959663391113e-01 -4.741075932979583740e-01
1.692000000000000000e+03 6.067434310913085938e+00 -2.444889068603515625e+01 -1.726506471633911133e+00 9.999699592590332031e-01 -2.179609388113021851e-01 -5.081840753555297852e-01
1.693000000000000000e+03 1.588422179222106934e+00 -1.033587837219238281e+01 -4.109016805887222290e-02 -2.375921458005905151e-01 -8.360469341278076172e-02 -9.960873425006866455e-02
1.694000000000000000e+03 7.173618078231811523e-01 -2.324022483825683594e+01 -1.560576409101486206e-01 3.335848331451416016e+00 9.539371728897094727e-01 3.248182237148284912e-01
1.695000000000000000e+03 2.700582027435302734e+00 -3.662243652343750000e+01 3.800841048359870911e-02 2.634928941726684570e+00 8.018811941146850586e-01 2.931095659732818604e-01
1.696000000000000000e+03 5.654727220535278320e-01 2.055749130249023438e+01 -1.763632334768772125e-02 1.937682628631591797e-01 5.283958464860916138e-02 -2.959598228335380554e-02
1.697000000000000000e+03 5.732567906379699707e-01 1.915259742736816406e+01 -3.573293238878250122e-02 3.746202588081359863e-02 5.187277565710246563e-04 -9.609476476907730103e-02
1.698000000000000000e+03 5.995121002197265625e-01 1.489252662658691406e+01 -8.049479685723781586e-03 -1.189015150070190430e+00 -3.591193854808807373e-01 -2.198607027530670166e-01
1.699000000000000000e+03 5.623270869255065918e-01 1.347285747528076172e+01 3.564295172691345215e-02 -1.681257247924804688e+00 -4.936842918395996094e-01 -1.886057108640670776e-01
1.700000000000000000e+03 4.978776574134826660e-01 7.884379386901855469e+00 3.065261989831924438e-02 -2.032242059707641602e+00 -6.004768013954162598e-01 9.063310921192169189e-02
1.701000000000000000e+03 4.916655421257019043e-01 6.501341819763183594e+00 9.778405539691448212e-03 -1.662914991378784180e+00 -4.959409534931182861e-01 1.465829014778137207e-01
1.702000000000000000e+03 7.037621140480041504e-01 -1.751465415954589844e+01 2.488328963518142700e-01 -1.125447988510131836e+00 -2.629845440387725830e-01 3.098147809505462646e-01
1.703000000000000000e+03 5.476767063140869141e+00 -4.052906799316406250e+01 -3.739239275455474854e-01 2.966160297393798828e+00 7.776708602905273438e-01 2.972379624843597412e-01
1.704000000000000000e+03 4.145517349243164062e+00 -3.905796051025390625e+01 -1.993853598833084106e-01 2.873608112335205078e+00 8.022668361663818359e-01 3.987960219383239746e-01
1.705000000000000000e+03 3.759152650833129883e+00 -3.479544067382812500e+01 1.752421110868453979e-01 2.435996532440185547e+00 7.833715677261352539e-01 3.234298229217529297e-01
1.706000000000000000e+03 2.167108297348022461e+00 -3.407190322875976562e+01 8.204293251037597656e-02 2.432711124420166016e+00 7.544262409210205078e-01 1.063748374581336975e-01
1.707000000000000000e+03 1.937791585922241211e+00 -3.137187385559082031e+01 9.460721909999847412e-02 2.391242980957031250e+00 7.457550764083862305e-01 -1.698764562606811523e-01
1.708000000000000000e+03 1.819539427757263184e+00 -2.600133895874023438e+01 -1.606024056673049927e-01 2.944088935852050781e+00 8.350459337234497070e-01 -2.442685961723327637e-01
1.709000000000000000e+03 1.936901092529296875e+00 -2.454661178588867188e+01 -3.499922752380371094e-01 2.965199232101440430e+00 7.845621109008789062e-01 2.227832004427909851e-02
1.710000000000000000e+03 2.197386026382446289e+00 -2.138479995727539062e+01 -5.067290067672729492e-01 2.647691488265991211e+00 6.422888040542602539e-01 1.434857964515686035e+00
1.711000000000000000e+03 7.155113220214843750e-01 -1.891931724548339844e+01 1.323875486850738525e-01 -7.278236746788024902e-02 1.788155548274517059e-02 6.422458291053771973e-01
1.712000000000000000e+03 6.784740447998046875e+00 -9.410585403442382812e+00 6.826516240835189819e-02 1.363535165786743164e+00 4.295400977134704590e-01 1.541791558265686035e+00
1.713000000000000000e+03 5.565232038497924805e-01 -1.196394729614257812e+01 2.642265707254409790e-02 -1.106925249099731445e+00 -3.241507709026336670e-01 -8.571492135524749756e-02
1.714000000000000000e+03 3.119892835617065430e+00 -1.385018348693847656e+01 2.276687473058700562e-01 1.616047382354736328e+00 5.531148314476013184e-01 6.081723794341087341e-02
1.715000000000000000e+03 3.609235048294067383e+00 -8.754347801208496094e+00 -1.542901434004306793e-02 4.780758619308471680e-01 1.387940496206283569e-01 1.505134552717208862e-01
1.716000000000000000e+03 2.561586856842041016e+00 -7.612450122833251953e+00 3.727646172046661377e-02 -1.901860907673835754e-02 5.477355793118476868e-03 -3.007974661886692047e-02
1.717000000000000000e+03 5.439863204956054688e-01 5.088283061981201172e+00 2.447457425296306610e-02 -1.154852867126464844e+00 -3.391134738922119141e-01 1.947731822729110718e-01
1.718000000000000000e+03 5.227119326591491699e-01 1.066392326354980469e+01 3.907328099012374878e-02 -2.251276254653930664e+00 -6.636608839035034180e-01 -3.154521435499191284e-02
1.719000000000000000e+03 1.660973787307739258e+00 1.337883663177490234e+01 7.610948383808135986e-02 -8.381242752075195312e-01 -2.286044508218765259e-01 -4.676316380500793457e-01
1.720000000000000000e+03 1.700703263282775879e+00 1.913614273071289062e+01 -1.334965378046035767e-01 4.665752351284027100e-01 9.992361068725585938e-02 -3.095370233058929443e-01
1.721000000000000000e+03 1.763721108436584473e+00 2.321600341796875000e+01 -6.244004517793655396e-02 8.022748231887817383e-01 2.219504415988922119e-01 1.955511569976806641e-01
1.722000000000000000e+03 4.393474578857421875e+01 -1.978821945190429688e+01 2.967993497848510742e+00 4.534820079803466797e+00 2.250844001770019531e+00 2.050589472055435181e-01
1.723000000000000000e+03 1.328849124908447266e+01 -8.470866203308105469e+00 2.668936967849731445e+00 3.049091100692749023e+00 1.715408444404602051e+00 1.156051635742187500e+00
1.724000000000000000e+03 5.663759994506835938e+01 -2.097075271606445312e+01 2.135919809341430664e+00 8.767779350280761719e+00 3.271109819412231445e+00 5.556092262268066406e-01
1.725000000000000000e+03 4.697069931030273438e+01 -2.424802970886230469e+01 1.805889308452606201e-01 5.793720245361328125e+00 1.792292833328247070e+00 -2.507547616958618164e+00
1.726000000000000000e+03 1.815060043334960938e+01 -2.414731025695800781e+00 2.667311429977416992e-01 8.478667259216308594e+00 2.623619556427001953e+00 2.136949300765991211e+00
1.727000000000000000e+03 2.970427322387695312e+01 -4.735967159271240234e+00 1.334342360496520996e+00 1.099583339691162109e+01 3.699052810668945312e+00 -2.574144601821899414e+00
1.728000000000000000e+03 2.543015098571777344e+01 9.467962384223937988e-01 -2.785228490829467773e-01 1.656615495681762695e+00 4.134277999401092529e-01 -1.195429325103759766e+00
1.729000000000000000e+03 2.817518997192382812e+01 -1.726647734642028809e+00 3.321648359298706055e+00 7.012327194213867188e+00 3.100192546844482422e+00 -4.208677768707275391e+00
1.730000000000000000e+03 2.008208847045898438e+01 -5.433000922203063965e-01 -7.000074982643127441e-01 2.049207538366317749e-01 -1.485260128974914551e-01 -4.159034192562103271e-01
1.731000000000000000e+03 3.414675140380859375e+01 -3.684330701828002930e+00 1.870983242988586426e+00 4.111544132232666016e+00 1.794758319854736328e+00 3.886447474360466003e-02
1.732000000000000000e+03 2.804409790039062500e+01 -1.317257881164550781e+01 -2.772339820861816406e+00 5.542127609252929688e+00 8.309363126754760742e-01 2.162363290786743164e+00
1.733000000000000000e+03 1.532691097259521484e+01 -4.885257244110107422e+00 1.777583479881286621e+00 8.993575096130371094e+00 3.231347560882568359e+00 1.102763414382934570e+00
1.734000000000000000e+03 2.869206809997558594e+01 9.002825617790222168e-01 -1.079431653022766113e+00 6.003929138183593750e+00 1.477349281311035156e+00 -2.207572221755981445e+00
1.735000000000000000e+03 3.053327369689941406e+01 -1.363870906829833984e+01 -3.431528091430664062e+00 5.752706527709960938e+00 6.963534951210021973e-01 2.436251163482666016e+00
1.736000000000000000e+03 2.960310173034667969e+01 -1.130655288696289062e+01 1.957408487796783447e-01 7.053971290588378906e+00 2.174913644790649414e+00 1.863483071327209473e+00
1.737000000000000000e+03 2.950430870056152344e+01 2.758805155754089355e-01 -8.187607526779174805e-01 6.048333644866943359e+00 1.568871855735778809e+00 -1.988941311836242676e+00
1.738000000000000000e+03 1.568196487426757812e+01 -5.827032089233398438e+00 1.801938652992248535e+00 1.042752838134765625e+01 3.668840169906616211e+00 9.259136915206909180e-01
1.739000000000000000e+03 2.748650360107421875e+01 -1.420785903930664062e+01 -2.877274513244628906e+00 4.713508129119873047e+00 5.508700609207153320e-01 1.905124306678771973e+00
1.740000000000000000e+03 2.612794113159179688e+01 -1.889952659606933594e+01 1.665036916732788086e+00 3.915983915328979492e+00 1.674306273460388184e+00 1.215713843703269958e-01
1.741000000000000000e+03 3.173707580566406250e+01 -7.119607448577880859e+00 2.462800502777099609e+00 6.941525459289550781e+00 2.821297645568847656e+00 -1.292158812284469604e-01
1.742000000000000000e+03 1.567187786102294922e+01 -7.063884735107421875e+00 2.199110746383666992e+00 1.092870521545410156e+01 3.938344717025756836e+00 -1.242828592658042908e-01
1.743000000000000000e+03 3.207238769531250000e+01 -8.318179130554199219e+00 2.662579059600830078e+00 5.983598709106445312e+00 2.593853235244750977e+00 5.172908306121826172e-02
1.744000000000000000e+03 1.742439270019531250e+01 -1.168198871612548828e+01 -1.569298624992370605e+00 8.800107002258300781e+00 2.169242382049560547e+00 -1.769207715988159180e+00
1.745000000000000000e+03 4.338394927978515625e+01 7.027412891387939453e+00 4.723193049430847168e-01 6.787885189056396484e+00 2.178061246871948242e+00 4.009201005101203918e-02
1.746000000000000000e+03 4.167151641845703125e+01 9.059550285339355469e+00 2.497400790452957153e-01 8.452614784240722656e+00 2.610706329345703125e+00 8.791992664337158203e-01
1.747000000000000000e+03 3.987144851684570312e+01 1.686039352416992188e+01 2.083435058593750000e+00 3.115795373916625977e+00 1.559769034385681152e+00 -1.204787731170654297e+00
1.748000000000000000e+03 4.594738006591796875e+01 7.260211944580078125e+00 -4.818657040596008301e-02 3.797677755355834961e+00 1.124847412109375000e+00 -1.239402294158935547e+00
1.749000000000000000e+03 4.695600509643554688e+01 6.448272705078125000e+00 -4.632423520088195801e-01 2.059567451477050781e+00 4.788975417613983154e-01 -8.511705398559570312e-01
1.750000000000000000e+03 6.027868270874023438e+01 1.647713661193847656e+01 1.978440284729003906e+00 9.601519584655761719e+00 3.473987817764282227e+00 2.362715959548950195e+00
1.751000000000000000e+03 6.749540710449218750e+01 2.073892211914062500e+01 -3.177220106124877930e+00 2.915421724319458008e-01 -8.657033443450927734e-01 -1.521908640861511230e-01
1.752000000000000000e+03 1.850426864624023438e+01 -1.411208152770996094e+01 -2.716838359832763672e+00 5.481264591217041016e+00 8.293278813362121582e-01 -7.302863001823425293e-01
1.753000000000000000e+03 2.170059013366699219e+01 -1.486380672454833984e+01 -2.275153636932373047e+00 -1.617374122142791748e-01 -7.310672998428344727e-01 -1.187139630317687988e+00
1.754000000000000000e+03 1.425613594055175781e+01 2.594830513000488281e+00 4.274367809295654297e+00 1.253858804702758789e+00 1.658468008041381836e+00 -3.394496202468872070e+00
1.755000000000000000e+03 1.368552017211914062e+01 4.117122173309326172e+00 1.689051508903503418e+00 1.466696619987487793e+00 9.467244744300842285e-01 -3.910344123840332031e+00
1.756000000000000000e+03 1.450486469268798828e+01 3.204401731491088867e+00 3.203737497329711914e+00 2.743918418884277344e+00 1.784296751022338867e+00 -3.919596433639526367e+00
1.757000000000000000e+03 1.541458606719970703e+01 3.525031566619873047e+00 1.778535962104797363e+00 6.741296291351318359e+00 2.555949687957763672e+00 -3.293035984039306641e+00
1.758000000000000000e+03 1.361878967285156250e+01 -1.586425900459289551e+00 7.065104246139526367e-01 3.554775476455688477e+00 1.278385758399963379e+00 1.881332278251647949e+00
1.759000000000000000e+03 1.622927093505859375e+01 -3.241040706634521484e+00 -4.561204090714454651e-02 1.149612522125244141e+01 3.435153961181640625e+00 1.475262999534606934e+00
1.760000000000000000e+03 1.325758457183837891e+01 -1.371220827102661133e+00 5.520395040512084961e-01 2.192747354507446289e+00 8.234360814094543457e-01 1.441017866134643555e+00
1.761000000000000000e+03 1.401911830902099609e+01 -1.594357013702392578e+00 6.061734557151794434e-01 4.534300327301025391e+00 1.542142152786254883e+00 2.487696647644042969e+00
1.762000000000000000e+03 1.291119194030761719e+01 3.047097444534301758e+00 1.981348514556884766e+00 4.030174612998962402e-01 7.153097987174987793e-01 -2.556383371353149414e+00
1.763000000000000000e+03 1.216394615173339844e+01 3.219234943389892578e+00 1.293048143386840820e+00 4.624387621879577637e-01 5.266460776329040527e-01 -2.225646257400512695e+00
1.764000000000000000e+03 1.123146438598632812e+01 4.455355167388916016e+00 5.335246324539184570e-01 1.563967943191528320e+00 6.292477846145629883e-01 -2.233491897583007812e+00
1.765000000000000000e+03 1.668721580505371094e+01 4.070165157318115234e+00 6.282224655151367188e-01 6.204399585723876953e+00 2.049786567687988281e+00 1.282781958580017090e+00
1.766000000000000000e+03 1.231902599334716797e+01 4.050786972045898438e+00 1.024981617927551270e+00 1.214565634727478027e+00 6.718641519546508789e-01 -2.968062162399291992e+00
1.767000000000000000e+03 1.407936286926269531e+01 3.522442817687988281e+00 2.644077301025390625e+00 1.829991459846496582e+00 1.342220664024353027e+00 -3.858457088470458984e+00
1.768000000000000000e+03 1.167875862121582031e+01 3.799695968627929688e+00 9.341490864753723145e-01 1.067385792732238770e+00 6.004604697227478027e-01 -2.333451032638549805e+00
1.769000000000000000e+03 4.434904575347900391e+00 -3.908022880554199219e+00 1.498696058988571167e-01 -8.634162135422229767e-03 4.237063601613044739e-02 -1.801079362630844116e-01
1.770000000000000000e+03 8.685545921325683594e+00 -4.190561294555664062e+00 1.174419879913330078e+00 4.863638430833816528e-02 3.669168949127197266e-01 1.648347526788711548e-01
1.771000000000000000e+03 6.818270206451416016e+00 -3.603727340698242188e+00 4.338454604148864746e-01 -8.647060394287109375e-02 1.042124629020690918e-01 -1.471361964941024780e-01
1.772000000000000000e+03 9.284806251525878906e+00 -3.300102949142456055e+00 9.423873424530029297e-01 2.420804835855960846e-02 2.899786233901977539e-01 -4.441824927926063538e-02
1.773000000000000000e+03 5.139312744140625000e+00 -3.620522022247314453e+00 2.155235707759857178e-01 -7.669460773468017578e-02 4.164868593215942383e-02 -1.945216506719589233e-01
1.774000000000000000e+03 5.084347248077392578e+00 -2.758780241012573242e+00 -1.075999438762664795e-02 -4.358445852994918823e-02 -1.630333624780178070e-02 -2.653530240058898926e-01
1.775000000000000000e+03 5.970170497894287109e+00 -3.642579317092895508e+00 2.872621119022369385e-01 -5.643078684806823730e-02 6.924939900636672974e-02 -1.856151074171066284e-01
1.776000000000000000e+03 2.287832021713256836e+00 -3.239408016204833984e+00 9.306478896178305149e-04 -1.037426367402076721e-01 -3.084359690546989441e-02 -1.973839402198791504e-01
1.777000000000000000e+03 1.533405065536499023e+00 -4.953598499298095703e+00 2.669725008308887482e-02 -2.694212496280670166e-01 -7.281719893217086792e-02 -1.153639629483222961e-01
1.778000000000000000e+03 1.141417026519775391e+01 -2.203679800033569336e+00 7.346311807632446289e-01 6.286605000495910645e-01 4.089875221252441406e-01 2.725240588188171387e-01
1.779000000000000000e+03 1.176634979248046875e+01 -3.614717245101928711e+00 1.801096677780151367e+00 1.683921337127685547e+00 1.045505404472351074e+00 6.662774682044982910e-01
1.780000000000000000e+03 1.082932186126708984e+01 -3.040675401687622070e+00 1.266930699348449707e+00 5.655098557472229004e-01 5.497321486473083496e-01 2.265618443489074707e-01
1.781000000000000000e+03 3.150296211242675781e+00 2.882597208023071289e+00 -2.145221829414367676e-01 -1.380190104246139526e-01 -1.057623550295829773e-01 5.968539714813232422e-01
1.782000000000000000e+03 5.603599071502685547e+00 3.517601728439331055e+00 -2.454562336206436157e-01 3.161785602569580078e-01 2.121669612824916840e-02 5.365150570869445801e-01
1.783000000000000000e+03 4.131857872009277344e+00 3.575420379638671875e+00 -1.597922742366790771e-01 3.815663233399391174e-02 -3.649069368839263916e-02 6.725449562072753906e-01
1.784000000000000000e+03 3.935811281204223633e+00 2.769749879837036133e+00 -3.054769933223724365e-01 -2.143954858183860779e-02 -9.807496517896652222e-02 6.258128285408020020e-01
1.785000000000000000e+03 5.246862173080444336e-01 3.631329536437988281e+00 -3.042060695588588715e-02 -6.952640414237976074e-01 -2.177053987979888916e-01 1.825949102640151978e-01
1.786000000000000000e+03 6.351763248443603516e+00 3.465783596038818359e+00 -2.471503019332885742e-01 4.990336894989013672e-01 7.556501775979995728e-02 4.082767367362976074e-01
1.787000000000000000e+03 8.825154304504394531e+00 3.370666742324829102e+00 -1.440379768610000610e-01 8.354260325431823730e-01 2.074164152145385742e-01 -4.826765060424804688e-01
1.788000000000000000e+03 8.189970016479492188e+00 4.194754600524902344e+00 -1.519534643739461899e-02 1.125173926353454590e+00 3.329935669898986816e-01 -2.852930128574371338e-01
1.789000000000000000e+03 1.006986427307128906e+01 -3.180842876434326172e+00 1.134242415428161621e+00 1.654744297266006470e-01 3.899150490760803223e-01 9.649798274040222168e-02
1.790000000000000000e+03 4.180416488647460938e+01 1.020463466644287109e+01 4.823314845561981201e-01 8.063326835632324219e+00 2.563697576522827148e+00 1.066574096679687500e+00
1.791000000000000000e+03 4.050802993774414062e+01 8.985212326049804688e+00 4.080379903316497803e-01 8.426088333129882812e+00 2.650238037109375000e+00 7.686573863029479980e-01
1.792000000000000000e+03 2.397689819335937500e+01 6.632351875305175781e+00 2.251747131347656250e+00 4.085279941558837891e+00 1.901108026504516602e+00 4.783807396888732910e-01
1.793000000000000000e+03 2.246425437927246094e+01 1.126335144042968750e+01 1.860916972160339355e+00 6.454913139343261719e+00 2.494749069213867188e+00 -1.176156759262084961e+00
1.794000000000000000e+03 2.820888710021972656e+01 -1.569468784332275391e+01 -2.234421491622924805e+00 6.062918663024902344e+00 1.148549079895019531e+00 1.589879274368286133e+00
1.795000000000000000e+03 3.118886375427246094e+01 -1.459581089019775391e+01 -4.508946895599365234e+00 5.568296432495117188e+00 3.178047835826873779e-01 1.894826650619506836e+00
1.796000000000000000e+03 1.801188850402832031e+01 3.147279024124145508e+00 3.064500331878662109e+00 6.292954921722412109e+00 2.807236671447753906e+00 4.793610095977783203e+00
1.797000000000000000e+03 3.965958786010742188e+01 -2.872017478942871094e+01 -2.770279884338378906e+00 9.224061965942382812e+00 1.936134576797485352e+00 1.348894834518432617e+00
1.798000000000000000e+03 4.409317779541015625e+01 1.820976448059082031e+01 -1.182324904948472977e-02 6.352749347686767578e+00 1.902277708053588867e+00 1.414777994155883789e+00
1.799000000000000000e+03 4.218882751464843750e+01 2.042345428466796875e+01 9.714601188898086548e-02 2.471768617630004883e+00 7.706743478775024414e-01 1.858793497085571289e+00
1.800000000000000000e+03 2.286774444580078125e+01 1.823350667953491211e+00 1.117466092109680176e+00 5.425281524658203125e-01 4.979982674121856689e-01 8.886871933937072754e-01
1.801000000000000000e+03 1.816352462768554688e+01 -4.323155283927917480e-01 1.110434651374816895e+00 8.186473846435546875e+00 2.789072513580322266e+00 6.718848943710327148e-01
1.802000000000000000e+03 1.789132881164550781e+01 3.794063091278076172e+00 1.732165813446044922e+00 6.272767543792724609e+00 2.401479959487915039e+00 4.580955982208251953e+00
1.803000000000000000e+03 3.377188873291015625e+01 2.166555595397949219e+01 3.459669053554534912e-01 8.390159606933593750e+00 2.620837926864624023e+00 -3.463158607482910156e-01
1.804000000000000000e+03 3.218341445922851562e+01 -1.392484474182128906e+01 -3.661158323287963867e+00 3.344580411911010742e+00 -9.497333317995071411e-02 2.558321952819824219e+00
1.805000000000000000e+03 3.290419769287109375e+01 -1.056598472595214844e+01 2.236602544784545898e+00 4.062159061431884766e+00 1.889628529548645020e+00 3.235616087913513184e-01
1.806000000000000000e+03 3.248396682739257812e+01 2.748126029968261719e+01 6.784551739692687988e-01 7.294695377349853516e+00 2.391945123672485352e+00 -4.104704558849334717e-01
1.807000000000000000e+03 3.312807083129882812e+01 2.641015815734863281e+01 8.193870782852172852e-01 8.592319488525390625e+00 2.823512077331542969e+00 2.273435294628143311e-01
1.808000000000000000e+03 1.140000534057617188e+01 -2.516981315612792969e+01 -1.195028305053710938e+00 1.208610177040100098e+00 4.074582364410161972e-03 1.371706485748291016e+00
1.809000000000000000e+03 1.210897350311279297e+01 -3.202012634277343750e+01 1.399039268493652344e+00 4.391826152801513672e+00 1.737259626388549805e+00 1.465688109397888184e+00
1.810000000000000000e+03 4.491512298583984375e+01 7.908349514007568359e+00 -2.954055666923522949e-01 5.811416625976562500e+00 1.654803276062011719e+00 -4.550954103469848633e-01
1.811000000000000000e+03 4.751520156860351562e+01 2.739204025268554688e+01 1.921533584594726562e+00 8.346316337585449219e+00 3.080354928970336914e+00 1.207242250442504883e+00
1.812000000000000000e+03 5.225658416748046875e+01 3.056398773193359375e+01 1.352492332458496094e+00 7.779298782348632812e+00 2.739537477493286133e+00 1.515320777893066406e+00
1.813000000000000000e+03 3.307072067260742188e+01 1.940069580078125000e+01 1.086707472801208496e+00 9.437704086303710938e+00 3.157323360443115234e+00 7.274690866470336914e-01
1.814000000000000000e+03 3.951037597656250000e+01 1.881498336791992188e+01 1.689162850379943848e+00 1.992198228836059570e+00 1.104408264160156250e+00 -1.256443500518798828e+00
1.815000000000000000e+03 3.318198013305664062e+01 1.455823326110839844e+01 9.979914873838424683e-02 4.499747276306152344e+00 1.379863858222961426e+00 1.658416748046875000e+00
1.816000000000000000e+03 5.224195861816406250e+01 2.854252243041992188e+01 1.386465907096862793e+00 7.595664501190185547e+00 2.694639205932617188e+00 3.918297886848449707e-01
1.817000000000000000e+03 3.164466857910156250e+01 -8.418725132942199707e-01 2.285607010126113892e-01 4.571205139160156250e+00 1.439929723739624023e+00 -1.221264004707336426e+00
1.818000000000000000e+03 4.102711868286132812e+01 -2.241232872009277344e+01 2.109046459197998047e+00 7.594582557678222656e+00 2.911088705062866211e+00 9.891023039817810059e-01
1.819000000000000000e+03 4.088553619384765625e+01 -2.345254707336425781e+01 2.036035299301147461e+00 6.746118068695068359e+00 2.634645938873291016e+00 2.028823852539062500e+00
1.820000000000000000e+03 2.989914131164550781e+01 -2.897883033752441406e+01 -1.341500401496887207e+00 4.480638980865478516e+00 9.417415857315063477e-01 -9.563619494438171387e-01
1.821000000000000000e+03 3.320689010620117188e+01 1.833798217773437500e+01 2.295161247253417969e+00 7.169554710388183594e+00 2.839414834976196289e+00 9.311541914939880371e-01
1.822000000000000000e+03 6.798293304443359375e+01 4.831552982330322266e+00 5.786906927824020386e-02 1.493819475173950195e+00 4.655065536499023438e-01 1.634506583213806152e+00
1.823000000000000000e+03 6.720068359375000000e+01 5.423147678375244141e-01 4.714365601539611816e-01 3.283986568450927734e+00 1.126626968383789062e+00 1.888360619544982910e+00
1.824000000000000000e+03 4.454446792602539062e+01 -2.654163932800292969e+01 -1.718117594718933105e+00 1.251832127571105957e+00 -1.398856192827224731e-01 -2.506689310073852539e+00
1.825000000000000000e+03 4.131118011474609375e+01 -2.663878822326660156e+01 -1.899379968643188477e+00 5.197717666625976562e+00 9.895013570785522461e-01 1.712064981460571289e+00
1.826000000000000000e+03 3.501076126098632812e+01 -1.427504062652587891e+01 -5.412788391113281250e+00 4.628625512123107910e-01 -1.484977841377258301e+00 -7.540009021759033203e-01
1.827000000000000000e+03 7.162043762207031250e+01 2.323357909917831421e-01 2.898314781486988068e-02 9.394878745079040527e-01 2.905412912368774414e-01 -2.742149867117404938e-02
1.828000000000000000e+03 7.066870117187500000e+01 4.531680583953857422e+00 -1.149619445204734802e-01 3.565843820571899414e+00 1.035264611244201660e+00 1.410055756568908691e+00
1.829000000000000000e+03 6.658422088623046875e+01 3.071766090393066406e+01 9.040216803550720215e-01 5.514132976531982422e+00 1.925446391105651855e+00 8.566030859947204590e-01
1.830000000000000000e+03 6.550840759277343750e+01 3.091726303100585938e+01 7.880067229270935059e-01 5.861515998840332031e+00 1.994856834411621094e+00 7.634080648422241211e-01
1.831000000000000000e+03 2.299079322814941406e+01 1.593916416168212891e+01 -2.555669784545898438e+00 6.833015441894531250e+00 1.283203601837158203e+00 2.116545140743255615e-01
1.832000000000000000e+03 2.208994674682617188e+01 1.631613922119140625e+01 -2.210313320159912109e+00 8.558631896972656250e+00 1.904495716094970703e+00 6.774778366088867188e-01
1.833000000000000000e+03 8.442427635192871094e+00 -5.876877784729003906e+00 1.446548581123352051e+00 1.994905322790145874e-01 4.938117265701293945e-01 7.827310562133789062e-01
1.834000000000000000e+03 1.118777942657470703e+01 -1.149641227722167969e+01 -6.314268708229064941e-01 -5.509207248687744141e-01 -3.547042608261108398e-01 2.460041284561157227e+00
1.835000000000000000e+03 4.309576797485351562e+01 -6.071899831295013428e-02 4.975471794605255127e-01 3.326135396957397461e+00 1.147104740142822266e+00 -1.462573528289794922e+00
1.836000000000000000e+03 6.463005065917968750e+01 2.746309852600097656e+01 2.100908041000366211e+00 6.895921707153320312e+00 2.699048995971679688e+00 2.161486625671386719e+00
1.837000000000000000e+03 6.048357009887695312e+01 2.131294488906860352e+00 -1.538789987564086914e+00 5.217840194702148438e+00 1.103715181350708008e+00 -2.170565366744995117e+00
1.838000000000000000e+03 6.280376815795898438e+01 7.031213283538818359e+00 -1.019212722778320312e+00 3.660523653030395508e+00 7.923933267593383789e-01 -1.540019869804382324e+00
1.839000000000000000e+03 5.220246887207031250e+01 2.606247138977050781e+01 1.781311750411987305e+00 6.188353538513183594e+00 2.390899419784545898e+00 -2.871618270874023438e-01
1.840000000000000000e+03 5.173630905151367188e+01 2.340364456176757812e+01 4.763098657131195068e-01 5.086361885070800781e+00 1.668801426887512207e+00 -1.029285550117492676e+00
1.841000000000000000e+03 4.105954360961914062e+01 -2.422856330871582031e+01 2.472806692123413086e+00 5.991772174835205078e+00 2.539373636245727539e+00 2.157361745834350586e+00
1.842000000000000000e+03 1.251114177703857422e+01 -4.189828491210937500e+01 -1.822254657745361328e+00 2.000556707382202148e+00 5.349060520529747009e-02 -1.458974275738000870e-02
1.843000000000000000e+03 3.272297286987304688e+01 2.941820907592773438e+01 9.283355474472045898e-01 7.194925308227539062e+00 2.436978340148925781e+00 -1.096297740936279297e+00
1.844000000000000000e+03 6.272581481933593750e+01 -5.714017868041992188e+00 1.552803754806518555e+00 9.960510253906250000e+00 3.453994274139404297e+00 2.067669332027435303e-01
1.845000000000000000e+03 1.293483829498291016e+01 6.538204193115234375e+00 2.700983285903930664e-01 2.428379297256469727e+00 8.095433115959167480e-01 -2.522950410842895508e+00
1.846000000000000000e+03 1.128376579284667969e+01 6.498600482940673828e+00 6.584750413894653320e-01 3.046676397323608398e+00 1.111545443534851074e+00 -2.212978124618530273e+00
1.847000000000000000e+03 5.936708831787109375e+01 1.648261547088623047e+00 -1.343068718910217285e+00 4.703429222106933594e+00 1.008108139038085938e+00 -2.605026483535766602e+00
1.848000000000000000e+03 5.586913299560546875e+01 7.543529510498046875e+00 1.549061655998229980e+00 7.625415325164794922e+00 2.752343177795410156e+00 5.015580058097839355e-01
1.849000000000000000e+03 6.048900222778320312e+01 1.063650131225585938e+01 1.548027157783508301e+00 8.041057586669921875e+00 2.876725435256958008e+00 -1.173798799514770508e+00
1.850000000000000000e+03 5.631658554077148438e+01 1.395325183868408203e+01 1.836556553840637207e+00 7.488608360290527344e+00 2.797549486160278320e+00 1.663682796061038971e-02
1.851000000000000000e+03 4.757228851318359375e+01 -2.733996963500976562e+01 -1.050051927566528320e+00 5.083909988403320312e+00 1.210157394409179688e+00 -3.545536518096923828e+00
1.852000000000000000e+03 4.898815155029296875e+01 -2.737018966674804688e+01 -1.010218024253845215e+00 4.632361888885498047e+00 1.086643218994140625e+00 -3.220054388046264648e+00
1.853000000000000000e+03 1.352770423889160156e+01 1.898601341247558594e+01 -6.318812370300292969e-01 -2.550917863845825195e-01 -2.660919129848480225e-01 -8.732986636459827423e-03
1.854000000000000000e+03 6.961209106445312500e+01 6.162574291229248047e+00 -3.223584294319152832e-01 3.104262828826904297e+00 8.345713019371032715e-01 1.993261814117431641e+00
1.855000000000000000e+03 7.245328521728515625e+01 8.219347953796386719e+00 -5.209429562091827393e-02 8.466948509216308594e+00 2.524456262588500977e+00 6.951660513877868652e-01
1.856000000000000000e+03 5.026889038085937500e+01 1.972271537780761719e+01 -8.469808697700500488e-01 2.236320972442626953e+00 4.168020486831665039e-01 -1.478840708732604980e+00
1.857000000000000000e+03 6.447463226318359375e+01 3.672122192382812500e+01 -1.000993847846984863e+00 4.287384510040283203e+00 9.859171509742736816e-01 -9.003007411956787109e-02
1.858000000000000000e+03 6.350521087646484375e+01 -2.020903587341308594e+01 1.730270147323608398e+00 8.251560211181640625e+00 2.994549036026000977e+00 -1.503768563270568848e+00
1.859000000000000000e+03 1.700489807128906250e+01 -2.594398307800292969e+01 -1.819482684135437012e+00 2.294355869293212891e+00 1.424619704484939575e-01 1.776557922363281250e+00
1.860000000000000000e+03 2.898737525939941406e+01 3.374451637268066406e+00 -9.099778532981872559e-01 6.393810749053955078e+00 1.645149946212768555e+00 -1.238718867301940918e+00
1.861000000000000000e+03 1.376702690124511719e+01 3.334123849868774414e+00 2.738113880157470703e+00 1.103089570999145508e+00 1.152361035346984863e+00 -3.580949068069458008e+00
1.862000000000000000e+03 7.512446594238281250e+01 3.304791212081909180e+00 -4.035320281982421875e-01 6.492997646331787109e+00 1.826839566230773926e+00 -8.169983029365539551e-01
1.863000000000000000e+03 4.797366333007812500e+01 5.562586784362792969e+00 -9.990584254264831543e-01 1.454599261283874512e+00 1.366622596979141235e-01 -8.976854085922241211e-01
1.864000000000000000e+03 6.059020233154296875e+01 -4.946435093879699707e-01 -5.587190985679626465e-01 6.608868122100830078e+00 1.815044760704040527e+00 -1.798139095306396484e+00
1.865000000000000000e+03 7.809358215332031250e+01 -3.584001541137695312e+01 6.898919492959976196e-02 7.475949287414550781e+00 2.263481616973876953e+00 -9.118694067001342773e-02
1.866000000000000000e+03 7.323552703857421875e+01 -3.836269760131835938e+01 -3.039138317108154297e-01 6.543074607849121094e+00 1.871748208999633789e+00 -6.391224265098571777e-01
1.867000000000000000e+03 7.477741241455078125e+01 -3.199209785461425781e+01 3.692232966423034668e-01 6.311840534210205078e+00 2.004319190979003906e+00 1.390339434146881104e-01
1.868000000000000000e+03 7.706405639648437500e+01 -3.597072219848632812e+01 9.475938975811004639e-02 7.242893695831298828e+00 2.201295852661132812e+00 -2.060542106628417969e-01
1.869000000000000000e+03 7.816433715820312500e+01 1.930104827880859375e+01 -1.325195282697677612e-01 7.200456142425537109e+00 2.120381116867065430e+00 4.648517370223999023e-01
1.870000000000000000e+03 7.210732269287109375e+01 1.720729255676269531e+01 -5.075269341468811035e-01 8.123583793640136719e+00 2.284816980361938477e+00 -6.149449944496154785e-01
1.871000000000000000e+03 7.380083465576171875e+01 -2.622881698608398438e+01 -1.906987905502319336e+00 8.580923080444335938e+00 2.002180814743041992e+00 1.028841018676757812e+00
1.872000000000000000e+03 7.806744384765625000e+01 3.560949325561523438e+01 1.937717758119106293e-02 7.036722183227539062e+00 2.116829872131347656e+00 1.324120163917541504e-01
1.873000000000000000e+03 7.704379272460937500e+01 -2.476496887207031250e+01 3.860021829605102539e-01 7.865338802337646484e+00 2.475402355194091797e+00 -6.082593798637390137e-01
1.874000000000000000e+03 7.785239410400390625e+01 -2.875097274780273438e+01 -1.752157360315322876e-01 7.538354873657226562e+00 2.208941698074340820e+00 -3.903882578015327454e-02
1.875000000000000000e+03 7.811817169189453125e+01 -2.738802337646484375e+01 -1.928811371326446533e-01 7.636113166809082031e+00 2.232969522476196289e+00 -2.642463147640228271e-01
1.876000000000000000e+03 7.466851043701171875e+01 -2.538044929504394531e+01 -1.524629294872283936e-01 8.518098831176757812e+00 2.509690761566162109e+00 -1.872388124465942383e-01
1.877000000000000000e+03 7.811207580566406250e+01 -2.182533454895019531e+01 4.091768860816955566e-01 7.604698657989501953e+00 2.404162645339965820e+00 4.629743397235870361e-01
1.878000000000000000e+03 7.629796600341796875e+01 -2.372796058654785156e+01 9.802696704864501953e-01 8.745912551879882812e+00 2.917854547500610352e+00 -3.112954646348953247e-02
1.879000000000000000e+03 7.798867034912109375e+01 -3.463393402099609375e+01 2.185711264610290527e-02 7.412024497985839844e+00 2.230164527893066406e+00 -4.183124378323554993e-02
1.880000000000000000e+03 7.606021881103515625e+01 -3.657630920410156250e+01 3.050190769135951996e-02 7.111367225646972656e+00 2.142560720443725586e+00 -3.295550346374511719e-01
1.881000000000000000e+03 7.643010711669921875e+01 -3.337421035766601562e+01 1.532025486230850220e-01 6.961490154266357422e+00 2.134407758712768555e+00 -1.964898407459259033e-02
1.882000000000000000e+03 7.629757690429687500e+01 -3.187529563903808594e+01 1.722883582115173340e-01 6.889973640441894531e+00 2.118678569793701172e+00 1.323330402374267578e-01
1.883000000000000000e+03 7.480976104736328125e+01 -4.038298416137695312e+01 -2.588128149509429932e-01 7.086764812469482422e+00 2.048385620117187500e+00 -3.480939865112304688e-01
1.884000000000000000e+03 7.815906524658203125e+01 2.208977890014648438e+01 -1.258505880832672119e-01 7.353620052337646484e+00 2.168330907821655273e+00 6.636830419301986694e-02
1.885000000000000000e+03 7.699311065673828125e+01 2.057718658447265625e+01 -3.345949053764343262e-01 7.268505573272705078e+00 2.080173254013061523e+00 3.047802150249481201e-01
1.886000000000000000e+03 7.582044219970703125e+01 2.317675399780273438e+01 -4.248103201389312744e-01 6.848421096801757812e+00 1.927083134651184082e+00 -3.297912776470184326e-01
1.887000000000000000e+03 7.698290252685546875e+01 2.195478630065917969e+01 -3.602914810180664062e-01 7.195169448852539062e+00 2.050463438034057617e+00 1.086585130542516708e-02
1.888000000000000000e+03 7.704580688476562500e+01 1.503172683715820312e+01 3.920126557350158691e-01 6.990046977996826172e+00 2.214617729187011719e+00 6.232190728187561035e-01
1.889000000000000000e+03 7.821336364746093750e+01 1.384449768066406250e+01 2.800977528095245361e-01 6.239314556121826172e+00 1.955823659896850586e+00 2.859307229518890381e-01
1.890000000000000000e+03 7.532350921630859375e+01 1.300724220275878906e+01 1.227938055992126465e+00 8.214708328247070312e+00 2.832793712615966797e+00 1.071575731039047241e-01
1.891000000000000000e+03 7.699422454833984375e+01 -2.176039505004882812e+01 7.347134351730346680e-01 8.168877601623535156e+00 2.671077489852905273e+00 4.926547408103942871e-01
1.892000000000000000e+03 7.797472381591796875e+01 1.106712150573730469e+01 3.163320124149322510e-01 6.482139110565185547e+00 2.039541244506835938e+00 -4.392274916172027588e-01
1.893000000000000000e+03 7.686490631103515625e+01 2.475477600097656250e+01 -1.142256408929824829e-01 6.884085655212402344e+00 2.030958175659179688e+00 -2.834571599960327148e-01
1.894000000000000000e+03 7.802524566650390625e+01 2.632480621337890625e+01 -5.946992430835962296e-03 7.053106784820556641e+00 2.114147901535034180e+00 -1.916135698556900024e-01
1.895000000000000000e+03 7.771208953857421875e+01 3.076631355285644531e+01 9.403362125158309937e-02 6.833558082580566406e+00 2.078277587890625000e+00 3.120570210739970207e-03
1.896000000000000000e+03 7.646201324462890625e+01 2.901950454711914062e+01 1.768860518932342529e-01 6.560286998748779297e+00 2.021151781082153320e+00 -1.086238920688629150e-01
1.897000000000000000e+03 7.804459381103515625e+01 -1.227013397216796875e+01 -5.837873220443725586e-01 9.593773841857910156e+00 2.702996015548706055e+00 -2.771286368370056152e-01
1.898000000000000000e+03 7.832387542724609375e+01 -1.649129676818847656e+01 -1.077150702476501465e-01 9.076010704040527344e+00 2.690488815307617188e+00 8.800325989723205566e-01
1.899000000000000000e+03 7.589702606201171875e+01 -1.965180778503417969e+01 5.439190268516540527e-01 8.929602622985839844e+00 2.842056512832641602e+00 1.072228312492370605e+00
1.900000000000000000e+03 7.830877685546875000e+01 -6.524176597595214844e+00 3.513509333133697510e-01 8.959031105041503906e+00 2.793114423751831055e+00 4.499503597617149353e-02
1.901000000000000000e+03 7.601148986816406250e+01 4.145731925964355469e+00 -3.180951774120330811e-01 7.188482761383056641e+00 2.061116456985473633e+00 -9.412411451339721680e-01
1.902000000000000000e+03 7.665943908691406250e+01 3.622781753540039062e+01 1.190623501315712929e-03 6.770903587341308594e+00 2.031628370285034180e+00 2.354025542736053467e-01
1.903000000000000000e+03 7.802930450439453125e+01 -1.440986275672912598e+00 -3.620134294033050537e-01 9.020415306091308594e+00 2.597520589828491211e+00 3.563695251941680908e-01
1.904000000000000000e+03 7.504770660400390625e+01 2.874792098999023438e+01 2.699913978576660156e-01 6.138251304626464844e+00 1.922472834587097168e+00 -1.565626412630081177e-01
1.905000000000000000e+03 7.793997955322265625e+01 6.782233715057373047e+00 -3.147657588124275208e-02 7.429674148559570312e+00 2.219459295272827148e+00 -9.158436059951782227e-01
1.906000000000000000e+03 7.655990600585937500e+01 6.944922447204589844e+00 -8.857537060976028442e-02 7.427911758422851562e+00 2.201800823211669922e+00 -1.103747010231018066e+00
1.907000000000000000e+03 7.708383941650390625e+01 -1.528940773010253906e+01 -5.811340212821960449e-01 8.595767021179199219e+00 2.404389858245849609e+00 8.509140610694885254e-01
1.908000000000000000e+03 7.697628021240234375e+01 3.527370452880859375e+01 -2.583970315754413605e-02 6.821669578552246094e+00 2.038748979568481445e+00 1.907336413860321045e-01
1.909000000000000000e+03 7.477320098876953125e+01 3.170608329772949219e+01 2.559372186660766602e-01 6.139102935791015625e+00 1.918512105941772461e+00 1.549853980541229248e-01
1.910000000000000000e+03 7.598634338378906250e+01 3.194924354553222656e+01 1.614585518836975098e-01 6.497334957122802734e+00 1.997637987136840820e+00 1.078236848115921021e-01
1.911000000000000000e+03 7.337367248535156250e+01 1.772495460510253906e+01 -6.615635752677917480e-01 7.911272048950195312e+00 2.174912452697753906e+00 9.929244965314865112e-02
1.912000000000000000e+03 7.552529144287109375e+01 1.033022117614746094e+01 7.820635437965393066e-01 7.748551368713378906e+00 2.559184551239013672e+00 -8.083541393280029297e-01
1.913000000000000000e+03 7.689398956298828125e+01 8.252013206481933594e+00 1.507618427276611328e-01 7.316545963287353516e+00 2.240192413330078125e+00 -1.063946127891540527e+00
1.914000000000000000e+03 7.823870086669921875e+01 3.431353759765625000e+01 -7.276433985680341721e-03 6.997131347656250000e+00 2.096956491470336914e+00 8.493365347385406494e-02
1.915000000000000000e+03 7.299684143066406250e+01 4.889150142669677734e+00 -3.471808731555938721e-01 5.689597606658935547e+00 1.602725028991699219e+00 1.324476748704910278e-01
1.916000000000000000e+03 7.583292388916015625e+01 2.176459789276123047e+00 -4.508835077285766602e-01 7.067975997924804688e+00 1.985127687454223633e+00 -8.220998644828796387e-01
1.917000000000000000e+03 7.682395172119140625e+01 4.934958457946777344e+00 -1.820201426744461060e-01 7.557230472564697266e+00 2.212563037872314453e+00 -9.484723806381225586e-01
1.918000000000000000e+03 7.767489624023437500e+01 -4.784746170043945312e+00 3.854301273822784424e-01 9.679033279418945312e+00 3.019338846206665039e+00 6.059527993202209473e-01
1.919000000000000000e+03 7.510021972656250000e+01 -1.319521617889404297e+01 -1.533538103103637695e+00 7.042671680450439453e+00 1.652740120887756348e+00 7.588558793067932129e-01
1.920000000000000000e+03 7.596624755859375000e+01 -1.031043338775634766e+01 -5.082226395606994629e-01 9.815745353698730469e+00 2.792256832122802734e+00 -6.735014319419860840e-01
1.921000000000000000e+03 7.625392913818359375e+01 -2.344149351119995117e+00 -6.314907073974609375e-01 8.596123695373535156e+00 2.389389753341674805e+00 1.788276880979537964e-01
1.922000000000000000e+03 4.604473495483398438e+01 -1.543815898895263672e+01 -2.814359903335571289e+00 5.714109420776367188e+00 8.699247837066650391e-01 2.684455633163452148e+00
1.923000000000000000e+03 2.154845619201660156e+01 2.411632156372070312e+01 -1.084328442811965942e-01 1.063372135162353516e+01 3.157586574554443359e+00 7.889236509799957275e-02
1.924000000000000000e+03 2.178442955017089844e+01 2.531885528564453125e+01 -7.735059857368469238e-01 9.420022964477539062e+00 2.593955039978027344e+00 -7.210985422134399414e-01
1.925000000000000000e+03 6.500374603271484375e+01 -2.530195617675781250e+01 -1.059390544891357422e+00 8.337236404418945312e+00 2.183353662490844727e+00 -2.925248622894287109e+00
1.926000000000000000e+03 4.436611175537109375e+01 3.433793258666992188e+01 -1.232657313346862793e+00 2.862792491912841797e+00 4.890405535697937012e-01 -9.374774694442749023e-01
1.927000000000000000e+03 2.127711677551269531e+01 1.410700130462646484e+01 3.752832412719726562e-01 9.563236236572265625e+00 2.981555938720703125e+00 -1.524114370346069336e+00
1.928000000000000000e+03 6.591178131103515625e+01 -2.770791816711425781e+01 -7.250475287437438965e-01 7.597127437591552734e+00 2.061624050140380859e+00 -2.515897035598754883e+00
1.929000000000000000e+03 6.701117706298828125e+01 -2.770496940612792969e+01 2.486125826835632324e-01 6.221303462982177734e+00 1.940974831581115723e+00 -2.590810537338256836e+00
1.930000000000000000e+03 3.886011123657226562e+01 -1.644293594360351562e+01 -8.107376098632812500e-01 5.305197715759277344e+00 1.348338127136230469e+00 -1.881659150123596191e+00
1.931000000000000000e+03 3.913847351074218750e+01 -1.344318675994873047e+01 -2.885905742645263672e+00 5.349221706390380859e+00 7.389948368072509766e-01 -2.485170841217041016e+00
1.932000000000000000e+03 2.068239974975585938e+01 3.686786293983459473e-01 4.600281417369842529e-01 -2.582386434078216553e-01 6.053684651851654053e-02 5.006364583969116211e-01
1.933000000000000000e+03 9.937375068664550781e+00 7.914368152618408203e+00 1.435215353965759277e+00 3.998726129531860352e+00 1.630182385444641113e+00 -1.725503087043762207e+00
1.934000000000000000e+03 2.764034461975097656e+01 -2.782914161682128906e+01 -1.685932040214538574e+00 6.186649799346923828e+00 1.350215435028076172e+00 -7.421961426734924316e-02
1.935000000000000000e+03 1.685261011123657227e+00 3.207311630249023438e+01 -1.010816246271133423e-01 2.285676479339599609e+00 6.553784012794494629e-01 -7.569749951362609863e-01
1.936000000000000000e+03 3.724157094955444336e+00 3.323227691650390625e+01 -4.610079228878021240e-01 2.522826194763183594e+00 6.185454726219177246e-01 -7.599346637725830078e-01
1.937000000000000000e+03 1.819437742233276367e+00 2.458233070373535156e+01 1.646482199430465698e-01 8.641248345375061035e-01 3.086318969726562500e-01 1.003186851739883423e-01
1.938000000000000000e+03 3.459645509719848633e+00 2.836083030700683594e+01 6.933908462524414062e-01 2.568339586257934570e+00 9.785190820693969727e-01 -9.943946599960327148e-01
1.939000000000000000e+03 4.212736129760742188e+00 2.411093521118164062e+01 1.066785603761672974e-01 2.540694475173950195e+00 7.942119240760803223e-01 -1.638064831495285034e-01
1.940000000000000000e+03 3.529139995574951172e+00 3.046647834777832031e+01 -5.396139249205589294e-02 2.821060419082641602e+00 8.301297426223754883e-01 -1.012956857681274414e+00
1.941000000000000000e+03 1.997733831405639648e+00 3.086144447326660156e+01 -3.531302092596888542e-03 2.127318620681762695e+00 6.371361613273620605e-01 -8.963105082511901855e-01
1.942000000000000000e+03 2.014481067657470703e+00 3.588290786743164062e+01 -2.132232189178466797e-01 2.910219907760620117e+00 8.090990185737609863e-01 -1.653975993394851685e-01
1.943000000000000000e+03 4.937442779541015625e+00 3.382473373413085938e+01 -8.081697821617126465e-01 2.119033575057983398e+00 3.932591378688812256e-01 -5.220683217048645020e-01
1.944000000000000000e+03 2.893690824508666992e+00 3.951048660278320312e+01 -4.450012370944023132e-02 2.990308523178100586e+00 8.837425112724304199e-01 1.109433546662330627e-01
1.945000000000000000e+03 4.059404373168945312e+00 -3.590534210205078125e+01 1.425503790378570557e-01 2.580065965652465820e+00 8.167849183082580566e-01 4.239860773086547852e-01
1.946000000000000000e+03 1.730954408645629883e+00 -2.871291732788085938e+01 2.770945057272911072e-02 2.635623693466186523e+00 7.989999651908874512e-01 -3.577743768692016602e-01
1.947000000000000000e+03 5.978171348571777344e+00 -2.729786300659179688e+01 1.939591020345687866e-02 1.147736907005310059e+00 3.501398563385009766e-01 -5.343332886695861816e-01
1.948000000000000000e+03 5.075698375701904297e+00 -3.432079315185546875e+01 3.627655208110809326e-01 2.372762680053710938e+00 8.206585049629211426e-01 4.590871632099151611e-01
1.949000000000000000e+03 3.094807624816894531e+00 -2.958476829528808594e+01 1.653673350811004639e-01 2.230345726013183594e+00 7.187138795852661133e-01 -4.030075073242187500e-01
1.950000000000000000e+03 1.837797403335571289e+00 -3.002291679382324219e+01 1.091272830963134766e-01 2.502727746963500977e+00 7.835565209388732910e-01 -2.774323225021362305e-01
1.951000000000000000e+03 7.033143997192382812e+00 2.271944808959960938e+01 -3.645432889461517334e-01 2.647132396697998047e+00 6.847767233848571777e-01 -1.033679008483886719e+00
1.952000000000000000e+03 1.686816930770874023e+00 2.049964904785156250e+01 -1.484867632389068604e-01 6.186239719390869141e-01 1.410411596298217773e-01 -7.151135057210922241e-02
1.953000000000000000e+03 2.923100233078002930e+00 2.306941604614257812e+01 -1.066393032670021057e-01 1.604929685592651367e+00 4.494871199131011963e-01 3.759783133864402771e-02
1.954000000000000000e+03 2.086781501770019531e+00 -1.991392517089843750e+01 1.194099709391593933e-01 2.031493902206420898e+00 6.452711820602416992e-01 1.790124058723449707e+00
1.955000000000000000e+03 3.295628786087036133e+00 -1.510108947753906250e+01 4.971028864383697510e-01 2.123054742813110352e+00 7.860472798347473145e-01 2.481450140476226807e-01
1.956000000000000000e+03 6.054364681243896484e+00 -1.380222892761230469e+01 9.331171512603759766e-01 3.631267547607421875e+00 1.369315385818481445e+00 1.456403970718383789e+00
1.957000000000000000e+03 4.420284271240234375e+00 1.648451042175292969e+01 -2.315366566181182861e-01 1.333958029747009277e+00 3.307264149188995361e-01 -1.011765718460083008e+00
1.958000000000000000e+03 2.793817520141601562e+00 2.041346931457519531e+01 -3.012250661849975586e-01 1.156026959419250488e+00 2.564405798912048340e-01 -2.479275315999984741e-01
1.959000000000000000e+03 1.499715805053710938e+00 7.935588359832763672e+00 9.124039113521575928e-02 -1.314729213714599609e+00 -3.670466244220733643e-01 2.669359147548675537e-01
1.960000000000000000e+03 4.666143417358398438e+00 1.163711166381835938e+01 7.932219505310058594e-01 9.073868989944458008e-01 5.101826190948486328e-01 -6.011372804641723633e-01
1.961000000000000000e+03 3.124514102935791016e+00 -2.454715347290039062e+01 -6.784635782241821289e-01 2.527992010116577148e+00 5.548585653305053711e-01 -2.676151506602764130e-02
1.962000000000000000e+03 5.298830032348632812e+00 -2.308156967163085938e+01 -2.310956954956054688e+00 1.907378435134887695e+00 -1.210735589265823364e-01 -8.877360075712203979e-02
1.963000000000000000e+03 3.460166215896606445e+00 -1.632893371582031250e+01 9.512967467308044434e-01 2.500351667404174805e+00 1.035494446754455566e+00 7.614180445671081543e-01
1.964000000000000000e+03 2.626435756683349609e+00 -1.009806632995605469e+01 -1.114448979496955872e-01 3.224799036979675293e-01 6.331050395965576172e-02 -4.700642079114913940e-02
1.965000000000000000e+03 1.547316312789916992e+00 -9.012288093566894531e+00 -3.429585695266723633e-02 -2.982238531112670898e-01 -9.975591301918029785e-02 -8.232183754444122314e-02
1.966000000000000000e+03 2.505546092987060547e+00 7.970732688903808594e+00 2.305010855197906494e-01 -7.076750397682189941e-01 -1.431521773338317871e-01 3.382406830787658691e-01
1.967000000000000000e+03 1.794137120246887207e+00 1.480646038055419922e+01 2.098935842514038086e-02 -4.468595087528228760e-01 -1.277610510587692261e-01 -5.572895407676696777e-01
1.968000000000000000e+03 3.013810634613037109e+00 1.467085075378417969e+01 4.653164371848106384e-02 3.182114660739898682e-01 1.094229295849800110e-01 -8.258157968521118164e-01
1.969000000000000000e+03 2.610613584518432617e+00 -5.069528579711914062e+00 8.122049272060394287e-02 -1.267748177051544189e-01 -1.366629637777805328e-02 -1.635100245475769043e-01
1.970000000000000000e+03 1.517224788665771484e+00 -6.354887962341308594e+00 2.899186499416828156e-02 -3.163386583328247070e-01 -8.620404452085494995e-02 -9.759888797998428345e-02
1.971000000000000000e+03 2.635350942611694336e+00 9.290145874023437500e+00 2.893094718456268311e-01 -6.365397572517395020e-01 -1.041690781712532043e-01 1.195775493979454041e-01
1.972000000000000000e+03 4.063838958740234375e+00 -1.212884426116943359e+01 -1.592752188444137573e-01 1.841452598571777344e+00 5.046532154083251953e-01 2.555475533008575439e-01
1.973000000000000000e+03 2.578754186630249023e+00 -8.856057167053222656e+00 -3.625549003481864929e-02 1.268227547407150269e-01 2.717018127441406250e-02 3.657450526952743530e-02
1.974000000000000000e+03 4.704360485076904297e+00 -3.677265548706054688e+01 9.468646347522735596e-02 2.600983619689941406e+00 8.087010383605957031e-01 5.075079202651977539e-01
1.975000000000000000e+03 2.371582508087158203e+00 -3.536927795410156250e+01 1.020833998918533325e-01 2.553258180618286133e+00 7.966024279594421387e-01 2.282390594482421875e-01
1.976000000000000000e+03 3.512993335723876953e+00 -3.358707427978515625e+01 2.869618535041809082e-01 2.338805913925170898e+00 7.877302765846252441e-01 1.871890872716903687e-01
1.977000000000000000e+03 5.863152027130126953e+00 -3.268664169311523438e+01 7.694647908210754395e-01 2.027360677719116211e+00 8.390476107597351074e-01 3.558891117572784424e-01
1.978000000000000000e+03 6.517834186553955078e+00 -2.581397628784179688e+01 -7.129284739494323730e-01 7.239570021629333496e-01 3.308544633910059929e-03 -5.733532309532165527e-01
1.979000000000000000e+03 3.302357435226440430e+00 -1.948418807983398438e+01 6.705266237258911133e-01 2.974943637847900391e+00 1.093641042709350586e+00 1.818797588348388672e+00
1.980000000000000000e+03 2.634233236312866211e+00 1.065460014343261719e+01 3.506864309310913086e-01 -5.800907015800476074e-01 -6.882128119468688965e-02 -1.623776257038116455e-01
1.981000000000000000e+03 5.120211124420166016e+00 1.074363803863525391e+01 9.098458290100097656e-01 1.073606967926025391e+00 5.950358510017395020e-01 -4.598799347877502441e-01
1.982000000000000000e+03 2.561866044998168945e+00 1.195499038696289062e+01 2.697119414806365967e-01 -4.709807336330413818e-01 -6.038063392043113708e-02 -4.235951900482177734e-01
1.983000000000000000e+03 2.683911561965942383e+00 1.325592041015625000e+01 2.209896743297576904e-01 -1.914712488651275635e-01 8.855526335537433624e-03 -6.485256552696228027e-01
1.984000000000000000e+03 3.129893541336059570e+00 1.622217178344726562e+01 -8.598460257053375244e-02 6.330903172492980957e-01 1.641317158937454224e-01 -8.248287439346313477e-01
1.985000000000000000e+03 2.772191047668457031e+00 1.918980026245117188e+01 -2.844095826148986816e-01 9.182060360908508301e-01 1.901389360427856445e-01 -4.158381521701812744e-01
1.986000000000000000e+03 6.753103733062744141e+00 1.882331275939941406e+01 -7.419466376304626465e-01 2.303411245346069336e+00 4.684394001960754395e-01 -8.776302337646484375e-01
1.987000000000000000e+03 2.266618347167968750e+01 -1.959563255310058594e+01 2.269262313842773438e+00 1.380464196205139160e+00 1.094918012619018555e+00 -1.050170660018920898e+00
1.988000000000000000e+03 2.638386917114257812e+01 2.988058853149414062e+01 -3.912328779697418213e-01 3.502514362335205078e-01 -1.229443959891796112e-02 -3.726711729541420937e-03
1.989000000000000000e+03 7.215560150146484375e+01 1.957330322265625000e+01 -1.667075753211975098e+00 6.773676395416259766e+00 1.531980156898498535e+00 -7.135123014450073242e-01
1.990000000000000000e+03 3.381610870361328125e+01 -6.068901062011718750e+00 2.951957225799560547e+00 5.373421192169189453e+00 2.497613430023193359e+00 -8.319586515426635742e-01
1.991000000000000000e+03 5.355463790893554688e+01 -3.776763153076171875e+01 -1.155597805976867676e+00 6.776006221771240234e+00 1.686122536659240723e+00 1.470238715410232544e-01
1.992000000000000000e+03 5.706898880004882812e+01 -4.084180831909179688e+01 -2.495013236999511719e+00 4.760240554809570312e+00 6.795681715011596680e-01 -8.088782429695129395e-01
1.993000000000000000e+03 2.192796707153320312e+01 2.632080078125000000e+01 -4.514165520668029785e-01 9.133271217346191406e+00 2.604556322097778320e+00 -8.436840176582336426e-01
1.994000000000000000e+03 4.073704147338867188e+01 2.331672191619873047e+00 1.275234818458557129e+00 6.008839130401611328e+00 2.185222387313842773e+00 -1.664131730794906616e-01
1.995000000000000000e+03 4.398120880126953125e+01 -3.146630764007568359e+00 -6.585684418678283691e-01 1.961573481559753418e+00 3.909015059471130371e-01 -1.605392813682556152e+00
1.996000000000000000e+03 2.749815940856933594e+01 2.219873905181884766e+00 -4.658722579479217529e-01 5.441644668579101562e+00 1.492731690406799316e+00 -1.831664681434631348e+00
1.997000000000000000e+03 5.533262252807617188e+01 1.852263069152832031e+01 1.815682798624038696e-01 4.681686401367187500e+00 1.458976387977600098e+00 -1.776888132095336914e+00
1.998000000000000000e+03 5.345288848876953125e+01 1.890237617492675781e+01 -6.171007752418518066e-01 4.246934890747070312e+00 1.088950276374816895e+00 -2.290636777877807617e+00
1.999000000000000000e+03 5.296179580688476562e+01 -4.065410614013671875e+01 -2.998388290405273438e+00 6.868577957153320312e+00 1.161056876182556152e+00 3.653003275394439697e-01
2.000000000000000000e+03 2.510558509826660156e+01 8.863901138305664062e+00 3.075346708297729492e+00 4.308517456054687500e+00 2.215159177780151367e+00 -3.674900233745574951e-01
2.001000000000000000e+03 3.663444519042968750e+01 1.337403106689453125e+01 -2.444436401128768921e-02 1.722026824951171875e+00 5.092747211456298828e-01 -2.045448303222656250e+00
2.002000000000000000e+03 4.942060470581054688e+01 -9.651642799377441406e+00 2.134465217590332031e+00 7.913814067840576172e+00 3.014483928680419922e+00 5.377786699682474136e-03
2.003000000000000000e+03 2.430105781555175781e+01 -2.803886222839355469e+01 -1.459042429924011230e+00 5.085716724395751953e+00 1.088002324104309082e+00 -4.178367555141448975e-01
2.004000000000000000e+03 2.071118545532226562e+01 -2.375954437255859375e+01 5.951298475265502930e-01 7.093045711517333984e-01 3.913303017616271973e-01 -7.055917382240295410e-01
2.005000000000000000e+03 7.484578704833984375e+01 -2.175416183471679688e+01 1.381432771682739258e+00 1.068384742736816406e+01 3.619584083557128906e+00 3.432908654212951660e-01
2.006000000000000000e+03 7.542086029052734375e+01 -2.274376487731933594e+01 1.256812453269958496e+00 9.668431282043457031e+00 3.277573108673095703e+00 2.706429064273834229e-01
2.007000000000000000e+03 4.233765029907226562e+01 1.567220115661621094e+01 1.961684703826904297e+00 6.221050262451171875e+00 2.454820394515991211e+00 1.588151976466178894e-02
2.008000000000000000e+03 5.489039230346679688e+01 2.264422225952148438e+01 -9.826613068580627441e-01 4.233832359313964844e+00 9.753513336181640625e-01 -2.461056232452392578e+00
2.009000000000000000e+03 5.380383300781250000e+01 2.462713813781738281e+01 1.412500292062759399e-01 5.745408058166503906e+00 1.765997409820556641e+00 -1.281870603561401367e+00
2.010000000000000000e+03 4.608037185668945312e+01 -4.372932434082031250e+00 6.618844270706176758e-01 4.240877151489257812e+00 1.470828533172607422e+00 -2.227312326431274414e+00
2.011000000000000000e+03 4.633794784545898438e+01 -3.298090934753417969e+00 6.711897999048233032e-02 4.240854740142822266e+00 1.292392134666442871e+00 -2.009181499481201172e+00
2.012000000000000000e+03 1.680712127685546875e+01 -1.321359157562255859e+01 -3.443049907684326172e+00 8.025578498840332031e+00 1.374758481979370117e+00 -4.554507732391357422e-01
2.013000000000000000e+03 3.110428619384765625e+01 1.905563235282897949e+00 -1.767847180366516113e+00 3.589033126831054688e+00 5.463557839393615723e-01 -1.260776758193969727e+00
2.014000000000000000e+03 4.211526393890380859e+00 1.248869514465332031e+01 5.187347531318664551e-01 6.909883022308349609e-01 3.629169166088104248e-01 -7.518032789230346680e-01
2.015000000000000000e+03 5.609329986572265625e+01 1.016345882415771484e+01 1.473634004592895508e+00 9.597839355468750000e+00 3.321442127227783203e+00 1.148890733718872070e+00
2.016000000000000000e+03 4.757305526733398438e+01 -2.420951575040817261e-01 3.837394714355468750e-01 4.289221286773681641e+00 1.401888132095336914e+00 -2.034091234207153320e+00
2.017000000000000000e+03 5.163927459716796875e+01 2.093009376525878906e+01 -3.510625064373016357e-01 3.920205593109130859e+00 1.070742964744567871e+00 -1.965249896049499512e+00
2.018000000000000000e+03 4.712018966674804688e+00 2.956244087219238281e+01 1.838845461606979370e-01 3.586228370666503906e+00 1.131033897399902344e+00 -7.636964917182922363e-01
2.019000000000000000e+03 4.636228084564208984e+00 3.076314544677734375e+01 -1.763699799776077271e-01 3.077449560165405273e+00 8.703238368034362793e-01 -9.055610299110412598e-01
2.020000000000000000e+03 6.364675140380859375e+01 -1.315725421905517578e+01 -1.597345709800720215e+00 6.555386066436767578e+00 1.487412095069885254e+00 6.960004568099975586e-01
2.021000000000000000e+03 6.556296539306640625e+01 -1.428271198272705078e+01 -1.508021593093872070e+00 4.306930065155029297e+00 8.396725058555603027e-01 3.082883656024932861e-01
2.022000000000000000e+03 4.619689178466796875e+01 3.359048461914062500e+01 -8.844779133796691895e-01 4.771040439605712891e+00 1.165968775749206543e+00 -5.318118333816528320e-01
2.023000000000000000e+03 5.355527400970458984e+00 2.371521759033203125e+01 -5.584438890218734741e-02 2.934992313385009766e+00 8.637443780899047852e-01 -3.419503569602966309e-01
2.024000000000000000e+03 4.916184997558593750e+01 2.969770240783691406e+01 1.340913176536560059e+00 6.753958225250244141e+00 2.428461551666259766e+00 8.990361094474792480e-01
2.025000000000000000e+03 1.579280281066894531e+01 2.176448249816894531e+01 5.360559821128845215e-01 -7.885879278182983398e-01 -7.575958222150802612e-02 -3.449923694133758545e-01
2.026000000000000000e+03 7.567192840576171875e+01 1.790741729736328125e+01 -3.483820557594299316e-01 7.552190303802490234e+00 2.161142587661743164e+00 7.055096626281738281e-01
2.027000000000000000e+03 1.120220661163330078e+01 -3.505329132080078125e+01 5.513502955436706543e-01 3.314919471740722656e+00 1.159880995750427246e+00 9.596536755561828613e-01
2.028000000000000000e+03 2.984414291381835938e+01 -1.427850627899169922e+01 -3.837548494338989258e+00 6.708917617797851562e+00 8.614107370376586914e-01 2.000302314758300781e+00
2.029000000000000000e+03 2.327946090698242188e+01 -1.503753948211669922e+01 -2.276790618896484375e+00 -6.452292203903198242e-01 -8.766059279441833496e-01 -3.404111564159393311e-01
2.030000000000000000e+03 2.757118225097656250e+01 -1.797888946533203125e+01 5.262198448181152344e-01 5.889144420623779297e+00 1.924609303474426270e+00 9.155811071395874023e-01
2.031000000000000000e+03 3.230544281005859375e+01 2.573711776733398438e+01 4.611445665359497070e-01 8.316593170166015625e+00 2.633321285247802734e+00 2.218455225229263306e-01
2.032000000000000000e+03 9.415746688842773438e+00 9.112009048461914062e+00 1.848906040191650391e+00 4.955571174621582031e+00 2.041343212127685547e+00 -1.482525110244750977e+00
2.033000000000000000e+03 8.955598831176757812e+00 4.119864463806152344e+00 1.000491455197334290e-01 1.147763967514038086e+00 3.743439316749572754e-01 -6.196105480194091797e-01
2.034000000000000000e+03 6.067961502075195312e+01 -1.999619865417480469e+01 2.415700912475585938e+00 5.460092544555664062e+00 2.362738132476806641e+00 -7.274221777915954590e-01
2.035000000000000000e+03 6.229676818847656250e+01 -1.911147117614746094e+01 1.327350378036499023e+00 6.870635986328125000e+00 2.459395885467529297e+00 -1.255292177200317383e+00
2.036000000000000000e+03 9.329817771911621094e+00 2.092899322509765625e+01 -5.351763367652893066e-01 1.466918110847473145e+00 2.795225381851196289e-01 -6.046223044395446777e-01
2.037000000000000000e+03 1.232346343994140625e+01 1.892396354675292969e+01 -4.398296773433685303e-01 3.869206607341766357e-01 -1.587270386517047882e-02 6.072335690259933472e-02
2.038000000000000000e+03 3.790528106689453125e+01 -3.321773052215576172e+00 -8.287475258111953735e-02 4.220470428466796875e+00 1.241278648376464844e+00 2.393688917160034180e+00
2.039000000000000000e+03 3.829321289062500000e+01 -2.243844270706176758e+00 -3.871119618415832520e-01 3.825513839721679688e+00 1.031520605087280273e+00 2.776219844818115234e+00
2.040000000000000000e+03 1.491650772094726562e+01 -2.272442436218261719e+01 -1.059502243995666504e+00 4.351618289947509766e+00 9.876348376274108887e-01 1.922963142395019531e+00
2.041000000000000000e+03 7.247207641601562500e+01 -1.617020988464355469e+01 -3.150767683982849121e-01 3.817240953445434570e+00 1.050649285316467285e+00 -7.958450317382812500e-01
2.042000000000000000e+03 4.124243927001953125e+01 -1.582321834564208984e+01 -1.385610699653625488e+00 2.925520658493041992e+00 4.619729816913604736e-01 -1.882788538932800293e+00
2.043000000000000000e+03 7.051367950439453125e+01 -3.701441192626953125e+01 -1.575370579957962036e-01 6.052825927734375000e+00 1.768586754798889160e+00 -1.117785692214965820e+00
2.044000000000000000e+03 6.727105712890625000e+01 -3.734139633178710938e+01 -1.029731750488281250e+00 4.992040634155273438e+00 1.188692688941955566e+00 -8.444674611091613770e-01
2.045000000000000000e+03 4.975093078613281250e+01 2.479174232482910156e+01 1.849398732185363770e+00 5.635340690612792969e+00 2.245421886444091797e+00 4.119600653648376465e-01
2.046000000000000000e+03 5.198571014404296875e+01 2.760161590576171875e+01 1.664861083030700684e+00 7.102293491363525391e+00 2.630146503448486328e+00 2.515623867511749268e-01
2.047000000000000000e+03 1.110232543945312500e+01 -3.143927192687988281e+01 1.472529530525207520e+00 3.135210990905761719e+00 1.382322192192077637e+00 1.223021030426025391e+00
2.048000000000000000e+03 1.957990837097167969e+01 6.534044265747070312e+00 -8.117158412933349609e-01 5.031716823577880859e+00 1.266000390052795410e+00 2.955764293670654297e+00
2.049000000000000000e+03 1.833697128295898438e+01 6.076537132263183594e+00 -1.239162921905517578e+00 4.223107814788818359e+00 8.951835036277770996e-01 3.301940202713012695e+00
2.050000000000000000e+03 2.880528068542480469e+01 -6.356508731842041016e-01 1.309247314929962158e-02 6.662143230438232422e+00 2.002570629119873047e+00 -2.377030611038208008e+00
2.051000000000000000e+03 2.966849517822265625e+01 -1.100342988967895508e+00 7.230365276336669922e-01 6.458309650421142578e+00 2.154403924942016602e+00 -1.993151664733886719e+00
2.052000000000000000e+03 2.603365516662597656e+01 -2.794398307800292969e+01 -1.472171068191528320e+00 6.013162612915039062e+00 1.362297534942626953e+00 -7.119787391275167465e-03
2.053000000000000000e+03 2.769493675231933594e+01 -2.629001235961914062e+01 -1.159210085868835449e+00 6.491974830627441406e+00 1.599829435348510742e+00 -1.294285804033279419e-01
2.054000000000000000e+03 5.599238204956054688e+01 8.845851898193359375e+00 2.048281669616699219e+00 8.419281005859375000e+00 3.140268802642822266e+00 1.396203398704528809e+00
2.055000000000000000e+03 5.959729385375976562e+01 8.129834175109863281e+00 1.459302902221679688e-01 6.395571708679199219e+00 1.962450623512268066e+00 -8.556088209152221680e-01
2.056000000000000000e+03 1.966531372070312500e+01 -1.564132690429687500e+01 -9.585942625999450684e-01 3.100027561187744141e+00 6.424299478530883789e-01 -1.187256574630737305e+00
2.057000000000000000e+03 2.008248329162597656e+01 -1.436630344390869141e+01 -2.523171186447143555e+00 3.037287950515747070e+00 1.542350798845291138e-01 -1.163260459899902344e+00
2.058000000000000000e+03 5.067785644531250000e+01 -3.169136619567871094e+01 3.368273735046386719e+00 7.771150588989257812e+00 3.341827154159545898e+00 -1.478818655014038086e+00
2.059000000000000000e+03 5.131170654296875000e+01 -3.236003494262695312e+01 2.756327629089355469e+00 7.648854255676269531e+00 3.121554613113403320e+00 -1.181340456008911133e+00
2.060000000000000000e+03 3.868445968627929688e+01 -3.061434745788574219e+01 9.756941795349121094e-01 7.603908538818359375e+00 2.573880910873413086e+00 2.258413076400756836e+00
2.061000000000000000e+03 1.363404083251953125e+01 -1.059978771209716797e+01 2.174114286899566650e-01 2.489504814147949219e+00 8.120748996734619141e-01 7.379246354103088379e-01
2.062000000000000000e+03 4.331312942504882812e+01 -1.499907112121582031e+01 -1.692412495613098145e+00 9.785026907920837402e-01 -2.141729444265365601e-01 2.001187205314636230e-01
2.063000000000000000e+03 2.824839973449707031e+01 -1.948093795776367188e+01 1.721931099891662598e+00 8.388792037963867188e+00 3.033216953277587891e+00 1.587673187255859375e+00
2.064000000000000000e+03 5.536867523193359375e+01 1.482720279693603516e+01 1.356056571006774902e+00 6.713114261627197266e+00 2.420751333236694336e+00 -7.418823242187500000e-01
2.065000000000000000e+03 6.070425033569335938e+01 1.752564048767089844e+01 2.689763784408569336e+00 8.865839004516601562e+00 3.466681003570556641e+00 2.935710430145263672e+00
2.066000000000000000e+03 4.436081314086914062e+01 -1.853765869140625000e+01 1.765641450881958008e+00 4.752757549285888672e+00 1.955519795417785645e+00 1.439307034015655518e-01
2.067000000000000000e+03 4.754181289672851562e+01 -1.299302387237548828e+01 -1.869541287422180176e+00 7.500411510467529297e+00 1.689261078834533691e+00 1.639065861701965332e+00
2.068000000000000000e+03 7.586666107177734375e+01 -4.186996459960937500e+00 2.201107591390609741e-01 9.687729835510253906e+00 2.972352266311645508e+00 -1.983736641705036163e-02
2.069000000000000000e+03 7.675733947753906250e+01 -1.280807495117187500e+00 -6.452980041503906250e-01 8.490083694458007812e+00 2.353435754776000977e+00 2.170594595372676849e-02
2.070000000000000000e+03 1.603051567077636719e+01 -4.140189647674560547e+00 9.644707441329956055e-01 1.050078201293945312e+01 3.439575910568237305e+00 1.082582235336303711e+00
2.071000000000000000e+03 1.451617813110351562e+01 -6.008718967437744141e+00 2.546017885208129883e+00 6.780690193176269531e+00 2.798012495040893555e+00 3.128346800804138184e-01
2.072000000000000000e+03 3.576075744628906250e+01 -3.065081596374511719e+01 6.103757619857788086e-01 1.408153295516967773e+00 6.055586934089660645e-01 6.224557161331176758e-01
2.073000000000000000e+03 3.853458023071289062e+01 1.308137321472167969e+01 1.832655668258666992e-01 3.849198341369628906e+00 1.209739089012145996e+00 -1.545747399330139160e+00
2.074000000000000000e+03 3.848923110961914062e+01 1.192664909362792969e+01 -4.317210614681243896e-01 4.391058444976806641e+00 1.187801241874694824e+00 -1.056853175163269043e+00
2.075000000000000000e+03 6.846888732910156250e+01 -1.307522487640380859e+01 -5.148134827613830566e-01 1.225869417190551758e+00 2.133167982101440430e-01 -1.355103969573974609e+00
2.076000000000000000e+03 6.580831909179687500e+01 -1.197029590606689453e+01 -5.501253008842468262e-01 5.144784927368164062e+00 1.378397822380065918e+00 -7.151633501052856445e-01
2.077000000000000000e+03 5.436576461791992188e+01 -3.283966064453125000e+01 2.354360580444335938e+00 8.120108604431152344e+00 3.142340660095214844e+00 6.403393298387527466e-02
2.078000000000000000e+03 5.474440383911132812e+01 -3.124444580078125000e+01 2.332744359970092773e+00 8.016446113586425781e+00 3.104757308959960938e+00 9.202556014060974121e-01
2.079000000000000000e+03 1.863907432556152344e+01 3.509695816040039062e+01 -1.110733509063720703e+00 4.013228893280029297e+00 8.707486391067504883e-01 -9.916306734085083008e-01
2.080000000000000000e+03 6.468276214599609375e+01 3.990089416503906250e+01 -5.905558466911315918e-01 3.750904321670532227e+00 9.481045007705688477e-01 -1.334948390722274780e-01
2.081000000000000000e+03 1.765781021118164062e+01 4.572514533996582031e+00 2.738150656223297119e-01 5.818529605865478516e+00 1.827703475952148438e+00 3.577583312988281250e+00
2.082000000000000000e+03 2.464326286315917969e+01 1.473707008361816406e+01 -1.731107711791992188e+00 2.373841762542724609e+00 1.928202360868453979e-01 -1.278357148170471191e+00
2.083000000000000000e+03 1.846193504333496094e+01 2.108137512207031250e+01 1.092942476272583008e+00 2.209028244018554688e+00 9.905911684036254883e-01 9.744011610746383667e-02
2.084000000000000000e+03 1.907419013977050781e+01 1.851031494140625000e+01 -9.483788609504699707e-01 3.803182125091552734e+00 8.564409613609313965e-01 -5.038489103317260742e-01
2.085000000000000000e+03 5.862224960327148438e+01 -2.334390830993652344e+01 1.682719707489013672e+00 4.549458503723144531e+00 1.869653463363647461e+00 8.504894375801086426e-01
2.086000000000000000e+03 2.617628479003906250e+01 -2.967275619506835938e+01 -5.650851130485534668e-01 5.935878753662109375e+00 1.611238121986389160e+00 1.616175845265388489e-02
2.087000000000000000e+03 3.852224349975585938e+01 -9.982682466506958008e-01 -5.966932177543640137e-01 4.112725734710693359e+00 1.054809689521789551e+00 2.721321821212768555e+00
2.088000000000000000e+03 3.022446823120117188e+01 -3.658562898635864258e-01 -5.326845645904541016e-01 6.098564624786376953e+00 1.669764041900634766e+00 -1.977455854415893555e+00
2.089000000000000000e+03 6.372759246826171875e+01 -3.525678634643554688e+00 1.741984724998474121e+00 8.287678718566894531e+00 3.008898973464965820e+00 1.096455603837966919e-01
2.090000000000000000e+03 6.247068405151367188e+01 -4.289257526397705078e+00 1.746743798255920410e+00 9.806126594543457031e+00 3.465861320495605469e+00 -1.002659320831298828e+00
2.091000000000000000e+03 2.833843612670898438e+01 1.043055820465087891e+01 3.159021854400634766e+00 5.096729278564453125e+00 2.476725339889526367e+00 1.550356149673461914e+00
2.092000000000000000e+03 2.795569419860839844e+01 1.335009193420410156e+01 -8.048444986343383789e-02 1.942800045013427734e+00 5.586946606636047363e-01 1.747965455055236816e+00
2.093000000000000000e+03 3.547176361083984375e+01 2.376438331604003906e+01 -1.052610799670219421e-01 7.238350868225097656e+00 2.139926910400390625e+00 -9.996805191040039062e-01
2.094000000000000000e+03 4.312163352966308594e+00 3.196795272827148438e+01 -3.868953883647918701e-01 2.814991474151611328e+00 7.284287810325622559e-01 -7.854221463203430176e-01
2.095000000000000000e+03 1.807119369506835938e+01 2.235319328308105469e+01 8.122572898864746094e-01 1.275485754013061523e+00 6.263229250907897949e-01 1.133608445525169373e-01
2.096000000000000000e+03 6.614751815795898438e+00 2.112383651733398438e+01 -6.768285036087036133e-01 2.436510086059570312e+00 5.279045104980468750e-01 -8.761307597160339355e-01
2.097000000000000000e+03 4.565869140625000000e+01 -1.892210960388183594e+01 1.903063178062438965e+00 6.832811355590820312e+00 2.620762348175048828e+00 8.292815089225769043e-01
2.098000000000000000e+03 4.310439682006835938e+01 -1.803856468200683594e+01 1.672679305076599121e+00 3.730141401290893555e+00 1.620846271514892578e+00 1.925923675298690796e-02
2.099000000000000000e+03 5.953256225585937500e+01 -2.327530097961425781e+01 2.144754409790039062e+00 3.578852176666259766e+00 1.717082023620605469e+00 4.669893682003021240e-01
2.100000000000000000e+03 5.778974914550781250e+01 -2.142145729064941406e+01 2.832879066467285156e+00 5.838771343231201172e+00 2.601495027542114258e+00 4.420768022537231445e-01
2.101000000000000000e+03 2.877904510498046875e+01 -1.223693943023681641e+01 -1.788957715034484863e+00 6.138141632080078125e+00 1.304755210876464844e+00 2.213760852813720703e+00
2.102000000000000000e+03 6.392468261718750000e+01 2.582871198654174805e+00 -5.826321840286254883e-01 4.207285881042480469e+00 1.087396025657653809e+00 -5.521051287651062012e-01
2.103000000000000000e+03 4.884463500976562500e+01 -7.610712051391601562e+00 1.987697958946228027e+00 8.664776802062988281e+00 3.195742607116699219e+00 4.663451313972473145e-01
2.104000000000000000e+03 2.064933204650878906e+01 2.260202598571777344e+01 9.397541880607604980e-01 8.511270523071289062e+00 2.835307598114013672e+00 -3.167919218540191650e-01
2.105000000000000000e+03 4.510432815551757812e+01 -2.387737655639648438e+01 1.725662946701049805e+00 4.048287868499755859e+00 1.732185244560241699e+00 -8.410396575927734375e-01
2.106000000000000000e+03 6.166896057128906250e+01 6.751026153564453125e+00 -6.931460499763488770e-01 4.375600814819335938e+00 1.104736447334289551e+00 -1.859390497207641602e+00
2.107000000000000000e+03 5.137815093994140625e+01 -3.641263961791992188e+00 1.345876693725585938e+00 8.484847068786621094e+00 2.949217081069946289e+00 1.994060575962066650e-01
2.108000000000000000e+03 5.134380722045898438e+01 -2.437526464462280273e+00 9.404626488685607910e-01 7.432639598846435547e+00 2.511930704116821289e+00 -3.980355337262153625e-02
2.109000000000000000e+03 6.868801879882812500e+01 5.720848560333251953e+00 -6.742285937070846558e-02 1.514641761779785156e+00 4.341656863689422607e-01 2.062553405761718750e+00
2.110000000000000000e+03 5.450076293945312500e+01 -2.875089836120605469e+01 5.449553728103637695e-01 6.673032283782958984e+00 2.165396213531494141e+00 1.734462976455688477e+00
2.111000000000000000e+03 1.172930908203125000e+01 -2.843464279174804688e+01 6.926558017730712891e-01 2.616883516311645508e+00 9.928617477416992188e-01 1.221649765968322754e+00
2.112000000000000000e+03 1.046864128112792969e+01 -3.281525421142578125e+01 1.294142842292785645e+00 2.960064411163330078e+00 1.276262164115905762e+00 1.055365562438964844e+00
2.113000000000000000e+03 3.421680831909179688e+01 -3.042486381530761719e+01 -1.233594641089439392e-01 2.016366273164749146e-01 2.348314970731735229e-02 -5.384687781333923340e-01
2.114000000000000000e+03 3.175813865661621094e+01 -2.909442710876464844e+01 -1.714468121528625488e+00 2.455322027206420898e+00 2.222561389207839966e-01 -1.308767199516296387e+00
2.115000000000000000e+03 3.829846954345703125e+01 4.074190139770507812e+01 -7.100201249122619629e-01 2.516304731369018555e+00 5.418853163719177246e-01 2.358655035495758057e-01
2.116000000000000000e+03 3.181319618225097656e+01 4.113243484497070312e+01 -1.208133339881896973e+00 3.942202806472778320e+00 8.202208280563354492e-01 5.426106508821249008e-03
2.117000000000000000e+03 4.920310974121093750e+01 -2.837765884399414062e+01 3.749594986438751221e-01 5.435118675231933594e+00 1.743023395538330078e+00 -2.604776620864868164e+00
2.118000000000000000e+03 4.284061431884765625e+00 -2.189399909973144531e+01 -1.724013924598693848e+00 3.149930953979492188e+00 4.277750849723815918e-01 1.198676824569702148e+00
2.119000000000000000e+03 5.322914123535156250e+01 5.774558186531066895e-01 -1.183624863624572754e+00 5.886496067047119141e+00 1.410861372947692871e+00 1.646457672119140625e+00
2.120000000000000000e+03 4.983541870117187500e+01 -1.623468637466430664e+00 6.665900945663452148e-01 5.903759002685546875e+00 1.971104741096496582e+00 -9.208269715309143066e-01
2.121000000000000000e+03 1.615906143188476562e+01 -2.480607748031616211e+00 -8.212570548057556152e-01 1.098720073699951172e+01 3.049782991409301758e+00 1.937487483024597168e+00
2.122000000000000000e+03 1.947041320800781250e+01 2.487589120864868164e+00 3.860436677932739258e+00 3.220532894134521484e+00 2.124290943145751953e+00 4.191219806671142578e+00
2.123000000000000000e+03 6.786984252929687500e+01 1.784488558769226074e+00 2.418909370899200439e-01 2.297129869461059570e+00 7.617062330245971680e-01 2.040562391281127930e+00
2.124000000000000000e+03 1.058001136779785156e+01 -2.591027259826660156e+01 -6.939141750335693359e-01 1.001711726188659668e+00 9.233924746513366699e-02 1.002239584922790527e+00
2.125000000000000000e+03 6.087679672241210938e+01 1.865457534790039062e+01 1.649544835090637207e+00 7.404371738433837891e+00 2.716175079345703125e+00 2.171194553375244141e+00
2.126000000000000000e+03 5.857309722900390625e+01 2.226036262512207031e+01 -1.168709516525268555e+00 7.893894910812377930e-01 -1.137960255146026611e-01 3.025007843971252441e-01
2.127000000000000000e+03 2.119061088562011719e+01 3.055806159973144531e+01 1.156316161155700684e+00 6.437877655029296875e+00 2.278258085250854492e+00 4.681369960308074951e-01
2.128000000000000000e+03 3.497739791870117188e+01 -4.693035602569580078e+00 1.978380680084228516e+00 4.818396568298339844e+00 2.039033174514770508e+00 9.743180125951766968e-02
2.129000000000000000e+03 4.370802307128906250e+01 1.713440132141113281e+01 1.488948702812194824e+00 6.938226222991943359e+00 2.528152465820312500e+00 1.246382236480712891e+00
2.130000000000000000e+03 4.237469863891601562e+01 1.725028800964355469e+01 1.552765846252441406e+00 5.260435581207275391e+00 2.043960571289062500e+00 2.697786688804626465e-01
2.131000000000000000e+03 3.672236633300781250e+01 -1.435554695129394531e+01 -3.589760065078735352e+00 4.636665344238281250e+00 3.140715658664703369e-01 -2.995008945465087891e+00
2.132000000000000000e+03 3.868362045288085938e+01 -1.528897857666015625e+01 -2.747448205947875977e+00 5.810193538665771484e+00 9.188235998153686523e-01 -2.104367971420288086e+00
2.133000000000000000e+03 4.216975402832031250e+01 -1.647343063354492188e+01 1.050827726721763611e-01 2.548335313796997070e+00 7.960253953933715820e-01 -8.315354585647583008e-01
2.134000000000000000e+03 2.121488761901855469e+01 1.875455093383789062e+01 -9.039798974990844727e-01 9.798841476440429688e+00 2.668458461761474609e+00 1.222604870796203613e+00
2.135000000000000000e+03 3.320911026000976562e+01 2.484560012817382812e+01 5.347909927368164062e-01 8.869037628173828125e+00 2.821148633956909180e+00 4.242222905158996582e-01
2.136000000000000000e+03 4.325229263305664062e+01 1.128353023529052734e+01 9.207331538200378418e-01 8.808799743652343750e+00 2.918859720230102539e+00 9.149766564369201660e-01
2.137000000000000000e+03 4.335084152221679688e+01 1.261701679229736328e+01 1.318945050239562988e+00 9.171349525451660156e+00 3.147088527679443359e+00 6.239005327224731445e-01
2.138000000000000000e+03 3.872417068481445312e+01 2.267841696739196777e-01 -2.585115134716033936e-01 4.910566806793212891e+00 1.395616531372070312e+00 2.923567771911621094e+00
2.139000000000000000e+03 5.092232131958007812e+01 3.303973770141601562e+01 5.332900285720825195e-01 6.850775718688964844e+00 2.215219736099243164e+00 4.863755702972412109e-01
2.140000000000000000e+03 6.110924148559570312e+01 -1.676263046264648438e+01 2.838966250419616699e-02 6.389266490936279297e+00 1.925296783447265625e+00 -5.300684273242950439e-02
2.141000000000000000e+03 5.857829666137695312e+01 -1.939790534973144531e+01 2.206862449645996094e+00 5.997374057769775391e+00 2.461270809173583984e+00 -2.360174246132373810e-02
2.142000000000000000e+03 6.359270858764648438e+01 2.372244834899902344e+01 1.563989073038101196e-01 6.294996738433837891e+00 1.935418605804443359e+00 2.640890836715698242e+00
2.143000000000000000e+03 6.353590011596679688e+01 2.119163894653320312e+01 -2.178773164749145508e+00 5.015329360961914062e+00 8.509668707847595215e-01 3.696043252944946289e+00
2.144000000000000000e+03 2.687211036682128906e+01 -2.710882186889648438e+01 -1.543384313583374023e+00 6.194664955139160156e+00 1.395384192466735840e+00 3.291782438755035400e-01
2.145000000000000000e+03 2.828040504455566406e+01 1.407705783843994141e+01 -1.400181293487548828e+00 1.282345533370971680e+00 -3.535073250532150269e-02 3.001653671264648438e+00
2.146000000000000000e+03 2.671458053588867188e+01 1.361989021301269531e+01 -2.443528920412063599e-01 4.797513186931610107e-01 7.061953097581863403e-02 2.566599845886230469e-01
2.147000000000000000e+03 5.403045272827148438e+01 2.100287437438964844e+01 -7.629754543304443359e-01 4.478656768798828125e+00 1.114704370498657227e+00 -2.601593971252441406e+00
2.148000000000000000e+03 6.644760894775390625e+01 -3.955284500122070312e+01 -1.579732537269592285e+00 4.467779636383056641e+00 8.664141893386840820e-01 1.545039862394332886e-01
2.149000000000000000e+03 6.047946548461914062e+01 6.635787487030029297e+00 -6.906878948211669922e-01 5.536801338195800781e+00 1.453833937644958496e+00 -1.620147109031677246e+00
2.150000000000000000e+03 5.997467803955078125e+01 9.314270019531250000e+00 8.357071876525878906e-01 6.357392311096191406e+00 2.157929897308349609e+00 -6.097602844238281250e-01
2.151000000000000000e+03 1.622867965698242188e+01 -1.457180023193359375e+01 -2.907794952392578125e+00 7.503354072570800781e+00 1.378667712211608887e+00 6.720197200775146484e-01
2.152000000000000000e+03 1.705699157714843750e+01 -1.510896492004394531e+01 -1.765777826309204102e+00 6.513938426971435547e+00 1.424448132514953613e+00 1.096281260251998901e-01
2.153000000000000000e+03 5.269463729858398438e+01 2.211249351501464844e+01 -4.246842265129089355e-01 4.806651115417480469e+00 1.314590096473693848e+00 -2.028623580932617188e+00
2.154000000000000000e+03 3.677800750732421875e+01 3.557477951049804688e+01 -2.124192714691162109e+00 3.692334890365600586e+00 4.704425930976867676e-01 1.216495990753173828e+00
2.155000000000000000e+03 1.278392124176025391e+01 -2.702791404724121094e+01 -1.366894245147705078e-01 3.083577394485473633e+00 8.840664029121398926e-01 1.622440814971923828e+00
2.156000000000000000e+03 1.555420684814453125e+01 -2.648168563842773438e+01 -9.880557656288146973e-01 3.536754846572875977e+00 7.646096944808959961e-01 1.888201713562011719e+00
2.157000000000000000e+03 5.759264755249023438e+01 -2.347997474670410156e+01 9.498911499977111816e-01 6.766181945800781250e+00 2.314821958541870117e+00 1.112207531929016113e+00
2.158000000000000000e+03 1.264685058593750000e+01 -4.061489486694335938e+01 -1.826837778091430664e+00 2.021923542022705078e+00 5.852570384740829468e-02 1.394272148609161377e-01
2.159000000000000000e+03 3.952856826782226562e+01 1.169917774200439453e+01 -1.218484938144683838e-01 5.512072086334228516e+00 1.617067098617553711e+00 -4.851161837577819824e-01
2.160000000000000000e+03 1.562845897674560547e+01 3.586725234985351562e+01 -4.313891828060150146e-01 1.275908470153808594e+00 2.533558011054992676e-01 -9.462207555770874023e-01
2.161000000000000000e+03 7.130926513671875000e+01 -1.608813858032226562e+01 -2.587387561798095703e-01 1.579839587211608887e+00 3.963302671909332275e-01 -1.320091128349304199e+00
2.162000000000000000e+03 1.019545364379882812e+01 1.735646057128906250e+01 -5.160416960716247559e-01 2.256952047348022461e+00 5.222731232643127441e-01 4.474484175443649292e-02
2.163000000000000000e+03 5.070420265197753906e+00 1.965569114685058594e+01 -5.875970721244812012e-01 1.956373810768127441e+00 4.106330275535583496e-01 -7.204935550689697266e-01
2.164000000000000000e+03 3.810545349121093750e+01 2.023540496826171875e+01 7.504091262817382812e-01 2.167102813720703125e+00 8.752536177635192871e-01 -1.691676855087280273e+00
2.165000000000000000e+03 4.600572586059570312e+01 -2.292095375061035156e+01 2.468357324600219727e+00 5.861954689025878906e+00 2.499093532562255859e+00 -1.149178028106689453e+00
2.166000000000000000e+03 4.025073242187500000e+01 -2.617953109741210938e+01 -1.216865628957748413e-01 7.278491973876953125e+00 2.147041559219360352e+00 1.497944831848144531e+00
2.167000000000000000e+03 3.949800109863281250e+01 -2.698061943054199219e+01 -2.387457370758056641e+00 8.884252548217773438e+00 1.949038624763488770e+00 1.831008315086364746e+00
2.168000000000000000e+03 4.224388122558593750e+01 1.418721675872802734e+01 1.818061113357543945e+00 6.937850952148437500e+00 2.626773595809936523e+00 1.865813285112380981e-01
2.169000000000000000e+03 4.697071838378906250e+01 2.450125885009765625e+01 2.709911346435546875e+00 7.776194572448730469e+00 3.145831823348999023e+00 1.689312100410461426e+00
2.170000000000000000e+03 4.481509780883789062e+01 1.746818161010742188e+01 1.338790416717529297e+00 7.742908000946044922e+00 2.724509477615356445e+00 1.977765083312988281e+00
2.171000000000000000e+03 4.477105712890625000e+01 1.911382484436035156e+01 -8.566009402275085449e-01 6.787032604217529297e+00 1.779129505157470703e+00 2.483192682266235352e+00
2.172000000000000000e+03 1.994970512390136719e+01 -2.537040519714355469e+01 -1.359345912933349609e+00 -2.501111328601837158e-01 -4.828371107578277588e-01 -5.898817628622055054e-02
2.173000000000000000e+03 5.335658264160156250e+01 -3.610467529296875000e+01 1.100993156433105469e+00 7.328423023223876953e+00 2.528824806213378906e+00 -3.760651648044586182e-01
2.174000000000000000e+03 6.694158172607421875e+01 2.204637718200683594e+01 -4.916200041770935059e-01 1.329759120941162109e+00 2.514417171478271484e-01 -2.236389815807342529e-01
2.175000000000000000e+03 1.877823066711425781e+01 1.969660568237304688e+01 4.937551915645599365e-01 3.037866353988647461e+00 1.059486389160156250e+00 2.184448204934597015e-02
2.176000000000000000e+03 1.998853111267089844e+01 1.987667083740234375e+01 3.096018433570861816e-01 6.308154106140136719e+00 1.985326766967773438e+00 6.241944432258605957e-01
2.177000000000000000e+03 7.473632812500000000e+01 -1.958220863342285156e+01 7.122442126274108887e-01 9.069265365600585938e+00 2.934453010559082031e+00 6.014587879180908203e-01
2.178000000000000000e+03 7.709983062744140625e+01 -1.876964187622070312e+01 1.104490831494331360e-01 8.454764366149902344e+00 2.569563865661621094e+00 1.299453735351562500e+00
2.179000000000000000e+03 5.228115844726562500e+01 -3.057670593261718750e+01 2.665074348449707031e+00 6.047644138336181641e+00 2.613815546035766602e+00 -4.698194935917854309e-02
2.180000000000000000e+03 6.581537628173828125e+01 3.379072189331054688e+01 -2.628400623798370361e-01 5.298501968383789062e+00 1.510698556900024414e+00 5.941268801689147949e-01
2.181000000000000000e+03 9.704371452331542969e+00 1.982223129272460938e+01 -6.856955289840698242e-01 1.625081896781921387e+00 2.818159162998199463e-01 -5.299372673034667969e-01
2.182000000000000000e+03 4.632635116577148438e+01 5.597140789031982422e+00 -2.559643387794494629e-01 3.305386066436767578e+00 9.148265123367309570e-01 -1.551162481307983398e+00
2.183000000000000000e+03 4.645740890502929688e+01 2.327287292480468750e+01 1.033707141876220703e+00 8.030809402465820312e+00 2.719355106353759766e+00 1.870215654373168945e+00
2.184000000000000000e+03 4.485091018676757812e+01 2.098418426513671875e+01 -9.983038902282714844e-01 6.639675617218017578e+00 1.692411422729492188e+00 2.729059219360351562e+00
2.185000000000000000e+03 5.723275756835937500e+01 1.975699424743652344e+01 3.756436407566070557e-01 4.056138515472412109e+00 1.329534530639648438e+00 -1.088211059570312500e+00
2.186000000000000000e+03 3.317848205566406250e+01 -3.122098731994628906e+01 3.380705714225769043e-01 7.890422940254211426e-01 3.381338715553283691e-01 -6.347517967224121094e-01
2.187000000000000000e+03 7.302839660644531250e+01 -2.710760688781738281e+01 -1.257907629013061523e+00 6.590846061706542969e+00 1.599881529808044434e+00 2.488597393035888672e+00
2.188000000000000000e+03 6.133214950561523438e+01 -1.649356722831726074e+00 1.074675083160400391e+00 8.201756477355957031e+00 2.782929420471191406e+00 -1.349628567695617676e+00
2.189000000000000000e+03 4.830000305175781250e+01 2.146385574340820312e+01 1.564094126224517822e-01 3.991333246231079102e+00 1.244322776794433594e+00 1.027435421943664551e+00
2.190000000000000000e+03 4.828538131713867188e+01 -1.201296997070312500e+01 3.427533805370330811e-01 7.258323669433593750e+00 2.280323028564453125e+00 3.148232400417327881e-01
2.191000000000000000e+03 5.088935089111328125e+01 -8.351054191589355469e+00 2.052086830139160156e+00 7.210426330566406250e+00 2.778753995895385742e+00 -2.463677823543548584e-01
2.192000000000000000e+03 3.416954803466796875e+01 3.166308403015136719e+01 1.723808646202087402e-01 7.411133766174316406e+00 2.275054454803466797e+00 -4.456099569797515869e-01
2.193000000000000000e+03 2.932352638244628906e+01 3.331271362304687500e+01 2.275254428386688232e-01 3.412813663482666016e+00 1.092101693153381348e+00 -1.086353778839111328e+00
2.194000000000000000e+03 5.280052185058593750e+00 3.580833816528320312e+01 -8.551725149154663086e-01 1.854861497879028320e+00 2.999066710472106934e-01 -5.099924281239509583e-02
2.195000000000000000e+03 6.226377868652343750e+01 2.249280738830566406e+01 -1.873792529106140137e+00 5.793811798095703125e+00 1.176005840301513672e+00 3.388857841491699219e+00
2.196000000000000000e+03 6.367774963378906250e+01 -8.338093757629394531e+00 1.595682144165039062e+00 8.808154106140136719e+00 3.121150732040405273e+00 4.851227626204490662e-03
2.197000000000000000e+03 1.391725921630859375e+01 3.805293273925781250e+01 -2.741012275218963623e-01 4.918184876441955566e-01 6.531517207622528076e-02 -5.771982073783874512e-01
2.198000000000000000e+03 5.825011062622070312e+01 1.196200847625732422e+01 1.697271108627319336e+00 8.333683967590332031e+00 3.009286642074584961e+00 7.705077528953552246e-01
2.199000000000000000e+03 5.816016387939453125e+01 1.423589992523193359e+01 1.908781647682189941e+00 8.048748970031738281e+00 2.987259149551391602e+00 9.533726572990417480e-01
2.200000000000000000e+03 7.302867126464843750e+01 9.843388557434082031e+00 1.096560478210449219e+00 8.896665573120117188e+00 2.997967720031738281e+00 -3.092397153377532959e-01
2.201000000000000000e+03 6.319960403442382812e+01 -2.296704483032226562e+01 3.197608709335327148e+00 6.425646781921386719e+00 2.886976480484008789e+00 -1.987260460853576660e+00
2.202000000000000000e+03 6.283136749267578125e+01 -2.560671234130859375e+01 -9.496234059333801270e-01 4.060849189758300781e+00 9.333677291870117188e-01 -2.753134012222290039e+00
2.203000000000000000e+03 7.421646881103515625e+01 -1.236527156829833984e+01 -1.375159382820129395e+00 5.249177932739257812e+00 1.162205576896667480e+00 1.534316897392272949e+00
2.204000000000000000e+03 7.408331298828125000e+01 -1.507198238372802734e+01 -7.480313777923583984e-01 5.417273521423339844e+00 1.400772690773010254e+00 5.307163000106811523e-01
2.205000000000000000e+03 4.672399997711181641e+00 2.678990364074707031e+01 1.234129428863525391e+00 3.754034280776977539e+00 1.496449112892150879e+00 -8.182612657546997070e-01
2.206000000000000000e+03 3.662667083740234375e+01 -3.543999481201171875e+01 5.426096916198730469e-01 4.286911487579345703e+00 1.448856353759765625e+00 1.529903173446655273e+00
2.207000000000000000e+03 4.038719558715820312e+01 -1.746531677246093750e+01 7.770812511444091797e-01 4.412272453308105469e+00 1.556806087493896484e+00 -1.763483643531799316e+00
2.208000000000000000e+03 4.352555465698242188e+01 -2.099740409851074219e+01 3.324120521545410156e+00 4.662480831146240234e+00 2.395980358123779297e+00 2.123842388391494751e-01
2.209000000000000000e+03 3.244337844848632812e+01 -5.500071525573730469e+00 2.785838603973388672e+00 5.959496021270751953e+00 2.623600482940673828e+00 -8.419231176376342773e-01
2.210000000000000000e+03 3.073122215270996094e+01 -3.314603090286254883e+00 2.399837970733642578e+00 6.685298919677734375e+00 2.725541114807128906e+00 -1.948054432868957520e+00
2.211000000000000000e+03 1.596402740478515625e+01 2.034397697448730469e+01 4.927128255367279053e-01 -8.354823589324951172e-01 -1.028308570384979248e-01 4.704145193099975586e-01
2.212000000000000000e+03 5.209975433349609375e+01 3.376956939697265625e+01 2.189411073923110962e-01 6.614823341369628906e+00 2.050129413604736328e+00 4.897462129592895508e-01
2.213000000000000000e+03 4.995852661132812500e+01 3.209490585327148438e+01 5.260736942291259766e-01 6.474527359008789062e+00 2.100180387496948242e+00 5.959833860397338867e-01
2.214000000000000000e+03 3.042473602294921875e+01 -1.045258998870849609e+01 1.512920737266540527e+00 6.446438789367675781e+00 2.387807846069335938e+00 1.376431345939636230e+00
2.215000000000000000e+03 7.541741943359375000e+01 7.532886505126953125e+00 3.686666488647460938e-02 7.457978725433349609e+00 2.248453617095947266e+00 -1.059121847152709961e+00
2.216000000000000000e+03 5.547164535522460938e+01 1.735491037368774414e+00 -1.209361672401428223e+00 2.715861320495605469e+00 4.519499242305755615e-01 1.908927202224731445e+00
2.217000000000000000e+03 5.660775375366210938e+01 1.852671980857849121e+00 -5.935413241386413574e-01 2.041993141174316406e+00 4.345355331897735596e-01 2.360795438289642334e-01
2.218000000000000000e+03 7.232618713378906250e+01 -2.816069602966308594e+01 1.687274128198623657e-01 4.437681198120117188e+00 1.381922602653503418e+00 1.875575661659240723e+00
2.219000000000000000e+03 7.034195709228515625e+01 -2.847015190124511719e+01 1.047615528106689453e+00 2.217888355255126953e+00 9.796511530876159668e-01 5.977984070777893066e-01
2.220000000000000000e+03 7.383219909667968750e+01 1.639508247375488281e+01 1.282037645578384399e-01 8.620641708374023438e+00 2.624653577804565430e+00 5.205031633377075195e-01
2.221000000000000000e+03 7.335234832763671875e+01 1.912711524963378906e+01 -1.138723611831665039e+00 7.442029476165771484e+00 1.890991687774658203e+00 -3.889992833137512207e-02
2.222000000000000000e+03 2.710638236999511719e+01 -2.306557273864746094e+01 1.642313003540039062e+00 6.886595726013183594e+00 2.558672666549682617e+00 1.647972911596298218e-01
2.223000000000000000e+03 2.595742416381835938e+01 -2.262930870056152344e+01 1.751418232917785645e+00 5.096348285675048828e+00 2.054329872131347656e+00 -1.717776618897914886e-02
2.224000000000000000e+03 2.706859397888183594e+01 6.812920093536376953e+00 2.516685485839843750e+00 5.386630535125732422e+00 2.370994806289672852e+00 8.330253511667251587e-02
2.225000000000000000e+03 4.790845394134521484e+00 -2.697571945190429688e+01 -2.791009843349456787e-01 1.675680518150329590e+00 4.189738631248474121e-01 -6.383556127548217773e-01
2.226000000000000000e+03 7.397909641265869141e+00 -2.419483375549316406e+01 -2.261459589004516602e+00 -3.962213918566703796e-02 -6.903244853019714355e-01 -2.849797010421752930e-01
2.227000000000000000e+03 1.241975402832031250e+01 -1.115785789489746094e+01 -4.038185179233551025e-01 4.639439582824707031e-01 1.803762838244438171e-02 1.480169057846069336e+00
2.228000000000000000e+03 1.432118129730224609e+01 -1.162248992919921875e+01 -1.429946184158325195e+00 3.762048244476318359e+00 6.996306180953979492e-01 9.351126849651336670e-02
2.229000000000000000e+03 4.364699554443359375e+01 1.919038772583007812e+01 -1.016826331615447998e-01 5.570759773254394531e+00 1.640723109245300293e+00 1.987730622291564941e+00
2.230000000000000000e+03 8.138353347778320312e+00 1.562844562530517578e+01 -1.235301420092582703e-01 2.962549686431884766e+00 8.517059087753295898e-01 -8.663633465766906738e-01
2.231000000000000000e+03 2.793064689636230469e+01 1.257587131112813950e-02 -3.750007152557373047e-01 6.027841567993164062e+00 1.695852279663085938e+00 -2.664856672286987305e+00
2.232000000000000000e+03 2.649537467956542969e+01 -3.250643157958984375e+01 5.868024230003356934e-01 5.828109264373779297e+00 1.924473524093627930e+00 -6.688988208770751953e-01
2.233000000000000000e+03 6.619753265380859375e+01 2.839446067810058594e+01 1.814580559730529785e+00 5.313150405883789062e+00 2.138319253921508789e+00 1.297011017799377441e+00
2.234000000000000000e+03 6.431017303466796875e+01 2.615468406677246094e+01 2.899780511856079102e+00 6.357075214385986328e+00 2.777056694030761719e+00 1.901026010513305664e+00
2.235000000000000000e+03 3.332037734985351562e+01 -1.336170864105224609e+01 -1.230572104454040527e+00 1.394502997398376465e+00 4.917924851179122925e-02 1.151745319366455078e+00
2.236000000000000000e+03 3.670807266235351562e+01 -1.131760787963867188e+01 1.463198184967041016e+00 5.426896095275878906e+00 2.067028284072875977e+00 -2.219231605529785156e+00
2.237000000000000000e+03 2.978371810913085938e+01 1.224266242980957031e+01 3.562953770160675049e-01 5.498567104339599609e+00 1.756458640098571777e+00 3.295087575912475586e+00
2.238000000000000000e+03 8.489404678344726562e+00 1.161101818084716797e+01 1.476171731948852539e+00 4.909885406494140625e+00 1.915817141532897949e+00 -1.254572868347167969e+00
2.239000000000000000e+03 2.190770721435546875e+01 9.488372802734375000e+00 1.923667550086975098e+00 6.109149932861328125e+00 2.409845352172851562e+00 -2.653918862342834473e-01
2.240000000000000000e+03 2.260368728637695312e+01 8.495570182800292969e+00 1.852898836135864258e+00 5.344122409820556641e+00 2.159106254577636719e+00 -1.392845511436462402e-01
2.241000000000000000e+03 6.976413726806640625e+01 -2.967365455627441406e+01 1.971939682960510254e+00 3.193496465682983398e+00 1.549630880355834961e+00 -5.002652406692504883e-01
2.242000000000000000e+03 2.246051597595214844e+01 1.478849887847900391e+01 -8.537805676460266113e-01 7.243323802947998047e+00 1.916862964630126953e+00 -1.023367285728454590e+00
2.243000000000000000e+03 5.004332351684570312e+01 -6.244111061096191406e+00 1.937610030174255371e+00 7.890655040740966797e+00 2.948479413986206055e+00 2.696028053760528564e-01
2.244000000000000000e+03 8.615214347839355469e+00 -3.351395797729492188e+01 9.948136210441589355e-01 2.303349018096923828e+00 9.894487857818603516e-01 8.640855550765991211e-01
2.245000000000000000e+03 2.641899681091308594e+01 5.993617534637451172e+00 2.564895153045654297e+00 4.934792995452880859e+00 2.249906301498413086e+00 -7.557219266891479492e-02
2.246000000000000000e+03 7.325278759002685547e+00 -1.289465332031250000e+01 4.302820563316345215e-01 3.078629732131958008e+00 1.052673578262329102e+00 1.858659863471984863e+00
2.247000000000000000e+03 4.306114959716796875e+01 1.002587509155273438e+01 1.922102272510528564e-01 8.497803688049316406e+00 2.607004165649414062e+00 7.932167649269104004e-01
2.248000000000000000e+03 6.551387023925781250e+01 -1.911510944366455078e+00 1.107493519783020020e+00 6.154723644256591797e+00 2.178665161132812500e+00 1.460847258567810059e+00
2.249000000000000000e+03 3.437842178344726562e+01 -5.420050144195556641e+00 2.432977199554443359e+00 4.961100578308105469e+00 2.218223333358764648e+00 -4.095909297466278076e-01
2.250000000000000000e+03 6.281602096557617188e+01 -1.347823619842529297e+01 -1.635514736175537109e+00 6.797106742858886719e+00 1.548477649688720703e+00 9.689910411834716797e-01
2.251000000000000000e+03 6.067910766601562500e+01 -1.060847949981689453e+01 -1.600315690040588379e+00 6.847093105316162109e+00 1.574033260345458984e+00 1.789589881896972656e+00
2.252000000000000000e+03 5.338840103149414062e+01 5.162607192993164062e+00 -1.281249523162841797e+00 5.501489162445068359e+00 1.266071796417236328e+00 2.659631729125976562e+00
2.253000000000000000e+03 6.302984619140625000e+01 -4.157666015625000000e+01 -9.749940633773803711e-01 7.655037045478820801e-01 -6.284710764884948730e-02 2.067462950944900513e-01
2.254000000000000000e+03 6.965081024169921875e+01 2.250344657897949219e+01 -6.365495324134826660e-01 3.685001611709594727e+00 9.145355820655822754e-01 -1.401538968086242676e+00
2.255000000000000000e+03 5.136602020263671875e+01 -3.525128555297851562e+01 1.008213520050048828e+00 6.667814731597900391e+00 2.302808523178100586e+00 -3.738053739070892334e-01
2.256000000000000000e+03 5.214350128173828125e+01 -3.277711105346679688e+01 2.664725065231323242e+00 7.470971584320068359e+00 3.040709018707275391e+00 -3.542751967906951904e-01
2.257000000000000000e+03 5.127155303955078125e+01 -6.180324077606201172e+00 2.066893815994262695e+00 8.229123115539550781e+00 3.088804960250854492e+00 1.188114136457443237e-01
2.258000000000000000e+03 5.132843399047851562e+01 -4.932684421539306641e+00 1.873056173324584961e+00 8.791420936584472656e+00 3.199343204498291016e+00 -3.656284883618354797e-02
2.259000000000000000e+03 5.176824951171875000e+01 -2.695765876770019531e+01 5.032507181167602539e-01 2.474781751632690430e+00 8.934097290039062500e-01 1.742600090801715851e-02
2.260000000000000000e+03 5.415981674194335938e+01 -2.685692405700683594e+01 -1.010654807090759277e+00 6.268698215484619141e+00 1.577412962913513184e+00 2.727768421173095703e+00
2.261000000000000000e+03 3.980286407470703125e+01 1.430699157714843750e+01 1.330447554588317871e+00 4.443807601928710938e+00 1.732276558876037598e+00 -1.143567442893981934e+00
2.262000000000000000e+03 1.734781646728515625e+01 -2.055019950866699219e+01 1.610726237297058105e+00 4.760576248168945312e+00 1.911390781402587891e+00 -3.313738107681274414e-01
2.263000000000000000e+03 1.863301849365234375e+01 -1.995709037780761719e+01 2.021748542785644531e+00 2.937548398971557617e+00 1.487789034843444824e+00 -7.454519271850585938e-01
2.264000000000000000e+03 7.222263336181640625e+01 -1.487722110748291016e+01 -4.146493077278137207e-01 2.480948448181152344e+00 6.198897361755371094e-01 -6.545174717903137207e-01
2.265000000000000000e+03 4.881767654418945312e+01 -2.035612821578979492e+00 4.177450835704803467e-01 5.482331275939941406e+00 1.770022988319396973e+00 -1.531084537506103516e+00
2.266000000000000000e+03 7.063760375976562500e+01 2.340791511535644531e+01 -1.158127039670944214e-01 4.492928981781005859e+00 1.313134908676147461e+00 -1.244617104530334473e+00
2.267000000000000000e+03 4.929707717895507812e+01 -1.412360763549804688e+01 -1.688288331031799316e+00 4.548355579376220703e+00 8.580201268196105957e-01 1.019853353500366211e+00
2.268000000000000000e+03 1.493961906433105469e+01 -1.267731666564941406e+01 -3.296531438827514648e+00 5.347075939178466797e+00 6.151633858680725098e-01 -8.286656737327575684e-01
2.269000000000000000e+03 5.975988388061523438e+01 1.522047519683837891e+01 1.809508323669433594e+00 9.346724510192871094e+00 3.346869945526123047e+00 1.722907066345214844e+00
2.270000000000000000e+03 7.471897888183593750e+01 -2.075301551818847656e+01 1.142447113990783691e+00 1.042208862304687500e+01 3.469360828399658203e+00 3.145071864128112793e-01
2.271000000000000000e+03 6.347171783447265625e+01 -2.162873458862304688e+01 3.022567272186279297e+00 7.692697048187255859e+00 3.214579343795776367e+00 -2.371059417724609375e+00
2.272000000000000000e+03 5.623412704467773438e+01 -1.284136199951171875e+01 -2.338029593229293823e-01 3.631429910659790039e+00 1.019288063049316406e+00 -1.849036455154418945e+00
2.273000000000000000e+03 1.785378265380859375e+01 -1.649006462097167969e+01 3.144386112689971924e-01 5.327010154724121094e+00 1.692434668540954590e+00 -4.313200414180755615e-01
2.274000000000000000e+03 5.184706497192382812e+01 4.100486755371093750e+01 -1.740640997886657715e+00 4.934257507324218750e+00 9.580850005149841309e-01 1.234533190727233887e-01
2.275000000000000000e+03 5.504871749877929688e+01 3.634696197509765625e+01 -1.119437694549560547e+00 4.571853160858154297e+00 1.035724520683288574e+00 1.239494442939758301e+00
2.276000000000000000e+03 4.610465240478515625e+01 2.101951217651367188e+01 -7.969472408294677734e-01 6.551922798156738281e+00 1.726492762565612793e+00 2.688112258911132812e+00
2.277000000000000000e+03 2.132314491271972656e+01 -2.490871810913085938e+01 -3.677161037921905518e-01 7.970328330993652344e-01 1.287950128316879272e-01 -8.348168730735778809e-01
2.278000000000000000e+03 1.849588775634765625e+01 -2.249625205993652344e+01 9.028707742691040039e-01 2.389249801635742188e+00 9.876361489295959473e-01 -8.912984281778335571e-02
2.279000000000000000e+03 6.540570831298828125e+01 3.257603836059570312e+01 4.890260994434356689e-01 5.229004383087158203e+00 1.715409159660339355e+00 7.246661186218261719e-01
2.280000000000000000e+03 5.509474945068359375e+01 -1.277176189422607422e+01 -2.642087042331695557e-01 3.871495008468627930e+00 1.082185864448547363e+00 -2.652998447418212891e+00
2.281000000000000000e+03 5.113423919677734375e+01 -2.924455451965332031e+01 1.896060585975646973e+00 5.389025688171386719e+00 2.185525894165039062e+00 -6.367617845535278320e-01
2.282000000000000000e+03 3.793234252929687500e+01 -3.536547851562500000e+01 -2.552286088466644287e-01 4.825150012969970703e+00 1.370976448059082031e+00 1.806598782539367676e+00
2.283000000000000000e+03 3.838416671752929688e+01 -3.670844650268554688e+01 -8.180600404739379883e-01 4.396522998809814453e+00 1.073538899421691895e+00 8.738270401954650879e-01
2.284000000000000000e+03 6.790219116210937500e+01 -2.714336395263671875e+01 -7.385066747665405273e-01 3.938596010208129883e+00 9.600268006324768066e-01 -2.157659530639648438e+00
2.285000000000000000e+03 3.058660125732421875e+01 2.984212112426757812e+01 5.495941042900085449e-01 4.066205501556396484e+00 1.384739875793457031e+00 -1.777696728706359863e+00
2.286000000000000000e+03 4.901164627075195312e+01 4.747257709503173828e+00 -4.644080996513366699e-01 9.245402812957763672e-01 1.380396634340286255e-01 -6.634888648986816406e-01
2.287000000000000000e+03 5.095495986938476562e+01 2.919192552566528320e+00 -4.267413020133972168e-01 2.922527313232421875e+00 7.487358450889587402e-01 1.038028597831726074e+00
2.288000000000000000e+03 8.091500282287597656e+00 2.039335632324218750e+01 -7.233312129974365234e-01 2.069993257522583008e+00 4.039986133575439453e-01 -9.188033342361450195e-01
2.289000000000000000e+03 2.368897819519042969e+01 2.927306747436523438e+01 -5.659313201904296875e-01 4.180979728698730469e+00 1.084514617919921875e+00 1.081823348999023438e+00
2.290000000000000000e+03 3.452030944824218750e+01 -1.723086953163146973e+00 9.357311725616455078e-01 2.995723724365234375e+00 1.179436445236206055e+00 9.064523577690124512e-01
2.291000000000000000e+03 3.687010955810546875e+01 -2.791719913482666016e+00 3.268281519412994385e-01 3.845544099807739258e+00 1.251711726188659668e+00 2.073178768157958984e+00
2.292000000000000000e+03 4.609458160400390625e+01 -1.656067276000976562e+01 -1.075895190238952637e+00 6.302040100097656250e+00 1.567843437194824219e+00 1.627796292304992676e+00
2.293000000000000000e+03 5.579084777832031250e+01 6.320099353790283203e+00 3.468557596206665039e-01 7.313726425170898438e+00 2.298174619674682617e+00 5.259152650833129883e-01
2.294000000000000000e+03 5.872616195678710938e+01 9.818255424499511719e+00 1.390707612037658691e+00 7.607274055480957031e+00 2.699394464492797852e+00 1.261445432901382446e-01
2.295000000000000000e+03 5.684540748596191406e+00 2.476705169677734375e+01 6.425575613975524902e-01 3.923738479614257812e+00 1.369888782501220703e+00 -8.338860869407653809e-01
2.296000000000000000e+03 5.859674453735351562e+01 -2.511657333374023438e+01 -2.155578285455703735e-01 4.638860225677490234e+00 1.326990723609924316e+00 1.950140953063964844e+00
2.297000000000000000e+03 5.640848541259765625e+01 -2.451586914062500000e+01 -7.791590690612792969e-01 8.474653244018554688e+00 2.308648347854614258e+00 1.398663401603698730e+00
2.298000000000000000e+03 3.392393112182617188e+01 1.667887115478515625e+01 2.848601341247558594e+00 5.184854030609130859e+00 2.410036563873291016e+00 -1.008517593145370483e-01
2.299000000000000000e+03 6.515607452392578125e+01 -1.579115009307861328e+01 -2.093543767929077148e+00 5.238118171691894531e+00 9.433722496032714844e-01 8.688215613365173340e-01
2.300000000000000000e+03 6.179832458496093750e+01 -1.801462745666503906e+01 7.103112936019897461e-01 6.439886569976806641e+00 2.145059347152709961e+00 -5.324309468269348145e-01
2.301000000000000000e+03 5.039170074462890625e+01 -2.883847999572753906e+01 1.156157612800598145e+00 5.464743137359619141e+00 1.986270189285278320e+00 -1.312144398689270020e+00
2.302000000000000000e+03 3.427011489868164062e+01 1.430554962158203125e+01 4.864803552627563477e-01 1.802471876144409180e+00 6.866856813430786133e-01 1.525240484625101089e-02
2.303000000000000000e+03 6.712846374511718750e+01 -2.897841072082519531e+01 1.718951463699340820e+00 6.535933494567871094e+00 2.476465463638305664e+00 -1.847165346145629883e+00
2.304000000000000000e+03 3.156955337524414062e+01 -3.093429374694824219e+01 -3.160826861858367920e-01 2.464068174362182617e+00 6.443956494331359863e-01 -1.115512490272521973e+00
2.305000000000000000e+03 3.580080795288085938e+01 -3.269679641723632812e+01 1.956236481666564941e+00 2.828861713409423828e+00 1.435529470443725586e+00 1.194542884826660156e+00
2.306000000000000000e+03 2.495939254760742188e+01 3.102442550659179688e+01 7.168466448783874512e-01 2.178391695022583008e+00 8.685715198516845703e-01 1.012913465499877930e+00
2.307000000000000000e+03 2.322737312316894531e+01 3.030334281921386719e+01 5.968991518020629883e-01 4.388036251068115234e+00 1.495480656623840332e+00 9.386033415794372559e-01
2.308000000000000000e+03 7.603310585021972656e+00 -2.564032554626464844e+01 -5.892439484596252441e-01 3.886610567569732666e-01 -6.017487123608589172e-02 -2.989270985126495361e-01
2.309000000000000000e+03 9.800474166870117188e+00 -2.503699493408203125e+01 -1.404271483421325684e+00 1.026920881122350693e-02 -4.182007014751434326e-01 7.909244298934936523e-01
2.310000000000000000e+03 5.548707962036132812e+01 -2.564901924133300781e+01 -3.119139432907104492e+00 7.585484981536865234e+00 1.339903593063354492e+00 2.131453037261962891e+00
2.311000000000000000e+03 5.534581375122070312e+01 -1.632563400268554688e+01 -1.037651538848876953e+00 6.477078437805175781e+00 1.631828069686889648e+00 -1.138332486152648926e+00
2.312000000000000000e+03 5.638109970092773438e+01 -2.338126182556152344e+01 8.843220472335815430e-01 7.783237457275390625e+00 2.600267887115478516e+00 4.338899254798889160e-01
2.313000000000000000e+03 8.599102973937988281e+00 -1.217599868774414062e+01 -3.546179234981536865e-01 2.097419738769531250e+00 5.228405594825744629e-01 2.146384477615356445e+00
2.314000000000000000e+03 4.379306316375732422e+00 -1.328727531433105469e+01 2.256184220314025879e-01 2.431773662567138672e+00 7.972176074981689453e-01 3.820828497409820557e-01
2.315000000000000000e+03 4.144552230834960938e+01 3.987867355346679688e+00 1.842530131340026855e+00 7.008504390716552734e+00 2.655310392379760742e+00 -3.496547639369964600e-01
2.316000000000000000e+03 5.990764999389648438e+01 3.933023834228515625e+01 -4.101307094097137451e-01 1.911189079284667969e+00 4.503175020217895508e-01 1.833799183368682861e-01
2.317000000000000000e+03 3.267255020141601562e+01 -3.869746398925781250e+01 -7.304024696350097656e-01 4.089647293090820312e+00 1.007773399353027344e+00 1.730562895536422729e-01
2.318000000000000000e+03 2.632797241210937500e+01 -3.659894561767578125e+01 4.521165192127227783e-01 5.295411109924316406e+00 1.724258303642272949e+00 -4.759993851184844971e-01
2.319000000000000000e+03 5.524106979370117188e+01 -1.390959167480468750e+01 -6.613454818725585938e-01 4.621073722839355469e+00 1.187918543815612793e+00 -2.586779594421386719e+00
2.320000000000000000e+03 6.508477020263671875e+01 4.902475357055664062e+00 -2.262027114629745483e-01 1.849753260612487793e+00 4.870651662349700928e-01 -4.172561466693878174e-01
2.321000000000000000e+03 5.862369537353515625e+01 2.116114044189453125e+01 -2.066372334957122803e-01 2.996172189712524414e+00 8.368604779243469238e-01 3.294324874877929688e-01
2.322000000000000000e+03 1.531782722473144531e+01 -8.076338768005371094e+00 3.098935842514038086e+00 8.949279785156250000e+00 3.614464759826660156e+00 -6.700528860092163086e-01
2.323000000000000000e+03 5.633889389038085938e+01 2.187099838256835938e+01 -1.516857147216796875e+00 2.794831991195678711e+00 3.833924829959869385e-01 -2.399133205413818359e+00
2.324000000000000000e+03 6.724017333984375000e+01 -1.321378326416015625e+01 -5.279470682144165039e-01 2.445872783660888672e+00 5.753777027130126953e-01 -5.692183375358581543e-01
2.325000000000000000e+03 2.789524459838867188e+01 3.966754674911499023e+00 3.496887683868408203e-01 5.608860015869140625e+00 1.787564635276794434e+00 -8.231728672981262207e-01
2.326000000000000000e+03 2.787252426147460938e+01 6.480356693267822266e+00 2.577196598052978516e+00 6.522252559661865234e+00 2.729834794998168945e+00 4.087363928556442261e-02
2.327000000000000000e+03 7.507105255126953125e+01 -1.145510196685791016e+01 -2.077229738235473633e+00 8.072326660156250000e+00 1.798529148101806641e+00 7.120591402053833008e-01
2.328000000000000000e+03 7.603829193115234375e+01 -1.250622844696044922e+01 -1.339945435523986816e+00 8.417782783508300781e+00 2.123351097106933594e+00 2.929880321025848389e-01
2.329000000000000000e+03 6.833573150634765625e+01 -3.559193420410156250e+01 3.172487616539001465e-01 6.085556030273437500e+00 1.920841455459594727e+00 -1.392075061798095703e+00
2.330000000000000000e+03 6.903874206542968750e+01 -3.243918991088867188e+01 2.273258924484252930e+00 5.304203987121582031e+00 2.273238897323608398e+00 -1.660024762153625488e+00
2.331000000000000000e+03 4.977211380004882812e+01 -1.511740398406982422e+01 -2.109656333923339844e+00 2.483791589736938477e+00 1.122406348586082458e-01 1.302257418632507324e+00
2.332000000000000000e+03 5.207069778442382812e+01 -1.441601181030273438e+01 -1.343330264091491699e+00 2.013623714447021484e+00 2.010880857706069946e-01 -2.704574823379516602e+00
2.333000000000000000e+03 6.604505920410156250e+01 1.260864257812500000e+00 -1.622328348457813263e-02 3.705739259719848633e+00 1.106854796409606934e+00 1.253179907798767090e+00
2.334000000000000000e+03 1.414462566375732422e+01 -7.807776927947998047e-01 5.815578103065490723e-01 3.635762691497802734e+00 1.265196204185485840e+00 2.747024297714233398e+00
2.335000000000000000e+03 1.527252960205078125e+01 4.028620719909667969e+00 1.050557136535644531e+00 4.946118354797363281e+00 1.799002647399902344e+00 -2.817780017852783203e+00
2.336000000000000000e+03 1.403511333465576172e+01 2.847326278686523438e+00 3.644338607788085938e+00 1.085051894187927246e+00 1.418817162513732910e+00 -3.499104976654052734e+00
2.337000000000000000e+03 1.599993038177490234e+01 -1.811438918113708496e+00 -1.532127976417541504e+00 1.110844516754150391e+01 2.872895240783691406e+00 2.422922134399414062e+00
2.338000000000000000e+03 1.685869026184082031e+01 -2.305145025253295898e+00 -1.408474564552307129e+00 1.058112239837646484e+01 2.751794338226318359e+00 1.284037590026855469e+00
2.339000000000000000e+03 1.653577995300292969e+01 -1.021347045898437500e+00 -1.646576285362243652e+00 1.323065471649169922e+01 3.475223541259765625e+00 1.767726302146911621e+00
2.340000000000000000e+03 1.310645294189453125e+01 -1.931156516075134277e+00 7.532559633255004883e-01 2.536867856979370117e+00 9.870371222496032715e-01 1.402129411697387695e+00
2.341000000000000000e+03 1.481659793853759766e+01 3.851095438003540039e+00 1.914546132087707520e+00 3.914861440658569336e+00 1.748822212219238281e+00 -3.620103359222412109e+00
2.342000000000000000e+03 1.487415313720703125e+01 4.751983642578125000e+00 5.526871681213378906e-01 2.895543575286865234e+00 1.034469246864318848e+00 -2.740479469299316406e+00
2.343000000000000000e+03 1.395088100433349609e+01 5.471061229705810547e+00 -4.050749242305755615e-01 1.212646126747131348e+00 2.422713637351989746e-01 -3.666074514389038086e+00
2.344000000000000000e+03 1.264136791229248047e+01 2.860348701477050781e+00 1.796331048011779785e+00 2.633389234542846680e-01 6.179009675979614258e-01 -2.180272102355957031e+00
2.345000000000000000e+03 1.593924808502197266e+01 3.711390495300292969e+00 9.783622622489929199e-01 7.143216133117675781e+00 2.436473608016967773e+00 -1.047189950942993164e+00
2.346000000000000000e+03 1.570344829559326172e+01 -7.141368389129638672e-01 -1.012243032455444336e+00 1.158025646209716797e+01 3.170403957366943359e+00 4.093048572540283203e+00
2.347000000000000000e+03 9.660490989685058594e+00 3.279924392700195312e+00 6.651335954666137695e-02 7.676379084587097168e-01 2.502453625202178955e-01 -8.421242237091064453e-01
2.348000000000000000e+03 1.035414981842041016e+01 3.014847517013549805e+00 1.904499679803848267e-01 6.381515264511108398e-01 2.485804557800292969e-01 -1.049168586730957031e+00
2.349000000000000000e+03 1.061326599121093750e+01 4.793883800506591797e+00 3.066705167293548584e-01 1.844589471817016602e+00 6.453779935836791992e-01 -1.770054101943969727e+00
2.350000000000000000e+03 8.933792114257812500e+00 -4.973675727844238281e+00 1.500598430633544922e+00 1.378541290760040283e-01 4.915357530117034912e-01 5.136081576347351074e-01
2.351000000000000000e+03 7.847686290740966797e+00 -4.346974849700927734e+00 9.811230897903442383e-01 -3.707144409418106079e-02 2.832154929637908936e-01 1.640581488609313965e-01
2.352000000000000000e+03 8.481901168823242188e+00 -3.405371665954589844e+00 7.980214953422546387e-01 -8.506905287504196167e-02 2.138857394456863403e-01 -6.390009820461273193e-02
2.353000000000000000e+03 4.021455764770507812e+00 -3.227326631546020508e+00 1.268419343978166580e-02 -8.924983441829681396e-02 -2.296969108283519745e-02 -2.388641983270645142e-01
2.354000000000000000e+03 3.700074672698974609e+00 -4.260934352874755859e+00 1.205204874277114868e-01 -7.114396989345550537e-02 1.481295563280582428e-02 -1.758426427841186523e-01
2.355000000000000000e+03 6.001397609710693359e+00 -4.616727352142333984e+00 5.167602300643920898e-01 1.041452866047620773e-02 1.581524312496185303e-01 2.545061334967613220e-02
2.356000000000000000e+03 2.870427131652832031e+00 -4.062523365020751953e+00 4.688444361090660095e-02 -1.424190849065780640e-01 -2.866039238870143890e-02 -1.729334741830825806e-01
2.357000000000000000e+03 3.648352861404418945e+00 -6.413093090057373047e+00 1.728969812393188477e-01 9.427091479301452637e-02 8.015037328004837036e-02 1.089351065456867218e-02
2.358000000000000000e+03 2.562643051147460938e+00 -6.355590820312500000e+00 7.173012942075729370e-02 -1.080640554428100586e-01 -1.090017799288034439e-02 -4.584483057260513306e-02
2.359000000000000000e+03 1.218222141265869141e+01 -2.716531038284301758e+00 1.285899162292480469e+00 1.768980741500854492e+00 9.164639711380004883e-01 7.773071527481079102e-01
2.360000000000000000e+03 1.550222396850585938e+01 -2.497381925582885742e+00 -4.141366183757781982e-01 9.782207489013671875e+00 2.810421466827392578e+00 1.957776308059692383e+00
2.361000000000000000e+03 1.154339313507080078e+01 -2.888161659240722656e+00 1.277339220046997070e+00 1.076695084571838379e+00 7.062103152275085449e-01 4.827273786067962646e-01
2.362000000000000000e+03 1.663606452941894531e+01 -1.680047988891601562e+00 -1.663453221321105957e+00 1.205085182189941406e+01 3.116219520568847656e+00 1.917443394660949707e+00
2.363000000000000000e+03 7.992059707641601562e+00 3.462262392044067383e+00 -1.739766597747802734e-01 7.776625752449035645e-01 1.811057776212692261e-01 -1.262808740139007568e-01
2.364000000000000000e+03 6.209592342376708984e+00 5.296702861785888672e+00 2.177590131759643555e-01 8.763678669929504395e-01 3.282380700111389160e-01 3.924292325973510742e-01
2.365000000000000000e+03 3.506552934646606445e+00 7.931171417236328125e+00 3.549145162105560303e-01 -1.417795419692993164e-01 6.394048780202865601e-02 3.844039440155029297e-01
2.366000000000000000e+03 3.663907289505004883e+00 9.150342941284179688e+00 5.361621379852294922e-01 -2.419697865843772888e-02 1.535895466804504395e-01 1.165160685777664185e-01
2.367000000000000000e+03 4.869055271148681641e+00 3.548738241195678711e+00 -1.942914724349975586e-01 1.767548322677612305e-01 -5.260993726551532745e-03 6.312564015388488770e-01
2.368000000000000000e+03 2.417312145233154297e+00 5.786005020141601562e+00 1.159805953502655029e-01 -5.886633396148681641e-01 -1.418048292398452759e-01 5.810013413429260254e-01
2.369000000000000000e+03 3.709614992141723633e+00 4.404357433319091797e+00 -3.836307674646377563e-02 -7.820555567741394043e-02 -3.497058898210525513e-02 6.920426487922668457e-01
2.370000000000000000e+03 3.331566333770751953e+00 6.776271820068359375e+00 2.696972489356994629e-01 -2.379834651947021484e-01 9.514135308563709259e-03 5.271844267845153809e-01
2.371000000000000000e+03 1.563878178596496582e+00 5.394186496734619141e+00 3.600564226508140564e-02 -8.617707490921020508e-01 -2.477295249700546265e-01 4.641687572002410889e-01
2.372000000000000000e+03 3.418285608291625977e+00 3.702518463134765625e+00 -1.068288460373878479e-01 -1.635974198579788208e-01 -8.112788200378417969e-02 6.676502823829650879e-01
2.373000000000000000e+03 9.842509269714355469e+00 4.888958930969238281e+00 3.678557276725769043e-01 1.782745242118835449e+00 6.451802849769592285e-01 -1.295420527458190918e+00
2.374000000000000000e+03 8.125226020812988281e+00 5.576062202453613281e+00 3.662686944007873535e-01 1.765065908432006836e+00 6.394003629684448242e-01 -3.041595816612243652e-01
2.375000000000000000e+03 1.574782657623291016e+01 -1.259004235267639160e+00 -1.294576764106750488e+00 1.127895450592041016e+01 2.995313167572021484e+00 3.388565301895141602e+00
2.376000000000000000e+03 1.415438175201416016e+01 6.054909706115722656e+00 -1.812531590461730957e+00 1.025202870368957520e+00 -2.361986339092254639e-01 -3.358597040176391602e+00
2.377000000000000000e+03 1.827608680725097656e+01 2.631192684173583984e+00 4.302135467529296875e+00 5.571688652038574219e+00 2.962147235870361328e+00 4.606271743774414062e+00
2.378000000000000000e+03 1.882075881958007812e+01 1.414071083068847656e+00 5.313128948211669922e+00 4.118451118469238281e+00 2.829473972320556641e+00 2.886398553848266602e+00
2.379000000000000000e+03 9.499745368957519531e+00 -4.065438270568847656e+00 1.427944302558898926e+00 1.536254882812500000e-01 4.744709432125091553e-01 2.726331949234008789e-01
2.380000000000000000e+03 1.029162788391113281e+01 -3.932376861572265625e+00 1.594939589500427246e+00 4.683983922004699707e-01 6.190013885498046875e-01 3.416291475296020508e-01
2.381000000000000000e+03 1.444971656799316406e+01 5.109888553619384766e+00 -2.404665341600775719e-03 1.250777959823608398e+00 3.745119869709014893e-01 -3.430012464523315430e+00
2.382000000000000000e+03 1.575953388214111328e+01 4.225459575653076172e+00 5.575766563415527344e-01 5.390727519989013672e+00 1.784491300582885742e+00 -1.426475048065185547e+00
2.383000000000000000e+03 1.103535079956054688e+01 -3.768510818481445312e+00 1.705572843551635742e+00 8.769232630729675293e-01 7.747488617897033691e-01 4.840524494647979736e-01
2.384000000000000000e+03 1.287156295776367188e+01 5.361944198608398438e+00 6.160784885287284851e-02 2.038156270980834961e+00 6.299292445182800293e-01 -3.621372938156127930e+00
2.385000000000000000e+03 1.413658332824707031e+01 3.894281148910522461e+00 2.190306663513183594e+00 2.092985153198242188e+00 1.284987568855285645e+00 -3.980461597442626953e+00
2.386000000000000000e+03 1.218412303924560547e+01 5.892770767211914062e+00 3.576330542564392090e-01 2.798213958740234375e+00 9.467541575431823730e-01 -2.953811645507812500e+00
2.387000000000000000e+03 9.011050224304199219e+00 5.757027149200439453e+00 4.386118054389953613e-01 2.236702919006347656e+00 8.025944232940673828e-01 -7.948176264762878418e-01
2.388000000000000000e+03 4.856214523315429688e+01 -1.349454307556152344e+01 -1.599907875061035156e+00 5.855624198913574219e+00 1.276714920997619629e+00 1.077156424522399902e+00
2.389000000000000000e+03 4.837337875366210938e+01 -1.434727859497070312e+01 -2.388760328292846680e+00 5.517173290252685547e+00 9.385238289833068848e-01 1.687138199806213379e+00
2.390000000000000000e+03 3.029232978820800781e+01 1.090520381927490234e+00 -1.644590973854064941e+00 5.556540012359619141e+00 1.173584699630737305e+00 -2.059362173080444336e+00
2.391000000000000000e+03 6.198744583129882812e+01 -2.917575359344482422e+00 1.941020131111145020e+00 8.766307830810546875e+00 3.212198257446289062e+00 -1.210009455680847168e+00
2.392000000000000000e+03 3.318804168701171875e+01 -1.874866366386413574e+00 1.441374301910400391e+00 3.219884157180786133e+00 1.398377537727355957e+00 -5.875710397958755493e-02
2.393000000000000000e+03 5.123926162719726562e+01 3.000653266906738281e+01 1.527534008026123047e+00 7.096768856048583984e+00 2.587290763854980469e+00 7.585561275482177734e-01
2.394000000000000000e+03 4.228962326049804688e+01 -2.288642501831054688e+01 2.910042762756347656e+00 4.744668006896972656e+00 2.296413183212280273e+00 8.937123417854309082e-01
2.395000000000000000e+03 5.040055847167968750e+01 2.738981437683105469e+01 2.037012338638305664e+00 6.549077987670898438e+00 2.575827121734619141e+00 9.534246921539306641e-01
2.396000000000000000e+03 2.451716041564941406e+01 -1.621811103820800781e+01 -6.542126536369323730e-01 9.331320524215698242e-01 8.367583155632019043e-02 1.735826730728149414e-01
2.397000000000000000e+03 4.074522781372070312e+01 -1.483057117462158203e+01 -2.360505580902099609e+00 3.563279628753662109e+00 3.608322739601135254e-01 -2.586179256439208984e+00
2.398000000000000000e+03 4.154302215576171875e+01 -2.570708465576171875e+01 8.853465318679809570e-01 4.372498035430908203e+00 1.577353358268737793e+00 1.343646645545959473e+00
2.399000000000000000e+03 2.106894874572753906e+01 -1.607249069213867188e+01 -3.428850769996643066e-01 1.236221551895141602e+00 2.680009305477142334e-01 -1.456496953964233398e+00
2.400000000000000000e+03 2.341187095642089844e+01 -2.344471549987792969e+01 1.145823240280151367e+00 2.698066234588623047e+00 1.153166890144348145e+00 -7.639664411544799805e-01
2.401000000000000000e+03 1.882109069824218750e+01 5.010313034057617188e+00 3.727649450302124023e-01 4.618906974792480469e+00 1.497501611709594727e+00 4.241960525512695312e+00
2.402000000000000000e+03 6.161142730712890625e+01 5.823140218853950500e-02 -8.078609108924865723e-01 6.945693016052246094e+00 1.841349601745605469e+00 -1.239194393157958984e+00
2.403000000000000000e+03 6.434397125244140625e+01 -1.140972256660461426e+00 4.121119678020477295e-01 6.469751358032226562e+00 2.064558982849121094e+00 6.935397982597351074e-01
2.404000000000000000e+03 2.133356475830078125e+01 6.001912117004394531e+00 9.721050858497619629e-01 4.544081687927246094e+00 1.654855966567993164e+00 2.321807861328125000e+00
2.405000000000000000e+03 2.400940132141113281e+01 2.087462186813354492e+00 1.274010539054870605e+00 1.350627779960632324e+00 7.873914837837219238e-01 -8.824203908443450928e-02
2.406000000000000000e+03 5.819191360473632812e+01 4.016552925109863281e+00 -5.219876766204833984e-01 4.615839958190917969e+00 1.228155612945556641e+00 -1.393294215202331543e+00
2.407000000000000000e+03 4.195730590820312500e+01 1.145017147064208984e+01 5.681677460670471191e-01 7.965564250946044922e+00 2.560119628906250000e+00 7.214772701263427734e-01
2.408000000000000000e+03 6.413008880615234375e+01 -2.389901351928710938e+01 1.821066379547119141e+00 7.816783428192138672e+00 2.891355037689208984e+00 -2.443207502365112305e+00
2.409000000000000000e+03 5.233981323242187500e+01 1.990535736083984375e+01 -7.410092353820800781e-01 3.979250192642211914e+00 9.714722633361816406e-01 -2.365930557250976562e+00
2.410000000000000000e+03 3.591015625000000000e+01 -1.122291278839111328e+01 1.825464129447937012e+00 4.689377307891845703e+00 1.954452395439147949e+00 -1.802550315856933594e+00
2.411000000000000000e+03 1.969315910339355469e+01 1.479455590248107910e+00 3.851885557174682617e+00 2.216426610946655273e+00 1.820493698120117188e+00 2.799895763397216797e+00
2.412000000000000000e+03 2.680686759948730469e+01 -1.654480361938476562e+01 -9.254563450813293457e-01 4.221385478973388672e+00 9.887788295745849609e-01 9.417606592178344727e-01
2.413000000000000000e+03 2.593811416625976562e+01 -1.509349346160888672e+01 -2.580610990524291992e+00 2.546122074127197266e+00 -1.034670136868953705e-02 8.805955648422241211e-01
2.414000000000000000e+03 1.464521217346191406e+01 -1.760574817657470703e+00 1.402264088392257690e-01 6.815993785858154297e+00 2.086866140365600586e+00 2.877068042755126953e+00
2.415000000000000000e+03 1.436617088317871094e+01 -5.220610618591308594e+00 2.152395248413085938e+00 6.735005855560302734e+00 2.666220426559448242e+00 7.754672169685363770e-01
2.416000000000000000e+03 3.430301284790039062e+01 1.956199836730957031e+01 1.485746622085571289e+00 6.272597312927246094e+00 2.327503204345703125e+00 -4.691150188446044922e-01
2.417000000000000000e+03 2.570179367065429688e+01 -2.003121185302734375e+01 2.333545923233032227e+00 3.944044351577758789e+00 1.883277058601379395e+00 -1.502527147531509399e-01
2.418000000000000000e+03 4.377528762817382812e+01 8.347661972045898438e+00 3.483224892988801003e-03 6.781404972076416016e+00 2.035466432571411133e+00 2.943273186683654785e-01
2.419000000000000000e+03 3.216563034057617188e+01 1.530658054351806641e+01 -3.293745517730712891e-01 6.300621986389160156e+00 1.791374206542968750e+00 1.170711159706115723e+00
2.420000000000000000e+03 7.554709625244140625e+01 1.588696765899658203e+01 3.028994202613830566e-01 7.808320045471191406e+00 2.433365821838378906e+00 7.814207673072814941e-01
2.421000000000000000e+03 7.684386444091796875e+01 1.778297805786132812e+01 -1.574749201536178589e-01 7.307039260864257812e+00 2.144869327545166016e+00 7.724832892417907715e-01
2.422000000000000000e+03 2.902520179748535156e+01 -1.373402118682861328e+01 -3.394298791885375977e+00 6.367147922515869141e+00 8.918548226356506348e-01 2.260990381240844727e+00
2.423000000000000000e+03 3.042550086975097656e+01 -1.208060646057128906e+01 -1.162701487541198730e+00 6.042604923248291016e+00 1.463971018791198730e+00 1.626895189285278320e+00
2.424000000000000000e+03 4.230479049682617188e+01 1.888098907470703125e+01 5.962201356887817383e-01 4.128379821777343750e+00 1.417380094528198242e+00 9.508416056632995605e-01
2.425000000000000000e+03 8.916892051696777344e+00 6.654970645904541016e+00 6.997160315513610840e-01 2.777132987976074219e+00 1.043054699897766113e+00 -7.739480733871459961e-01
2.426000000000000000e+03 3.288246536254882812e+01 -4.304366707801818848e-01 -3.629249287769198418e-03 2.237588644027709961e+00 6.701878309249877930e-01 -7.240153551101684570e-01
2.427000000000000000e+03 2.923349189758300781e+01 -2.790734100341796875e+01 -1.987483620643615723e+00 5.676670551300048828e+00 1.106755971908569336e+00 -4.942398071289062500e-01
2.428000000000000000e+03 2.776696586608886719e+01 -2.925442314147949219e+01 -1.095232129096984863e+00 5.724255561828613281e+00 1.388707041740417480e+00 -1.009513139724731445e-01
2.429000000000000000e+03 3.543054199218750000e+01 1.402087402343750000e+01 8.080361485481262207e-01 1.135434269905090332e+00 5.830411314964294434e-01 -1.033462047576904297e+00
2.430000000000000000e+03 2.175855636596679688e+01 1.640522718429565430e+00 1.801869511604309082e+00 6.243426203727722168e-01 7.278636693954467773e-01 1.447931170463562012e+00
2.431000000000000000e+03 7.161000061035156250e+01 3.861426591873168945e+00 -7.544747553765773773e-03 4.118806362152099609e+00 1.233378529548645020e+00 7.734072208404541016e-01
2.432000000000000000e+03 4.261414337158203125e+01 4.359428882598876953e+00 1.434310436248779297e+00 6.089189052581787109e+00 2.257049798965454102e+00 -5.590643286705017090e-01
2.433000000000000000e+03 4.541980361938476562e+01 6.324498176574707031e+00 -2.215606868267059326e-01 4.421455383300781250e+00 1.259968400001525879e+00 -8.924250006675720215e-01
2.434000000000000000e+03 6.331828308105468750e+01 1.579637408256530762e+00 -8.300895094871520996e-01 5.472200393676757812e+00 1.392633318901062012e+00 -6.433392167091369629e-01
2.435000000000000000e+03 4.732313919067382812e+01 -1.543928050994873047e+01 -3.274704694747924805e+00 5.769665241241455078e+00 7.484881281852722168e-01 2.505384683609008789e+00
2.436000000000000000e+03 7.666072082519531250e+01 1.081401062011718750e+01 7.141817212104797363e-01 7.298968791961669922e+00 2.403945207595825195e+00 -6.396009325981140137e-01
2.437000000000000000e+03 7.626936340332031250e+01 1.359888076782226562e+01 8.657603263854980469e-01 7.389492034912109375e+00 2.476575613021850586e+00 2.031642049551010132e-01
2.438000000000000000e+03 7.719834136962890625e+01 -1.755758857727050781e+01 -1.105510517954826355e-01 8.588501930236816406e+00 2.543385267257690430e+00 1.237792491912841797e+00
2.439000000000000000e+03 7.696366882324218750e+01 -1.994854927062988281e+01 4.608816802501678467e-01 8.247522354125976562e+00 2.612521171569824219e+00 1.104943871498107910e+00
2.440000000000000000e+03 7.604637908935546875e+01 5.756805896759033203e+00 -2.075896859169006348e-01 7.371752738952636719e+00 2.149248838424682617e+00 -1.072209596633911133e+00
2.441000000000000000e+03 7.461972045898437500e+01 1.397631764411926270e+00 -5.900594592094421387e-01 5.811989784240722656e+00 1.566579103469848633e+00 -8.328573703765869141e-01
2.442000000000000000e+03 7.683306884765625000e+01 1.489832878112792969e+00 -4.879282712936401367e-01 7.835523605346679688e+00 2.204278707504272461e+00 -5.990623235702514648e-01
2.443000000000000000e+03 7.716996765136718750e+01 1.385701370239257812e+01 4.042668044567108154e-01 6.857357025146484375e+00 2.178487062454223633e+00 4.015810489654541016e-01
2.444000000000000000e+03 7.594322204589843750e+01 9.359762191772460938e+00 4.640476703643798828e-01 7.638978004455566406e+00 2.430907726287841797e+00 -9.669325947761535645e-01
2.445000000000000000e+03 7.459026336669921875e+01 8.312086105346679688e+00 2.305319607257843018e-01 7.781166553497314453e+00 2.403509616851806641e+00 -8.915286064147949219e-01
2.446000000000000000e+03 7.635668182373046875e+01 -1.602059173583984375e+01 -5.956073999404907227e-01 8.290800094604492188e+00 2.308557748794555664e+00 9.914411902427673340e-01
2.447000000000000000e+03 7.607013702392578125e+01 -1.723430061340332031e+01 -3.571192324161529541e-01 8.260534286499023438e+00 2.371024608612060547e+00 1.254845380783081055e+00
2.448000000000000000e+03 7.394164276123046875e+01 5.327823162078857422e+00 -3.845741748809814453e-01 6.480079650878906250e+00 1.828651666641235352e+00 -3.291964232921600342e-01
2.449000000000000000e+03 7.694077301025390625e+01 2.654949903488159180e+00 -2.625588476657867432e-01 7.720694065093994141e+00 2.237440586090087891e+00 -6.778166890144348145e-01
2.450000000000000000e+03 7.694758605957031250e+01 3.820816516876220703e+00 -2.479268163442611694e-01 7.665857791900634766e+00 2.225379228591918945e+00 -8.396523594856262207e-01
2.451000000000000000e+03 7.535614013671875000e+01 4.922598838806152344e+00 -3.288113474845886230e-01 6.904846668243408203e+00 1.972810626029968262e+00 -8.695687055587768555e-01
2.452000000000000000e+03 7.666662597656250000e+01 -1.393129062652587891e+01 -1.000811338424682617e+00 8.642653465270996094e+00 2.292552709579467773e+00 4.655134081840515137e-01
2.453000000000000000e+03 7.460062408447265625e+01 9.758007049560546875e+00 7.287861704826354980e-01 8.296986579895019531e+00 2.707731962203979492e+00 -7.876057028770446777e-01
2.454000000000000000e+03 7.604412078857421875e+01 1.197431468963623047e+01 8.229187726974487305e-01 7.490890979766845703e+00 2.494143009185791016e+00 -2.548268139362335205e-01
2.455000000000000000e+03 7.691963958740234375e+01 1.280150127410888672e+01 7.384091019630432129e-01 7.108119487762451172e+00 2.353958606719970703e+00 -4.815547913312911987e-02
2.456000000000000000e+03 7.529057312011718750e+01 -1.551842784881591797e+01 -9.534459114074707031e-01 7.231431484222412109e+00 1.883395671844482422e+00 8.335047960281372070e-01
2.457000000000000000e+03 7.729746246337890625e+01 -1.639536857604980469e+01 -2.763601541519165039e-01 8.744388580322265625e+00 2.540408372879028320e+00 1.104621887207031250e+00
2.458000000000000000e+03 7.460742187500000000e+01 1.797023963928222656e+01 -5.567936301231384277e-01 7.891108989715576172e+00 2.200294733047485352e+00 6.170929074287414551e-01
2.459000000000000000e+03 7.685692596435546875e+01 1.635034751892089844e+01 6.933376938104629517e-02 7.167889118194580078e+00 2.171166896820068359e+00 8.323915004730224609e-01
2.460000000000000000e+03 7.433118438720703125e+01 1.520302486419677734e+01 9.514613747596740723e-01 8.458260536193847656e+00 2.822916507720947266e+00 5.868462920188903809e-01
2.461000000000000000e+03 7.564654541015625000e+01 -1.284508705139160156e+00 -1.009024977684020996e+00 7.943796634674072266e+00 2.080431461334228516e+00 -3.728400468826293945e-01
2.462000000000000000e+03 7.500009155273437500e+01 1.696578407287597656e+01 -8.326271921396255493e-02 7.794321060180664062e+00 2.313317537307739258e+00 7.699176073074340820e-01
2.463000000000000000e+03 7.584210205078125000e+01 2.182918739318847656e+01 -4.980592727661132812e-01 7.059095859527587891e+00 1.968310952186584473e+00 -7.868059724569320679e-02
2.464000000000000000e+03 7.461978912353515625e+01 1.915484809875488281e+01 -8.403424024581909180e-01 7.611763477325439453e+00 2.031426429748535156e+00 2.729173302650451660e-01
2.465000000000000000e+03 7.618498992919921875e+01 -2.215176582336425781e+01 1.082903623580932617e+00 9.025727272033691406e+00 3.032589197158813477e+00 4.431473910808563232e-01
2.466000000000000000e+03 7.423289489746093750e+01 3.490776824951171875e+01 2.545561455190181732e-02 6.277204990386962891e+00 1.890798211097717285e+00 3.378911912441253662e-01
2.467000000000000000e+03 7.512163543701171875e+01 3.293283081054687500e+01 1.570742130279541016e-01 6.335732460021972656e+00 1.947842001914978027e+00 2.037602812051773071e-01
2.468000000000000000e+03 7.562107849121093750e+01 3.421312332153320312e+01 6.614851206541061401e-02 6.511835098266601562e+00 1.973395109176635742e+00 2.248527854681015015e-01
2.469000000000000000e+03 7.630100250244140625e+01 -2.536028480529785156e+01 -1.006765291094779968e-01 8.390903472900390625e+00 2.487068176269531250e+00 -6.622948050498962402e-01
2.470000000000000000e+03 7.718529510498046875e+01 -2.584584045410156250e+01 -3.017402291297912598e-01 7.949592590332031250e+00 2.294355869293212891e+00 -4.252592325210571289e-01
2.471000000000000000e+03 7.694417572021484375e+01 -2.693191909790039062e+01 -3.184661567211151123e-01 7.744915485382080078e+00 2.227934837341308594e+00 -2.789810001850128174e-01
2.472000000000000000e+03 7.425539398193359375e+01 2.702407455444335938e+01 2.488318830728530884e-01 5.961013793945312500e+00 1.862953782081604004e+00 -3.433368206024169922e-01
2.473000000000000000e+03 7.385440826416015625e+01 2.330993843078613281e+01 -4.507017433643341064e-01 6.228031635284423828e+00 1.733198881149291992e+00 -6.296180486679077148e-01
2.474000000000000000e+03 7.664015197753906250e+01 2.758454132080078125e+01 8.928234130144119263e-02 6.608201026916503906e+00 2.009244918823242188e+00 -2.292278856039047241e-01
2.475000000000000000e+03 7.539396667480468750e+01 2.734707832336425781e+01 2.258904725313186646e-01 6.300514698028564453e+00 1.957921624183654785e+00 -2.970466911792755127e-01
2.476000000000000000e+03 7.176112365722656250e+01 -3.488423538208007812e+01 7.617743611335754395e-01 5.662980079650878906e+00 1.927426338195800781e+00 -9.634657502174377441e-01
2.477000000000000000e+03 7.618640899658203125e+01 -3.027340888977050781e+01 -1.376067101955413818e-01 7.068818092346191406e+00 2.079363346099853516e+00 3.004003167152404785e-01
2.478000000000000000e+03 7.627067565917968750e+01 3.048799514770507812e+01 1.468844711780548096e-01 6.499726772308349609e+00 1.993983387947082520e+00 -1.956246420741081238e-02
2.479000000000000000e+03 7.361309814453125000e+01 -3.042246627807617188e+01 3.108734488487243652e-01 5.878633499145507812e+00 1.856852054595947266e+00 6.063024401664733887e-01
2.480000000000000000e+03 7.667610931396484375e+01 -3.476133346557617188e+01 1.454764455556869507e-01 7.058228969573974609e+00 2.161111593246459961e+00 -1.170943751931190491e-01
2.481000000000000000e+03 7.536299896240234375e+01 -3.517170715332031250e+01 2.734708487987518311e-01 6.706816673278808594e+00 2.094086408615112305e+00 -3.555238842964172363e-01
2.482000000000000000e+03 7.479833221435546875e+01 3.025111007690429688e+01 3.286366760730743408e-01 6.117061614990234375e+00 1.933709383010864258e+00 6.232354324311017990e-03
2.483000000000000000e+03 7.238063049316406250e+01 -3.652721023559570312e+01 1.895603686571121216e-01 6.173669815063476562e+00 1.908969044685363770e+00 -8.717128634452819824e-01
2.484000000000000000e+03 4.008170700073242188e+01 -1.752357929944992065e-01 -1.600130349397659302e-01 4.480795860290527344e+00 1.296234846115112305e+00 1.212886810302734375e+00
2.485000000000000000e+03 3.993063354492187500e+01 -1.444895505905151367e+00 -7.104743123054504395e-01 3.304636240005493164e+00 7.782485485076904297e-01 1.915388226509094238e+00
2.486000000000000000e+03 3.456404113769531250e+01 -6.741306304931640625e+00 2.845775127410888672e+00 5.481960296630859375e+00 2.498320579528808594e+00 -9.747851490974426270e-01
2.487000000000000000e+03 3.585135650634765625e+01 -5.621406555175781250e+00 2.046160221099853516e+00 5.313469886779785156e+00 2.207889080047607422e+00 3.488986790180206299e-01
2.488000000000000000e+03 2.707747459411621094e+01 3.030375242233276367e+00 -1.384814232587814331e-01 5.298805713653564453e+00 1.548097372055053711e+00 -1.174706816673278809e+00
2.489000000000000000e+03 4.602607345581054688e+01 -2.515308189392089844e+01 -1.973875015974044800e-01 4.199005603790283203e+00 1.200485348701477051e+00 -2.391525745391845703e+00
2.490000000000000000e+03 2.211988830566406250e+01 2.988680267333984375e+01 4.849121868610382080e-01 5.593907833099365234e+00 1.823646068572998047e+00 5.882958173751831055e-01
2.491000000000000000e+03 4.273443984985351562e+01 -1.911256599426269531e+01 2.219186305999755859e+00 4.462423801422119141e+00 2.004482984542846680e+00 -3.288843929767608643e-01
2.492000000000000000e+03 4.135055541992187500e+00 2.182053947448730469e+01 -3.844999372959136963e-01 1.993836402893066406e+00 4.828009307384490967e-01 -2.996206581592559814e-01
2.493000000000000000e+03 3.650118350982666016e+00 1.979028320312500000e+01 -4.041442573070526123e-01 1.433274149894714355e+00 3.087389767169952393e-01 -4.621983170509338379e-01
2.494000000000000000e+03 3.189757108688354492e+00 2.568657875061035156e+01 5.988473892211914062e-01 2.026484966278076172e+00 7.875997424125671387e-01 -1.856671273708343506e-01
2.495000000000000000e+03 4.018666267395019531e+00 2.294853782653808594e+01 -2.131129056215286255e-01 2.148602962493896484e+00 5.806470513343811035e-01 -6.820213794708251953e-02
2.496000000000000000e+03 4.084927558898925781e+00 -1.707879257202148438e+01 1.450806260108947754e+00 4.082637786865234375e+00 1.660033226013183594e+00 1.378833651542663574e+00
2.497000000000000000e+03 4.665765762329101562e+00 -1.454665756225585938e+01 7.582436203956604004e-01 3.481790781021118164e+00 1.272010326385498047e+00 9.331033825874328613e-01
2.498000000000000000e+03 5.032094001770019531e+00 2.257114791870117188e+01 -4.244669079780578613e-01 2.689354658126831055e+00 6.794663667678833008e-01 -4.159789681434631348e-01
2.499000000000000000e+03 2.982392549514770508e+00 1.780119895935058594e+01 -2.509080469608306885e-01 8.447886109352111816e-01 1.781641691923141479e-01 -6.714925169944763184e-01
2.500000000000000000e+03 4.354345321655273438e+00 1.894051933288574219e+01 -5.452471375465393066e-01 1.627924680709838867e+00 3.248032629489898682e-01 -6.771199107170104980e-01
2.501000000000000000e+03 6.970355510711669922e+00 1.484719848632812500e+01 1.392735838890075684e-01 2.788693904876708984e+00 8.783901929855346680e-01 -1.041503429412841797e+00
2.502000000000000000e+03 3.006966352462768555e+00 -2.596818542480468750e+01 -3.639813363552093506e-01 2.482617855072021484e+00 6.355909705162048340e-01 -3.251529633998870850e-01
2.503000000000000000e+03 2.730846643447875977e+00 -2.729631042480468750e+01 -8.373907953500747681e-02 2.465576410293579102e+00 7.145512104034423828e-01 -4.944661855697631836e-01
2.504000000000000000e+03 4.901093959808349609e+00 -2.523249435424804688e+01 -1.025628209114074707e+00 1.821194052696228027e+00 2.386697530746459961e-01 -5.228654146194458008e-01
2.505000000000000000e+03 6.266748905181884766e+00 1.593924903869628906e+01 -2.273124158382415771e-01 2.254155874252319336e+00 6.080530881881713867e-01 -1.161721467971801758e+00
2.506000000000000000e+03 4.130500793457031250e+00 1.416058349609375000e+01 2.048251032829284668e-01 8.723493218421936035e-01 3.231523334980010986e-01 -9.798703789710998535e-01
2.507000000000000000e+03 3.628248214721679688e+00 -9.890328407287597656e+00 -1.337535083293914795e-01 7.795295715332031250e-01 1.937328279018402100e-01 2.331499457359313965e-01
2.508000000000000000e+03 2.744269371032714844e+00 -1.134847164154052734e+01 -1.353885680437088013e-01 6.642553210258483887e-01 1.586600095033645630e-01 -5.006659403443336487e-02
2.509000000000000000e+03 5.916051864624023438e+00 8.840226173400878906e+00 9.902963638305664062e-01 1.377030849456787109e+00 7.101981639862060547e-01 -3.568494459614157677e-03
2.510000000000000000e+03 3.235471248626708984e+00 3.449828338623046875e+01 -4.781363010406494141e-01 2.579150676727294922e+00 6.303043365478515625e-01 -5.250298976898193359e-01
2.511000000000000000e+03 3.222448587417602539e+00 -3.096551895141601562e+01 2.981080412864685059e-01 2.203236579895019531e+00 7.504034042358398438e-01 -2.216438204050064087e-01
2.512000000000000000e+03 4.355897903442382812e+00 -2.795431327819824219e+01 1.235832460224628448e-02 1.873600363731384277e+00 5.657876133918762207e-01 -5.606597065925598145e-01
2.513000000000000000e+03 6.503935813903808594e+00 1.039128589630126953e+01 1.335761070251464844e+00 2.084772348403930664e+00 1.026160001754760742e+00 -5.413674712181091309e-01
2.514000000000000000e+03 2.924566507339477539e+00 -1.260103034973144531e+01 -3.606903925538063049e-02 1.019423484802246094e+00 2.950063347816467285e-01 -1.295927166938781738e-01
2.515000000000000000e+03 4.743542194366455078e+00 -6.506169795989990234e+00 2.800071835517883301e-01 2.649017572402954102e-01 1.634726822376251221e-01 2.601554691791534424e-01
2.516000000000000000e+03 8.520528793334960938e+00 -3.530314636230468750e+01 3.076112270355224609e-01 2.561840772628784180e+00 8.608356118202209473e-01 1.051402091979980469e+00
2.517000000000000000e+03 4.348715782165527344e+00 -2.923118782043457031e+01 3.218231499195098877e-01 1.910035967826843262e+00 6.695577502250671387e-01 -4.331611096858978271e-01
2.518000000000000000e+03 4.488134384155273438e+00 -3.059089088439941406e+01 4.172355532646179199e-01 1.935902118682861328e+00 7.059413194656372070e-01 -2.366300821304321289e-01
2.519000000000000000e+03 3.338502645492553711e+00 -3.230175399780273438e+01 2.767386734485626221e-01 2.235831022262573242e+00 7.537708878517150879e-01 -2.050242200493812561e-02
2.520000000000000000e+03 2.418766975402832031e+00 6.782468795776367188e+00 1.404723972082138062e-01 -6.673943400382995605e-01 -1.580765843391418457e-01 4.959741234779357910e-01
2.521000000000000000e+03 4.174184322357177734e+00 1.009459781646728516e+01 6.653645634651184082e-01 3.244408071041107178e-01 2.969416081905364990e-01 -1.337701678276062012e-01
2.522000000000000000e+03 3.714045524597167969e+00 -5.247098445892333984e+00 1.740065664052963257e-01 -1.861334033310413361e-02 4.661796987056732178e-02 -6.807409971952438354e-02
2.523000000000000000e+03 4.832960128784179688e+00 5.317963123321533203e+00 1.313731670379638672e-01 3.094744980335235596e-01 1.322543025016784668e-01 6.242890954017639160e-01
2.524000000000000000e+03 6.411351680755615234e+00 -3.382517623901367188e+01 5.704389810562133789e-01 2.221314430236816406e+00 8.375260233879089355e-01 6.470337510108947754e-01
2.525000000000000000e+03 5.076129913330078125e+00 3.875280380249023438e+01 -4.618042334914207458e-02 1.515505194664001465e+00 4.407974183559417725e-01 4.665425419807434082e-02
2.526000000000000000e+03 3.559722900390625000e+00 3.703950119018554688e+01 -3.387418687343597412e-01 2.323442459106445312e+00 5.954101681709289551e-01 -3.829526156187057495e-02
2.527000000000000000e+03 1.340586566925048828e+01 2.018486022949218750e+01 -4.814377129077911377e-01 -1.725806742906570435e-01 -1.962055116891860962e-01 1.622135639190673828e-01
2.528000000000000000e+03 2.134558296203613281e+01 1.760994529724121094e+01 -2.363569498062133789e+00 1.040301322937011719e+01 2.411833047866821289e+00 1.954076290130615234e-01
2.529000000000000000e+03 7.319023132324218750e+01 1.452441883087158203e+01 1.340731978416442871e+00 1.035442256927490234e+01 3.508546352386474609e+00 -2.110584676265716553e-01
2.530000000000000000e+03 7.479878234863281250e+01 1.407789325714111328e+01 1.191961407661437988e+00 8.444457054138183594e+00 2.890925407409667969e+00 2.021089494228363037e-01
2.531000000000000000e+03 6.727945804595947266e+00 -3.555948257446289062e+01 2.923383712768554688e-01 2.518582582473754883e+00 8.432762622833251953e-01 7.495418190956115723e-01
2.532000000000000000e+03 7.239867210388183594e+00 3.859823989868164062e+01 -8.842094987630844116e-02 7.585155367851257324e-01 2.010283619165420532e-01 1.983898431062698364e-01
2.533000000000000000e+03 6.729327392578125000e+01 2.680985450744628906e+01 1.921979188919067383e+00 4.216813564300537109e+00 1.841637849807739258e+00 5.542743206024169922e-01
2.534000000000000000e+03 4.912855911254882812e+01 -1.121074485778808594e+01 1.826561331748962402e+00 6.996707439422607422e+00 2.646980524063110352e+00 1.725229769945144653e-01
2.535000000000000000e+03 2.531669044494628906e+01 1.393245315551757812e+01 -5.283696651458740234e-01 1.280161499977111816e+00 2.255375534296035767e-01 -1.005138754844665527e+00
2.536000000000000000e+03 2.732048416137695312e+01 1.274615001678466797e+01 9.268394112586975098e-01 1.827971696853637695e+00 8.264433145523071289e-01 1.273757100105285645e+00
2.537000000000000000e+03 2.939145469665527344e+01 1.791504383087158203e+00 -1.672779560089111328e+00 6.006764411926269531e+00 1.300195455551147461e+00 -1.555745959281921387e+00
2.538000000000000000e+03 7.407288360595703125e+01 -4.270929992198944092e-01 -1.224395513534545898e+00 5.309082984924316406e+00 1.225406289100646973e+00 -1.101556181907653809e+00
2.539000000000000000e+03 5.975932693481445312e+01 2.106625366210937500e+01 -4.674896597862243652e-01 4.097092151641845703e+00 1.088880777359008789e+00 1.686311721801757812e+00
2.540000000000000000e+03 5.202210998535156250e+01 2.835005521774291992e-01 -6.801036000251770020e-01 5.318319797515869141e+00 1.391464829444885254e+00 7.849802374839782715e-01
2.541000000000000000e+03 5.297407150268554688e+01 1.863574981689453125e+00 -1.202750444412231445e+00 4.718102455139160156e+00 1.054605603218078613e+00 1.971946001052856445e+00
2.542000000000000000e+03 1.967132377624511719e+01 2.181879425048828125e+01 1.214099407196044922e+00 5.426074028015136719e+00 1.992052078247070312e+00 -1.499137934297323227e-02
2.543000000000000000e+03 3.341270065307617188e+01 -8.658098220825195312e+00 2.993164539337158203e+00 4.862427711486816406e+00 2.356677770614624023e+00 -2.441565096378326416e-01
2.544000000000000000e+03 6.559103393554687500e+01 3.106203556060791016e+00 -1.904882788658142090e-01 2.878717660903930664e+00 8.064688444137573242e-01 4.443540275096893311e-01
2.545000000000000000e+03 6.619779205322265625e+01 4.370801925659179688e+00 -2.170671969652175903e-01 1.525488138198852539e+00 3.925262987613677979e-01 6.855335831642150879e-01
2.546000000000000000e+03 4.483254623413085938e+01 -2.176367378234863281e+01 3.286307096481323242e+00 5.330075263977050781e+00 2.584914684295654297e+00 -9.849433600902557373e-02
2.547000000000000000e+03 4.535391235351562500e+01 -2.039698600769042969e+01 3.025393486022949219e+00 6.601724147796630859e+00 2.888135194778442383e+00 2.821228653192520142e-02
2.548000000000000000e+03 4.885461044311523438e+01 -6.366822719573974609e+00 1.528151869773864746e+00 8.082937240600585938e+00 2.883326768875122070e+00 -1.358106881380081177e-01
2.549000000000000000e+03 7.425028991699218750e+01 -2.748118972778320312e+01 -6.115176677703857422e-01 7.160608768463134766e+00 1.964727282524108887e+00 9.016569852828979492e-01
2.550000000000000000e+03 5.739450454711914062e+01 1.005485725402832031e+01 1.809053897857666016e+00 7.749894618988037109e+00 2.867684602737426758e+00 8.097224235534667969e-01
2.551000000000000000e+03 2.444122314453125000e+01 -2.331353950500488281e+01 1.218960881233215332e+00 3.547051906585693359e+00 1.429803848266601562e+00 -4.535265862941741943e-01
2.552000000000000000e+03 2.164311408996582031e+01 7.773003578186035156e+00 1.273531794548034668e+00 5.522069454193115234e+00 2.038680315017700195e+00 9.074242711067199707e-01
2.553000000000000000e+03 5.751792907714843750e+01 -2.235969924926757812e+01 1.989630341529846191e+00 6.498715877532958984e+00 2.546503782272338867e+00 3.424726724624633789e-01
2.554000000000000000e+03 6.725959014892578125e+01 2.371961212158203125e+01 9.965392947196960449e-01 2.710721731185913086e+00 1.112178325653076172e+00 -1.143661439418792725e-01
2.555000000000000000e+03 6.589117431640625000e+01 2.161059761047363281e+01 -5.400982499122619629e-01 6.884321570396423340e-01 4.450016841292381287e-02 9.377709627151489258e-01
2.556000000000000000e+03 6.026003646850585938e+01 -2.476438140869140625e+01 6.935816407203674316e-01 2.217432737350463867e+00 8.733043074607849121e-01 6.825989484786987305e-01
2.557000000000000000e+03 1.564143753051757812e+01 -1.009574317932128906e+01 1.255474567413330078e+00 7.838276863098144531e+00 2.728125333786010742e+00 -1.436728686094284058e-01
2.558000000000000000e+03 4.323515319824218750e+01 -2.455331993103027344e+01 2.107903957366943359e+00 3.089243888854980469e+00 1.559144377708435059e+00 3.761648833751678467e-01
2.559000000000000000e+03 5.444040298461914062e+01 4.118825912475585938e+00 -1.003682374954223633e+00 5.174962043762207031e+00 1.251383900642395020e+00 2.051644563674926758e+00
2.560000000000000000e+03 7.472653198242187500e+01 -1.823630714416503906e+01 -2.620045095682144165e-02 8.410937309265136719e+00 2.515420913696289062e+00 5.991575121879577637e-01
2.561000000000000000e+03 7.637062072753906250e+01 -2.069641876220703125e+01 7.371522188186645508e-01 8.680279731750488281e+00 2.825229644775390625e+00 9.521182179450988770e-01
2.562000000000000000e+03 1.562517070770263672e+01 -1.115156364440917969e+01 -1.315584301948547363e+00 7.028504848480224609e+00 1.713876247406005859e+00 -3.477472662925720215e-01
2.563000000000000000e+03 2.242230415344238281e+01 -2.415567970275878906e+01 4.060796201229095459e-01 1.808810472488403320e+00 6.644670367240905762e-01 -9.304301142692565918e-01
2.564000000000000000e+03 2.663456344604492188e+01 8.881355285644531250e+00 3.255646944046020508e+00 4.868622779846191406e+00 2.437280893325805664e+00 1.620942801237106323e-01
2.565000000000000000e+03 2.269927024841308594e+01 1.322143650054931641e+01 9.251824021339416504e-01 6.104691028594970703e+00 2.108962059020996094e+00 -1.585904955863952637e+00
2.566000000000000000e+03 8.907307624816894531e+00 1.036923599243164062e+01 2.069571256637573242e+00 5.123114109039306641e+00 2.157805681228637695e+00 -1.333575725555419922e+00
2.567000000000000000e+03 7.024728298187255859e+00 1.205081653594970703e+01 1.193881750106811523e+00 2.878241300582885742e+00 1.221636891365051270e+00 -1.124776363372802734e+00
2.568000000000000000e+03 6.518327331542968750e+01 2.456920051574707031e+01 1.541071891784667969e+00 4.647869110107421875e+00 1.856682300567626953e+00 1.331478953361511230e+00
2.569000000000000000e+03 3.170692634582519531e+01 3.256775665283203125e+01 -3.450514003634452820e-02 4.888220310211181641e+00 1.456114530563354492e+00 -1.403308033943176270e+00
2.570000000000000000e+03 3.385951614379882812e+01 -3.238199615478515625e+01 1.611505508422851562e+00 1.319655179977416992e+00 8.793482184410095215e-01 -5.127011239528656006e-02
2.571000000000000000e+03 3.717087554931640625e+01 -2.979031562805175781e+01 -6.744368672370910645e-01 3.322438478469848633e+00 7.944005131721496582e-01 1.352945208549499512e+00
2.572000000000000000e+03 2.651290893554687500e+01 1.598265767097473145e+00 -1.554018855094909668e-01 4.000174045562744141e+00 1.153431653976440430e+00 -1.680561304092407227e+00
2.573000000000000000e+03 3.135316467285156250e+01 -9.815018653869628906e+00 2.494838476181030273e+00 5.644890785217285156e+00 2.441918849945068359e+00 1.150351643562316895e+00
2.574000000000000000e+03 3.110969161987304688e+01 -1.130255508422851562e+01 3.763516247272491455e-01 5.567039012908935547e+00 1.783017158508300781e+00 1.477871060371398926e+00
2.575000000000000000e+03 6.922991943359375000e+01 -3.071546745300292969e+01 2.493840932846069336e+00 4.275172233581542969e+00 2.030704021453857422e+00 -1.244627833366394043e+00
2.576000000000000000e+03 3.578595352172851562e+01 -1.607429742813110352e+00 5.184711217880249023e-01 2.791881799697875977e+00 9.931058883666992188e-01 2.046510696411132812e+00
2.577000000000000000e+03 5.429690933227539062e+01 1.781650066375732422e+00 -1.815725803375244141e+00 4.200906753540039062e+00 7.155543565750122070e-01 2.281759738922119141e+00
2.578000000000000000e+03 5.340269470214843750e+01 4.214773654937744141e+00 -7.330719828605651855e-01 4.404352188110351562e+00 1.101384043693542480e+00 2.233533382415771484e+00
2.579000000000000000e+03 5.279486846923828125e+01 -3.190583992004394531e+01 2.931446552276611328e+00 6.962579727172851562e+00 2.968207836151123047e+00 -3.981654644012451172e-01
2.580000000000000000e+03 5.108334350585937500e+01 -3.016760253906250000e+01 2.815843343734741211e+00 6.176289081573486328e+00 2.697639703750610352e+00 -8.831197619438171387e-01
2.581000000000000000e+03 1.276503944396972656e+01 -2.812076187133789062e+01 4.163940846920013428e-01 3.393316507339477539e+00 1.142913222312927246e+00 1.531084418296813965e+00
2.582000000000000000e+03 6.347096633911132812e+01 2.247518348693847656e+01 -9.700056910514831543e-01 5.121397018432617188e+00 1.245417356491088867e+00 3.142285585403442383e+00
2.583000000000000000e+03 6.474671936035156250e+01 2.346879196166992188e+01 3.608671426773071289e-01 4.307589054107666016e+00 1.400536894798278809e+00 1.624707102775573730e+00
2.584000000000000000e+03 3.064245414733886719e+01 1.403264522552490234e+01 -1.091909527778625488e+00 5.959819316864013672e+00 1.460373044013977051e+00 5.166530609130859375e+00
2.585000000000000000e+03 3.551531982421875000e+01 1.975306320190429688e+01 1.309034824371337891e+00 5.153889656066894531e+00 1.938877344131469727e+00 -1.322030305862426758e+00
2.586000000000000000e+03 3.442888641357421875e+01 1.846738243103027344e+01 1.990044713020324707e+00 5.836211681365966797e+00 2.347877025604248047e+00 -6.129537224769592285e-01
2.587000000000000000e+03 5.984318923950195312e+01 -1.257442760467529297e+01 -1.132129788398742676e+00 5.661426067352294922e+00 1.358788847923278809e+00 1.485599040985107422e+00
2.588000000000000000e+03 5.257000350952148438e+01 4.706120967864990234e+00 -6.552748680114746094e-01 4.230856418609619141e+00 1.072674393653869629e+00 3.338961124420166016e+00
2.589000000000000000e+03 5.114841461181640625e+01 -7.337271213531494141e+00 1.908198952674865723e+00 7.946149349212646484e+00 2.956304550170898438e+00 4.494562745094299316e-03
2.590000000000000000e+03 1.191940212249755859e+01 -1.013047313690185547e+01 1.149338126182556152e+00 7.280109524726867676e-01 5.632047057151794434e-01 1.962582945823669434e+00
2.591000000000000000e+03 7.039454650878906250e+01 2.145939254760742188e+01 -1.145227074623107910e+00 4.352663993835449219e+00 9.622310996055603027e-01 -1.412294507026672363e+00
2.592000000000000000e+03 7.135336303710937500e+01 2.238784790039062500e+01 -8.507635593414306641e-01 5.207202911376953125e+00 1.306931853294372559e+00 -1.350866556167602539e+00
2.593000000000000000e+03 1.901258087158203125e+01 -2.097941780090332031e+01 1.911930918693542480e+00 2.424505710601806641e+00 1.300930976867675781e+00 -8.206908702850341797e-01
2.594000000000000000e+03 9.133453369140625000e+00 -2.988557243347167969e+01 1.193612098693847656e+00 1.724214434623718262e+00 8.753479719161987305e-01 5.124030113220214844e-01
2.595000000000000000e+03 5.941530609130859375e+01 1.370825767517089844e+01 1.348671555519104004e+00 9.306898117065429688e+00 3.196670770645141602e+00 7.843742370605468750e-01
2.596000000000000000e+03 5.446202850341796875e+01 5.256932735443115234e+00 -6.139870285987854004e-01 5.844762802124023438e+00 1.569232821464538574e+00 1.465042710304260254e+00
2.597000000000000000e+03 5.432637786865234375e+01 2.978842258453369141e+00 -1.066629648208618164e+00 4.277711391448974609e+00 9.633244276046752930e-01 2.032994747161865234e+00
2.598000000000000000e+03 1.880185127258300781e+01 2.406042098999023438e+01 -5.266509652137756348e-01 3.098037004470825195e+00 7.714157700538635254e-01 2.515713274478912354e-01
2.599000000000000000e+03 2.763762474060058594e+01 -3.509262084960937500e+01 6.748643517494201660e-01 4.866540908813476562e+00 1.662421584129333496e+00 -7.072501182556152344e-01
2.600000000000000000e+03 2.975426864624023438e+01 -3.577848434448242188e+01 3.277807533740997314e-01 3.930899620056152344e+00 1.277604103088378906e+00 -6.726287007331848145e-01
2.601000000000000000e+03 5.728397750854492188e+01 -1.586867427825927734e+01 -3.004350662231445312e-01 5.999818801879882812e+00 1.709815025329589844e+00 -5.349646210670471191e-01
2.602000000000000000e+03 5.754194259643554688e+01 -1.202777099609375000e+01 4.260941967368125916e-02 2.428860425949096680e+00 7.414410114288330078e-01 -6.059193015098571777e-01
2.603000000000000000e+03 5.273835372924804688e+01 -2.737370872497558594e+01 -3.082965016365051270e-01 3.864271879196166992e+00 1.066792607307434082e+00 1.410354495048522949e+00
2.604000000000000000e+03 4.865256118774414062e+01 2.548552703857421875e+01 2.588484525680541992e+00 6.488656997680664062e+00 2.723142385482788086e+00 1.024865865707397461e+00
2.605000000000000000e+03 2.710578918457031250e+01 -1.536648368835449219e+01 -2.189638853073120117e+00 4.272531986236572266e+00 6.248679161071777344e-01 1.209655761718750000e+00
2.606000000000000000e+03 5.018371963500976562e+01 1.242163181304931641e+00 -1.311229914426803589e-01 3.947532892227172852e+00 1.144922971725463867e+00 -2.522016167640686035e-01
2.607000000000000000e+03 5.001793670654296875e+01 3.937894582748413086e+00 -1.585143804550170898e-01 1.381313920021057129e+00 3.668398857116699219e-01 3.764663040637969971e-01
2.608000000000000000e+03 6.414860534667968750e+01 -9.987139701843261719e+00 1.271882951259613037e-01 7.813621520996093750e+00 2.382242918014526367e+00 -6.205945089459419250e-02
2.609000000000000000e+03 4.540267944335937500e+01 -2.938463687896728516e+00 -3.293707966804504395e-02 3.470008611679077148e+00 1.031121373176574707e+00 -2.266966342926025391e+00
2.610000000000000000e+03 4.126610565185546875e+01 1.065184950828552246e+00 4.704644680023193359e-01 5.132219314575195312e+00 1.680805087089538574e+00 -1.318596303462982178e-01
2.611000000000000000e+03 5.848960113525390625e+01 8.485059738159179688e+00 8.263368010520935059e-01 6.717203617095947266e+00 2.263062000274658203e+00 -1.184447929263114929e-01
2.612000000000000000e+03 5.359527587890625000e+00 -9.980156898498535156e+00 -1.201736703515052795e-01 1.418342471122741699e+00 3.894506394863128662e-01 8.607966303825378418e-01
2.613000000000000000e+03 5.771819305419921875e+01 -2.566795539855957031e+01 -1.353958487510681152e+00 6.488549709320068359e+00 1.540377378463745117e+00 1.904949545860290527e+00
2.614000000000000000e+03 4.834199142456054688e+01 -2.817445564270019531e+01 -1.831090301275253296e-01 5.651433944702148438e+00 1.640497446060180664e+00 -3.314516067504882812e+00
2.615000000000000000e+03 7.180856323242187500e+01 6.932381629943847656e+00 -3.428212404251098633e-01 6.125445365905761719e+00 1.734787225723266602e+00 7.781144380569458008e-01
2.616000000000000000e+03 6.846958160400390625e+01 2.984587430953979492e+00 3.141925632953643799e-01 2.082964420318603516e+00 7.191470861434936523e-01 1.924677848815917969e+00
2.617000000000000000e+03 1.432656002044677734e+01 -7.763041496276855469e+00 2.957051515579223633e+00 5.858717441558837891e+00 2.644730567932128906e+00 4.391788244247436523e-01
2.618000000000000000e+03 5.440895080566406250e+01 1.775140380859375000e+01 3.451798260211944580e-01 4.820272445678710938e+00 1.549635648727416992e+00 -1.855616569519042969e+00
2.619000000000000000e+03 6.119299697875976562e+01 -1.168686771392822266e+01 -9.539239406585693359e-01 6.311341762542724609e+00 1.607225298881530762e+00 1.556498885154724121e+00
2.620000000000000000e+03 6.321163940429687500e+01 -1.117239093780517578e+01 -1.171959996223449707e+00 7.353427410125732422e+00 1.854440212249755859e+00 7.079747915267944336e-01
2.621000000000000000e+03 7.119755554199218750e+01 2.048291587829589844e+01 -1.535828232765197754e+00 5.498811721801757812e+00 1.188894987106323242e+00 -1.441858887672424316e+00
2.622000000000000000e+03 7.473786163330078125e+01 2.300077438354492188e+01 -4.112353324890136719e-01 6.567584991455078125e+00 1.846904873847961426e+00 -4.544661343097686768e-01
2.623000000000000000e+03 1.401813983917236328e+01 -2.557874679565429688e+01 -1.427265167236328125e+00 3.541470527648925781e+00 6.342616081237792969e-01 2.049240350723266602e+00
2.624000000000000000e+03 1.412589359283447266e+01 -2.685920715332031250e+01 -4.355987012386322021e-01 3.799415588378906250e+00 1.009145021438598633e+00 1.812774896621704102e+00
2.625000000000000000e+03 4.008472061157226562e+01 9.348041415214538574e-01 4.703068137168884277e-01 4.827961921691894531e+00 1.589480638504028320e+00 9.158483743667602539e-01
2.626000000000000000e+03 5.271321105957031250e+01 -1.098193836212158203e+01 8.286727070808410645e-01 4.579378128051757812e+00 1.622415304183959961e+00 -2.110100507736206055e+00
2.627000000000000000e+03 5.368931961059570312e+01 -2.792659378051757812e+01 -4.709641039371490479e-01 4.993300914764404297e+00 1.356701016426086426e+00 1.747742414474487305e+00
2.628000000000000000e+03 6.185909652709960938e+01 4.632836818695068359e+00 -1.160217523574829102e+00 4.667623519897460938e+00 1.052221775054931641e+00 -2.089341402053833008e+00
2.629000000000000000e+03 5.655168533325195312e+01 -2.567057228088378906e+01 -1.939961075782775879e+00 7.651566982269287109e+00 1.713481783866882324e+00 1.835458636283874512e+00
2.630000000000000000e+03 2.720350265502929688e+01 3.119141578674316406e+01 7.326101660728454590e-01 1.410021066665649414e+00 6.427893638610839844e-01 -5.619530677795410156e-01
2.631000000000000000e+03 2.560857963562011719e+01 3.250462722778320312e+01 6.711253523826599121e-01 2.325492858886718750e+00 8.989854454994201660e-01 4.624293446540832520e-01
2.632000000000000000e+03 4.948045730590820312e+01 3.095001029968261719e+01 9.821654558181762695e-01 6.779707908630371094e+00 2.328562021255493164e+00 7.452234029769897461e-01
2.633000000000000000e+03 5.076011276245117188e+01 -1.369309234619140625e+01 -7.577368617057800293e-01 3.401422500610351562e+00 7.931056618690490723e-01 -7.137089371681213379e-01
2.634000000000000000e+03 4.988562393188476562e+01 -1.202008724212646484e+01 5.427975058555603027e-01 5.593860626220703125e+00 1.840997457504272461e+00 -6.573840379714965820e-01
2.635000000000000000e+03 8.702137947082519531e+00 7.624906539916992188e+00 1.020035862922668457e+00 3.106234312057495117e+00 1.237881064414978027e+00 -5.939533710479736328e-01
2.636000000000000000e+03 4.589129638671875000e+01 3.520375823974609375e+01 -1.352232813835144043e+00 4.480062007904052734e+00 9.383487701416015625e-01 -9.154963493347167969e-01
2.637000000000000000e+03 4.500233840942382812e+01 3.717436218261718750e+01 -1.174598932266235352e+00 3.521653652191162109e+00 7.041164040565490723e-01 -8.656982183456420898e-01
2.638000000000000000e+03 1.802050209045410156e+01 -2.343138504028320312e+01 -2.878190763294696808e-02 2.393481492996215820e+00 7.094098925590515137e-01 4.973112046718597412e-01
2.639000000000000000e+03 6.590416717529296875e+01 -1.321114540100097656e+01 -1.024608135223388672e+00 4.377635955810546875e+00 1.005908250808715820e+00 -8.928341418504714966e-02
2.640000000000000000e+03 6.762110137939453125e+01 -1.461831378936767578e+01 -7.151973843574523926e-01 9.775789976119995117e-01 7.871448993682861328e-02 -6.332393884658813477e-01
2.641000000000000000e+03 2.744257354736328125e+01 5.533496856689453125e+00 1.740431547164916992e+00 5.919671535491943359e+00 2.298030853271484375e+00 -2.179278284311294556e-01
2.642000000000000000e+03 2.681043052673339844e+01 4.500268459320068359e+00 1.656405925750732422e+00 5.099741935729980469e+00 2.026844263076782227e+00 -4.215570688247680664e-01
2.643000000000000000e+03 7.544361877441406250e+01 3.849541854858398438e+01 -1.519009023904800415e-01 6.684937953948974609e+00 1.959911108016967773e+00 1.965140849351882935e-01
2.644000000000000000e+03 3.068160247802734375e+01 -3.004699707031250000e+01 -8.312823176383972168e-01 3.284987688064575195e+00 7.361116409301757812e-01 -1.047872900962829590e+00
2.645000000000000000e+03 3.442020034790039062e+01 -1.296987915039062500e+01 -1.226355314254760742e+00 1.465777873992919922e+00 7.182677090167999268e-02 -5.126588344573974609e-01
2.646000000000000000e+03 5.720160293579101562e+01 7.375215530395507812e+00 8.055630922317504883e-01 6.966099739074707031e+00 2.331498861312866211e+00 5.119442008435726166e-03
2.647000000000000000e+03 4.176264953613281250e+01 -2.377473449707031250e+01 2.370336055755615234e+00 5.819616794586181641e+00 2.456985950469970703e+00 1.473216176033020020e+00
2.648000000000000000e+03 4.637863159179687500e+01 4.018939971923828125e+00 3.190116584300994873e-01 3.289800167083740234e+00 1.082643508911132812e+00 -1.854330658912658691e+00
2.649000000000000000e+03 2.341931724548339844e+01 3.497047042846679688e+01 -3.294462263584136963e-01 3.969568014144897461e+00 1.092036485671997070e+00 6.690551638603210449e-01
2.650000000000000000e+03 5.063224411010742188e+01 3.105645942687988281e+01 1.228563785552978516e+00 6.888817310333251953e+00 2.435214281082153320e+00 1.076104521751403809e+00
2.651000000000000000e+03 6.889520263671875000e+01 -1.418218708038330078e+01 -4.072432816028594971e-01 4.392507970333099365e-01 9.602255187928676605e-03 -1.562273263931274414e+00
2.652000000000000000e+03 7.208263397216796875e+01 2.147354888916015625e+01 -1.190066933631896973e+00 5.969740867614746094e+00 1.433902144432067871e+00 -9.780542254447937012e-01
2.653000000000000000e+03 5.528802871704101562e+01 1.669513320922851562e+01 8.208545446395874023e-01 5.438473701477050781e+00 1.877798438072204590e+00 -1.206629753112792969e+00
2.654000000000000000e+03 5.681943893432617188e+01 1.656284713745117188e+01 1.308025002479553223e+00 5.981883525848388672e+00 2.186972618103027344e+00 -3.180483877658843994e-01
2.655000000000000000e+03 3.394591140747070312e+01 1.523176002502441406e+01 1.038619995117187500e+00 3.772514581680297852e+00 1.443340301513671875e+00 9.511917084455490112e-02
2.656000000000000000e+03 3.298880004882812500e+01 -6.646461009979248047e+00 2.848376750946044922e+00 5.471124172210693359e+00 2.495850086212158203e+00 -7.314381003379821777e-01
2.657000000000000000e+03 4.652371978759765625e+01 -2.276062965393066406e+00 3.519997894763946533e-01 4.238585472106933594e+00 1.377175569534301758e+00 -2.339511871337890625e+00
2.658000000000000000e+03 2.423468017578125000e+01 -2.605394363403320312e+01 -1.238540530204772949e+00 4.421237945556640625e+00 9.548092484474182129e-01 -4.705076813697814941e-01
2.659000000000000000e+03 2.519501113891601562e+01 -2.701450920104980469e+01 -1.441871285438537598e+00 5.395573139190673828e+00 1.186110496520996094e+00 1.637589931488037109e-01
2.660000000000000000e+03 4.815855407714843750e+01 -3.800640344619750977e+00 7.181573510169982910e-01 6.010833263397216797e+00 2.018697261810302734e+00 -1.480760931968688965e+00
2.661000000000000000e+03 5.019469070434570312e+01 -3.807064294815063477e+00 1.371305346488952637e+00 7.267551422119140625e+00 2.591657161712646484e+00 -5.315899252891540527e-01
2.662000000000000000e+03 6.182780456542968750e+01 4.126253128051757812e+01 -1.687158048152923584e-01 2.408267021179199219e+00 6.718654036521911621e-01 -3.182767331600189209e-01
2.663000000000000000e+03 1.240528869628906250e+01 -8.776855468750000000e+00 2.207577705383300781e+00 1.781744241714477539e+00 1.196796536445617676e+00 1.509948968887329102e+00
2.664000000000000000e+03 3.821705627441406250e+01 1.889279365539550781e+01 1.755066752433776855e+00 2.126673698425292969e+00 1.164522051811218262e+00 -1.725020170211791992e+00
2.665000000000000000e+03 3.676931762695312500e+01 2.000502967834472656e+01 1.118389487266540527e+00 3.238492488861083984e+00 1.307064533233642578e+00 -1.606899619102478027e+00
2.666000000000000000e+03 6.747674560546875000e+01 2.816733360290527344e+01 1.729631900787353516e+00 4.820781707763671875e+00 1.965124130249023438e+00 8.140105009078979492e-01
2.667000000000000000e+03 7.344683074951171875e+01 3.190830612182617188e+01 3.584460318088531494e-01 5.896927833557128906e+00 1.876612186431884766e+00 2.480532675981521606e-01
2.668000000000000000e+03 6.826152038574218750e+01 -3.032391166687011719e+01 2.451708793640136719e+00 5.412342071533203125e+00 2.359215259552001953e+00 -1.654360294342041016e+00
2.669000000000000000e+03 6.456931304931640625e+01 -1.209679698944091797e+01 -1.311316370964050293e+00 6.571600437164306641e+00 1.578085184097290039e+00 1.745154708623886108e-01
2.670000000000000000e+03 5.632271766662597656e+00 -1.257134151458740234e+01 -4.154203459620475769e-02 2.859859466552734375e+00 8.454952239990234375e-01 8.913329243659973145e-01
2.671000000000000000e+03 5.167475700378417969e+00 -1.150409126281738281e+01 -2.259518802165985107e-01 2.129621028900146484e+00 5.711007714271545410e-01 7.032094001770019531e-01
2.672000000000000000e+03 1.345527076721191406e+01 -6.779357433319091797e+00 2.779919147491455078e+00 4.260687828063964844e+00 2.112182140350341797e+00 7.301907539367675781e-01
2.673000000000000000e+03 1.450510311126708984e+01 -6.896962165832519531e+00 2.866047859191894531e+00 6.166837692260742188e+00 2.709865570068359375e+00 3.647583127021789551e-01
2.674000000000000000e+03 4.168222427368164062e+01 -1.868664360046386719e+01 1.975153446197509766e+00 4.461734771728515625e+00 1.931066393852233887e+00 -7.741734385490417480e-01
2.675000000000000000e+03 2.649800109863281250e+01 -1.772335052490234375e+01 6.625685691833496094e-01 4.204133033752441406e+00 1.460010409355163574e+00 4.298318922519683838e-01
2.676000000000000000e+03 5.978116035461425781e+00 2.193148803710937500e+01 -4.789015352725982666e-01 2.641446828842163086e+00 6.487635970115661621e-01 -7.087500095367431641e-01
2.677000000000000000e+03 2.160546493530273438e+01 3.679635238647460938e+01 -9.813556075096130371e-01 4.057404518127441406e+00 9.228146672248840332e-01 3.746519982814788818e-02
2.678000000000000000e+03 1.827521705627441406e+01 4.087443161010742188e+01 -7.351346611976623535e-01 2.506876468658447266e+00 5.315225124359130859e-01 -2.376610934734344482e-01
2.679000000000000000e+03 4.358670043945312500e+01 4.700400829315185547e+00 1.110344409942626953e+00 5.336174011230468750e+00 1.933955550193786621e+00 -1.092232227325439453e+00
2.680000000000000000e+03 7.105553627014160156e+00 -3.038200950622558594e+01 9.034084677696228027e-01 1.566993594169616699e+00 7.411206364631652832e-01 1.556903272867202759e-01
2.681000000000000000e+03 6.149378967285156250e+01 -1.954291534423828125e+01 2.182182788848876953e+00 5.696766376495361328e+00 2.363684654235839844e+00 -9.540541768074035645e-01
2.682000000000000000e+03 3.852114486694335938e+01 1.435662460327148438e+01 1.159511566162109375e+00 3.353888511657714844e+00 1.354019999504089355e+00 -1.907629609107971191e+00
2.683000000000000000e+03 2.510895538330078125e+01 -1.859337997436523438e+01 1.715556740760803223e+00 2.641885042190551758e+00 1.307232499122619629e+00 -2.288684844970703125e-01
2.684000000000000000e+03 4.423413467407226562e+01 5.849715232849121094e+00 4.075147211551666260e-01 5.494917869567871094e+00 1.770729780197143555e+00 -8.074813485145568848e-01
2.685000000000000000e+03 6.723313140869140625e+01 -3.157936668395996094e+01 2.495370149612426758e+00 7.529445648193359375e+00 3.007444858551025391e+00 -2.601162195205688477e+00
2.686000000000000000e+03 6.841968536376953125e+01 -3.134359741210937500e+01 2.396708250045776367e+00 5.550137996673583984e+00 2.384053945541381836e+00 -1.499183535575866699e+00
2.687000000000000000e+03 5.307093811035156250e+01 2.392051124572753906e+01 8.867105096578598022e-02 5.296560764312744141e+00 1.615569472312927246e+00 -1.325287461280822754e+00
2.688000000000000000e+03 5.524201965332031250e+01 2.145078849792480469e+01 -9.762960076332092285e-01 4.001339912414550781e+00 9.075132012367248535e-01 -2.588419198989868164e+00
2.689000000000000000e+03 4.874744415283203125e+01 2.857113075256347656e+01 1.760018467903137207e+00 7.372736454010009766e+00 2.739826440811157227e+00 1.300547599792480469e+00
2.690000000000000000e+03 4.876791763305664062e+01 2.749509048461914062e+01 2.188753366470336914e+00 7.015551567077636719e+00 2.761291503906250000e+00 1.420802593231201172e+00
2.691000000000000000e+03 2.615280342102050781e+01 -2.629031562805175781e+01 -1.273950219154357910e+00 5.954080104827880859e+00 1.404039025306701660e+00 5.035040155053138733e-02
2.692000000000000000e+03 4.740248870849609375e+01 2.252216720581054688e+01 1.038292884826660156e+00 6.087807655334472656e+00 2.137830018997192383e+00 1.607085108757019043e+00
2.693000000000000000e+03 1.254363346099853516e+01 -2.475848197937011719e+01 -1.569785356521606445e+00 2.294047117233276367e+00 2.172785252332687378e-01 1.976756811141967773e+00
2.694000000000000000e+03 4.109103393554687500e+01 1.565643215179443359e+01 1.920932650566101074e+00 4.854294776916503906e+00 2.032568216323852539e+00 -6.318612098693847656e-01
2.695000000000000000e+03 5.725460433959960938e+01 1.132623004913330078e+01 1.575171232223510742e+00 8.493160247802734375e+00 3.020499467849731445e+00 7.975074648857116699e-01
2.696000000000000000e+03 1.383220291137695312e+01 -2.436656570434570312e+01 -1.847647190093994141e+00 3.414911270141601562e+00 4.701792597770690918e-01 2.142758607864379883e+00
2.697000000000000000e+03 1.176543807983398438e+01 -3.017199516296386719e+01 1.525324702262878418e+00 3.345668792724609375e+00 1.461298108100891113e+00 1.315382957458496094e+00
2.698000000000000000e+03 5.686908721923828125e+00 -3.163952827453613281e+01 7.074320316314697266e-01 1.878126502037048340e+00 7.756675481796264648e-01 1.287684440612792969e-01
2.699000000000000000e+03 2.638322257995605469e+01 -2.153014373779296875e+01 2.286613702774047852e+00 5.508779048919677734e+00 2.338617801666259766e+00 8.527531474828720093e-02
2.700000000000000000e+03 2.494426155090332031e+01 1.234158229827880859e+01 1.555182099342346191e+00 2.848930835723876953e+00 1.321233868598937988e+00 -1.428835868835449219e+00
2.701000000000000000e+03 3.702611541748046875e+01 -1.784804582595825195e+00 -1.592562198638916016e-01 3.662926912307739258e+00 1.051101207733154297e+00 2.669723033905029297e+00
2.702000000000000000e+03 5.501914978027343750e+01 -1.479439449310302734e+01 -9.986363053321838379e-01 4.996733188629150391e+00 1.199429035186767578e+00 -2.178387403488159180e+00
2.703000000000000000e+03 5.603262710571289062e+01 -1.524520111083984375e+01 -5.009949803352355957e-01 5.498132705688476562e+00 1.499141335487365723e+00 -1.641626119613647461e+00
2.704000000000000000e+03 5.079951286315917969e+00 1.517526054382324219e+01 2.603136934340000153e-02 1.591824650764465332e+00 4.853568077087402344e-01 -1.089441776275634766e+00
2.705000000000000000e+03 4.088552093505859375e+01 1.290372753143310547e+01 9.021067023277282715e-01 6.209735870361328125e+00 2.133552789688110352e+00 -2.095019221305847168e-01
2.706000000000000000e+03 2.854014396667480469e+01 -1.465770339965820312e+01 -3.090540409088134766e+00 6.347911357879638672e+00 9.772112965583801270e-01 1.665452957153320312e+00
2.707000000000000000e+03 5.822248077392578125e+01 -2.046157646179199219e+01 2.514329195022583008e+00 6.191227912902832031e+00 2.611667156219482422e+00 2.664407193660736084e-01
2.708000000000000000e+03 5.951379776000976562e+01 -2.093008995056152344e+01 2.850495100021362305e+00 4.900156497955322266e+00 2.325195550918579102e+00 -6.721290946006774902e-02
2.709000000000000000e+03 4.420461654663085938e+01 -2.447177505493164062e+01 1.692285418510437012e+00 2.958197593688964844e+00 1.395144939422607422e+00 -8.085142374038696289e-01
2.710000000000000000e+03 2.812991523742675781e+01 1.201160812377929688e+01 1.506646275520324707e+00 3.509251117706298828e+00 1.504769206047058105e+00 1.644708752632141113e+00
2.711000000000000000e+03 3.970079040527343750e+01 1.301669406890869141e+01 6.550637483596801758e-01 5.065460205078125000e+00 1.716157197952270508e+00 -1.006309986114501953e+00
2.712000000000000000e+03 5.705992126464843750e+01 1.495334339141845703e+01 1.724539875984191895e+00 7.142185688018798828e+00 2.660017728805541992e+00 2.642013728618621826e-01
2.713000000000000000e+03 4.274308395385742188e+01 3.805300521850585938e+01 -8.752538561820983887e-01 2.303369998931884766e+00 4.284348487854003906e-01 -8.120134472846984863e-01
2.714000000000000000e+03 5.351855850219726562e+01 -2.916304016113281250e+01 1.499179124832153320e+00 5.925243377685546875e+00 2.227326631546020508e+00 9.472982883453369141e-01
2.715000000000000000e+03 5.013153457641601562e+01 -2.677998065948486328e+00 7.506023645401000977e-01 6.790693283081054688e+00 2.262388706207275391e+00 -7.215252518653869629e-01
2.716000000000000000e+03 5.008106613159179688e+01 -1.049686527252197266e+01 2.090863943099975586e+00 6.677897930145263672e+00 2.630628585815429688e+00 -2.777865231037139893e-01
2.717000000000000000e+03 1.679440498352050781e+01 -2.483484458923339844e+01 -1.461834907531738281e+00 2.776235580444335938e+00 3.943201899528503418e-01 1.852288246154785156e+00
2.718000000000000000e+03 1.665174102783203125e+01 -2.355827140808105469e+01 -7.916262745857238770e-01 3.430877447128295898e+00 7.917753458023071289e-01 1.438042402267456055e+00
2.719000000000000000e+03 3.489004898071289062e+01 2.483436393737792969e+01 2.539099454879760742e-01 8.783152580261230469e+00 2.711118698120117188e+00 -4.852070510387420654e-01
2.720000000000000000e+03 5.243262481689453125e+01 -2.870166015625000000e+01 1.376992583274841309e+00 4.949900627136230469e+00 1.898067951202392578e+00 1.620840281248092651e-01
2.721000000000000000e+03 5.173413467407226562e+01 -3.694349670410156250e+01 -1.000804781913757324e+00 6.830315113067626953e+00 1.748853087425231934e+00 4.700100421905517578e-01
2.722000000000000000e+03 7.471209716796875000e+01 2.041028976440429688e+01 -9.176089167594909668e-01 7.256501674652099609e+00 1.901667833328247070e+00 2.036950178444385529e-02
2.723000000000000000e+03 3.318778228759765625e+01 -3.118410348892211914e+00 1.881026506423950195e+00 4.375078201293945312e+00 1.876831412315368652e+00 -2.667849361896514893e-01
2.724000000000000000e+03 3.213992309570312500e+01 -4.337491989135742188e+00 2.359252214431762695e+00 5.877148628234863281e+00 2.470920324325561523e+00 -1.037006139755249023e+00
2.725000000000000000e+03 4.087936782836914062e+01 1.875222396850585938e+01 1.579182028770446777e+00 2.588839530944824219e+00 1.250406503677368164e+00 -2.241711020469665527e-01
2.726000000000000000e+03 4.911917114257812500e+01 -3.883890151977539062e+00 8.931313157081604004e-01 6.522655487060546875e+00 2.224735975265502930e+00 -8.841224312782287598e-01
2.727000000000000000e+03 1.952606964111328125e+01 -2.424264526367187500e+01 1.889747530221939087e-01 6.617119312286376953e-01 2.552059888839721680e-01 -9.738944470882415771e-02
2.728000000000000000e+03 4.927930450439453125e+01 -5.544634461402893066e-01 3.182705640792846680e-01 4.878583908081054688e+00 1.559056401252746582e+00 -1.244745016098022461e+00
2.729000000000000000e+03 2.758034896850585938e+01 -3.397594451904296875e+01 7.309139370918273926e-01 5.023427486419677734e+00 1.726302385330200195e+00 -6.314049959182739258e-01
2.730000000000000000e+03 4.881555175781250000e+01 3.292795562744140625e+01 -5.222424492239952087e-02 6.112069606781005859e+00 1.817953586578369141e+00 4.102294147014617920e-02
2.731000000000000000e+03 1.871280479431152344e+01 -1.805026817321777344e+01 1.651234626770019531e+00 3.611172199249267578e+00 1.578722000122070312e+00 -6.918956637382507324e-01
2.732000000000000000e+03 6.434648895263671875e+01 -1.104859447479248047e+01 -7.474952936172485352e-01 7.412590026855468750e+00 1.999528408050537109e+00 1.582055389881134033e-01
2.733000000000000000e+03 6.214210128784179688e+01 -1.138674354553222656e+01 -1.308613300323486328e+00 7.390942096710205078e+00 1.824698567390441895e+00 1.358566164970397949e+00
2.734000000000000000e+03 4.492294692993164062e+01 -1.642956161499023438e+01 -7.663292288780212402e-01 4.579128265380859375e+00 1.143839716911315918e+00 1.466609597206115723e+00
2.735000000000000000e+03 1.503026580810546875e+01 3.995790100097656250e+01 -3.017807602882385254e-01 1.196819543838500977e+00 2.685116231441497803e-01 -3.880949020385742188e-01
2.736000000000000000e+03 1.604439353942871094e+01 3.778493118286132812e+01 -6.479663848876953125e-01 1.733208537101745605e+00 3.255726397037506104e-01 -6.348830461502075195e-01
2.737000000000000000e+03 5.977208328247070312e+01 1.855678176879882812e+01 1.361013174057006836e+00 6.810923099517822266e+00 2.451581001281738281e+00 1.387700080871582031e+00
2.738000000000000000e+03 5.975364685058593750e+01 1.977042007446289062e+01 6.557343602180480957e-01 5.342585086822509766e+00 1.799495816230773926e+00 1.133071780204772949e+00
2.739000000000000000e+03 3.763862609863281250e+01 1.594051074981689453e+01 1.950027942657470703e+00 2.672209501266479492e+00 1.386671304702758789e+00 -2.056728839874267578e+00
2.740000000000000000e+03 6.781808853149414062e+00 1.770438385009765625e+01 -6.013559699058532715e-01 2.328217983245849609e+00 5.180585980415344238e-01 -1.013240456581115723e+00
2.741000000000000000e+03 8.428588867187500000e+00 1.743183326721191406e+01 -5.882424116134643555e-01 2.543898105621337891e+00 5.866967439651489258e-01 -7.044001817703247070e-01
2.742000000000000000e+03 3.511464691162109375e+01 -6.137252807617187500e+00 2.354374885559082031e+00 5.686569213867187500e+00 2.412283182144165039e+00 -2.514162361621856689e-01
2.743000000000000000e+03 3.247728729248046875e+01 -9.387818336486816406e+00 2.815636634826660156e+00 5.246828556060791016e+00 2.418739557266235352e+00 2.616347968578338623e-01
2.744000000000000000e+03 1.827698326110839844e+01 -1.534735298156738281e+01 -1.274928212165832520e+00 5.439850330352783203e+00 1.249476671218872070e+00 -5.426759719848632812e-01
2.745000000000000000e+03 1.019624042510986328e+01 -2.724053955078125000e+01 2.308363765478134155e-01 1.211519241333007812e+00 4.327066838741302490e-01 8.112221360206604004e-01
2.746000000000000000e+03 9.364686012268066406e+00 -3.203021240234375000e+01 1.285125374794006348e+00 2.239196300506591797e+00 1.057296514511108398e+00 8.794545531272888184e-01
2.747000000000000000e+03 5.862546920776367188e+01 1.565856647491455078e+01 1.925665020942687988e+00 7.849909305572509766e+00 2.932672262191772461e+00 9.688336849212646484e-01
2.748000000000000000e+03 3.644829940795898438e+01 -3.510911703109741211e+00 9.319462180137634277e-01 4.270862102508544922e+00 1.560842514038085938e+00 1.465103864669799805e+00
2.749000000000000000e+03 1.445266342163085938e+01 2.872793197631835938e+00 4.050425052642822266e+00 2.418167114257812500e+00 1.940577626228332520e+00 -4.016349315643310547e+00
2.750000000000000000e+03 1.527550697326660156e+01 -1.351559400558471680e+00 -6.474621295928955078e-01 9.153965950012207031e+00 2.551951169967651367e+00 3.385502099990844727e+00
2.751000000000000000e+03 1.430544185638427734e+01 -1.100201129913330078e+00 4.516493380069732666e-01 4.614423751831054688e+00 1.519821882247924805e+00 2.920972585678100586e+00
2.752000000000000000e+03 1.503987026214599609e+01 3.358141899108886719e+00 2.621706962585449219e+00 4.830793380737304688e+00 2.235750198364257812e+00 -4.057707309722900391e+00
2.753000000000000000e+03 1.551171112060546875e+01 -8.713839650154113770e-01 -7.734310626983642578e-01 1.027675628662109375e+01 2.850997686386108398e+00 4.004525184631347656e+00
2.754000000000000000e+03 1.340342712402343750e+01 3.593702554702758789e+00 2.264985084533691406e+00 1.009258866310119629e+00 9.822732210159301758e-01 -3.533151388168334961e+00
2.755000000000000000e+03 1.272730731964111328e+01 -2.537084102630615234e+00 1.124835848808288574e+00 2.472667455673217773e+00 1.079251050949096680e+00 1.078780412673950195e+00
2.756000000000000000e+03 1.316395473480224609e+01 -2.359638690948486328e+00 1.143445372581481934e+00 3.210293769836425781e+00 1.306121706962585449e+00 1.429462552070617676e+00
2.757000000000000000e+03 1.538904094696044922e+01 4.534614562988281250e+00 3.748382925987243652e-01 4.069505691528320312e+00 1.333303213119506836e+00 -2.212043523788452148e+00
2.758000000000000000e+03 1.410124206542968750e+01 -2.863776206970214844e+00 8.537029623985290527e-01 5.641087532043457031e+00 1.948437213897705078e+00 1.825485587120056152e+00
2.759000000000000000e+03 4.810609817504882812e+00 -5.392040252685546875e+00 3.578984439373016357e-01 6.443814933300018311e-02 1.267009824514389038e-01 2.070103026926517487e-02
2.760000000000000000e+03 9.792503356933593750e+00 4.056177139282226562e+00 1.920356303453445435e-01 1.206197023391723633e+00 4.194698035717010498e-01 -1.102956533432006836e+00
2.761000000000000000e+03 9.552168846130371094e+00 -1.071817207336425781e+01 1.895740777254104614e-01 6.991064548492431641e-01 2.666041553020477295e-01 2.825510978698730469e+00
2.762000000000000000e+03 6.960571765899658203e+00 -4.563045501708984375e+00 7.158069610595703125e-01 3.056276403367519379e-02 2.239109128713607788e-01 1.131018549203872681e-01
2.763000000000000000e+03 8.127716064453125000e+00 -5.156661987304687500e+00 1.222661018371582031e+00 1.253662556409835815e-01 4.044081866741180420e-01 4.111006259918212891e-01
2.764000000000000000e+03 5.046580791473388672e+00 -4.439495563507080078e+00 2.709449529647827148e-01 -2.758186869323253632e-02 7.300892472267150879e-02 -8.520402759313583374e-02
2.765000000000000000e+03 6.624736785888671875e+00 -6.164859771728515625e+00 7.317112684249877930e-01 3.119627535343170166e-01 3.131021857261657715e-01 5.224695205688476562e-01
2.766000000000000000e+03 2.068232727050781250e+01 1.581065177917480469e+00 2.932442903518676758e+00 6.835205554962158203e-01 1.084789037704467773e+00 2.342580556869506836e+00
2.767000000000000000e+03 2.038651847839355469e+01 4.098768711090087891e+00 1.956385254859924316e+00 3.387362957000732422e+00 1.603124499320983887e+00 3.812119245529174805e+00
2.768000000000000000e+03 4.274842262268066406e+00 4.316692352294921875e+00 -3.264123201370239258e-02 6.130819767713546753e-02 8.600089699029922485e-03 6.765959858894348145e-01
2.769000000000000000e+03 6.439051151275634766e+00 4.212884902954101562e+00 -4.520830139517784119e-02 6.964716911315917969e-01 1.953790187835693359e-01 3.681624829769134521e-01
2.770000000000000000e+03 3.715756177902221680e+00 5.437218189239501953e+00 1.221876367926597595e-01 -6.493818759918212891e-02 1.717483438551425934e-02 6.578156352043151855e-01
2.771000000000000000e+03 5.630545616149902344e+00 5.995654582977294922e+00 3.836157023906707764e-01 7.598661184310913086e-01 3.430445492267608643e-01 4.487075805664062500e-01
2.772000000000000000e+03 7.087162971496582031e+00 4.231451988220214844e+00 -2.185854129493236542e-02 8.987519145011901855e-01 2.630680203437805176e-01 1.652909517288208008e-01
2.773000000000000000e+03 3.129837989807128906e+00 5.816077709197998047e+00 1.579338461160659790e-01 -3.095065653324127197e-01 -4.547181725502014160e-02 6.389540433883666992e-01
2.774000000000000000e+03 9.025401115417480469e+00 4.908611297607421875e+00 2.191738635301589966e-01 1.646223425865173340e+00 5.596191883087158203e-01 -7.948648929595947266e-01
2.775000000000000000e+03 7.891245365142822266e+00 6.374637603759765625e+00 5.911618471145629883e-01 1.979440093040466309e+00 7.711805701255798340e-01 -1.770429164171218872e-01
2.776000000000000000e+03 1.523401927947998047e+01 -3.734707593917846680e+00 9.379638433456420898e-01 8.430554389953613281e+00 2.810555458068847656e+00 1.538236141204833984e+00
2.777000000000000000e+03 1.313543415069580078e+01 4.421323299407958984e+00 1.218922495841979980e+00 1.342163562774658203e+00 7.683258056640625000e-01 -3.846970319747924805e+00
2.778000000000000000e+03 1.290287208557128906e+01 3.879345417022705078e+00 1.544745445251464844e+00 1.144433617591857910e+00 8.067537546157836914e-01 -3.408092260360717773e+00
2.779000000000000000e+03 1.402161407470703125e+01 4.616363525390625000e+00 1.027827620506286621e+00 1.713429450988769531e+00 8.223770856857299805e-01 -3.832118511199951172e+00
2.780000000000000000e+03 1.245055961608886719e+01 4.721994876861572266e+00 7.100300192832946777e-01 1.752169609069824219e+00 7.386599183082580566e-01 -3.347746133804321289e+00
2.781000000000000000e+03 5.671759414672851562e+01 2.074731445312500000e+01 -7.811398059129714966e-02 3.209465026855468750e+00 9.394053220748901367e-01 -1.859385371208190918e+00
2.782000000000000000e+03 1.149130153656005859e+01 -2.729535675048828125e+01 1.329750418663024902e-01 2.241774797439575195e+00 7.124249339103698730e-01 1.189726948738098145e+00
2.783000000000000000e+03 9.745786666870117188e+00 -4.851346492767333984e+00 1.738752007484436035e+00 3.971693813800811768e-01 6.407763957977294922e-01 5.370685458183288574e-01
2.784000000000000000e+03 1.079545307159423828e+01 -5.562444686889648438e+00 2.232283353805541992e+00 1.062385916709899902e+00 9.884008169174194336e-01 9.266357421875000000e-01
2.785000000000000000e+03 1.341457080841064453e+01 5.872730255126953125e+00 -1.132189869880676270e+00 1.592666029930114746e+00 1.381428390741348267e-01 -3.545363187789916992e+00
2.786000000000000000e+03 5.032974624633789062e+01 -9.082325935363769531e+00 2.108825445175170898e+00 7.052233695983886719e+00 2.748317718505859375e+00 4.869334027171134949e-02
2.787000000000000000e+03 2.013578033447265625e+01 5.373996734619140625e+00 7.077181935310363770e-01 4.490104198455810547e+00 1.559346675872802734e+00 3.524550437927246094e+00
2.788000000000000000e+03 2.626465988159179688e+01 3.497554779052734375e+00 6.553600430488586426e-01 4.067099571228027344e+00 1.416737794876098633e+00 -6.756519675254821777e-01
2.789000000000000000e+03 4.190937805175781250e+01 -1.971586036682128906e+01 2.327859640121459961e+00 4.807271957397460938e+00 2.140539407730102539e+00 -5.721983313560485840e-01
2.790000000000000000e+03 3.498319244384765625e+01 -3.030404806137084961e+00 1.408586502075195312e+00 3.828178405761718750e+00 1.571029543876647949e+00 8.749393820762634277e-01
2.791000000000000000e+03 4.397719573974609375e+01 -1.597542095184326172e+01 -9.453819990158081055e-01 3.057853221893310547e+00 6.337413787841796875e-01 9.149042367935180664e-01
2.792000000000000000e+03 4.343262863159179688e+01 -1.690628814697265625e+01 3.567447066307067871e-01 3.214135169982910156e+00 1.071264028549194336e+00 1.935430914163589478e-01
2.793000000000000000e+03 3.438089752197265625e+01 1.746464729309082031e+01 2.386882305145263672e+00 4.769308567047119141e+00 2.146857261657714844e+00 -2.619472146034240723e-01
2.794000000000000000e+03 6.992137908935546875e+01 2.452347946166992188e+01 4.530170559883117676e-01 3.992173433303833008e+00 1.333557128906250000e+00 -9.581087827682495117e-01
2.795000000000000000e+03 6.691312408447265625e+01 2.545509719848632812e+01 1.854005575180053711e+00 3.843631744384765625e+00 1.709291219711303711e+00 4.777532815933227539e-01
2.796000000000000000e+03 6.794242095947265625e+01 2.272689628601074219e+01 -1.428759694099426270e-01 2.003720283508300781e+00 5.582533478736877441e-01 -8.229426741600036621e-01
2.797000000000000000e+03 6.861235046386718750e+01 2.687351036071777344e+01 1.523489832878112793e+00 4.119032859802246094e+00 1.692756891250610352e+00 7.251900434494018555e-02
2.798000000000000000e+03 2.793980026245117188e+01 1.488188624382019043e+00 -1.099165439605712891e+00 5.867386817932128906e+00 1.430466413497924805e+00 -2.019283771514892578e+00
2.799000000000000000e+03 5.153104782104492188e+01 -2.820549392700195312e+01 4.932422935962677002e-01 4.607573509216308594e+00 1.530244827270507812e+00 -3.929072916507720947e-01
2.800000000000000000e+03 2.617364883422851562e+01 2.544863462448120117e+00 3.611176609992980957e-01 3.655703067779541016e+00 1.205046176910400391e+00 -1.382838487625122070e+00
2.801000000000000000e+03 5.844026565551757812e+01 -2.223628997802734375e+01 2.196255207061767578e+00 5.555680751800537109e+00 2.325580835342407227e+00 6.747491955757141113e-01
2.802000000000000000e+03 4.460379028320312500e+01 -2.362778425216674805e+00 -4.242475330829620361e-02 2.428230047225952148e+00 7.157415747642517090e-01 -2.314336299896240234e+00
2.803000000000000000e+03 5.336740875244140625e+01 -1.234210109710693359e+01 -1.951516866683959961e-01 3.750995159149169922e+00 1.066753029823303223e+00 -2.963808059692382812e+00
2.804000000000000000e+03 6.096206283569335938e+01 1.067292571067810059e+00 -1.240567445755004883e+00 5.949010372161865234e+00 1.412532806396484375e+00 -1.957493066787719727e+00
2.805000000000000000e+03 6.214495086669921875e+01 -2.132261848449707031e+01 2.896749019622802734e+00 5.599554538726806641e+00 2.548891067504882812e+00 -1.423821330070495605e+00
2.806000000000000000e+03 4.101874160766601562e+01 1.425654029846191406e+01 1.571308016777038574e+00 5.603557586669921875e+00 2.152459859848022461e+00 -5.483584403991699219e-01
2.807000000000000000e+03 4.379499816894531250e+01 -1.378150582313537598e+00 3.521657288074493408e-01 2.561327934265136719e+00 8.740481138229370117e-01 -1.862561106681823730e+00
2.808000000000000000e+03 3.300643920898437500e+01 -1.194760894775390625e+01 -7.693784683942794800e-02 3.376423597335815430e+00 9.898457527160644531e-01 1.060478091239929199e+00
2.809000000000000000e+03 3.395277786254882812e+01 -1.051398944854736328e+01 2.153707981109619141e+00 3.990710258483886719e+00 1.843325495719909668e+00 -5.753790959715843201e-02
2.810000000000000000e+03 8.790843963623046875e+00 -2.560777664184570312e+01 -6.800903677940368652e-01 1.969529986381530762e-01 -1.449412107467651367e-01 1.745839864015579224e-01
2.811000000000000000e+03 8.743404388427734375e+00 -2.865362358093261719e+01 7.827240228652954102e-01 1.296332955360412598e+00 6.237170696258544922e-01 3.036625981330871582e-01
2.812000000000000000e+03 6.640542602539062500e+01 2.317572975158691406e+01 6.078060269355773926e-01 2.434811830520629883e+00 9.127853512763977051e-01 6.154050827026367188e-01
2.813000000000000000e+03 6.670619201660156250e+01 2.462443590164184570e+00 1.543452143669128418e-01 2.679316520690917969e+00 8.500984907150268555e-01 1.323379397392272949e+00
2.814000000000000000e+03 1.411116886138916016e+01 -8.548289299011230469e+00 2.712832212448120117e+00 4.821091175079345703e+00 2.260177135467529297e+00 3.081314861774444580e-01
2.815000000000000000e+03 3.193110275268554688e+01 -1.188330173492431641e+01 -2.949286699295043945e-01 4.405734539031982422e+00 1.233241796493530273e+00 1.176288604736328125e+00
2.816000000000000000e+03 5.644915771484375000e+01 2.922104597091674805e+00 -9.949070811271667480e-01 3.739587783813476562e+00 8.234041929244995117e-01 3.415376543998718262e-01
2.817000000000000000e+03 5.553920364379882812e+01 4.036698341369628906e+00 -9.740073084831237793e-01 5.048326969146728516e+00 1.222295999526977539e+00 9.388394951820373535e-01
2.818000000000000000e+03 5.731742858886718750e+01 3.249947071075439453e+00 -7.542413473129272461e-01 3.946466684341430664e+00 9.576675891876220703e-01 -5.796912908554077148e-01
2.819000000000000000e+03 5.569932556152343750e+01 5.154948711395263672e+00 -1.789043247699737549e-01 6.242065429687500000e+00 1.818948388099670410e+00 7.846313714981079102e-01
2.820000000000000000e+03 3.694761276245117188e+00 1.099228954315185547e+01 5.489618182182312012e-01 1.344447880983352661e-01 2.050219774246215820e-01 -3.154518008232116699e-01
2.821000000000000000e+03 7.482393741607666016e+00 1.099377918243408203e+01 1.671865582466125488e+00 3.084910392761230469e+00 1.427032828330993652e+00 -9.102167487144470215e-01
2.822000000000000000e+03 4.913784790039062500e+01 -1.273873233795166016e+01 -6.585412025451660156e-01 6.126294136047363281e+00 1.640325903892517090e+00 5.082220435142517090e-01
2.823000000000000000e+03 3.825501251220703125e+01 1.781905174255371094e+01 2.147745847702026367e+00 2.453615665435791016e+00 1.380408525466918945e+00 -1.809564828872680664e+00
2.824000000000000000e+03 6.393320846557617188e+01 5.315773487091064453e+00 -1.271393775939941406e+00 2.554443597793579102e+00 3.849149346351623535e-01 -1.503522634506225586e+00
2.825000000000000000e+03 7.332939147949218750e+01 -2.924226951599121094e+01 -7.994347810745239258e-02 5.881186485290527344e+00 1.740372896194458008e+00 1.374591112136840820e+00
2.826000000000000000e+03 6.039085769653320312e+01 -1.201972198486328125e+01 -1.363172650337219238e+00 5.971505165100097656e+00 1.382499814033508301e+00 1.342276215553283691e+00
2.827000000000000000e+03 6.351905822753906250e+01 -1.499977874755859375e+01 -1.665024876594543457e+00 6.353816032409667969e+00 1.406637430191040039e+00 7.030291557312011719e-01
2.828000000000000000e+03 5.944549560546875000e+01 -1.347773742675781250e+01 -5.482383370399475098e-01 5.141917705535888672e+00 1.378103733062744141e+00 9.233822226524353027e-01
2.829000000000000000e+03 5.721486282348632812e+01 -1.301113510131835938e+01 -2.594540119171142578e-01 3.781236171722412109e+00 1.056534647941589355e+00 -1.184293508529663086e+00
2.830000000000000000e+03 4.041380405426025391e+00 -2.632427978515625000e+01 -4.526315331459045410e-01 2.086508750915527344e+00 4.901631474494934082e-01 -4.998216331005096436e-01
2.831000000000000000e+03 5.214091777801513672e+00 -2.779650878906250000e+01 5.798982828855514526e-02 1.477382302284240723e+00 4.606116116046905518e-01 -5.536897778511047363e-01
2.832000000000000000e+03 5.937574386596679688e+01 6.934379100799560547e+00 4.049943760037422180e-03 5.726299285888671875e+00 1.719104766845703125e+00 -1.216849565505981445e+00
2.833000000000000000e+03 5.978446197509765625e+01 1.734021186828613281e+01 2.266434431076049805e+00 7.568551063537597656e+00 2.950495719909667969e+00 1.466628670692443848e+00
2.834000000000000000e+03 5.190130996704101562e+01 -2.968678855895996094e+01 2.098734855651855469e+00 5.500255107879638672e+00 2.279696941375732422e+00 -2.241824194788932800e-02
2.835000000000000000e+03 1.543911647796630859e+01 -1.927457690238952637e+00 -7.803091406822204590e-01 9.598767280578613281e+00 2.645537614822387695e+00 2.792753934860229492e+00
2.836000000000000000e+03 1.088332939147949219e+01 5.566669464111328125e+00 4.742242991924285889e-01 2.398141622543334961e+00 8.617097735404968262e-01 -1.984685063362121582e+00
2.837000000000000000e+03 9.959400177001953125e+00 5.773595809936523438e+00 3.745461404323577881e-01 2.408253431320190430e+00 8.348398804664611816e-01 -1.428850531578063965e+00
2.838000000000000000e+03 5.836415863037109375e+01 7.277439117431640625e+00 5.381330251693725586e-01 6.434151649475097656e+00 2.091685295104980469e+00 -6.408900022506713867e-01
2.839000000000000000e+03 2.335445976257324219e+01 3.162673377990722656e+01 4.488757550716400146e-01 3.980959415435791016e+00 1.328950524330139160e+00 1.036522269248962402e+00
2.840000000000000000e+03 1.458783531188964844e+01 -2.603173017501831055e+00 5.530282258987426758e-01 6.674108982086181641e+00 2.168141126632690430e+00 2.181694746017456055e+00
2.841000000000000000e+03 1.476133537292480469e+01 -4.265328884124755859e+00 1.290873289108276367e+00 7.555314540863037109e+00 2.653856277465820312e+00 1.192661046981811523e+00
2.842000000000000000e+03 3.434310531616210938e+01 -3.375095748901367188e+01 1.591585636138916016e+00 2.200138807296752930e+00 1.137517333030700684e+00 7.432927489280700684e-01
2.843000000000000000e+03 6.246282577514648438e+01 -1.246712303161621094e+01 -1.377067923545837402e+00 6.777304172515869141e+00 1.620070815086364746e+00 1.050821661949157715e+00
2.844000000000000000e+03 2.232441329956054688e+01 6.818503856658935547e+00 1.583445787429809570e+00 4.628303050994873047e+00 1.863524675369262695e+00 8.685340285301208496e-01
2.845000000000000000e+03 2.577917671203613281e+01 8.141738891601562500e+00 2.965181589126586914e+00 4.449350357055664062e+00 2.224359512329101562e+00 -2.180520594120025635e-01
2.846000000000000000e+03 4.244241333007812500e+01 -2.568802070617675781e+01 9.927554726600646973e-01 2.822000741958618164e+00 1.144426822662353516e+00 6.964499354362487793e-01
2.847000000000000000e+03 4.341780471801757812e+01 -2.561405754089355469e+01 9.155433773994445801e-01 1.887137770652770996e+00 8.408043384552001953e-01 -1.877579987049102783e-01
2.848000000000000000e+03 8.353018760681152344e+00 8.701264381408691406e+00 1.537037491798400879e+00 3.300185918807983398e+00 1.451166987419128418e+00 -6.208689808845520020e-01
2.849000000000000000e+03 7.364382266998291016e+00 5.242409706115722656e+00 2.370444387197494507e-01 1.287052392959594727e+00 4.572290480136871338e-01 7.520318776369094849e-02
2.850000000000000000e+03 2.002501869201660156e+01 -1.843458366394042969e+01 1.735247015953063965e+00 1.978329658508300781e+00 1.114073038101196289e+00 -1.339325428009033203e+00
2.851000000000000000e+03 2.588895988464355469e+01 1.300071334838867188e+01 5.321989059448242188e-01 1.035949945449829102e+00 4.704446494579315186e-01 -4.126447439193725586e-01
2.852000000000000000e+03 2.432564353942871094e+01 1.073089790344238281e+01 2.647186994552612305e+00 4.081705570220947266e+00 2.018667697906494141e+00 -1.129144430160522461e+00
2.853000000000000000e+03 1.349745941162109375e+01 -5.997707366943359375e+00 2.724387884140014648e+00 4.343807697296142578e+00 2.120458602905273438e+00 8.579750657081604004e-01
2.854000000000000000e+03 2.422146034240722656e+01 -1.830559349060058594e+01 1.566381812095642090e+00 1.744105815887451172e+00 9.931463003158569336e-01 -5.791373252868652344e-01
2.855000000000000000e+03 2.146493530273437500e+01 -1.756368637084960938e+01 1.173517346382141113e+00 9.745278954505920410e-01 6.444135904312133789e-01 -1.530317306518554688e+00
2.856000000000000000e+03 3.064249038696289062e+01 -2.174868583679199219e+00 1.551317811012268066e+00 6.574427127838134766e+00 2.437723636627197266e+00 -1.815287113189697266e+00
2.857000000000000000e+03 5.657537460327148438e+01 3.839165687561035156e+00 -6.036874651908874512e-01 4.674624919891357422e+00 1.221281170845031738e+00 6.188209354877471924e-02
2.858000000000000000e+03 5.704455566406250000e+01 4.836795330047607422e+00 -4.741843938827514648e-01 5.490167617797851562e+00 1.504794955253601074e+00 -4.872863292694091797e-01
2.859000000000000000e+03 6.497064208984375000e+01 1.944317936897277832e+00 -3.348712027072906494e-01 4.120321750640869141e+00 1.135635256767272949e+00 4.283478260040283203e-01
2.860000000000000000e+03 3.991213989257812500e+01 1.559772586822509766e+01 1.818287968635559082e+00 3.837667942047119141e+00 1.696786761283874512e+00 -1.377785801887512207e+00
2.861000000000000000e+03 3.720941162109375000e+01 1.467333793640136719e+01 1.349804401397705078e+00 2.281425952911376953e+00 1.089369058609008789e+00 -2.000794172286987305e+00
2.862000000000000000e+03 4.441441345214843750e+01 -2.554374694824218750e+01 6.678923964500427246e-01 2.093203783035278320e+00 8.283288478851318359e-01 -1.297940850257873535e+00
2.863000000000000000e+03 7.086828613281250000e+01 1.843253493309020996e+00 4.409218728542327881e-01 2.069764614105224609e+00 7.532059550285339355e-01 1.026505470275878906e+00
2.864000000000000000e+03 7.222743988037109375e+01 1.366223096847534180e+00 -3.824684768915176392e-02 3.196088552474975586e+00 9.473525285720825195e-01 -1.297302097082138062e-01
2.865000000000000000e+03 9.181316375732421875e+00 -5.762179374694824219e+00 1.662223458290100098e+00 3.613134622573852539e-01 6.070610880851745605e-01 7.705759406089782715e-01
2.866000000000000000e+03 1.078982830047607422e+01 -1.044991588592529297e+01 4.744247496128082275e-01 2.551712393760681152e-01 2.188787907361984253e-01 2.542657375335693359e+00
2.867000000000000000e+03 2.688293266296386719e+01 -2.867160606384277344e+01 -1.399028897285461426e+00 6.156057834625244141e+00 1.427108764648437500e+00 1.559386253356933594e-01
2.868000000000000000e+03 6.338929748535156250e+01 -1.720500886440277100e-01 -1.813193410634994507e-01 6.498246669769287109e+00 1.895078182220458984e+00 -1.605151444673538208e-01
2.869000000000000000e+03 2.323841667175292969e+01 1.431822872161865234e+01 -7.502349615097045898e-01 5.680859565734863281e+00 1.479187369346618652e+00 -1.147281527519226074e+00
2.870000000000000000e+03 7.479838562011718750e+01 -3.042519569396972656e+01 2.029403597116470337e-01 6.375568866729736328e+00 1.973552703857421875e+00 5.885719060897827148e-01
2.871000000000000000e+03 7.447477722167968750e+01 -2.893674850463867188e+01 -4.710992276668548584e-01 6.761124134063720703e+00 1.887007474899291992e+00 8.062095642089843750e-01
2.872000000000000000e+03 2.500031280517578125e+01 -2.491626167297363281e+01 -5.178916826844215393e-02 4.686207771301269531e+00 1.390325546264648438e+00 -3.694866597652435303e-02
2.873000000000000000e+03 3.545955276489257812e+01 1.714765739440917969e+01 2.439838886260986328e+00 3.553715944290161133e+00 1.798066496849060059e+00 -1.337689876556396484e+00
2.874000000000000000e+03 3.567039489746093750e+01 1.845567512512207031e+01 2.053709268569946289e+00 3.867007017135620117e+00 1.776214838027954102e+00 -1.314937233924865723e+00
2.875000000000000000e+03 4.230460739135742188e+01 5.591845512390136719e+00 1.333838105201721191e+00 7.046102523803710938e+00 2.513982295989990234e+00 -1.863714307546615601e-01
2.876000000000000000e+03 4.314781570434570312e+01 3.121128559112548828e+00 1.347517013549804688e+00 4.919292926788330078e+00 1.880043029785156250e+00 -1.346630334854125977e+00
2.877000000000000000e+03 7.568972015380859375e+01 2.454212570190429688e+01 -7.643156498670578003e-02 6.562295913696289062e+00 1.945759296417236328e+00 -4.063766002655029297e-01
2.878000000000000000e+03 7.554038238525390625e+01 2.595228958129882812e+01 2.022504247725009918e-02 6.402842044830322266e+00 1.926920175552368164e+00 -3.772540390491485596e-01
2.879000000000000000e+03 7.258988189697265625e+01 2.500988388061523438e+01 1.992623209953308105e-01 5.453867912292480469e+00 1.695939064025878906e+00 -7.619679570198059082e-01
2.880000000000000000e+03 7.365792846679687500e+01 2.036501693725585938e+01 -1.288867831230163574e+00 7.043247699737548828e+00 1.726313948631286621e+00 -4.237015247344970703e-01
2.881000000000000000e+03 7.383038330078125000e+01 1.062707424163818359e+01 1.447979331016540527e+00 8.785866737365722656e+00 3.070153951644897461e+00 -1.674363464117050171e-01
2.882000000000000000e+03 7.488900756835937500e+01 1.133117961883544922e+01 1.423699498176574707e+00 8.605135917663574219e+00 3.008650541305541992e+00 -3.725141286849975586e-01
2.883000000000000000e+03 7.591795349121093750e+01 8.449163436889648438e+00 1.432579755783081055e-01 7.533632755279541016e+00 2.303067207336425781e+00 -1.102941989898681641e+00
2.884000000000000000e+03 7.252603149414062500e+01 3.629287481307983398e+00 -1.311495304107666016e-01 4.725203514099121094e+00 1.378216147422790527e+00 2.109029144048690796e-01
2.885000000000000000e+03 7.391640472412109375e+01 2.684492111206054688e+00 -2.452769279479980469e-01 5.302501678466796875e+00 1.517167448997497559e+00 -5.706894993782043457e-01
2.886000000000000000e+03 7.579679107666015625e+01 1.918565559387207031e+01 -5.051203370094299316e-01 7.439554691314697266e+00 2.080330371856689453e+00 5.462074875831604004e-01
2.887000000000000000e+03 7.451399993896484375e+01 6.789579391479492188e+00 -1.745333373546600342e-01 7.279029369354248047e+00 2.131348848342895508e+00 -7.813161611557006836e-01
2.888000000000000000e+03 7.345953369140625000e+01 6.648878455162048340e-01 -4.305289983749389648e-01 4.243498325347900391e+00 1.143890857696533203e+00 -8.645415902137756348e-01
2.889000000000000000e+03 7.521678161621093750e+01 8.957760810852050781e+00 4.389026165008544922e-01 7.694427967071533203e+00 2.439999103546142578e+00 -9.310616254806518555e-01
2.890000000000000000e+03 7.386270141601562500e+01 2.820240783691406250e+01 4.268529117107391357e-01 5.848675251007080078e+00 1.882658481597900391e+00 -2.195694446563720703e-01
2.891000000000000000e+03 7.584249877929687500e+01 2.048868942260742188e+01 -6.752556562423706055e-01 7.290942192077636719e+00 1.984705924987792969e+00 1.854350566864013672e-01
2.892000000000000000e+03 7.260063934326171875e+01 -3.000664520263671875e+01 7.642078399658203125e-01 4.940936088562011719e+00 1.711543202400207520e+00 1.133912920951843262e+00
2.893000000000000000e+03 7.332437896728515625e+01 -3.172800636291503906e+01 8.067123889923095703e-01 5.648473262786865234e+00 1.936555743217468262e+00 2.801738083362579346e-01
2.894000000000000000e+03 7.183293914794921875e+01 3.052058410644531250e+01 7.009086012840270996e-01 5.387830734252929688e+00 1.826621770858764648e+00 2.586483359336853027e-01
2.895000000000000000e+03 7.333679962158203125e+01 -3.419868850708007812e+01 7.234458327293395996e-01 5.914541244506835938e+00 1.991396188735961914e+00 -4.209259450435638428e-01
2.896000000000000000e+03 7.489696502685546875e+01 -3.362123489379882812e+01 4.053955972194671631e-01 6.376084327697753906e+00 2.034444093704223633e+00 -1.049993112683296204e-01
2.897000000000000000e+03 7.327993774414062500e+01 3.030129241943359375e+01 4.951150417327880859e-01 5.700408935546875000e+00 1.858657121658325195e+00 8.479711413383483887e-02
2.898000000000000000e+03 4.227659606933593750e+01 -2.089520072937011719e+01 2.937512159347534180e+00 5.277473449707031250e+00 2.464495658874511719e+00 1.572917699813842773e-01
2.899000000000000000e+03 7.323623657226562500e+01 8.516874313354492188e+00 4.501787126064300537e-01 8.001037597656250000e+00 2.535364866256713867e+00 -3.979693353176116943e-01
2.900000000000000000e+03 7.382085418701171875e+01 7.705628871917724609e+00 -3.644661279395222664e-03 7.795756816864013672e+00 2.337633609771728516e+00 -5.164865851402282715e-01
2.901000000000000000e+03 7.286761474609375000e+01 7.266137123107910156e+00 -9.593786299228668213e-02 7.183561801910400391e+00 2.126287221908569336e+00 1.982346773147583008e-01
2.902000000000000000e+03 3.777629852294921875e+00 -1.101207923889160156e+01 -1.889782696962356567e-01 1.207947850227355957e+00 3.056908845901489258e-01 1.876178830862045288e-01
2.903000000000000000e+03 2.845816993713378906e+01 2.318926811218261719e+00 -7.594509720802307129e-01 5.698813438415527344e+00 1.481808781623840332e+00 -1.505745649337768555e+00
2.904000000000000000e+03 3.377138137817382812e+00 -2.316416549682617188e+01 -1.234169125556945801e+00 2.759769439697265625e+00 4.576800763607025146e-01 6.057974696159362793e-01
2.905000000000000000e+03 6.964034271240234375e+01 2.370051383972167969e+00 3.156065344810485840e-01 2.134797334671020508e+00 7.351211905479431152e-01 1.852315187454223633e+00
2.906000000000000000e+03 5.062314033508300781e+00 1.821209907531738281e+01 -5.194373726844787598e-01 1.842221498489379883e+00 3.968352377414703369e-01 -9.231917262077331543e-01
2.907000000000000000e+03 5.867391586303710938e+00 1.995066070556640625e+01 -7.223975658416748047e-01 2.231691360473632812e+00 4.527881443500518799e-01 -7.535349130630493164e-01
2.908000000000000000e+03 4.962110042572021484e+00 1.327399635314941406e+01 5.087768435478210449e-01 1.383034706115722656e+00 5.675434470176696777e-01 -9.903324246406555176e-01
2.909000000000000000e+03 3.450969934463500977e+00 1.204231071472167969e+01 4.322479665279388428e-01 6.741171330213546753e-02 1.498979032039642334e-01 -5.389867424964904785e-01
2.910000000000000000e+03 5.661790370941162109e+00 2.093275833129882812e+01 -6.981191635131835938e-01 2.492847204208374023e+00 5.384184122085571289e-01 -6.628401279449462891e-01
2.911000000000000000e+03 5.564085006713867188e+00 -2.628282546997070312e+01 -5.218451619148254395e-01 1.304154396057128906e+00 2.346927821636199951e-01 -6.691328883171081543e-01
2.912000000000000000e+03 4.766818523406982422e+00 -3.313113021850585938e+01 4.670951962471008301e-01 2.173666715621948242e+00 7.922285199165344238e-01 3.005554974079132080e-01
2.913000000000000000e+03 5.879466533660888672e+00 1.408444023132324219e+01 3.378732204437255859e-01 2.036482810974121094e+00 7.123068571090698242e-01 -1.168428778648376465e+00
2.914000000000000000e+03 5.248657703399658203e+00 -3.556921386718750000e+01 1.864068806171417236e-01 2.461332082748413086e+00 7.943217158317565918e-01 5.393589735031127930e-01
2.915000000000000000e+03 7.506144523620605469e+00 -3.272422790527343750e+01 9.629631042480468750e-01 2.041278600692749023e+00 9.012724757194519043e-01 6.313085556030273438e-01
2.916000000000000000e+03 6.058578014373779297e+00 1.138734912872314453e+01 1.197363615036010742e+00 1.841530799865722656e+00 9.116683006286621094e-01 -7.489241957664489746e-01
2.917000000000000000e+03 7.277245330810546875e+01 3.564818572998046875e+01 -3.543453663587570190e-02 5.988434314727783203e+00 1.785899877548217773e+00 4.335903823375701904e-01
2.918000000000000000e+03 7.075232696533203125e+01 3.419498825073242188e+01 1.085171550512313843e-01 5.627583026885986328e+00 1.720829963684082031e+00 5.650165677070617676e-01
2.919000000000000000e+03 3.625371217727661133e+00 -7.590213775634765625e+00 7.703037559986114502e-02 2.626619338989257812e-01 1.019077003002166748e-01 1.543943136930465698e-01
2.920000000000000000e+03 7.271977424621582031e+00 8.251940727233886719e+00 1.114577174186706543e+00 2.252003908157348633e+00 1.009974360466003418e+00 -1.306358873844146729e-01
2.921000000000000000e+03 4.391108036041259766e+00 7.707528591156005859e+00 4.764710664749145508e-01 3.028316795825958252e-01 2.337908148765563965e-01 3.834325671195983887e-01
2.922000000000000000e+03 4.191283702850341797e+00 6.747428417205810547e+00 3.582920432090759277e-01 1.544529795646667480e-01 1.538235098123550415e-01 5.434434413909912109e-01
2.923000000000000000e+03 4.819285583496093750e+01 2.427813529968261719e+01 2.107559442520141602e+00 6.269584655761718750e+00 2.513143301010131836e+00 1.179506540298461914e+00
2.924000000000000000e+03 5.812839031219482422e+00 -6.577757835388183594e+00 5.531824231147766113e-01 3.118152320384979248e-01 2.594993114471435547e-01 4.786035418510437012e-01
2.925000000000000000e+03 4.649074554443359375e+00 -8.761533737182617188e+00 2.354870364069938660e-02 7.810041308403015137e-01 2.413658648729324341e-01 4.738763570785522461e-01
2.926000000000000000e+03 5.725358581542968750e+01 6.060842514038085938e+00 2.475387901067733765e-01 6.042284488677978516e+00 1.886947035789489746e+00 -4.949290752410888672e-01
2.927000000000000000e+03 4.181072235107421875e+01 -1.759669494628906250e+01 9.482995867729187012e-01 3.786245346069335938e+00 1.420363545417785645e+00 -1.100502252578735352e+00
2.928000000000000000e+03 4.722805023193359375e+01 4.677392005920410156e+00 -7.979094982147216797e-02 2.425279617309570312e+00 7.036465406417846680e-01 -1.538627386093139648e+00
2.929000000000000000e+03 3.482762145996093750e+01 1.599313735961914062e+01 2.323598146438598633e+00 3.062950134277343750e+00 1.615964412689208984e+00 -9.608079791069030762e-01
2.930000000000000000e+03 4.928230285644531250e+01 2.047969436645507812e+01 -6.948745995759963989e-02 2.395706415176391602e+00 6.978656649589538574e-01 -1.732014417648315430e-01
2.931000000000000000e+03 5.041366195678710938e+01 2.084495353698730469e+01 -3.454923033714294434e-01 3.357729673385620117e+00 9.036712050437927246e-01 -1.152472019195556641e+00
2.932000000000000000e+03 6.857069015502929688e+00 -1.169291591644287109e+01 -2.245403826236724854e-01 2.605174303054809570e+00 7.141901850700378418e-01 1.568168759346008301e+00
2.933000000000000000e+03 6.469493865966796875e+01 -1.484479808807373047e+01 -1.745129585266113281e+00 5.210633754730224609e+00 1.039651274681091309e+00 6.319562196731567383e-01
2.934000000000000000e+03 2.817741394042968750e+01 3.234279632568359375e+01 6.328960061073303223e-01 2.438845634460449219e+00 9.215224385261535645e-01 -9.675842523574829102e-01
2.935000000000000000e+03 5.379910278320312500e+01 2.223895835876464844e+01 -8.080070614814758301e-01 4.791818618774414062e+00 1.195143461227416992e+00 -2.314545392990112305e+00
2.936000000000000000e+03 4.603743362426757812e+01 6.850281953811645508e-01 5.578553080558776855e-01 3.701090097427368164e+00 1.277683615684509277e+00 -2.367774009704589844e+00
2.937000000000000000e+03 5.568675613403320312e+01 2.027028656005859375e+01 -3.593135178089141846e-01 3.919019460678100586e+00 1.067911744117736816e+00 -2.354767322540283203e+00
2.938000000000000000e+03 5.355210113525390625e+01 2.322472000122070312e+01 -5.170996785163879395e-01 5.172693729400634766e+00 1.396678209304809570e+00 -1.850206613540649414e+00
2.939000000000000000e+03 5.230052947998046875e+01 2.445712471008300781e+01 7.352997064590454102e-01 5.629172801971435547e+00 1.909341692924499512e+00 -7.566599845886230469e-01
2.940000000000000000e+03 4.198321914672851562e+01 2.709705114364624023e+00 1.545322895050048828e+00 5.968333244323730469e+00 2.254096984863281250e+00 -7.810678482055664062e-01
2.941000000000000000e+03 2.421180152893066406e+01 8.242233276367187500e+00 2.636758565902709961e+00 4.328847885131835938e+00 2.089681863784790039e+00 -2.235362827777862549e-01
2.942000000000000000e+03 2.304976844787597656e+01 1.017212295532226562e+01 2.341273307800292969e+00 5.546729087829589844e+00 2.366400718688964844e+00 -8.988380432128906250e-01
2.943000000000000000e+03 2.930753135681152344e+01 -1.597787380218505859e+01 -1.810707092285156250e+00 6.964632034301757812e+00 1.546177506446838379e+00 1.690156698226928711e+00
2.944000000000000000e+03 5.911536026000976562e+01 -1.840176582336425781e+01 1.640360832214355469e+00 5.937490463256835938e+00 2.273355245590209961e+00 -1.366164386272430420e-01
2.945000000000000000e+03 5.949490737915039062e+01 -2.211886787414550781e+01 2.707286119461059570e+00 4.394387722015380859e+00 2.130501985549926758e+00 -1.147454306483268738e-01
2.946000000000000000e+03 3.618329238891601562e+01 -1.201464557647705078e+01 -1.225753501057624817e-02 4.556874752044677734e+00 1.363385200500488281e+00 -2.049521207809448242e+00
2.947000000000000000e+03 3.485928726196289062e+01 -1.044995307922363281e+01 2.632599592208862305e+00 3.824045181274414062e+00 1.936993479728698730e+00 -9.614037871360778809e-01
2.948000000000000000e+03 1.157091903686523438e+01 -2.610933685302734375e+01 -5.482321381568908691e-01 1.849097013473510742e+00 3.902594745159149170e-01 1.449705481529235840e+00
2.949000000000000000e+03 4.732767868041992188e+01 2.045221138000488281e+01 -5.036590099334716797e-01 4.853783130645751953e+00 1.305037260055541992e+00 2.582682371139526367e+00
2.950000000000000000e+03 1.995284843444824219e+01 -1.960184288024902344e+01 2.122069358825683594e+00 2.197442770004272461e+00 1.295853614807128906e+00 -1.175264477729797363e+00
2.951000000000000000e+03 5.728045654296875000e+01 -1.398847770690917969e+01 -3.325809538364410400e-01 4.687955379486083984e+00 1.306612253189086914e+00 -8.364762663841247559e-01
2.952000000000000000e+03 5.401028823852539062e+01 -1.316421127319335938e+01 -4.252464175224304199e-01 4.021567344665527344e+00 1.078896284103393555e+00 -3.348473548889160156e+00
2.953000000000000000e+03 5.441046905517578125e+01 -1.414582252502441406e+01 -1.201990246772766113e+00 4.666077613830566406e+00 1.039226293563842773e+00 -2.845539569854736328e+00
2.954000000000000000e+03 4.964676284790039062e+01 2.813392639160156250e+01 2.061851024627685547e+00 6.583534717559814453e+00 2.593615770339965820e+00 1.052351951599121094e+00
2.955000000000000000e+03 3.051210021972656250e+01 3.201630020141601562e+01 2.563794851303100586e-01 3.995210647583007812e+00 1.275477051734924316e+00 -1.617892622947692871e+00
2.956000000000000000e+03 2.999591255187988281e+01 3.462279510498046875e+01 -2.864362895488739014e-01 4.019439697265625000e+00 1.119901061058044434e+00 -9.868131875991821289e-01
2.957000000000000000e+03 5.260583114624023438e+01 -1.298073482513427734e+01 -9.297798573970794678e-02 3.372568130493164062e+00 9.838770031929016113e-01 -2.925019502639770508e+00
2.958000000000000000e+03 5.759038543701171875e+01 1.597757911682128906e+01 1.850099921226501465e+00 6.737004280090332031e+00 2.576131343841552734e+00 4.637638330459594727e-01
2.959000000000000000e+03 4.220989990234375000e+01 -1.536924457550048828e+01 -1.815760254859924316e+00 1.482970595359802246e+00 -9.983690083026885986e-02 -1.146945357322692871e+00
2.960000000000000000e+03 2.574528694152832031e+01 9.593172073364257812e+00 3.173326253890991211e+00 3.889242410659790039e+00 2.118770599365234375e+00 -3.757126927375793457e-01
2.961000000000000000e+03 5.047483062744140625e+01 2.574795913696289062e+01 2.089750528335571289e+00 5.879957675933837891e+00 2.390912532806396484e+00 4.609574973583221436e-01
2.962000000000000000e+03 4.925192260742187500e+01 3.173323869705200195e+00 1.059797406196594238e-02 2.324243307113647461e+00 7.004523873329162598e-01 -6.087189316749572754e-01
2.963000000000000000e+03 4.772074127197265625e+01 2.757517337799072266e+00 3.267383277416229248e-01 3.050651788711547852e+00 1.013216972351074219e+00 -1.727277278900146484e+00
2.964000000000000000e+03 5.058691406250000000e+01 -4.718241840600967407e-02 1.851504892110824585e-01 5.312284469604492188e+00 1.649230480194091797e+00 -2.631384730339050293e-01
2.965000000000000000e+03 5.158471298217773438e+01 1.644748330116271973e+00 -5.700525641441345215e-01 4.526670932769775391e+00 1.186985492706298828e+00 1.186425805091857910e+00
2.966000000000000000e+03 2.878343582153320312e+01 -2.945314598083496094e+01 -1.064280629158020020e+00 5.184334754943847656e+00 1.236016154289245605e+00 -4.464941024780273438e-01
2.967000000000000000e+03 6.011838531494140625e+01 3.366786956787109375e+00 -1.275289058685302734e+00 5.069663524627685547e+00 1.138312458992004395e+00 -2.391534328460693359e+00
2.968000000000000000e+03 6.895217418670654297e+00 2.002103614807128906e+01 -7.510873079299926758e-01 2.365175008773803711e+00 4.842262864112854004e-01 -8.847779631614685059e-01
2.969000000000000000e+03 6.215062332153320312e+01 -1.513502883911132812e+01 -1.377550363540649414e+00 6.685492515563964844e+00 1.592382669448852539e+00 5.761466026306152344e-01
2.970000000000000000e+03 1.917970275878906250e+01 -1.685904502868652344e+01 5.764837265014648438e-01 3.332752227783203125e+00 1.172770738601684570e+00 -1.110327124595642090e+00
2.971000000000000000e+03 6.962295532226562500e+01 5.092706680297851562e+00 -7.274910807609558105e-02 3.033416748046875000e+00 8.882002830505371094e-01 1.834733247756958008e+00
2.972000000000000000e+03 7.239749908447265625e+01 5.863816261291503906e+00 -4.869987070560455322e-01 5.960492134094238281e+00 1.642048001289367676e+00 5.888317823410034180e-01
2.973000000000000000e+03 3.694740295410156250e+01 1.864053535461425781e+01 1.909208178520202637e+00 3.014673233032226562e+00 1.477164387702941895e+00 -1.862470984458923340e+00
2.974000000000000000e+03 6.173491477966308594e+00 -1.062987041473388672e+01 -2.837700843811035156e-01 2.008333683013916016e+00 5.173690915107727051e-01 1.251770973205566406e+00
2.975000000000000000e+03 5.705565643310546875e+01 1.813678359985351562e+01 9.631475210189819336e-01 5.226615905761718750e+00 1.856929063796997070e+00 -6.153167486190795898e-01
2.976000000000000000e+03 5.766444778442382812e+01 2.112181282043457031e+01 -3.270713388919830322e-01 2.369012117385864258e+00 6.125822067260742188e-01 -9.817426800727844238e-01
2.977000000000000000e+03 2.783448600769042969e+01 -3.289952850341796875e+01 4.852733910083770752e-01 5.286717414855957031e+00 1.731597304344177246e+00 -6.408224701881408691e-01
2.978000000000000000e+03 2.816675376892089844e+01 -3.178899192810058594e+01 1.370700299739837646e-01 4.889605998992919922e+00 1.508002758026123047e+00 -6.931729316711425781e-01
2.979000000000000000e+03 6.467975616455078125e+01 -1.311349964141845703e+01 -1.403608560562133789e+00 6.020641326904296875e+00 1.385109901428222656e+00 3.563305437564849854e-01
2.980000000000000000e+03 1.037317752838134766e+01 1.902933120727539062e+01 -5.805478692054748535e-01 1.524822711944580078e+00 2.832824587821960449e-01 -1.443978101015090942e-01
2.981000000000000000e+03 4.748601150512695312e+01 3.347874450683593750e+01 -6.892952322959899902e-01 5.671709537506103516e+00 1.494724273681640625e+00 -4.296319782733917236e-01
2.982000000000000000e+03 3.536940765380859375e+01 -3.835575485229492188e+01 -1.068331360816955566e+00 4.250923156738281250e+00 9.547774791717529297e-01 5.801778435707092285e-01
2.983000000000000000e+03 4.644691467285156250e+01 -5.728361606597900391e-01 5.196924805641174316e-01 3.970837116241455078e+00 1.347158908843994141e+00 -2.433045864105224609e+00
2.984000000000000000e+03 4.712083435058593750e+01 -1.610628008842468262e+00 2.688812017440795898e-01 4.479554653167724609e+00 1.424530744552612305e+00 -2.126399517059326172e+00
2.985000000000000000e+03 6.281683349609375000e+01 3.131245851516723633e+00 -1.140761375427246094e+00 4.853098869323730469e+00 1.113701224327087402e+00 -1.408113479614257812e+00
2.986000000000000000e+03 4.268719863891601562e+01 8.799129486083984375e+00 4.412788748741149902e-01 7.830101013183593750e+00 2.481414079666137695e+00 8.439763188362121582e-01
2.987000000000000000e+03 4.185935592651367188e+01 8.032776832580566406e+00 4.920095503330230713e-01 8.207092285156250000e+00 2.609730482101440430e+00 9.797386527061462402e-01
2.988000000000000000e+03 2.321320152282714844e+01 -1.626815414428710938e+01 -7.158707827329635620e-02 1.426339596509933472e-01 2.131406217813491821e-02 -5.216681957244873047e-01
2.989000000000000000e+03 2.205414009094238281e+01 -1.671194267272949219e+01 4.829637706279754639e-01 2.435655593872070312e-01 2.179587930440902710e-01 -1.244680762290954590e+00
2.990000000000000000e+03 2.222965812683105469e+01 3.372350311279296875e+01 -1.034434065222740173e-01 4.826922416687011719e+00 1.417043685913085938e+00 7.290190458297729492e-01
2.991000000000000000e+03 4.471665859222412109e+00 4.060506439208984375e+01 1.025214269757270813e-01 2.033023118972778320e+00 6.406633853912353516e-01 -1.012353748083114624e-01
2.992000000000000000e+03 4.743270492553710938e+01 -2.555565595626831055e+00 3.581874370574951172e-01 5.060413837432861328e+00 1.625580430030822754e+00 -2.016063690185546875e+00
2.993000000000000000e+03 5.348301315307617188e+01 3.757805252075195312e+01 -1.678162693977355957e+00 5.597083568572998047e+00 1.175676226615905762e+00 8.794642686843872070e-01
2.994000000000000000e+03 5.142691040039062500e+01 2.505524635314941406e+01 1.255583882331848145e+00 5.823339939117431641e+00 2.123677253723144531e+00 -1.215980425477027893e-01
2.995000000000000000e+03 4.994794082641601562e+01 2.315545463562011719e+01 1.063681960105895996e+00 5.021913528442382812e+00 1.825678586959838867e+00 -2.402861118316650391e-01
2.996000000000000000e+03 2.744953727722167969e+01 4.129797363281250000e+01 -1.095882892608642578e+00 4.150470256805419922e+00 9.163762331008911133e-01 -6.741827726364135742e-02
2.997000000000000000e+03 7.222155761718750000e+01 4.109747314453125000e+01 -3.264217674732208252e-01 6.066466331481933594e+00 1.722013354301452637e+00 1.027295961976051331e-01
2.998000000000000000e+03 7.492333984375000000e+01 3.624579620361328125e+01 -2.267915382981300354e-02 6.516602993011474609e+00 1.948177218437194824e+00 2.644723951816558838e-01
2.999000000000000000e+03 5.612264633178710938e+01 1.747862052917480469e+01 1.017246603965759277e+00 5.421054840087890625e+00 1.931490540504455566e+00 -1.036365628242492676e+00
3.000000000000000000e+03 5.787435150146484375e+01 1.885103988647460938e+01 1.156246662139892578e+00 4.979009628295898438e+00 1.840576887130737305e+00 -3.334198892116546631e-01
3.001000000000000000e+03 2.544658470153808594e+01 -1.748531532287597656e+01 5.968235731124877930e-01 2.541351079940795898e+00 9.414523839950561523e-01 2.065555304288864136e-01
3.002000000000000000e+03 2.439902496337890625e+01 -1.732304763793945312e+01 8.925404548645019531e-01 1.435645818710327148e+00 6.984558701515197754e-01 -2.210328876972198486e-01
3.003000000000000000e+03 2.403267669677734375e+01 -2.428825187683105469e+01 3.092453181743621826e-01 3.538145780563354492e+00 1.154217243194580078e+00 -6.144556403160095215e-01
3.004000000000000000e+03 2.605319595336914062e+01 -2.527773475646972656e+01 -4.060631394386291504e-01 5.634172439575195312e+00 1.568432807922363281e+00 8.181034773588180542e-02
3.005000000000000000e+03 6.913761901855468750e+01 3.244743347167968750e+01 4.375693202018737793e-01 5.357806205749511719e+00 1.738612651824951172e+00 7.846969366073608398e-01
3.006000000000000000e+03 3.347610092163085938e+01 -5.194851398468017578e+00 2.567532539367675781e+00 5.072012901306152344e+00 2.291863679885864258e+00 -6.882786154747009277e-01
3.007000000000000000e+03 1.010422229766845703e+01 -3.071187973022460938e+01 1.419400095939636230e+00 2.293151855468750000e+00 1.113765597343444824e+00 8.044689297676086426e-01
3.008000000000000000e+03 6.456826019287109375e+01 2.246779823303222656e+01 -5.657433271408081055e-01 4.014827251434326172e+00 1.034725189208984375e+00 2.366703748703002930e+00
3.009000000000000000e+03 6.558007812500000000e+01 2.583995437622070312e+01 2.105301380157470703e+00 4.837969303131103516e+00 2.082981348037719727e+00 1.127178549766540527e+00
3.010000000000000000e+03 6.636579895019531250e+01 2.426028823852539062e+01 1.301526308059692383e+00 3.228395462036132812e+00 1.358976483345031738e+00 5.779087543487548828e-01
3.011000000000000000e+03 4.341134643554687500e+01 -2.360985374450683594e+01 2.644989967346191406e+00 4.126924991607666016e+00 2.031574487686157227e+00 5.358691811561584473e-01
3.012000000000000000e+03 4.100860977172851562e+01 1.715289497375488281e+01 1.816296219825744629e+00 3.823916196823120117e+00 1.692063689231872559e+00 -6.635062098503112793e-01
3.013000000000000000e+03 7.419651794433593750e+01 1.233458042144775391e+01 1.305328130722045898e+00 9.150742530822753906e+00 3.136821031570434570e+00 -1.281624883413314819e-01
3.014000000000000000e+03 7.047177124023437500e+01 3.069111633300781250e+01 8.137581944465637207e-01 5.212850570678710938e+00 1.807982683181762695e+00 4.991135895252227783e-01
3.015000000000000000e+03 6.769578552246093750e+01 2.946294593811035156e+01 1.420281052589416504e+00 5.009844779968261719e+00 1.929037809371948242e+00 8.748171329498291016e-01
3.016000000000000000e+03 3.242464065551757812e+01 3.139319038391113281e+01 2.610305547714233398e-01 5.759691238403320312e+00 1.806216478347778320e+00 -1.543759584426879883e+00
3.017000000000000000e+03 7.399630069732666016e+00 1.666359138488769531e+01 -5.098801851272583008e-01 2.646727800369262695e+00 6.410542726516723633e-01 -9.626297354698181152e-01
3.018000000000000000e+03 2.809214782714843750e+01 -4.113439941406250000e+01 -1.817146539688110352e+00 4.973684787750244141e+00 9.469614028930664062e-01 -3.015559315681457520e-01
3.019000000000000000e+03 7.645061016082763672e+00 4.110248565673828125e+01 2.849361002445220947e-01 6.070686578750610352e-01 2.676014304161071777e-01 9.514410793781280518e-02
3.020000000000000000e+03 5.790512084960937500e+01 -1.769787979125976562e+01 1.275319576263427734e+00 6.466427326202392578e+00 2.322524070739746094e+00 -1.958156079053878784e-01
3.021000000000000000e+03 6.007891845703125000e+01 -1.912894821166992188e+01 1.925190448760986328e+00 5.784734725952148438e+00 2.312977552413940430e+00 -3.404722511768341064e-01
3.022000000000000000e+03 9.864420890808105469e+00 -2.874543952941894531e+01 8.938091993331909180e-01 1.685910105705261230e+00 7.739157676696777344e-01 6.243714094161987305e-01
3.023000000000000000e+03 6.616416931152343750e+00 -3.185321235656738281e+01 8.736544847488403320e-01 1.888687729835510254e+00 8.287026882171630859e-01 3.067409992218017578e-01
3.024000000000000000e+03 5.741242599487304688e+01 2.213916778564453125e+01 -1.147895097732543945e+00 1.553511500358581543e+00 1.216849386692047119e-01 -1.810951590538024902e+00
3.025000000000000000e+03 2.804580688476562500e+01 -3.655462646484375000e+01 1.397012025117874146e-01 4.912146568298339844e+00 1.515554308891296387e+00 -8.735463023185729980e-01
3.026000000000000000e+03 3.101789855957031250e+01 -3.197724723815917969e+01 4.149460792541503906e-01 2.797262907028198242e+00 9.636627435684204102e-01 -9.637721180915832520e-01
3.027000000000000000e+03 2.847371292114257812e+01 -3.859716415405273438e+01 -8.412219285964965820e-01 4.701718330383300781e+00 1.158148884773254395e+00 -7.712977528572082520e-01
3.028000000000000000e+03 1.501145076751708984e+01 -2.204663753509521484e+00 1.383456122130155563e-02 7.924896240234375000e+00 2.381619215011596680e+00 2.285266399383544922e+00
3.029000000000000000e+03 1.380708122253417969e+01 -2.409731388092041016e+00 8.680329918861389160e-01 4.732850551605224609e+00 1.680265069007873535e+00 1.912188053131103516e+00
3.030000000000000000e+03 1.422696113586425781e+01 -3.385627508163452148e+00 1.172195792198181152e+00 5.860850334167480469e+00 2.109913825988769531e+00 1.593439579010009766e+00
3.031000000000000000e+03 1.241840934753417969e+01 -3.369517326354980469e+00 1.646681070327758789e+00 2.412979602813720703e+00 1.217898249626159668e+00 8.690095543861389160e-01
3.032000000000000000e+03 1.294737052917480469e+01 -3.049994945526123047e+00 1.463196992874145508e+00 3.205702066421508789e+00 1.400669693946838379e+00 1.199623703956604004e+00
3.033000000000000000e+03 1.347020816802978516e+01 -3.993538856506347656e+00 1.818471550941467285e+00 4.453955173492431641e+00 1.881728053092956543e+00 1.112800359725952148e+00
3.034000000000000000e+03 1.060063743591308594e+01 4.098451137542724609e+00 5.003006458282470703e-01 1.215893268585205078e+00 5.148581862449645996e-01 -1.615455389022827148e+00
3.035000000000000000e+03 1.169595718383789062e+01 5.128461360931396484e+00 4.153951108455657959e-01 2.139391422271728516e+00 7.664359211921691895e-01 -2.640793561935424805e+00
3.036000000000000000e+03 7.028465747833251953e+00 -8.041979789733886719e+00 6.666437983512878418e-01 7.394771575927734375e-01 4.218362867832183838e-01 1.192251443862915039e+00
3.037000000000000000e+03 7.316621303558349609e+00 -5.505920410156250000e+00 9.905706048011779785e-01 8.131647109985351562e-02 3.215661346912384033e-01 4.775484502315521240e-01
3.038000000000000000e+03 5.841323852539062500e+00 -5.590327262878417969e+00 5.416501164436340332e-01 9.967987984418869019e-02 1.923989951610565186e-01 2.162698656320571899e-01
3.039000000000000000e+03 4.968838691711425781e+00 8.403695106506347656e+00 7.800404429435729980e-01 6.849390268325805664e-01 4.394938349723815918e-01 1.633353233337402344e-01
3.040000000000000000e+03 6.757339954376220703e+00 4.801578521728515625e+00 1.536657512187957764e-01 9.739440083503723145e-01 3.382829129695892334e-01 2.491689771413803101e-01
3.041000000000000000e+03 6.983804225921630859e+00 5.940717697143554688e+00 4.484935700893402100e-01 1.379861474037170410e+00 5.485064983367919922e-01 1.370584964752197266e-01
3.042000000000000000e+03 4.367678642272949219e+00 5.986512660980224609e+00 2.912506759166717529e-01 1.725464463233947754e-01 1.391391307115554810e-01 6.057835817337036133e-01
3.043000000000000000e+03 7.680494308471679688e+00 4.576063632965087891e+00 9.472405165433883667e-02 1.143961548805236816e+00 3.716056644916534424e-01 -4.945321381092071533e-02
3.044000000000000000e+03 6.543792724609375000e+00 6.751886844635009766e+00 6.228966116905212402e-01 1.360352993011474609e+00 5.949748754501342773e-01 2.280024290084838867e-01
3.045000000000000000e+03 8.279555320739746094e+00 4.855158329010009766e+00 1.805620938539505005e-01 1.499965906143188477e+00 5.041583776473999023e-01 -3.418693840503692627e-01
3.046000000000000000e+03 1.238777160644531250e+01 -7.380537986755371094e+00 2.670377492904663086e+00 2.243272066116333008e+00 1.474094867706298828e+00 1.278855085372924805e+00
3.047000000000000000e+03 1.058338069915771484e+01 -4.735734939575195312e+00 1.984780073165893555e+00 7.691062688827514648e-01 8.261659145355224609e-01 6.817407011985778809e-01
3.048000000000000000e+03 1.414594078063964844e+01 -3.979174375534057617e+00 1.392653822898864746e+00 6.098353385925292969e+00 2.247302293777465820e+00 1.384308099746704102e+00
3.049000000000000000e+03 5.146996307373046875e+01 -3.097808837890625000e+01 2.992394447326660156e+00 6.353991031646728516e+00 2.803915500640869141e+00 -6.127366423606872559e-01
3.050000000000000000e+03 6.152026367187500000e+01 2.388929605484008789e+00 -1.352157354354858398e+00 5.550405502319335938e+00 1.259474515914916992e+00 -1.990031242370605469e+00
3.051000000000000000e+03 1.545578193664550781e+01 -3.127025365829467773e+00 4.020673036575317383e-01 9.031366348266601562e+00 2.830030202865600586e+00 1.592843294143676758e+00
3.052000000000000000e+03 1.886017417907714844e+01 3.132094621658325195e+00 3.060722589492797852e+00 4.527081489562988281e+00 2.276341199874877930e+00 4.633080959320068359e+00
3.053000000000000000e+03 1.347262763977050781e+01 -5.267147064208984375e+00 2.496689319610595703e+00 4.542056560516357422e+00 2.111623764038085938e+00 7.296190857887268066e-01
3.054000000000000000e+03 4.842035293579101562e+01 3.210987746715545654e-01 4.116293787956237793e-01 4.253642559051513672e+00 1.399581551551818848e+00 -1.623926639556884766e+00
3.055000000000000000e+03 1.251967334747314453e+01 -6.608817577362060547e+00 2.835484743118286133e+00 2.595399379730224609e+00 1.629265189170837402e+00 1.009890198707580566e+00
3.056000000000000000e+03 1.348771095275878906e+01 4.954963207244873047e+00 4.671944081783294678e-01 1.388782262802124023e+00 5.567930340766906738e-01 -3.972509860992431641e+00
3.057000000000000000e+03 4.458591842651367188e+01 4.510817229747772217e-01 6.619764566421508789e-01 3.548552513122558594e+00 1.263158679008483887e+00 -2.329401016235351562e+00
3.058000000000000000e+03 4.878574752807617188e+01 1.296220421791076660e+00 2.669893503189086914e-01 3.824258327484130859e+00 1.227374315261840820e+00 -1.345940589904785156e+00
3.059000000000000000e+03 2.836616134643554688e+01 -2.854438972473144531e+01 -1.518331885337829590e+00 5.671397209167480469e+00 1.245919585227966309e+00 -3.035264909267425537e-01
3.060000000000000000e+03 6.254820251464843750e+01 7.283445000648498535e-01 -7.396817207336425781e-01 6.068836688995361328e+00 1.598746418952941895e+00 -8.360263109207153320e-01
3.061000000000000000e+03 6.425795745849609375e+01 8.449390530586242676e-01 -3.500553667545318604e-01 5.234507560729980469e+00 1.465335607528686523e+00 2.111602574586868286e-01
3.062000000000000000e+03 7.577594757080078125e+01 -2.631843376159667969e+01 -7.580494880676269531e-01 8.413184165954589844e+00 2.296540260314941406e+00 -4.271061718463897705e-02
3.063000000000000000e+03 2.260627937316894531e+01 3.143297433853149414e+00 2.177799940109252930e+00 1.866072535514831543e+00 1.213161826133728027e+00 1.427815437316894531e+00
3.064000000000000000e+03 7.595708370208740234e+00 7.251911640167236328e+00 8.912790417671203613e-01 2.161443710327148438e+00 9.158167839050292969e-01 -1.587943732738494873e-01
3.065000000000000000e+03 7.090418243408203125e+01 -3.037127685546875000e+01 1.816409707069396973e+00 3.689069032669067383e+00 1.651643633842468262e+00 1.340016722679138184e-01
3.066000000000000000e+03 4.257901000976562500e+01 1.368616461753845215e+00 8.209501504898071289e-01 4.364514350891113281e+00 1.555639266967773438e+00 -1.313043355941772461e+00
3.067000000000000000e+03 2.644504928588867188e+01 7.433242797851562500e+00 3.030882358551025391e+00 4.938842773437500000e+00 2.390917539596557617e+00 -6.405022740364074707e-02
3.068000000000000000e+03 2.469643974304199219e+01 5.680822849273681641e+00 2.331116199493408203e+00 3.804449319839477539e+00 1.840669631958007812e+00 3.197604119777679443e-01
3.069000000000000000e+03 2.380377197265625000e+01 3.596824407577514648e+00 1.741904020309448242e+00 2.292012453079223633e+00 1.210174918174743652e+00 6.651448011398315430e-01
3.070000000000000000e+03 2.515161323547363281e+01 3.684662342071533203e+00 1.688943743705749512e+00 3.340097427368164062e+00 1.508712291717529297e+00 -8.768624812364578247e-02
3.071000000000000000e+03 2.229344749450683594e+01 5.087079524993896484e+00 1.749632954597473145e+00 3.354153633117675781e+00 1.531136035919189453e+00 2.002608776092529297e+00
3.072000000000000000e+03 7.303334808349609375e+01 2.237988471984863281e+01 -7.951061129570007324e-01 6.171877861022949219e+00 1.613031625747680664e+00 -8.831133842468261719e-01
3.073000000000000000e+03 3.926310729980468750e+01 1.763920783996582031e+01 2.209309816360473633e+00 2.491249799728393555e+00 1.410167813301086426e+00 -1.418861865997314453e+00
3.074000000000000000e+03 3.805504989624023438e+01 1.694604301452636719e+01 2.383440494537353516e+00 2.514910936355590820e+00 1.469505429267883301e+00 -1.818194985389709473e+00
3.075000000000000000e+03 5.630321502685546875e+01 1.917063713073730469e+01 4.598838686943054199e-01 4.419077873229980469e+00 1.463688611984252930e+00 -1.616253376007080078e+00
3.076000000000000000e+03 5.001285934448242188e+01 -8.344924926757812500e+00 2.127702236175537109e+00 7.757490158081054688e+00 2.965557813644409180e+00 3.388040065765380859e-01
3.077000000000000000e+03 1.263506889343261719e+01 -5.161554813385009766e+00 2.516992568969726562e+00 2.986792087554931641e+00 1.651135325431823730e+00 9.493062496185302734e-01
3.078000000000000000e+03 4.655431747436523438e+01 3.028195142745971680e+00 4.659935534000396729e-01 3.197018623352050781e+00 1.098903656005859375e+00 -2.009645938873291016e+00
3.079000000000000000e+03 4.724757194519042969e+00 -7.642249584197998047e+00 1.793948709964752197e-01 5.169232487678527832e-01 2.088954448699951172e-01 3.318453729152679443e-01
3.080000000000000000e+03 6.154210281372070312e+01 -1.274452495574951172e+01 -1.539710164070129395e+00 6.792948722839355469e+00 1.575971484184265137e+00 1.266876220703125000e+00
3.081000000000000000e+03 4.390748596191406250e+01 1.833958506584167480e+00 9.450237751007080078e-01 4.115310192108154297e+00 1.518100261688232422e+00 -1.940807938575744629e+00
3.082000000000000000e+03 7.254804992675781250e+01 -3.291577529907226562e+01 9.588662981986999512e-01 5.361457824707031250e+00 1.896097183227539062e+00 -2.249743640422821045e-01
3.083000000000000000e+03 2.657278251647949219e+01 -2.417013931274414062e+01 7.939630746841430664e-01 6.242548465728759766e+00 2.110953330993652344e+00 1.853358298540115356e-01
3.084000000000000000e+03 2.551256179809570312e+01 -2.373740386962890625e+01 1.122477769851684570e+00 4.809117317199707031e+00 1.779478549957275391e+00 -6.986560672521591187e-02
3.085000000000000000e+03 3.980864715576171875e+01 -1.512722015380859375e+01 -2.774153232574462891e+00 4.868700504302978516e+00 6.283642053604125977e-01 -2.378730058670043945e+00
3.086000000000000000e+03 3.198405265808105469e+01 -3.177340030670166016e+00 2.138561487197875977e+00 5.172931194305419922e+00 2.193447828292846680e+00 -1.208347439765930176e+00
3.087000000000000000e+03 7.256864929199218750e+01 2.549815893173217773e+00 -4.165921732783317566e-02 4.151064395904541016e+00 1.232821583747863770e+00 3.167197108268737793e-02
3.088000000000000000e+03 7.017406463623046875e+01 -3.154654693603515625e+01 1.981393694877624512e+00 4.401949405670166016e+00 1.915002942085266113e+00 -8.291570544242858887e-01
3.089000000000000000e+03 7.360739898681640625e+01 2.143247795104980469e+01 -9.189267158508300781e-01 6.616608619689941406e+00 1.709304451942443848e+00 -4.993082582950592041e-01
3.090000000000000000e+03 7.463585662841796875e+01 2.411812019348144531e+01 -2.636287808418273926e-01 6.352186203002929688e+00 1.826567173004150391e+00 -5.619619488716125488e-01
3.091000000000000000e+03 7.351166534423828125e+01 2.561522102355957031e+01 1.276972442865371704e-01 5.731601238250732422e+00 1.757789492607116699e+00 -5.903802514076232910e-01
3.092000000000000000e+03 7.405079650878906250e+01 2.489511489868164062e+01 2.265602350234985352e-03 6.056917190551757812e+00 1.817754864692687988e+00 -5.419599413871765137e-01
3.093000000000000000e+03 2.861942863464355469e+01 -3.061387062072753906e+01 -4.446647167205810547e-01 4.845614433288574219e+00 1.320284843444824219e+00 -6.048471927642822266e-01
3.094000000000000000e+03 7.100127410888671875e+01 2.538805961608886719e+01 6.270391941070556641e-01 4.718843936920166016e+00 1.603764891624450684e+00 -7.896730303764343262e-01
3.095000000000000000e+03 7.164873504638671875e+01 2.737538909912109375e+01 8.151717782020568848e-01 5.072678565979003906e+00 1.766355037689208984e+00 -3.287140130996704102e-01
3.096000000000000000e+03 7.496585845947265625e+01 5.804653644561767578e+00 -2.676137089729309082e-01 6.997475147247314453e+00 2.018958568572998047e+00 -8.620525002479553223e-01
3.097000000000000000e+03 7.349794006347656250e+01 3.865617036819458008e+00 -2.796943485736846924e-01 5.499137878417968750e+00 1.565833091735839844e+00 -1.426859498023986816e-01
3.098000000000000000e+03 4.919467926025390625e+01 2.238701820373535156e+01 1.110902667045593262e+00 4.292953014373779297e+00 1.621156692504882812e+00 -9.088714420795440674e-02
3.099000000000000000e+03 5.152951431274414062e+01 2.219215202331542969e+01 1.176990121603012085e-01 4.361704349517822266e+00 1.343821048736572266e+00 -1.469229221343994141e+00
3.100000000000000000e+03 2.304382324218750000e+01 5.944435119628906250e+00 1.794960379600524902e+00 4.240469455718994141e+00 1.810629010200500488e+00 9.868406057357788086e-01
3.101000000000000000e+03 2.327634620666503906e+01 7.551841259002685547e+00 2.119306325912475586e+00 4.656674861907958984e+00 2.032794237136840820e+00 2.037487030029296875e-01
3.102000000000000000e+03 6.890612030029296875e+01 2.360563850402832031e+01 3.975605666637420654e-01 3.328769207000732422e+00 1.117898941040039062e+00 -1.075080275535583496e+00
3.103000000000000000e+03 2.176843070983886719e+01 -2.312377929687500000e+01 1.216473937034606934e+00 1.310588359832763672e+00 7.581186890602111816e-01 -1.090504527091979980e+00
3.104000000000000000e+03 2.012543296813964844e+01 -2.276585388183593750e+01 1.261747479438781738e+00 1.231879115104675293e+00 7.480879426002502441e-01 -6.371414065361022949e-01
3.105000000000000000e+03 6.501842021942138672e+00 -2.815951538085937500e+01 3.629200160503387451e-01 1.241709351539611816e+00 4.813888072967529297e-01 -2.871957421302795410e-01
3.106000000000000000e+03 8.287348747253417969e+00 -3.112587928771972656e+01 1.164882063865661621e+00 1.812120079994201660e+00 8.931006193161010742e-01 5.057286024093627930e-01
3.107000000000000000e+03 6.448226165771484375e+01 3.680937767028808594e+00 -7.403143644332885742e-01 3.228713035583496094e+00 7.465196251869201660e-01 -4.070218801498413086e-01
3.108000000000000000e+03 6.058218765258789062e+01 -2.356304359436035156e+01 2.332569837570190430e+00 3.311729669570922852e+00 1.693289875984191895e+00 -4.386504888534545898e-01
3.109000000000000000e+03 6.197052764892578125e+01 -2.262393188476562500e+01 3.103553533554077148e+00 4.869223117828369141e+00 2.391833066940307617e+00 -1.526751160621643066e+00
3.110000000000000000e+03 4.335047531127929688e+01 5.814096450805664062e+00 8.547877669334411621e-01 5.895856857299804688e+00 2.025193452835083008e+00 -2.804362773895263672e-01
3.111000000000000000e+03 2.643620681762695312e+01 1.044809913635253906e+01 3.079940319061279297e+00 3.566946983337402344e+00 1.994066238403320312e+00 -4.252250120043754578e-02
3.112000000000000000e+03 2.554194259643554688e+01 1.135321521759033203e+01 2.337668418884277344e+00 2.865286827087402344e+00 1.560886621475219727e+00 -7.022435069084167480e-01
3.113000000000000000e+03 5.643393516540527344e+00 1.713134002685546875e+01 -4.685715138912200928e-01 2.046784162521362305e+00 4.734638333320617676e-01 -1.026329278945922852e+00
3.114000000000000000e+03 5.967498397827148438e+01 -1.990292167663574219e+01 2.545102119445800781e+00 5.411246299743652344e+00 2.386904478073120117e+00 -3.093871772289276123e-01
3.115000000000000000e+03 5.697506904602050781e+00 -8.961057662963867188e+00 9.364721179008483887e-02 1.149009823799133301e+00 3.727971017360687256e-01 8.395468592643737793e-01
3.116000000000000000e+03 1.037308311462402344e+01 -7.753907680511474609e+00 2.139133214950561523e+00 8.746598958969116211e-01 9.041379094123840332e-01 1.704638719558715820e+00
3.117000000000000000e+03 2.305002593994140625e+01 -2.071245956420898438e+01 2.304079055786132812e+00 1.511033415794372559e+00 1.144533753395080566e+00 -1.019489288330078125e+00
3.118000000000000000e+03 3.595268630981445312e+01 1.528488063812255859e+01 1.568760633468627930e+00 2.293457269668579102e+00 1.158665299415588379e+00 -1.716939210891723633e+00
3.119000000000000000e+03 6.077399063110351562e+01 5.386957168579101562e+00 -9.046339988708496094e-01 5.156571865081787109e+00 1.275581479072570801e+00 -2.021108150482177734e+00
3.120000000000000000e+03 5.944410705566406250e+01 4.788879394531250000e+00 -8.071929812431335449e-01 5.144596576690673828e+00 1.301221013069152832e+00 -1.842269420623779297e+00
3.121000000000000000e+03 7.231259918212890625e+01 3.388031387329101562e+01 1.620416045188903809e-01 5.825480937957763672e+00 1.796256780624389648e+00 4.282821118831634521e-01
3.122000000000000000e+03 6.907297515869140625e+01 3.425589752197265625e+01 -8.392797783017158508e-03 5.494159221649169922e+00 1.645730018615722656e+00 6.039109230041503906e-01
3.123000000000000000e+03 3.326401138305664062e+01 -4.175030708312988281e+00 2.368449687957763672e+00 4.961297035217285156e+00 2.198924064636230469e+00 -5.754134058952331543e-01
3.124000000000000000e+03 2.361521339416503906e+01 9.167488098144531250e+00 2.517436981201171875e+00 4.702669620513916016e+00 2.166031837463378906e+00 -6.803843975067138672e-01
3.125000000000000000e+03 7.204940795898437500e+01 3.217311096191406250e+01 4.268760681152343750e-01 5.627290725708007812e+00 1.816249966621398926e+00 4.151633381843566895e-01
3.126000000000000000e+03 4.946281433105468750e+01 2.652722358703613281e+01 2.440058231353759766e+00 6.387752532958984375e+00 2.648343086242675781e+00 1.073375582695007324e+00
3.127000000000000000e+03 6.911906719207763672e+00 9.331375122070312500e+00 1.385791301727294922e+00 2.130246400833129883e+00 1.054811358451843262e+00 -2.912577390670776367e-01
3.128000000000000000e+03 5.544561862945556641e+00 9.824218750000000000e+00 1.065262556076049805e+00 1.213882088661193848e+00 6.837434172630310059e-01 -1.943321228027343750e-01
3.129000000000000000e+03 7.142211151123046875e+01 5.356013298034667969e+00 -2.776416838169097900e-01 4.751409530639648438e+00 1.342130422592163086e+00 1.068993449211120605e+00
3.130000000000000000e+03 7.014640808105468750e+01 3.470177412033081055e+00 2.650719881057739258e-01 2.690548896789550781e+00 8.866862654685974121e-01 1.561471462249755859e+00
3.131000000000000000e+03 3.876512527465820312e+01 1.563912773132324219e+01 1.869673609733581543e+00 2.990070343017578125e+00 1.457923173904418945e+00 -1.771050095558166504e+00
3.132000000000000000e+03 7.701293945312500000e+00 1.838617324829101562e+01 -8.117735385894775391e-01 2.383200407028198242e+00 4.714280664920806885e-01 -9.005753993988037109e-01
3.133000000000000000e+03 5.877424240112304688e+00 -7.745676994323730469e+00 3.219415843486785889e-01 6.784130334854125977e-01 3.001063764095306396e-01 7.807896137237548828e-01
3.134000000000000000e+03 7.280801391601562500e+01 2.070129585266113281e+01 -1.205513119697570801e+00 6.536437988281250000e+00 1.599277496337890625e+00 -7.626416087150573730e-01
3.135000000000000000e+03 2.988653564453125000e+01 -3.116366958618164062e+01 -2.169935107231140137e-01 3.985745429992675781e+00 1.130625486373901367e+00 -9.664220213890075684e-01
3.136000000000000000e+03 7.162486267089843750e+01 2.426363945007324219e+01 -6.091268733143806458e-02 5.049933433532714844e+00 1.496706247329711914e+00 -1.030878782272338867e+00
3.137000000000000000e+03 1.148211383819580078e+01 -9.183114051818847656e+00 1.806443452835083008e+00 9.837530255317687988e-01 8.370589613914489746e-01 1.957342147827148438e+00
3.138000000000000000e+03 3.458752822875976562e+01 3.289013671875000000e+01 -7.177819609642028809e-01 6.519089698791503906e+00 1.740392327308654785e+00 -6.809128820896148682e-02
3.139000000000000000e+03 3.292772293090820312e+01 3.233209228515625000e+01 -2.633775472640991211e-01 6.077690601348876953e+00 1.744293928146362305e+00 -1.167335748672485352e+00
3.140000000000000000e+03 4.439225769042968750e+01 5.021256446838378906e+00 5.798327326774597168e-01 4.880167961120605469e+00 1.638000130653381348e+00 -1.073574304580688477e+00
3.141000000000000000e+03 2.334759712219238281e+01 -1.734955024719238281e+01 1.051885604858398438e+00 7.935213446617126465e-01 5.536220669746398926e-01 -8.057470321655273438e-01
3.142000000000000000e+03 2.339592170715332031e+01 -1.829934120178222656e+01 1.649668335914611816e+00 1.232243061065673828e+00 8.645734190940856934e-01 -7.233924865722656250e-01
3.143000000000000000e+03 2.914087867736816406e+01 -3.336644744873046875e+01 5.791852474212646484e-01 4.011647224426269531e+00 1.377249717712402344e+00 -7.004971504211425781e-01
3.144000000000000000e+03 8.185629844665527344e+00 -1.103850269317626953e+01 -4.549668729305267334e-01 1.897348999977111816e+00 4.327146410942077637e-01 2.430290937423706055e+00
3.145000000000000000e+03 2.569040298461914062e+01 -1.632981491088867188e+01 -6.865057945251464844e-01 2.590528249740600586e+00 5.712067484855651855e-01 5.953921675682067871e-01
3.146000000000000000e+03 2.527153587341308594e+01 -2.111743927001953125e+01 2.332584857940673828e+00 3.600260734558105469e+00 1.779853701591491699e+00 -2.826984822750091553e-01
3.147000000000000000e+03 7.136882781982421875e+01 -3.222673416137695312e+01 1.657036542892456055e+00 4.794463157653808594e+00 1.935449838638305664e+00 -3.899099528789520264e-01
3.148000000000000000e+03 7.229433441162109375e+01 2.327473831176757812e+01 -4.016271531581878662e-01 5.572212219238281250e+00 1.551175594329833984e+00 -9.693139791488647461e-01
3.149000000000000000e+03 2.673002624511718750e+01 3.387513351440429688e+01 4.143643379211425781e-01 2.854623317718505859e+00 9.806963205337524414e-01 -7.684252411127090454e-02
3.150000000000000000e+03 3.220395278930664062e+01 3.579384231567382812e+01 -1.157662749290466309e+00 4.847063064575195312e+00 1.106820106506347656e+00 -6.036755442619323730e-01
3.151000000000000000e+03 6.549201202392578125e+01 2.276220512390136719e+01 2.728278338909149170e-01 2.960551500320434570e+00 9.700137972831726074e-01 1.551711320877075195e+00
3.152000000000000000e+03 2.009897422790527344e+01 -2.059596824645996094e+01 2.122259378433227539e+00 1.678188443183898926e+00 1.140134334564208984e+00 -1.067943930625915527e+00
3.153000000000000000e+03 2.114133262634277344e+01 -2.068967819213867188e+01 2.298979043960571289e+00 1.374412655830383301e+00 1.102017521858215332e+00 -1.190570950508117676e+00
3.154000000000000000e+03 5.863719177246093750e+01 6.122895240783691406e+00 -1.441096961498260498e-01 5.775074481964111328e+00 1.689289450645446777e+00 -1.128535270690917969e+00
3.155000000000000000e+03 2.236736297607421875e+01 -1.756483268737792969e+01 1.295104026794433594e+00 5.686129927635192871e-01 5.591151118278503418e-01 -9.076013565063476562e-01
3.156000000000000000e+03 1.085007476806640625e+01 -2.942090034484863281e+01 1.142399907112121582e+00 2.281941652297973633e+00 1.027302384376525879e+00 9.285729527473449707e-01
3.157000000000000000e+03 6.763001251220703125e+01 3.229732131958007812e+01 5.417773127555847168e-01 5.320323944091796875e+00 1.758630394935607910e+00 7.961834073066711426e-01
3.158000000000000000e+03 7.158263397216796875e+01 2.889626312255859375e+01 8.303000330924987793e-01 5.146659374237060547e+00 1.793087720870971680e+00 2.059251815080642700e-02
3.159000000000000000e+03 1.292640590667724609e+01 -9.695599555969238281e+00 1.664885520935058594e+00 2.087573766708374023e+00 1.125737786293029785e+00 1.319496512413024902e+00
3.160000000000000000e+03 1.370558834075927734e+01 -9.186654090881347656e+00 1.833744287490844727e+00 3.179756164550781250e+00 1.504050135612487793e+00 8.511625528335571289e-01
3.161000000000000000e+03 6.253052902221679688e+01 -1.644070625305175781e+01 -7.907438278198242188e-01 6.673169612884521484e+00 1.764727830886840820e+00 8.227231353521347046e-02
3.162000000000000000e+03 6.064928436279296875e+01 -1.288311958312988281e+01 -9.416178464889526367e-01 5.898070335388183594e+00 1.486935734748840332e+00 1.364606976509094238e+00
3.163000000000000000e+03 6.184664154052734375e+01 -1.387664699554443359e+01 -1.300798773765563965e+00 6.552280902862548828e+00 1.575444698333740234e+00 9.941164851188659668e-01
3.164000000000000000e+03 5.991975402832031250e+01 -1.744012832641601562e+01 7.899250984191894531e-01 6.185986042022705078e+00 2.092773199081420898e+00 -3.696788847446441650e-02
3.165000000000000000e+03 5.867433929443359375e+01 -1.657261466979980469e+01 4.447244405746459961e-01 5.979082107543945312e+00 1.927141904830932617e+00 6.079357862472534180e-02
3.166000000000000000e+03 1.141579914093017578e+01 3.818043899536132812e+01 -1.964275985956192017e-01 1.232430076925083995e-04 -5.889130756258964539e-02 -3.437727987766265869e-01
3.167000000000000000e+03 7.926781177520751953e+00 9.856185913085937500e+00 1.714927434921264648e+00 3.404274463653564453e+00 1.535760641098022461e+00 -7.108888626098632812e-01
3.168000000000000000e+03 5.278651809692382812e+01 2.093160820007324219e+01 -6.249594092369079590e-01 4.442248821258544922e+00 1.145186781883239746e+00 -2.324242830276489258e+00
3.169000000000000000e+03 1.904631805419921875e+01 3.976853609085083008e+00 1.948737859725952148e+00 4.626611232757568359e+00 1.972604751586914062e+00 4.553076267242431641e+00
3.170000000000000000e+03 7.714197158813476562e+00 -2.706516265869140625e+01 2.110818959772586823e-02 7.553412914276123047e-01 2.329348474740982056e-01 -1.369064003229141235e-01
3.171000000000000000e+03 7.520748138427734375e+00 -2.865794181823730469e+01 6.650512218475341797e-01 1.191418051719665527e+00 5.569407939910888672e-01 -5.745673552155494690e-02
3.172000000000000000e+03 2.785086250305175781e+01 7.308401584625244141e+00 2.905119657516479492e+00 6.629899978637695312e+00 2.860505819320678711e+00 -1.520186662673950195e-01
3.173000000000000000e+03 4.785401916503906250e+01 3.546975326538085938e+01 -1.161146163940429688e+00 5.310791492462158203e+00 1.244893550872802734e+00 -6.080386042594909668e-01
3.174000000000000000e+03 4.914270401000976562e+01 2.389783859252929688e+01 1.786496877670288086e+00 5.384569168090820312e+00 2.151319980621337891e+00 2.076697498559951782e-01
3.175000000000000000e+03 2.450810623168945312e+01 1.323098945617675781e+01 4.214543402194976807e-01 2.981408834457397461e+00 1.020859003067016602e+00 -1.339457869529724121e+00
3.176000000000000000e+03 7.341776275634765625e+01 6.298769474029541016e+00 -4.122470021247863770e-01 6.794690132141113281e+00 1.914732933044433594e+00 -1.821095794439315796e-01
3.177000000000000000e+03 3.074575614929199219e+01 3.861906051635742188e+01 -1.141479372978210449e+00 4.228943347930908203e+00 9.262392520904541016e-01 -2.438987791538238525e-01
3.178000000000000000e+03 3.467645645141601562e+01 3.622135162353515625e+01 -1.733453989028930664e+00 4.722087383270263672e+00 8.965899944305419922e-01 2.923947572708129883e-01
3.179000000000000000e+03 2.539044952392578125e+01 3.591958618164062500e+01 -2.823540866374969482e-01 3.610698461532592773e+00 9.985032677650451660e-01 2.406466454267501831e-01
3.180000000000000000e+03 2.384665679931640625e+01 3.322526550292968750e+01 3.767248392105102539e-01 3.767643213272094727e+00 1.243310451507568359e+00 8.941926360130310059e-01
3.181000000000000000e+03 6.150985336303710938e+01 3.487101078033447266e+00 -1.276965022087097168e+00 4.908870220184326172e+00 1.089571595191955566e+00 -1.971047163009643555e+00
3.182000000000000000e+03 6.326892471313476562e+01 4.230060577392578125e+00 -8.749728202819824219e-01 3.661466360092163086e+00 8.359481096267700195e-01 -1.385402321815490723e+00
3.183000000000000000e+03 5.762875366210937500e+01 1.706015586853027344e+01 1.623074889183044434e+00 6.129958152770996094e+00 2.325909852981567383e+00 -2.288676984608173370e-02
3.184000000000000000e+03 6.760773181915283203e+00 -2.703340721130371094e+01 5.455373972654342651e-02 9.613661766052246094e-01 3.047759830951690674e-01 -3.512725830078125000e-01
3.185000000000000000e+03 5.510233688354492188e+01 3.973454284667968750e+01 -1.172542929649353027e+00 3.786714553833007812e+00 7.842515110969543457e-01 6.684148907661437988e-01
3.186000000000000000e+03 5.098596954345703125e+01 3.811964416503906250e+01 -1.632935762405395508e+00 5.341367244720458984e+00 1.112529397010803223e+00 1.919364482164382935e-01
3.187000000000000000e+03 6.244308853149414062e+01 2.187663555145263672e+00 -1.008628368377685547e+00 5.218674182891845703e+00 1.263013839721679688e+00 -1.291228532791137695e+00
3.188000000000000000e+03 5.028989410400390625e+01 2.211963081359863281e+01 5.608092546463012695e-01 4.323964118957519531e+00 1.465432047843933105e+00 -8.757143616676330566e-01
3.189000000000000000e+03 5.270282745361328125e+01 2.312545013427734375e+01 -1.086771786212921143e-01 4.998562335968017578e+00 1.466965556144714355e+00 -1.647217273712158203e+00
3.190000000000000000e+03 2.243860244750976562e+01 -1.852529907226562500e+01 1.860909342765808105e+00 7.562783956527709961e-01 7.851563096046447754e-01 -1.165232658386230469e+00
3.191000000000000000e+03 5.850158691406250000e+01 -1.267189693450927734e+01 -4.053889811038970947e-01 3.605004787445068359e+00 9.598847031593322754e-01 5.159096717834472656e-01
3.192000000000000000e+03 3.470081710815429688e+01 -3.581478881835937500e+01 5.942806601524353027e-01 3.497715473175048828e+00 1.227598786354064941e+00 1.047985672950744629e+00
3.193000000000000000e+03 3.664081954956054688e+01 -4.106619262695312500e+01 -1.632320404052734375e+00 3.740019083023071289e+00 6.323096156120300293e-01 1.228101775050163269e-01
3.194000000000000000e+03 2.132832527160644531e+01 -1.967495727539062500e+01 2.241719007492065430e+00 1.061156392097473145e+00 9.908626675605773926e-01 -1.274397015571594238e+00
3.195000000000000000e+03 3.146574401855468750e+01 -3.457688140869140625e+01 7.248719334602355957e-01 3.148564577102661133e+00 1.162030935287475586e+00 -4.096436202526092529e-01
3.196000000000000000e+03 1.340137481689453125e+01 -2.754804849624633789e+00 1.132198095321655273e+00 3.736941337585449219e+00 1.460741877555847168e+00 1.451629519462585449e+00
3.197000000000000000e+03 1.286459350585937500e+01 -3.860906600952148438e+00 1.900514483451843262e+00 3.242793798446655273e+00 1.542992472648620605e+00 9.625521302223205566e-01
3.198000000000000000e+03 1.329851722717285156e+01 -3.503854274749755859e+00 1.441339850425720215e+00 3.995776653289794922e+00 1.631134986877441406e+00 1.216519355773925781e+00
3.199000000000000000e+03 8.346171379089355469e+00 -7.360113620758056641e+00 1.316675901412963867e+00 5.205195546150207520e-01 5.511586070060729980e-01 1.318040013313293457e+00
3.200000000000000000e+03 7.864696502685546875e+00 -6.219458103179931641e+00 1.209752917289733887e+00 2.917105555534362793e-01 4.504390656948089600e-01 7.613198757171630859e-01
3.201000000000000000e+03 6.203424453735351562e+00 7.770602703094482422e+00 8.586928248405456543e-01 1.328141808509826660e+00 6.560503840446472168e-01 1.520727723836898804e-01
3.202000000000000000e+03 1.193885135650634766e+01 -4.337667465209960938e+00 2.128077983856201172e+00 2.005247592926025391e+00 1.239997744560241699e+00 8.020885586738586426e-01
3.203000000000000000e+03 1.257997989654541016e+01 -5.867972850799560547e+00 2.619997978210449219e+00 2.972392797470092773e+00 1.677717328071594238e+00 8.557030558586120605e-01
3.204000000000000000e+03 8.148561477661132812e+00 -8.390509605407714844e+00 8.801299333572387695e-01 7.491750121116638184e-01 4.887914657592773438e-01 1.721221566200256348e+00
3.205000000000000000e+03 1.185745620727539062e+01 -7.935116291046142578e+00 2.561772108078002930e+00 1.679803252220153809e+00 1.272472620010375977e+00 1.502203226089477539e+00
3.206000000000000000e+03 1.371892356872558594e+01 -3.178154706954956055e+00 1.290441989898681641e+00 4.737345218658447266e+00 1.808336257934570312e+00 1.533383846282958984e+00
3.207000000000000000e+03 1.483424663543701172e+01 -3.209574937820434570e+00 5.730813145637512207e-01 7.579213142395019531e+00 2.445688486099243164e+00 1.651073455810546875e+00
3.208000000000000000e+03 3.731622314453125000e+01 1.752095794677734375e+01 2.243653774261474609e+00 2.710091829299926758e+00 1.486123681068420410e+00 -1.809444427490234375e+00
3.209000000000000000e+03 5.915327835083007812e+01 -1.534335517883300781e+01 -2.812084555625915527e-01 5.907062530517578125e+00 1.687756180763244629e+00 2.201352268457412720e-01
3.210000000000000000e+03 1.072314262390136719e+01 -7.037083625793457031e+00 2.145407199859619141e+00 1.041948080062866211e+00 9.562066197395324707e-01 1.425029516220092773e+00
3.211000000000000000e+03 9.965074539184570312e+00 -5.646935939788818359e+00 1.938307404518127441e+00 5.304762721061706543e-01 7.406350970268249512e-01 8.811292052268981934e-01
3.212000000000000000e+03 2.559988784790039062e+01 6.626798629760742188e+00 2.530687093734741211e+00 4.319896697998046875e+00 2.055175065994262695e+00 1.537409797310829163e-02
3.213000000000000000e+03 2.047172164916992188e+01 -2.137656974792480469e+01 2.072561264038085938e+00 1.437827587127685547e+00 1.053116679191589355e+00 -9.556401968002319336e-01
3.214000000000000000e+03 2.281689834594726562e+01 -2.241752433776855469e+01 1.702130317687988281e+00 1.904902338981628418e+00 1.082109808921813965e+00 -9.827762842178344727e-01
3.215000000000000000e+03 1.952360343933105469e+01 -2.187733078002929688e+01 1.679306149482727051e+00 1.833590865135192871e+00 1.053869128227233887e+00 -7.315102815628051758e-01
3.216000000000000000e+03 1.912217330932617188e+01 -2.326536178588867188e+01 6.103897690773010254e-01 1.322155356407165527e+00 5.797635316848754883e-01 -2.753666043281555176e-02
3.217000000000000000e+03 1.158424282073974609e+01 -7.193950176239013672e+00 2.458643674850463867e+00 1.527462840080261230e+00 1.195832014083862305e+00 1.422223687171936035e+00
3.218000000000000000e+03 6.805886840820312500e+01 2.470396804809570312e+01 1.184424161911010742e+00 3.112287282943725586e+00 1.289013504981994629e+00 -3.574875295162200928e-01
3.219000000000000000e+03 6.063442230224609375e+01 -1.532611560821533203e+01 -5.887401700019836426e-01 6.271928787231445312e+00 1.704956650733947754e+00 5.252962112426757812e-01
3.220000000000000000e+03 1.168629455566406250e+01 -5.661035060882568359e+00 2.571599960327148438e+00 1.712172389030456543e+00 1.285131692886352539e+00 9.877295494079589844e-01
3.221000000000000000e+03 4.747359848022460938e+01 1.649186015129089355e+00 4.410649538040161133e-01 3.462041616439819336e+00 1.170931935310363770e+00 -1.994366526603698730e+00
3.222000000000000000e+03 4.732776641845703125e+01 6.637471318244934082e-01 4.939304888248443604e-01 3.749237537384033203e+00 1.272950410842895508e+00 -2.112727880477905273e+00
3.223000000000000000e+03 3.894993972778320312e+01 1.671982383728027344e+01 2.140031099319458008e+00 2.905750989913940430e+00 1.513734579086303711e+00 -1.796715140342712402e+00
3.224000000000000000e+03 1.268264198303222656e+01 -4.457437038421630859e+00 2.180170536041259766e+00 3.000161409378051758e+00 1.554099559783935547e+00 8.350390195846557617e-01
3.225000000000000000e+03 1.344347000122070312e+01 -4.593090057373046875e+00 2.127471685409545898e+00 4.707404613494873047e+00 2.050462961196899414e+00 9.827169179916381836e-01
3.226000000000000000e+03 4.412099838256835938e+01 3.624265670776367188e+00 1.009338259696960449e+00 4.642744064331054688e+00 1.695624709129333496e+00 -1.521827220916748047e+00
3.227000000000000000e+03 9.305738449096679688e+00 -9.613130569458007812e+00 6.482498049736022949e-01 8.659316301345825195e-01 4.542544484138488770e-01 2.505596876144409180e+00
3.228000000000000000e+03 3.211008071899414062e+01 -3.200805282592773438e+01 5.763500928878784180e-01 2.279215097427368164e+00 8.566695451736450195e-01 -9.009782075881958008e-01
3.229000000000000000e+03 7.128036499023437500e+01 2.921418666839599609e+00 1.345504373311996460e-01 3.175857543945312500e+00 9.931223988533020020e-01 8.894033432006835938e-01
3.230000000000000000e+03 7.295396423339843750e+01 2.886616897583007812e+01 5.766760706901550293e-01 5.563802719116210938e+00 1.842143654823303223e+00 -1.194294095039367676e-01
3.231000000000000000e+03 7.318311309814453125e+01 2.410807418823242188e+01 -2.854770123958587646e-01 5.856751918792724609e+00 1.671382427215576172e+00 -8.299669623374938965e-01
3.232000000000000000e+03 5.790800094604492188e+00 -3.028715896606445312e+01 6.809872388839721680e-01 1.635672450065612793e+00 6.949979066848754883e-01 -1.201687455177307129e-01
3.233000000000000000e+03 7.215672302246093750e+01 4.483118057250976562e+00 -3.081308305263519287e-01 4.939681053161621094e+00 1.389465093612670898e+00 5.997251272201538086e-01
3.234000000000000000e+03 4.886424255371093750e+01 2.344387769699096680e+00 1.218324154615402222e-01 2.978921890258789062e+00 9.302263259887695312e-01 -9.816279411315917969e-01
3.235000000000000000e+03 2.478383636474609375e+01 -2.220951652526855469e+01 1.986764430999755859e+00 3.509639978408813477e+00 1.648921370506286621e+00 -4.179019033908843994e-01
3.236000000000000000e+03 2.371787643432617188e+01 -1.908906173706054688e+01 2.099247455596923828e+00 1.567273378372192383e+00 1.099956274032592773e+00 -7.425585389137268066e-01
3.237000000000000000e+03 8.528567314147949219e+00 -6.559102535247802734e+00 1.380773425102233887e+00 3.796780705451965332e-01 5.281354784965515137e-01 1.039124608039855957e+00
3.238000000000000000e+03 1.046166515350341797e+01 -9.460920333862304688e+00 1.402802109718322754e+00 5.332384705543518066e-01 5.808121562004089355e-01 2.387609004974365234e+00
3.239000000000000000e+03 6.356272888183593750e+01 -1.400253295898437500e+01 -1.656649112701416016e+00 6.347053050994873047e+00 1.407121181488037109e+00 7.662044167518615723e-01
3.240000000000000000e+03 6.345350646972656250e+01 -1.222943878173828125e+01 -1.380580544471740723e+00 7.028647899627685547e+00 1.694420099258422852e+00 8.453978300094604492e-01
3.241000000000000000e+03 5.073203277587890625e+01 2.400461196899414062e+01 1.223327398300170898e+00 5.252233028411865234e+00 1.942668080329895020e+00 -3.352272808551788330e-01
3.242000000000000000e+03 7.316960144042968750e+01 2.660470008850097656e+01 4.201100766658782959e-01 5.590044975280761719e+00 1.803046584129333496e+00 -4.832530617713928223e-01
3.243000000000000000e+03 7.039981842041015625e+01 2.664985275268554688e+01 9.659230113029479980e-01 4.535342216491699219e+00 1.650379538536071777e+00 -3.590310215950012207e-01
3.244000000000000000e+03 7.205319213867187500e+01 -3.107742500305175781e+01 1.290948629379272461e+00 4.453758239746093750e+00 1.723412036895751953e+00 3.344372212886810303e-01
3.245000000000000000e+03 7.397057342529296875e+01 -3.581008148193359375e+01 2.566327452659606934e-01 6.370352268218994141e+00 1.988095521926879883e+00 -5.723464488983154297e-01
3.246000000000000000e+03 3.323015975952148438e+01 3.357700347900390625e+01 -6.999396085739135742e-01 5.879288673400878906e+00 1.553804755210876465e+00 -8.502829670906066895e-01
3.247000000000000000e+03 3.317084503173828125e+01 3.758648681640625000e+01 -1.380001783370971680e+00 4.453269481658935547e+00 9.219803214073181152e-01 1.144341472536325455e-02
3.248000000000000000e+03 2.458516883850097656e+01 -1.964257049560546875e+01 2.176548957824707031e+00 2.418229818344116211e+00 1.378433585166931152e+00 -5.679346919059753418e-01
3.249000000000000000e+03 4.614388275146484375e+01 1.919838428497314453e+00 6.309438347816467285e-01 3.530200958251953125e+00 1.248343467712402344e+00 -2.264568090438842773e+00
3.250000000000000000e+03 6.912715911865234375e+01 3.081257057189941406e+01 9.700795412063598633e-01 5.101963520050048828e+00 1.821612954139709473e+00 6.573209166526794434e-01
3.251000000000000000e+03 6.865632629394531250e+01 2.804582595825195312e+01 1.642564415931701660e+00 4.481945037841796875e+00 1.837352871894836426e+00 4.433014690876007080e-01
3.252000000000000000e+03 4.514758682250976562e+01 -8.910542130470275879e-01 4.088005423545837402e-01 3.462351560592651367e+00 1.161345601081848145e+00 -2.385629415512084961e+00
3.253000000000000000e+03 2.936456298828125000e+01 -3.227600097656250000e+01 3.374623060226440430e-01 4.065877437591552734e+00 1.321002006530761719e+00 -7.649360299110412598e-01
3.254000000000000000e+03 7.284788513183593750e+01 2.769400596618652344e+01 5.442769527435302734e-01 5.430139541625976562e+00 1.792324900627136230e+00 -2.789509594440460205e-01
3.255000000000000000e+03 2.131363868713378906e+01 -1.857558822631835938e+01 1.895205736160278320e+00 1.273853898048400879e+00 9.507178664207458496e-01 -1.255864739418029785e+00
3.256000000000000000e+03 4.736648941040039062e+01 4.102405929565429688e+01 -1.550145626068115234e+00 4.335457324981689453e+00 8.355935215950012207e-01 -2.719264030456542969e-01
3.257000000000000000e+03 7.123243713378906250e+01 -3.346655654907226562e+01 1.433526515960693359e+00 5.243721485137939453e+00 2.003174304962158203e+00 -9.394088387489318848e-01
3.258000000000000000e+03 7.100225067138671875e+01 3.620012664794921875e+01 -1.900168061256408691e-01 5.741023540496826172e+00 1.665302038192749023e+00 4.126263558864593506e-01
3.259000000000000000e+03 6.735591888427734375e+01 3.401758575439453125e+01 -1.527904272079467773e-01 5.348178863525390625e+00 1.558616518974304199e+00 7.657935023307800293e-01
3.260000000000000000e+03 6.915304565429687500e+01 2.569628334045410156e+01 1.310986638069152832e+00 3.962661266326904297e+00 1.582094311714172363e+00 -4.157562255859375000e-01
3.261000000000000000e+03 8.314855575561523438e+00 -4.159052658081054688e+01 -9.842187762260437012e-01 2.930218935012817383e+00 5.838000178337097168e-01 2.107689231634140015e-01
3.262000000000000000e+03 9.749871253967285156e+00 -3.987370300292968750e+01 -1.039763689041137695e+00 2.721660137176513672e+00 5.045689344406127930e-01 6.211614608764648438e-01
3.263000000000000000e+03 1.423629856109619141e+01 -2.088833570480346680e+00 5.394298434257507324e-01 5.519617557525634766e+00 1.817714214324951172e+00 2.304089307785034180e+00
3.264000000000000000e+03 7.382919788360595703e+00 -6.940347194671630859e+00 9.364020228385925293e-01 3.680804669857025146e-01 3.913447558879852295e-01 9.860013127326965332e-01
3.265000000000000000e+03 1.166133117675781250e+01 -6.437164306640625000e+00 2.487091064453125000e+00 1.668482422828674316e+00 1.246672034263610840e+00 1.150923132896423340e+00
3.266000000000000000e+03 8.022233009338378906e+00 -9.682751655578613281e+00 3.635627627372741699e-01 1.288220047950744629e+00 4.955348372459411621e-01 2.065844774246215820e+00
3.267000000000000000e+03 1.086623668670654297e+01 -6.334002494812011719e+00 2.415459871292114258e+00 1.109931349754333496e+00 1.057617306709289551e+00 1.201838731765747070e+00
3.268000000000000000e+03 9.377275466918945312e+00 -6.616751194000244141e+00 1.782327294349670410e+00 5.039018392562866211e-01 6.858687400817871094e-01 1.217445969581604004e+00
3.269000000000000000e+03 4.829700469970703125e+01 -2.751783609390258789e+00 6.367574930191040039e-01 5.460069179534912109e+00 1.829047918319702148e+00 -1.590539574623107910e+00
3.270000000000000000e+03 2.111256599426269531e+01 -2.217154312133789062e+01 1.771721959114074707e+00 1.230944275856018066e+00 9.007998704910278320e-01 -1.034168481826782227e+00
3.271000000000000000e+03 1.016410923004150391e+01 -6.454468250274658203e+00 2.093360662460327148e+00 7.560994625091552734e-01 8.548380732536315918e-01 1.204691052436828613e+00
3.272000000000000000e+03 9.365337371826171875e+00 -7.539574623107910156e+00 1.626942276954650879e+00 6.226750612258911133e-01 6.748852133750915527e-01 1.553460359573364258e+00
3.273000000000000000e+03 1.025956249237060547e+01 -8.555331230163574219e+00 1.566465616226196289e+00 7.716782093048095703e-01 7.014431357383728027e-01 2.053592443466186523e+00
3.274000000000000000e+03 9.254688262939453125e+00 -8.526841163635253906e+00 1.373970270156860352e+00 7.376234531402587891e-01 6.334781050682067871e-01 2.013937711715698242e+00
3.275000000000000000e+03 2.355218505859375000e+01 4.952749729156494141e+00 2.214993476867675781e+00 3.200898885726928711e+00 1.624767780303955078e+00 1.095654368400573730e+00
3.276000000000000000e+03 1.107092285156250000e+01 -8.326513290405273438e+00 2.084690093994140625e+00 9.789110422134399414e-01 9.190803170204162598e-01 1.871565699577331543e+00
3.277000000000000000e+03 2.488944435119628906e+01 7.391590118408203125e+00 2.751690149307250977e+00 4.282779693603515625e+00 2.110340833663940430e+00 -2.077138982713222504e-02
3.278000000000000000e+03 2.371653556823730469e+01 -2.163342666625976562e+01 2.095129251480102539e+00 2.433910608291625977e+00 1.358711957931518555e+00 -8.019105792045593262e-01
3.279000000000000000e+03 4.562975692749023438e+01 3.427529096603393555e+00 5.773814916610717773e-01 3.821378231048583984e+00 1.319627881050109863e+00 -1.926870822906494141e+00
3.280000000000000000e+03 7.023439025878906250e+01 2.905113029479980469e+01 1.127732872962951660e+00 4.855471134185791016e+00 1.794961214065551758e+00 2.094456553459167480e-01
3.281000000000000000e+03 6.895926666259765625e+01 2.933327484130859375e+01 1.291306614875793457e+00 4.881922245025634766e+00 1.851968646049499512e+00 5.918443202972412109e-01
3.282000000000000000e+03 6.965735626220703125e+01 2.766159439086914062e+01 1.298331618309020996e+00 4.549653530120849609e+00 1.754395604133605957e+00 -1.911898260004818439e-03
3.283000000000000000e+03 7.061257171630859375e+01 3.238298797607421875e+01 4.635509550571441650e-01 5.449288845062255859e+00 1.773851871490478516e+00 5.461905002593994141e-01
3.284000000000000000e+03 5.976252079010009766e+00 -3.749950790405273438e+01 -6.129603832960128784e-02 2.712388038635253906e+00 7.953276038169860840e-01 7.041567564010620117e-01
3.285000000000000000e+03 7.208507537841796875e+01 2.608651161193847656e+01 4.445534944534301758e-01 5.126667976379394531e+00 1.671366453170776367e+00 -6.121855974197387695e-01
3.286000000000000000e+03 6.699598693847656250e+01 3.589645385742187500e+01 -5.815460681915283203e-01 5.203542232513427734e+00 1.386598825454711914e+00 3.545243740081787109e-01
3.287000000000000000e+03 5.563267707824707031e+00 1.233820247650146484e+01 8.487928509712219238e-01 1.632818937301635742e+00 7.444835305213928223e-01 -9.572083950042724609e-01
3.288000000000000000e+03 3.374771881103515625e+01 3.492214202880859375e+01 -1.324192881584167480e+00 5.275379657745361328e+00 1.185356020927429199e+00 -3.879989683628082275e-01
3.289000000000000000e+03 6.842597961425781250e+01 -3.859933471679687500e+01 -1.246477365493774414e+00 5.624812126159667969e+00 1.313500523567199707e+00 -7.415940761566162109e-01
3.290000000000000000e+03 6.869979095458984375e+01 -3.709602355957031250e+01 -3.375935554504394531e-01 6.181878566741943359e+00 1.753285408020019531e+00 -1.260054588317871094e+00
3.291000000000000000e+03 6.059383010864257812e+01 -1.394894981384277344e+01 -1.172711133956909180e+00 6.264256000518798828e+00 1.527463555335998535e+00 9.402204155921936035e-01
3.292000000000000000e+03 7.369226074218750000e+01 3.748318099975585938e+01 -1.725509762763977051e-01 6.301979064941406250e+00 1.838828444480895996e+00 3.307220637798309326e-01
3.293000000000000000e+03 2.203489303588867188e+01 -2.140816497802734375e+01 2.195581436157226562e+00 1.359456419944763184e+00 1.066511392593383789e+00 -1.156676650047302246e+00
3.294000000000000000e+03 4.818410110473632812e+01 -1.170944571495056152e+00 5.664998888969421387e-01 4.859767436981201172e+00 1.627880215644836426e+00 -1.943635463714599609e+00
3.295000000000000000e+03 7.079193878173828125e+01 -3.898859786987304688e+01 -7.491918206214904785e-01 6.308414936065673828e+00 1.667766809463500977e+00 -7.334135174751281738e-01
3.296000000000000000e+03 4.763061141967773438e+01 3.807139205932617188e+01 -1.462333202362060547e+00 4.731057167053222656e+00 9.806172251701354980e-01 -6.131438612937927246e-01
3.297000000000000000e+03 6.797559356689453125e+01 4.113801574707031250e+01 -5.748618841171264648e-01 4.870271682739257812e+00 1.288622856140136719e+00 2.474117092788219452e-02
3.298000000000000000e+03 3.034698867797851562e+01 -3.312601470947265625e+01 5.686992406845092773e-01 3.281666994094848633e+00 1.155109882354736328e+00 -8.348296880722045898e-01
3.299000000000000000e+03 4.986997604370117188e+00 3.710190582275390625e+01 -4.517116844654083252e-01 1.796655654907226562e+00 4.034831821918487549e-01 4.327199608087539673e-02
3.300000000000000000e+03 6.275429248809814453e+00 3.680355453491210938e+01 -6.448789834976196289e-01 1.080986142158508301e+00 1.308321654796600342e-01 1.856827735900878906e-01
3.301000000000000000e+03 3.501337432861328125e+01 3.951544189453125000e+01 -1.247431278228759766e+00 3.631273508071899414e+00 7.151526808738708496e-01 3.040106594562530518e-01
3.302000000000000000e+03 3.284669113159179688e+01 -3.335012054443359375e+01 1.107516169548034668e+00 2.012632131576538086e+00 9.360445141792297363e-01 -9.087631478905677795e-03
3.303000000000000000e+03 6.621038818359375000e+01 3.784415435791015625e+01 -7.516756057739257812e-01 4.769195079803466797e+00 1.205255866050720215e+00 1.851019077003002167e-02
3.304000000000000000e+03 3.071546554565429688e+01 -3.768036270141601562e+01 -4.440970122814178467e-01 4.232045650482177734e+00 1.136384606361389160e+00 -4.792205095291137695e-01
3.305000000000000000e+03 2.750139045715332031e+01 3.888695144653320312e+01 -8.794279098510742188e-01 3.908803939819335938e+00 9.088127613067626953e-01 -8.294682949781417847e-02
3.306000000000000000e+03 1.188825035095214844e+01 4.099000930786132812e+01 1.440939903259277344e-01 3.917929232120513916e-01 1.607660800218582153e-01 -1.559818089008331299e-01
3.307000000000000000e+03 1.340896606445312500e+01 2.518611907958984375e+00 2.728265285491943359e+00 6.131933256983757019e-02 8.368754386901855469e-01 -2.168365001678466797e+00
3.308000000000000000e+03 1.296476459503173828e+01 2.677498102188110352e+00 2.405350923538208008e+00 3.543158620595932007e-02 7.322347164154052734e-01 -2.247894048690795898e+00
3.309000000000000000e+03 1.361775779724121094e+01 2.948875427246093750e+00 2.990937709808349609e+00 6.232936382293701172e-01 1.084269404411315918e+00 -3.134606361389160156e+00
3.310000000000000000e+03 1.329264640808105469e+01 3.046158790588378906e+00 2.478640079498291016e+00 5.601676702499389648e-01 9.116423726081848145e-01 -2.921822309494018555e+00
3.311000000000000000e+03 1.423350143432617188e+01 2.884227991104125977e+00 3.897077560424804688e+00 1.628767371177673340e+00 1.657753467559814453e+00 -3.680296182632446289e+00
3.312000000000000000e+03 1.444321155548095703e+01 2.621386289596557617e+00 4.473570346832275391e+00 1.729223489761352539e+00 1.860838174819946289e+00 -3.759382486343383789e+00
3.313000000000000000e+03 1.397152900695800781e+01 -8.169168829917907715e-01 4.805366396903991699e-01 2.980328559875488281e+00 1.038259506225585938e+00 2.312948226928710938e+00
3.314000000000000000e+03 1.390731811523437500e+01 -1.178972125053405762e+00 4.977214336395263672e-01 3.519782066345214844e+00 1.205251097679138184e+00 2.358955860137939453e+00
3.315000000000000000e+03 1.454383945465087891e+01 -1.151010751724243164e+00 3.381915986537933350e-01 5.758708477020263672e+00 1.829069972038269043e+00 3.206673860549926758e+00
3.316000000000000000e+03 5.508799743652343750e+01 -2.449753952026367188e+01 -5.825026035308837891e-01 7.562787055969238281e+00 2.094085454940795898e+00 2.048754930496215820e+00
3.317000000000000000e+03 2.108498954772949219e+01 2.941775131225585938e+01 1.416036248207092285e+00 7.658481121063232422e+00 2.722355365753173828e+00 -6.755948662757873535e-01
3.318000000000000000e+03 1.056899452209472656e+01 2.121399879455566406e+01 -3.956950604915618896e-01 7.941724658012390137e-01 1.195432245731353760e-01 -3.487522602081298828e-01
3.319000000000000000e+03 3.493900299072265625e+01 1.286037445068359375e+01 -2.517020940780639648e+00 -1.016293689608573914e-01 -7.855951189994812012e-01 -5.736722350120544434e-01
3.320000000000000000e+03 3.902828216552734375e+01 1.240803122520446777e+00 -3.874658644199371338e-01 6.975617408752441406e+00 1.976445436477661133e+00 2.200360536575317383e+00
3.321000000000000000e+03 6.450122833251953125e+01 -9.075474739074707031e+00 8.957555294036865234e-01 8.423787117004394531e+00 2.795862674713134766e+00 -2.966619729995727539e-01
3.322000000000000000e+03 3.761348342895507812e+01 -1.509832859039306641e+01 -3.817302942276000977e+00 5.584544658660888672e+00 5.301724672317504883e-01 -1.984817504882812500e+00
3.323000000000000000e+03 3.517682266235351562e+01 -2.980845832824707031e+01 -4.280944168567657471e-01 -4.592256247997283936e-01 -2.661960124969482422e-01 2.145873159170150757e-01
3.324000000000000000e+03 3.549996185302734375e+01 -7.974834918975830078e+00 3.171171903610229492e+00 5.897147655487060547e+00 2.720495700836181641e+00 -1.360461473464965820e+00
3.325000000000000000e+03 5.231020355224609375e+01 2.955903434753417969e+01 1.336184263229370117e+00 8.513352394104003906e+00 2.954860925674438477e+00 1.309463620185852051e+00
3.326000000000000000e+03 5.306505584716796875e+01 2.714632797241210938e+01 1.507716774940490723e+00 8.032485008239746094e+00 2.862060546875000000e+00 -6.465251445770263672e-01
3.327000000000000000e+03 5.127267074584960938e+01 2.668876647949218750e+01 1.948971271514892578e+00 6.607190608978271484e+00 2.566848516464233398e+00 3.846745491027832031e-01
3.328000000000000000e+03 6.456593322753906250e+01 3.333946228027343750e+01 -2.300415784120559692e-01 4.899905204772949219e+00 1.400959014892578125e+00 5.827276110649108887e-01
3.329000000000000000e+03 6.170042800903320312e+01 9.039671897888183594e+00 6.010210514068603516e-01 5.370533466339111328e+00 1.791466355323791504e+00 -2.015934705734252930e+00
3.330000000000000000e+03 3.286230850219726562e+01 2.155801391601562500e+01 4.175704419612884521e-01 9.949864387512207031e+00 3.110230445861816406e+00 -5.840418338775634766e-01
3.331000000000000000e+03 2.748466300964355469e+01 1.404983711242675781e+01 -5.780494213104248047e-01 -9.893558919429779053e-02 -2.030955106019973755e-01 1.674210309982299805e+00
3.332000000000000000e+03 1.498632907867431641e+01 -3.978121566772460938e+01 -1.883305191993713379e+00 3.385772705078125000e-01 -4.634183645248413086e-01 3.131150603294372559e-01
3.333000000000000000e+03 5.967214584350585938e+01 -3.958295440673828125e+01 -2.157456636428833008e+00 -6.025633215904235840e-01 -8.280059695243835449e-01 -8.539304733276367188e-01
3.334000000000000000e+03 2.134839248657226562e+01 1.318599033355712891e+01 9.098737239837646484e-01 1.049408340454101562e+01 3.421187162399291992e+00 -1.678310990333557129e+00
3.335000000000000000e+03 3.983923339843750000e+01 -3.624820327758789062e+01 -5.197276473045349121e-01 3.692981719970703125e+00 9.519761800765991211e-01 -5.941801667213439941e-01
3.336000000000000000e+03 3.624058961868286133e+00 2.951006317138671875e+01 1.349058896303176880e-01 2.871432304382324219e+00 9.019014835357666016e-01 -1.138000726699829102e+00
3.337000000000000000e+03 5.285930633544921875e+01 -3.498920822143554688e+01 1.560039401054382324e+00 7.768905162811279297e+00 2.798683404922485352e+00 -4.676321446895599365e-01
3.338000000000000000e+03 5.167254257202148438e+01 -3.389340591430664062e+01 2.716854572296142578e+00 7.201819896697998047e+00 2.975602388381958008e+00 -2.521049678325653076e-01
3.339000000000000000e+03 6.234632492065429688e+01 -2.013929367065429688e+01 2.358751773834228516e+00 6.205414772033691406e+00 2.569249868392944336e+00 -1.651450157165527344e+00
3.340000000000000000e+03 6.267765045166015625e+01 -8.837477684020996094e+00 8.092241883277893066e-01 8.645540237426757812e+00 2.836429357528686523e+00 4.812814891338348389e-01
3.341000000000000000e+03 3.408475875854492188e+01 2.065993499755859375e+01 6.873764395713806152e-01 8.012260437011718750e+00 2.609890937805175781e+00 -4.053698778152465820e-01
3.342000000000000000e+03 1.709224319458007812e+01 -1.859315872192382812e+01 1.974597096443176270e+00 6.367321491241455078e+00 2.502575635910034180e+00 -1.392551213502883911e-01
3.343000000000000000e+03 2.911325263977050781e+01 1.131754684448242188e+01 2.030746459960937500e+00 5.327532768249511719e+00 2.207483768463134766e+00 2.271665096282958984e+00
3.344000000000000000e+03 5.799212265014648438e+01 -1.345515918731689453e+01 -7.952661812305450439e-02 4.130538940429687500e+00 1.215303659439086914e+00 -2.495366185903549194e-01
3.345000000000000000e+03 9.410196304321289062e+00 1.823624610900878906e+01 -8.222180604934692383e-01 2.165430307388305664e+00 4.029636681079864502e-01 -4.689822196960449219e-01
3.346000000000000000e+03 1.119838237762451172e+01 -3.678657913208007812e+01 -3.775154054164886475e-01 2.824857473373413086e+00 7.342026233673095703e-01 1.007213830947875977e+00
3.347000000000000000e+03 2.873237991333007812e+01 -3.449581909179687500e+01 6.422377824783325195e-01 4.448633193969726562e+00 1.527261376380920410e+00 -7.475532293319702148e-01
3.348000000000000000e+03 4.246720504760742188e+01 -2.669455146789550781e+01 -1.546450853347778320e+00 1.259165406227111816e+00 -8.618564903736114502e-02 1.252994775772094727e+00
3.349000000000000000e+03 1.736807823181152344e+01 -1.762158513069152832e+00 -1.736031055450439453e+00 1.076272201538085938e+01 2.708007097244262695e+00 8.290185332298278809e-01
3.350000000000000000e+03 2.400697326660156250e+01 3.837148284912109375e+01 -8.570513129234313965e-01 3.875745534896850586e+00 9.056082963943481445e-01 7.558921724557876587e-02
3.351000000000000000e+03 5.339364242553710938e+01 -3.069565963745117188e+01 2.342482089996337891e+00 6.362369537353515625e+00 2.611455440521240234e+00 4.629229605197906494e-01
3.352000000000000000e+03 5.170819473266601562e+01 -1.337275600433349609e+01 -2.467621415853500366e-01 2.695131301879882812e+00 7.345107197761535645e-01 -1.919672131538391113e+00
3.353000000000000000e+03 1.632741928100585938e+01 5.932995319366455078e+00 -2.211194515228271484e+00 1.554356813430786133e+00 -1.970513015985488892e-01 6.835385560989379883e-01
3.354000000000000000e+03 3.491978073120117188e+01 -3.157328033447265625e+01 1.280896306037902832e+00 1.002340316772460938e+00 6.849709749221801758e-01 4.522204101085662842e-01
3.355000000000000000e+03 1.481080532073974609e+01 3.090839147567749023e+00 3.286224365234375000e+00 4.071856021881103516e+00 2.207424163818359375e+00 -4.243593692779541016e+00
3.356000000000000000e+03 1.304984474182128906e+01 -3.921632766723632812e+01 -1.303602099418640137e+00 1.761453747749328613e+00 1.373555064201354980e-01 4.093648195266723633e-01
3.357000000000000000e+03 1.347185993194580078e+01 -2.060039520263671875e+00 8.085188269615173340e-01 3.489884614944458008e+00 1.289521098136901855e+00 1.811340808868408203e+00
3.358000000000000000e+03 1.203273391723632812e+01 2.004841804504394531e+01 -4.493093788623809814e-01 3.722615540027618408e-01 -2.311434410512447357e-02 2.958956733345985413e-02
3.359000000000000000e+03 1.436189174652099609e+01 -1.424187421798706055e+00 4.455159008502960205e-01 5.288530826568603516e+00 1.720214009284973145e+00 2.905226707458496094e+00
3.360000000000000000e+03 5.178865814208984375e+01 -1.041223526000976562e+01 1.453382849693298340e+00 5.183918476104736328e+00 1.991190433502197266e+00 -1.464456319808959961e+00
3.361000000000000000e+03 6.962834167480468750e+01 -3.378912734985351562e+01 1.297501087188720703e+00 5.653188705444335938e+00 2.085206985473632812e+00 -1.467727065086364746e+00
3.362000000000000000e+03 6.073699188232421875e+01 -2.233334732055664062e+01 2.906352281570434570e+00 4.064863204956054688e+00 2.091364622116088867e+00 -6.414194703102111816e-01
3.363000000000000000e+03 1.718436431884765625e+01 -1.419561290740966797e+01 -3.032372713088989258e+00 7.313349723815917969e+00 1.284293055534362793e+00 -4.598319530487060547e-01
3.364000000000000000e+03 7.557445526123046875e+01 -2.123644256591796875e+01 1.242513537406921387e+00 9.063276290893554688e+00 3.091737031936645508e+00 6.005012392997741699e-01
3.365000000000000000e+03 6.060615539550781250e+01 -4.079985427856445312e+01 -8.139243125915527344e-01 4.978023767471313477e-01 -9.483659267425537109e-02 -2.438125014305114746e-01
3.366000000000000000e+03 3.830650329589843750e+01 -1.426566982269287109e+01 -3.363032102584838867e+00 5.976939678192138672e+00 7.841721773147583008e-01 -3.097165822982788086e+00
3.367000000000000000e+03 4.573246002197265625e+00 -3.190504837036132812e+01 5.604462027549743652e-01 2.012059211730957031e+00 7.717516422271728516e-01 1.447410415858030319e-02
3.368000000000000000e+03 5.120167922973632812e+01 3.565705871582031250e+01 -1.073616623878479004e+00 6.181919097900390625e+00 1.532490849494934082e+00 9.511522203683853149e-02
3.369000000000000000e+03 3.931132888793945312e+01 -2.969346809387207031e+01 -5.508432388305664062e-01 8.623553276062011719e+00 2.421813011169433594e+00 1.922026753425598145e+00
3.370000000000000000e+03 4.824045562744140625e+01 3.827884674072265625e+00 1.510676089674234390e-02 2.141333341598510742e+00 6.469320058822631836e-01 -1.159546017646789551e+00
3.371000000000000000e+03 1.395922183990478516e+01 3.082302331924438477e+00 3.266091108322143555e+00 1.346797823905944824e+00 1.383866667747497559e+00 -3.608837366104125977e+00
3.372000000000000000e+03 1.258696937561035156e+01 3.513578414916992188e+00 1.753647565841674805e+00 7.123439311981201172e-01 7.397974133491516113e-01 -2.815487623214721680e+00
3.373000000000000000e+03 2.470383644104003906e+01 9.703808784484863281e+00 2.907738447189331055e+00 3.978743791580200195e+00 2.065944671630859375e+00 -7.616258263587951660e-01
3.374000000000000000e+03 1.491490745544433594e+01 -8.876911163330078125e+00 2.216948509216308594e+00 6.365766048431396484e+00 2.574814319610595703e+00 1.297477632761001587e-01
3.375000000000000000e+03 1.581152343750000000e+01 5.129393577575683594e+00 -2.852734029293060303e-01 2.886146545410156250e+00 7.802619338035583496e-01 -7.999625205993652344e-01
3.376000000000000000e+03 1.516948890686035156e+01 6.028942584991455078e+00 -2.250457525253295898e+00 9.159728884696960449e-02 -6.476580500602722168e-01 -1.962509989738464355e+00
3.377000000000000000e+03 2.947061729431152344e+01 -1.501117038726806641e+01 -3.102010488510131836e+00 6.708621025085449219e+00 1.081983208656311035e+00 1.825915694236755371e+00
3.378000000000000000e+03 2.377858543395996094e+01 1.182754421234130859e+01 1.523196220397949219e+00 4.642538547515869141e+00 1.849720478057861328e+00 -1.316939234733581543e+00
3.379000000000000000e+03 3.169315338134765625e+01 3.410691452026367188e+01 -5.682575106620788574e-01 4.777822494506835938e+00 1.262869477272033691e+00 -1.136801958084106445e+00
3.380000000000000000e+03 5.049705886840820312e+01 -1.280555057525634766e+01 -4.306039586663246155e-02 4.456256389617919922e+00 1.323958754539489746e+00 -8.380418419837951660e-01
3.381000000000000000e+03 5.139432525634765625e+01 -1.230617237091064453e+01 4.422632455825805664e-01 4.423065185546875000e+00 1.459598541259765625e+00 -1.641121149063110352e+00
3.382000000000000000e+03 6.143281555175781250e+01 7.730861663818359375e+00 -4.589941203594207764e-01 5.147876739501953125e+00 1.406664729118347168e+00 -1.756404161453247070e+00
3.383000000000000000e+03 6.459908294677734375e+01 -1.402318000793457031e+01 -1.565103650093078613e+00 5.721906185150146484e+00 1.247040748596191406e+00 5.497997999191284180e-01
3.384000000000000000e+03 5.626555633544921875e+01 -1.406492328643798828e+01 -5.347113013267517090e-01 4.829068183898925781e+00 1.288307070732116699e+00 -1.715867757797241211e+00
3.385000000000000000e+03 6.081811141967773438e+01 -1.851145553588867188e+01 1.417203783988952637e+00 6.036953449249267578e+00 2.236247301101684570e+00 -5.880011916160583496e-01
3.386000000000000000e+03 3.136196327209472656e+01 -1.287237930297851562e+01 -1.645559310913085938e+00 4.737430095672607422e+00 9.275612831115722656e-01 2.063611268997192383e+00
3.387000000000000000e+03 3.441823577880859375e+01 -9.539824485778808594e+00 3.214203357696533203e+00 4.648192405700683594e+00 2.358718633651733398e+00 -8.602574467658996582e-01
3.388000000000000000e+03 3.405504608154296875e+01 -7.609204292297363281e+00 3.298469305038452148e+00 5.227882862091064453e+00 2.557905673980712891e+00 -7.937481403350830078e-01
3.389000000000000000e+03 3.187008666992187500e+01 -1.082314014434814453e+01 1.306260347366333008e+00 4.873184204101562500e+00 1.853833436965942383e+00 1.031307935714721680e+00
3.390000000000000000e+03 2.176597404479980469e+01 3.990526199340820312e+00 2.141971588134765625e+00 2.744199514389038086e+00 1.465851426124572754e+00 2.456948518753051758e+00
3.391000000000000000e+03 3.594078445434570312e+01 -2.695449352264404297e+00 7.127341628074645996e-01 3.729693889617919922e+00 1.332728385925292969e+00 1.549851894378662109e+00
3.392000000000000000e+03 1.819972610473632812e+01 -2.454687118530273438e+01 -7.842363715171813965e-01 1.397853255271911621e+00 1.840850561857223511e-01 1.123525738716125488e+00
3.393000000000000000e+03 2.679038619995117188e+01 -2.039293289184570312e+01 2.323640584945678711e+00 5.535084724426269531e+00 2.357617616653442383e+00 3.107545673847198486e-01
3.394000000000000000e+03 5.919047927856445312e+01 -2.420515823364257812e+01 7.191987633705139160e-01 3.695442199707031250e+00 1.324392318725585938e+00 9.016500115394592285e-01
3.395000000000000000e+03 3.110368347167968750e+01 2.168007194995880127e-01 -6.663901209831237793e-01 4.641485691070556641e+00 1.192528605461120605e+00 -1.625296950340270996e+00
3.396000000000000000e+03 1.443018531799316406e+01 3.614365100860595703e+00 2.568201541900634766e+00 2.526699304580688477e+00 1.528470277786254883e+00 -4.025999546051025391e+00
3.397000000000000000e+03 1.448446178436279297e+01 4.288611412048339844e+00 1.240883469581604004e+00 2.483945131301879883e+00 1.117448568344116211e+00 -3.617025613784790039e+00
3.398000000000000000e+03 2.652165603637695312e+01 1.208377456665039062e+01 1.919965863227844238e+00 2.185726642608642578e+00 1.231707811355590820e+00 9.595987200736999512e-02
3.399000000000000000e+03 6.082641220092773438e+01 -2.111357307434082031e+01 2.909627914428710938e+00 4.822954177856445312e+00 2.319774627685546875e+00 -1.012492775917053223e+00
3.400000000000000000e+03 3.545804738998413086e+00 -2.758304977416992188e+01 -1.039249636232852936e-02 2.156348228454589844e+00 6.437867283821105957e-01 -5.163872838020324707e-01
3.401000000000000000e+03 5.796522521972656250e+01 -1.489289188385009766e+01 -6.630817055702209473e-02 5.219173431396484375e+00 1.545859694480895996e+00 -5.221379399299621582e-01
3.402000000000000000e+03 4.228178787231445312e+01 -2.465258789062500000e+01 2.326425552368164062e+00 3.851927042007446289e+00 1.853505730628967285e+00 1.018601179122924805e+00
3.403000000000000000e+03 6.185697555541992188e+01 1.533583641052246094e+00 -1.301345229148864746e+00 5.996314525604248047e+00 1.408490777015686035e+00 -1.429272890090942383e+00
3.404000000000000000e+03 5.867644119262695312e+01 1.949320602416992188e+01 6.345947384834289551e-01 4.758604526519775391e+00 1.617959856986999512e+00 3.348276019096374512e-01
3.405000000000000000e+03 7.452614593505859375e+01 -1.397127819061279297e+01 -1.284772753715515137e+00 5.804211139678955078e+00 1.355831503868103027e+00 1.011510610580444336e+00
3.406000000000000000e+03 2.417408561706542969e+01 -2.067951583862304688e+01 2.339138984680175781e+00 2.552074909210205078e+00 1.467364192008972168e+00 -6.544405817985534668e-01
3.407000000000000000e+03 7.446826171875000000e+01 4.330254554748535156e+00 -3.055828511714935303e-01 6.246294021606445312e+00 1.782213330268859863e+00 -6.197536587715148926e-01
3.408000000000000000e+03 5.873047256469726562e+01 1.843885993957519531e+01 1.425271153450012207e+00 5.694798469543457031e+00 2.136020898818969727e+00 3.726666867733001709e-01
3.409000000000000000e+03 5.241743087768554688e+01 -1.205568218231201172e+01 4.106420278549194336e-01 3.919575929641723633e+00 1.299065351486206055e+00 -2.314576625823974609e+00
3.410000000000000000e+03 5.002314376831054688e+01 -2.802114486694335938e+01 7.592053413391113281e-01 4.868460178375244141e+00 1.688299655914306641e+00 -1.754681348800659180e+00
3.411000000000000000e+03 1.507493782043457031e+01 5.324747085571289062e+00 -5.060167312622070312e-01 1.906172394752502441e+00 4.200466871261596680e-01 -2.316256046295166016e+00
3.412000000000000000e+03 3.196671962738037109e+00 4.725756168365478516e+00 -7.746829651296138763e-03 -2.950005829334259033e-01 -9.082422405481338501e-02 6.642690300941467285e-01
3.413000000000000000e+03 7.375244140625000000e+01 3.343781280517578125e+01 1.781359612941741943e-01 6.069619178771972656e+00 1.874326586723327637e+00 3.510326147079467773e-01
3.414000000000000000e+03 2.832019233703613281e+01 3.467861557006835938e+01 -1.375803165137767792e-02 3.368377208709716797e+00 1.006385803222656250e+00 -5.664573311805725098e-01
3.415000000000000000e+03 4.590342521667480469e+00 2.065150260925292969e+01 -5.749637484550476074e-01 1.939510822296142578e+00 4.093641340732574463e-01 -4.598278105258941650e-01
3.416000000000000000e+03 4.914447402954101562e+01 -2.867825031280517578e+00 9.723063111305236816e-01 6.101434230804443359e+00 2.122122287750244141e+00 -1.140106201171875000e+00
3.417000000000000000e+03 1.330484104156494141e+01 -7.619388580322265625e+00 2.892481565475463867e+00 3.390427827835083008e+00 1.884872794151306152e+00 8.305452466011047363e-01
3.418000000000000000e+03 1.416906166076660156e+01 -4.569656848907470703e+00 1.997154593467712402e+00 6.186302185058593750e+00 2.455037117004394531e+00 9.174283146858215332e-01
3.419000000000000000e+03 4.496851348876953125e+01 5.532047748565673828e+00 3.171119391918182373e-01 4.475728988647460938e+00 1.437852263450622559e+00 -1.273259878158569336e+00
3.420000000000000000e+03 4.566454315185546875e+01 4.854282855987548828e+00 1.239986717700958252e-01 3.836900949478149414e+00 1.188269853591918945e+00 -1.505640745162963867e+00
3.421000000000000000e+03 4.493590545654296875e+01 4.209815502166748047e+00 7.298668026924133301e-01 4.213435649871826172e+00 1.482990741729736328e+00 -1.705858826637268066e+00
3.422000000000000000e+03 4.710736751556396484e+00 -1.062906837463378906e+01 -2.615904808044433594e-01 1.572705030441284180e+00 3.933343589305877686e-01 5.812754631042480469e-01
3.423000000000000000e+03 7.597579193115234375e+01 3.545074081420898438e+01 8.690428920090198517e-03 6.595405101776123047e+00 1.981228709220886230e+00 2.283353805541992188e-01
3.424000000000000000e+03 5.877305603027343750e+01 -1.424658203125000000e+01 -4.313929378986358643e-01 5.122140884399414062e+00 1.407224297523498535e+00 3.086786568164825439e-01
3.425000000000000000e+03 3.574769735336303711e+00 1.303269195556640625e+01 3.306144773960113525e-01 3.192876279354095459e-01 1.949706226587295532e-01 -7.430417537689208984e-01
3.426000000000000000e+03 4.550746917724609375e+00 -9.768383979797363281e+00 -9.638853371143341064e-02 1.092771053314208984e+00 2.989147603511810303e-01 4.601909816265106201e-01
3.427000000000000000e+03 3.310088157653808594e+00 3.571934127807617188e+01 -4.595541357994079590e-01 2.505723476409912109e+00 6.138507723808288574e-01 -2.465821355581283569e-01
3.428000000000000000e+03 5.577487945556640625e+00 -2.891433334350585938e+01 3.992869257926940918e-01 1.466399192810058594e+00 5.597058534622192383e-01 -3.724429607391357422e-01
3.429000000000000000e+03 4.552084732055664062e+01 -2.016798019409179688e+00 1.274038702249526978e-01 3.581727981567382812e+00 1.112739562988281250e+00 -2.407211780548095703e+00
3.430000000000000000e+03 1.242106246948242188e+01 -2.910165786743164062e+01 1.128554344177246094e+00 3.413041114807128906e+00 1.362478613853454590e+00 1.399298429489135742e+00
3.431000000000000000e+03 5.870870590209960938e+01 1.714733886718750000e+01 1.858899354934692383e+00 6.788445949554443359e+00 2.594203710556030273e+00 9.293965697288513184e-01
3.432000000000000000e+03 7.469043731689453125e+01 2.172122192382812500e+01 -8.238343000411987305e-01 6.854609489440917969e+00 1.809232592582702637e+00 -3.796796798706054688e-01
3.433000000000000000e+03 4.495239257812500000e+01 2.572279453277587891e+00 8.389684557914733887e-01 3.892651557922363281e+00 1.419486045837402344e+00 -2.096519470214843750e+00
3.434000000000000000e+03 1.183362674713134766e+01 -4.976881504058837891e+00 2.306390285491943359e+00 1.949968457221984863e+00 1.276907563209533691e+00 8.269436955451965332e-01
3.435000000000000000e+03 4.098929882049560547e+00 1.787279129028320312e+01 -3.793784677982330322e-01 1.364251971244812012e+00 2.954620420932769775e-01 -7.639169096946716309e-01
3.436000000000000000e+03 4.604037761688232422e+00 9.274168014526367188e+00 7.585096359252929688e-01 5.839134454727172852e-01 4.027269184589385986e-01 3.841872513294219971e-02
3.437000000000000000e+03 4.993556976318359375e+00 4.457281589508056641e+00 4.532919265329837799e-03 3.070561289787292480e-01 9.347672015428543091e-02 6.148185133934020996e-01
3.438000000000000000e+03 5.224728107452392578e+00 7.528547763824462891e+00 6.466813087463378906e-01 7.800911068916320801e-01 4.280317127704620361e-01 3.420952856540679932e-01
3.439000000000000000e+03 4.985558032989501953e+00 6.601550579071044922e+00 4.277771711349487305e-01 6.111475229263305664e-01 3.116773962974548340e-01 4.688209593296051025e-01
3.440000000000000000e+03 7.444766235351562500e+01 2.585699272155761719e+01 1.390900462865829468e-01 6.115588188171386719e+00 1.876403450965881348e+00 -5.017954111099243164e-01
3.441000000000000000e+03 4.142987251281738281e+00 4.917123794555664062e+00 6.476254016160964966e-02 4.642294719815254211e-02 3.335564583539962769e-02 6.608735322952270508e-01
3.442000000000000000e+03 1.577097320556640625e+01 1.231910824775695801e+00 2.989219284057617188e+01 9.951112747192382812e+00 1.195299148559570312e+01 1.527653408050537109e+01
3.443000000000000000e+03 1.577892208099365234e+01 1.214139461517333984e+00 2.434128189086914062e+01 2.270704269409179688e+01 1.411449718475341797e+01 2.099289512634277344e+01
3.444000000000000000e+03 1.579017829895019531e+01 1.198255658149719238e+00 2.080239105224609375e+01 3.258527755737304688e+01 1.601630020141601562e+01 2.176490783691406250e+01
3.445000000000000000e+03 1.580431270599365234e+01 1.184867143630981445e+00 1.699874114990234375e+01 4.201038742065429688e+01 1.770273971557617188e+01 2.007359886169433594e+01
3.446000000000000000e+03 1.582078170776367188e+01 1.174486517906188965e+00 1.439977550506591797e+01 4.927225112915039062e+01 1.910160827636718750e+01 1.650314712524414062e+01
3.447000000000000000e+03 1.583895778656005859e+01 1.167510747909545898e+00 1.294194030761718750e+01 5.466999435424804688e+01 2.028358078002929688e+01 1.130591583251953125e+01
3.448000000000000000e+03 1.585814285278320312e+01 1.164206862449645996e+00 1.307786560058593750e+01 5.737839126586914062e+01 2.113687705993652344e+01 5.654541969299316406e+00
3.449000000000000000e+03 1.587760543823242188e+01 1.164701461791992188e+00 1.490151309967041016e+01 5.762050628662109375e+01 2.175660705566406250e+01 -4.900146648287773132e-02
3.450000000000000000e+03 1.589659881591796875e+01 1.168975353240966797e+00 1.816025161743164062e+01 5.572428512573242188e+01 2.216535949707031250e+01 -4.705326080322265625e+00
3.451000000000000000e+03 1.591439628601074219e+01 1.176865100860595703e+00 2.219666671752929688e+01 5.207550811767578125e+01 2.228165245056152344e+01 -8.023819923400878906e+00
3.452000000000000000e+03 1.593031692504882812e+01 1.188068747520446777e+00 2.711715888977050781e+01 4.787936019897460938e+01 2.249895668029785156e+01 -9.473440170288085938e+00
3.453000000000000000e+03 1.594375324249267578e+01 1.202157735824584961e+00 3.082930374145507812e+01 4.298330688476562500e+01 2.214378356933593750e+01 -9.487271308898925781e+00
3.454000000000000000e+03 1.595418834686279297e+01 1.218592762947082520e+00 3.458801269531250000e+01 3.961294555664062500e+01 2.226028823852539062e+01 -7.712759971618652344e+00
3.455000000000000000e+03 1.596122455596923828e+01 1.236744880676269531e+00 3.690126037597656250e+01 3.665168380737304688e+01 2.206588363647460938e+01 -5.001757621765136719e+00
3.456000000000000000e+03 1.596459293365478516e+01 1.255919575691223145e+00 3.778285980224609375e+01 3.478278350830078125e+01 2.176969337463378906e+01 -1.768361330032348633e+00
3.457000000000000000e+03 1.596416282653808594e+01 1.275382995605468750e+00 3.777073287963867188e+01 3.523445510864257812e+01 2.190155601501464844e+01 1.381861329078674316e+00
3.458000000000000000e+03 1.595995235443115234e+01 1.294390320777893066e+00 3.615964126586914062e+01 3.658768081665039062e+01 2.182419586181640625e+01 4.674563884735107422e+00
3.459000000000000000e+03 1.595212173461914062e+01 1.312214374542236328e+00 3.364538574218750000e+01 3.875654983520507812e+01 2.172058105468750000e+01 6.915465354919433594e+00
3.460000000000000000e+03 1.594097137451171875e+01 1.328172802925109863e+00 3.053271484375000000e+01 4.274064636230468750e+01 2.198200798034667969e+01 8.029250144958496094e+00
3.461000000000000000e+03 1.592692661285400391e+01 1.341655135154724121e+00 2.643125534057617188e+01 4.657086181640625000e+01 2.190063476562500000e+01 7.926167964935302734e+00
3.462000000000000000e+03 1.591052722930908203e+01 1.352145433425903320e+00 2.247290039062500000e+01 5.042429733276367188e+01 2.186915969848632812e+01 6.158745765686035156e+00
3.463000000000000000e+03 1.589239883422851562e+01 1.359242200851440430e+00 1.930724143981933594e+01 5.359609985351562500e+01 2.187100219726562500e+01 2.764636993408203125e+00
3.464000000000000000e+03 1.587323570251464844e+01 1.362673878669738770e+00 1.635951232910156250e+01 5.488790893554687500e+01 2.137422561645507812e+01 -1.895323753356933594e+00
3.465000000000000000e+03 1.585377025604248047e+01 1.362309098243713379e+00 1.552375793457031250e+01 5.433263397216796875e+01 2.095691680908203125e+01 -7.096306324005126953e+00
3.466000000000000000e+03 1.583474922180175781e+01 1.358161807060241699e+00 1.579436874389648438e+01 5.117842483520507812e+01 2.009183692932128906e+01 -1.241393947601318359e+01
3.467000000000000000e+03 1.581689929962158203e+01 1.350390911102294922e+00 1.735275077819824219e+01 4.581227874755859375e+01 1.894950866699218750e+01 -1.681359672546386719e+01
3.468000000000000000e+03 1.580090332031250000e+01 1.339293599128723145e+00 1.976480674743652344e+01 3.878057861328125000e+01 1.756361579895019531e+01 -1.969109535217285156e+01
3.469000000000000000e+03 1.578737449645996094e+01 1.325294494628906250e+00 2.235983848571777344e+01 3.045337104797363281e+01 1.584396266937255859e+01 -2.078897285461425781e+01
3.470000000000000000e+03 1.577682971954345703e+01 1.308929443359375000e+00 2.430316352844238281e+01 2.202843475341796875e+01 1.389947986602783203e+01 -2.001840782165527344e+01
3.471000000000000000e+03 1.576967239379882812e+01 1.290824651718139648e+00 2.555767631530761719e+01 1.373435592651367188e+01 1.178761005401611328e+01 -1.722704124450683594e+01
3.472000000000000000e+03 1.576617717742919922e+01 1.271672844886779785e+00 2.520284652709960938e+01 6.715309143066406250e+00 9.575446128845214844e+00 -1.306537628173828125e+01
3.473000000000000000e+03 1.576647663116455078e+01 1.252207040786743164e+00 2.307443618774414062e+01 1.599253296852111816e+00 7.402106761932373047e+00 -3.956681728363037109e+00
