# el_label, x, y, sXX, sYY, sZZ, sXY
1.000000000000000000e+00 1.856451606750488281e+01 1.412129163742065430e+00 7.761072158813476562e+00 -1.878389477729797363e+00 1.764804840087890625e+00 -1.507187038660049438e-01
2.000000000000000000e+00 1.836838340759277344e+01 1.378236174583435059e+00 6.106896400451660156e+00 1.010894656181335449e+00 2.135337352752685547e+00 1.914544105529785156e+00
3.000000000000000000e+00 1.817224884033203125e+01 1.344343066215515137e+00 2.791468858718872070e+00 -6.007174402475357056e-02 8.194191455841064453e-01 9.265604019165039062e-01
4.000000000000000000e+00 1.797611427307128906e+01 1.310449957847595215e+00 8.733600378036499023e-01 2.110750377178192139e-01 3.253305256366729736e-01 8.828428387641906738e-01
5.000000000000000000e+00 1.858004379272460938e+01 1.355825185775756836e+00 1.661937332153320312e+01 -8.909724354743957520e-01 4.718520164489746094e+00 5.378012657165527344e+00
6.000000000000000000e+00 1.839426040649414062e+01 1.284396052360534668e+00 7.876600742340087891e+00 1.441816091537475586e+00 2.795525074005126953e+00 3.646064043045043945e+00
7.000000000000000000e+00 1.820847702026367188e+01 1.212967038154602051e+00 5.561010837554931641e+00 1.458934903144836426e+00 2.105983734130859375e+00 3.885781526565551758e+00
8.000000000000000000e+00 1.802269554138183594e+01 1.141537904739379883e+00 3.138269186019897461e+00 9.792532324790954590e-01 1.235256671905517578e+00 3.037458181381225586e+00
9.000000000000000000e+00 1.860623359680175781e+01 1.303621411323547363e+00 1.793052482604980469e+01 4.512152671813964844e+00 6.732803344726562500e+00 1.128737449645996094e+01
1.000000000000000000e+01 1.843791389465332031e+01 1.197389841079711914e+00 1.066383361816406250e+01 3.187452554702758789e+00 4.155385971069335938e+00 7.352370738983154297e+00
1.100000000000000000e+01 1.826959037780761719e+01 1.091158151626586914e+00 6.510807991027832031e+00 3.309351682662963867e+00 2.946048021316528320e+00 6.207700729370117188e+00
1.200000000000000000e+01 1.810126876831054688e+01 9.849265217781066895e-01 4.609599113464355469e+00 3.048718929290771484e+00 2.297495365142822266e+00 5.819533824920654297e+00
1.300000000000000000e+01 1.864208984375000000e+01 1.257515668869018555e+00 1.701105308532714844e+01 1.096433448791503906e+01 8.392616271972656250e+00 1.507644557952880859e+01
1.400000000000000000e+01 1.849766921997070312e+01 1.120546817779541016e+00 1.037390995025634766e+01 7.299716472625732422e+00 5.302087783813476562e+00 1.060986423492431641e+01
1.500000000000000000e+01 1.835325050354003906e+01 9.835780858993530273e-01 7.133755207061767578e+00 6.160199165344238281e+00 3.988186359405517578e+00 8.907904624938964844e+00
1.600000000000000000e+01 1.820883178710937500e+01 8.466092944145202637e-01 4.579296588897705078e+00 5.608659744262695312e+00 3.056386947631835938e+00 7.915695667266845703e+00
1.700000000000000000e+01 1.868623352050781250e+01 1.219272375106811523e+00 1.403841209411621094e+01 1.820043373107910156e+01 9.671653747558593750e+00 1.660958290100097656e+01
1.800000000000000000e+01 1.857124328613281250e+01 1.056807994842529297e+00 9.257085800170898438e+00 1.210563087463378906e+01 6.408814907073974609e+00 1.256279850006103516e+01
1.900000000000000000e+01 1.845625305175781250e+01 8.943436145782470703e-01 6.006387233734130859e+00 1.004689121246337891e+01 4.815983772277832031e+00 1.058997726440429688e+01
2.000000000000000000e+01 1.834126281738281250e+01 7.318792939186096191e-01 4.224675178527832031e+00 8.890494346618652344e+00 3.934551000595092773e+00 9.655635833740234375e+00
2.100000000000000000e+01 1.873697662353515625e+01 1.190354943275451660e+00 1.115019416809082031e+01 2.453738975524902344e+01 1.070627498626708984e+01 1.605073928833007812e+01
2.200000000000000000e+01 1.865581703186035156e+01 1.008612394332885742e+00 7.239508628845214844e+00 1.729820442199707031e+01 7.361314296722412109e+00 1.272335338592529297e+01
2.300000000000000000e+01 1.857465744018554688e+01 8.268697857856750488e-01 4.589956760406494141e+00 1.402923870086669922e+01 5.585758686065673828e+00 1.125170993804931641e+01
2.400000000000000000e+01 1.849349784851074219e+01 6.451271772384643555e-01 2.920183420181274414e+00 1.232201766967773438e+01 4.572660446166992188e+00 9.928638458251953125e+00
2.500000000000000000e+01 1.879238128662109375e+01 1.171870112419128418e+00 9.100425720214843750e+00 2.995581436157226562e+01 1.171687221527099609e+01 1.339679050445556641e+01
2.600000000000000000e+01 1.874815750122070312e+01 9.778044223785400391e-01 5.265422344207763672e+00 2.148050880432128906e+01 8.023779869079589844e+00 1.170754432678222656e+01
2.700000000000000000e+01 1.870393180847167969e+01 7.837386131286621094e-01 3.363188982009887695e+00 1.781548118591308594e+01 6.353601455688476562e+00 1.026807880401611328e+01
2.800000000000000000e+01 1.865970802307128906e+01 5.896728634834289551e-01 1.269054889678955078e+00 1.556771755218505859e+01 5.051031589508056641e+00 9.563501358032226562e+00
2.900000000000000000e+01 1.885032272338867188e+01 1.164525270462036133e+00 7.595558643341064453e+00 3.300556182861328125e+01 1.218033599853515625e+01 1.007573795318603516e+01
3.000000000000000000e+01 1.884472656250000000e+01 9.655630588531494141e-01 4.811500072479248047e+00 2.486401939392089844e+01 8.902655601501464844e+00 9.233352661132812500e+00
3.100000000000000000e+01 1.883913040161132812e+01 7.666007876396179199e-01 1.892591834068298340e+00 2.048682785034179688e+01 6.713825702667236328e+00 8.612247467041015625e+00
3.200000000000000000e+01 1.883353424072265625e+01 5.676384568214416504e-01 1.012544155120849609e+00 1.797389984130859375e+01 5.695932865142822266e+00 8.016019821166992188e+00
3.300000000000000000e+01 1.890858650207519531e+01 1.168601512908935547e+00 9.040250778198242188e+00 3.469522476196289062e+01 1.312064266204833984e+01 6.193993091583251953e+00
3.400000000000000000e+01 1.894183349609375000e+01 9.723567962646484375e-01 4.011785030364990234e+00 2.629194641113281250e+01 9.091119766235351562e+00 6.468174934387207031e+00
3.500000000000000000e+01 1.897507858276367188e+01 7.761120200157165527e-01 2.716833591461181641e+00 2.218424606323242188e+01 7.470324039459228516e+00 6.238523483276367188e+00
3.600000000000000000e+01 1.900832366943359375e+01 5.798672437667846680e-01 2.173411250114440918e-01 1.927455139160156250e+01 5.847568035125732422e+00 5.996917247772216797e+00
3.700000000000000000e+01 1.896494102478027344e+01 1.183942914009094238e+00 9.666195869445800781e+00 3.387966537475585938e+01 1.306375789642333984e+01 2.796927213668823242e+00
3.800000000000000000e+01 1.903575706481933594e+01 9.979256391525268555e-01 6.426541805267333984e+00 2.682834243774414062e+01 9.976465225219726562e+00 3.796941280364990234e+00
3.900000000000000000e+01 1.910657310485839844e+01 8.119083642959594727e-01 2.572710752487182617e+00 2.216259384155273438e+01 7.420591354370117188e+00 3.729312896728515625e+00
4.000000000000000000e+01 1.917738914489746094e+01 6.258911490440368652e-01 2.155091047286987305e+00 1.948499870300292969e+01 6.492026805877685547e+00 4.065397262573242188e+00
4.100000000000000000e+01 1.901723098754882812e+01 1.209962248802185059e+00 1.365970706939697266e+01 3.289856338500976562e+01 1.396748065948486328e+01 7.954957485198974609e-01
4.200000000000000000e+01 1.912290763854980469e+01 1.041291117668151855e+00 7.329693317413330078e+00 2.525875854492187500e+01 9.776535034179687500e+00 1.170721411705017090e+00
4.300000000000000000e+01 1.922858238220214844e+01 8.726199865341186523e-01 5.778027534484863281e+00 2.157533645629882812e+01 8.206008911132812500e+00 2.218638420104980469e+00
4.400000000000000000e+01 1.933425903320312500e+01 7.039489150047302246e-01 2.510144948959350586e+00 1.812390899658203125e+01 6.190216064453125000e+00 1.887733459472656250e+00
4.500000000000000000e+01 1.906345367431640625e+01 1.245663642883300781e+00 1.576125431060791016e+01 2.973723411560058594e+01 1.364954662322998047e+01 -7.763553857803344727e-01
4.600000000000000000e+01 1.919994544982910156e+01 1.100793600082397461e+00 1.097897529602050781e+01 2.414315032958984375e+01 1.053663730621337891e+01 4.002045691013336182e-01
4.700000000000000000e+01 1.933643722534179688e+01 9.559235572814941406e-01 7.317729473114013672e+00 1.911355209350585938e+01 7.929384231567382812e+00 3.692028820514678955e-01
4.800000000000000000e+01 1.947292900085449219e+01 8.110535144805908203e-01 5.947796821594238281e+00 1.707401275634765625e+01 6.906542778015136719e+00 1.524777293205261230e+00
4.900000000000000000e+01 1.910184288024902344e+01 1.289681196212768555e+00 1.920632362365722656e+01 2.825541877746582031e+01 1.423852252960205078e+01 -4.003557860851287842e-01
5.000000000000000000e+01 1.926392745971679688e+01 1.174156188964843750e+00 1.325953388214111328e+01 2.108069801330566406e+01 1.030206966400146484e+01 -1.892356127500534058e-01
5.100000000000000000e+01 1.942601203918457031e+01 1.058631062507629395e+00 1.032335186004638672e+01 1.785143089294433594e+01 8.452434539794921875e+00 5.325801372528076172e-01
5.200000000000000000e+01 1.958809661865234375e+01 9.431059956550598145e-01 8.110130310058593750e+00 1.418319225311279297e+01 6.687996864318847656e+00 7.252030968666076660e-01
5.300000000000000000e+01 1.913092803955078125e+01 1.340330243110656738e+00 2.127090072631835938e+01 2.552565956115722656e+01 1.403896808624267578e+01 5.685653686523437500e-01
5.400000000000000000e+01 1.931240272521972656e+01 1.258571147918701172e+00 1.584023571014404297e+01 1.968700790405273438e+01 1.065817260742187500e+01 7.143158912658691406e-01
5.500000000000000000e+01 1.949387550354003906e+01 1.176812052726745605e+00 1.242959022521972656e+01 1.535363006591796875e+01 8.334965705871582031e+00 1.075859785079956055e+00
5.600000000000000000e+01 1.967535018920898438e+01 1.095053076744079590e+00 1.026185798645019531e+01 1.270987701416015625e+01 6.891520500183105469e+00 1.402086257934570312e+00
5.700000000000000000e+01 1.914959526062011719e+01 1.395672440528869629e+00 2.277714920043945312e+01 2.451443862915039062e+01 1.418747615814208984e+01 2.270864248275756836e+00
5.800000000000000000e+01 1.934351539611816406e+01 1.350808143615722656e+00 1.727410697937011719e+01 1.793152236938476562e+01 1.056168937683105469e+01 2.328836202621459961e+00
5.900000000000000000e+01 1.953743362426757812e+01 1.305943965911865234e+00 1.403447151184082031e+01 1.424479103088378906e+01 8.483778953552246094e+00 2.443985700607299805e+00
6.000000000000000000e+01 1.973135185241699219e+01 1.261079788208007812e+00 1.180906867980957031e+01 1.121646404266357422e+01 6.907660007476806641e+00 2.539392709732055664e+00
6.100000000000000000e+01 1.915713119506835938e+01 1.453590035438537598e+00 2.304423713684082031e+01 2.380047035217285156e+01 1.405341243743896484e+01 4.421364784240722656e+00
6.200000000000000000e+01 1.935607528686523438e+01 1.447337508201599121e+00 1.780780410766601562e+01 1.751447105407714844e+01 1.059668254852294922e+01 4.263185024261474609e+00
6.300000000000000000e+01 1.955501747131347656e+01 1.441084980964660645e+00 1.453709697723388672e+01 1.361082649230957031e+01 8.444376945495605469e+00 4.197453498840332031e+00
6.400000000000000000e+01 1.975395965576171875e+01 1.434832453727722168e+00 1.234891319274902344e+01 1.083008480072021484e+01 6.953699111938476562e+00 4.106148242950439453e+00
6.500000000000000000e+01 1.915324783325195312e+01 1.511866569519042969e+00 2.230794143676757812e+01 2.426877021789550781e+01 1.397301387786865234e+01 6.469370365142822266e+00
6.600000000000000000e+01 1.934960174560546875e+01 1.544465184211730957e+00 1.701490402221679688e+01 1.781685447692871094e+01 1.044952774047851562e+01 6.221261501312255859e+00
6.700000000000000000e+01 1.954595375061035156e+01 1.577063679695129395e+00 1.401380729675292969e+01 1.410221385955810547e+01 8.434805870056152344e+00 5.844019889831542969e+00
6.800000000000000000e+01 1.974230766296386719e+01 1.609662294387817383e+00 1.212006473541259766e+01 1.112154102325439453e+01 6.972481727600097656e+00 5.612888813018798828e+00
6.900000000000000000e+01 1.913809204101562500e+01 1.568272113800048828e+00 2.028771591186523438e+01 2.531246757507324219e+01 1.368005466461181641e+01 8.215493202209472656e+00
7.000000000000000000e+01 1.932434082031250000e+01 1.638474225997924805e+00 1.528646564483642578e+01 1.923720169067382812e+01 1.035709953308105469e+01 7.572351932525634766e+00
7.100000000000000000e+01 1.951059150695800781e+01 1.708676457405090332e+00 1.245078277587890625e+01 1.511371040344238281e+01 8.269348144531250000e+00 7.137135028839111328e+00
7.200000000000000000e+01 1.969684219360351562e+01 1.778878569602966309e+00 1.077567481994628906e+01 1.249567317962646484e+01 6.981404304504394531e+00 6.515407562255859375e+00
7.300000000000000000e+01 1.911224555969238281e+01 1.620647668838500977e+00 1.754158592224121094e+01 2.746551704406738281e+01 1.350213146209716797e+01 9.071644783020019531e+00
7.400000000000000000e+01 1.928126335144042969e+01 1.725766897201538086e+00 1.252212810516357422e+01 2.083320045471191406e+01 1.000659847259521484e+01 8.183163642883300781e+00
7.500000000000000000e+01 1.945028114318847656e+01 1.830886244773864746e+00 1.038729000091552734e+01 1.692847251892089844e+01 8.194728851318359375e+00 7.413575649261474609e+00
7.600000000000000000e+01 1.961930084228515625e+01 1.936005353927612305e+00 8.625401496887207031e+00 1.398059368133544922e+01 6.781798362731933594e+00 7.137245655059814453e+00
7.700000000000000000e+01 1.907669639587402344e+01 1.666988968849182129e+00 1.371016979217529297e+01 2.947674942016601562e+01 1.295607566833496094e+01 9.001669883728027344e+00
7.800000000000000000e+01 1.922201538085937500e+01 1.803002476692199707e+00 9.793082237243652344e+00 2.299831008911132812e+01 9.837417602539062500e+00 7.462889194488525391e+00
7.900000000000000000e+01 1.936733436584472656e+01 1.939016103744506836e+00 7.597694873809814453e+00 1.841492462158203125e+01 7.803786277770996094e+00 6.965371131896972656e+00
8.000000000000000000e+01 1.951265335083007812e+01 2.075029611587524414e+00 6.767983913421630859e+00 1.561563873291015625e+01 6.715086936950683594e+00 6.521467685699462891e+00
8.100000000000000000e+01 1.903280639648437500e+01 1.705522775650024414e+00 1.027684783935546875e+01 3.188297843933105469e+01 1.264794826507568359e+01 7.339647769927978516e+00
8.200000000000000000e+01 1.914886283874511719e+01 1.867225408554077148e+00 6.622591018676757812e+00 2.427228736877441406e+01 9.268464088439941406e+00 5.882942676544189453e+00
8.300000000000000000e+01 1.926492118835449219e+01 2.028928041458129883e+00 5.534079074859619141e+00 1.992664718627929688e+01 7.638217926025390625e+00 5.295597076416015625e+00
8.400000000000000000e+01 1.938098144531250000e+01 2.190630674362182617e+00 4.304687500000000000e+00 1.656519889831542969e+01 6.260966300964355469e+00 5.127391815185546875e+00
8.500000000000000000e+01 1.898225212097167969e+01 1.734774231910705566e+00 6.558736324310302734e+00 3.303366470336914062e+01 1.187772083282470703e+01 4.561260700225830078e+00
8.600000000000000000e+01 1.906460762023925781e+01 1.915977716445922852e+00 4.742148399353027344e+00 2.509387397766113281e+01 8.950806617736816406e+00 3.170950651168823242e+00
8.700000000000000000e+01 1.914696502685546875e+01 2.097181320190429688e+00 3.343677043914794922e+00 2.024579429626464844e+01 7.076841831207275391e+00 3.078653812408447266e+00
8.800000000000000000e+01 1.922932052612304688e+01 2.278384923934936523e+00 2.944763660430908203e+00 1.729773139953613281e+01 6.072748661041259766e+00 2.970555543899536133e+00
8.900000000000000000e+01 1.892697143554687500e+01 1.753623843193054199e+00 4.623267173767089844e+00 3.317776107788085938e+01 1.134030818939208984e+01 6.023079752922058105e-01
9.000000000000000000e+01 1.897247314453125000e+01 1.947393894195556641e+00 3.091418027877807617e+00 2.430257797241210938e+01 8.218198776245117188e+00 1.347293257713317871e-01
9.100000000000000000e+01 1.901797676086425781e+01 2.141163825988769531e+00 2.630839347839355469e+00 1.984104919433593750e+01 6.741566658020019531e+00 3.230413198471069336e-01
9.200000000000000000e+01 1.906347846984863281e+01 2.334933996200561523e+00 1.847682714462280273e+00 1.668943786621093750e+01 5.561136245727539062e+00 6.921528577804565430e-01
9.300000000000000000e+01 1.886907958984375000e+01 1.761350393295288086e+00 3.449841022491455078e+00 3.113876724243164062e+01 1.037658214569091797e+01 -3.635358572006225586e+00
9.400000000000000000e+01 1.887598609924316406e+01 1.960271596908569336e+00 3.174393415451049805e+00 2.243992042541503906e+01 7.684294223785400391e+00 -2.974943399429321289e+00
9.500000000000000000e+01 1.888289260864257812e+01 2.159192562103271484e+00 2.232311725616455078e+00 1.796835136413574219e+01 6.060198783874511719e+00 -2.214599609375000000e+00
9.600000000000000000e+01 1.888980102539062500e+01 2.358113765716552734e+00 2.133567571640014648e+00 1.525896072387695312e+01 5.217758655548095703e+00 -1.670307993888854980e+00
9.700000000000000000e+01 1.881078910827636719e+01 1.757658243179321289e+00 4.455344676971435547e+00 2.743907737731933594e+01 9.568326950073242188e+00 -7.469253063201904297e+00
9.800000000000000000e+01 1.877883720397949219e+01 1.954117894172668457e+00 3.597049474716186523e+00 1.903726768493652344e+01 6.790295124053955078e+00 -5.445565223693847656e+00
9.900000000000000000e+01 1.874688529968261719e+01 2.150577545166015625e+00 3.200140476226806641e+00 1.523860645294189453e+01 5.531624317169189453e+00 -4.276502609252929688e+00
1.000000000000000000e+02 1.871493339538574219e+01 2.347037076950073242e+00 2.546245336532592773e+00 1.274705410003662109e+01 4.587989807128906250e+00 -3.416550397872924805e+00
1.010000000000000000e+02 1.875433540344238281e+01 1.742688536643981934e+00 6.017859458923339844e+00 2.190236854553222656e+01 8.376068115234375000e+00 -1.002000236511230469e+01
1.020000000000000000e+02 1.868474578857421875e+01 1.929168343544006348e+00 5.195016860961914062e+00 1.491815090179443359e+01 6.033950328826904297e+00 -6.921408653259277344e+00
1.030000000000000000e+02 1.861515808105468750e+01 2.115648031234741211e+00 4.097001552581787109e+00 1.157018184661865234e+01 4.700155258178710938e+00 -5.374358654022216797e+00
1.040000000000000000e+02 1.854556846618652344e+01 2.302128076553344727e+00 3.793820619583129883e+00 9.707382202148437500e+00 4.050360679626464844e+00 -4.357452869415283203e+00
1.050000000000000000e+02 1.870187377929687500e+01 1.717014193534851074e+00 8.550240516662597656e+00 1.569367504119873047e+01 7.273174285888671875e+00 -1.072374248504638672e+01
1.060000000000000000e+02 1.859731101989746094e+01 1.886377811431884766e+00 6.290809154510498047e+00 1.019601249694824219e+01 4.946046352386474609e+00 -7.107859134674072266e+00
1.070000000000000000e+02 1.849275016784667969e+01 2.055741310119628906e+00 5.499486446380615234e+00 7.836050033569335938e+00 4.000660896301269531e+00 -5.393105983734130859e+00
1.080000000000000000e+02 1.838818740844726562e+01 2.225105047225952148e+00 4.524182319641113281e+00 6.299059391021728516e+00 3.246972560882568359e+00 -4.329603672027587891e+00
1.090000000000000000e+02 1.865541648864746094e+01 1.681617856025695801e+00 9.957544326782226562e+00 9.380610466003417969e+00 5.801446437835693359e+00 -9.511590957641601562e+00
1.100000000000000000e+02 1.851988220214843750e+01 1.827383875846862793e+00 7.328567504882812500e+00 5.807896137237548828e+00 3.940938949584960938e+00 -5.973929882049560547e+00
1.110000000000000000e+02 1.838434791564941406e+01 1.973149895668029785e+00 5.816678047180175781e+00 4.306909084320068359e+00 3.037075996398925781e+00 -4.337248325347900391e+00
1.120000000000000000e+02 1.824881172180175781e+01 2.118915796279907227e+00 5.190399646759033203e+00 3.536064624786376953e+00 2.617939233779907227e+00 -3.554408788681030273e+00
1.130000000000000000e+02 1.861673927307128906e+01 1.637853980064392090e+00 1.028826713562011719e+01 4.016961574554443359e+00 4.291568279266357422e+00 -6.597161293029785156e+00
1.140000000000000000e+02 1.845541763305664062e+01 1.754444003105163574e+00 6.611689567565917969e+00 2.201742410659790039e+00 2.644029617309570312e+00 -3.817469358444213867e+00
1.150000000000000000e+02 1.829409790039062500e+01 1.871034145355224609e+00 5.556645393371582031e+00 1.731114864349365234e+00 2.186327934265136719e+00 -2.637451410293579102e+00
1.160000000000000000e+02 1.813277816772460938e+01 1.987624287605285645e+00 4.484743595123291016e+00 1.591929674148559570e+00 1.823001980781555176e+00 -2.100938558578491211e+00
1.170000000000000000e+02 1.858732032775878906e+01 1.587397456169128418e+00 7.603480339050292969e+00 2.436483502388000488e-01 2.354138612747192383e+00 -2.891052246093750000e+00
1.180000000000000000e+02 1.840638923645019531e+01 1.670349717140197754e+00 4.734629631042480469e+00 -1.253237277269363403e-01 1.382791757583618164e+00 -1.170335054397583008e+00
1.190000000000000000e+02 1.822545814514160156e+01 1.753302216529846191e+00 3.332427740097045898e+00 5.311204791069030762e-01 1.159064412117004395e+00 -8.171687722206115723e-01
1.200000000000000000e+02 1.804452514648437500e+01 1.836254596710205078e+00 3.327272653579711914e+00 4.951306879520416260e-01 1.146721005439758301e+00 -8.387670516967773438e-01
1.210000000000000000e+02 1.856828880310058594e+01 1.532179117202758789e+00 2.312458038330078125e+00 -2.079952955245971680e+00 6.975149363279342651e-02 1.240959644317626953e+00
1.220000000000000000e+02 1.837467002868652344e+01 1.578319311141967773e+00 -1.245978176593780518e-01 -2.274768799543380737e-01 -1.056224107742309570e-01 6.490207910537719727e-01
1.230000000000000000e+02 1.818105125427246094e+01 1.624459385871887207e+00 1.134672522544860840e+00 2.371706068515777588e-01 4.115529358386993408e-01 -1.110170558094978333e-01
1.240000000000000000e+02 1.798743057250976562e+01 1.670599579811096191e+00 1.021442174911499023e+00 -1.412272453308105469e-01 2.640644609928131104e-01 1.948960870504379272e-01
1.250000000000000000e+02 1.856037139892578125e+01 1.474312186241149902e+00 -1.001393890380859375e+01 -1.428599834442138672e+00 -3.432761669158935547e+00 2.373047828674316406e+00
1.260000000000000000e+02 1.836147499084472656e+01 1.481874346733093262e+00 -2.965719461441040039e+00 5.018938183784484863e-01 -7.391477227210998535e-01 -1.360796540975570679e-01
1.270000000000000000e+02 1.816257667541503906e+01 1.489436626434326172e+00 -2.211795806884765625e+00 -2.090903222560882568e-01 -7.262658476829528809e-01 3.067237436771392822e-01
1.280000000000000000e+02 1.796368026733398438e+01 1.496998786926269531e+00 -1.419762969017028809e+00 8.646976202726364136e-02 -3.999879360198974609e-01 1.374727040529251099e-01
1.290000000000000000e+02 1.598319911956787109e+01 1.147457718849182129e+00 -5.541692733764648438e+00 -9.461029618978500366e-02 -1.690890908241271973e+00 -5.830574035644531250e-01
1.300000000000000000e+02 1.989101982116699219e+01 1.868267297744750977e+00 9.278459548950195312e+00 1.014029788970947266e+01 5.825627326965332031e+00 6.370419979095458984e+00
1.310000000000000000e+02 1.993374252319335938e+01 2.340351581573486328e+00 5.681996345520019531e+00 1.048431587219238281e+01 4.849893569946289062e+00 5.847760200500488281e+00
1.320000000000000000e+02 1.638196372985839844e+01 2.294142007827758789e+00 1.482949376106262207e+00 -1.960594207048416138e-01 3.860669732093811035e-01 -4.021952748298645020e-01
1.330000000000000000e+02 1.849947738647460938e+01 2.816178083419799805e+00 2.193831205368041992e+00 7.762306213378906250e+00 2.986841201782226562e+00 -2.587126731872558594e+00
1.340000000000000000e+02 1.862712097167968750e+01 4.114508330821990967e-01 8.424877524375915527e-01 1.430203247070312500e+01 4.543355941772460938e+00 8.826426506042480469e+00
1.350000000000000000e+02 1.616827774047851562e+01 -1.111107990145683289e-01 -1.301766514778137207e+00 2.365387916564941406e+00 3.190864324569702148e-01 1.415735244750976562e+00
1.360000000000000000e+02 1.614081954956054688e+01 1.026213914155960083e-01 -1.839737772941589355e+00 1.805312871932983398e+00 -1.032746862620115280e-02 9.388914108276367188e-01
1.370000000000000000e+02 1.656149673461914062e+01 1.594349443912506104e-01 -1.320940494537353516e+00 2.212965726852416992e+00 2.676075398921966553e-01 1.859964251518249512e+00
1.380000000000000000e+02 1.778223800659179688e+01 1.276168346405029297e+00 -5.650520920753479004e-01 2.089682519435882568e-01 -1.068251579999923706e-01 5.857775211334228516e-01
1.390000000000000000e+02 1.863618659973144531e+01 4.548520594835281372e-02 -7.777892947196960449e-01 1.324553203582763672e+01 3.740322828292846680e+00 7.682092666625976562e+00
1.400000000000000000e+02 1.781297874450683594e+01 8.828490972518920898e-03 2.124442160129547119e-01 6.659979820251464844e+00 2.061727285385131836e+00 6.458378314971923828e+00
1.410000000000000000e+02 1.758803749084472656e+01 2.652534246444702148e-01 4.161837995052337646e-01 4.388074874877929688e+00 1.441277623176574707e+00 5.577965736389160156e+00
1.420000000000000000e+02 1.658570480346679688e+01 -7.162215560674667358e-02 -7.600377798080444336e-01 2.911807775497436523e+00 6.455309987068176270e-01 2.338153839111328125e+00
1.430000000000000000e+02 1.902392959594726562e+01 2.824906587600708008e+00 1.278097748756408691e+00 1.191106796264648438e+01 3.956749677658081055e+00 8.216363191604614258e-02
1.440000000000000000e+02 1.931941986083984375e+01 2.445653200149536133e+00 2.367276668548583984e+00 1.503517436981201172e+01 5.220735549926757812e+00 3.114187955856323242e+00
1.450000000000000000e+02 2.011650657653808594e+01 1.979920625686645508e+00 8.291525840759277344e+00 8.235343933105468750e+00 4.958061218261718750e+00 5.898477554321289062e+00
1.460000000000000000e+02 1.995237922668457031e+01 1.686146140098571777e+00 1.054377269744873047e+01 9.221250534057617188e+00 5.929507255554199219e+00 5.351286411285400391e+00
1.470000000000000000e+02 2.019837379455566406e+01 1.127046704292297363e+00 8.754807472229003906e+00 6.302309513092041016e+00 4.517135143280029297e+00 2.472543239593505859e+00
1.480000000000000000e+02 1.979656982421875000e+01 8.519651889801025391e-01 6.221549987792968750e+00 1.194980812072753906e+01 5.451407432556152344e+00 1.185382604598999023e+00
1.490000000000000000e+02 1.943468093872070312e+01 5.121937394142150879e-01 2.267549037933349609e+00 1.615972518920898438e+01 5.528182029724121094e+00 2.599735498428344727e+00
1.500000000000000000e+02 1.576638603210449219e+01 2.652804136276245117e+00 1.252569437026977539e+00 -1.815628856420516968e-01 3.213019967079162598e-01 -7.484739422798156738e-01
1.510000000000000000e+02 1.596082878112792969e+01 2.665515422821044922e+00 1.479207038879394531e+00 -2.966545522212982178e-01 3.547657430171966553e-01 -7.775289416313171387e-01
1.520000000000000000e+02 1.615082168579101562e+01 2.680570840835571289e+00 1.586074471473693848e+00 -1.810936778783798218e-01 4.214942455291748047e-01 -7.534489035606384277e-01
1.530000000000000000e+02 1.600538635253906250e+01 1.878938794136047363e+00 5.619549155235290527e-01 -1.572466641664505005e-01 1.214124783873558044e-01 -1.767890155315399170e-01
1.540000000000000000e+02 1.609086990356445312e+01 1.653935551643371582e+00 2.510662674903869629e-01 8.897150866687297821e-03 7.798902690410614014e-02 -7.937729358673095703e-02
1.550000000000000000e+02 1.751748657226562500e+01 2.740211963653564453e+00 3.263408899307250977e+00 1.395655751228332520e+00 1.397719383239746094e+00 -1.763512253761291504e+00
1.560000000000000000e+02 1.614212036132812500e+01 1.418922185897827148e+00 3.203827654942870140e-03 -6.621817499399185181e-02 -1.890430413186550140e-02 -1.028269715607166290e-02
1.570000000000000000e+02 1.605179977416992188e+01 2.215084791183471680e+00 1.063774108886718750e+00 -2.424683868885040283e-01 2.463917285203933716e-01 -3.739558458328247070e-01
1.580000000000000000e+02 1.694688606262207031e+01 1.521775364875793457e+00 -8.665584959089756012e-03 -9.735933691263198853e-02 -3.180747479200363159e-02 5.732144415378570557e-02
1.590000000000000000e+02 1.687566947937011719e+01 2.482073545455932617e+00 2.232783794403076172e+00 4.974104091525077820e-02 6.847574114799499512e-01 -7.493816018104553223e-01
1.600000000000000000e+02 1.691158866882324219e+01 2.183173179626464844e+00 1.765966773033142090e+00 -8.157660812139511108e-02 5.053170323371887207e-01 -3.020325005054473877e-01
1.610000000000000000e+02 1.776692581176757812e+01 1.504100918769836426e+00 -9.822633266448974609e-01 -3.756978362798690796e-02 -3.059499263763427734e-01 1.635116189718246460e-01
1.620000000000000000e+02 2.023774528503417969e+01 1.620142579078674316e+00 9.334883689880371094e+00 6.343169212341308594e+00 4.703415870666503906e+00 4.505467891693115234e+00
1.630000000000000000e+02 1.913713455200195312e+01 2.538770198822021484e+00 1.833852171897888184e+00 1.466520786285400391e+01 4.949717998504638672e+00 1.120540738105773926e+00
1.640000000000000000e+02 1.843823242187500000e+01 2.490003824234008789e+00 3.209694385528564453e+00 7.816708087921142578e+00 3.307920694351196289e+00 -3.724856615066528320e+00
1.650000000000000000e+02 1.779857063293457031e+01 1.715993046760559082e+00 1.233548879623413086e+00 8.607059717178344727e-02 3.958858251571655273e-01 1.096815392374992371e-01
1.660000000000000000e+02 1.758792495727539062e+01 1.238152027130126953e+00 -1.655410051345825195e+00 2.318481542170047760e-02 -4.896675646305084229e-01 5.073543190956115723e-01
1.670000000000000000e+02 1.925199890136718750e+01 4.253662824630737305e-01 -2.358374297618865967e-01 1.694781112670898438e+01 5.013592243194580078e+00 3.834697484970092773e+00
1.680000000000000000e+02 1.959219551086425781e+01 6.157719492912292480e-01 2.909178972244262695e+00 1.416080093383789062e+01 5.120994091033935547e+00 1.004284381866455078e+00
1.690000000000000000e+02 1.611228752136230469e+01 3.141062855720520020e-01 -2.377889394760131836e+00 1.001328945159912109e+00 -4.129681289196014404e-01 4.936891496181488037e-01
1.700000000000000000e+02 1.637449264526367188e+01 1.187207698822021484e+00 -5.703210353851318359e+00 -1.072499826550483704e-01 -1.743138074874877930e+00 -4.205427467823028564e-01
1.710000000000000000e+02 1.690906333923339844e+01 2.709079504013061523e+00 2.345103263854980469e+00 2.207717299461364746e-01 7.697625160217285156e-01 -9.489706754684448242e-01
1.720000000000000000e+02 1.618034934997558594e+01 2.470855951309204102e+00 1.494692444801330566e+00 -2.575488686561584473e-01 3.711430728435516357e-01 -5.888603329658508301e-01
1.730000000000000000e+02 1.797349929809570312e+01 2.101458787918090820e+00 4.199234008789062500e+00 1.376324892044067383e+00 1.672667741775512695e+00 -1.856869459152221680e+00
1.740000000000000000e+02 1.789935302734375000e+01 2.800940990447998047e+00 3.308259248733520508e+00 3.304885387420654297e+00 1.983943343162536621e+00 -2.427293062210083008e+00
1.750000000000000000e+02 1.811297607421875000e+01 2.258012056350708008e+00 4.348153591156005859e+00 3.071137428283691406e+00 2.225787401199340820e+00 -2.946607351303100586e+00
1.760000000000000000e+02 1.654351425170898438e+01 2.488803863525390625e+00 1.872940897941589355e+00 -1.301684528589248657e-01 5.228317379951477051e-01 -6.395996809005737305e-01
1.770000000000000000e+02 1.827812004089355469e+01 2.622574567794799805e+00 3.325995206832885742e+00 6.108320236206054688e+00 2.830294609069824219e+00 -3.243168830871582031e+00
1.780000000000000000e+02 1.580245780944824219e+01 2.437919616699218750e+00 1.121715545654296875e+00 -2.681835889816284180e-01 2.560595870018005371e-01 -5.868021845817565918e-01
1.790000000000000000e+02 1.627098464965820312e+01 1.706194639205932617e+00 3.949379324913024902e-01 -8.991575241088867188e-02 9.150665998458862305e-02 -4.554062709212303162e-02
1.800000000000000000e+02 1.653143501281738281e+01 2.704206943511962891e+00 1.973094701766967773e+00 -2.859953232109546661e-02 5.833485126495361328e-01 -8.087284564971923828e-01
1.810000000000000000e+02 1.767638397216796875e+01 2.295766353607177734e+00 3.431777477264404297e+00 9.758824706077575684e-01 1.322298049926757812e+00 -1.334639668464660645e+00
1.820000000000000000e+02 1.770999526977539062e+01 2.774582147598266602e+00 3.319218158721923828e+00 2.220894575119018555e+00 1.662033796310424805e+00 -2.105072498321533203e+00
1.830000000000000000e+02 1.710809135437011719e+01 2.684024572372436523e+00 2.633695125579833984e+00 4.176701903343200684e-01 9.154095649719238281e-01 -1.144324064254760742e+00
1.840000000000000000e+02 1.867969322204589844e+01 2.854577779769897461e+00 1.705575704574584961e+00 9.392635345458984375e+00 3.329463481903076172e+00 -2.142787218093872070e+00
1.850000000000000000e+02 1.992981338500976562e+01 1.385041594505310059e+00 1.142141056060791016e+01 8.912088394165039062e+00 6.100049495697021484e+00 3.695648193359375000e+00
1.860000000000000000e+02 1.841913604736328125e+01 4.618577063083648682e-01 1.377024888992309570e+00 1.145312404632568359e+01 3.849044799804687500e+00 9.429867744445800781e+00
1.870000000000000000e+02 1.789783287048339844e+01 5.771000981330871582e-01 1.951151490211486816e+00 4.646960258483886719e+00 1.979433536529541016e+00 6.610205173492431641e+00
1.880000000000000000e+02 2.004900550842285156e+01 1.257653951644897461e+00 9.710958480834960938e+00 7.634432792663574219e+00 5.203617572784423828e+00 3.052875518798828125e+00
1.890000000000000000e+02 1.903812599182128906e+01 2.150390744209289551e-01 -1.405832886695861816e+00 1.616980743408203125e+01 4.429192066192626953e+00 5.950284481048583984e+00
1.900000000000000000e+02 1.839856147766113281e+01 2.578645646572113037e-01 8.748473525047302246e-01 1.114537429809570312e+01 3.606066465377807617e+00 8.647377014160156250e+00
1.910000000000000000e+02 1.948177146911621094e+01 2.324099302291870117e+00 4.187243938446044922e+00 1.491473293304443359e+01 5.730593204498291016e+00 5.037618160247802734e+00
1.920000000000000000e+02 1.894432830810546875e+01 2.580110788345336914e+00 1.490774869918823242e+00 1.323069286346435547e+01 4.416440486907958984e+00 -8.882181644439697266e-01
1.930000000000000000e+02 1.827700233459472656e+01 2.377084732055664062e+00 4.243459224700927734e+00 5.354035377502441406e+00 2.879248380661010742e+00 -3.814505577087402344e+00
1.940000000000000000e+02 1.757123947143554688e+01 1.510505557060241699e+00 -6.278002262115478516e-01 4.848504438996315002e-02 -1.737945675849914551e-01 1.664430201053619385e-01
1.950000000000000000e+02 1.861511039733886719e+01 2.568693876266479492e+00 2.544976949691772461e+00 1.015741252899169922e+01 3.810716867446899414e+00 -3.008435249328613281e+00
1.960000000000000000e+02 1.731589126586914062e+01 2.693567037582397461e+00 2.973917722702026367e+00 7.697110772132873535e-01 1.123088598251342773e+00 -1.384311676025390625e+00
1.970000000000000000e+02 1.965176773071289062e+01 2.203775405883789062e+00 5.602814197540283203e+00 1.344212150573730469e+01 5.713480949401855469e+00 6.265077590942382812e+00
1.980000000000000000e+02 1.958021545410156250e+01 2.539567947387695312e+00 3.408848047256469727e+00 1.264170169830322266e+01 4.815165042877197266e+00 4.548996925354003906e+00
1.990000000000000000e+02 1.941300582885742188e+01 2.733912706375122070e+00 1.899492502212524414e+00 1.268475723266601562e+01 4.375275135040283203e+00 2.900470972061157227e+00
2.000000000000000000e+02 1.996102905273437500e+01 6.078370213508605957e-01 3.585537433624267578e+00 9.740052223205566406e+00 3.997676849365234375e+00 1.259647727012634277e+00
2.010000000000000000e+02 1.954540061950683594e+01 2.861551940441131592e-01 -4.627281427383422852e-01 1.387508106231689453e+01 4.023705959320068359e+00 2.489148855209350586e+00
2.020000000000000000e+02 2.003989982604980469e+01 7.672941088676452637e-01 5.824666023254394531e+00 8.551214218139648438e+00 4.312764167785644531e+00 1.887407064437866211e+00
2.030000000000000000e+02 2.011716842651367188e+01 9.460176825523376465e-01 7.188739776611328125e+00 7.314288616180419922e+00 4.350908756256103516e+00 2.246793985366821289e+00
2.040000000000000000e+02 1.921628189086914062e+01 2.777451038360595703e+00 1.338060975074768066e+00 1.253461265563964844e+01 4.161802291870117188e+00 1.395999431610107422e+00
2.050000000000000000e+02 1.884717369079589844e+01 2.859982252120971680e+00 1.343650698661804199e+00 1.090658473968505859e+01 3.675070524215698242e+00 -8.369833230972290039e-01
2.060000000000000000e+02 1.979710388183593750e+01 2.049900770187377930e+00 7.841719627380371094e+00 1.178677463531494141e+01 5.888548374176025391e+00 6.480324745178222656e+00
2.070000000000000000e+02 2.015054321289062500e+01 1.378488779067993164e+00 9.687610626220703125e+00 6.631435871124267578e+00 4.895714282989501953e+00 3.573844432830810547e+00
2.080000000000000000e+02 1.991295242309570312e+01 1.216450810432434082e+00 1.012276363372802734e+01 9.327184677124023438e+00 5.834984779357910156e+00 2.670651435852050781e+00
2.090000000000000000e+02 2.027808570861816406e+01 1.450269818305969238e+00 9.520730018615722656e+00 5.597899913787841797e+00 4.535588741302490234e+00 3.879233360290527344e+00
2.100000000000000000e+02 1.904419517517089844e+01 3.857603967189788818e-01 -5.081607401371002197e-02 1.729086875915527344e+01 5.172016143798828125e+00 5.788618087768554688e+00
2.110000000000000000e+02 1.959117889404296875e+01 2.683630228042602539e+00 2.608979225158691406e+00 1.194251251220703125e+01 4.365447521209716797e+00 4.007322311401367188e+00
2.120000000000000000e+02 2.018417549133300781e+01 1.799143791198730469e+00 8.815753936767578125e+00 6.984141826629638672e+00 4.739968776702880859e+00 5.546892642974853516e+00
2.130000000000000000e+02 1.987911224365234375e+01 1.027257084846496582e+00 8.924242019653320312e+00 1.016562080383300781e+01 5.726958751678466797e+00 1.652517557144165039e+00
2.140000000000000000e+02 2.002227401733398438e+01 2.162012815475463867e+00 6.838709831237792969e+00 9.418992042541503906e+00 4.877310752868652344e+00 6.274755477905273438e+00
2.150000000000000000e+02 1.985326957702636719e+01 4.836218059062957764e-01 1.540155172348022461e+00 1.099964332580566406e+01 3.761939525604248047e+00 1.070274472236633301e+00
2.160000000000000000e+02 1.618081092834472656e+01 1.167098999023437500e+00 -5.700877666473388672e+00 9.974160045385360718e-02 -1.680340886116027832e+00 -5.167121291160583496e-01
2.170000000000000000e+02 1.631153678894042969e+01 5.545920133590698242e-01 -2.783051967620849609e+00 8.006050586700439453e-01 -5.947340726852416992e-01 4.077221155166625977e-01
2.180000000000000000e+02 1.601606559753417969e+01 9.395689964294433594e-01 -4.850691318511962891e+00 7.380442321300506592e-02 -1.433066129684448242e+00 -4.173337519168853760e-01
2.190000000000000000e+02 1.738279533386230469e+01 1.184563994407653809e+00 -2.705860614776611328e+00 -3.764157369732856750e-02 -8.230506181716918945e-01 6.002788543701171875e-01
2.200000000000000000e+02 1.586547851562500000e+01 1.816203594207763672e+00 4.131616950035095215e-01 -1.252433359622955322e-01 8.637550473213195801e-02 -1.884570568799972534e-01
2.210000000000000000e+02 1.737137222290039062e+01 1.514180064201354980e+00 -3.344456553459167480e-01 -9.681742638349533081e-03 -1.032382175326347351e-01 1.749569624662399292e-01
2.220000000000000000e+02 1.787007904052734375e+01 1.915191292762756348e+00 2.843391418457031250e+00 2.600402534008026123e-01 9.310294985771179199e-01 -5.970647335052490234e-01
2.230000000000000000e+02 1.716219902038574219e+01 1.529930830001831055e+00 -1.148717626929283142e-01 -3.648610785603523254e-02 -4.540736228227615356e-02 1.320286244153976440e-01
2.240000000000000000e+02 1.842799377441406250e+01 3.914241492748260498e-02 -9.331042170524597168e-01 1.148594474792480469e+01 3.165852308273315430e+00 7.916128635406494141e+00
2.250000000000000000e+02 1.801808929443359375e+01 1.607940718531608582e-02 -7.345359027385711670e-02 8.462288856506347656e+00 2.516650676727294922e+00 7.605668544769287109e+00
2.260000000000000000e+02 1.719417762756347656e+01 2.288206666707992554e-01 -3.505544364452362061e-01 3.310435533523559570e+00 8.879643082618713379e-01 3.999670028686523438e+00
2.270000000000000000e+02 1.677160072326660156e+01 2.160069942474365234e-01 -9.862307310104370117e-01 2.369372606277465820e+00 4.149425327777862549e-01 2.448163747787475586e+00
2.280000000000000000e+02 1.819132423400878906e+01 2.420233339071273804e-01 4.117318391799926758e-01 9.409493446350097656e+00 2.946367502212524414e+00 8.298131942749023438e+00
2.290000000000000000e+02 1.720271873474121094e+01 -2.197806723415851593e-02 -1.203594431281089783e-01 4.504011154174804688e+00 1.315095543861389160e+00 4.248157501220703125e+00
2.300000000000000000e+02 1.699776649475097656e+01 -3.139781579375267029e-02 -3.395722210407257080e-01 3.822345733642578125e+00 1.044832110404968262e+00 3.535928010940551758e+00
2.310000000000000000e+02 1.726181221008300781e+01 4.524605870246887207e-01 -2.108572749421000481e-03 2.746896982192993164e+00 8.234364986419677734e-01 3.671989440917968750e+00
2.320000000000000000e+02 1.675764846801757812e+01 1.189150929450988770e+00 -5.017299652099609375e+00 6.384016573429107666e-02 -1.486037850379943848e+00 -8.288887888193130493e-02
2.330000000000000000e+02 1.884258079528808594e+01 5.104705691337585449e-02 -1.781974315643310547e+00 1.460864162445068359e+01 3.848000288009643555e+00 6.981891632080078125e+00
2.340000000000000000e+02 1.760848426818847656e+01 2.512721577659249306e-03 7.962532043457031250e-01 5.847059249877929688e+00 1.992993712425231934e+00 6.093496322631835938e+00
2.350000000000000000e+02 1.903426361083984375e+01 5.975185334682464600e-02 -1.181271672248840332e+00 1.458072280883789062e+01 4.019835472106933594e+00 5.963972568511962891e+00
2.360000000000000000e+02 1.627426338195800781e+01 7.652621269226074219e-01 -3.718869447708129883e+00 4.797508418560028076e-01 -9.717355966567993164e-01 1.036918684840202332e-01
2.370000000000000000e+02 1.605245780944824219e+01 7.318589091300964355e-01 -3.733019351959228516e+00 2.808348536491394043e-01 -1.035655379295349121e+00 -2.968189418315887451e-01
2.380000000000000000e+02 1.585416412353515625e+01 2.002302169799804688e+00 6.412363648414611816e-01 -1.939128786325454712e-01 1.341970562934875488e-01 -2.617814838886260986e-01
2.390000000000000000e+02 1.634123802185058594e+01 2.694004297256469727e+00 1.857015848159790039e+00 -1.977730691432952881e-01 4.977728426456451416e-01 -8.107539415359497070e-01
2.400000000000000000e+02 1.615776062011718750e+01 1.966791987419128418e+00 7.295079827308654785e-01 -9.222094714641571045e-02 1.911861151456832886e-01 -1.718408167362213135e-01
2.410000000000000000e+02 1.800476455688476562e+01 2.418281078338623047e+00 4.127346992492675781e+00 2.968594551086425781e+00 2.128782510757446289e+00 -2.664413690567016602e+00
2.420000000000000000e+02 1.766246604919433594e+01 9.974809885025024414e-01 1.665048897266387939e-01 1.004582524299621582e+00 3.513262271881103516e-01 2.667594432830810547e+00
2.430000000000000000e+02 1.656530952453613281e+01 1.195562362670898438e+00 -5.477791309356689453e+00 1.582624912261962891e-01 -1.595858573913574219e+00 -3.108886480331420898e-01
2.440000000000000000e+02 1.757238006591796875e+01 6.746632456779479980e-01 8.902532458305358887e-01 2.539041519165039062e+00 1.028788447380065918e+00 4.385888099670410156e+00
2.450000000000000000e+02 1.691274261474609375e+01 8.918001651763916016e-01 -2.850420236587524414e+00 5.789542794227600098e-01 -6.814398169517517090e-01 9.093903899192810059e-01
2.460000000000000000e+02 1.633592224121093750e+01 1.441874980926513672e+00 1.632287725806236267e-02 3.987812995910644531e-02 1.686030067503452301e-02 -8.529609069228172302e-03
2.470000000000000000e+02 1.653333282470703125e+01 1.462117195129394531e+00 2.454612590372562408e-02 -3.284340724349021912e-02 -2.489184727892279625e-03 9.188756812363862991e-04
2.480000000000000000e+02 1.705269622802734375e+01 1.987402081489562988e+00 1.462212443351745605e+00 -6.810724735260009766e-02 4.182315468788146973e-01 -2.694484405219554901e-02
2.490000000000000000e+02 1.635275840759277344e+01 1.284724175930023193e-01 -1.521181821823120117e+00 1.960689067840576172e+00 1.318521797657012939e-01 1.470137953758239746e+00
2.500000000000000000e+02 1.822330856323242188e+01 5.643064379692077637e-01 2.518620729446411133e+00 8.057338714599609375e+00 3.172787904739379883e+00 8.559386253356933594e+00
2.510000000000000000e+02 1.622257804870605469e+01 2.259902715682983398e+00 1.213682770729064941e+00 -1.570950299501419067e-01 3.169763088226318359e-01 -3.757455348968505859e-01
2.520000000000000000e+02 1.793620300292968750e+01 8.820873498916625977e-01 2.774334192276000977e+00 2.684112310409545898e+00 1.637534022331237793e+00 5.243620872497558594e+00
2.530000000000000000e+02 1.769410514831542969e+01 4.544793367385864258e-01 1.489285707473754883e+00 4.212303161621093750e+00 1.710476636886596680e+00 5.647292613983154297e+00
2.540000000000000000e+02 1.806229972839355469e+01 7.130122184753417969e-01 3.500475168228149414e+00 5.145543575286865234e+00 2.593805551528930664e+00 7.400289535522460938e+00
2.550000000000000000e+02 1.769314193725585938e+01 1.999058842658996582e+00 2.815503358840942383e+00 3.374679982662200928e-01 9.458914399147033691e-01 -5.539365410804748535e-01
2.560000000000000000e+02 1.639226913452148438e+01 1.006555676460266113e+00 -4.702182292938232422e+00 2.274345755577087402e-01 -1.342424273490905762e+00 -2.189768701791763306e-01
2.570000000000000000e+02 1.712752342224121094e+01 8.277118802070617676e-01 -1.588438987731933594e+00 9.135183095932006836e-01 -2.024762034416198730e-01 1.645704746246337891e+00
2.580000000000000000e+02 1.747463226318359375e+01 9.104448556900024414e-01 -2.455732226371765137e-01 9.301998019218444824e-01 2.053879797458648682e-01 2.453273773193359375e+00
2.590000000000000000e+02 1.721710205078125000e+01 1.822097659111022949e+00 1.027866721153259277e+00 -8.873280882835388184e-02 2.817401885986328125e-01 2.654046751558780670e-02
2.600000000000000000e+02 1.594624900817871094e+01 1.397675514221191406e+00 -3.483493998646736145e-02 5.823745951056480408e-02 7.020756136626005173e-03 -3.374414518475532532e-02
2.610000000000000000e+02 1.721407699584960938e+01 2.221424102783203125e+00 2.379707813262939453e+00 1.029984578490257263e-01 7.448118925094604492e-01 -5.369304418563842773e-01
2.620000000000000000e+02 1.645930099487304688e+01 8.496108055114746094e-01 -3.598047018051147461e+00 4.333974123001098633e-01 -9.493948817253112793e-01 1.839057207107543945e-01
2.630000000000000000e+02 1.738586997985839844e+01 2.601032257080078125e-01 3.749949932098388672e-01 3.747035264968872070e+00 1.236609101295471191e+00 4.664772987365722656e+00
2.640000000000000000e+02 1.703478431701660156e+01 5.330139398574829102e-01 -9.061935544013977051e-01 1.688034772872924805e+00 2.345523685216903687e-01 2.545933246612548828e+00
2.650000000000000000e+02 1.584432697296142578e+01 2.210652351379394531e+00 8.815989494323730469e-01 -1.770886927843093872e-01 2.113530784845352173e-01 -3.815975487232208252e-01
2.660000000000000000e+02 1.599928855895996094e+01 2.448668718338012695e+00 1.255941152572631836e+00 -1.868480443954467773e-01 3.207279145717620850e-01 -5.629296898841857910e-01
2.670000000000000000e+02 1.591002273559570312e+01 1.613049387931823730e+00 1.126335337758064270e-01 -1.335098743438720703e-01 -6.262904498726129532e-03 -1.275969892740249634e-01
2.680000000000000000e+02 1.636010360717773438e+01 2.488603115081787109e+00 1.613379478454589844e+00 -1.334706991910934448e-01 4.439726173877716064e-01 -5.793893933296203613e-01
2.690000000000000000e+02 1.671750450134277344e+01 2.499330997467041016e+00 1.965106487274169922e+00 1.625243946909904480e-02 5.944076776504516602e-01 -6.644910573959350586e-01
2.700000000000000000e+02 1.671984672546386719e+01 2.712636232376098633e+00 2.231020689010620117e+00 3.844889998435974121e-02 6.808408498764038086e-01 -9.042013883590698242e-01
2.710000000000000000e+02 1.704506111145019531e+01 2.394338846206665039e+00 2.433804988861083984e+00 1.287388801574707031e-01 7.687631845474243164e-01 -6.660134196281433105e-01
2.720000000000000000e+02 1.739424324035644531e+01 2.393863677978515625e+00 2.942309617996215820e+00 5.470079183578491211e-01 1.046795248985290527e+00 -1.000731229782104492e+00
2.730000000000000000e+02 1.608465385437011719e+01 5.240059494972229004e-01 -3.199534416198730469e+00 7.065119147300720215e-01 -7.479067444801330566e-01 1.404462158679962158e-01
2.740000000000000000e+02 1.621569442749023438e+01 9.674373269081115723e-01 -4.677048683166503906e+00 9.926348179578781128e-02 -1.373335599899291992e+00 -3.996188938617706299e-01
2.750000000000000000e+02 1.654822349548339844e+01 1.004857420921325684e+00 -4.346223831176757812e+00 1.816300302743911743e-01 -1.249378204345703125e+00 5.839495360851287842e-02
2.760000000000000000e+02 1.671775245666503906e+01 9.521909952163696289e-01 -3.660251379013061523e+00 4.637736678123474121e-01 -9.589433073997497559e-01 3.911478221416473389e-01
2.770000000000000000e+02 1.632491302490234375e+01 3.405073881149291992e-01 -2.115540504455566406e+00 1.487522363662719727e+00 -1.884054094552993774e-01 1.019282698631286621e+00
2.780000000000000000e+02 1.637718772888183594e+01 -9.203893691301345825e-02 -1.065670728683471680e+00 2.457498788833618164e+00 4.175484478473663330e-01 1.793162107467651367e+00
2.790000000000000000e+02 1.679283905029296875e+01 -4.865374416112899780e-02 -4.423373341560363770e-01 3.409950494766235352e+00 8.902840018272399902e-01 3.051738262176513672e+00
2.800000000000000000e+02 1.698802566528320312e+01 2.474338561296463013e-01 -5.899879336357116699e-01 2.912897109985351562e+00 6.968727707862854004e-01 3.151681900024414062e+00
2.810000000000000000e+02 1.740606880187988281e+01 -8.159942924976348877e-03 -3.282693773508071899e-02 4.987195968627929688e+00 1.486310720443725586e+00 5.453113555908203125e+00
2.820000000000000000e+02 1.783050727844238281e+01 2.362795352935791016e+00 3.895965337753295898e+00 1.705205082893371582e+00 1.680351138114929199e+00 -2.008267879486083984e+00
2.830000000000000000e+02 1.776214027404785156e+01 2.558513641357421875e+00 3.674916982650756836e+00 2.072034120559692383e+00 1.724085330963134766e+00 -2.134776115417480469e+00
2.840000000000000000e+02 1.758193778991699219e+01 2.492316246032714844e+00 3.390505075454711914e+00 1.075705289840698242e+00 1.339863061904907227e+00 -1.530362486839294434e+00
2.850000000000000000e+02 1.793909072875976562e+01 2.606404781341552734e+00 3.587768316268920898e+00 3.097485780715942383e+00 2.005576133728027344e+00 -2.570312261581420898e+00
2.860000000000000000e+02 1.809042167663574219e+01 2.818365335464477539e+00 3.098737478256225586e+00 4.358538627624511719e+00 2.237182855606079102e+00 -2.751345634460449219e+00
2.870000000000000000e+02 1.829450798034667969e+01 2.812337636947631836e+00 2.860822677612304688e+00 6.281164169311523438e+00 2.742596149444580078e+00 -2.903033733367919922e+00
2.880000000000000000e+02 1.877491378784179688e+01 2.674546003341674805e+00 1.847332954406738281e+00 1.131406116485595703e+01 3.948418378829956055e+00 -1.746200799942016602e+00
2.890000000000000000e+02 1.943858528137207031e+01 2.544050455093383789e+00 2.690352678298950195e+00 1.372236347198486328e+01 4.923814773559570312e+00 3.446970701217651367e+00
2.900000000000000000e+02 1.974357032775878906e+01 2.603859424591064453e+00 3.765753030776977539e+00 1.143773174285888672e+01 4.561045646667480469e+00 4.805608272552490234e+00
2.910000000000000000e+02 1.985704803466796875e+01 2.494037151336669922e+00 4.374083042144775391e+00 1.105766677856445312e+01 4.629524707794189453e+00 5.542778968811035156e+00
2.920000000000000000e+02 1.673666954040527344e+01 1.484742403030395508e+00 2.939201891422271729e-02 2.700551412999629974e-02 1.691925898194313049e-02 -5.902796052396297455e-03
2.930000000000000000e+02 1.647046089172363281e+01 1.733011484146118164e+00 4.719603955745697021e-01 -5.066317971795797348e-03 1.400682330131530762e-01 -2.646418055519461632e-03
2.940000000000000000e+02 1.667662620544433594e+01 1.755270481109619141e+00 5.201289653778076172e-01 -6.171684339642524719e-02 1.375236213207244873e-01 6.906458735466003418e-02
2.950000000000000000e+02 1.687472724914550781e+01 1.823121070861816406e+00 7.915680408477783203e-01 -7.127126306295394897e-02 2.160890251398086548e-01 9.025992453098297119e-02
2.960000000000000000e+02 1.760586929321289062e+01 1.767273664474487305e+00 1.232676148414611816e+00 -3.946777060627937317e-02 3.579625189304351807e-01 9.301003068685531616e-02
2.970000000000000000e+02 1.740632057189941406e+01 1.784405231475830078e+00 1.066419839859008789e+00 4.122729599475860596e-02 3.322941362857818604e-01 5.950958654284477234e-02
2.980000000000000000e+02 1.752974510192871094e+01 2.154321432113647461e+00 2.776062011718750000e+00 3.476704061031341553e-01 9.371197223663330078e-01 -7.233029007911682129e-01
2.990000000000000000e+02 1.695655441284179688e+01 1.176931023597717285e+00 -4.344585895538330078e+00 2.563520073890686035e-01 -1.226470112800598145e+00 1.639000326395034790e-01
3.000000000000000000e+02 1.716703987121582031e+01 1.160936594009399414e+00 -3.526808738708496094e+00 3.113008737564086914e-01 -9.646523594856262207e-01 4.787778556346893311e-01
3.010000000000000000e+02 1.784213447570800781e+01 1.071131229400634766e+00 1.611769437789916992e+00 1.181757330894470215e+00 8.380579948425292969e-01 2.855934858322143555e+00
3.020000000000000000e+02 1.776558113098144531e+01 7.804262638092041016e-01 2.012310266494750977e+00 2.659272670745849609e+00 1.401474952697753906e+00 4.885613918304443359e+00
3.030000000000000000e+02 1.779452514648437500e+01 2.457683980464935303e-01 1.008500695228576660e+00 6.098906040191650391e+00 2.132221937179565430e+00 6.991827487945556641e+00
3.040000000000000000e+02 1.972471427917480469e+01 2.343577861785888672e+00 5.232896327972412109e+00 1.229968357086181641e+01 5.259774208068847656e+00 5.901271820068359375e+00
3.050000000000000000e+02 2.026846885681152344e+01 1.290828227996826172e+00 8.641376495361328125e+00 5.621817588806152344e+00 4.278958320617675781e+00 3.140198469161987305e+00
3.060000000000000000e+02 1.976977157592773438e+01 6.666529178619384766e-01 4.879062175750732422e+00 1.232631874084472656e+01 5.161613941192626953e+00 1.807387351989746094e+00
3.070000000000000000e+02 1.970721244812011719e+01 3.847077488899230957e-01 1.926958560943603516e+00 1.276552391052246094e+01 4.407744884490966797e+00 2.414356946945190430e+00
3.080000000000000000e+02 1.936211776733398438e+01 1.992989182472229004e-01 -5.675263404846191406e-01 1.497220993041992188e+01 4.321404933929443359e+00 3.830003499984741211e+00
3.090000000000000000e+02 1.919435691833496094e+01 1.124957501888275146e-01 -1.444334268569946289e+00 1.484301471710205078e+01 4.019604206085205078e+00 4.565231323242187500e+00
3.100000000000000000e+02 1.883145904541015625e+01 3.888961374759674072e-01 -6.694827079772949219e-01 1.645186424255371094e+01 4.734714031219482422e+00 7.614962100982666016e+00
3.110000000000000000e+02 1.861955070495605469e+01 2.377536296844482422e-01 -6.084607839584350586e-01 1.377501010894775391e+01 3.949964761734008789e+00 8.295479774475097656e+00
3.120000000000000000e+02 1.822238349914550781e+01 2.664260752499103546e-02 4.363472163677215576e-01 9.895452499389648438e+00 3.099539995193481445e+00 8.137952804565429688e+00
3.130000000000000000e+02 1.807619667053222656e+01 4.145253002643585205e-01 2.094430208206176758e+00 7.276466369628906250e+00 2.811269044876098633e+00 8.113493919372558594e+00
3.140000000000000000e+02 1.781098175048828125e+01 2.184398412704467773e+00 3.687805414199829102e+00 1.116840600967407227e+00 1.441393852233886719e+00 -1.530045866966247559e+00
3.150000000000000000e+02 1.799645233154296875e+01 2.393238991498947144e-01 9.975178837776184082e-01 7.073750019073486328e+00 2.421380281448364258e+00 7.248638153076171875e+00
3.160000000000000000e+02 1.883086204528808594e+01 2.261473238468170166e-01 -5.037493705749511719e-01 1.534585666656494141e+01 4.452631950378417969e+00 7.312117576599121094e+00
3.170000000000000000e+02 2.004154586791992188e+01 1.519942879676818848e+00 1.039124011993408203e+01 7.992935180664062500e+00 5.515252590179443359e+00 4.579720973968505859e+00
3.180000000000000000e+02 1.662018585205078125e+01 7.350719571113586426e-01 -2.972005844116210938e+00 7.035740017890930176e-01 -6.805295348167419434e-01 6.626718640327453613e-01
3.190000000000000000e+02 1.735474586486816406e+01 7.079665660858154297e-01 -2.526836693286895752e-01 1.658841609954833984e+00 4.218473732471466064e-01 3.151853084564208984e+00
3.200000000000000000e+02 1.677996826171875000e+01 2.330152511596679688e+00 2.025591373443603516e+00 -8.189243078231811523e-02 5.831096768379211426e-01 -4.367207884788513184e-01
3.210000000000000000e+02 1.736099052429199219e+01 2.008042573928833008e+00 2.179538726806640625e+00 3.216500952839851379e-02 6.635110974311828613e-01 -2.166093140840530396e-01
3.220000000000000000e+02 1.816673660278320312e+01 2.506162881851196289e+00 3.831526041030883789e+00 4.754712581634521484e+00 2.575871467590332031e+00 -3.278981208801269531e+00
3.230000000000000000e+02 1.810844421386718750e+01 2.645161151885986328e+00 3.573335886001586914e+00 4.321350574493408203e+00 2.368405818939208984e+00 -2.864458560943603516e+00
3.240000000000000000e+02 1.972487449645996094e+01 2.489453554153442383e+00 3.920060396194458008e+00 1.192828655242919922e+01 4.754504203796386719e+00 5.218996524810791016e+00
3.250000000000000000e+02 1.955414581298828125e+01 2.424320220947265625e+00 3.592823743820190430e+00 1.402468872070312500e+01 5.285254001617431641e+00 4.947339057922363281e+00
3.260000000000000000e+02 1.630322265625000000e+01 2.054153680801391602e+00 9.964428544044494629e-01 -1.357731968164443970e-01 2.582008838653564453e-01 -1.487586498260498047e-01
3.270000000000000000e+02 1.666578865051269531e+01 2.218387842178344727e+00 1.592829942703247070e+00 -1.180294603109359741e-01 4.424401521682739258e-01 -3.471658527851104736e-01
3.280000000000000000e+02 1.653696441650390625e+01 2.300857067108154297e+00 1.657924294471740723e+00 -1.083380877971649170e-01 4.648758471012115479e-01 -3.420491218566894531e-01
3.290000000000000000e+02 1.652089500427246094e+01 3.605940937995910645e-01 -1.756487488746643066e+00 1.637735962867736816e+00 -3.562545403838157654e-02 1.450028896331787109e+00
3.300000000000000000e+02 1.642508125305175781e+01 2.118879556655883789e+00 1.248453736305236816e+00 -1.398969143629074097e-01 3.325670361518859863e-01 -1.689802855253219604e-01
3.310000000000000000e+02 1.655557060241699219e+01 2.144410848617553711e+00 1.387041330337524414e+00 -1.675196141004562378e-01 3.658564984798431396e-01 -2.628987431526184082e-01
3.320000000000000000e+02 1.669064140319824219e+01 4.332298040390014648e-01 -1.568197250366210938e+00 1.588859200477600098e+00 6.198578514158725739e-03 1.728885889053344727e+00
3.330000000000000000e+02 1.676785278320312500e+01 2.045956134796142578e+00 1.437703490257263184e+00 -1.183253452181816101e-01 3.958134353160858154e-01 -1.021034419536590576e-01
3.340000000000000000e+02 1.682253074645996094e+01 6.255305409431457520e-01 -1.746246337890625000e+00 1.289158940315246582e+00 -1.371262073516845703e-01 1.611005425453186035e+00
3.350000000000000000e+02 1.661439323425292969e+01 1.972617864608764648e+00 1.036416649818420410e+00 -8.882601559162139893e-02 2.842772006988525391e-01 -3.117411024868488312e-02
3.360000000000000000e+02 1.644587707519531250e+01 1.951701283454895020e+00 8.254320621490478516e-01 -1.313729584217071533e-01 2.082177251577377319e-01 -1.194427385926246643e-01
3.370000000000000000e+02 1.652616882324218750e+01 5.424773097038269043e-01 -2.283251285552978516e+00 1.083151102066040039e+00 -3.600300848484039307e-01 9.927371740341186523e-01
3.380000000000000000e+02 1.386655902862548828e+01 1.599062085151672363e+00 -5.046784877777099609e-01 -1.095991283655166626e-01 -1.842832863330841064e-01 -4.630572199821472168e-01
3.390000000000000000e+02 1.467256736755371094e+01 1.271844267845153809e+00 -5.810722112655639648e-01 -2.739391848444938660e-02 -1.825398504734039307e-01 -2.678500115871429443e-01
3.400000000000000000e+02 1.565241336822509766e+01 1.971780538558959961e+00 5.774727463722229004e-01 -1.814658939838409424e-01 1.188020557165145874e-01 -3.177355229854583740e-01
3.410000000000000000e+02 1.536251449584960938e+01 2.555221796035766602e+00 9.301594495773315430e-01 -3.197856545448303223e-01 1.831121444702148438e-01 -6.881206035614013672e-01
3.420000000000000000e+02 1.558415412902832031e+01 2.145190954208374023e+00 7.169938683509826660e-01 -2.697127461433410645e-01 1.341843307018280029e-01 -3.869898021221160889e-01
3.430000000000000000e+02 1.304693126678466797e+01 1.924183011054992676e+00 -4.894140362739562988e-01 -5.685842409729957581e-02 -1.638817340135574341e-01 -5.644162297248840332e-01
3.440000000000000000e+02 1.397381019592285156e+01 1.113638520240783691e+00 -9.352023005485534668e-01 -1.231459975242614746e-01 -3.175044953823089600e-01 -2.892628312110900879e-01
3.450000000000000000e+02 1.314464950561523438e+01 1.439751267433166504e+00 -8.193604946136474609e-01 -1.118699684739112854e-01 -2.793691456317901611e-01 -4.132979214191436768e-01
3.460000000000000000e+02 1.324665927886962891e+01 9.557067751884460449e-01 -1.202581167221069336e+00 -5.047371610999107361e-02 -3.759164810180664062e-01 -3.569936454296112061e-01
3.470000000000000000e+02 1.564553642272949219e+01 1.589698910713195801e+00 1.142029836773872375e-01 -6.515160202980041504e-02 1.471541449427604675e-02 -1.717529892921447754e-01
3.480000000000000000e+02 1.519764423370361328e+01 2.116523742675781250e+00 5.421414971351623535e-01 -2.687947154045104980e-01 8.200404793024063110e-02 -4.499317109584808350e-01
3.490000000000000000e+02 1.549987411499023438e+01 2.339749813079833984e+00 7.853094935417175293e-01 -2.562617659568786621e-01 1.587143242359161377e-01 -5.267605185508728027e-01
3.500000000000000000e+02 1.534401607513427734e+01 1.955734968185424805e+00 4.077150821685791016e-01 -1.858028769493103027e-01 6.657365709543228149e-02 -4.397665560245513916e-01
3.510000000000000000e+02 1.448418045043945312e+01 2.244541645050048828e+00 2.093266993761062622e-01 -1.966856718063354492e-01 3.792309202253818512e-03 -6.471648216247558594e-01
3.520000000000000000e+02 1.497056674957275391e+01 2.263504743576049805e+00 4.868477880954742432e-01 -2.298496812582015991e-01 7.709943503141403198e-02 -6.298698782920837402e-01
3.530000000000000000e+02 1.451732540130615234e+01 1.746070265769958496e+00 -1.826549172401428223e-01 -1.860094666481018066e-01 -1.105993166565895081e-01 -4.071409702301025391e-01
3.540000000000000000e+02 1.495360565185546875e+01 1.903578758239746094e+00 5.631903186440467834e-02 -1.003130078315734863e-01 -1.319819223135709763e-02 -4.437718093395233154e-01
3.550000000000000000e+02 1.567622089385986328e+01 1.795429706573486328e+00 2.796982228755950928e-01 -1.213514655828475952e-01 4.750403016805648804e-02 -2.084820717573165894e-01
3.560000000000000000e+02 1.378693008422851562e+01 2.090650558471679688e+00 -1.310365647077560425e-01 -1.631692349910736084e-01 -8.826173841953277588e-02 -5.958838462829589844e-01
3.570000000000000000e+02 1.549150753021240234e+01 1.836057424545288086e+00 2.647036015987396240e-01 -1.400711536407470703e-01 3.738973289728164673e-02 -2.907519042491912842e-01
3.580000000000000000e+02 1.555960464477539062e+01 1.340732097625732422e+00 -2.746861279010772705e-01 -7.428549230098724365e-02 -1.046914905309677124e-01 -1.241493672132492065e-01
3.590000000000000000e+02 1.515284633636474609e+01 1.721750617027282715e+00 -4.941730201244354248e-02 -1.520184576511383057e-01 -6.043072789907455444e-02 -2.951460778713226318e-01
3.600000000000000000e+02 1.537765026092529297e+01 1.640973210334777832e+00 6.024358421564102173e-02 -1.313476860523223877e-01 -2.133123017847537994e-02 -2.436215281486511230e-01
3.610000000000000000e+02 1.516521835327148438e+01 1.444036483764648438e+00 -2.818950712680816650e-01 -1.466407328844070435e-01 -1.285607367753982544e-01 -1.671869605779647827e-01
3.620000000000000000e+02 1.033548355102539062e+01 3.392249345779418945e-01 -1.425555467605590820e+00 1.890539191663265228e-02 -4.219950437545776367e-01 -2.099222093820571899e-01
3.630000000000000000e+02 1.170609474182128906e+01 1.119720458984375000e+00 -1.212245821952819824e+00 -3.777837008237838745e-02 -3.750072717666625977e-01 -3.076306283473968506e-01
3.640000000000000000e+02 1.162155914306640625e+01 1.612740278244018555e+00 -8.888257741928100586e-01 5.312858894467353821e-02 -2.507091462612152100e-01 -3.586431443691253662e-01
3.650000000000000000e+02 1.251704597473144531e+01 7.962270379066467285e-01 -1.426574587821960449e+00 -9.216420352458953857e-02 -4.556216597557067871e-01 -3.408507704734802246e-01
3.660000000000000000e+02 1.232213020324707031e+01 1.763740658760070801e+00 -7.491520047187805176e-01 -1.912459358572959900e-02 -2.304829806089401245e-01 -4.199496507644653320e-01
3.670000000000000000e+02 1.241973114013671875e+01 1.277072906494140625e+00 -1.041576147079467773e+00 -3.935270756483078003e-02 -3.242786824703216553e-01 -4.107931852340698242e-01
3.680000000000000000e+02 1.022079086303710938e+01 1.323933124542236328e+00 -1.086606740951538086e+00 1.413908302783966064e-01 -2.835647761821746826e-01 -1.536743193864822388e-01
3.690000000000000000e+02 1.099195194244384766e+01 9.699034094810485840e-01 -1.258539676666259766e+00 3.733300790190696716e-02 -3.663620054721832275e-01 -2.410890460014343262e-01
3.700000000000000000e+02 1.179022789001464844e+01 6.404764652252197266e-01 -1.549566030502319336e+00 -4.738394170999526978e-02 -4.790849983692169189e-01 -3.479667007923126221e-01
3.710000000000000000e+02 1.027808570861816406e+01 8.284587860107421875e-01 -1.347640275955200195e+00 8.977325260639190674e-02 -3.773601055145263672e-01 -1.395937502384185791e-01
3.720000000000000000e+02 1.106257534027099609e+01 4.877984821796417236e-01 -1.571953177452087402e+00 -5.702387541532516479e-02 -4.886930882930755615e-01 -3.012976646423339844e-01
3.730000000000000000e+02 1.092131805419921875e+01 1.466202735900878906e+00 -1.054679274559020996e+00 1.076356321573257446e-01 -2.841130793094635010e-01 -2.088176608085632324e-01
3.740000000000000000e+02 7.802525997161865234e+00 3.051917850971221924e-01 -1.463616371154785156e+00 1.485680602490901947e-02 -4.346278607845306396e-01 4.878553003072738647e-02
3.750000000000000000e+02 9.489719390869140625e+00 1.268530964851379395e+00 -1.106180310249328613e+00 1.716050505638122559e-01 -2.803725898265838623e-01 -2.307335473597049713e-02
3.760000000000000000e+02 7.031439304351806641e+00 2.605085372924804688e-01 -1.308366656303405762e+00 -1.581877097487449646e-02 -3.972555994987487793e-01 5.583592504262924194e-02
3.770000000000000000e+02 6.231427669525146484e+00 2.460917085409164429e-01 -1.137340068817138672e+00 1.231942325830459595e-02 -3.375061750411987305e-01 4.725309461355209351e-02
3.780000000000000000e+02 4.627633094787597656e+00 2.220298796892166138e-01 -7.343897223472595215e-01 4.126734565943479538e-03 -2.190788984298706055e-01 5.606046319007873535e-02
3.790000000000000000e+02 3.825935363769531250e+00 2.575933635234832764e-01 -4.795655310153961182e-01 9.479262516833841801e-04 -1.435852795839309692e-01 6.595263630151748657e-02
3.800000000000000000e+02 2.137756347656250000e+00 2.793034613132476807e-01 -1.205896064639091492e-01 -3.148850752040743828e-03 -3.712153807282447815e-02 4.826929047703742981e-02
3.810000000000000000e+02 1.100936412811279297e+00 1.126586079597473145e+00 -5.594955384731292725e-02 -6.611072272062301636e-02 -3.661808371543884277e-02 7.606685161590576172e-02
3.820000000000000000e+02 2.231443643569946289e+00 7.755548357963562012e-01 -1.815194338560104370e-01 -1.652094535529613495e-02 -5.941211432218551636e-02 1.163063198328018188e-01
3.830000000000000000e+02 6.939330101013183594e-01 3.865861296653747559e-01 -8.520759642124176025e-03 -2.250818768516182899e-03 -3.231473732739686966e-03 3.591255052015185356e-03
3.840000000000000000e+02 3.889451324939727783e-01 9.572555422782897949e-01 -7.663008291274309158e-03 -1.941913738846778870e-02 -8.124643936753273010e-03 1.644566096365451813e-02
3.850000000000000000e+02 2.975943565368652344e+00 2.853265702724456787e-01 -2.968538105487823486e-01 -4.304065369069576263e-03 -9.034736454486846924e-02 6.029598042368888855e-02
3.860000000000000000e+02 4.715362071990966797e+00 6.355406045913696289e-01 -6.760071516036987305e-01 -1.328153768554329872e-03 -2.032005935907363892e-01 1.626221537590026855e-01
3.870000000000000000e+02 6.188297748565673828e+00 7.280760407447814941e-01 -9.862590432167053223e-01 1.889185048639774323e-02 -2.902101576328277588e-01 1.618356257677078247e-01
3.880000000000000000e+02 6.905223369598388672e+00 7.522715926170349121e-01 -1.113324642181396484e+00 -2.708869054913520813e-03 -3.348100483417510986e-01 1.412956118583679199e-01
3.890000000000000000e+02 8.121061325073242188e+00 1.091688036918640137e+00 -1.094966292381286621e+00 5.718633159995079041e-02 -3.113339841365814209e-01 1.094518676400184631e-01
3.900000000000000000e+02 8.598296165466308594e+00 3.516880571842193604e-01 -1.514585137367248535e+00 1.200120523571968079e-02 -4.507751762866973877e-01 1.455960236489772797e-02
3.910000000000000000e+02 9.495004653930664062e+00 3.153510689735412598e-01 -1.421826601028442383e+00 3.763595968484878540e-02 -4.152571856975555420e-01 -5.555279925465583801e-02
3.920000000000000000e+02 9.476799011230468750e+00 8.238819837570190430e-01 -1.318768382072448730e+00 1.017348244786262512e-01 -3.651100695133209229e-01 -8.770108222961425781e-02
3.930000000000000000e+02 8.823197364807128906e+00 1.193881988525390625e+00 -1.089755296707153320e+00 1.202415227890014648e-01 -2.908541262149810791e-01 3.280194103717803955e-02
3.940000000000000000e+02 6.901381015777587891e+00 1.251763105392456055e+00 -9.166424274444580078e-01 4.894702509045600891e-02 -2.603086233139038086e-01 2.229033261537551880e-01
3.950000000000000000e+02 5.423401355743408203e+00 2.348310500383377075e-01 -9.517283439636230469e-01 -6.578198168426752090e-03 -2.874919772148132324e-01 5.856052041053771973e-02
3.960000000000000000e+02 4.660159111022949219e+00 1.048922061920166016e+00 -5.821089148521423340e-01 -5.153552629053592682e-03 -1.761787384748458862e-01 2.636325359344482422e-01
3.970000000000000000e+02 3.664013862609863281e+00 1.318690776824951172e+00 -3.630523383617401123e-01 -2.185616269707679749e-02 -1.154725477099418640e-01 2.868332862854003906e-01
3.980000000000000000e+02 4.117694854736328125e+00 6.908800005912780762e-01 -5.168983340263366699e-01 -4.234944004565477371e-03 -1.563399881124496460e-01 1.707277595996856689e-01
3.990000000000000000e+02 1.661146879196166992e+00 9.394658803939819336e-01 -1.043932214379310608e-01 -4.648398235440254211e-02 -4.526316002011299133e-02 1.039905920624732971e-01
4.000000000000000000e+02 3.744299411773681641e+00 9.633919596672058105e-01 -4.397557675838470459e-01 -9.124737232923507690e-03 -1.346641480922698975e-01 2.099051177501678467e-01
4.010000000000000000e+02 1.380574584007263184e+00 3.225973546504974365e-01 -2.736162021756172180e-02 -1.471206173300743103e-02 -1.262210402637720108e-02 1.779212057590484619e-02
4.020000000000000000e+02 2.160627603530883789e+00 1.256251335144042969e+00 -1.555952876806259155e-01 -6.934524327516555786e-02 -6.748215854167938232e-02 1.807717829942703247e-01
4.030000000000000000e+02 2.906066417694091797e+00 1.271763920783996582e+00 -2.726685106754302979e-01 -4.933940619230270386e-02 -9.660237282514572144e-02 2.485970854759216309e-01
4.040000000000000000e+02 4.294370174407958984e+00 1.301720976829528809e+00 -5.137395262718200684e-01 -9.317969903349876404e-03 -1.569172441959381104e-01 2.969845831394195557e-01
4.050000000000000000e+02 5.375802516937255859e+00 1.223492503166198730e+00 -6.776393651962280273e-01 1.101815328001976013e-02 -1.999863684177398682e-01 2.815700471401214600e-01
4.060000000000000000e+02 6.157690525054931641e+00 1.241984367370605469e+00 -8.076094985008239746e-01 3.040767461061477661e-02 -2.331605553627014160e-01 2.689583897590637207e-01
4.070000000000000000e+02 7.470716953277587891e+00 9.228276610374450684e-01 -1.084169864654541016e+00 1.621733978390693665e-02 -3.203857541084289551e-01 1.394003331661224365e-01
4.080000000000000000e+02 2.988293647766113281e+00 7.970904707908630371e-01 -2.903752624988555908e-01 -2.143412455916404724e-02 -9.354281425476074219e-02 1.618870794773101807e-01
4.090000000000000000e+02 5.425158977508544922e+00 6.983235478401184082e-01 -8.176744580268859863e-01 7.754681282676756382e-04 -2.450696974992752075e-01 1.672346293926239014e-01
4.100000000000000000e+02 1.531476879119873047e+01 4.248495697975158691e-01 -3.951317071914672852e+00 1.906942278146743774e-01 -1.128186821937561035e+00 -4.938062131404876709e-01
4.110000000000000000e+02 1.406853008270263672e+01 6.000745296478271484e-01 -5.703849792480468750e+00 -3.279610574245452881e-01 -1.809543132781982422e+00 -1.390547513961791992e+00
4.120000000000000000e+02 1.345014572143554688e+01 -4.543756321072578430e-02 -3.667033433914184570e+00 -2.786083817481994629e-01 -1.183692574501037598e+00 -1.163289070129394531e+00
4.130000000000000000e+02 1.355309772491455078e+01 -5.311959385871887207e-01 -2.273882389068603516e+00 -1.214298680424690247e-01 -7.185936570167541504e-01 -9.012184739112854004e-01
4.140000000000000000e+02 1.574538326263427734e+01 6.146992444992065430e-01 -3.966056585311889648e+00 6.299064755439758301e-01 -1.000845074653625488e+00 -3.720911145210266113e-01
4.150000000000000000e+02 1.569594287872314453e+01 8.514725565910339355e-01 -4.695513248443603516e+00 4.269398450851440430e-01 -1.280572056770324707e+00 -7.447214126586914062e-01
4.160000000000000000e+02 1.573731708526611328e+01 2.260090708732604980e-01 -2.778161525726318359e+00 5.836198329925537109e-01 -6.583624482154846191e-01 3.362181186676025391e-01
4.170000000000000000e+02 1.591109466552734375e+01 2.741976082324981689e-01 -2.478154897689819336e+00 9.124341607093811035e-01 -4.697161912918090820e-01 2.294438779354095459e-01
4.180000000000000000e+02 1.583897399902343750e+01 4.254235029220581055e-01 -3.122335195541381836e+00 7.562867999076843262e-01 -7.098145484924316406e-01 8.998594433069229126e-02
4.190000000000000000e+02 1.528296566009521484e+01 7.971971631050109863e-01 -5.325747013092041016e+00 -3.018112182617187500e-01 -1.688267469406127930e+00 -1.091192603111267090e+00
4.200000000000000000e+02 1.559279632568359375e+01 1.063841938972473145e+00 -5.828298091888427734e+00 -8.531859517097473145e-02 -1.774085044860839844e+00 -1.203070044517517090e+00
4.210000000000000000e+02 1.478512287139892578e+01 2.671553194522857666e-01 -3.780337572097778320e+00 5.549484118819236755e-02 -1.117452859878540039e+00 -8.058834671974182129e-01
4.220000000000000000e+02 1.425275897979736328e+01 -3.731202185153961182e-01 -2.208863019943237305e+00 1.959400773048400879e-01 -6.038768887519836426e-01 -6.076379418373107910e-01
4.230000000000000000e+02 1.335308456420898438e+01 4.370774030685424805e-01 -5.380490779876708984e+00 -3.230725526809692383e-01 -1.711068987846374512e+00 -1.353766679763793945e+00
4.240000000000000000e+02 1.580129146575927734e+01 -1.468521505594253540e-01 -1.471365571022033691e+00 1.381067872047424316e+00 -2.708929032087326050e-02 7.418389916419982910e-01
4.250000000000000000e+02 1.590184307098388672e+01 9.967430680990219116e-02 -2.354494333267211914e+00 9.149884581565856934e-01 -4.318517446517944336e-01 6.015902757644653320e-01
4.260000000000000000e+02 1.545245742797851562e+01 3.565973788499832153e-02 -2.381291627883911133e+00 9.658698439598083496e-01 -4.246265292167663574e-01 1.021078005433082581e-01
4.270000000000000000e+02 1.475537872314453125e+01 7.500727772712707520e-01 -5.829084873199462891e+00 -2.496213763952255249e-01 -1.823611855506896973e+00 -1.330181360244750977e+00
4.280000000000000000e+02 1.414599514007568359e+01 1.163028851151466370e-01 -3.842577219009399414e+00 -1.693619191646575928e-01 -1.203581690788269043e+00 -1.047290444374084473e+00
4.290000000000000000e+02 1.492429447174072266e+01 -2.129335850477218628e-01 -2.218822956085205078e+00 5.589131712913513184e-01 -4.979729652404785156e-01 -2.308258265256881714e-01
4.300000000000000000e+02 3.564137458801269531e+00 -1.894385457038879395e+00 -1.609627306461334229e-01 -6.374137848615646362e-02 -6.741123646497726440e-02 -2.300154417753219604e-01
4.310000000000000000e+02 4.316928386688232422e+00 -1.878850698471069336e+00 -2.325881570577621460e-01 -4.894783720374107361e-02 -8.446079492568969727e-02 -2.485820055007934570e-01
4.320000000000000000e+02 8.271794319152832031e+00 -2.671160459518432617e+00 5.772876320406794548e-04 -3.710675239562988281e-01 -1.111470758914947510e-01 -5.753608345985412598e-01
4.330000000000000000e+02 1.477305507659912109e+01 -2.487499475479125977e+00 2.050838470458984375e+00 2.582390785217285156e+00 1.389968752861022949e+00 1.064628958702087402e+00
4.340000000000000000e+02 5.478463768959045410e-01 -1.057925510406494141e+01 -2.954938448965549469e-02 -9.163724184036254883e-01 -2.837765216827392578e-01 -7.357462495565414429e-02
4.350000000000000000e+02 6.677162170410156250e+00 -1.486382007598876953e+01 1.725383281707763672e+00 3.272824764251708984e+00 1.499462485313415527e+00 2.120868921279907227e+00
4.360000000000000000e+02 1.016238498687744141e+01 -1.253761768341064453e+01 -2.096055746078491211e+00 1.082303896546363831e-01 -5.963476300239562988e-01 1.200919151306152344e+00
4.370000000000000000e+02 8.932176589965820312e+00 -1.295015430450439453e+01 5.100668668746948242e-01 1.372418045997619629e+00 5.647454857826232910e-01 1.428590297698974609e+00
4.380000000000000000e+02 1.265188789367675781e+01 -1.202518367767333984e+01 -2.843020915985107422e+00 -4.680358171463012695e-01 -9.933170080184936523e-01 1.520995855331420898e+00
4.390000000000000000e+02 1.488091182708740234e+01 -9.942022323608398438e+00 5.173045992851257324e-01 4.636702537536621094e+00 1.546202063560485840e+00 6.828115582466125488e-01
4.400000000000000000e+02 1.543764877319335938e+01 -1.307827663421630859e+01 -3.701596498489379883e+00 5.165457248687744141e+00 4.391581714153289795e-01 -1.447495166212320328e-02
4.410000000000000000e+02 1.605479431152343750e+01 -9.115333557128906250e+00 1.918421506881713867e+00 7.322947025299072266e+00 2.772410631179809570e+00 -2.211267501115798950e-01
4.420000000000000000e+02 1.696330833435058594e+01 -7.246530532836914062e+00 3.200009167194366455e-01 1.283991813659667969e+01 3.947975873947143555e+00 -5.108875036239624023e-02
4.430000000000000000e+02 1.644070434570312500e+01 -4.986889362335205078e+00 2.810955047607421875e+00 1.132605457305908203e+01 4.241103172302246094e+00 3.089365959167480469e+00
4.440000000000000000e+02 3.598913431167602539e+00 -2.067642593383789062e+01 -4.360234737396240234e-01 1.985714197158813477e+00 4.649071991443634033e-01 1.414969205856323242e+00
4.450000000000000000e+02 6.253487586975097656e+00 -2.198281860351562500e+01 -1.682016611099243164e+00 -5.082660540938377380e-02 -5.198529362678527832e-01 6.536141037940979004e-01
4.460000000000000000e+02 9.004534721374511719e+00 -2.316285514831542969e+01 -3.930027484893798828e+00 -2.973078787326812744e-01 -1.268200635910034180e+00 3.470438718795776367e-01
4.470000000000000000e+02 7.517491817474365234e+00 -2.282595825195312500e+01 -3.215972423553466797e+00 -5.224884152412414551e-01 -1.121538162231445312e+00 7.903286814689636230e-01
4.480000000000000000e+02 4.198186874389648438e+00 -2.406613731384277344e+01 -1.012405633926391602e+00 1.675544619560241699e+00 1.989416927099227905e-01 8.255730383098125458e-03
4.490000000000000000e+02 6.068180203437805176e-01 -3.037825393676757812e+01 8.688315749168395996e-03 1.692631483078002930e+00 5.103959441184997559e-01 -6.617952138185501099e-02
4.500000000000000000e+02 1.177830314636230469e+01 -3.645389175415039062e+01 -6.334076821804046631e-02 2.529898166656494141e+00 7.399672269821166992e-01 4.988743960857391357e-01
4.510000000000000000e+02 1.311290359497070312e+01 -3.735108947753906250e+01 -1.974999159574508667e-01 1.737239241600036621e+00 4.619217813014984131e-01 2.289848178625106812e-01
4.520000000000000000e+02 1.255865955352783203e+01 -3.500662612915039062e+01 5.345508083701133728e-02 3.263591527938842773e+00 9.951139688491821289e-01 3.632414937019348145e-01
4.530000000000000000e+02 1.267428398132324219e+01 -3.064830398559570312e+01 1.334993481636047363e+00 3.729374647140502930e+00 1.519310474395751953e+00 1.527641773223876953e+00
4.540000000000000000e+02 1.417979812622070312e+01 -2.985732460021972656e+01 1.694848179817199707e+00 4.504729270935058594e+00 1.859873175621032715e+00 2.597074747085571289e+00
4.550000000000000000e+02 1.494504165649414062e+01 -2.861927604675292969e+01 1.665954828262329102e+00 3.581837654113769531e+00 1.574337720870971680e+00 2.362025499343872070e+00
4.560000000000000000e+02 1.192829799652099609e+01 -2.262859344482421875e+01 -1.725265502929687500e+00 3.963431417942047119e-01 -3.986766934394836426e-01 1.306510567665100098e-01
4.570000000000000000e+02 1.050556182861328125e+01 -2.304444313049316406e+01 -3.078060388565063477e+00 -1.171146780252456665e-01 -9.585524797439575195e-01 -6.476920843124389648e-02
4.580000000000000000e+02 1.088205337524414062e+01 -2.421775436401367188e+01 -1.656637430191040039e+00 4.903585910797119141e-01 -3.498836457729339600e-01 8.130534291267395020e-01
4.590000000000000000e+02 7.428560256958007812e+00 -3.662119293212890625e+01 -3.125784918665885925e-02 1.981746315956115723e+00 5.851465463638305664e-01 8.527122139930725098e-01
4.600000000000000000e+02 9.912312507629394531e+00 -3.360853958129882812e+01 7.506516575813293457e-01 2.176404714584350586e+00 8.781169056892395020e-01 9.977869987487792969e-01
4.610000000000000000e+02 6.357796192169189453e-01 -3.176797294616699219e+01 2.664253860712051392e-02 1.597860455513000488e+00 4.873508810997009277e-01 -2.400090172886848450e-02
4.620000000000000000e+02 8.852505683898925781e-01 -3.729235839843750000e+01 3.810348734259605408e-02 1.974227070808410645e+00 6.036991477012634277e-01 1.134606823325157166e-01
4.630000000000000000e+02 2.945798635482788086e+00 -3.790396881103515625e+01 4.687497275881469250e-04 2.063336372375488281e+00 6.191415190696716309e-01 3.440155386924743652e-01
4.640000000000000000e+02 2.216414260864257812e+01 -3.978630065917968750e+01 -1.747335076332092285e+00 6.278576254844665527e-01 -3.358432352542877197e-01 -1.130842268466949463e-01
4.650000000000000000e+02 2.255210494995117188e+01 -4.151188278198242188e+01 -2.256933927536010742e+00 1.055199265480041504e+00 -3.605204224586486816e-01 2.649291157722473145e-01
4.660000000000000000e+02 2.514041709899902344e+01 -4.041386413574218750e+01 -2.090027809143066406e+00 3.763474464416503906e+00 5.020340085029602051e-01 -3.926572203636169434e-01
4.670000000000000000e+02 2.895159912109375000e+01 -3.902943420410156250e+01 -1.009081482887268066e+00 4.382644653320312500e+00 1.012068986892700195e+00 -5.608158707618713379e-01
4.680000000000000000e+02 2.638486289978027344e+01 -3.849344253540039062e+01 -8.925604820251464844e-01 4.752356052398681641e+00 1.157938718795776367e+00 -8.226111531257629395e-01
4.690000000000000000e+02 3.904284286499023438e+01 -3.420235443115234375e+01 9.100818037986755371e-01 8.514969825744628906e+00 2.827515363693237305e+00 2.050377428531646729e-02
4.700000000000000000e+02 3.901134872436523438e+01 -3.208483123779296875e+01 1.719842433929443359e+00 1.125781154632568359e+01 3.893296003341674805e+00 2.641046285629272461e+00
4.710000000000000000e+02 3.781412887573242188e+01 -3.623534393310546875e+01 -8.508676886558532715e-01 4.926196098327636719e+00 1.222598433494567871e+00 1.306056261062622070e+00
4.720000000000000000e+02 3.611220169067382812e+01 -3.042193222045898438e+01 4.873849153518676758e-01 1.242368221282958984e+00 5.189259648323059082e-01 1.392643928527832031e+00
4.730000000000000000e+02 3.635052108764648438e+01 -3.181091880798339844e+01 1.647746682167053223e+00 2.831030130386352539e+00 1.343633055686950684e+00 1.147559046745300293e+00
4.740000000000000000e+02 3.023266601562500000e+01 -2.530119514465332031e+01 7.617569565773010254e-01 3.771305084228515625e+00 1.359918594360351562e+00 -2.037955284118652344e+00
4.750000000000000000e+02 2.940263938903808594e+01 -2.436828422546386719e+01 1.400157570838928223e+00 8.299605369567871094e+00 2.909928798675537109e+00 -2.364899873733520508e+00
4.760000000000000000e+02 2.866600036621093750e+01 -2.554256820678710938e+01 -1.018236517906188965e+00 6.618150234222412109e+00 1.679974079132080078e+00 1.333382446318864822e-03
4.770000000000000000e+02 2.246866607666015625e+01 -2.808306503295898438e+01 -1.169369101524353027e+00 5.645900368690490723e-01 -1.814337074756622314e-01 5.288311243057250977e-01
4.780000000000000000e+02 2.324596214294433594e+01 -2.718843841552734375e+01 -1.604504227638244629e+00 2.393671274185180664e+00 2.367501258850097656e-01 -6.180729344487190247e-02
4.790000000000000000e+02 2.343045234680175781e+01 -2.907636260986328125e+01 -4.102795124053955078e-01 2.210591316223144531e+00 5.400935411453247070e-01 -6.382205486297607422e-01
4.800000000000000000e+02 2.512135696411132812e+01 -2.896523284912109375e+01 -1.491525769233703613e+00 5.244707107543945312e+00 1.125954389572143555e+00 2.993846535682678223e-01
4.810000000000000000e+02 3.130134201049804688e+01 -3.052572250366210938e+01 -7.751187682151794434e-01 2.459908008575439453e+00 5.054367780685424805e-01 -1.063364386558532715e+00
4.820000000000000000e+02 2.507022285461425781e+01 -3.343491363525390625e+01 -2.384299784898757935e-02 7.378741741180419922e+00 2.206469535827636719e+00 -3.077703118324279785e-01
4.830000000000000000e+02 2.355631446838378906e+01 -3.894230270385742188e+01 -7.946180701255798340e-01 1.734916448593139648e+00 2.820895016193389893e-01 4.151242375373840332e-01
4.840000000000000000e+02 3.842304992675781250e+01 -3.791360855102539062e+01 -1.842444300651550293e+00 4.036158561706542969e+00 6.581143736839294434e-01 4.147937893867492676e-01
4.850000000000000000e+02 4.037349319458007812e+01 -3.659295272827148438e+01 -7.549878954887390137e-01 1.976476907730102539e+00 3.664467036724090576e-01 -3.586296364665031433e-02
4.860000000000000000e+02 4.606195831298828125e+01 -3.755984115600585938e+01 -2.506849765777587891e+00 -3.564660549163818359e-01 -8.589947223663330078e-01 -6.760924458503723145e-01
4.870000000000000000e+02 4.864990234375000000e+01 -3.847685241699218750e+01 -2.398874521255493164e+00 4.805776119232177734e+00 7.220704555511474609e-01 1.297581911087036133e+00
4.880000000000000000e+02 4.822434997558593750e+01 -3.636907196044921875e+01 2.671106252819299698e-03 3.268207311630249023e+00 9.812635779380798340e-01 1.476135849952697754e+00
4.890000000000000000e+02 5.799819183349609375e+01 -3.737392807006835938e+01 -5.865160822868347168e-01 3.195341348648071289e+00 7.826475501060485840e-01 -1.561511874198913574e+00
4.900000000000000000e+02 5.651240158081054688e+01 -3.529050827026367188e+01 1.945937514305114746e+00 1.058518028259277344e+01 3.759335279464721680e+00 -2.866003990173339844e+00
4.910000000000000000e+02 5.776656341552734375e+01 -4.120782089233398438e+01 -2.395260810852050781e+00 4.034276962280273438e+00 4.917048513889312744e-01 -6.530495285987854004e-01
4.920000000000000000e+02 5.823184585571289062e+01 -3.886696243286132812e+01 -1.732582330703735352e+00 3.148165702819824219e+00 4.246750175952911377e-01 -1.536789774894714355e+00
4.930000000000000000e+02 6.134875488281250000e+01 -3.874110031127929688e+01 -3.584235191345214844e+00 -1.002380132675170898e+00 -1.375984549522399902e+00 1.274490803480148315e-01
4.940000000000000000e+02 6.423845672607421875e+01 -3.738540267944335938e+01 -1.377551555633544922e+00 1.278883099555969238e+00 -2.960052154958248138e-02 1.071060895919799805e-01
4.950000000000000000e+02 7.030884552001953125e+01 -3.482445907592773438e+01 8.552011251449584961e-01 5.873791217803955078e+00 2.018697738647460938e+00 -1.260532140731811523e+00
4.960000000000000000e+02 7.797409057617187500e+01 -4.168179702758789062e+01 -1.114461850374937057e-02 7.928025722503662109e+00 2.375064373016357422e+00 -2.990226261317729950e-03
4.970000000000000000e+02 7.724909973144531250e+01 -3.716450881958007812e+01 -1.730275806039571762e-03 7.514155864715576172e+00 2.253727674484252930e+00 -2.132887691259384155e-01
4.980000000000000000e+02 7.754058074951171875e+01 -3.006306457519531250e+01 -1.354566067457199097e-01 7.440369606018066406e+00 2.191473960876464844e+00 9.717929363250732422e-02
4.990000000000000000e+02 7.465959167480468750e+01 -2.055670928955078125e+01 1.192969202995300293e+00 1.034939956665039062e+01 3.462710618972778320e+00 1.965996176004409790e-01
5.000000000000000000e+02 7.227405548095703125e+01 -1.782822227478027344e+01 1.170208692550659180e+00 3.530170202255249023e+00 1.410113692283630371e+00 -1.762129783630371094e+00
5.010000000000000000e+02 7.697785949707031250e+01 -1.074701976776123047e+01 -6.631956100463867188e-01 9.741815567016601562e+00 2.723585844039916992e+00 -9.697996377944946289e-01
5.020000000000000000e+02 7.936373138427734375e+01 -1.257635402679443359e+01 -8.493632823228836060e-02 1.054677772521972656e+01 3.138552427291870117e+00 -1.337598711252212524e-01
5.030000000000000000e+02 7.307562255859375000e+01 -1.145392322540283203e+01 -2.478153467178344727e+00 5.832244157791137695e-01 -5.684787631034851074e-01 -1.419455260038375854e-01
5.040000000000000000e+02 7.099797058105468750e+01 -1.210974025726318359e+01 -2.436206579208374023e+00 -3.068096041679382324e-01 -8.229048848152160645e-01 -9.403114914894104004e-01
5.050000000000000000e+02 6.947585296630859375e+01 -1.322983360290527344e+01 -4.991690516471862793e-01 1.831654310226440430e-01 -9.480108320713043213e-02 -1.728478550910949707e+00
5.060000000000000000e+02 6.953398132324218750e+01 -1.529920005798339844e+01 -9.234881997108459473e-01 1.758552789688110352e-01 -2.242898792028427124e-01 -1.188992857933044434e+00
5.070000000000000000e+02 7.226894378662109375e+01 -1.658728027343750000e+01 -6.271307170391082764e-02 3.645156145095825195e+00 1.074732899665832520e+00 -1.024210333824157715e+00
5.080000000000000000e+02 7.045470428466796875e+01 -1.631441307067871094e+01 -5.618776679039001465e-01 5.023676156997680664e-01 -1.785301789641380310e-02 -7.566886544227600098e-01
5.090000000000000000e+02 7.346472167968750000e+01 -1.947865295410156250e+01 1.273413777351379395e+00 9.783545494079589844e+00 3.317087888717651367e+00 -2.034000396728515625e+00
5.100000000000000000e+02 7.826842498779296875e+01 -1.814858818054199219e+01 5.895845219492912292e-02 8.443939208984375000e+00 2.550869226455688477e+00 1.011940121650695801e+00
5.110000000000000000e+02 7.652150726318359375e+01 -8.401937484741210938e+00 1.115824818611145020e+00 1.097361469268798828e+01 3.626831769943237305e+00 -6.324485540390014648e-01
5.120000000000000000e+02 7.672807312011718750e+01 -6.912037849426269531e+00 1.117397546768188477e+00 1.081248569488525391e+01 3.578964948654174805e+00 -2.964029014110565186e-01
5.130000000000000000e+02 7.688211059570312500e+01 -5.570972919464111328e+00 8.472393751144409180e-01 1.032014846801757812e+01 3.350216388702392578e+00 2.394191026687622070e-01
5.140000000000000000e+02 7.937451171875000000e+01 2.740495204925537109e+00 -2.172796800732612610e-02 9.259825706481933594e+00 2.771429300308227539e+00 -2.282653450965881348e-01
5.150000000000000000e+02 6.934075164794921875e+01 4.304191589355468750e+00 1.458878442645072937e-02 2.506874799728393555e+00 7.564390897750854492e-01 1.957119107246398926e+00
5.160000000000000000e+02 6.705857849121093750e+01 5.910079002380371094e+00 -1.353597760200500488e+00 4.421327710151672363e-01 -2.734394967555999756e-01 8.703633546829223633e-01
5.170000000000000000e+02 6.310923385620117188e+01 5.904116630554199219e+00 -9.564536809921264648e-01 3.334922790527343750e+00 7.135407328605651855e-01 -1.761061310768127441e+00
5.180000000000000000e+02 6.239165496826171875e+01 9.241442680358886719e+00 1.124707579612731934e+00 2.534003973007202148e+00 1.097613453865051270e+00 -1.998262047767639160e+00
5.190000000000000000e+02 6.098548889160156250e+01 -3.396565675735473633e+00 1.859426498413085938e+00 1.221150779724121094e+01 4.221280097961425781e+00 -2.474216222763061523e+00
5.200000000000000000e+02 6.596205902099609375e+01 -3.682906866073608398e+00 2.155141592025756836e+00 7.548871994018554688e+00 2.911204099655151367e+00 3.055149555206298828e+00
5.210000000000000000e+02 6.491973876953125000e+01 -3.224136590957641602e+00 1.453268885612487793e+00 7.723768234252929688e+00 2.753111124038696289e+00 1.318761110305786133e+00
5.220000000000000000e+02 6.122974777221679688e+01 -4.771207332611083984e+00 3.017235100269317627e-01 1.113169574737548828e+01 3.430025815963745117e+00 -7.973316311836242676e-01
5.230000000000000000e+02 6.334537124633789062e+01 -6.730834484100341797e+00 1.752003073692321777e+00 9.502164840698242188e+00 3.376250505447387695e+00 3.528656363487243652e-01
5.240000000000000000e+02 6.161244201660156250e+01 -1.046958255767822266e+01 -1.020037293434143066e+00 7.090753078460693359e+00 1.821214795112609863e+00 1.182742118835449219e+00
5.250000000000000000e+02 6.124856185913085938e+01 -9.045793533325195312e+00 1.073871612548828125e+00 8.278174400329589844e+00 2.805613756179809570e+00 1.806978344917297363e+00
5.260000000000000000e+02 5.806163406372070312e+01 -1.089974212646484375e+01 -1.005418658256530762e+00 1.167145013809204102e+00 4.851790145039558411e-02 4.217351973056793213e-02
5.270000000000000000e+02 5.891129302978515625e+01 -1.003659534454345703e+01 -1.189650535583496094e+00 1.025226950645446777e+00 -4.932710528373718262e-02 7.628139853477478027e-01
5.280000000000000000e+02 5.690378189086914062e+01 -1.035276794433593750e+01 -1.181938767433166504e+00 6.488052010536193848e-01 -1.599400639533996582e-01 -9.067722558975219727e-01
5.290000000000000000e+02 5.390388870239257812e+01 -1.108319568634033203e+01 3.477718234062194824e-01 3.936121702194213867e+00 1.285168051719665527e+00 -2.962519884109497070e+00
5.300000000000000000e+02 4.766423034667968750e+01 -6.619920253753662109e+00 1.911154031753540039e+00 8.168070793151855469e+00 3.023767471313476562e+00 -1.796131849288940430e+00
5.310000000000000000e+02 4.784365844726562500e+01 -5.253382205963134766e+00 9.609349370002746582e-01 6.279729366302490234e+00 2.172199249267578125e+00 -1.197148919105529785e+00
5.320000000000000000e+02 4.575912475585937500e+01 -5.553305625915527344e+00 1.983825325965881348e+00 2.552476644515991211e+00 1.360890626907348633e+00 -2.309225320816040039e+00
5.330000000000000000e+02 4.998907089233398438e+01 -7.417455196380615234e+00 2.252492666244506836e+00 7.616667270660400391e+00 2.960747957229614258e+00 2.607834935188293457e-01
5.340000000000000000e+02 4.837356567382812500e+01 -1.032022762298583984e+01 2.307235479354858398e+00 1.032809734344482422e+01 3.790599822998046875e+00 1.256898880004882812e+00
5.350000000000000000e+02 4.982773971557617188e+01 -1.331108093261718750e+01 -8.735801577568054199e-01 4.209158897399902344e+00 1.000673651695251465e+00 -1.296790093183517456e-01
5.360000000000000000e+02 4.739429092407226562e+01 -1.117433738708496094e+01 2.461147308349609375e+00 1.108761692047119141e+01 4.064629077911376953e+00 3.125657796859741211e+00
5.370000000000000000e+02 4.539017105102539062e+01 -1.300907039642333984e+01 -2.126758575439453125e+00 2.555041790008544922e+00 1.284849494695663452e-01 1.251662373542785645e+00
5.380000000000000000e+02 4.279420852661132812e+01 -1.377231979370117188e+01 -6.784567832946777344e+00 -1.680002063512802124e-01 -2.085770368576049805e+00 -3.912714719772338867e-01
5.390000000000000000e+02 4.040042114257812500e+01 -1.972870445251464844e+01 2.154923677444458008e+00 6.629108428955078125e+00 2.635209798812866211e+00 -1.560681939125061035e+00
5.400000000000000000e+02 4.167367172241210938e+01 -1.420487022399902344e+01 -4.103226184844970703e+00 8.188633918762207031e-01 -9.853088855743408203e-01 -1.097531795501708984e+00
5.410000000000000000e+02 4.084309387207031250e+01 -1.328614234924316406e+01 -3.665922164916992188e+00 1.668470263481140137e+00 -5.992355346679687500e-01 -1.027021884918212891e+00
5.420000000000000000e+02 3.747016525268554688e+01 -1.186967277526855469e+01 3.607649505138397217e-01 6.068459033966064453e+00 1.928767204284667969e+00 -2.511734962463378906e+00
5.430000000000000000e+02 3.599801635742187500e+01 -7.895655155181884766e+00 2.785658597946166992e+00 7.084634780883789062e+00 2.961087942123413086e+00 -1.666541576385498047e+00
5.440000000000000000e+02 3.823753356933593750e+01 -5.069400310516357422e+00 2.332530736923217773e+00 3.994849681854248047e+00 1.898214101791381836e+00 2.531025409698486328e+00
5.450000000000000000e+02 3.670641708374023438e+01 -6.951830863952636719e+00 1.463394999504089355e+00 7.500181198120117188e+00 2.689072847366333008e+00 5.446966886520385742e-01
5.460000000000000000e+02 3.910036087036132812e+01 -4.214703083038330078e+00 8.562657833099365234e-01 2.048885822296142578e+00 8.715454936027526855e-01 1.808181047439575195e+00
5.470000000000000000e+02 3.721123504638671875e+01 1.141543507575988770e+00 8.909938335418701172e-01 2.806901216506958008e+00 1.109368562698364258e+00 2.697747945785522461e+00
5.480000000000000000e+02 4.224552536010742188e+01 -3.525382757186889648e+00 -2.176865816116333008e+00 1.096232533454895020e-01 -6.201727986335754395e-01 -4.022338986396789551e-02
5.490000000000000000e+02 4.096212387084960938e+01 -3.375819921493530273e+00 -1.588322997093200684e+00 5.737248659133911133e-01 -3.043794333934783936e-01 6.385220885276794434e-01
5.500000000000000000e+02 4.476230621337890625e+01 -4.683205604553222656e+00 8.854678273200988770e-01 1.728755116462707520e+00 7.842668890953063965e-01 -1.481803178787231445e+00
5.510000000000000000e+02 7.807637023925781250e+01 4.028158664703369141e+00 -9.290201961994171143e-02 8.078325271606445312e+00 2.395627021789550781e+00 -7.287622690200805664e-01
5.520000000000000000e+02 7.937586975097656250e+01 8.351016998291015625e+00 1.752454414963722229e-02 6.523027896881103516e+00 1.962165713310241699e+00 -3.360307216644287109e-01
5.530000000000000000e+02 7.197814178466796875e+01 1.377114295959472656e+01 4.158112704753875732e-01 1.368948936462402344e+01 4.231590270996093750e+00 -1.169179797172546387e+00
5.540000000000000000e+02 7.196007537841796875e+01 1.042034149169921875e+01 1.648979902267456055e+00 1.222694015502929688e+01 4.162775993347167969e+00 2.242614269256591797e+00
5.550000000000000000e+02 7.132579040527343750e+01 9.354187965393066406e+00 1.947707891464233398e+00 8.007352828979492188e+00 2.986518383026123047e+00 3.086048841476440430e+00
5.560000000000000000e+02 7.209275817871093750e+01 8.467485427856445312e+00 2.271486520767211914e-01 8.750247001647949219e+00 2.693218469619750977e+00 1.035411834716796875e+00
5.570000000000000000e+02 6.896566009521484375e+01 7.384784221649169922e+00 1.736015528440475464e-01 8.553164005279541016e-01 3.086753785610198975e-01 8.966273069381713867e-01
5.580000000000000000e+02 7.935262298583984375e+01 1.257518863677978516e+01 1.047700569033622742e-01 5.227125644683837891e+00 1.599568724632263184e+00 5.825861822813749313e-03
5.590000000000000000e+02 7.940689086914062500e+01 1.675528526306152344e+01 -2.837370522320270538e-02 6.302778244018554688e+00 1.882321357727050781e+00 2.663321197032928467e-01
5.600000000000000000e+02 7.017433929443359375e+01 1.758258628845214844e+01 2.828693687915802002e-01 3.066875934600830078e+00 1.004923582077026367e+00 -1.521770477294921875e+00
5.610000000000000000e+02 7.177924346923828125e+01 1.515847015380859375e+01 1.337912082672119141e+00 1.189917945861816406e+01 3.971127271652221680e+00 -2.230435371398925781e+00
5.620000000000000000e+02 7.824256134033203125e+01 1.817918395996093750e+01 -1.067907959222793579e-01 7.054390430450439453e+00 2.084279775619506836e+00 6.068173050880432129e-01
5.630000000000000000e+02 7.934540557861328125e+01 2.371725273132324219e+01 -1.570273935794830322e-02 7.695984363555908203e+00 2.304084539413452148e+00 -4.052288830280303955e-02
5.640000000000000000e+02 7.073303985595703125e+01 2.885724639892578125e+01 1.068375825881958008e+00 5.016154289245605469e+00 1.825358986854553223e+00 1.540427505970001221e-01
5.650000000000000000e+02 6.357160568237304688e+01 3.071211624145507812e+01 3.250423073768615723e-01 7.579704761505126953e+00 2.371424198150634766e+00 -1.512512862682342529e-01
5.660000000000000000e+02 6.372891998291015625e+01 2.814534187316894531e+01 8.590351939201354980e-01 9.141265869140625000e+00 3.000090360641479492e+00 1.255259156227111816e+00
5.670000000000000000e+02 6.425116729736328125e+01 2.705042266845703125e+01 2.348008632659912109e+00 8.399973869323730469e+00 3.224394798278808594e+00 2.127692461013793945e+00
5.680000000000000000e+02 6.322076797485351562e+01 2.618211174011230469e+01 2.839261293411254883e+00 1.037427234649658203e+01 3.964060068130493164e+00 3.823766231536865234e+00
5.690000000000000000e+02 6.486943054199218750e+01 2.137620925903320312e+01 -1.152020573616027832e+00 2.085687398910522461e+00 2.801000773906707764e-01 2.883397102355957031e+00
5.700000000000000000e+02 6.224795913696289062e+01 2.391799545288085938e+01 7.719393968582153320e-01 5.829951763153076172e+00 1.980567336082458496e+00 3.425235748291015625e+00
5.710000000000000000e+02 5.841724395751953125e+01 2.327466773986816406e+01 -5.678145885467529297e+00 1.019250601530075073e-02 -1.700386047363281250e+00 -2.887111604213714600e-01
5.720000000000000000e+02 5.716976165771484375e+01 2.329366493225097656e+01 -3.469702243804931641e+00 5.958627462387084961e-01 -8.621518611907958984e-01 -7.039492726325988770e-01
5.730000000000000000e+02 5.542716598510742188e+01 2.433819007873535156e+01 1.090688407421112061e-01 2.836442947387695312e+00 8.836535811424255371e-01 -1.664816975593566895e+00
5.740000000000000000e+02 5.462308120727539062e+01 2.534302139282226562e+01 1.625726580619812012e+00 4.940661430358886719e+00 1.969916343688964844e+00 -2.590620279312133789e+00
5.750000000000000000e+02 4.886624145507812500e+01 2.252772331237792969e+01 1.197864294052124023e+00 4.637820243835449219e+00 1.750705361366271973e+00 5.037974119186401367e-01
5.760000000000000000e+02 4.587783432006835938e+01 2.491551017761230469e+01 2.858269453048706055e+00 1.153294372558593750e+01 4.317364215850830078e+00 3.785638332366943359e+00
5.770000000000000000e+02 5.027217483520507812e+01 2.189063835144042969e+01 3.877719342708587646e-01 4.029239177703857422e+00 1.325103282928466797e+00 -1.037727236747741699e+00
5.780000000000000000e+02 4.589965820312500000e+01 2.339983749389648438e+01 2.139689445495605469e+00 8.430683135986328125e+00 3.171111583709716797e+00 3.170277833938598633e+00
5.790000000000000000e+02 4.629397201538085938e+01 2.168046569824218750e+01 -5.395170450210571289e-01 6.527986526489257812e+00 1.796540856361389160e+00 2.169533491134643555e+00
5.800000000000000000e+02 4.086886596679687500e+01 2.035722732543945312e+01 2.392180114984512329e-01 1.061682343482971191e+00 3.902700841426849365e-01 7.890250533819198608e-02
5.810000000000000000e+02 4.072148132324218750e+01 2.168549537658691406e+01 -3.029147863388061523e+00 -1.452691853046417236e-01 -9.523251056671142578e-01 2.582977525889873505e-02
5.820000000000000000e+02 3.936310577392578125e+01 2.184517288208007812e+01 -1.794251561164855957e+00 4.562177360057830811e-01 -4.014101326465606689e-01 -2.096375674009323120e-01
5.830000000000000000e+02 3.945308685302734375e+01 2.036647033691406250e+01 4.662485420703887939e-01 9.602131843566894531e-01 4.279385209083557129e-01 -1.428514838218688965e+00
5.840000000000000000e+02 3.705305099487304688e+01 1.147498512268066406e+01 -8.009225726127624512e-01 6.618527173995971680e-01 -4.172094538807868958e-02 -3.384940922260284424e-01
5.850000000000000000e+02 3.596849822998046875e+01 1.222096252441406250e+01 -2.734731674194335938e+00 2.230263948440551758e-01 -7.535115480422973633e-01 6.045918911695480347e-02
5.860000000000000000e+02 3.767539596557617188e+01 1.256933975219726562e+01 -6.396183371543884277e-01 2.953025579452514648e+00 6.940221786499023438e-01 -1.550477504730224609e+00
5.870000000000000000e+02 3.921480178833007812e+01 1.024228858947753906e+01 3.059525787830352783e-01 5.878530502319335938e+00 1.855344891548156738e+00 -7.809811234474182129e-01
5.880000000000000000e+02 4.066485595703125000e+01 7.742008686065673828e+00 6.154270768165588379e-01 9.078639984130859375e+00 2.908220291137695312e+00 5.584427118301391602e-01
5.890000000000000000e+02 3.963167190551757812e+01 6.163697719573974609e+00 2.387825399637222290e-01 1.288957500457763672e+01 3.938507318496704102e+00 2.022984474897384644e-01
5.900000000000000000e+02 3.873892974853515625e+01 2.876020669937133789e+00 3.338572740554809570e+00 8.113200187683105469e+00 3.435532093048095703e+00 3.930610418319702148e+00
5.910000000000000000e+02 4.297357940673828125e+01 -5.718652009963989258e-01 6.752594113349914551e-01 3.094749689102172852e+00 1.131002783775329590e+00 -1.265497803688049316e+00
5.920000000000000000e+02 3.591806793212890625e+01 1.238077282905578613e+00 -7.783921360969543457e-01 1.383640289306640625e+00 1.815744638442993164e-01 1.668810248374938965e+00
5.930000000000000000e+02 3.591042709350585938e+01 -8.434851467609405518e-02 -2.042650133371353149e-01 1.882709503173828125e+00 5.035333633422851562e-01 2.975778818130493164e+00
5.940000000000000000e+02 3.450539779663085938e+01 1.164956212043762207e+00 -3.608070611953735352e+00 -3.780807554721832275e-01 -1.195845365524291992e+00 9.368790984153747559e-01
5.950000000000000000e+02 3.314316940307617188e+01 1.667657017707824707e+00 -3.002470016479492188e+00 -6.553322821855545044e-02 -9.204009175300598145e-01 8.261327147483825684e-01
5.960000000000000000e+02 3.096340560913085938e+01 3.578753471374511719e+00 2.326290011405944824e-01 2.738171339035034180e+00 8.912400603294372559e-01 -1.439616680145263672e+00
5.970000000000000000e+02 2.925273704528808594e+01 3.888736248016357422e+00 -3.526714146137237549e-01 5.995984077453613281e+00 1.692993879318237305e+00 -1.154828906059265137e+00
5.980000000000000000e+02 2.702981185913085938e+01 1.046609401702880859e+00 2.783940732479095459e-02 5.160685062408447266e+00 1.556557416915893555e+00 -2.663645982742309570e+00
5.990000000000000000e+02 2.915855407714843750e+01 6.383964538574218750e+00 1.495779871940612793e+00 1.113347244262695312e+01 3.788775682449340820e+00 -1.498189091682434082e+00
6.000000000000000000e+02 2.917550468444824219e+01 7.780649662017822266e+00 9.267086982727050781e-01 1.144422912597656250e+01 3.711281299591064453e+00 1.241129636764526367e+00
6.010000000000000000e+02 2.942135047912597656e+01 9.206242561340332031e+00 2.292601823806762695e+00 9.858904838562011719e+00 3.645452022552490234e+00 3.242310762405395508e+00
6.020000000000000000e+02 2.811575317382812500e+01 9.187468528747558594e+00 2.726415157318115234e+00 6.776722908020019531e+00 2.850941419601440430e+00 1.327464818954467773e+00
6.030000000000000000e+02 2.928357315063476562e+01 1.285931301116943359e+01 -4.010227322578430176e-01 3.852683782577514648e+00 1.035498261451721191e+00 2.412229776382446289e+00
6.040000000000000000e+02 3.109150505065917969e+01 1.406247520446777344e+01 -1.607846498489379883e+00 7.190636157989501953e+00 1.674836874008178711e+00 4.421560287475585938e+00
6.050000000000000000e+02 3.322795867919921875e+01 1.369480800628662109e+01 -3.942669034004211426e-01 2.581629753112792969e+00 6.562088131904602051e-01 1.593670368194580078e+00
6.060000000000000000e+02 3.412998199462890625e+01 1.235672664642333984e+01 -4.422059535980224609e+00 -3.696721196174621582e-01 -1.437519431114196777e+00 2.970025502145290375e-02
6.070000000000000000e+02 7.692724609375000000e+01 2.230003547668457031e+01 -2.611908018589019775e-01 7.146048545837402344e+00 2.065457344055175781e+00 -5.419888347387313843e-02
6.080000000000000000e+02 7.932769012451171875e+01 2.931756591796875000e+01 -1.213262882083654404e-02 7.179427623748779297e+00 2.150188446044921875e+00 -3.362808004021644592e-02
6.090000000000000000e+02 7.093855285644531250e+01 3.693693161010742188e+01 -2.781086862087249756e-01 5.701616287231445312e+00 1.627052307128906250e+00 3.938360810279846191e-01
6.100000000000000000e+02 5.821509552001953125e+01 3.579822921752929688e+01 -2.283587694168090820e+00 2.671906352043151855e-01 -6.049190759658813477e-01 5.728483200073242188e-01
6.110000000000000000e+02 5.749643325805664062e+01 3.733182525634765625e+01 -5.431197881698608398e-01 1.600722789764404297e+00 3.172808885574340820e-01 1.359907269477844238e+00
6.120000000000000000e+02 5.710413742065429688e+01 3.533253479003906250e+01 -7.055846452713012695e-01 6.750634312629699707e-01 -9.156360290944576263e-03 7.883082628250122070e-01
6.130000000000000000e+02 5.587139892578125000e+01 3.552721786499023438e+01 -9.679156541824340820e-01 3.630539655685424805e+00 7.987871766090393066e-01 1.609356284141540527e+00
6.140000000000000000e+02 5.935200500488281250e+01 3.682180023193359375e+01 -1.588866949081420898e+00 4.370562434196472168e-01 -3.455432057380676270e-01 1.511252671480178833e-01
6.150000000000000000e+02 6.186199188232421875e+01 3.477727890014648438e+01 -7.546076178550720215e-01 1.480858445167541504e+00 2.178752273321151733e-01 -3.026841580867767334e-01
6.160000000000000000e+02 6.271586990356445312e+01 3.372157287597656250e+01 -2.000487875193357468e-03 3.369081020355224609e+00 1.010124087333679199e+00 -7.808206081390380859e-01
6.170000000000000000e+02 6.348216629028320312e+01 3.186314201354980469e+01 3.392906188964843750e-01 6.566502571105957031e+00 2.071738004684448242e+00 -7.110365629196166992e-01
6.180000000000000000e+02 7.932529449462890625e+01 3.210000991821289062e+01 -1.585378125309944153e-02 7.137846946716308594e+00 2.136597871780395508e+00 2.993492409586906433e-02
6.190000000000000000e+02 7.923437500000000000e+01 3.762475585937500000e+01 -2.515023760497570038e-02 7.446794033050537109e+00 2.226493120193481445e+00 1.662741415202617645e-02
6.200000000000000000e+02 7.246359252929687500e+01 4.101240158081054688e+01 -3.261554837226867676e-01 6.099486827850341797e+00 1.731999397277832031e+00 1.370668560266494751e-01
6.210000000000000000e+02 7.775853729248046875e+01 3.800750350952148438e+01 -9.162126481533050537e-02 7.219019889831542969e+00 2.138219594955444336e+00 1.001426503062248230e-01
6.220000000000000000e+02 5.189566040039062500e+01 3.788702011108398438e+01 -1.641642570495605469e+00 5.438419342041015625e+00 1.139033079147338867e+00 2.975407540798187256e-01
6.230000000000000000e+02 5.036869812011718750e+01 3.647043609619140625e+01 -1.337745189666748047e+00 5.791490554809570312e+00 1.336123704910278320e+00 -1.833021640777587891e-01
6.240000000000000000e+02 5.355233383178710938e+01 3.087662887573242188e+01 1.338425159454345703e+00 1.016450023651123047e+01 3.450877666473388672e+00 1.731085896492004395e+00
6.250000000000000000e+02 5.430414199829101562e+01 3.292762374877929688e+01 1.862755775451660156e+00 7.874195575714111328e+00 2.921085596084594727e+00 2.960358142852783203e+00
6.260000000000000000e+02 4.860015869140625000e+01 3.104564094543457031e+01 7.566492557525634766e-01 6.638476848602294922e+00 2.218537807464599609e+00 3.919342756271362305e-01
6.270000000000000000e+02 5.349798202514648438e+01 2.954825592041015625e+01 1.480267792940139771e-01 9.318032264709472656e+00 2.839817762374877930e+00 4.783199131488800049e-01
6.280000000000000000e+02 5.353815460205078125e+01 2.827622222900390625e+01 7.854956388473510742e-01 9.150626182556152344e+00 2.980836629867553711e+00 -2.997300624847412109e-01
6.290000000000000000e+02 4.245614242553710938e+01 4.114720916748046875e+01 -6.602950096130371094e-01 2.463030576705932617e+00 5.408206582069396973e-01 -1.747170686721801758e-01
6.300000000000000000e+02 4.272438049316406250e+01 3.617914581298828125e+01 -1.125815868377685547e+00 1.746601581573486328e+00 1.862357109785079956e-01 -8.900675177574157715e-01
6.310000000000000000e+02 4.312514495849609375e+01 3.314840316772460938e+01 -6.411069035530090332e-01 1.278577923774719238e+00 1.912413090467453003e-01 -4.515447914600372314e-01
6.320000000000000000e+02 4.167700195312500000e+01 3.436257934570312500e+01 -1.739254474639892578e+00 3.556949496269226074e-01 -4.150678813457489014e-01 -1.437700688838958740e-01
6.330000000000000000e+02 4.521198654174804688e+01 3.105103302001953125e+01 7.978227734565734863e-01 4.783601760864257812e+00 1.674427390098571777e+00 -1.502894282341003418e+00
6.340000000000000000e+02 4.605587387084960938e+01 2.894018745422363281e+01 8.005111217498779297e-01 8.565137863159179688e+00 2.809694766998291016e+00 -1.048039674758911133e+00
6.350000000000000000e+02 4.610974884033203125e+01 2.762143135070800781e+01 4.907279908657073975e-01 1.033906173706054688e+01 3.248936891555786133e+00 -1.432079914957284927e-02
6.360000000000000000e+02 3.862751770019531250e+01 3.431837463378906250e+01 -2.341698408126831055e+00 4.238570630550384521e-01 -5.753524303436279297e-01 3.469447493553161621e-01
6.370000000000000000e+02 3.601861572265625000e+01 3.824185180664062500e+01 -1.224266648292541504e+00 3.345369100570678711e+00 6.363307237625122070e-01 6.144358515739440918e-01
6.380000000000000000e+02 3.585189819335937500e+01 3.328592300415039062e+01 -3.303172588348388672e-01 4.990886688232421875e+00 1.398170828819274902e+00 9.194522500038146973e-01
6.390000000000000000e+02 4.006650543212890625e+01 3.482121276855468750e+01 -2.508332252502441406e+00 1.674359291791915894e-01 -7.022688984870910645e-01 4.928015917539596558e-02
6.400000000000000000e+02 3.424502944946289062e+01 3.725201416015625000e+01 -1.392049789428710938e+00 4.102095603942871094e+00 8.130137324333190918e-01 1.685968190431594849e-01
6.410000000000000000e+02 2.990335655212402344e+01 3.472332000732421875e+01 -3.489438891410827637e-01 3.899444103240966797e+00 1.065150022506713867e+00 -9.122526645660400391e-01
6.420000000000000000e+02 2.763457679748535156e+01 2.875366020202636719e+01 -8.976283669471740723e-01 2.486602067947387695e-01 -1.946904510259628296e-01 -2.085648179054260254e-01
6.430000000000000000e+02 2.959895706176757812e+01 2.889567756652832031e+01 1.385316550731658936e-01 2.592832326889038086e+00 8.194091916084289551e-01 -1.323544383049011230e+00
6.440000000000000000e+02 2.870360946655273438e+01 2.788806152343750000e+01 2.829900383949279785e-02 7.516524791717529297e-01 2.339854538440704346e-01 -3.627378046512603760e-01
6.450000000000000000e+02 3.065705871582031250e+01 2.600299072265625000e+01 9.342698454856872559e-01 3.993339061737060547e+00 1.478282690048217773e+00 -1.702757120132446289e+00
6.460000000000000000e+02 3.140924453735351562e+01 2.492801284790039062e+01 1.035740733146667480e+00 8.354579925537109375e+00 2.817096233367919922e+00 -1.646914839744567871e+00
6.470000000000000000e+02 3.436289596557617188e+01 2.405365753173828125e+01 2.352883219718933105e-01 8.536414146423339844e+00 2.631510734558105469e+00 -2.042479217052459717e-01
6.480000000000000000e+02 3.398020172119140625e+01 2.566008377075195312e+01 7.853492498397827148e-01 9.403430938720703125e+00 3.056633949279785156e+00 1.263087391853332520e-01
6.490000000000000000e+02 3.526120758056640625e+01 2.662968254089355469e+01 1.170438885688781738e+00 1.265173721313476562e+01 4.146652698516845703e+00 -1.761214017868041992e+00
6.500000000000000000e+02 3.418841171264648438e+01 2.668044471740722656e+01 1.119475364685058594e+00 9.729578018188476562e+00 3.254715919494628906e+00 -6.064097583293914795e-02
6.510000000000000000e+02 3.588614654541015625e+01 3.207931900024414062e+01 6.931722164154052734e-01 6.272480964660644531e+00 2.089695930480957031e+00 1.759459495544433594e+00
6.520000000000000000e+02 3.518348693847656250e+01 2.948952674865722656e+01 7.854263782501220703e-01 1.180139160156250000e+01 3.776045322418212891e+00 1.334130406379699707e+00
6.530000000000000000e+02 2.210037422180175781e+01 3.719794845581054688e+01 -8.443773984909057617e-01 3.756987571716308594e+00 8.737830519676208496e-01 6.326179206371307373e-02
6.540000000000000000e+02 2.551725196838378906e+01 2.891538238525390625e+01 -1.272081971168518066e+00 1.613841652870178223e-01 -3.332093656063079834e-01 1.908440887928009033e-01
6.550000000000000000e+02 2.452763938903808594e+01 2.989594650268554688e+01 2.369200587272644043e-01 2.239780426025390625e+00 7.430101633071899414e-01 1.204811573028564453e+00
6.560000000000000000e+02 2.853972434997558594e+01 2.993959236145019531e+01 2.597691118717193604e-01 1.678975462913513184e+00 5.816233754158020020e-01 -1.376124858856201172e+00
6.570000000000000000e+02 1.637996482849121094e+01 3.575951766967773438e+01 -4.589464366436004639e-01 1.668399930000305176e+00 3.628360331058502197e-01 -9.937252402305603027e-01
6.580000000000000000e+02 1.222625255584716797e+01 3.496900939941406250e+01 -1.079918622970581055e+00 1.868209987878799438e-01 -2.679292857646942139e-01 1.306851357221603394e-01
6.590000000000000000e+02 1.632592582702636719e+01 3.363449478149414062e+01 4.968842491507530212e-02 5.035373568534851074e-01 1.659677326679229736e-01 -2.507828772068023682e-01
6.600000000000000000e+02 1.738108825683593750e+01 3.303604125976562500e+01 7.168576717376708984e-01 1.408317804336547852e+00 6.375526189804077148e-01 -1.122442483901977539e+00
6.610000000000000000e+02 1.995819091796875000e+01 2.788633537292480469e+01 2.206675708293914795e-01 9.611231803894042969e+00 2.949569940567016602e+00 -1.393181085586547852e-01
6.620000000000000000e+02 2.450024414062500000e+01 2.825407218933105469e+01 -2.061188220977783203e-01 1.908056974411010742e+00 5.105814337730407715e-01 4.198014140129089355e-01
6.630000000000000000e+02 2.098818397521972656e+01 2.579914283752441406e+01 -7.572048306465148926e-01 7.877894878387451172e+00 2.136207103729248047e+00 -1.009350299835205078e+00
6.640000000000000000e+02 2.012698554992675781e+01 2.494179344177246094e+01 -1.384536862373352051e+00 7.015327453613281250e+00 1.689237117767333984e+00 -8.678881525993347168e-01
6.650000000000000000e+02 2.080634117126464844e+01 2.400143051147460938e+01 -1.686474829912185669e-01 7.983063220977783203e+00 2.344324827194213867e+00 -4.943971931934356689e-01
6.660000000000000000e+02 1.746951293945312500e+01 2.407686233520507812e+01 -1.720023036003112793e+00 -6.108759641647338867e-01 -6.992697119712829590e-01 -1.116211771965026855e+00
6.670000000000000000e+02 1.785565757751464844e+01 1.911268806457519531e+01 7.265360951423645020e-01 9.497535824775695801e-01 5.028868913650512695e-01 -1.354911774396896362e-01
6.680000000000000000e+02 1.501092147827148438e+01 1.864449501037597656e+01 -8.950714766979217529e-02 -1.739010065793991089e-01 -7.902244478464126587e-02 1.628089547157287598e-01
6.690000000000000000e+02 1.655217933654785156e+01 1.940993881225585938e+01 6.404672861099243164e-01 -5.548596978187561035e-01 2.568226866424083710e-02 4.677181541919708252e-01
6.700000000000000000e+02 1.671118927001953125e+01 2.175211524963378906e+01 1.089950680732727051e+00 -2.078081816434860229e-01 2.646427452564239502e-01 -2.581263184547424316e-01
6.710000000000000000e+02 1.990184783935546875e+01 1.705437469482421875e+01 -8.189535140991210938e-01 6.467246055603027344e+00 1.694487810134887695e+00 -4.625656008720397949e-01
6.720000000000000000e+02 2.252078437805175781e+01 1.755225372314453125e+01 -6.352842450141906738e-01 7.657933712005615234e+00 2.106794834136962891e+00 -7.101502418518066406e-01
6.730000000000000000e+02 2.484606170654296875e+01 1.472641372680664062e+01 -1.565328121185302734e+00 2.248180866241455078e+00 2.048558294773101807e-01 -1.457849502563476562e+00
6.740000000000000000e+02 2.106828117370605469e+01 1.054412460327148438e+01 7.863515615463256836e-01 7.148500442504882812e+00 2.380455493927001953e+00 -4.393596351146697998e-01
6.750000000000000000e+02 2.101418304443359375e+01 9.020123481750488281e+00 -7.406258583068847656e-01 5.726638793945312500e+00 1.495803952217102051e+00 -7.826224565505981445e-01
6.760000000000000000e+02 1.946747970581054688e+01 8.646307945251464844e+00 -9.131397604942321777e-01 2.362337589263916016e+00 4.347593188285827637e-01 5.306391716003417969e-01
6.770000000000000000e+02 1.907059669494628906e+01 7.564146995544433594e+00 -1.850004434585571289e+00 2.080975532531738281e+00 6.929136067628860474e-02 2.083995789289474487e-01
6.780000000000000000e+02 1.945296096801757812e+01 3.018174886703491211e+00 1.333991885185241699e+00 1.089798545837402344e+01 3.669593334197998047e+00 2.426966905593872070e+00
6.790000000000000000e+02 2.456629562377929688e+01 1.649470138549804688e+01 -1.695544958114624023e+00 6.444904804229736328e-01 -3.153163194656372070e-01 4.796799719333648682e-01
6.800000000000000000e+02 2.551186180114746094e+01 1.571129703521728516e+01 -4.601240634918212891e+00 -4.862104952335357666e-01 -1.526235342025756836e+00 1.149435043334960938e+00
6.810000000000000000e+02 2.233915138244628906e+01 1.622560691833496094e+01 -1.685074448585510254e+00 7.366459846496582031e+00 1.704415678977966309e+00 -2.145798057317733765e-01
6.820000000000000000e+02 2.366113662719726562e+01 1.727565193176269531e+01 -3.466040492057800293e-01 4.189841270446777344e+00 1.152971267700195312e+00 -1.053178310394287109e+00
6.830000000000000000e+02 1.871930885314941406e+01 1.726459884643554688e+01 -6.015075445175170898e-01 2.111109256744384766e+00 4.528804719448089600e-01 -3.210052847862243652e-01
6.840000000000000000e+02 2.214305877685546875e+01 2.169302558898925781e+01 8.608480691909790039e-01 1.413179588317871094e+01 4.497793197631835938e+00 5.268580317497253418e-01
6.850000000000000000e+02 2.321028900146484375e+01 2.767121696472167969e+01 -3.260247036814689636e-02 4.577573776245117188e+00 1.363491415977478027e+00 4.254880249500274658e-01
6.860000000000000000e+02 2.334574127197265625e+01 2.659037971496582031e+01 -9.035505354404449463e-02 5.278162479400634766e+00 1.556342244148254395e+00 9.899364709854125977e-01
6.870000000000000000e+02 1.090895938873291016e+01 3.543682479858398438e+01 -1.401761174201965332e+00 -2.770303785800933838e-01 -5.036374926567077637e-01 -7.822176069021224976e-02
6.880000000000000000e+02 5.005288600921630859e+00 4.032548141479492188e+01 4.134877771139144897e-02 8.615685105323791504e-01 2.708751857280731201e-01 -8.967508561909198761e-03
6.890000000000000000e+02 8.472485542297363281e+00 3.462080001831054688e+01 -1.676143169403076172e+00 -4.374743700027465820e-01 -6.340852379798889160e-01 -5.002725124359130859e-01
6.900000000000000000e+02 1.233770179748535156e+01 3.675273895263671875e+01 -8.760160803794860840e-01 1.512466371059417725e-01 -2.174308300018310547e-01 -4.426935315132141113e-01
6.910000000000000000e+02 2.020392417907714844e+00 4.160632705688476562e+01 1.732424348592758179e-01 1.694655179977416992e+00 5.603693127632141113e-01 4.902916401624679565e-02
6.920000000000000000e+02 4.725424289703369141e+00 3.727874374389648438e+01 -2.820385396480560303e-01 1.044821977615356445e+00 2.288350164890289307e-01 -1.142266765236854553e-01
6.930000000000000000e+02 6.609064340591430664e-01 3.331264495849609375e+01 -3.897769749164581299e-02 1.493340015411376953e+00 4.363086819648742676e-01 -2.016473710536956787e-01
6.940000000000000000e+02 1.975094437599182129e+00 3.327330017089843750e+01 -1.323024481534957886e-01 1.357715964317321777e+00 3.676240742206573486e-01 -4.650260508060455322e-01
6.950000000000000000e+02 7.628939628601074219e+00 3.366469573974609375e+01 -7.977126240730285645e-01 -3.802925944328308105e-01 -3.534015715122222900e-01 -6.624307036399841309e-01
6.960000000000000000e+02 6.905891418457031250e+00 3.253474426269531250e+01 -4.448918402194976807e-01 1.632725149393081665e-01 -8.448579907417297363e-02 -2.029656469821929932e-01
6.970000000000000000e+02 5.916047573089599609e+00 3.001389312744140625e+01 -4.146601259708404541e-02 2.290629386901855469e+00 6.747490167617797852e-01 9.999830275774002075e-02
6.980000000000000000e+02 5.614813327789306641e+00 2.877055168151855469e+01 2.277820110321044922e-01 3.485666751861572266e+00 1.114034652709960938e+00 -3.186323046684265137e-01
6.990000000000000000e+02 3.595019817352294922e+00 2.604598236083984375e+01 5.802574753761291504e-01 1.230908393859863281e+00 5.433497428894042969e-01 -3.547517955303192139e-01
7.000000000000000000e+02 6.027450561523437500e-01 2.467289543151855469e+01 -2.911708503961563110e-02 -1.214248180389404297e+00 -3.730095624923706055e-01 4.087088629603385925e-02
7.010000000000000000e+02 1.769575238227844238e+00 2.304227256774902344e+01 -1.344953756779432297e-02 -3.243861496448516846e-01 -1.013507097959518433e-01 1.518116593360900879e-01
7.020000000000000000e+02 1.965244531631469727e+00 1.722948837280273438e+01 -8.050803095102310181e-02 -4.115986824035644531e-01 -1.476320177316665649e-01 -1.652539372444152832e-01
7.030000000000000000e+02 1.692177414894104004e+00 1.165415763854980469e+01 8.071458339691162109e-02 -9.988437294960021973e-01 -2.754387259483337402e-01 -7.875904440879821777e-02
7.040000000000000000e+02 2.605738878250122070e+00 4.286570549011230469e+00 -4.281532391905784607e-02 -3.329498171806335449e-01 -1.127295494079589844e-01 4.442580938339233398e-01
7.050000000000000000e+02 1.079678344726562500e+01 2.105373144149780273e+00 -7.229184508323669434e-01 2.224422246217727661e-01 -1.501428633928298950e-01 -2.630577683448791504e-01
7.060000000000000000e+02 1.262056446075439453e+01 6.493758201599121094e+00 1.842205166816711426e+00 1.470205664634704590e+00 9.937232136726379395e-01 -1.341126441955566406e+00
7.070000000000000000e+02 1.149760246276855469e+01 2.240660429000854492e+00 -6.271511316299438477e-01 1.689428091049194336e-01 -1.374624967575073242e-01 -3.672484457492828369e-01
7.080000000000000000e+02 1.220113372802734375e+01 2.374637603759765625e+00 -4.205155968666076660e-01 1.095449775457382202e-01 -9.329118579626083374e-02 -5.626586675643920898e-01
7.090000000000000000e+02 1.366850566864013672e+01 2.659479379653930664e+00 1.194060966372489929e-01 -8.733781427145004272e-02 9.620484896004199982e-03 -8.306978940963745117e-01
7.100000000000000000e+02 1.440026950836181641e+01 2.798015594482421875e+00 5.721320509910583496e-01 -2.619629800319671631e-01 9.305072575807571411e-02 -8.641566038131713867e-01
7.110000000000000000e+02 1.606019592285156250e+01 3.320434570312500000e+00 1.865636467933654785e+00 -2.095245867967605591e-01 4.968335628509521484e-01 -1.195549607276916504e+00
7.120000000000000000e+02 2.039497184753417969e+01 2.125298261642456055e+00 6.931900501251220703e+00 6.261313915252685547e+00 3.957964181900024414e+00 5.479996204376220703e+00
7.130000000000000000e+02 2.859774589538574219e+01 2.580610752105712891e+00 -6.033865809440612793e-01 5.975998878479003906e+00 1.611783623695373535e+00 -1.630402088165283203e+00
7.140000000000000000e+02 3.200751113891601562e+01 2.617184162139892578e+00 -1.039242506027221680e+00 1.317090868949890137e+00 8.335451036691665649e-02 -1.137609109282493591e-01
7.150000000000000000e+02 2.936055755615234375e+01 -3.354155778884887695e+00 3.128479003906250000e+00 1.123569011688232422e+01 4.309250831604003906e+00 -4.535759925842285156e+00
7.160000000000000000e+02 3.091547775268554688e+01 -4.361758232116699219e+00 2.831058263778686523e+00 7.958394050598144531e+00 3.236835718154907227e+00 -2.508167028427124023e+00
7.170000000000000000e+02 3.060696983337402344e+01 -8.667860984802246094e+00 2.239641189575195312e+00 9.159771919250488281e+00 3.419823884963989258e+00 1.400029063224792480e+00
7.180000000000000000e+02 2.788540649414062500e+01 -1.160658645629882812e+01 1.448777198791503906e+00 4.007183074951171875e+00 1.636788129806518555e+00 2.635169982910156250e+00
7.190000000000000000e+02 2.882274055480957031e+01 -1.061717510223388672e+01 2.982246160507202148e+00 7.829290866851806641e+00 3.243461132049560547e+00 4.563149929046630859e+00
7.200000000000000000e+02 3.021685791015625000e+01 -1.474750995635986328e+01 -3.961291551589965820e+00 6.327045917510986328e+00 7.097262740135192871e-01 1.687242031097412109e+00
7.210000000000000000e+02 3.162977409362792969e+01 -1.579495239257812500e+01 -1.909860014915466309e+00 3.168967008590698242e+00 3.777320981025695801e-01 1.073619961738586426e+00
7.220000000000000000e+02 3.274147033691406250e+01 -1.517676067352294922e+01 -6.180555820465087891e+00 3.244765698909759521e-01 -1.756823778152465820e+00 -6.274609565734863281e-01
7.230000000000000000e+02 3.392662048339843750e+01 -1.478683185577392578e+01 -8.757256507873535156e+00 -7.309249639511108398e-01 -2.846454381942749023e+00 -1.182023808360099792e-01
7.240000000000000000e+02 3.752519226074218750e+01 -1.349815464019775391e+01 -2.615241765975952148e+00 5.630514621734619141e+00 9.045819044113159180e-01 -2.353945493698120117e+00
7.250000000000000000e+02 3.807698440551757812e+01 -1.078221988677978516e+01 3.737494707107543945e+00 8.283883094787597656e+00 3.606413364410400391e+00 -4.859614372253417969e+00
7.260000000000000000e+02 3.894586181640625000e+01 -1.164176368713378906e+01 2.698674917221069336e+00 5.084370613098144531e+00 2.334913730621337891e+00 -4.118336200714111328e+00
7.270000000000000000e+02 2.046730232238769531e+01 8.132122159004211426e-01 6.015632629394531250e+00 3.442328929901123047e+00 2.837388515472412109e+00 1.443559765815734863e+00
7.280000000000000000e+02 2.017866134643554688e+01 4.628934562206268311e-01 2.245852947235107422e+00 6.919902801513671875e+00 2.749726772308349609e+00 2.026698350906372070e+00
7.290000000000000000e+02 1.660617637634277344e+01 -6.677436232566833496e-01 1.585247814655303955e-01 4.729605197906494141e+00 1.466439008712768555e+00 2.859706640243530273e+00
7.300000000000000000e+02 1.214578437805175781e+01 -1.451926589012145996e+00 -7.253106236457824707e-01 -2.691837251186370850e-01 -2.983483076095581055e-01 -9.199909567832946777e-01
7.310000000000000000e+02 5.254506301879882812e+01 -1.552279949188232422e+01 -2.434499263763427734e+00 1.515846729278564453e+00 -2.755957841873168945e-01 -2.047226428985595703e+00
7.320000000000000000e+02 5.442062377929687500e+01 -1.733106231689453125e+01 1.933963298797607422e+00 6.659817218780517578e+00 2.578134059906005859e+00 -2.802243232727050781e+00
7.330000000000000000e+02 5.425269317626953125e+01 -1.556598663330078125e+01 -1.453103423118591309e+00 5.609487056732177734e+00 1.246915102005004883e+00 -3.151176214218139648e+00
7.340000000000000000e+02 5.728731918334960938e+01 -1.844812965393066406e+01 1.533265233039855957e+00 6.941207408905029297e+00 2.542341709136962891e+00 -1.860484182834625244e-01
7.350000000000000000e+02 6.471598815917968750e+01 -2.018291473388671875e+01 2.444934844970703125e-01 9.918690681457519531e+00 3.048955202102661133e+00 -5.026715621352195740e-02
7.360000000000000000e+02 6.444203186035156250e+01 -1.759399604797363281e+01 -2.355240136384963989e-01 6.506496906280517578e+00 1.881291866302490234e+00 2.230262607336044312e-01
7.370000000000000000e+02 6.305367660522460938e+01 -1.798493194580078125e+01 1.918614506721496582e-01 6.945096492767333984e+00 2.141087293624877930e+00 -5.604904294013977051e-01
7.380000000000000000e+02 6.682389068603515625e+01 -1.046313667297363281e+01 1.278846502304077148e+00 3.522127151489257812e+00 1.440292119979858398e+00 -1.885809183120727539e+00
7.390000000000000000e+02 6.287982177734375000e+01 -1.019770622253417969e+01 -2.643886506557464600e-01 8.052161216735839844e+00 2.336331844329833984e+00 6.660281419754028320e-01
7.400000000000000000e+02 6.550806427001953125e+01 -1.092409992218017578e+01 -3.055448234081268311e-01 6.406412124633789062e+00 1.830260276794433594e+00 -1.102093458175659180e+00
7.410000000000000000e+02 5.572557067871093750e+01 -1.801999855041503906e+01 1.740650534629821777e+00 8.061646461486816406e+00 2.940689086914062500e+00 -1.639081716537475586e+00
7.420000000000000000e+02 5.549247360229492188e+01 -2.063039588928222656e+01 6.415000557899475098e-01 1.155326843261718750e+01 3.658430576324462891e+00 -2.993713021278381348e-01
7.430000000000000000e+02 5.748374557495117188e+01 -2.478785133361816406e+01 -6.478161215782165527e-01 6.407532691955566406e+00 1.727914929389953613e+00 1.146248698234558105e+00
7.440000000000000000e+02 5.665196990966796875e+01 -2.221609687805175781e+01 2.289423942565917969e+00 7.721188068389892578e+00 3.003183603286743164e+00 9.790523648262023926e-01
7.450000000000000000e+02 5.469445800781250000e+01 -2.591451072692871094e+01 -2.642100572586059570e+00 7.276051044464111328e+00 1.390185117721557617e+00 2.272192955017089844e+00
7.460000000000000000e+02 5.556775665283203125e+01 -2.649641609191894531e+01 -1.634794354438781738e+00 7.406194210052490234e+00 1.731419920921325684e+00 2.378881454467773438e+00
7.470000000000000000e+02 5.819701004028320312e+01 -2.808647346496582031e+01 7.476093173027038574e-01 4.634675025939941406e+00 1.614685297012329102e+00 2.116607904434204102e+00
7.480000000000000000e+02 5.736895370483398438e+01 -2.923018455505371094e+01 1.542009711265563965e+00 7.003638267517089844e+00 2.563694477081298828e+00 3.311890125274658203e+00
7.490000000000000000e+02 5.313354110717773438e+01 -2.591897773742675781e+01 -2.514694929122924805e+00 2.433304071426391602e+00 -2.441726811230182648e-02 1.328672528266906738e+00
7.500000000000000000e+02 4.676392745971679688e+01 -2.853234863281250000e+01 7.166303992271423340e-01 2.792677640914916992e+00 1.052792429924011230e+00 -2.523066043853759766e+00
7.510000000000000000e+02 4.941852569580078125e+01 -2.558088302612304688e+01 -1.802516937255859375e+00 3.358352422714233398e+00 4.667506515979766846e-01 -2.524988889694213867e+00
7.520000000000000000e+02 4.882293319702148438e+01 -2.432769393920898438e+01 3.844641745090484619e-01 3.448638916015625000e+00 1.149930953979492188e+00 -2.430353164672851562e+00
7.530000000000000000e+02 4.401395416259765625e+01 -2.241754150390625000e+01 3.423470497131347656e+00 4.411507606506347656e+00 2.350493431091308594e+00 8.847580756992101669e-04
7.540000000000000000e+02 4.701842117309570312e+01 -2.207320404052734375e+01 3.160482406616210938e+00 9.207349777221679688e+00 3.710349559783935547e+00 -3.229984283447265625e+00
7.550000000000000000e+02 4.495809555053710938e+01 -2.772469139099121094e+01 -2.785278081893920898e+00 7.707912921905517578e-01 -6.043460965156555176e-01 -5.411037802696228027e-01
7.560000000000000000e+02 4.608147430419921875e+01 -2.746534156799316406e+01 -1.183366298675537109e+00 3.018793344497680664e+00 5.506280660629272461e-01 -2.306946754455566406e+00
7.570000000000000000e+02 4.778646850585937500e+01 -2.932399940490722656e+01 3.451577663421630859e+00 4.703989982604980469e+00 2.446670293807983398e+00 -4.009433746337890625e+00
7.580000000000000000e+02 4.927878570556640625e+01 -3.160406875610351562e+01 2.207553148269653320e+00 1.164690113067626953e+01 4.156336307525634766e+00 -3.428967952728271484e+00
7.590000000000000000e+02 4.958815002441406250e+01 -3.292171096801757812e+01 1.009444952011108398e+00 1.111477375030517578e+01 3.637265443801879883e+00 -3.881610631942749023e-01
7.600000000000000000e+02 5.028337860107421875e+01 -3.455117034912109375e+01 1.416476607322692871e+00 8.449095726013183594e+00 2.959671497344970703e+00 3.979857265949249268e-01
7.610000000000000000e+02 4.668265151977539062e+01 -2.060874366760253906e+01 1.459504008293151855e+00 1.063165092468261719e+01 3.627346515655517578e+00 -4.762462973594665527e-01
7.620000000000000000e+02 4.016880416870117188e+01 -1.630321502685546875e+01 -7.691621184349060059e-01 4.825176239013671875e+00 1.216804146766662598e+00 -2.257609844207763672e+00
7.630000000000000000e+02 4.750347137451171875e+01 -1.665629768371582031e+01 -1.499680161476135254e+00 5.718627929687500000e+00 1.265684366226196289e+00 2.496866941452026367e+00
7.640000000000000000e+02 4.889528274536132812e+01 -1.662650299072265625e+01 -2.325366020202636719e+00 2.257667303085327148e+00 -2.030961029231548309e-02 1.062990427017211914e+00
7.650000000000000000e+02 5.014075851440429688e+01 -1.627280998229980469e+01 -4.995623588562011719e+00 -4.096597433090209961e-02 -1.510976910591125488e+00 -6.730114817619323730e-01
7.660000000000000000e+02 7.384650421142578125e+01 -2.202123641967773438e+01 6.904276609420776367e-01 1.350941371917724609e+01 4.259952545166015625e+00 4.260324835777282715e-01
7.670000000000000000e+02 7.944626617431640625e+01 -2.638556098937988281e+01 -1.064841914921998978e-02 7.305041790008544922e+00 2.188318014144897461e+00 -1.983945369720458984e-01
7.680000000000000000e+02 7.181270599365234375e+01 -2.604206466674804688e+01 -1.663000464439392090e+00 1.666091442108154297e+00 9.273262694478034973e-04 1.133350610733032227e+00
7.690000000000000000e+02 7.093791961669921875e+01 -2.711095046997070312e+01 -1.558226466178894043e+00 1.330947756767272949e+00 -6.818359345197677612e-02 1.053775668144226074e+00
7.700000000000000000e+02 6.964865112304687500e+01 -2.649617195129394531e+01 -3.763997316360473633e+00 -2.089645266532897949e-01 -1.191888570785522461e+00 1.236756071448326111e-01
7.710000000000000000e+02 6.847114562988281250e+01 -2.903952980041503906e+01 1.803200721740722656e+00 4.073623657226562500e+00 1.763047337532043457e+00 -1.591809868812561035e+00
7.720000000000000000e+02 6.715742492675781250e+01 -2.540273094177246094e+01 3.820674419403076172e-01 4.603189468383789062e+00 1.495576977729797363e+00 -2.395428657531738281e+00
7.730000000000000000e+02 6.353204727172851562e+01 -2.760201835632324219e+01 9.530367851257324219e-01 4.356883049011230469e+00 1.592975974082946777e+00 -2.640509366989135742e+00
7.740000000000000000e+02 6.569200134277343750e+01 -2.895937347412109375e+01 2.516053676605224609e+00 9.849944114685058594e+00 3.709799289703369141e+00 -3.877780199050903320e+00
7.750000000000000000e+02 6.569874572753906250e+01 -3.031311225891113281e+01 2.913365602493286133e+00 1.261386394500732422e+01 4.658168792724609375e+00 -4.187960624694824219e+00
7.760000000000000000e+02 6.609745025634765625e+01 -3.300972747802734375e+01 3.751761615276336670e-01 9.474209785461425781e+00 2.954815864562988281e+00 -8.597136735916137695e-01
7.770000000000000000e+02 6.623985290527343750e+01 -3.435749435424804688e+01 4.605163335800170898e-01 8.115072250366210938e+00 2.572676658630371094e+00 -2.116835862398147583e-01
7.780000000000000000e+02 6.534329223632812500e+01 -3.645777130126953125e+01 -2.248509228229522705e-01 4.595396041870117188e+00 1.311163544654846191e+00 5.587407350540161133e-01
7.790000000000000000e+02 6.731904602050781250e+01 -4.157197952270507812e+01 -1.579423308372497559e+00 4.785123348236083984e+00 9.617100358009338379e-01 -4.475396126508712769e-02
7.800000000000000000e+02 6.657978820800781250e+01 -3.781758499145507812e+01 -1.833371520042419434e+00 5.225937366485595703e+00 1.017769813537597656e+00 -5.730169415473937988e-01
7.810000000000000000e+02 6.112627792358398438e+01 -2.642613601684570312e+01 -4.455227375030517578e+00 -2.871784269809722900e-01 -1.422721743583679199e+00 -3.563587367534637451e-01
7.820000000000000000e+02 6.472856140136718750e+01 -2.164493942260742188e+01 2.027731418609619141e+00 1.254580688476562500e+01 4.372061729431152344e+00 -2.439524173736572266e+00
7.830000000000000000e+02 6.690688323974609375e+01 -1.634619712829589844e+01 -2.667486667633056641e+00 3.409693837165832520e-01 -6.979551911354064941e-01 -2.694069445133209229e-01
7.840000000000000000e+02 6.822982025146484375e+01 -1.598556709289550781e+01 -2.270998954772949219e+00 5.107204616069793701e-02 -6.659780740737915039e-01 -6.956085562705993652e-01
7.850000000000000000e+02 6.240710067749023438e+01 -2.678005981445312500e+01 -2.536330699920654297e+00 1.937893152236938477e+00 -1.795312613248825073e-01 -9.762736558914184570e-01
7.860000000000000000e+02 6.604166412353515625e+01 -2.439393424987792969e+01 2.293882369995117188e+00 7.490863800048828125e+00 2.935423851013183594e+00 -4.471430301666259766e+00
7.870000000000000000e+02 6.590399169921875000e+01 -2.768453979492187500e+01 -7.328973412513732910e-01 7.674804687500000000e+00 2.082572221755981445e+00 -2.572657823562622070e+00
7.880000000000000000e+02 5.603144836425781250e+01 -3.328547286987304688e+01 1.062423944473266602e+00 1.243975925445556641e+01 4.050654888153076172e+00 -2.679650783538818359e-01
7.890000000000000000e+02 5.310535812377929688e+01 -3.179519462585449219e+01 3.001667499542236328e+00 6.634361267089843750e+00 2.890808582305908203e+00 -2.779132127761840820e-01
7.900000000000000000e+02 5.980796432495117188e+01 -2.602420234680175781e+01 -2.216386556625366211e+00 1.689130067825317383e+00 -1.581769287586212158e-01 6.819805502891540527e-01
7.910000000000000000e+02 1.452667808532714844e+01 -1.407987785339355469e+01 -2.489477634429931641e+00 1.590747594833374023e+00 -2.696190178394317627e-01 7.353787422180175781e-01
7.920000000000000000e+02 1.938645362854003906e+01 -1.231276893615722656e+01 -1.069815039634704590e+00 2.235758543014526367e+00 3.497830331325531006e-01 -2.640213966369628906e-01
7.930000000000000000e+02 2.045425796508789062e+01 -1.328883171081542969e+01 -3.606030464172363281e+00 4.646323323249816895e-01 -9.424194097518920898e-01 5.989472866058349609e-01
7.940000000000000000e+02 1.540046787261962891e+01 -1.512163925170898438e+01 -6.558403968811035156e-01 5.019581794738769531e+00 1.309122443199157715e+00 -7.575129866600036621e-01
7.950000000000000000e+02 2.028242492675781250e+01 -1.723296165466308594e+01 7.221461534500122070e-01 1.179954051971435547e+00 5.706300735473632812e-01 -1.099701046943664551e+00
7.960000000000000000e+02 2.226047134399414062e+01 -2.611028099060058594e+01 -1.316578865051269531e+00 1.202505826950073242e+00 -3.422190248966217041e-02 -1.311574131250381470e-01
7.970000000000000000e+02 2.701818847656250000e+01 -1.923899078369140625e+01 1.861023664474487305e+00 5.684172630310058594e+00 2.263558864593505859e+00 5.603538155555725098e-01
7.980000000000000000e+02 2.253235816955566406e+01 -1.394097042083740234e+01 -6.551167964935302734e+00 -6.752635836601257324e-01 -2.167929410934448242e+00 -8.710828609764575958e-03
7.990000000000000000e+02 2.965860176086425781e+01 -1.848501396179199219e+01 1.929704308509826660e+00 9.940470695495605469e+00 3.561052560806274414e+00 3.995698928833007812e+00
8.000000000000000000e+02 2.920047378540039062e+01 -1.974652481079101562e+01 1.727840662002563477e+00 1.203994369506835938e+01 4.130335330963134766e+00 3.110953330993652344e+00
8.010000000000000000e+02 2.745771598815917969e+01 -2.203775787353515625e+01 2.040083885192871094e+00 7.282136440277099609e+00 2.796666145324707031e+00 4.347503483295440674e-01
8.020000000000000000e+02 2.876815223693847656e+01 -2.235937881469726562e+01 1.212119102478027344e+00 1.203925228118896484e+01 3.975411176681518555e+00 -6.613875627517700195e-01
8.030000000000000000e+02 1.589860153198242188e+01 -1.850758934020996094e+01 2.146080136299133301e-01 7.823587417602539062e+00 2.411458730697631836e+00 3.921509385108947754e-01
8.040000000000000000e+02 1.598026657104492188e+01 -1.721730232238769531e+01 7.041378021240234375e-01 7.496992588043212891e+00 2.460339069366455078e+00 -7.350273132324218750e-01
8.050000000000000000e+02 1.759801292419433594e+01 -2.156881332397460938e+01 1.005121588706970215e+00 2.892246246337890625e+00 1.169210314750671387e+00 1.833461225032806396e-01
8.060000000000000000e+02 1.727293395996093750e+01 -2.687213706970214844e+01 -6.782557964324951172e-01 8.342358469963073730e-01 4.679401963949203491e-02 6.780431866645812988e-01
8.070000000000000000e+02 4.834505081176757812e+00 -1.959796714782714844e+01 2.251362055540084839e-01 4.511220455169677734e+00 1.420906901359558105e+00 6.429004073143005371e-01
8.080000000000000000e+02 4.363751411437988281e+00 -1.866381835937500000e+01 8.263458013534545898e-01 4.342275142669677734e+00 1.550586342811584473e+00 1.278754353523254395e+00
8.090000000000000000e+02 2.146365404129028320e+00 -1.844099617004394531e+01 5.682315230369567871e-01 8.748738169670104980e-01 4.329316020011901855e-01 9.633559584617614746e-01
8.100000000000000000e+02 3.418316364288330078e+00 -1.828542900085449219e+01 8.372487425804138184e-01 2.313579320907592773e+00 9.452484250068664551e-01 1.224344968795776367e+00
8.110000000000000000e+02 5.784527778625488281e+00 -1.612510871887207031e+01 1.474944949150085449e+00 4.275329589843750000e+00 1.725082397460937500e+00 2.208987474441528320e+00
8.120000000000000000e+02 1.866427540779113770e+00 -1.434237575531005859e+01 1.024476662278175354e-01 -1.616451591253280640e-01 -1.775924675166606903e-02 -1.179777532815933228e-01
8.130000000000000000e+02 4.646397018432617188e+01 1.803812026977539062e+01 1.486823558807373047e+00 6.015786647796630859e+00 2.250782966613769531e+00 3.038338661193847656e+00
8.140000000000000000e+02 4.763473510742187500e+01 1.889598655700683594e+01 -1.937966585159301758e+00 2.078150272369384766e+00 4.205511510372161865e-02 1.714156270027160645e+00
8.150000000000000000e+02 5.080020523071289062e+01 1.791232872009277344e+01 -5.528426170349121094e-01 1.170928835868835449e+00 1.854258626699447632e-01 -3.547758162021636963e-01
8.160000000000000000e+02 5.279302597045898438e+01 1.598038959503173828e+01 1.585189938545227051e+00 3.199086189270019531e+00 1.435282826423645020e+00 -2.043805599212646484e+00
8.170000000000000000e+02 5.369099044799804688e+01 1.493490028381347656e+01 1.659791946411132812e+00 4.959315299987792969e+00 1.985732078552246094e+00 -2.671012163162231445e+00
8.180000000000000000e+02 5.737585067749023438e+01 1.335147762298583984e+01 1.804499983787536621e+00 8.196731567382812500e+00 3.000369548797607422e+00 6.847919821739196777e-01
8.190000000000000000e+02 5.444820022583007812e+01 1.384037590026855469e+01 1.436342000961303711e+00 8.054788589477539062e+00 2.847339153289794922e+00 -1.976954936981201172e+00
8.200000000000000000e+02 5.484929275512695312e+01 1.035052871704101562e+01 4.053086638450622559e-01 1.143508148193359375e+01 3.552117109298706055e+00 7.911618947982788086e-01
8.210000000000000000e+02 6.091717910766601562e+01 9.069863319396972656e+00 1.562884300947189331e-01 6.080892086029052734e+00 1.871154069900512695e+00 -1.097413778305053711e+00
8.220000000000000000e+02 5.436053085327148438e+01 7.741627216339111328e+00 2.666307449340820312e+00 1.024263000488281250e+01 3.872681379318237305e+00 3.789657592773437500e+00
8.230000000000000000e+02 5.755891036987304688e+01 2.354490995407104492e+00 -8.573315143585205078e-01 2.944449186325073242e+00 6.261353492736816406e-01 -1.177811145782470703e+00
8.240000000000000000e+02 5.261106872558593750e+01 2.661565542221069336e+00 -1.195322632789611816e+00 4.517449855804443359e+00 9.966381788253784180e-01 2.358818292617797852e+00
8.250000000000000000e+02 5.801847839355468750e+01 1.091621994972229004e+00 -2.103645563125610352e+00 1.934965491294860840e+00 -5.060403421521186829e-02 -1.623309373855590820e+00
8.260000000000000000e+02 5.548218536376953125e+01 3.799722194671630859e-01 -2.033831834793090820e+00 1.131080031394958496e+00 -2.708255350589752197e-01 8.426550030708312988e-01
8.270000000000000000e+02 5.390469360351562500e+01 -4.887197017669677734e-01 6.186890006065368652e-01 4.930433273315429688e+00 1.664736747741699219e+00 2.121826648712158203e+00
8.280000000000000000e+02 5.304452133178710938e+01 6.157978534698486328e+00 2.060555696487426758e+00 4.607941627502441406e+00 2.000549316406250000e+00 2.891791105270385742e+00
8.290000000000000000e+02 5.078388595581054688e+01 4.765994071960449219e+00 -1.247826218605041504e+00 8.377220630645751953e-01 -1.230312362313270569e-01 1.108299612998962402e+00
8.300000000000000000e+02 5.198244476318359375e+01 1.782554149627685547e+00 -4.420756995677947998e-01 4.653190612792968750e+00 1.263334512710571289e+00 1.591651201248168945e+00
8.310000000000000000e+02 4.758637619018554688e+01 7.312548160552978516e+00 -3.980312943458557129e-01 5.185104012489318848e-01 3.614373132586479187e-02 3.943955153226852417e-02
8.320000000000000000e+02 4.860428237915039062e+01 6.368423938751220703e+00 -1.731767773628234863e+00 -1.590811610221862793e-01 -5.672546625137329102e-01 5.166915059089660645e-01
8.330000000000000000e+02 4.658274841308593750e+01 8.244086265563964844e+00 9.685584902763366699e-02 1.448985219001770020e+00 4.637522995471954346e-01 -6.922667026519775391e-01
8.340000000000000000e+02 4.442365646362304688e+01 9.734055519104003906e+00 5.106489658355712891e-01 7.689764022827148438e+00 2.460124015808105469e+00 -4.097454547882080078e-01
8.350000000000000000e+02 4.456728363037109375e+01 1.247039890289306641e+01 8.144665956497192383e-01 1.276869297027587891e+01 4.074947834014892578e+00 -3.590945154428482056e-02
8.360000000000000000e+02 4.499902725219726562e+01 1.535129928588867188e+01 1.656949162483215332e+00 1.161578464508056641e+01 3.981820106506347656e+00 3.146123409271240234e+00
8.370000000000000000e+02 4.466221618652343750e+01 1.391116714477539062e+01 9.583832025527954102e-01 1.308778285980224609e+01 4.213850021362304688e+00 1.767548203468322754e+00
8.380000000000000000e+02 4.211799621582031250e+01 2.186713600158691406e+01 -2.078265905380249023e+00 7.676855921745300293e-01 -3.931741118431091309e-01 5.083231925964355469e-01
8.390000000000000000e+02 4.384123992919921875e+01 2.010133361816406250e+01 -1.156356930732727051e+00 5.539753913879394531e+00 1.315019130706787109e+00 2.562835454940795898e+00
8.400000000000000000e+02 1.120803165435791016e+01 8.473196983337402344e+00 1.700089812278747559e+00 2.140521049499511719e+00 1.152183294296264648e+00 -1.835888981819152832e+00
8.410000000000000000e+02 9.704206466674804688e+00 1.078254890441894531e+01 8.759155273437500000e-01 4.515071868896484375e+00 1.617296218872070312e+00 -1.189758539199829102e+00
8.420000000000000000e+02 9.391197204589843750e+00 1.343458843231201172e+01 1.292356401681900024e-01 3.028867959976196289e+00 9.474310874938964844e-01 5.940839648246765137e-02
8.430000000000000000e+02 9.465250015258789062e+00 1.214118289947509766e+01 2.254659682512283325e-01 3.902928113937377930e+00 1.238518238067626953e+00 -2.805061936378479004e-01
8.440000000000000000e+02 7.449230194091796875e+00 1.393060111999511719e+01 1.561480760574340820e-01 1.760560989379882812e+00 5.750126838684082031e-01 -5.334388017654418945e-01
8.450000000000000000e+02 5.205918788909912109e+00 1.713285255432128906e+01 -2.746391892433166504e-01 8.697310686111450195e-01 1.785275638103485107e-01 -3.987351655960083008e-01
8.460000000000000000e+02 1.193619823455810547e+01 1.744939613342285156e+01 -1.996702998876571655e-01 1.272299438714981079e-01 -2.173210494220256805e-02 -8.267606049776077271e-02
8.470000000000000000e+02 1.297673511505126953e+01 1.822276496887207031e+01 -6.389047205448150635e-02 -6.233774498105049133e-02 -3.786846622824668884e-02 -1.298604905605316162e-01
8.480000000000000000e+02 3.762343597412109375e+01 -1.511040401458740234e+01 -3.730364084243774414e+00 5.674560070037841797e+00 5.832588076591491699e-01 -2.058013916015625000e+00
8.490000000000000000e+02 3.783350753784179688e+01 -1.702420616149902344e+01 1.143506169319152832e+00 5.637872219085693359e+00 2.034413576126098633e+00 -3.216603279113769531e+00
8.500000000000000000e+02 4.285266876220703125e+01 -2.489921760559082031e+01 1.987383604049682617e+00 3.258653640747070312e+00 1.573811173439025879e+00 4.908334612846374512e-01
8.510000000000000000e+02 4.598872375488281250e+01 -1.765004730224609375e+01 1.394574791193008423e-01 6.094781875610351562e+00 1.870271801948547363e+00 1.079457402229309082e+00
8.520000000000000000e+02 3.889171600341796875e+01 -1.753197097778320312e+01 1.479130983352661133e+00 6.482756137847900391e+00 2.388566017150878906e+00 -2.876945257186889648e+00
8.530000000000000000e+02 3.978412628173828125e+01 -2.233474349975585938e+01 -4.713808745145797729e-02 9.165925979614257812e+00 2.735636472702026367e+00 -4.230314195156097412e-01
8.540000000000000000e+02 4.314112091064453125e+01 -2.159302139282226562e+01 3.163490295410156250e+00 4.878050327301025391e+00 2.412462234497070312e+00 2.632131874561309814e-01
8.550000000000000000e+02 4.131681442260742188e+01 -2.758073043823242188e+01 -3.291910171508789062e+00 4.102598190307617188e+00 2.432064265012741089e-01 9.175137281417846680e-01
8.560000000000000000e+02 4.021949386596679688e+01 -2.742623710632324219e+01 -2.503790855407714844e+00 7.798989295959472656e+00 1.588559508323669434e+00 1.727394342422485352e+00
8.570000000000000000e+02 3.735907363891601562e+01 -2.867246246337890625e+01 -2.770702600479125977e+00 2.970522880554199219e+00 5.994611978530883789e-02 7.824462652206420898e-01
8.580000000000000000e+02 3.355773162841796875e+01 -2.901079177856445312e+01 -3.973739862442016602e+00 -2.690089121460914612e-02 -1.200192213058471680e+00 -2.170525342226028442e-01
8.590000000000000000e+02 3.290883636474609375e+01 -2.804338455200195312e+01 -3.217621564865112305e+00 -5.176841840147972107e-02 -9.808170199394226074e-01 7.902761697769165039e-01
8.600000000000000000e+02 3.112590408325195312e+01 -2.622547721862792969e+01 -5.260593816637992859e-02 1.764764785766601562e+00 5.136476755142211914e-01 -5.660724639892578125e-01
8.610000000000000000e+02 1.449976730346679688e+01 -2.147488212585449219e+01 1.473531603813171387e+00 2.915181875228881836e+00 1.316614031791687012e+00 1.987841844558715820e+00
8.620000000000000000e+02 2.001620864868164062e+01 -2.533027076721191406e+01 -9.201135635375976562e-01 -4.817529916763305664e-01 -4.205599725246429443e-01 3.332016766071319580e-01
8.630000000000000000e+02 1.728008651733398438e+01 -4.033668136596679688e+01 -2.593975782394409180e+00 -3.066360652446746826e-01 -8.701835870742797852e-01 1.035547494888305664e+00
8.640000000000000000e+02 1.890152549743652344e+01 -4.085945129394531250e+01 -2.939203977584838867e+00 -5.975828170776367188e-01 -1.061036109924316406e+00 -3.321772813796997070e-01
8.650000000000000000e+02 1.567124557495117188e+01 -4.081769943237304688e+01 -1.856069684028625488e+00 -2.934027910232543945e-01 -6.448417305946350098e-01 3.958706557750701904e-01
8.660000000000000000e+02 1.532620048522949219e+01 -3.901135635375976562e+01 -7.137140035629272461e-01 -1.877094805240631104e-01 -2.704270482063293457e-01 1.040383338928222656e+00
8.670000000000000000e+02 2.030309486389160156e+01 2.321255922317504883e+00 6.227022171020507812e+00 7.307162284851074219e+00 4.060255527496337891e+00 5.634888172149658203e+00
8.680000000000000000e+02 2.692069816589355469e+01 -1.250000476837158203e+01 -1.908284544944763184e+00 1.791076898574829102e+00 -3.516230732202529907e-02 9.146884083747863770e-01
8.690000000000000000e+02 2.502930831909179688e+01 -1.343596839904785156e+01 -4.777358531951904297e+00 1.476277559995651245e-01 -1.388919234275817871e+00 -8.024961948394775391e-01
8.700000000000000000e+02 2.058088684082031250e+01 1.297035813331604004e+00 7.847249984741210938e+00 3.706815958023071289e+00 3.466219663619995117e+00 2.685745954513549805e+00
8.710000000000000000e+02 1.564957237243652344e+01 2.319452095031738281e+01 -9.769612550735473633e-01 -6.395322084426879883e-01 -4.849480390548706055e-01 -7.727245092391967773e-01
8.720000000000000000e+02 1.028109931945800781e+01 2.282547760009765625e+01 9.100748896598815918e-01 3.024125695228576660e-01 3.637462258338928223e-01 -4.404976963996887207e-01
8.730000000000000000e+02 9.137505531311035156e+00 2.250172996520996094e+01 6.958730816841125488e-01 9.864665865898132324e-01 5.047019124031066895e-01 -7.455675601959228516e-01
8.740000000000000000e+02 7.430436611175537109e+00 2.446775627136230469e+01 1.365618944168090820e+00 2.109933376312255859e+00 1.042665719985961914e+00 -1.658187150955200195e+00
8.750000000000000000e+02 1.969068527221679688e+00 2.563080978393554688e+01 1.643678247928619385e-01 -9.365057945251464844e-02 2.121517248451709747e-02 -8.943522721529006958e-02
8.760000000000000000e+02 6.501946258544921875e+01 2.016214561462402344e+01 -4.069112777709960938e+00 2.785399556159973145e-01 -1.137171745300292969e+00 5.726030468940734863e-01
8.770000000000000000e+02 6.367527389526367188e+01 2.472243309020996094e+01 9.557789564132690430e-01 6.838260650634765625e+00 2.338211774826049805e+00 1.643058776855468750e+00
8.780000000000000000e+02 6.371161651611328125e+01 1.989648246765136719e+01 6.052334234118461609e-02 2.972121953964233398e+00 9.097936153411865234e-01 2.638068437576293945e+00
8.790000000000000000e+02 6.088651657104492188e+01 1.994160461425781250e+01 1.708418875932693481e-01 6.688811779022216797e+00 2.057896137237548828e+00 2.434316873550415039e+00
8.800000000000000000e+02 5.447246170043945312e+01 1.587546157836914062e+01 1.004154443740844727e+00 5.637576580047607422e+00 1.992519259452819824e+00 -1.608947396278381348e+00
8.810000000000000000e+02 6.104289245605468750e+01 1.613808822631835938e+01 1.607225179672241211e+00 1.228883266448974609e+01 4.168817520141601562e+00 3.152976751327514648e+00
8.820000000000000000e+02 6.069897079467773438e+01 1.340381717681884766e+01 3.841732740402221680e-01 1.066880702972412109e+01 3.315894126892089844e+00 2.361624091863632202e-01
8.830000000000000000e+02 5.674363327026367188e+01 1.228328227996826172e+01 1.468676447868347168e+00 8.412425994873046875e+00 2.964330911636352539e+00 7.243912816047668457e-01
8.840000000000000000e+02 6.328124618530273438e+01 8.326708793640136719e+00 6.101634502410888672e-01 1.568584680557250977e+00 6.536244750022888184e-01 -8.037783503532409668e-01
8.850000000000000000e+02 6.149885559082031250e+01 1.012394523620605469e+01 1.667009949684143066e+00 6.248205184936523438e+00 2.374564647674560547e+00 -2.294063806533813477e+00
8.860000000000000000e+02 6.632064819335937500e+01 2.027735900878906250e+01 -5.588937282562255859e+00 -2.769079208374023438e-01 -1.759753584861755371e+00 6.774783134460449219e-01
8.870000000000000000e+02 6.829655456542968750e+01 1.953532218933105469e+01 -3.040525674819946289e+00 2.684152424335479736e-01 -8.316331505775451660e-01 4.696823954582214355e-01
8.880000000000000000e+02 6.921324920654296875e+01 1.857440948486328125e+01 -6.132795214653015137e-01 1.361597180366516113e+00 2.244953066110610962e-01 -2.176586389541625977e-01
8.890000000000000000e+02 6.952891540527343750e+01 2.044002532958984375e+01 -2.005793571472167969e+00 3.597960948944091797e+00 4.776501953601837158e-01 -1.485236644744873047e+00
8.900000000000000000e+02 6.888887023925781250e+01 2.155708312988281250e+01 -1.021668553352355957e+00 2.786809921264648438e+00 5.295424461364746094e-01 -1.516573548316955566e+00
8.910000000000000000e+02 6.409018707275390625e+01 7.421179771423339844e+00 -1.306725025177001953e+00 6.150254607200622559e-01 -2.075098454952239990e-01 -3.163879215717315674e-01
8.920000000000000000e+02 3.244827270507812500e+01 2.395985984802246094e+01 9.002998471260070801e-01 9.868736267089843750e+00 3.230710744857788086e+00 -4.561322629451751709e-01
8.930000000000000000e+02 3.026072120666503906e+01 1.535365200042724609e+01 -7.736722826957702637e-01 3.909172058105468750e+00 9.406499266624450684e-01 2.942653894424438477e+00
8.940000000000000000e+02 2.937974166870117188e+01 1.462697696685791016e+01 -2.611019849777221680e+00 2.493614435195922852e+00 -3.522167354822158813e-02 2.435761928558349609e+00
8.950000000000000000e+02 2.728207778930664062e+01 1.505559825897216797e+01 -6.233329772949218750e+00 -5.983151793479919434e-01 -2.049493551254272461e+00 8.753236532211303711e-01
8.960000000000000000e+02 3.791828155517578125e+01 2.178183937072753906e+01 -2.781877517700195312e-01 1.621600627899169922e+00 4.030238687992095947e-01 -9.987310767173767090e-01
8.970000000000000000e+02 3.663691329956054688e+01 2.414657783508300781e+01 1.085543274879455566e+00 3.087463855743408203e+00 1.251902103424072266e+00 -1.633125424385070801e+00
8.980000000000000000e+02 5.309515380859375000e+01 3.236397933959960938e+01 1.515800714492797852e+00 8.591299057006835938e+00 3.032130002975463867e+00 1.585361361503601074e+00
8.990000000000000000e+02 7.242924499511718750e+01 -1.287045478820800781e+00 -1.420261502265930176e+00 1.066057205200195312e+00 -1.062612831592559814e-01 -2.694138884544372559e-01
9.000000000000000000e+02 6.785089111328125000e+01 6.885868072509765625e+00 -1.445130109786987305e+00 3.037322759628295898e-01 -3.424193263053894043e-01 3.986962437629699707e-01
9.010000000000000000e+02 7.437778472900390625e+01 -3.459010362625122070e+00 6.156662106513977051e-01 7.472215652465820312e+00 2.426364421844482422e+00 -2.304999828338623047e+00
9.020000000000000000e+02 7.696115875244140625e+01 1.179961800575256348e+00 -4.942075610160827637e-01 7.871440887451171875e+00 2.213170051574707031e+00 -5.080630183219909668e-01
9.030000000000000000e+02 7.694624328613281250e+01 -4.232409000396728516e+00 1.800022870302200317e-01 9.713225364685058594e+00 2.967968225479125977e+00 4.071144461631774902e-01
9.040000000000000000e+02 5.998685073852539062e+01 -9.451949119567871094e+00 8.947132825851440430e-01 4.864593982696533203e+00 1.727792263031005859e+00 2.280176639556884766e+00
9.050000000000000000e+02 6.123496627807617188e+01 -7.635040283203125000e+00 1.677504777908325195e+00 1.031139659881591797e+01 3.596670389175415039e+00 1.948091626167297363e+00
9.060000000000000000e+02 6.768143463134765625e+01 -1.418826341629028320e+00 1.637878060340881348e+00 2.739151239395141602e+00 1.313108801841735840e+00 2.013293504714965820e+00
9.070000000000000000e+02 6.672904968261718750e+01 -2.473557710647583008e+00 2.173829317092895508e+00 4.546799659729003906e+00 2.016188621520996094e+00 2.898883819580078125e+00
9.080000000000000000e+02 6.856037902832031250e+01 -1.646267324686050415e-01 4.629364609718322754e-01 1.819287180900573730e+00 6.846671104431152344e-01 1.904746413230895996e+00
9.090000000000000000e+02 6.985622406005859375e+01 -6.804296970367431641e-01 -3.798174560070037842e-01 5.554114580154418945e-01 5.267820134758949280e-02 9.825620055198669434e-01
9.100000000000000000e+02 4.475460433959960938e+01 -3.827663040161132812e+01 -3.511479616165161133e+00 -4.355058073997497559e-01 -1.184095621109008789e+00 -2.659415304660797119e-01
9.110000000000000000e+02 4.305212020874023438e+01 -3.847549057006835938e+01 -3.384970426559448242e+00 -9.138377755880355835e-02 -1.042906284332275391e+00 -4.003083799034357071e-03
9.120000000000000000e+02 4.148579025268554688e+01 -3.777424240112304688e+01 -2.098646163940429688e+00 6.409921646118164062e-01 -4.372961819171905518e-01 8.757668733596801758e-02
9.130000000000000000e+02 3.950922393798828125e+01 -3.085378837585449219e+01 1.888063192367553711e+00 1.091012477874755859e+01 3.839456319808959961e+00 4.017390251159667969e+00
9.140000000000000000e+02 3.780253601074218750e+01 -2.740971946716308594e+01 -2.047900438308715820e+00 2.768013954162597656e+00 2.160340547561645508e-01 1.013377904891967773e+00
9.150000000000000000e+02 4.025586318969726562e+01 -2.977006340026855469e+01 1.586878418922424316e+00 8.115901947021484375e+00 2.910834312438964844e+00 3.546555280685424805e+00
9.160000000000000000e+02 4.118482589721679688e+01 -2.615541458129882812e+01 -5.144774317741394043e-01 4.862027645111083984e+00 1.304265022277832031e+00 1.587217330932617188e+00
9.170000000000000000e+02 4.057075119018554688e+01 -2.482280349731445312e+01 2.642220497131347656e+00 8.700662612915039062e+00 3.402864933013916016e+00 2.534076690673828125e+00
9.180000000000000000e+02 5.673070144653320312e+01 5.802100896835327148e-01 -3.239372968673706055e+00 2.866453528404235840e-01 -8.858183026313781738e-01 -3.402656614780426025e-01
9.190000000000000000e+02 5.869690322875976562e+01 -9.663575328886508942e-03 -1.026320934295654297e+00 2.499706983566284180e+00 4.420158565044403076e-01 -1.511938452720642090e+00
9.200000000000000000e+02 5.958251571655273438e+01 -1.002098441123962402e+00 1.821129322052001953e+00 4.494852542877197266e+00 1.894794583320617676e+00 -2.754738569259643555e+00
9.210000000000000000e+02 5.279557800292968750e+01 -2.197576999664306641e+00 1.067406535148620605e+00 8.216606140136718750e+00 2.785203695297241211e+00 2.165148973464965820e+00
9.220000000000000000e+02 5.066143417358398438e+01 -2.847516250610351562e+01 1.173536181449890137e+00 5.014410018920898438e+00 1.856383919715881348e+00 -1.054331302642822266e+00
9.230000000000000000e+02 5.069882583618164062e+01 -2.702770996093750000e+01 -2.295210808515548706e-01 3.424199581146240234e+00 9.584035277366638184e-01 -2.067823648452758789e+00
9.240000000000000000e+02 3.966504287719726562e+01 4.844224929809570312e+00 1.909098982810974121e+00 1.291613960266113281e+01 4.447571754455566406e+00 2.241249561309814453e+00
9.250000000000000000e+02 4.112312316894531250e+01 5.246790409088134766e+00 2.008210897445678711e+00 7.901270389556884766e+00 2.972844362258911133e+00 5.705648064613342285e-01
9.260000000000000000e+02 9.013048171997070312e+00 -1.870562553405761719e+00 -5.615332126617431641e-01 -3.711645007133483887e-01 -2.798092961311340332e-01 -7.406882047653198242e-01
9.270000000000000000e+02 2.717444610595703125e+01 -2.987877273559570312e+01 -8.508622646331787109e-01 5.414950370788574219e+00 1.369226336479187012e+00 7.913733273744583130e-02
9.280000000000000000e+02 2.502732849121093750e+01 -3.211988449096679688e+01 6.001079082489013672e-01 7.587897777557373047e+00 2.456401586532592773e+00 -8.104026913642883301e-01
9.290000000000000000e+02 6.593518066406250000e+01 -3.164211273193359375e+01 1.017281174659729004e+00 1.173887157440185547e+01 3.826845645904541016e+00 -2.039925813674926758e+00
9.300000000000000000e+02 6.900965118408203125e+01 -2.779903602600097656e+01 9.201107025146484375e-01 1.817371726036071777e+00 8.212447166442871094e-01 -9.975805282592773438e-01
9.310000000000000000e+02 7.831606292724609375e+01 -2.620821952819824219e+01 -1.253005117177963257e-01 7.576608180999755859e+00 2.235392332077026367e+00 -4.420680403709411621e-01
9.320000000000000000e+02 7.943669128417968750e+01 -2.368533897399902344e+01 7.009099423885345459e-02 6.402953147888183594e+00 1.941913247108459473e+00 -1.160465627908706665e-01
9.330000000000000000e+02 7.918645477294921875e+01 -3.333584213256835938e+01 2.785498462617397308e-02 7.669866561889648438e+00 2.309316396713256836e+00 -5.846306521561928093e-05
9.340000000000000000e+02 4.782302093505859375e+01 -9.190377235412597656e+00 1.207479238510131836e+00 1.285990715026855469e+01 4.220215797424316406e+00 3.978661000728607178e-01
9.350000000000000000e+02 2.133958625793457031e+01 -1.445943260192871094e+01 -3.976621389389038086e+00 -2.953718304634094238e-01 -1.281597971916198730e+00 -1.844914108514785767e-01
9.360000000000000000e+02 4.974085617065429688e+01 1.873034858703613281e+01 -3.104753494262695312e+00 1.622331589460372925e-01 -8.827561140060424805e-01 2.403680235147476196e-01
9.370000000000000000e+02 3.316426086425781250e+01 1.771090507507324219e+01 2.286516189575195312e+00 6.709598541259765625e+00 2.698834419250488281e+00 5.475670099258422852e-01
9.380000000000000000e+02 3.173999404907226562e+01 1.809494209289550781e+01 1.449770212173461914e+00 1.245283126831054688e+01 4.170780181884765625e+00 1.860990762710571289e+00
9.390000000000000000e+02 6.616442871093750000e+01 2.989633941650390625e+01 1.339385271072387695e+00 5.386450767517089844e+00 2.017750740051269531e+00 1.243344306945800781e+00
9.400000000000000000e+02 4.646479797363281250e+01 3.033398628234863281e+01 8.827491998672485352e-01 6.738356113433837891e+00 2.286331653594970703e+00 -7.652756571769714355e-01
9.410000000000000000e+02 9.840304374694824219e+00 2.076758766174316406e+01 7.387357950210571289e-02 8.821073770523071289e-01 2.867942750453948975e-01 -4.759960174560546875e-01
9.420000000000000000e+02 2.243667602539062500e+01 2.301122474670410156e+01 3.515764474868774414e-01 1.319454002380371094e+01 4.063835144042968750e+00 1.792299509048461914e+00
9.430000000000000000e+02 1.915630459785461426e+00 1.577218723297119141e+01 -6.281753070652484894e-03 -5.476636886596679688e-01 -1.661836206912994385e-01 -2.457143366336822510e-01
9.440000000000000000e+02 8.888133049011230469e+00 1.460212802886962891e+01 1.492060422897338867e-01 2.289764881134033203e+00 7.316913008689880371e-01 -9.243148565292358398e-02
9.450000000000000000e+02 2.080520629882812500e+01 2.002687835693359375e+01 1.362877011299133301e+00 7.817679405212402344e+00 2.754167079925537109e+00 2.536590099334716797e-01
9.460000000000000000e+02 1.556953191757202148e+00 8.994976997375488281e+00 6.339066475629806519e-02 -1.040074825286865234e+00 -2.930052578449249268e-01 1.338637471199035645e-01
9.470000000000000000e+02 3.597477340698242188e+01 -1.023971652984619141e+01 2.946810007095336914e+00 5.492701530456542969e+00 2.531853437423706055e+00 -1.759843111038208008e+00
9.480000000000000000e+02 2.231312942504882812e+01 1.108531284332275391e+01 1.029381275177001953e+00 5.964373111724853516e+00 2.098126411437988281e+00 -1.697852969169616699e+00
9.490000000000000000e+02 3.920661544799804688e+01 8.838227272033691406e+00 4.111281037330627441e-01 8.144578933715820312e+00 2.566712141036987305e+00 -1.527656793594360352e+00
9.500000000000000000e+02 4.212456130981445312e+01 1.276887798309326172e+01 1.246621251106262207e+00 7.653856754302978516e+00 2.670143365859985352e+00 5.819664597511291504e-01
9.510000000000000000e+02 5.095036315917968750e+01 -1.466994190216064453e+01 -9.445092678070068359e-01 1.377220630645751953e+00 1.298134028911590576e-01 -1.019884705543518066e+00
9.520000000000000000e+02 7.433201789855957031e+00 -1.901075482368469238e+00 -5.064970254898071289e-01 -1.638417094945907593e-01 -2.011016309261322021e-01 -4.972514510154724121e-01
9.530000000000000000e+02 8.224617004394531250e+00 -1.888911485671997070e+00 -5.492000579833984375e-01 -2.880833745002746582e-01 -2.511850297451019287e-01 -6.415017247200012207e-01
9.540000000000000000e+02 6.641894817352294922e+00 -1.907722711563110352e+00 -3.850684463977813721e-01 -1.371071040630340576e-01 -1.566526591777801514e-01 -4.191392958164215088e-01
9.550000000000000000e+02 5.076155185699462891e+00 -1.898477911949157715e+00 -2.846290469169616699e-01 -7.214874774217605591e-02 -1.070333346724510193e-01 -3.064769208431243896e-01
9.560000000000000000e+02 2.801380634307861328e+00 -1.972250223159790039e+00 -1.182368472218513489e-01 -6.068399921059608459e-02 -5.367625504732131958e-02 -1.771081686019897461e-01
9.570000000000000000e+02 3.015425920486450195e+00 -2.852760314941406250e+00 -7.053914666175842285e-02 -1.209759563207626343e-01 -5.745453014969825745e-02 -2.356603890657424927e-01
9.580000000000000000e+02 2.025881767272949219e+00 -2.080306291580200195e+00 -7.499051839113235474e-02 -9.162296354770660400e-02 -4.998404532670974731e-02 -1.468966156244277954e-01
9.590000000000000000e+02 1.228637576103210449e+00 -2.166006326675415039e+00 -3.286777064204216003e-02 -9.723570197820663452e-02 -3.903104364871978760e-02 -9.510685503482818604e-02
9.600000000000000000e+02 4.114746749401092529e-01 -2.200353622436523438e+00 1.643741503357887268e-03 -8.973011374473571777e-02 -2.642591111361980438e-02 -3.635637089610099792e-02
9.610000000000000000e+02 2.066034793853759766e+00 -4.163264846801757812e+01 -1.326483339071273804e-01 2.314374446868896484e+00 6.545178294181823730e-01 3.811500966548919678e-02
9.620000000000000000e+02 1.083465337753295898e+00 -3.865825653076171875e+01 -2.589679136872291565e-02 2.132553815841674805e+00 6.319971680641174316e-01 1.050686836242675781e-01
9.630000000000000000e+02 7.137529253959655762e-01 -3.453735733032226562e+01 2.824188210070133209e-02 1.674837946891784668e+00 5.109239220619201660e-01 5.556338652968406677e-02
9.640000000000000000e+02 6.716004610061645508e-01 -3.315305328369140625e+01 9.857708588242530823e-03 1.593620777130126953e+00 4.810435175895690918e-01 1.339273434132337570e-02
9.650000000000000000e+02 5.913320779800415039e-01 -2.898196220397949219e+01 2.171001024544239044e-02 1.887434840202331543e+00 5.727434754371643066e-01 -1.018698737025260925e-01
9.660000000000000000e+02 5.968739390373229980e-01 -2.757485389709472656e+01 -1.701232045888900757e-02 2.142205715179443359e+00 6.375579833984375000e-01 -1.111895367503166199e-01
9.670000000000000000e+02 1.765957832336425781e+00 -2.742830276489257812e+01 -1.512568071484565735e-02 1.876043081283569336e+00 5.582752227783203125e-01 -2.866438031196594238e-01
9.680000000000000000e+02 2.140166997909545898e+00 -2.296416664123535156e+01 -5.449393987655639648e-01 1.909149169921875000e+00 4.092629253864288330e-01 5.101287364959716797e-01
9.690000000000000000e+02 7.335854768753051758e-01 -2.178583145141601562e+01 -7.513722032308578491e-02 1.675543427467346191e+00 4.801218509674072266e-01 4.357541799545288086e-01
9.700000000000000000e+02 7.161722183227539062e-01 -2.034942245483398438e+01 -9.118178859353065491e-03 7.554105520248413086e-01 2.238877117633819580e-01 5.383419990539550781e-01
9.710000000000000000e+02 2.135762453079223633e+00 -1.701442337036132812e+01 3.872344791889190674e-01 6.518298983573913574e-01 3.117193281650543213e-01 5.427721738815307617e-01
9.720000000000000000e+02 6.237701177597045898e-01 -1.474306297302246094e+01 8.098650723695755005e-02 -1.453358173370361328e+00 -4.117115139961242676e-01 -9.145755320787429810e-03
9.730000000000000000e+02 5.901665687561035156e-01 -1.335163211822509766e+01 -2.908444032073020935e-02 -1.343729972839355469e+00 -4.118443429470062256e-01 -1.020375117659568787e-01
9.740000000000000000e+02 1.769024729728698730e+00 -1.300292778015136719e+01 3.879209607839584351e-02 -2.598192393779754639e-01 -6.630814075469970703e-02 -1.681313365697860718e-01
9.750000000000000000e+02 5.329254269599914551e-01 -9.191003799438476562e+00 4.925346933305263519e-03 -7.657572031021118164e-01 -2.282495647668838501e-01 -3.404533863067626953e-02
9.760000000000000000e+02 5.164865255355834961e-01 -7.801136016845703125e+00 -6.116025615483522415e-04 -6.585295796394348145e-01 -1.977423578500747681e-01 -4.115403071045875549e-02
9.770000000000000000e+02 1.559491872787475586e+00 -7.676625251770019531e+00 1.150200422853231430e-02 -3.914757370948791504e-01 -1.139921247959136963e-01 -8.035140484571456909e-02
9.780000000000000000e+02 5.066149830818176270e-01 -6.406580924987792969e+00 3.142172237858176231e-03 -5.391117334365844727e-01 -1.607908606529235840e-01 -4.314660280942916870e-02
9.790000000000000000e+02 7.170570373535156250e+01 -4.136882019042968750e+01 -8.549141883850097656e-01 6.521955013275146484e+00 1.700112223625183105e+00 -2.176415175199508667e-01
9.800000000000000000e+02 5.219882202148437500e+01 -4.101800155639648438e+01 -3.220206499099731445e+00 6.799791812896728516e+00 1.073875546455383301e+00 6.634950637817382812e-02
9.810000000000000000e+02 3.245364379882812500e+01 -4.137228012084960938e+01 -1.352528929710388184e+00 4.352859020233154297e+00 9.000990390777587891e-01 1.642055809497833252e-01
9.820000000000000000e+02 1.175529861450195312e+01 -3.905990982055664062e+01 -1.227619051933288574e+00 2.065496921539306641e+00 2.513633966445922852e-01 4.649502933025360107e-01
9.830000000000000000e+02 7.868041229248046875e+01 4.024115753173828125e+01 -6.387581676244735718e-02 7.393763065338134766e+00 2.198966264724731445e+00 -5.927835404872894287e-02
9.840000000000000000e+02 7.809385681152343750e+01 4.173560333251953125e+01 9.526801109313964844e-02 7.347073554992675781e+00 2.232702493667602539e+00 -2.680383250117301941e-02
9.850000000000000000e+02 7.897665405273437500e+01 3.888140487670898438e+01 -7.144926581531763077e-03 7.440892696380615234e+00 2.230124235153198242e+00 -1.347695011645555496e-02
9.860000000000000000e+02 7.922998809814453125e+01 3.490695571899414062e+01 -2.231008559465408325e-02 7.305995464324951172e+00 2.185105800628662109e+00 6.977288424968719482e-02
9.870000000000000000e+02 7.620185852050781250e+01 3.501234817504882812e+01 1.370436232537031174e-02 6.657678127288818359e+00 2.001414775848388672e+00 2.429697960615158081e-01
9.880000000000000000e+02 7.928321075439453125e+01 3.350274276733398438e+01 3.879677504301071167e-02 7.205207347869873047e+00 2.173201084136962891e+00 4.861304163932800293e-02
9.890000000000000000e+02 7.934024810791015625e+01 3.070616912841796875e+01 4.403269290924072266e-02 7.124825000762939453e+00 2.150657176971435547e+00 -4.356093704700469971e-03
9.900000000000000000e+02 7.796585083007812500e+01 2.945684051513671875e+01 8.751516789197921753e-02 6.911579132080078125e+00 2.099728345870971680e+00 -7.999532669782638550e-02
9.910000000000000000e+02 7.930477905273437500e+01 2.652357292175292969e+01 -6.099493475630879402e-04 7.415285110473632812e+00 2.224402427673339844e+00 -7.221003621816635132e-02
9.920000000000000000e+02 7.660905456542968750e+01 2.510534286499023438e+01 -2.966490574181079865e-02 6.829011440277099609e+00 2.039803981781005859e+00 -3.041497468948364258e-01
9.930000000000000000e+02 7.932218933105468750e+01 2.511994361877441406e+01 -6.812320556491613388e-03 7.569930553436279297e+00 2.268935441970825195e+00 -6.414923071861267090e-02
9.940000000000000000e+02 7.938043212890625000e+01 2.091990470886230469e+01 -2.588501013815402985e-02 7.633110046386718750e+00 2.282167434692382812e+00 9.361299127340316772e-02
9.950000000000000000e+02 7.939491271972656250e+01 1.952892303466796875e+01 -5.340675264596939087e-02 7.342806339263916016e+00 2.186820030212402344e+00 1.855627745389938354e-01
9.960000000000000000e+02 7.815193176269531250e+01 2.093408775329589844e+01 -1.677517741918563843e-01 7.386176109313964844e+00 2.165527343750000000e+00 2.241433560848236084e-01
9.970000000000000000e+02 7.940669250488281250e+01 1.814138031005859375e+01 6.962844170629978180e-03 6.872347354888916016e+00 2.063793182373046875e+00 2.380601912736892700e-01
9.980000000000000000e+02 7.937314605712890625e+01 1.398190116882324219e+01 1.263880636543035507e-02 5.369608879089355469e+00 1.614674329757690430e+00 1.406151056289672852e-01
9.990000000000000000e+02 7.804557800292968750e+01 1.266194915771484375e+01 3.079233765602111816e-01 6.342692852020263672e+00 1.995184898376464844e+00 4.677732940763235092e-03
1.000000000000000000e+03 7.935659027099609375e+01 1.116193199157714844e+01 4.800655692815780640e-02 5.395578384399414062e+00 1.633075475692749023e+00 -1.549429148435592651e-01
1.001000000000000000e+03 7.936222076416015625e+01 6.943147182464599609e+00 -3.089293139055371284e-03 7.277255058288574219e+00 2.182249784469604492e+00 -3.515677154064178467e-01
1.002000000000000000e+03 7.935099792480468750e+01 5.535408496856689453e+00 -8.341604843735694885e-03 8.013362884521484375e+00 2.401506185531616211e+00 -3.394917845726013184e-01
1.003000000000000000e+03 7.806178283691406250e+01 5.463200092315673828e+00 -8.016340434551239014e-02 7.726565837860107422e+00 2.293920755386352539e+00 -8.265258669853210449e-01
1.004000000000000000e+03 7.935705566406250000e+01 4.133563995361328125e+00 -3.604967892169952393e-02 8.686928749084472656e+00 2.595263719558715820e+00 -2.928727269172668457e-01
1.005000000000000000e+03 7.939046478271484375e+01 -2.563808858394622803e-02 7.415060885250568390e-03 9.724283218383789062e+00 2.919509649276733398e+00 2.646285854279994965e-02
1.006000000000000000e+03 7.938885498046875000e+01 -1.408754706382751465e+00 -1.644799113273620605e-01 9.492061614990234375e+00 2.798274517059326172e+00 2.015764266252517700e-01
1.007000000000000000e+03 7.938561248779296875e+01 -2.796749830245971680e+00 5.556146055459976196e-02 8.910101890563964844e+00 2.689698934555053711e+00 3.306470513343811035e-01
1.008000000000000000e+03 7.938001251220703125e+01 -4.194000720977783203e+00 -4.935142397880554199e-02 8.195429801940917969e+00 2.443823575973510742e+00 3.223310112953186035e-01
1.009000000000000000e+03 7.810691833496093750e+01 -5.609261512756347656e+00 4.107346534729003906e-01 9.005077362060546875e+00 2.824743509292602539e+00 3.440436422824859619e-01
1.010000000000000000e+03 7.495254516601562500e+01 -9.453536987304687500e+00 1.238452434539794922e+00 1.204140472412109375e+01 3.983957290649414062e+00 2.040062427520751953e+00
1.011000000000000000e+03 7.931307983398437500e+01 -8.410207748413085938e+00 3.029442206025123596e-02 7.958575248718261719e+00 2.396660804748535156e+00 -3.960632383823394775e-01
1.012000000000000000e+03 7.936001586914062500e+01 -1.118514251708984375e+01 -1.994114220142364502e-01 9.936566352844238281e+00 2.921146392822265625e+00 -4.445698559284210205e-01
1.013000000000000000e+03 7.807193756103515625e+01 -1.124741935729980469e+01 -5.464483499526977539e-01 9.563027381896972656e+00 2.704973697662353516e+00 -7.433465719223022461e-01
1.014000000000000000e+03 7.943014526367187500e+01 -1.536255359649658203e+01 -9.289655834436416626e-02 1.022364997863769531e+01 3.039226055145263672e+00 2.829421162605285645e-01
1.015000000000000000e+03 7.942259216308593750e+01 -1.812666893005371094e+01 -6.770192086696624756e-02 8.523829460144042969e+00 2.536838293075561523e+00 4.013830125331878662e-01
1.016000000000000000e+03 7.447288513183593750e+01 -2.320081520080566406e+01 1.319110512733459473e+00 1.176107597351074219e+01 3.924055814743041992e+00 8.139051198959350586e-01
1.017000000000000000e+03 7.820076751708984375e+01 -2.235107612609863281e+01 3.576782047748565674e-01 7.483123779296875000e+00 2.352240562438964844e+00 1.726769208908081055e-01
1.018000000000000000e+03 7.945477294921875000e+01 -2.503984642028808594e+01 3.378808731213212013e-03 6.817601203918457031e+00 2.046293973922729492e+00 -2.090648263692855835e-01
1.019000000000000000e+03 7.927298736572265625e+01 -2.907627868652343750e+01 -2.906554192304611206e-02 7.724591255187988281e+00 2.308657646179199219e+00 -1.506072096526622772e-02
1.020000000000000000e+03 7.760192871093750000e+01 -3.164999389648437500e+01 5.929702147841453552e-02 7.279193878173828125e+00 2.201547145843505859e+00 1.131067052483558655e-01
1.021000000000000000e+03 7.918664550781250000e+01 -3.190669059753417969e+01 -1.658355072140693665e-02 7.691880702972412109e+00 2.302589178085327148e+00 1.579193025827407837e-02
1.022000000000000000e+03 7.912586212158203125e+01 -3.611458206176757812e+01 5.683879368007183075e-03 7.755795955657958984e+00 2.328444004058837891e+00 -4.891594126820564270e-02
1.023000000000000000e+03 7.906594848632812500e+01 -3.747206115722656250e+01 -1.991822198033332825e-02 7.812445640563964844e+00 2.337758064270019531e+00 -3.451868519186973572e-02
1.024000000000000000e+03 7.895109558105468750e+01 -3.882310485839843750e+01 3.898655995726585388e-02 7.876893520355224609e+00 2.374763965606689453e+00 -5.843639373779296875e-02
1.025000000000000000e+03 7.866004180908203125e+01 -4.018201828002929688e+01 -5.939882621169090271e-02 7.921897411346435547e+00 2.358749628067016602e+00 -2.773709036409854889e-02
1.026000000000000000e+03 2.493291854858398438e+01 3.841965103149414062e+01 -7.777360677719116211e-01 3.696413516998291016e+00 8.756031990051269531e-01 1.884988322854042053e-02
1.027000000000000000e+03 4.643954467773437500e+01 3.853328323364257812e+01 -1.406902074813842773e+00 4.135097503662109375e+00 8.184585571289062500e-01 -7.319592833518981934e-01
1.028000000000000000e+03 6.842948150634765625e+01 3.781499481201171875e+01 -5.035225749015808105e-01 5.308842182159423828e+00 1.441595911979675293e+00 2.228811234235763550e-01
1.029000000000000000e+03 4.164704382419586182e-01 2.172880411148071289e+00 -1.304985210299491882e-02 -1.408489942550659180e-01 -4.616965353488922119e-02 5.273653566837310791e-02
1.030000000000000000e+03 2.926388263702392578e+00 2.710735082626342773e+00 -1.693577915430068970e-01 -1.438814103603363037e-01 -9.397175908088684082e-02 3.939027488231658936e-01
1.031000000000000000e+03 5.202354907989501953e+00 2.766454696655273438e+00 -3.406005501747131348e-01 3.497719019651412964e-02 -9.168700128793716431e-02 4.570082128047943115e-01
1.032000000000000000e+03 2.531671285629272461e+00 5.109929561614990234e+00 -4.953869618475437164e-03 -3.961736261844635010e-01 -1.203382462263107300e-01 4.584796428680419922e-01
1.033000000000000000e+03 5.218818783760070801e-01 9.175134658813476562e+00 1.434958726167678833e-02 -1.537061929702758789e+00 -4.568137228488922119e-01 4.704745858907699585e-02
1.034000000000000000e+03 5.598904490470886230e-01 1.195918464660644531e+01 1.850494742393493652e-02 -1.561135292053222656e+00 -4.627891182899475098e-01 -4.117496684193611145e-02
1.035000000000000000e+03 6.468995213508605957e-01 1.614838981628417969e+01 -9.401306509971618652e-03 -1.042009949684143066e+00 -3.154233694076538086e-01 -8.487145602703094482e-02
1.036000000000000000e+03 6.651211380958557129e-01 1.757985496520996094e+01 -5.708761978894472122e-03 -8.842962384223937988e-01 -2.670015096664428711e-01 -6.968251615762710571e-02
1.037000000000000000e+03 6.266850829124450684e-01 2.187823104858398438e+01 -5.597402900457382202e-02 -9.529956579208374023e-01 -3.026908934116363525e-01 7.610081136226654053e-02
1.038000000000000000e+03 3.177004098892211914e+00 2.502948570251464844e+01 3.470360338687896729e-01 7.297660708427429199e-01 3.230406343936920166e-01 -1.170713305473327637e-01
1.039000000000000000e+03 4.718671321868896484e+00 2.528121376037597656e+01 7.181568741798400879e-01 1.868692398071289062e+00 7.760547995567321777e-01 -4.364550113677978516e-01
1.040000000000000000e+03 2.122898101806640625e+00 2.919297027587890625e+01 2.621638216078281403e-02 5.323855280876159668e-01 1.675805747509002686e-01 -8.482067584991455078e-01
1.041000000000000000e+03 6.460638642311096191e-01 3.049514579772949219e+01 -6.863548606634140015e-02 4.048359692096710205e-01 1.008601412177085876e-01 -3.042350411415100098e-01
1.042000000000000000e+03 3.636570453643798828e+00 3.032491493225097656e+01 3.343823552131652832e-02 1.463362574577331543e+00 4.490402638912200928e-01 -8.646449446678161621e-01
1.043000000000000000e+03 7.164205312728881836e-01 3.615083312988281250e+01 -3.691466525197029114e-03 1.994733572006225586e+00 5.973126292228698730e-01 -6.754163652658462524e-02
1.044000000000000000e+03 1.936112403869628906e+00 3.776708602905273438e+01 -7.133177667856216431e-02 1.614808201789855957e+00 4.630429446697235107e-01 1.793605461716651917e-02
1.045000000000000000e+03 7.720295786857604980e-01 3.871677780151367188e+01 4.034181684255599976e-02 1.947652935981750488e+00 5.963984131813049316e-01 4.874217137694358826e-02
1.046000000000000000e+03 1.254623055458068848e+00 4.000033187866210938e+01 -1.002419888973236084e-01 1.764108657836914062e+00 4.991599917411804199e-01 1.491526514291763306e-01
1.047000000000000000e+03 1.009670734405517578e+01 1.975461244583129883e+00 -8.520195484161376953e-01 2.514923512935638428e-01 -1.801581680774688721e-01 -1.070895791053771973e-01
1.048000000000000000e+03 9.350748062133789062e+00 1.900316238403320312e+00 -8.705922961235046387e-01 2.472172826528549194e-01 -1.870125085115432739e-01 -2.688870020210742950e-02
1.049000000000000000e+03 8.551086425781250000e+00 1.887093186378479004e+00 -8.503780961036682129e-01 1.642918437719345093e-01 -2.058258801698684692e-01 9.471781551837921143e-02
1.050000000000000000e+03 7.741165161132812500e+00 1.892475485801696777e+00 -7.570074796676635742e-01 1.367846727371215820e-01 -1.860668510198593140e-01 2.048095166683197021e-01
1.051000000000000000e+03 5.291189193725585938e+00 1.911913156509399414e+00 -5.313017964363098145e-01 2.230363525450229645e-02 -1.526994407176971436e-01 3.752609491348266602e-01
1.052000000000000000e+03 4.485972881317138672e+00 1.900343060493469238e+00 -4.291763901710510254e-01 -1.000326219946146011e-02 -1.317538917064666748e-01 3.800328373908996582e-01
1.053000000000000000e+03 3.683589458465576172e+00 1.893535017967224121e+00 -3.267542421817779541e-01 -4.612796753644943237e-02 -1.118646636605262756e-01 3.578338325023651123e-01
1.054000000000000000e+03 2.878207445144653320e+00 1.915920376777648926e+00 -2.236828058958053589e-01 -8.147482573986053467e-02 -9.154728800058364868e-02 3.212241530418395996e-01
1.055000000000000000e+03 2.065461874008178711e+00 1.981301784515380859e+00 -1.393033713102340698e-01 -1.415111869573593140e-01 -8.424437046051025391e-02 2.619896531105041504e-01
1.056000000000000000e+03 1.208847332000732422e+01 7.509138107299804688e+00 2.068952322006225586e+00 1.782012939453125000e+00 1.155289649963378906e+00 -1.746530771255493164e+00
1.057000000000000000e+03 1.510715961456298828e+01 2.931607961654663086e+00 9.540337324142456055e-01 -2.572965025901794434e-01 2.090211659669876099e-01 -9.518353343009948730e-01
1.058000000000000000e+03 1.560380935668945312e+01 2.970196008682250977e+00 1.401087880134582520e+00 -3.182801306247711182e-01 3.248423337936401367e-01 -1.020213246345520020e+00
1.059000000000000000e+03 1.627358055114746094e+01 3.008112668991088867e+00 1.878528952598571777e+00 -1.217300221323966980e-01 5.270397067070007324e-01 -1.066575884819030762e+00
1.060000000000000000e+03 1.606354713439941406e+01 2.991068601608276367e+00 1.727769255638122559e+00 -2.424039989709854126e-01 4.456095993518829346e-01 -1.040518760681152344e+00
1.061000000000000000e+03 1.785596847534179688e+01 3.105670452117919922e+00 2.738196611404418945e+00 3.333780765533447266e+00 1.821593165397644043e+00 -2.197649955749511719e+00
1.062000000000000000e+03 1.805820274353027344e+01 3.136688470840454102e+00 2.558843612670898438e+00 4.555883407592773438e+00 2.134418010711669922e+00 -2.349873542785644531e+00
1.063000000000000000e+03 1.796049499511718750e+01 7.475672245025634766e+00 -2.796007394790649414e+00 2.593512833118438721e-02 -8.310216665267944336e-01 -9.625277519226074219e-01
1.064000000000000000e+03 1.926713562011718750e+01 3.416027069091796875e+00 8.090563416481018066e-01 9.383754730224609375e+00 3.057843446731567383e+00 1.321530222892761230e+00
1.065000000000000000e+03 1.965583610534667969e+01 2.948350191116333008e+00 2.026837825775146484e+00 1.061470890045166016e+01 3.792464017868041992e+00 3.564213037490844727e+00
1.066000000000000000e+03 2.051040458679199219e+01 2.771951675415039062e+00 4.488448143005371094e+00 6.717502593994140625e+00 3.361785411834716797e+00 5.023911476135253906e+00
1.067000000000000000e+03 2.019414138793945312e+01 2.521057844161987305e+00 5.034027099609375000e+00 8.259656906127929688e+00 3.988105058670043945e+00 5.673974990844726562e+00
1.068000000000000000e+03 2.417292594909667969e+01 4.088000357151031494e-01 -9.951907396316528320e-01 -6.300112605094909668e-02 -3.174575567245483398e-01 -8.524079322814941406e-01
1.069000000000000000e+03 2.054384994506835938e+01 1.737931489944458008e+00 8.030119895935058594e+00 4.582624435424804688e+00 3.783823251724243164e+00 4.420780658721923828e+00
1.070000000000000000e+03 1.943355560302734375e+01 -1.842364519834518433e-01 -1.605064392089843750e+00 1.226404285430908203e+01 3.197693586349487305e+00 3.250306367874145508e+00
1.071000000000000000e+03 1.872018051147460938e+01 -1.787843555212020874e-01 -1.938418149948120117e+00 1.322451972961425781e+01 3.385830402374267578e+00 7.234318256378173828e+00
1.072000000000000000e+03 1.790368652343750000e+01 -3.838580250740051270e-01 -4.602021872997283936e-01 8.591085433959960938e+00 2.439264774322509766e+00 7.019541263580322266e+00
1.073000000000000000e+03 1.812040328979492188e+01 -3.176807463169097900e-01 -3.779248893260955811e-01 9.494370460510253906e+00 2.734933614730834961e+00 7.214169502258300781e+00
1.074000000000000000e+03 1.740951728820800781e+01 -3.600511550903320312e-01 -2.664841115474700928e-01 6.803263664245605469e+00 1.961033821105957031e+00 5.140267372131347656e+00
1.075000000000000000e+03 1.719234275817871094e+01 -3.160312473773956299e-01 -1.096879765391349792e-01 5.526010036468505859e+00 1.624896526336669922e+00 4.310354232788085938e+00
1.076000000000000000e+03 1.765153503417968750e+01 -3.952390253543853760e-01 -8.034764528274536133e-01 7.526178836822509766e+00 2.016810894012451172e+00 6.155147075653076172e+00
1.077000000000000000e+03 1.633999633789062500e+01 -9.172827005386352539e-01 4.149914383888244629e-01 4.153585910797119141e+00 1.370573163032531738e+00 2.377875804901123047e+00
1.078000000000000000e+03 1.619899940490722656e+01 -4.634112417697906494e-01 -3.784784674644470215e-01 2.799060344696044922e+00 7.261745929718017578e-01 1.831410884857177734e+00
1.079000000000000000e+03 1.574462223052978516e+01 -5.993703007698059082e-01 -5.860497951507568359e-01 2.177678585052490234e+00 4.774886071681976318e-01 1.065328836441040039e+00
1.080000000000000000e+03 1.366895866394042969e+01 -1.147058963775634766e+00 -6.894428133964538574e-01 2.949089109897613525e-01 -1.183601766824722290e-01 -5.204543471336364746e-01
1.081000000000000000e+03 1.438410568237304688e+01 -9.765964746475219727e-01 -7.254707217216491699e-01 6.843042969703674316e-01 -1.234992407262325287e-02 -1.590434759855270386e-01
1.082000000000000000e+03 1.136969375610351562e+01 -1.601687788963317871e+00 -6.868980526924133301e-01 -4.977979063987731934e-01 -3.554087877273559570e-01 -9.385766386985778809e-01
1.083000000000000000e+03 1.058907032012939453e+01 -1.749285578727722168e+00 -5.938914418220520020e-01 -5.332605838775634766e-01 -3.381456136703491211e-01 -9.006677865982055664e-01
1.084000000000000000e+03 9.801480293273925781e+00 -1.840659737586975098e+00 -5.526270866394042969e-01 -4.970840811729431152e-01 -3.149133622646331787e-01 -8.380253911018371582e-01
1.085000000000000000e+03 5.510263442993164062e+01 -2.326976203918457031e+01 1.892214655876159668e+00 1.001828956604003906e+01 3.573151350021362305e+00 3.152525901794433594e+00
1.086000000000000000e+03 7.338564300537109375e+01 -1.807446098327636719e+01 5.402589440345764160e-01 6.633417606353759766e+00 2.152102947235107422e+00 -1.210806727409362793e+00
1.087000000000000000e+03 6.514593505859375000e+01 -2.310666084289550781e+01 3.275783777236938477e+00 1.181815910339355469e+01 4.528182983398437500e+00 -4.855716705322265625e+00
1.088000000000000000e+03 5.238697433471679688e+01 -7.485429763793945312e+00 2.124755859375000000e+00 7.739171981811523438e+00 2.959178447723388672e+00 -1.811178207397460938e+00
1.089000000000000000e+03 3.986447906494140625e+01 -1.253076362609863281e+01 9.107388854026794434e-01 3.944831848144531250e+00 1.456671237945556641e+00 -2.433171272277832031e+00
1.090000000000000000e+03 3.708598327636718750e+01 -1.028124904632568359e+01 3.314994335174560547e+00 8.205389022827148438e+00 3.456115007400512695e+00 -3.480592966079711914e+00
1.091000000000000000e+03 3.713818359375000000e+01 -7.895384311676025391e+00 1.032521247863769531e+00 9.448698997497558594e+00 3.144366025924682617e+00 -2.240061610937118530e-01
1.092000000000000000e+03 3.962257385253906250e+01 -3.136795043945312500e+00 -3.306165933609008789e-01 2.173763275146484375e+00 5.529440045356750488e-01 1.747013926506042480e+00
1.093000000000000000e+03 6.429878997802734375e+01 -3.972217178344726562e+01 -1.669842958450317383e+00 1.789983987808227539e+00 3.604233264923095703e-02 7.334570288658142090e-01
1.094000000000000000e+03 5.623358917236328125e+01 -3.187822914123535156e+01 1.246885418891906738e+00 1.153122997283935547e+01 3.833434581756591797e+00 2.079019069671630859e+00
1.095000000000000000e+03 1.647682952880859375e+01 -1.595343494415283203e+01 -1.489529311656951904e-01 5.953866958618164062e+00 1.741474151611328125e+00 -2.620077431201934814e-01
1.096000000000000000e+03 1.391594123840332031e+01 -2.819083976745605469e+01 7.685331106185913086e-01 3.223382711410522461e+00 1.197574734687805176e+00 1.626055359840393066e+00
1.097000000000000000e+03 7.790850162506103516e+00 -1.383802032470703125e+01 1.741536974906921387e+00 2.079557180404663086e+00 1.146328210830688477e+00 1.760580897331237793e+00
1.098000000000000000e+03 5.468988418579101562e+01 9.004866600036621094e+00 1.366527318954467773e+00 1.281460189819335938e+01 4.254338741302490234e+00 2.409941434860229492e+00
1.099000000000000000e+03 4.216289520263671875e+01 6.890151023864746094e+00 9.445430040359497070e-01 7.258190631866455078e+00 2.460819959640502930e+00 6.022585630416870117e-01
1.100000000000000000e+03 1.759366989135742188e+01 1.789716148376464844e+01 -1.121948361396789551e+00 -3.589672446250915527e-01 -4.442746937274932861e-01 6.575633883476257324e-01
1.101000000000000000e+03 1.006254673004150391e+01 1.551747035980224609e+01 1.292195320129394531e-01 1.911310315132141113e+00 6.121589541435241699e-01 2.876309752464294434e-01
1.102000000000000000e+03 3.890299987792968750e+01 -1.863944244384765625e+01 2.027555942535400391e+00 7.132363319396972656e+00 2.747975826263427734e+00 -3.258597373962402344e+00
1.103000000000000000e+03 3.958203125000000000e+01 -2.105631828308105469e+01 1.396997809410095215e+00 9.197798728942871094e+00 3.178439140319824219e+00 -1.559920668601989746e+00
1.104000000000000000e+03 3.600989532470703125e+01 -2.867203140258789062e+01 -4.439989089965820312e+00 -9.710254520177841187e-02 -1.361127495765686035e+00 -3.754865825176239014e-01
1.105000000000000000e+03 3.021113204956054688e+01 -1.732451629638671875e+01 1.168661236763000488e+00 7.218506336212158203e+00 2.516150236129760742e+00 3.113577604293823242e+00
1.106000000000000000e+03 2.425855255126953125e+01 -3.008693313598632812e+01 3.877168595790863037e-01 5.516477108001708984e+00 1.771258115768432617e+00 -1.085135817527770996e+00
1.107000000000000000e+03 2.503852272033691406e+01 -3.627922439575195312e+01 2.893353700637817383e-01 6.697885036468505859e+00 2.096166133880615234e+00 3.002990782260894775e-01
1.108000000000000000e+03 1.275901508331298828e+01 -3.369641876220703125e+01 3.109474778175354004e-01 4.324614524841308594e+00 1.390668630599975586e+00 6.387271881103515625e-01
1.109000000000000000e+03 1.306002902984619141e+01 -3.237487411499023438e+01 6.515182256698608398e-01 5.131961822509765625e+00 1.735044002532958984e+00 1.360131502151489258e+00
1.110000000000000000e+03 1.598141956329345703e+01 -2.753803634643554688e+01 1.092934370040893555e+00 2.580401659011840820e+00 1.102000832557678223e+00 1.810579299926757812e+00
1.111000000000000000e+03 2.004520988464355469e+01 -2.649668502807617188e+01 -3.612725734710693359e+00 -5.775449275970458984e-01 -1.257081151008605957e+00 7.963979840278625488e-01
1.112000000000000000e+03 3.138643074035644531e+01 1.438798427581787109e+00 -1.691377878189086914e+00 3.777520895004272461e+00 6.258429288864135742e-01 -1.336308717727661133e+00
1.113000000000000000e+03 2.990003967285156250e+01 -6.047876358032226562e+00 5.979599356651306152e-01 1.072007274627685547e+01 3.395409822463989258e+00 -1.233191132545471191e+00
1.114000000000000000e+03 2.958410835266113281e+01 -9.558561325073242188e+00 2.461751937866210938e+00 1.102352428436279297e+01 4.045582771301269531e+00 3.290684938430786133e+00
1.115000000000000000e+03 2.626330566406250000e+01 -1.361572551727294922e+01 -3.315363883972167969e+00 1.891653656959533691e+00 -4.271130859851837158e-01 5.326192975044250488e-01
1.116000000000000000e+03 2.378851509094238281e+01 -1.373213195800781250e+01 -6.770392894744873047e+00 -4.387415945529937744e-01 -2.162740468978881836e+00 -1.111423015594482422e+00
1.117000000000000000e+03 1.694309234619140625e+01 -5.953145027160644531e+00 1.264667630195617676e+00 1.368869018554687500e+01 4.486007213592529297e+00 2.011017799377441406e+00
1.118000000000000000e+03 1.505571269989013672e+01 -3.329463243484497070e+00 3.068253517150878906e+00 4.121239185333251953e+00 2.156847953796386719e+00 1.620480656623840332e+00
1.119000000000000000e+03 1.371357822418212891e+01 3.479615402221679688e+01 -1.028857588768005371e+00 1.143573373556137085e-01 -2.743500769138336182e-01 -1.066233739256858826e-01
1.120000000000000000e+03 1.515966415405273438e+01 3.433009338378906250e+01 -5.733671784400939941e-01 6.713397800922393799e-02 -1.518699675798416138e-01 -2.173579931259155273e-01
1.121000000000000000e+03 1.999616432189941406e+01 3.212207412719726562e+01 7.254912257194519043e-01 6.247799873352050781e+00 2.091987371444702148e+00 -7.970061302185058594e-01
1.122000000000000000e+03 2.301303863525390625e+01 2.546238899230957031e+01 5.064842700958251953e-01 8.511044502258300781e+00 2.705258607864379883e+00 1.799193024635314941e+00
1.123000000000000000e+03 1.559649658203125000e+01 2.188908576965332031e+01 8.605775833129882812e-01 -7.762494087219238281e-01 2.529846690595149994e-02 -5.045010447502136230e-01
1.124000000000000000e+03 1.299923896789550781e+01 2.274460411071777344e+01 1.400035470724105835e-01 -4.620718210935592651e-02 2.813890948891639709e-02 -1.048735752701759338e-01
1.125000000000000000e+03 5.938861370086669922e+00 2.667109489440917969e+01 8.929412961006164551e-01 4.602751731872558594e+00 1.648707985877990723e+00 -1.362935900688171387e+00
1.126000000000000000e+03 7.114387512207031250e+01 1.648295402526855469e+01 1.372828841209411621e+00 7.360862255096435547e+00 2.620107412338256836e+00 -2.461515188217163086e+00
1.127000000000000000e+03 7.279965209960937500e+01 1.143876934051513672e+01 1.547391533851623535e+00 1.211640548706054688e+01 4.099139213562011719e+00 7.480524778366088867e-01
1.128000000000000000e+03 6.450132751464843750e+01 6.293277740478515625e+00 -1.897006154060363770e+00 9.989964365959167480e-01 -2.694029211997985840e-01 -5.512022376060485840e-01
1.129000000000000000e+03 6.077775573730468750e+01 1.477253532409667969e+01 7.032995820045471191e-01 1.196857547760009766e+01 3.801562547683715820e+00 1.451167702674865723e+00
1.130000000000000000e+03 6.203759002685546875e+01 1.862379455566406250e+01 3.250440835952758789e+00 8.371018409729003906e+00 3.486437797546386719e+00 4.605627059936523438e+00
1.131000000000000000e+03 3.224590301513671875e+01 1.705410003662109375e+01 2.904217481613159180e+00 9.447197914123535156e+00 3.705424547195434570e+00 2.032688140869140625e+00
1.132000000000000000e+03 2.837756347656250000e+01 1.512838649749755859e+01 -5.111653327941894531e+00 4.586738646030426025e-01 -1.395893812179565430e+00 6.315793991088867188e-01
1.133000000000000000e+03 2.244834899902343750e+01 1.892079734802246094e+01 5.505380630493164062e-01 1.079316520690917969e+01 3.403110980987548828e+00 -2.024561882019042969e+00
1.134000000000000000e+03 2.170132827758789062e+01 2.727185630798339844e+01 -3.581995964050292969e-01 7.967410087585449219e+00 2.282763242721557617e+00 -6.420885920524597168e-01
1.135000000000000000e+03 4.786990356445312500e+01 2.985661697387695312e+01 9.843955039978027344e-01 7.078824520111083984e+00 2.418966054916381836e+00 6.196953058242797852e-01
1.136000000000000000e+03 4.607662582397460938e+01 2.624374771118164062e+01 1.053675532341003418e+00 1.216087436676025391e+01 3.964365005493164062e+00 1.717270255088806152e+00
1.137000000000000000e+03 4.343725204467773438e+01 2.237131690979003906e+01 8.468288183212280273e-01 2.464423656463623047e+00 9.933757185935974121e-01 2.195733070373535156e+00
1.138000000000000000e+03 3.581845474243164062e+01 2.529103088378906250e+01 1.371605396270751953e+00 8.075901985168457031e+00 2.834252357482910156e+00 -2.462057352066040039e+00
1.139000000000000000e+03 6.561274719238281250e+01 2.764853286743164062e+01 1.991689324378967285e+00 5.356504917144775391e+00 2.204458236694335938e+00 1.382172107696533203e+00
1.140000000000000000e+03 5.973597717285156250e+01 2.352311134338378906e+01 -3.117281436920166016e+00 6.457256078720092773e-01 -7.414667606353759766e-01 3.826592266559600830e-01
1.141000000000000000e+03 5.519401550292968750e+01 3.381125259399414062e+01 1.950636386871337891e+00 4.546380996704101562e+00 1.949105143547058105e+00 2.780865192413330078e+00
1.142000000000000000e+03 7.934317016601562500e+01 -9.804766654968261719e+00 1.078414618968963623e-01 8.865156173706054688e+00 2.691899299621582031e+00 -5.285452604293823242e-01
1.143000000000000000e+03 6.608602905273437500e+01 -9.423613548278808594e+00 1.655006527900695801e+00 6.473585605621337891e+00 2.438577651977539062e+00 -3.154753446578979492e+00
1.144000000000000000e+03 6.391787719726562500e+01 -5.661833763122558594e+00 1.879689812660217285e+00 9.765790939331054688e+00 3.493644237518310547e+00 -2.136720269918441772e-01
1.145000000000000000e+03 3.948840713500976562e+01 7.528559684753417969e+00 8.767874836921691895e-01 1.165340900421142578e+01 3.759058952331542969e+00 -8.970340490341186523e-01
1.146000000000000000e+03 2.911326980590820312e+01 5.073392391204833984e+00 1.712582945823669434e+00 8.276443481445312500e+00 2.996707916259765625e+00 -1.846393465995788574e+00
1.147000000000000000e+03 3.000192451477050781e+01 1.161840343475341797e+01 2.096021413803100586e+00 6.358261585235595703e+00 2.536284923553466797e+00 3.846961498260498047e+00
1.148000000000000000e+03 4.710465240478515625e+01 -3.695822143554687500e+01 -1.129042625427246094e+00 1.296110749244689941e+00 5.012043192982673645e-02 7.573746889829635620e-02
1.149000000000000000e+03 4.096655273437500000e+01 -2.876895332336425781e+01 -1.339914441108703613e+00 4.104386329650878906e+00 8.293415307998657227e-01 1.308957099914550781e+00
1.150000000000000000e+03 6.041096115112304688e+01 -2.128720998764038086e+00 2.385141134262084961e+00 8.520335197448730469e+00 3.271642923355102539e+00 -3.871127367019653320e+00
1.151000000000000000e+03 5.448223495483398438e+01 -8.986165046691894531e+00 1.809441924095153809e+00 2.897818565368652344e+00 1.412178158760070801e+00 -2.467389822006225586e+00
1.152000000000000000e+03 5.245311355590820312e+01 -4.852817535400390625e+00 8.241078853607177734e-01 1.184187316894531250e+01 3.799794197082519531e+00 7.906036078929901123e-02
1.153000000000000000e+03 5.258907699584960938e+01 -9.147135019302368164e-01 8.291051387786865234e-01 6.486464500427246094e+00 2.194670915603637695e+00 1.431708931922912598e+00
1.154000000000000000e+03 1.728629684448242188e+01 3.001776933670043945e+00 2.770009994506835938e+00 1.131599783897399902e+00 1.170482993125915527e+00 -1.706369161605834961e+00
1.155000000000000000e+03 1.595268821716308594e+01 5.216245651245117188e+00 1.085660815238952637e+00 -4.481030702590942383e-01 1.912673413753509521e-01 -1.712434411048889160e+00
1.156000000000000000e+03 1.664638137817382812e+01 3.653056859970092773e+00 2.044322967529296875e+00 3.527058362960815430e-01 7.191086411476135254e-01 -1.616833209991455078e+00
1.157000000000000000e+03 1.853749275207519531e+01 3.452099323272705078e+00 1.221485614776611328e+00 6.696079254150390625e+00 2.375269412994384766e+00 -1.199293971061706543e+00
1.158000000000000000e+03 1.747561073303222656e+01 3.019537448883056641e+00 2.813984632492065430e+00 1.618471622467041016e+00 1.329736828804016113e+00 -1.881752848625183105e+00
1.159000000000000000e+03 1.388121604919433594e+01 6.548820018768310547e+00 1.642131328582763672e+00 7.036182284355163574e-01 7.037248611450195312e-01 -1.256975769996643066e+00
1.160000000000000000e+03 1.766421318054199219e+01 3.059357166290283203e+00 2.858113527297973633e+00 2.354278087615966797e+00 1.563717484474182129e+00 -2.062228679656982422e+00
1.161000000000000000e+03 1.883605575561523438e+01 3.115334510803222656e+00 1.079243063926696777e+00 9.639377593994140625e+00 3.215585947036743164e+00 -8.400555849075317383e-01
1.162000000000000000e+03 1.826895332336425781e+01 3.138437271118164062e+00 2.166857481002807617e+00 5.690302371978759766e+00 2.357147932052612305e+00 -2.236786127090454102e+00
1.163000000000000000e+03 1.709206390380859375e+01 3.009077548980712891e+00 2.736013174057006836e+00 7.190713286399841309e-01 1.036525368690490723e+00 -1.492642283439636230e+00
1.164000000000000000e+03 1.650013542175292969e+01 3.363624572753906250e+00 2.187201023101806641e+00 8.718213438987731934e-02 6.823149323463439941e-01 -1.363638520240783691e+00
1.165000000000000000e+03 1.555555725097656250e+01 3.300282001495361328e+00 1.498578190803527832e+00 -3.240773081779479980e-01 3.523502647876739502e-01 -1.130967140197753906e+00
1.166000000000000000e+03 1.847357177734375000e+01 3.114325046539306641e+00 1.918394327163696289e+00 7.049482345581054688e+00 2.690362930297851562e+00 -1.970012545585632324e+00
1.167000000000000000e+03 1.924897766113281250e+01 3.079364538192749023e+00 1.146152377128601074e+00 1.058264255523681641e+01 3.518638372421264648e+00 1.470360636711120605e+00
1.168000000000000000e+03 1.892004394531250000e+01 -1.494306921958923340e-01 -1.352514743804931641e+00 1.330147361755371094e+01 3.584687709808349609e+00 6.524139404296875000e+00
1.169000000000000000e+03 1.985725021362304688e+01 1.452303826808929443e-01 -9.543684124946594238e-01 1.015473461151123047e+01 2.760109901428222656e+00 1.997430324554443359e+00
1.170000000000000000e+03 1.929188537597656250e+01 -5.466666072607040405e-02 -1.529580354690551758e+00 1.407573795318603516e+01 3.763847351074218750e+00 4.695128917694091797e+00
1.171000000000000000e+03 1.987112045288085938e+01 2.878487586975097656e+00 2.773129463195800781e+00 9.871781349182128906e+00 3.793473243713378906e+00 4.394230365753173828e+00
1.172000000000000000e+03 2.184609985351562500e+01 -1.685186922550201416e-01 -4.459191799163818359e+00 -4.644564390182495117e-01 -1.477094411849975586e+00 -1.273201823234558105e+00
1.173000000000000000e+03 2.047779273986816406e+01 1.933688282966613770e+00 7.825529098510742188e+00 5.371914386749267578e+00 3.959233045578002930e+00 4.819220542907714844e+00
1.174000000000000000e+03 2.057931518554687500e+01 1.525044798851013184e+00 8.036667823791503906e+00 4.131180763244628906e+00 3.650354623794555664e+00 3.443845033645629883e+00
1.175000000000000000e+03 2.105513381958007812e+01 1.363599061965942383e+00 6.167861938476562500e+00 1.653775334358215332e+00 2.346491098403930664e+00 2.104021072387695312e+00
1.176000000000000000e+03 2.054558181762695312e+01 1.060734033584594727e+00 6.767775535583496094e+00 3.509138345718383789e+00 3.083074092864990234e+00 1.856720924377441406e+00
1.177000000000000000e+03 2.299507713317871094e+01 9.327091276645660400e-02 -2.396654844284057617e+00 -8.951012790203094482e-02 -7.458494901657104492e-01 -8.069577813148498535e-01
1.178000000000000000e+03 1.945523834228515625e+01 -3.975028172135353088e-03 -1.765246152877807617e+00 1.334675216674804688e+01 3.474451780319213867e+00 3.054146051406860352e+00
1.179000000000000000e+03 1.964907646179199219e+01 5.095355585217475891e-02 -7.732118368148803711e-01 1.234263610839843750e+01 3.470827341079711914e+00 2.932944774627685547e+00
1.180000000000000000e+03 1.926103019714355469e+01 -2.974457442760467529e-01 -1.628367066383361816e+00 1.227326488494873047e+01 3.193469285964965820e+00 4.698055744171142578e+00
1.181000000000000000e+03 2.081239318847656250e+01 2.130615711212158203e+00 6.316475868225097656e+00 4.230707168579101562e+00 3.164154767990112305e+00 4.561663150787353516e+00
1.182000000000000000e+03 2.046919822692871094e+01 3.628958165645599365e-01 1.103622198104858398e+00 1.819634199142456055e+00 8.769769072532653809e-01 1.241436362266540527e+00
1.183000000000000000e+03 2.102483367919921875e+01 1.042135834693908691e+00 5.612555503845214844e+00 1.373647928237915039e+00 2.095860958099365234e+00 1.289445877075195312e+00
1.184000000000000000e+03 2.032103347778320312e+01 6.185604333877563477e-01 3.972130537033081055e+00 3.946942806243896484e+00 2.375721931457519531e+00 1.951405048370361328e+00
1.185000000000000000e+03 2.030914497375488281e+01 3.174648433923721313e-02 -2.394671440124511719e-01 3.389268636703491211e+00 9.449404478073120117e-01 1.123130917549133301e+00
1.186000000000000000e+03 2.004576492309570312e+01 2.861201763153076172e-01 1.517089486122131348e+00 9.303963661193847656e+00 3.246315956115722656e+00 1.947675466537475586e+00
1.187000000000000000e+03 1.880982780456542969e+01 -4.195451140403747559e-01 -1.723454117774963379e+00 1.227122306823730469e+01 3.164330720901489258e+00 6.114783763885498047e+00
1.188000000000000000e+03 1.699108123779296875e+01 -1.096972465515136719e+00 6.348271369934082031e-01 6.893348693847656250e+00 2.258452653884887695e+00 3.754334449768066406e+00
1.189000000000000000e+03 1.831130981445312500e+01 -1.798141002655029297e+00 2.787022590637207031e+00 1.144825935363769531e+01 4.270584583282470703e+00 6.134241104125976562e+00
1.190000000000000000e+03 1.698968315124511719e+01 -2.897276878356933594e-01 -6.200642883777618408e-02 4.484645843505859375e+00 1.326791882514953613e+00 3.680198669433593750e+00
1.191000000000000000e+03 1.692582702636718750e+01 -5.257585048675537109e-01 -1.765204221010208130e-02 4.864440917968750000e+00 1.454036593437194824e+00 3.612043619155883789e+00
1.192000000000000000e+03 1.292749500274658203e+01 2.513257980346679688e+00 -1.767387241125106812e-01 -9.234270080924034119e-03 -5.579189956188201904e-02 -6.633238196372985840e-01
1.193000000000000000e+03 1.278245735168457031e+01 3.220021247863769531e+00 7.165446877479553223e-02 2.040146738290786743e-01 8.270074427127838135e-02 -9.138793349266052246e-01
1.194000000000000000e+03 1.133715057373046875e+01 2.990596771240234375e+00 -2.939642667770385742e-01 3.541895151138305664e-01 1.806757040321826935e-02 -4.954398572444915771e-01
1.195000000000000000e+03 1.184900760650634766e+01 4.590194225311279297e+00 2.154413759708404541e-01 8.883599042892456055e-01 3.311403691768646240e-01 -8.047329783439636230e-01
1.196000000000000000e+03 1.062537288665771484e+01 2.867391109466552734e+00 -4.820862710475921631e-01 4.009586572647094727e-01 -2.433828078210353851e-02 -2.587269246578216553e-01
1.197000000000000000e+03 1.525505924224853516e+01 -1.454416751861572266e+00 7.532690167427062988e-01 2.374948740005493164e+00 9.384653568267822266e-01 1.029705047607421875e+00
1.198000000000000000e+03 1.292068672180175781e+01 -1.302006006240844727e+00 -7.671335935592651367e-01 -7.423669099807739258e-02 -2.524110972881317139e-01 -7.838572263717651367e-01
1.199000000000000000e+03 1.804482650756835938e+01 -2.830891370773315430e+00 4.693243980407714844e+00 1.364814376831054688e+01 5.502416133880615234e+00 7.375075340270996094e+00
1.200000000000000000e+03 1.508145809173583984e+01 -7.877280712127685547e-01 -5.668113231658935547e-01 1.289167761802673340e+00 2.167069464921951294e-01 3.707232773303985596e-01
1.201000000000000000e+03 1.455251979827880859e+01 -1.711531400680541992e+00 9.150335788726806641e-01 1.567071318626403809e+00 7.446314692497253418e-01 4.497517347335815430e-01
1.202000000000000000e+03 1.263889980316162109e+01 3.915606737136840820e+00 2.686424851417541504e-01 3.429138958454132080e-01 1.834669113159179688e-01 -9.579410552978515625e-01
1.203000000000000000e+03 1.348781585693359375e+01 3.357345342636108398e+00 4.243302643299102783e-01 -3.093015588819980621e-02 1.180200353264808655e-01 -1.044371724128723145e+00
1.204000000000000000e+03 1.621499633789062500e+01 6.191593647003173828e+00 -1.074520230293273926e+00 -4.668012857437133789e-01 -4.623964726924896240e-01 -1.436141252517700195e+00
1.205000000000000000e+03 1.518564891815185547e+01 3.672155857086181641e+00 1.282603859901428223e+00 -2.881048023700714111e-01 2.983497083187103271e-01 -1.437120676040649414e+00
1.206000000000000000e+03 3.682316541671752930e+00 -2.623729944229125977e+00 -1.089148670434951782e-01 -8.792365342378616333e-02 -5.905155465006828308e-02 -2.493497133255004883e-01
1.207000000000000000e+03 6.640933990478515625e+00 -2.724608898162841797e+00 -1.132511794567108154e-01 -1.910046786069869995e-01 -9.127675741910934448e-02 -4.366951882839202881e-01
1.208000000000000000e+03 7.477410793304443359e+00 -3.507011651992797852e+00 3.080151975154876709e-01 -3.281499743461608887e-01 -6.040430162101984024e-03 -3.877670764923095703e-01
1.209000000000000000e+03 7.455267429351806641e+00 -2.704107046127319336e+00 -5.251241847872734070e-02 -2.812374234199523926e-01 -1.001249477267265320e-01 -5.280966758728027344e-01
1.210000000000000000e+03 5.853950977325439453e+00 -1.907763838768005371e+00 -3.480632305145263672e-01 -8.616546541452407837e-02 -1.302686035633087158e-01 -3.562011718750000000e-01
1.211000000000000000e+03 5.034415245056152344e+00 -2.726719141006469727e+00 -1.207424998283386230e-01 -1.144137680530548096e-01 -7.054688036441802979e-02 -3.279038965702056885e-01
1.212000000000000000e+03 4.311931133270263672e+00 -2.629973173141479492e+00 -1.094828695058822632e-01 -8.599144965410232544e-02 -5.864229798316955566e-02 -3.078565597534179688e-01
1.213000000000000000e+03 1.411307096481323242e+00 -3.521874904632568359e+00 -7.018912583589553833e-03 -2.056020647287368774e-01 -6.378629058599472046e-02 -1.497177034616470337e-01
1.214000000000000000e+03 3.373413085937500000e+00 -3.535123348236083984e+00 1.225187908858060837e-03 -1.306085586547851562e-01 -3.881501406431198120e-02 -2.711571156978607178e-01
1.215000000000000000e+03 4.634412527084350586e-01 -3.601200103759765625e+00 -1.095272134989500046e-02 -2.368593662977218628e-01 -7.434362918138504028e-02 -5.148373916745185852e-02
1.216000000000000000e+03 4.993252754211425781e-01 -5.004585742950439453e+00 6.954733282327651978e-03 -3.939294219017028809e-01 -1.160924062132835388e-01 -5.744967609643936157e-02
1.217000000000000000e+03 9.080518722534179688e+00 -2.620521306991577148e+00 1.044033467769622803e-01 -4.833535552024841309e-01 -1.136850640177726746e-01 -6.713318228721618652e-01
1.218000000000000000e+03 1.380063056945800781e+01 -1.908066987991333008e+00 7.720715999603271484e-01 8.339619636535644531e-01 4.818100631237030029e-01 -1.388412714004516602e-02
1.219000000000000000e+03 9.883342742919921875e+00 -2.540201425552368164e+00 1.898388117551803589e-01 -5.240979790687561035e-01 -1.002777442336082458e-01 -7.232855558395385742e-01
1.220000000000000000e+03 1.223912334442138672e+01 -2.168951511383056641e+00 5.158550739288330078e-01 -1.622912138700485229e-01 1.060691624879837036e-01 -6.463266015052795410e-01
1.221000000000000000e+03 1.544197559356689453e+01 -5.851782321929931641e+00 2.775479316711425781e+00 6.790709495544433594e+00 2.869856834411621094e+00 1.986815452575683594e+00
1.222000000000000000e+03 9.922986030578613281e+00 2.755428791046142578e+00 -5.110712647438049316e-01 3.931381702423095703e-01 -3.537992388010025024e-02 -1.251233816146850586e-01
1.223000000000000000e+03 6.105814456939697266e+00 1.914250373840332031e+00 -6.124047040939331055e-01 5.242513865232467651e-02 -1.679938733577728271e-01 3.451750576496124268e-01
1.224000000000000000e+03 1.591074824333190918e+00 7.637914657592773438e+00 6.412330269813537598e-02 -9.030861854553222656e-01 -2.516888678073883057e-01 2.440552711486816406e-01
1.225000000000000000e+03 3.025007724761962891e+00 3.411167621612548828e+00 -1.121309176087379456e-01 -2.133327275514602661e-01 -9.763909876346588135e-02 4.391676187515258789e-01
1.226000000000000000e+03 5.967857837677001953e+00 4.652130126953125000e+00 -1.684196852147579193e-02 2.273348569869995117e-01 6.314786523580551147e-02 4.825829565525054932e-01
1.227000000000000000e+03 2.171697616577148438e+00 2.888006448745727539e+00 -1.031699255108833313e-01 -2.064061164855957031e-01 -9.287281334400177002e-02 3.414982259273529053e-01
1.228000000000000000e+03 1.244615793228149414e+00 2.081928491592407227e+00 -5.842408165335655212e-02 -1.732753962278366089e-01 -6.950984150171279907e-02 1.626914590597152710e-01
1.229000000000000000e+03 9.200677871704101562e+00 2.678366422653198242e+00 -5.722460150718688965e-01 3.374903798103332520e-01 -7.042669504880905151e-02 2.208741009235382080e-02
1.230000000000000000e+03 7.656601428985595703e+00 2.684600353240966797e+00 -5.267379879951477051e-01 2.246362119913101196e-01 -9.063053131103515625e-02 2.810298800468444824e-01
1.231000000000000000e+03 6.925354003906250000e+00 1.905516624450683594e+00 -6.986016631126403809e-01 9.496941417455673218e-02 -1.810896843671798706e-01 3.014962077140808105e-01
1.232000000000000000e+03 6.020084857940673828e+00 2.768363237380981445e+00 -4.086495637893676758e-01 9.322796016931533813e-02 -9.462647885084152222e-02 4.283095002174377441e-01
1.233000000000000000e+03 6.848164081573486328e+00 2.733248233795166016e+00 -4.548794329166412354e-01 1.636196523904800415e-01 -8.737793564796447754e-02 3.538761138916015625e-01
1.234000000000000000e+03 3.997586059570312500e+01 -2.358697509765625000e+01 1.492553949356079102e+00 1.108229064941406250e+01 3.772453308105468750e+00 1.618957042694091797e+00
1.235000000000000000e+03 4.871055603027343750e+01 -3.034259223937988281e+01 4.116228103637695312e+00 8.352339744567871094e+00 3.740570306777954102e+00 -4.681904315948486328e+00
1.236000000000000000e+03 4.818382644653320312e+01 -2.611938476562500000e+01 -1.306649208068847656e+00 5.366009712219238281e+00 1.217808127403259277e+00 -3.550113439559936523e+00
1.237000000000000000e+03 4.727276992797851562e+01 2.488882827758789062e+01 2.655912160873413086e+00 7.306093692779541016e+00 2.988601922988891602e+00 1.519400596618652344e+00
1.238000000000000000e+03 4.749742889404296875e+01 2.867429351806640625e+01 1.435055732727050781e+00 7.497783184051513672e+00 2.679851770401000977e+00 7.235088944435119629e-01
1.239000000000000000e+03 1.861883163452148438e+01 -2.651872825622558594e+01 -3.033332109451293945e+00 -8.594922721385955811e-02 -9.357843995094299316e-01 2.113829404115676880e-01
1.240000000000000000e+03 2.972770881652832031e+01 2.698220062255859375e+01 4.542620182037353516e-01 1.732708454132080078e+00 6.560911536216735840e-01 -9.491859078407287598e-01
1.241000000000000000e+03 3.271697998046875000e+01 3.120652198791503906e+01 1.925379782915115356e-01 6.233056068420410156e+00 1.927678227424621582e+00 -1.236969470977783203e+00
1.242000000000000000e+03 4.756966400146484375e+01 -1.299630451202392578e+01 -1.825112819671630859e+00 7.443876266479492188e+00 1.685629010200500488e+00 1.628049492835998535e+00
1.243000000000000000e+03 5.112021255493164062e+01 -9.703570365905761719e+00 1.680274486541748047e+00 6.163794517517089844e+00 2.353220701217651367e+00 -9.025834202766418457e-01
1.244000000000000000e+03 3.247035217285156250e+01 1.529273223876953125e+01 -8.418481051921844482e-02 5.306556224822998047e+00 1.566711425781250000e+00 9.486864805221557617e-01
1.245000000000000000e+03 3.127312278747558594e+01 1.617147445678710938e+01 2.315373420715332031e+00 8.802685737609863281e+00 3.335417509078979492e+00 3.793768167495727539e+00
1.246000000000000000e+03 6.077881622314453125e+01 3.577515029907226562e+01 -1.846625924110412598e+00 6.225677728652954102e-01 -3.672174513339996338e-01 8.283985778689384460e-03
1.247000000000000000e+03 4.924223709106445312e+01 -3.542477035522460938e+01 6.659414768218994141e-01 7.200966358184814453e+00 2.360072374343872070e+00 1.799858331680297852e+00
1.248000000000000000e+03 4.265442276000976562e+01 -4.104071044921875000e+01 -1.299853682518005371e+00 3.885639905929565430e-01 -2.733868956565856934e-01 -2.461947947740554810e-01
1.249000000000000000e+03 3.679046249389648438e+01 -4.117439651489257812e+01 -1.757457017898559570e+00 3.551043272018432617e+00 5.380758643150329590e-01 4.222122207283973694e-02
1.250000000000000000e+03 5.257469940185546875e+01 -3.517793273925781250e+01 1.198551297187805176e+00 7.518176555633544922e+00 2.615018367767333984e+00 -7.424514740705490112e-02
1.251000000000000000e+03 4.966439056396484375e+01 -2.989036560058593750e+01 2.578558444976806641e+00 6.849722862243652344e+00 2.828484296798706055e+00 -2.202622175216674805e+00
1.252000000000000000e+03 4.763743591308593750e+01 -7.978824138641357422e+00 1.459168910980224609e+00 1.099663066864013672e+01 3.736739873886108398e+00 -1.876823902130126953e+00
1.253000000000000000e+03 5.747718048095703125e+01 4.141917037963867188e+01 -4.562622308731079102e-01 2.387595653533935547e+00 5.794000625610351562e-01 3.564839363098144531e-01
1.254000000000000000e+03 1.990567207336425781e+01 2.918315315246582031e+01 3.990783095359802246e-01 1.093237972259521484e+01 3.399437427520751953e+00 -7.562162280082702637e-01
1.255000000000000000e+03 1.518048286437988281e+01 -2.397045326232910156e+01 -1.043715834617614746e+00 3.038536548614501953e+00 5.984462499618530273e-01 1.616878390312194824e+00
1.256000000000000000e+03 1.847222137451171875e+01 -2.556254577636718750e+01 -1.427273511886596680e+00 2.929368913173675537e-01 -3.403009772300720215e-01 1.138028621673583984e+00
1.257000000000000000e+03 4.375754165649414062e+01 -2.748671150207519531e+01 -6.402356624603271484e+00 -3.073927164077758789e-01 -2.012924909591674805e+00 -2.963308393955230713e-01
1.258000000000000000e+03 4.356237030029296875e+01 -3.981777191162109375e+00 -3.514901101589202881e-01 8.872030377388000488e-01 1.607138663530349731e-01 -6.279544234275817871e-01
1.259000000000000000e+03 4.245471191406250000e+01 -2.520723342895507812e+00 -1.139748692512512207e-01 9.876214861869812012e-01 2.620939910411834717e-01 -8.959494233131408691e-01
1.260000000000000000e+03 3.601111221313476562e+01 -3.359752893447875977e+00 1.284169793128967285e+00 4.287886142730712891e+00 1.671616673469543457e+00 1.362189054489135742e+00
1.261000000000000000e+03 3.587987136840820312e+01 -9.080238342285156250e+00 3.539851188659667969e+00 5.587872505187988281e+00 2.738317251205444336e+00 -1.563044190406799316e+00
1.262000000000000000e+03 3.716864013671875000e+01 -9.058385848999023438e+00 2.464564800262451172e+00 1.075104808807373047e+01 3.964683771133422852e+00 -3.121819496154785156e+00
1.263000000000000000e+03 2.211907768249511719e+01 2.027407073974609375e+01 1.225333571434020996e+00 1.419961547851562500e+01 4.627484798431396484e+00 -1.236314654350280762e+00
1.264000000000000000e+03 2.128604507446289062e+01 1.599043941497802734e+01 -1.139715313911437988e+00 8.634370803833007812e+00 2.248396635055541992e+00 3.844699859619140625e-01
1.265000000000000000e+03 3.195187568664550781e+01 2.289409255981445312e+01 3.727765381336212158e-01 1.109168624877929688e+01 3.439338684082031250e+00 -5.937635898590087891e-01
1.266000000000000000e+03 3.383865356445312500e+01 2.315669059753417969e+01 2.345276921987533569e-01 8.444153785705566406e+00 2.603604555130004883e+00 -2.326843738555908203e-01
1.267000000000000000e+03 4.253511810302734375e+01 -2.752474784851074219e+01 -5.713742256164550781e+00 7.644188404083251953e-02 -1.691190004348754883e+00 -4.293678998947143555e-01
1.268000000000000000e+03 2.177831268310546875e+01 3.193272018432617188e+01 3.308012485504150391e-01 5.289917469024658203e+00 1.686215639114379883e+00 8.106924295425415039e-01
1.269000000000000000e+03 2.821121406555175781e+01 1.234798431396484375e+01 8.818231225013732910e-01 3.549392700195312500e+00 1.329364776611328125e+00 1.274073362350463867e+00
1.270000000000000000e+03 2.891784286499023438e+01 1.113386154174804688e+01 1.913543701171875000e+00 5.690736293792724609e+00 2.281284093856811523e+00 1.986726164817810059e+00
1.271000000000000000e+03 3.688140106201171875e+01 1.666533470153808594e+01 2.111704349517822266e+00 2.388348579406738281e+00 1.350015878677368164e+00 -2.144117593765258789e+00
1.272000000000000000e+03 3.749580383300781250e+01 -6.052640438079833984e+00 1.636961460113525391e+00 6.565126895904541016e+00 2.460626602172851562e+00 2.003226995468139648e+00
1.273000000000000000e+03 1.997153854370117188e+01 1.844478034973144531e+01 -6.338514685630798340e-01 6.267769336700439453e+00 1.690175294876098633e+00 1.303137987852096558e-01
1.274000000000000000e+03 3.541534042358398438e+01 -1.254231929779052734e+01 -6.120164990425109863e-01 2.789065361022949219e+00 6.531146764755249023e-01 -1.751666903495788574e+00
1.275000000000000000e+03 3.734611892700195312e+01 -4.383467197418212891e+00 8.394543528556823730e-01 4.756697654724121094e+00 1.678845643997192383e+00 1.517102479934692383e+00
1.276000000000000000e+03 3.649382019042968750e+01 -5.180917739868164062e+00 1.825595378875732422e+00 5.298953533172607422e+00 2.137364625930786133e+00 7.764884233474731445e-01
1.277000000000000000e+03 4.452038574218750000e+01 -1.455120086669921875e+01 -2.967951774597167969e+00 2.352803707122802734e+00 -1.845444440841674805e-01 2.020730257034301758e+00
1.278000000000000000e+03 4.406292724609375000e+01 -1.348684501647949219e+01 -5.747485637664794922e+00 3.765179514884948730e-01 -1.611290335655212402e+00 -2.877488136291503906e-01
1.279000000000000000e+03 3.063620376586914062e+01 2.789306640625000000e+01 4.752246737480163574e-01 3.993635654449462891e+00 1.340658068656921387e+00 -1.376291990280151367e+00
1.280000000000000000e+03 3.743239593505859375e+01 2.309888458251953125e+01 -3.281780183315277100e-01 1.637372136116027832e+00 3.927582502365112305e-01 -8.383820652961730957e-01
1.281000000000000000e+03 3.155942916870117188e+01 2.684264755249023438e+01 2.721641063690185547e-01 6.337555885314941406e+00 1.982915997505187988e+00 -1.035906076431274414e+00
1.282000000000000000e+03 3.406781005859375000e+01 3.099274635314941406e+01 5.617797374725341797e-01 7.330529689788818359e+00 2.367692947387695312e+00 -4.978231787681579590e-01
1.283000000000000000e+03 4.656071090698242188e+01 -1.221496105194091797e+01 9.220573902130126953e-01 5.551738739013671875e+00 1.942138791084289551e+00 3.278241872787475586e+00
1.284000000000000000e+03 4.722699356079101562e+01 -1.416549587249755859e+01 -3.075182199478149414e+00 6.391880512237548828e+00 9.950094819068908691e-01 2.821158647537231445e+00
1.285000000000000000e+03 3.199976921081542969e+01 -2.717177391052246094e+01 -1.163623094558715820e+00 4.917219877243041992e-01 -2.015703320503234863e-01 1.431508809328079224e-01
1.286000000000000000e+03 2.668654823303222656e+01 -3.350193786621093750e+01 5.719724297523498535e-01 5.368365287780761719e+00 1.782101273536682129e+00 -6.584596037864685059e-01
1.287000000000000000e+03 2.049934577941894531e+01 1.297164916992187500e+01 -9.116140753030776978e-02 1.035805892944335938e+01 3.080069303512573242e+00 -8.440264463424682617e-01
1.288000000000000000e+03 4.586326599121093750e+01 -1.420417213439941406e+01 -3.142879009246826172e+00 4.734418392181396484e+00 4.774618446826934814e-01 2.653937816619873047e+00
1.289000000000000000e+03 2.270828437805175781e+01 2.425854110717773438e+01 5.370274782180786133e-01 1.133953475952148438e+01 3.562968730926513672e+00 1.939326405525207520e+00
1.290000000000000000e+03 2.098745155334472656e+01 2.223579406738281250e+01 1.091473460197448730e+00 9.319385528564453125e+00 3.123257875442504883e+00 -8.373206853866577148e-02
1.291000000000000000e+03 1.844263458251953125e+01 2.490381240844726562e+01 -1.516503810882568359e+00 4.538467228412628174e-01 -3.187971413135528564e-01 -7.250433564186096191e-01
1.292000000000000000e+03 4.664685058593750000e+01 -6.329055309295654297e+00 2.224430084228515625e+00 6.019931793212890625e+00 2.473308563232421875e+00 -2.979011535644531250e+00
1.293000000000000000e+03 4.500361251831054688e+01 -2.839517831802368164e+00 2.597222924232482910e-01 3.011728286743164062e+00 9.814351797103881836e-01 -2.149404048919677734e+00
1.294000000000000000e+03 2.138613510131835938e+01 2.829510498046875000e+01 2.345503270626068115e-01 7.283034324645996094e+00 2.255275487899780273e+00 -7.942122817039489746e-01
1.295000000000000000e+03 2.058808898925781250e+01 1.166221904754638672e+01 3.572787046432495117e-01 8.805177688598632812e+00 2.748737096786499023e+00 -4.148316979408264160e-01
1.296000000000000000e+03 4.625297164916992188e+01 -4.737664699554443359e+00 9.106380939483642578e-01 4.656341552734375000e+00 1.670093894004821777e+00 -2.374587059020996094e+00
1.297000000000000000e+03 2.151804161071777344e+01 2.331560897827148438e+01 4.159638881683349609e-01 1.061869144439697266e+01 3.310396671295166016e+00 4.320016801357269287e-01
1.298000000000000000e+03 3.749721527099609375e+01 -3.027283096313476562e+01 -2.956777811050415039e-01 4.465715408325195312e+00 1.251011252403259277e+00 1.557874083518981934e+00
1.299000000000000000e+03 3.273802185058593750e+01 2.020417404174804688e+01 2.327481955289840698e-01 9.527755737304687500e+00 2.928151130676269531e+00 -4.090067744255065918e-02
1.300000000000000000e+03 3.169795417785644531e+01 1.925895690917968750e+01 -2.776394784450531006e-01 1.121628952026367188e+01 3.281594991683959961e+00 6.100161746144294739e-02
1.301000000000000000e+03 3.183378982543945312e+01 2.169549179077148438e+01 2.346053160727024078e-02 1.096675586700439453e+01 3.297064781188964844e+00 -1.004375442862510681e-01
1.302000000000000000e+03 3.330144119262695312e+01 2.225117874145507812e+01 4.731062948703765869e-01 8.626656532287597656e+00 2.729928970336914062e+00 -4.153669774532318115e-01
1.303000000000000000e+03 3.298193740844726562e+01 2.123780250549316406e+01 3.957769274711608887e-01 9.459055900573730469e+00 2.956449747085571289e+00 -3.219690322875976562e-01
1.304000000000000000e+03 3.173326683044433594e+01 2.046954727172851562e+01 2.009552419185638428e-01 1.081214332580566406e+01 3.303929567337036133e+00 1.419763565063476562e-01
1.305000000000000000e+03 5.200341415405273438e+01 -1.027012729644775391e+01 1.510739088058471680e+00 5.237129688262939453e+00 2.024360656738281250e+00 -1.560429096221923828e+00
1.306000000000000000e+03 5.180535507202148438e+01 -8.709503173828125000e+00 1.729285240173339844e+00 6.269840240478515625e+00 2.399737596511840820e+00 -9.078624248504638672e-01
1.307000000000000000e+03 4.114876937866210938e+01 -2.193589210510253906e+00 6.179596856236457825e-02 1.569576382637023926e+00 4.894117116928100586e-01 8.422963023185729980e-01
1.308000000000000000e+03 4.551757812500000000e+01 -3.881270647048950195e+00 6.132060885429382324e-01 3.008064985275268555e+00 1.086381316184997559e+00 -2.061329126358032227e+00
1.309000000000000000e+03 3.598340988159179688e+01 -1.352269363403320312e+01 -2.248208999633789062e+00 3.266749858856201172e+00 3.055622279644012451e-01 -2.296499967575073242e+00
1.310000000000000000e+03 3.679707336425781250e+01 -1.275664806365966797e+01 -1.120870232582092285e+00 5.258265972137451172e+00 1.241218686103820801e+00 -2.655549049377441406e+00
1.311000000000000000e+03 3.983553695678710938e+01 -3.989960098266601562e+01 -2.031832933425903320e+00 2.460549592971801758e+00 1.286150366067886353e-01 -1.804360598325729370e-01
1.312000000000000000e+03 3.954985809326171875e+01 -3.539875030517578125e+01 -3.579081594944000244e-01 4.177633762359619141e+00 1.145917654037475586e+00 -8.266688585281372070e-01
1.313000000000000000e+03 4.958555984497070312e+01 -2.707279396057128906e+01 -1.384057164192199707e+00 4.210480690002441406e+00 8.479271531105041504e-01 -2.997158288955688477e+00
1.314000000000000000e+03 4.553691482543945312e+01 -4.013579559326171875e+01 -1.642106175422668457e+00 5.253135561943054199e-01 -3.350377976894378662e-01 6.153240203857421875e-01
1.315000000000000000e+03 5.827991485595703125e+01 2.028648185729980469e+01 3.908667266368865967e-01 4.026338100433349609e+00 1.325161457061767578e+00 9.107084944844245911e-03
1.316000000000000000e+03 3.853554534912109375e+01 -2.890682792663574219e+01 -2.373407125473022461e+00 7.121945381164550781e+00 1.424561500549316406e+00 1.743427276611328125e+00
1.317000000000000000e+03 3.748685455322265625e+01 -3.283339309692382812e+01 2.372435569763183594e+00 5.926081657409667969e+00 2.489555120468139648e+00 2.310079813003540039e+00
1.318000000000000000e+03 3.844326019287109375e+01 -3.322656250000000000e+01 1.740513920783996582e+00 8.734355926513671875e+00 3.142460823059082031e+00 1.389619350433349609e+00
1.319000000000000000e+03 5.386351394653320312e+01 -3.248805236816406250e+01 2.968244791030883789e+00 7.821200847625732422e+00 3.236833810806274414e+00 5.524396151304244995e-02
1.320000000000000000e+03 4.759581756591796875e+01 -2.501195335388183594e+01 -8.311315178871154785e-01 5.347490787506103516e+00 1.354907751083374023e+00 -3.408127546310424805e+00
1.321000000000000000e+03 4.789325332641601562e+01 -2.330327033996582031e+01 2.907975673675537109e+00 5.158731937408447266e+00 2.420012474060058594e+00 -3.910992383956909180e+00
1.322000000000000000e+03 6.644453430175781250e+01 2.900121879577636719e+01 1.450117111206054688e+00 5.381222248077392578e+00 2.049401760101318359e+00 9.423382878303527832e-01
1.323000000000000000e+03 6.429380798339843750e+01 3.465069580078125000e+01 -9.116820096969604492e-01 4.554869651794433594e+00 1.092956304550170898e+00 3.225202858448028564e-01
1.324000000000000000e+03 3.941035842895507812e+01 -2.557132911682128906e+01 2.334017992019653320e+00 1.176257228851318359e+01 4.228977203369140625e+00 4.345680236816406250e+00
1.325000000000000000e+03 3.862278366088867188e+01 -2.651331329345703125e+01 1.630017399787902832e+00 6.862794876098632812e+00 2.547843694686889648e+00 3.458300113677978516e+00
1.326000000000000000e+03 3.474873733520507812e+01 -2.871308135986328125e+01 -5.354331493377685547e+00 -8.785157203674316406e-01 -1.869854211807250977e+00 1.626907289028167725e-01
1.327000000000000000e+03 3.240122604370117188e+01 -2.982774162292480469e+01 -1.260683655738830566e+00 1.319822669029235840e+00 1.774168759584426880e-02 -1.277539730072021484e+00
1.328000000000000000e+03 2.837304115295410156e+01 -2.366198348999023438e+01 1.345263838768005371e+00 9.125815391540527344e+00 3.141323804855346680e+00 -7.551867961883544922e-01
1.329000000000000000e+03 3.868719100952148438e+01 -2.997764396667480469e+01 -2.191352248191833496e-01 7.353923320770263672e+00 2.140436410903930664e+00 1.604739665985107422e+00
1.330000000000000000e+03 3.589487838745117188e+01 -1.530654716491699219e+01 -5.523870944976806641e+00 8.467630147933959961e-01 -1.403132438659667969e+00 -7.860450446605682373e-02
1.331000000000000000e+03 3.696403884887695312e+01 -1.608078384399414062e+01 -5.828076004981994629e-01 3.753748178482055664e+00 9.512822031974792480e-01 -1.450864553451538086e+00
1.332000000000000000e+03 2.770998954772949219e+01 -2.492026901245117188e+01 -5.007218196988105774e-02 6.350874900817871094e+00 1.890240788459777832e+00 3.642932474613189697e-01
1.333000000000000000e+03 2.494586944580078125e+01 -1.469035434722900391e+01 -3.080353975296020508e+00 1.165413856506347656e+00 -5.744820833206176758e-01 7.285007238388061523e-01
1.334000000000000000e+03 4.859594345092773438e+01 -1.536431980133056641e+01 -3.472730875015258789e+00 4.994445800781250000e+00 4.565144777297973633e-01 2.416583061218261719e+00
1.335000000000000000e+03 3.510098648071289062e+01 -1.148914146423339844e+01 1.705541610717773438e+00 3.488994359970092773e+00 1.558360815048217773e+00 -1.065964460372924805e+00
1.336000000000000000e+03 3.167749977111816406e+01 -1.290839767456054688e+01 -1.460393190383911133e+00 4.548241615295410156e+00 9.263545870780944824e-01 1.929471731185913086e+00
1.337000000000000000e+03 3.827069473266601562e+01 -1.259431648254394531e+01 -5.687481164932250977e-01 6.527685642242431641e+00 1.787681221961975098e+00 -3.045522212982177734e+00
1.338000000000000000e+03 2.772995758056640625e+01 -1.680927467346191406e+01 -7.597489356994628906e-01 5.885303974151611328e+00 1.537666559219360352e+00 1.207639217376708984e+00
1.339000000000000000e+03 3.042463302612304688e+01 -1.606329345703125000e+01 -1.226803898811340332e+00 6.249649047851562500e+00 1.506853461265563965e+00 2.077507495880126953e+00
1.340000000000000000e+03 4.375774765014648438e+01 -2.632700347900390625e+01 -3.862833976745605469e-01 4.516635090112686157e-02 -1.023351103067398071e-01 -1.538619875907897949e+00
1.341000000000000000e+03 2.778236007690429688e+01 -2.079871559143066406e+01 2.116887331008911133e+00 8.450436592102050781e+00 3.170197010040283203e+00 7.173740863800048828e-01
1.342000000000000000e+03 4.006073379516601562e+01 -1.414912033081054688e+01 -2.717043399810791016e+00 4.909089565277099609e+00 6.576138138771057129e-01 -2.954607963562011719e+00
1.343000000000000000e+03 2.889888954162597656e+01 -2.106156921386718750e+01 7.635467052459716797e-01 1.276237106323242188e+01 4.057775020599365234e+00 1.459554791450500488e+00
1.344000000000000000e+03 3.926808547973632812e+01 -1.981177711486816406e+01 1.274883747100830078e+00 7.946022987365722656e+00 2.766272068023681641e+00 -3.027829170227050781e+00
1.345000000000000000e+03 4.034668731689453125e+01 -1.862626457214355469e+01 1.627380371093750000e+00 5.422089099884033203e+00 2.114840745925903320e+00 -2.059982776641845703e+00
1.346000000000000000e+03 2.891556167602539062e+01 -1.706001091003417969e+01 -7.394206523895263672e-01 7.448685169219970703e+00 2.012779235839843750e+00 1.678426980972290039e+00
1.347000000000000000e+03 2.854018020629882812e+01 -1.823669815063476562e+01 1.126396298408508301e+00 7.706004142761230469e+00 2.649720191955566406e+00 1.600192189216613770e+00
1.348000000000000000e+03 5.393708038330078125e+01 2.638983726501464844e+01 1.531475424766540527e+00 7.890771865844726562e+00 2.826674222946166992e+00 -2.124661684036254883e+00
1.349000000000000000e+03 5.151972961425781250e+01 2.868709182739257812e+01 1.545336604118347168e+00 7.502422809600830078e+00 2.714327812194824219e+00 7.769600749015808105e-01
1.350000000000000000e+03 4.472702407836914062e+01 -1.738539314270019531e+01 4.585977792739868164e-01 5.016867637634277344e+00 1.642639636993408203e+00 8.450308442115783691e-01
1.351000000000000000e+03 4.730037307739257812e+01 -1.785415267944335938e+01 1.355298519134521484e+00 7.447263240814208984e+00 2.640768527984619141e+00 2.727811098098754883e+00
1.352000000000000000e+03 3.094119262695312500e+01 -2.799488830566406250e+01 -2.077786445617675781e+00 3.250276803970336914e+00 3.517470955848693848e-01 -4.825450778007507324e-01
1.353000000000000000e+03 2.955800437927246094e+01 -2.618556594848632812e+01 -9.855940341949462891e-01 5.777195453643798828e+00 1.437480449676513672e+00 -1.008532047271728516e+00
1.354000000000000000e+03 6.258739852905273438e+01 2.516044235229492188e+01 3.270994186401367188e+00 7.608143329620361328e+00 3.263741254806518555e+00 4.553488731384277344e+00
1.355000000000000000e+03 6.508615875244140625e+01 2.608711051940917969e+01 2.623696804046630859e+00 5.417294979095458984e+00 2.412297487258911133e+00 1.614616036415100098e+00
1.356000000000000000e+03 1.144247627258300781e+01 -1.254346752166748047e+01 -3.905488014221191406e+00 -7.475646734237670898e-01 -1.395915746688842773e+00 1.548202991485595703e+00
1.357000000000000000e+03 9.779669761657714844e+00 -1.148130893707275391e+01 -9.173573851585388184e-01 4.707382321357727051e-01 -1.339857578277587891e-01 2.502708673477172852e+00
1.358000000000000000e+03 5.432240676879882812e+01 5.090883970260620117e-01 -8.355746269226074219e-01 3.666425704956054688e+00 8.492553234100341797e-01 2.229536771774291992e+00
1.359000000000000000e+03 6.230373001098632812e+01 2.115501785278320312e+01 -1.916041016578674316e+00 6.000590324401855469e+00 1.225364804267883301e+00 3.478722095489501953e+00
1.360000000000000000e+03 6.100004196166992188e+01 2.114773559570312500e+01 -1.045508742332458496e+00 5.758666515350341797e+00 1.413947343826293945e+00 2.834413051605224609e+00
1.361000000000000000e+03 1.626778602600097656e+01 -3.973158264160156250e+01 -2.761295557022094727e+00 -1.182395219802856445e+00 -1.183107256889343262e+00 1.017421603202819824e+00
1.362000000000000000e+03 1.419051074981689453e+01 -3.826847839355468750e+01 -8.329645991325378418e-01 1.626504063606262207e-01 -2.010942548513412476e-01 1.460901498794555664e-01
1.363000000000000000e+03 6.098106765747070312e+01 2.386977195739746094e+01 3.682383000850677490e-01 3.427175521850585938e+00 1.138624191284179688e+00 2.569566249847412109e+00
1.364000000000000000e+03 2.456221008300781250e+01 -3.769656372070312500e+01 2.529904246330261230e-01 4.557818889617919922e+00 1.443242788314819336e+00 4.755699634552001953e-01
1.365000000000000000e+03 5.366590499877929688e+01 3.434529113769531250e+01 -2.195836454629898071e-01 6.765629768371582031e+00 1.963813781738281250e+00 9.211366772651672363e-01
1.366000000000000000e+03 4.743384933471679688e+01 3.174773406982421875e+01 1.122723072767257690e-01 5.833716869354248047e+00 1.783796668052673340e+00 1.166370883584022522e-01
1.367000000000000000e+03 5.167117309570312500e+01 3.193584442138671875e+01 1.214747786521911621e+00 6.936882019042968750e+00 2.445488929748535156e+00 7.982085347175598145e-01
1.368000000000000000e+03 5.979491043090820312e+01 2.236065483093261719e+01 -1.585463523864746094e+00 2.782276630401611328e+00 3.590439260005950928e-01 2.445294857025146484e+00
1.369000000000000000e+03 5.987116622924804688e+01 6.904333233833312988e-01 -1.400362133979797363e+00 5.373449325561523438e+00 1.191926121711730957e+00 -2.389701843261718750e+00
1.370000000000000000e+03 5.429236602783203125e+01 2.357485008239746094e+01 -8.224189281463623047e-01 5.045428276062011719e+00 1.266902804374694824e+00 -2.095242977142333984e+00
1.371000000000000000e+03 1.674962615966796875e+01 -4.189105987548828125e+01 -2.481392860412597656e+00 -7.073086500167846680e-01 -9.566105008125305176e-01 1.162320077419281006e-01
1.372000000000000000e+03 6.572389221191406250e+01 -1.695814704895019531e+01 -1.217773318290710449e+00 3.818137407302856445e+00 7.801092267036437988e-01 7.394967675209045410e-01
1.373000000000000000e+03 6.376210021972656250e+01 -1.637453079223632812e+01 -1.521084070205688477e+00 6.284017562866210938e+00 1.428880095481872559e+00 1.124049499630928040e-01
1.374000000000000000e+03 6.404199981689453125e+01 3.316376495361328125e+01 1.497618407011032104e-01 4.999444007873535156e+00 1.544761776924133301e+00 -1.327442228794097900e-01
1.375000000000000000e+03 5.618679809570312500e+01 3.463104248046875000e+01 1.500819444656372070e+00 2.456660270690917969e+00 1.187243938446044922e+00 1.813366055488586426e+00
1.376000000000000000e+03 2.541315841674804688e+01 -3.082106971740722656e+01 2.177519351243972778e-01 6.351053237915039062e+00 1.970641613006591797e+00 -5.140182971954345703e-01
1.377000000000000000e+03 6.104040527343750000e+01 2.244960975646972656e+01 -2.267412900924682617e+00 5.046466350555419922e+00 8.337160348892211914e-01 3.366593122482299805e+00
1.378000000000000000e+03 5.466428756713867188e+01 3.485413742065429688e+01 -2.033246457576751709e-01 5.769818782806396484e+00 1.669948220252990723e+00 1.814474821090698242e+00
1.379000000000000000e+03 6.522948455810546875e+01 2.859963989257812500e+01 1.538515448570251465e+00 6.125313282012939453e+00 2.299148559570312500e+00 1.629784941673278809e+00
1.380000000000000000e+03 6.367872619628906250e+01 2.943870353698730469e+01 1.522530317306518555e-01 7.539372920989990234e+00 2.307487726211547852e+00 2.045893073081970215e-01
1.381000000000000000e+03 2.696823692321777344e+01 -3.495140838623046875e+01 4.207141697406768799e-01 5.152682304382324219e+00 1.672019004821777344e+00 -3.666901886463165283e-01
1.382000000000000000e+03 5.596390151977539062e+01 2.309080696105957031e+01 -1.501360297203063965e+00 2.812516927719116211e+00 3.933469951152801514e-01 -1.764112472534179688e+00
1.383000000000000000e+03 1.353657341003417969e+01 -3.108776855468750000e+01 1.275971770286560059e+00 5.178617000579833984e+00 1.936376571655273438e+00 2.171465635299682617e+00
1.384000000000000000e+03 1.014357089996337891e+01 -3.561714172363281250e+01 1.496703773736953735e-01 2.358151197433471680e+00 7.523464560508728027e-01 9.588006734848022461e-01
1.385000000000000000e+03 2.714189529418945312e+01 -2.604790306091308594e+01 -1.223411083221435547e+00 6.164422988891601562e+00 1.482303500175476074e+00 3.250571787357330322e-01
1.386000000000000000e+03 2.065267944335937500e+01 -4.061409378051757812e+01 -2.713565111160278320e+00 -8.536895364522933960e-02 -8.396802544593811035e-01 -5.888715386390686035e-01
1.387000000000000000e+03 6.089465332031250000e+01 4.100735664367675781e+00 -1.178652524948120117e+00 4.987617015838623047e+00 1.142689347267150879e+00 -2.076980829238891602e+00
1.388000000000000000e+03 6.619568634033203125e+01 3.361434459686279297e+00 -2.141232043504714966e-02 2.352439880371093750e+00 6.993082761764526367e-01 8.807731866836547852e-01
1.389000000000000000e+03 6.070089340209960938e+01 1.207758712768554688e+01 6.270022988319396973e-01 9.658450126647949219e+00 3.085635662078857422e+00 -8.500991463661193848e-01
1.390000000000000000e+03 5.547297668457031250e+01 1.294417572021484375e+01 1.465937137603759766e+00 8.990843772888183594e+00 3.137034177780151367e+00 -5.470264554023742676e-01
1.391000000000000000e+03 1.332302093505859375e+01 -2.945441055297851562e+01 1.433000802993774414e+00 3.604599714279174805e+00 1.511280179023742676e+00 1.745756626129150391e+00
1.392000000000000000e+03 1.570497322082519531e+01 -1.976214790344238281e+01 1.576529622077941895e+00 6.856904506683349609e+00 2.530030250549316406e+00 1.754437685012817383e+00
1.393000000000000000e+03 7.222011566162109375e+01 -1.250603771209716797e+01 -1.837431669235229492e+00 5.746704936027526855e-01 -3.788283765316009521e-01 -4.933454990386962891e-01
1.394000000000000000e+03 7.161345672607421875e+01 -1.374436950683593750e+01 -3.655203282833099365e-01 9.501463174819946289e-01 1.753877997398376465e-01 -8.148205280303955078e-01
1.395000000000000000e+03 2.137553405761718750e+01 -2.710254287719726562e+01 -2.378912448883056641e+00 -5.724195241928100586e-01 -8.853995800018310547e-01 9.517713189125061035e-01
1.396000000000000000e+03 1.155727386474609375e+01 -3.312939071655273438e+01 8.611463904380798340e-01 3.047382116317749023e+00 1.172558546066284180e+00 1.089280247688293457e+00
1.397000000000000000e+03 1.537890243530273438e+01 -2.521928024291992188e+01 -1.233545899391174316e+00 3.034860849380493164e+00 5.403944849967956543e-01 1.759580373764038086e+00
1.398000000000000000e+03 1.223273849487304688e+01 -2.369215774536132812e+01 -1.480943441390991211e+00 1.023485302925109863e+00 -1.372374445199966431e-01 1.108848094940185547e+00
1.399000000000000000e+03 2.335033035278320312e+01 -2.537718009948730469e+01 -3.159389495849609375e-01 2.526618719100952148e+00 6.632039546966552734e-01 -2.886085212230682373e-01
1.400000000000000000e+03 2.511228942871093750e+01 -3.482320404052734375e+01 2.826086282730102539e-01 6.955767631530761719e+00 2.171512842178344727e+00 -1.364815533161163330e-01
1.401000000000000000e+03 2.687734603881835938e+01 -3.117177772521972656e+01 -6.911635398864746094e-02 5.465877532958984375e+00 1.619028329849243164e+00 -6.755092740058898926e-02
1.402000000000000000e+03 5.254877471923828125e+01 -6.171654224395751953e+00 1.616761445999145508e+00 1.036800289154052734e+01 3.595429420471191406e+00 -1.951112508773803711e+00
1.403000000000000000e+03 5.256320571899414062e+01 -3.484426021575927734e+00 9.112927913665771484e-01 1.051064109802246094e+01 3.426580190658569336e+00 1.652799129486083984e+00
1.404000000000000000e+03 6.136209487915039062e+01 -6.202630519866943359e+00 6.921021938323974609e-01 1.088951587677001953e+01 3.474485397338867188e+00 3.566996753215789795e-01
1.405000000000000000e+03 6.450738525390625000e+01 -2.850673484802246094e+01 2.627146959304809570e+00 8.452468872070312500e+00 3.323884725570678711e+00 -4.582981109619140625e+00
1.406000000000000000e+03 1.092237758636474609e+01 1.655060195922851562e+01 -7.421001791954040527e-02 6.960071921348571777e-01 1.865391582250595093e-01 1.853764504194259644e-01
1.407000000000000000e+03 5.562138366699218750e+01 -9.873188018798828125e+00 7.628070712089538574e-01 2.241028547286987305e+00 9.011506438255310059e-01 -1.783091306686401367e+00
1.408000000000000000e+03 5.647101211547851562e+01 -1.167862606048583984e+01 6.554865837097167969e-02 2.685476541519165039e+00 8.253075480461120605e-01 -2.000473022460937500e+00
1.409000000000000000e+03 7.363088226318359375e+01 -2.415944671630859375e+01 1.706092476844787598e+00 1.231157398223876953e+01 4.205299854278564453e+00 2.314319849014282227e+00
1.410000000000000000e+03 7.285297393798828125e+01 -2.520525550842285156e+01 1.116538047790527344e+00 6.157850742340087891e+00 2.182316541671752930e+00 2.637087345123291016e+00
1.411000000000000000e+03 5.297107696533203125e+01 2.545253372192382812e+01 1.146026015281677246e+00 5.955906391143798828e+00 2.130579710006713867e+00 -5.506399273872375488e-01
1.412000000000000000e+03 4.882122039794921875e+01 1.964734840393066406e+01 -2.318298101425170898e+00 8.188897371292114258e-01 -4.498224854469299316e-01 6.616017222404479980e-01
1.413000000000000000e+03 2.054500007629394531e+01 3.409371566772460938e+01 -6.701099872589111328e-01 4.495619773864746094e+00 1.147652983665466309e+00 1.761845350265502930e-01
1.414000000000000000e+03 1.978023529052734375e+01 3.049137496948242188e+01 1.473397731781005859e+00 9.204895019531250000e+00 3.203487873077392578e+00 -1.721168756484985352e+00
1.415000000000000000e+03 6.971529388427734375e+01 -1.207455539703369141e+01 -1.020649671554565430e+00 2.795068547129631042e-02 -2.978096902370452881e-01 -7.386641502380371094e-01
1.416000000000000000e+03 6.848371124267578125e+01 -1.176821136474609375e+01 6.139281392097473145e-01 1.121388912200927734e+00 5.205951333045959473e-01 -1.000960588455200195e+00
1.417000000000000000e+03 1.930004692077636719e+01 2.588493156433105469e+01 -5.381631255149841309e-01 5.294423103332519531e+00 1.426877975463867188e+00 1.455179303884506226e-01
1.418000000000000000e+03 6.838291168212890625e+01 -2.611531066894531250e+01 -2.994800329208374023e+00 9.689605236053466797e-01 -6.077519059181213379e-01 -1.837241053581237793e-01
1.419000000000000000e+03 6.683228302001953125e+01 -2.649975204467773438e+01 -1.916365861892700195e+00 6.260300159454345703e+00 1.303180336952209473e+00 -2.725407838821411133e+00
1.420000000000000000e+03 1.130124378204345703e+01 2.051320075988769531e+01 1.726427525281906128e-01 4.167934358119964600e-01 1.768308579921722412e-01 -2.708751261234283447e-01
1.421000000000000000e+03 8.368670463562011719e+00 2.350315856933593750e+01 1.277865886688232422e+00 1.351598501205444336e+00 7.888393402099609375e-01 -1.143550515174865723e+00
1.422000000000000000e+03 6.512120819091796875e+01 -6.270573139190673828e+00 8.667523264884948730e-01 1.215533351898193359e+01 3.906625747680664062e+00 1.276764273643493652e-01
1.423000000000000000e+03 7.823948669433593750e+01 1.682144355773925781e+01 4.125049710273742676e-02 6.751448154449462891e+00 2.037809610366821289e+00 6.299294233322143555e-01
1.424000000000000000e+03 7.562326049804687500e+01 1.453735351562500000e+01 7.457553148269653320e-01 7.745294570922851562e+00 2.547314882278442383e+00 5.593680739402770996e-01
1.425000000000000000e+03 5.864561462402343750e+01 2.975553989410400391e+00 -1.078687191009521484e+00 3.981327533721923828e+00 8.707920908927917480e-01 -2.006290435791015625e+00
1.426000000000000000e+03 6.584531402587890625e+01 6.471407890319824219e+00 -2.517234802246093750e+00 2.921799570322036743e-02 -7.464050054550170898e-01 1.329481303691864014e-01
1.427000000000000000e+03 4.444978332519531250e+01 6.843523025512695312e+00 1.906072050333023071e-01 5.285189151763916016e+00 1.642738819122314453e+00 -4.475807845592498779e-01
1.428000000000000000e+03 4.088371276855468750e+01 6.484209060668945312e+00 1.427197098731994629e+00 9.740159988403320312e+00 3.350207090377807617e+00 9.613454341888427734e-01
1.429000000000000000e+03 4.556802749633789062e+01 1.678413581848144531e+01 2.076786041259765625e+00 9.285714149475097656e+00 3.408750057220458984e+00 3.807530403137207031e+00
1.430000000000000000e+03 6.511159515380859375e+01 -9.928214073181152344e+00 1.729787588119506836e-01 7.952867507934570312e+00 2.437753915786743164e+00 -6.925259232521057129e-01
1.431000000000000000e+03 6.232440567016601562e+01 1.983417510986328125e+01 8.835563063621520996e-01 6.650267124176025391e+00 2.260147094726562500e+00 3.527924060821533203e+00
1.432000000000000000e+03 8.780550003051757812e+00 -2.439426040649414062e+01 -1.654038310050964355e+00 -4.613229930400848389e-01 -6.346083879470825195e-01 1.820337921380996704e-01
1.433000000000000000e+03 6.690453290939331055e-01 -2.470895767211914062e+01 -9.577598422765731812e-02 2.461793661117553711e+00 7.098053097724914551e-01 1.823680475354194641e-02
1.434000000000000000e+03 5.312917709350585938e+00 -2.080966949462890625e+01 -5.680683255195617676e-01 1.730420827865600586e+00 3.487057685852050781e-01 1.146740168333053589e-01
1.435000000000000000e+03 7.414228057861328125e+01 -1.061651039123535156e+01 -3.042060732841491699e-01 4.150287151336669922e+00 1.153824329376220703e+00 1.423671364784240723e+00
1.436000000000000000e+03 6.935267925262451172e+00 3.522898101806640625e+01 -9.232627749443054199e-01 4.651945233345031738e-01 -1.374204754829406738e-01 -1.003755489364266396e-03
1.437000000000000000e+03 7.735268402099609375e+01 -2.658168411254882812e+01 -2.973075807094573975e-01 7.816178321838378906e+00 2.255661249160766602e+00 -3.738432228565216064e-01
1.438000000000000000e+03 5.565890884399414062e+01 -3.458454513549804688e+01 2.128996849060058594e+00 1.041084766387939453e+01 3.761953353881835938e+00 -1.696643948554992676e+00
1.439000000000000000e+03 5.671961212158203125e+01 -3.848250961303710938e+01 -1.728054761886596680e+00 5.661378860473632812e+00 1.179997205734252930e+00 -1.470163226127624512e+00
1.440000000000000000e+03 7.050012969970703125e+01 6.679674625396728516e+00 -3.047511279582977295e-01 4.481040477752685547e+00 1.252886891365051270e+00 1.815382361412048340e+00
1.441000000000000000e+03 7.112490081787109375e+01 8.244045257568359375e+00 1.259952545166015625e+00 6.007698059082031250e+00 2.180295228958129883e+00 2.382166624069213867e+00
1.442000000000000000e+03 7.006478118896484375e+01 7.956170558929443359e+00 1.433510661125183105e+00 3.373255014419555664e+00 1.442029714584350586e+00 1.992651700973510742e+00
1.443000000000000000e+03 7.298200988769531250e+01 8.740039825439453125e+00 4.807153642177581787e-01 8.553992271423339844e+00 2.710412502288818359e+00 -1.653418540954589844e-01
1.444000000000000000e+03 6.171628570556640625e+01 -2.384030723571777344e+01 2.059218645095825195e+00 3.540361642837524414e+00 1.679874062538146973e+00 -1.143413066864013672e+00
1.445000000000000000e+03 5.350972747802734375e+01 -8.017517089843750000e+00 2.330122470855712891e+00 5.555157184600830078e+00 2.365583896636962891e+00 -2.872973680496215820e+00
1.446000000000000000e+03 3.457673645019531250e+01 -1.453723609447479248e-01 4.451261460781097412e-01 9.324464797973632812e-01 4.132717847824096680e-01 1.469788670539855957e+00
1.447000000000000000e+03 7.112749481201171875e+01 1.839625740051269531e+01 -9.753756523132324219e-01 5.856884002685546875e+00 1.464452505111694336e+00 -1.207690834999084473e+00
1.448000000000000000e+03 3.110418319702148438e+01 1.209181213378906250e+01 1.035002112388610840e+00 5.463844776153564453e+00 1.949654102325439453e+00 3.807548284530639648e+00
1.449000000000000000e+03 3.184952163696289062e+01 1.298132801055908203e+01 -7.043945789337158203e-01 3.751760959625244141e+00 9.142099618911743164e-01 3.202536344528198242e+00
1.450000000000000000e+03 6.149003601074218750e+01 1.744247245788574219e+01 2.608737707138061523e+00 1.098105239868164062e+01 4.076937198638916016e+00 4.613503456115722656e+00
1.451000000000000000e+03 2.009144401550292969e+01 1.565155315399169922e+01 9.934907406568527222e-02 9.573299407958984375e+00 2.901794672012329102e+00 -1.876314282417297363e+00
1.452000000000000000e+03 5.911887741088867188e+01 -2.713610649108886719e+01 -2.316271066665649414e+00 1.993039011955261230e+00 -9.696958959102630615e-02 7.957713603973388672e-01
1.453000000000000000e+03 6.766706848144531250e+01 3.876159191131591797e+00 1.559348404407501221e-02 1.598448514938354492e+00 4.842126071453094482e-01 1.801394343376159668e+00
1.454000000000000000e+03 7.046226501464843750e+01 7.700341343879699707e-01 2.340019941329956055e-01 1.342940688133239746e+00 4.730828106403350830e-01 1.475728154182434082e+00
1.455000000000000000e+03 5.894681167602539062e+01 -1.162531089782714844e+01 -2.273540012538433075e-04 3.100335597991943359e+00 9.300324916839599609e-01 1.411749720573425293e+00
1.456000000000000000e+03 3.132265090942382812e+00 2.155648231506347656e+01 -1.244860589504241943e-01 3.905325531959533691e-01 7.981394231319427490e-02 6.221854314208030701e-02
1.457000000000000000e+03 6.594723701477050781e+00 2.553292655944824219e+01 1.537977814674377441e+00 3.447526216506958008e+00 1.495651245117187500e+00 -1.987248659133911133e+00
1.458000000000000000e+03 7.027151489257812500e+01 1.940956878662109375e+01 -2.002685785293579102e+00 4.154449462890625000e+00 6.455290913581848145e-01 -9.572925567626953125e-01
1.459000000000000000e+03 6.215933322906494141e+00 1.338694381713867188e+01 2.991066277027130127e-01 1.166121602058410645e+00 4.395684897899627686e-01 -5.300070643424987793e-01
1.460000000000000000e+03 1.032355690002441406e+01 9.533597946166992188e+00 1.621520638465881348e+00 3.379118919372558594e+00 1.500191807746887207e+00 -1.907058238983154297e+00
1.461000000000000000e+03 7.320382690429687500e+01 1.305850219726562500e+01 1.262794852256774902e+00 1.105883312225341797e+01 3.696488380432128906e+00 2.216861397027969360e-02
1.462000000000000000e+03 7.213134765625000000e+01 1.251384067535400391e+01 6.362747550010681152e-01 1.384699440002441406e+01 4.344980716705322266e+00 2.521440386772155762e-01
1.463000000000000000e+03 7.369791412353515625e+01 -2.075585174560546875e+01 5.017607212066650391e-01 1.300621509552001953e+01 4.052392482757568359e+00 -1.209117054939270020e+00
1.464000000000000000e+03 7.943185424804687500e+01 -1.674358940124511719e+01 3.427251800894737244e-02 9.438858985900878906e+00 2.841939210891723633e+00 3.623770773410797119e-01
1.465000000000000000e+03 6.054481887817382812e+01 7.962541103363037109e+00 1.042776107788085938e-01 5.496707439422607422e+00 1.680295467376708984e+00 -1.185599923133850098e+00
1.466000000000000000e+03 6.246373367309570312e+01 7.834948062896728516e+00 -3.777272105216979980e-01 2.947025537490844727e+00 7.707895040512084961e-01 -1.455140113830566406e+00
1.467000000000000000e+03 2.614391708374023438e+01 4.472064902074635029e-04 1.173626542091369629e+00 2.377587556838989258e+00 1.065364241600036621e+00 -2.070872068405151367e+00
1.468000000000000000e+03 6.323074340820312500e+00 3.129614257812500000e+01 2.643417567014694214e-02 1.298222661018371582e+00 3.973970711231231689e-01 3.021962707862257957e-03
1.469000000000000000e+03 5.988800811767578125e+01 -3.865922164916992188e+01 -2.862769126892089844e+00 1.427298784255981445e+00 -4.306411147117614746e-01 -2.566781640052795410e-01
1.470000000000000000e+03 4.972379684448242188e+01 5.650959968566894531e+00 -2.545171499252319336e+00 -2.261290997266769409e-01 -8.313902020454406738e-01 6.220036149024963379e-01
1.471000000000000000e+03 4.566790771484375000e+01 -2.626101875305175781e+01 -1.689061403274536133e+00 3.521457910537719727e+00 5.497189760208129883e-01 -2.634457588195800781e+00
1.472000000000000000e+03 4.689336013793945312e+01 -1.912797737121582031e+01 1.207740426063537598e+00 9.594146728515625000e+00 3.240566253662109375e+00 2.466100931167602539e+00
1.473000000000000000e+03 6.340041732788085938e+01 -4.595964029431343079e-02 -1.631042808294296265e-01 6.341709136962890625e+00 1.853581428527832031e+00 -1.453598141670227051e-01
1.474000000000000000e+03 6.624092102050781250e+01 -1.514375495910644531e+01 -1.298139452934265137e+00 2.911920070648193359e+00 4.841341376304626465e-01 7.692683935165405273e-01
1.475000000000000000e+03 6.477032470703125000e+01 -1.885786437988281250e+01 5.360351800918579102e-01 7.825947284698486328e+00 2.508594751358032227e+00 6.795039176940917969e-01
1.476000000000000000e+03 2.628873825073242188e+01 1.243997383117675781e+01 1.227642416954040527e+00 2.081007242202758789e+00 9.925949573516845703e-01 -5.926905870437622070e-01
1.477000000000000000e+03 2.010531997680664062e+01 9.694478988647460938e+00 6.234381794929504395e-01 5.881988525390625000e+00 1.951628088951110840e+00 8.002583980560302734e-01
1.478000000000000000e+03 6.143566894531250000e+01 -2.512752532958984375e+01 8.777081966400146484e-01 1.780389666557312012e+00 7.974293231964111328e-01 -1.029074788093566895e+00
1.479000000000000000e+03 4.761987304687500000e+01 2.213260650634765625e+01 5.984616875648498535e-01 5.773514747619628906e+00 1.911592960357666016e+00 1.689040899276733398e+00
1.480000000000000000e+03 7.940918731689453125e+01 -2.230583000183105469e+01 1.170543804764747620e-01 6.401059150695800781e+00 1.955434083938598633e+00 1.054989472031593323e-01
1.481000000000000000e+03 4.646770858764648438e+01 -3.357194900512695312e+00 5.871008038520812988e-01 4.712735176086425781e+00 1.589950919151306152e+00 -2.220722913742065430e+00
1.482000000000000000e+03 5.095291900634765625e+01 -1.097122311592102051e+00 2.929894030094146729e-01 6.242486953735351562e+00 1.960642814636230469e+00 -1.575168222188949585e-01
1.483000000000000000e+03 1.155982780456542969e+01 2.160660362243652344e+01 3.521224558353424072e-01 1.560875028371810913e-01 1.524629890918731689e-01 -3.301870524883270264e-01
1.484000000000000000e+03 6.542562866210937500e+01 -8.338526725769042969e+00 1.871807336807250977e+00 1.096398830413818359e+01 3.850738525390625000e+00 -2.297417640686035156e+00
1.485000000000000000e+03 5.124377059936523438e+01 -4.930866718292236328e+00 1.926171302795410156e+00 8.601522445678710938e+00 3.158308029174804688e+00 -1.204069107770919800e-01
1.486000000000000000e+03 6.687599182128906250e+01 -3.581683349609375000e+01 3.235897123813629150e-01 6.354135036468505859e+00 2.003317356109619141e+00 -5.872007012367248535e-01
1.487000000000000000e+03 6.343238830566406250e+01 -1.910123825073242188e+01 6.821571588516235352e-01 7.255571365356445312e+00 2.381318569183349609e+00 -8.567819595336914062e-01
1.488000000000000000e+03 5.271850204467773438e+01 -9.232151985168457031e+00 1.183729767799377441e+00 5.652812004089355469e+00 2.050962686538696289e+00 -1.657463550567626953e+00
1.489000000000000000e+03 5.578376007080078125e+01 8.745611190795898438e+00 2.248656272888183594e+00 8.763772010803222656e+00 3.303728580474853516e+00 1.623970866203308105e+00
1.490000000000000000e+03 7.822795867919921875e+01 -1.408248996734619141e+01 -4.161992669105529785e-01 9.576133728027343750e+00 2.747980356216430664e+00 3.471522033214569092e-01
1.491000000000000000e+03 1.701524257659912109e+00 -1.167321872711181641e+01 -4.987561330199241638e-02 -3.509612381458282471e-01 -1.202510595321655273e-01 -2.003111243247985840e-01
1.492000000000000000e+03 6.053294372558593750e+01 -4.043881988525390625e+01 -1.108321666717529297e+00 2.898263633251190186e-01 -2.455485761165618896e-01 -5.030164718627929688e-01
1.493000000000000000e+03 2.033170890808105469e+01 2.673566627502441406e+01 -1.056902855634689331e-01 8.097952842712402344e+00 2.397678852081298828e+00 -7.525216341018676758e-01
1.494000000000000000e+03 6.298068165779113770e-01 3.190891838073730469e+01 9.762230329215526581e-03 1.018307685852050781e+00 3.084209561347961426e-01 -2.318514585494995117e-01
1.495000000000000000e+03 2.005396652221679688e+01 2.315946769714355469e+01 3.020280897617340088e-01 6.030343055725097656e+00 1.899711251258850098e+00 -2.205621749162673950e-01
1.496000000000000000e+03 7.960748195648193359e+00 2.183201026916503906e+01 1.775903254747390747e-01 1.517399549484252930e+00 5.084969997406005859e-01 -7.013453245162963867e-01
1.497000000000000000e+03 1.846463203430175781e+01 2.326443290710449219e+01 2.413585633039474487e-01 1.771757245063781738e+00 6.039347648620605469e-01 1.772260218858718872e-01
1.498000000000000000e+03 5.137389755249023438e+01 -1.597744083404541016e+01 -5.056149959564208984e+00 9.682978689670562744e-02 -1.487796068191528320e+00 -1.021981716156005859e+00
1.499000000000000000e+03 5.298860549926757812e+01 -1.372221565246582031e+01 -7.109248042106628418e-01 3.000420570373535156e+00 6.868487000465393066e-01 -3.055378913879394531e+00
1.500000000000000000e+03 1.889457893371582031e+01 3.433825302124023438e+01 -9.182407855987548828e-01 4.070931434631347656e+00 9.458072185516357422e-01 -7.254126667976379395e-01
1.501000000000000000e+03 1.851856613159179688e+01 3.246514511108398438e+01 1.289379358291625977e+00 4.120778560638427734e+00 1.623047471046447754e+00 -2.003471136093139648e+00
1.502000000000000000e+03 6.518956661224365234e+00 3.409020996093750000e+01 -1.011544108390808105e+00 5.445445179939270020e-01 -1.400998830795288086e-01 -2.979225218296051025e-01
1.503000000000000000e+03 7.257878875732421875e+01 -1.450739765167236328e+01 -5.331025123596191406e-01 2.445820093154907227e+00 5.738152861595153809e-01 -3.474603295326232910e-01
1.504000000000000000e+03 7.141033935546875000e+01 -1.709747314453125000e+01 9.943645596504211426e-01 9.869476556777954102e-01 5.943936705589294434e-01 -9.134891033172607422e-01
1.505000000000000000e+03 5.360747528076171875e+01 -9.972296714782714844e+00 1.091689348220825195e+00 4.622029781341552734e+00 1.714115738868713379e+00 -2.411247253417968750e+00
1.506000000000000000e+03 2.102126884460449219e+01 7.144347190856933594e+00 -6.697277426719665527e-01 5.043725967407226562e+00 1.312199473381042480e+00 9.626257419586181641e-01
1.507000000000000000e+03 1.741918182373046875e+01 3.442477035522460938e+01 -2.681806869804859161e-02 2.244575262069702148e+00 6.653271317481994629e-01 -1.269965648651123047e+00
1.508000000000000000e+03 1.537600517272949219e+01 3.865070724487304688e+01 -4.478673636913299561e-01 1.261188149452209473e+00 2.439962327480316162e-01 -5.845720171928405762e-01
1.509000000000000000e+03 1.423054504394531250e+01 2.000326347351074219e+01 3.517079353332519531e-01 -3.350278139114379883e-01 5.004034377634525299e-03 7.709285710006952286e-04
1.510000000000000000e+03 1.632649040222167969e+01 1.838073539733886719e+01 -7.264256477355957031e-01 -2.997106611728668213e-01 -3.078408837318420410e-01 5.707985758781433105e-01
1.511000000000000000e+03 2.267695426940917969e+01 2.874035072326660156e+01 1.238702386617660522e-01 5.012292385101318359e+00 1.540848851203918457e+00 1.826486140489578247e-01
1.512000000000000000e+03 1.686071014404296875e+01 2.303067016601562500e+01 -4.043899178504943848e-01 -5.072898268699645996e-01 -2.735038995742797852e-01 -7.463248372077941895e-01
1.513000000000000000e+03 1.436614131927490234e+01 2.294952392578125000e+01 -2.911114990711212158e-01 -1.635929048061370850e-01 -1.364113092422485352e-01 -2.771399915218353271e-01
1.514000000000000000e+03 7.822108864784240723e-01 2.900766181945800781e+01 4.780819639563560486e-02 -2.534022629261016846e-01 -6.167821958661079407e-02 -3.237334787845611572e-01
1.515000000000000000e+03 3.863720893859863281e+00 2.874906349182128906e+01 3.231331408023834229e-01 1.479657530784606934e+00 5.408372282981872559e-01 -9.338595271110534668e-01
1.516000000000000000e+03 5.017611026763916016e+00 2.777397918701171875e+01 6.278774142265319824e-01 3.249579668045043945e+00 1.163237094879150391e+00 -7.898182272911071777e-01
1.517000000000000000e+03 7.829913330078125000e+01 -1.544482231140136719e+01 -1.942327618598937988e-01 9.322889328002929688e+00 2.738596916198730469e+00 6.528875231742858887e-01
1.518000000000000000e+03 7.347170257568359375e+01 -1.654760742187500000e+01 -4.923117160797119141e-01 5.055291652679443359e+00 1.368893980979919434e+00 -8.506447076797485352e-02
1.519000000000000000e+03 7.632179260253906250e+00 3.489926815032958984e+00 -2.742727994918823242e-01 3.345323204994201660e-01 1.807785965502262115e-02 2.852371633052825928e-01
1.520000000000000000e+03 1.692279434204101562e+01 6.963736057281494141e+00 -2.900201320648193359e+00 -5.365362763404846191e-01 -1.031021237373352051e+00 -1.436984181404113770e+00
1.521000000000000000e+03 1.512091827392578125e+01 6.497642993927001953e+00 -8.164348006248474121e-01 -4.547593891620635986e-01 -3.813582658767700195e-01 -1.140400052070617676e+00
1.522000000000000000e+03 1.304004096984863281e+01 2.166625213623046875e+01 1.890433877706527710e-01 -6.831022351980209351e-02 3.621995076537132263e-02 -2.069079279899597168e-01
1.523000000000000000e+03 1.160073184967041016e+01 2.269258880615234375e+01 4.118188619613647461e-01 3.152512386441230774e-02 1.330032050609588623e-01 -9.913222491741180420e-02
1.524000000000000000e+03 7.199741840362548828e+00 2.290628814697265625e+01 3.527382016181945801e-01 1.777532577514648438e+00 6.390812397003173828e-01 -8.205770850181579590e-01
1.525000000000000000e+03 3.396566772460937500e+01 1.720394706726074219e+01 2.469800949096679688e+00 5.463445186614990234e+00 2.379973888397216797e+00 -3.497995063662528992e-02
1.526000000000000000e+03 1.532566547393798828e+01 1.968246650695800781e+01 4.227854609489440918e-01 -4.680729508399963379e-01 -1.358625385910272598e-02 1.906412243843078613e-01
1.527000000000000000e+03 7.059429168701171875e+01 -1.343872261047363281e+01 -2.121029645204544067e-01 8.034733682870864868e-02 -3.952668979763984680e-02 -1.431847214698791504e+00
1.528000000000000000e+03 3.736041259765625000e+01 3.366125106811523438e+01 -3.605419993400573730e-01 2.486426830291748047e+00 6.377654671669006348e-01 9.608444571495056152e-01
1.529000000000000000e+03 3.163767051696777344e+01 2.882495689392089844e+01 5.769153237342834473e-01 5.634700298309326172e+00 1.863484740257263184e+00 -1.292737245559692383e+00
1.530000000000000000e+03 6.299792861938476562e+01 -2.422095489501953125e+01 1.390757918357849121e+00 5.399128913879394531e+00 2.036966085433959961e+00 -2.135396003723144531e+00
1.531000000000000000e+03 6.575686645507812500e+01 -2.653396034240722656e+01 -1.390613913536071777e+00 8.023836135864257812e+00 1.989966630935668945e+00 -2.935827493667602539e+00
1.532000000000000000e+03 3.648101043701171875e+01 2.145372772216796875e+01 4.023726582527160645e-01 4.242980480194091797e+00 1.393605947494506836e+00 -1.594681143760681152e+00
1.533000000000000000e+03 7.829722595214843750e+01 -2.372248649597167969e+01 4.072400927543640137e-01 7.365951538085937500e+00 2.331957340240478516e+00 -1.952671706676483154e-01
1.534000000000000000e+03 7.550331878662109375e+01 -2.430413246154785156e+01 1.077041864395141602e+00 8.838487625122070312e+00 2.974658727645874023e+00 -3.244028612971305847e-02
1.535000000000000000e+03 5.386457824707031250e+01 -2.481105804443359375e+01 -1.927326202392578125e+00 3.759193897247314453e+00 5.495603084564208984e-01 2.013549089431762695e+00
1.536000000000000000e+03 6.542917633056640625e+01 -4.972995758056640625e+00 1.153401970863342285e+00 1.094612407684326172e+01 3.629858016967773438e+00 2.002437829971313477e+00
1.537000000000000000e+03 4.561361694335937500e+01 9.137517929077148438e+00 6.029814481735229492e-01 4.942111492156982422e+00 1.663527965545654297e+00 -1.355206847190856934e+00
1.538000000000000000e+03 4.466644668579101562e+01 1.110408973693847656e+01 5.091556310653686523e-01 9.953511238098144531e+00 3.138799905776977539e+00 -1.085229158401489258e+00
1.539000000000000000e+03 5.520561599731445312e+01 2.914016723632812500e+00 -8.059244155883789062e-01 3.995643854141235352e+00 9.569158554077148438e-01 1.359287261962890625e+00
1.540000000000000000e+03 5.188486099243164062e+01 5.602752208709716797e+00 -6.438807249069213867e-01 1.053112149238586426e+00 1.227694153785705566e-01 1.668003320693969727e+00
1.541000000000000000e+03 7.117983245849609375e+01 -8.075634837150573730e-01 -2.174880027770996094e+00 4.790910333395004272e-02 -6.380913257598876953e-01 2.686254084110260010e-01
1.542000000000000000e+03 3.532056045532226562e+01 3.444672393798828125e+01 -1.384057402610778809e+00 4.650687217712402344e+00 9.799888730049133301e-01 2.449301630258560181e-01
1.543000000000000000e+03 7.301047515869140625e+01 -2.092597633600234985e-01 -9.290757179260253906e-01 3.338583469390869141e+00 7.228523492813110352e-01 -1.196915864944458008e+00
1.544000000000000000e+03 6.925865173339843750e+01 1.275442004203796387e+00 2.902031242847442627e-01 1.799570560455322266e+00 6.269320845603942871e-01 1.905090212821960449e+00
1.545000000000000000e+03 6.287750244140625000e+01 -3.835782241821289062e+01 -2.676268339157104492e+00 2.042672634124755859e-01 -7.416003346443176270e-01 -4.900775253772735596e-01
1.546000000000000000e+03 5.334384155273437500e+01 3.343037128448486328e+00 -9.804667234420776367e-01 4.442095279693603516e+00 1.038488626480102539e+00 2.295257329940795898e+00
1.547000000000000000e+03 5.433765792846679688e+01 6.444550037384033203e+00 1.635461330413818359e+00 7.272672176361083984e+00 2.672440052032470703e+00 2.565384626388549805e+00
1.548000000000000000e+03 7.787743377685546875e+01 3.359144210815429688e+01 2.273993566632270813e-02 6.941507816314697266e+00 2.089274406433105469e+00 1.376311480998992920e-01
1.549000000000000000e+03 7.919562530517578125e+01 3.630324172973632812e+01 -6.893313955515623093e-03 7.399483203887939453e+00 2.217777013778686523e+00 4.233548417687416077e-02
1.550000000000000000e+03 7.941452026367187500e+01 -2.090957069396972656e+01 1.487939059734344482e-02 6.837529659271240234e+00 2.055722713470458984e+00 2.603562474250793457e-01
1.551000000000000000e+03 7.939556121826171875e+01 -2.772968864440917969e+01 -5.815425887703895569e-02 7.642345428466796875e+00 2.275257349014282227e+00 -9.992484003305435181e-02
1.552000000000000000e+03 7.710497283935546875e+01 -3.838057327270507812e+01 -6.325873732566833496e-02 7.563579082489013672e+00 2.250096082687377930e+00 -1.554176509380340576e-01
1.553000000000000000e+03 7.916558074951171875e+01 -3.473746871948242188e+01 1.372986286878585815e-02 7.694125175476074219e+00 2.312356472015380859e+00 -3.432625532150268555e-02
1.554000000000000000e+03 7.655283355712890625e+01 -2.760100555419921875e+01 -4.108595848083496094e-01 7.676792144775390625e+00 2.179779767990112305e+00 -4.339222237467765808e-02
1.555000000000000000e+03 7.586737060546875000e+01 -2.995205116271972656e+01 -9.473107755184173584e-02 7.008389949798583984e+00 2.074097633361816406e+00 3.748204410076141357e-01
1.556000000000000000e+03 7.919351196289062500e+01 -3.046844100952148438e+01 2.589875133708119392e-03 7.720449447631835938e+00 2.316911697387695312e+00 3.138360625598579645e-04
1.557000000000000000e+03 7.752056884765625000e+01 -3.452794647216796875e+01 7.655122876167297363e-02 7.323673248291015625e+00 2.220067262649536133e+00 -1.138439700007438660e-01
1.558000000000000000e+03 7.760809326171875000e+01 -3.312925338745117188e+01 9.968181699514389038e-02 7.256392478942871094e+00 2.206822395324707031e+00 -2.978731691837310791e-02
1.559000000000000000e+03 7.554438018798828125e+01 -3.829145812988281250e+01 -7.474543154239654541e-02 7.223647594451904297e+00 2.144670724868774414e+00 -4.303228557109832764e-01
1.560000000000000000e+03 7.651294708251953125e+01 -3.945473098754882812e+01 -3.994581848382949829e-02 7.583956241607666016e+00 2.263203144073486328e+00 -2.743847370147705078e-01
1.561000000000000000e+03 7.819771575927734375e+01 1.547271156311035156e+01 8.673249930143356323e-02 6.510713577270507812e+00 1.979233860969543457e+00 5.729991793632507324e-01
1.562000000000000000e+03 7.939373016357421875e+01 1.537251567840576172e+01 6.242995336651802063e-02 5.755579948425292969e+00 1.745403051376342773e+00 2.212179601192474365e-01
1.563000000000000000e+03 7.936593627929687500e+01 2.231704521179199219e+01 -3.963758796453475952e-02 7.738877296447753906e+00 2.309772014617919922e+00 2.092725783586502075e-02
1.564000000000000000e+03 7.799563598632812500e+01 3.219061660766601562e+01 8.154751360416412354e-02 6.916457176208496094e+00 2.099401473999023438e+00 6.315709650516510010e-02
1.565000000000000000e+03 7.789392852783203125e+01 2.805148124694824219e+01 2.881578169763088226e-02 6.971150875091552734e+00 2.099989891052246094e+00 -1.667493134737014771e-01
1.566000000000000000e+03 7.930744934082031250e+01 2.792413330078125000e+01 2.484215982258319855e-02 7.279160976409912109e+00 2.191200971603393555e+00 -4.965049773454666138e-02
1.567000000000000000e+03 7.796065521240234375e+01 2.516203308105468750e+01 -3.591445088386535645e-02 7.168467044830322266e+00 2.139765739440917969e+00 -1.918631643056869507e-01
1.568000000000000000e+03 7.804956054687500000e+01 2.373948478698730469e+01 -6.388858705759048462e-02 7.297691822052001953e+00 2.170140981674194336e+00 -1.247840300202369690e-01
1.569000000000000000e+03 7.329567718505859375e+01 1.658753967285156250e+01 1.326776444911956787e-01 8.616547584533691406e+00 2.624767541885375977e+00 3.138532936573028564e-01
1.570000000000000000e+03 7.465521240234375000e+01 9.501522064208984375e+00 6.559208631515502930e-01 8.213526725769042969e+00 2.660834312438964844e+00 -7.730866074562072754e-01
1.571000000000000000e+03 7.579824066162109375e+01 1.091685390472412109e+01 1.039868712425231934e+00 7.693990230560302734e+00 2.620157718658447266e+00 -5.254415273666381836e-01
1.572000000000000000e+03 7.815452575683593750e+01 9.745025634765625000e+00 1.440921276807785034e-01 6.567666053771972656e+00 2.013527393341064453e+00 -6.879749298095703125e-01
1.573000000000000000e+03 7.937564849853515625e+01 9.755047798156738281e+00 4.833558201789855957e-02 5.856628894805908203e+00 1.771489262580871582e+00 -2.612675726413726807e-01
1.574000000000000000e+03 7.475952911376953125e+01 -1.672339057922363281e+01 -5.248531699180603027e-01 7.179580688476562500e+00 1.996418237686157227e+00 5.533598661422729492e-01
1.575000000000000000e+03 7.940390777587890625e+01 -1.397234630584716797e+01 -8.818703889846801758e-02 1.062703418731689453e+01 3.161653995513916016e+00 6.240031495690345764e-02
1.576000000000000000e+03 7.941677856445312500e+01 -1.951590347290039062e+01 8.624766767024993896e-02 7.597337722778320312e+00 2.305075645446777344e+00 3.821808397769927979e-01
1.577000000000000000e+03 7.708790588378906250e+01 -2.215819549560546875e+01 7.238422036170959473e-01 8.118734359741210938e+00 2.652772903442382812e+00 3.543307483196258545e-01
1.578000000000000000e+03 7.933314514160156250e+01 -6.997447013854980469e+00 2.218898534774780273e-01 7.444530487060546875e+00 2.299926042556762695e+00 -1.286249160766601562e-01
1.579000000000000000e+03 7.936316680908203125e+01 -5.594066143035888672e+00 1.258409917354583740e-01 7.575683593750000000e+00 2.310457468032836914e+00 2.431758046150207520e-01
1.580000000000000000e+03 7.816959381103515625e+01 -7.897144556045532227e-02 -3.233610391616821289e-01 8.909711837768554688e+00 2.575905323028564453e+00 5.870608240365982056e-02
1.581000000000000000e+03 7.938678741455078125e+01 1.355979561805725098e+00 -1.045015528798103333e-01 9.635402679443359375e+00 2.859270334243774414e+00 -9.049498289823532104e-02
1.582000000000000000e+03 7.815506744384765625e+01 8.339353561401367188e+00 8.186414092779159546e-02 6.931507587432861328e+00 2.104011535644531250e+00 -8.003707528114318848e-01
1.583000000000000000e+03 7.576527404785156250e+01 3.853859710693359375e+01 -1.896859407424926758e-01 6.783842563629150391e+00 1.978247046470642090e+00 2.071471810340881348e-01
1.584000000000000000e+03 7.584568023681640625e+01 3.663962554931640625e+01 -6.723083555698394775e-02 6.648258686065673828e+00 1.974308371543884277e+00 2.417019903659820557e-01
1.585000000000000000e+03 7.806269073486328125e+01 1.117893505096435547e+01 3.416287302970886230e-01 6.390601158142089844e+00 2.019668817520141602e+00 -3.449971079826354980e-01
1.586000000000000000e+03 7.816564941406250000e+01 1.274074912071228027e+00 -2.273308336734771729e-01 8.706896781921386719e+00 2.543869733810424805e+00 -3.431487083435058594e-01
1.587000000000000000e+03 7.813181304931640625e+01 2.632578372955322266e+00 -1.880522370338439941e-01 8.397356033325195312e+00 2.462791204452514648e+00 -5.325443744659423828e-01
1.588000000000000000e+03 7.557866668701171875e+01 -2.948321104049682617e+00 -3.702793121337890625e-01 8.785603523254394531e+00 2.524597167968750000e+00 -3.127960860729217529e-01
1.589000000000000000e+03 7.575012969970703125e+01 1.055991888046264648e+00 -5.740393400192260742e-01 6.938495159149169922e+00 1.909336686134338379e+00 -7.795740962028503418e-01
1.590000000000000000e+03 7.566637420654296875e+01 -5.434617042541503906e+00 1.256345152854919434e+00 1.243175125122070312e+01 4.106429100036621094e+00 -1.262099146842956543e+00
1.591000000000000000e+03 7.804595947265625000e+01 -1.265646171569824219e+01 -4.931041896343231201e-01 9.536900520324707031e+00 2.713138818740844727e+00 -3.172191679477691650e-01
1.592000000000000000e+03 7.523141479492187500e+01 -1.441112518310546875e+01 -1.087614536285400391e+00 6.960935115814208984e+00 1.761996150016784668e+00 7.958403229713439941e-01
1.593000000000000000e+03 7.592123413085937500e+01 -1.812666130065917969e+01 2.132149675162509084e-04 8.252225875854492188e+00 2.475731611251831055e+00 1.183483362197875977e+00
1.594000000000000000e+03 7.825331115722656250e+01 -1.953381156921386719e+01 7.650040835142135620e-02 8.015088081359863281e+00 2.427476644515991211e+00 9.074702262878417969e-01
1.595000000000000000e+03 7.789485168457031250e+01 -8.530177116394042969e+00 5.579352378845214844e-01 9.344587326049804688e+00 2.970756769180297852e+00 -9.481728076934814453e-01
1.596000000000000000e+03 7.802510070800781250e+01 -9.950724601745605469e+00 -1.061593834310770035e-02 9.565156936645507812e+00 2.866362333297729492e+00 -1.256786823272705078e+00
1.597000000000000000e+03 5.485682296752929688e+01 -3.286355590820312500e+01 2.503440141677856445e+00 8.902813911437988281e+00 3.421876192092895508e+00 -8.215033262968063354e-02
1.598000000000000000e+03 5.557735443115234375e+01 -2.983707237243652344e+01 1.235025644302368164e+00 7.769145488739013672e+00 2.701251268386840820e+00 1.639414787292480469e+00
1.599000000000000000e+03 5.666810607910156250e+01 -3.049668693542480469e+01 1.897290706634521484e+00 9.973923683166503906e+00 3.561364173889160156e+00 3.425939559936523438e+00
1.600000000000000000e+03 4.496139144897460938e+01 2.140657424926757812e+01 -1.228794217109680176e+00 6.827136993408203125e+00 1.679502844810485840e+00 2.883963584899902344e+00
1.601000000000000000e+03 2.190338325500488281e+01 1.211255073547363281e+01 4.855502247810363770e-01 6.914082527160644531e+00 2.219889879226684570e+00 -1.615681290626525879e+00
1.602000000000000000e+03 1.667303657531738281e+01 2.055602073669433594e+01 1.218209862709045410e+00 -3.541387021541595459e-01 2.592213749885559082e-01 -1.093901842832565308e-01
1.603000000000000000e+03 3.895560836791992188e+01 3.845543670654296875e+01 -6.228420138359069824e-01 1.806511878967285156e+00 3.551009595394134521e-01 4.754233062267303467e-01
1.604000000000000000e+03 3.690280151367187500e+01 3.671310806274414062e+01 -1.409799218177795410e+00 3.338758230209350586e+00 5.786877274513244629e-01 8.992527723312377930e-01
1.605000000000000000e+03 7.486410522460937500e+01 -4.745600700378417969e+00 1.089720726013183594e+00 1.198362255096435547e+01 3.922003030776977539e+00 -2.510626554489135742e+00
1.606000000000000000e+03 2.119476127624511719e+01 1.732547378540039062e+01 -1.735388755798339844e+00 9.837392807006835938e+00 2.430601119995117188e+00 9.459193050861358643e-02
1.607000000000000000e+03 5.941319274902343750e+01 1.241835021972656250e+01 1.461578488349914551e+00 8.722924232482910156e+00 3.055350780487060547e+00 3.350390791893005371e-01
1.608000000000000000e+03 7.540077209472656250e+01 -6.669026851654052734e+00 6.717178821563720703e-01 1.446326160430908203e+01 4.540493965148925781e+00 -9.293434023857116699e-01
1.609000000000000000e+03 7.531304168701171875e+01 -8.058739662170410156e+00 7.006775736808776855e-01 1.462975311279296875e+01 4.599129199981689453e+00 5.184100866317749023e-01
1.610000000000000000e+03 3.296885299682617188e+01 1.244650840759277344e+01 -2.541128158569335938e+00 1.387367367744445801e+00 -3.461282551288604736e-01 1.340575218200683594e+00
1.611000000000000000e+03 6.441093444824218750e+01 -4.478146553039550781e+00 1.936782002449035645e+00 9.288446426391601562e+00 3.367568731307983398e+00 4.957785904407501221e-01
1.612000000000000000e+03 5.715704345703125000e+01 -3.639293670654296875e+01 1.395951390266418457e+00 5.592040061950683594e+00 2.096397399902343750e+00 -2.794667959213256836e+00
1.613000000000000000e+03 3.533839035034179688e+01 2.132083511352539062e+01 3.015305399894714355e-01 5.672203063964843750e+00 1.792119979858398438e+00 -1.349598765373229980e+00
1.614000000000000000e+03 7.939373016357421875e+00 1.287076663970947266e+01 4.176837205886840820e-01 2.103644132614135742e+00 7.563983798027038574e-01 -5.393257141113281250e-01
1.615000000000000000e+03 9.038955688476562500e+00 1.648794174194335938e+01 -3.725568354129791260e-01 1.722028493881225586e+00 4.048414826393127441e-01 -3.305463194847106934e-01
1.616000000000000000e+03 2.173283767700195312e+01 1.332533740997314453e+01 6.976373791694641113e-01 8.006947517395019531e+00 2.611375570297241211e+00 -1.859682202339172363e+00
1.617000000000000000e+03 1.401290225982666016e+01 4.322299957275390625e+00 8.903397321701049805e-01 -1.633776992093771696e-04 2.670529186725616455e-01 -1.534464597702026367e+00
1.618000000000000000e+03 1.572900676727294922e+01 3.551136016845703125e+00 1.556081175804138184e+00 -2.088943868875503540e-01 4.041560590267181396e-01 -1.474664926528930664e+00
1.619000000000000000e+03 1.095951175689697266e+01 7.024234771728515625e+00 1.279443621635437012e+00 1.466010332107543945e+00 8.236361742019653320e-01 -9.976185560226440430e-01
1.620000000000000000e+03 8.440839767456054688e+00 2.656507253646850586e+00 -5.463823080062866211e-01 2.992911338806152344e-01 -7.412736117839813232e-02 1.475101262331008911e-01
1.621000000000000000e+03 7.332773590087890625e+01 -1.330512523651123047e+01 -8.297992944717407227e-01 3.153666496276855469e+00 6.971601247787475586e-01 6.235280632972717285e-01
1.622000000000000000e+03 4.460634231567382812e+01 2.302115440368652344e+01 2.605602025985717773e+00 6.754034996032714844e+00 2.807891130447387695e+00 3.843702793121337891e+00
1.623000000000000000e+03 4.422904205322265625e+01 3.206201171875000000e+01 2.060338705778121948e-01 2.203098058700561523e+00 7.227395772933959961e-01 -1.128424406051635742e+00
1.624000000000000000e+03 3.385498809814453125e+01 2.808240699768066406e+01 1.339794397354125977e+00 9.318244934082031250e+00 3.197411775588989258e+00 -4.444413185119628906e-01
1.625000000000000000e+03 3.547978973388671875e+01 3.085109329223632812e+01 8.457031250000000000e-01 9.246787071228027344e+00 3.027746915817260742e+00 2.006048917770385742e+00
1.626000000000000000e+03 5.495409774780273438e+01 1.166395854949951172e+01 5.253027677536010742e-01 1.040907096862792969e+01 3.280312299728393555e+00 -2.328668385744094849e-01
1.627000000000000000e+03 5.610343170166015625e+01 1.601930427551269531e+01 1.365053772926330566e+00 6.120757579803466797e+00 2.245743274688720703e+00 -4.863492250442504883e-01
1.628000000000000000e+03 4.526103210449218750e+01 3.342572784423828125e+01 -7.917305827140808105e-01 4.231815338134765625e+00 1.032025337219238281e+00 -1.006396889686584473e+00
1.629000000000000000e+03 5.722576522827148438e+01 -2.729694366455078125e+01 -1.976131677627563477e+00 6.855737686157226562e+00 1.463881731033325195e+00 1.850790500640869141e+00
1.630000000000000000e+03 4.686954498291015625e+01 2.015873146057128906e+01 -1.405207395553588867e+00 5.600043773651123047e+00 1.258450865745544434e+00 3.150299072265625000e+00
1.631000000000000000e+03 5.792138671875000000e+01 1.171634864807128906e+01 1.618867039680480957e+00 8.406588554382324219e+00 3.007636547088623047e+00 7.840187549591064453e-01
1.632000000000000000e+03 5.182086181640625000e+01 1.696893882751464844e+01 6.318283081054687500e-01 1.898435831069946289e+00 7.590792775154113770e-01 -1.466467022895812988e+00
1.633000000000000000e+03 5.011485671997070312e+01 -3.118692970275878906e+01 3.412035703659057617e+00 8.316758155822753906e+00 3.518638372421264648e+00 -2.006749391555786133e+00
1.634000000000000000e+03 6.773658752441406250e+01 -3.269557189941406250e+01 1.608944296836853027e+00 7.230154037475585938e+00 2.651729583740234375e+00 -1.873980045318603516e+00
1.635000000000000000e+03 6.707901000976562500e+01 -3.021145439147949219e+01 2.894958257675170898e+00 6.585072517395019531e+00 2.844009160995483398e+00 -2.170291423797607422e+00
1.636000000000000000e+03 6.265872955322265625e+01 -7.760415554046630859e+00 1.846621990203857422e+00 8.958280563354492188e+00 3.241470813751220703e+00 1.573267877101898193e-01
1.637000000000000000e+03 6.452972412109375000e+01 -7.409262657165527344e+00 1.648904085159301758e+00 1.079790782928466797e+01 3.734043598175048828e+00 -9.073901176452636719e-01
1.638000000000000000e+03 4.073072052001953125e+01 1.154773044586181641e+01 3.194270133972167969e-01 6.871343135833740234e+00 2.157231092453002930e+00 2.345854192972183228e-01
1.639000000000000000e+03 3.414333724975585938e+01 3.333042526245117188e+01 -7.903956174850463867e-01 6.075829982757568359e+00 1.585630416870117188e+00 -2.936423718929290771e-01
1.640000000000000000e+03 2.951287460327148438e+01 3.088701629638671875e+01 4.921535253524780273e-01 2.866313695907592773e+00 1.007540106773376465e+00 -1.516405940055847168e+00
1.641000000000000000e+03 1.351900577545166016e+01 -1.316642761230468750e+01 -4.460272312164306641e+00 -4.555235505104064941e-01 -1.474738717079162598e+00 1.604324340820312500e+00
1.642000000000000000e+03 7.815029907226562500e+01 -4.214638233184814453e+00 1.148910075426101685e-01 8.935468673706054688e+00 2.715107917785644531e+00 7.680412530899047852e-01
1.643000000000000000e+03 4.345994567871093750e+01 1.418992137908935547e+01 1.828466296195983887e+00 9.150050163269042969e+00 3.293554782867431641e+00 8.083733916282653809e-01
1.644000000000000000e+03 3.803742599487304688e+01 1.063845062255859375e+01 3.222458064556121826e-01 3.288960695266723633e+00 1.083361983299255371e+00 -1.050214529037475586e+00
1.645000000000000000e+03 6.646506500244140625e+01 -5.228674411773681641e-01 3.651404976844787598e-01 4.216236591339111328e+00 1.374413132667541504e+00 1.855269789695739746e+00
1.646000000000000000e+03 6.200358963012695312e+01 -2.877129316329956055e+00 1.938979864120483398e+00 8.658338546752929688e+00 3.179195642471313477e+00 -1.187898755073547363e+00
1.647000000000000000e+03 3.509560012817382812e+01 2.807277107238769531e+01 5.588880181312561035e-01 1.347991657257080078e+01 4.211641311645507812e+00 1.201896220445632935e-01
1.648000000000000000e+03 5.584996795654296875e+01 -3.722334671020507812e+01 -1.286590576171875000e+00 7.611836910247802734e+00 1.897573947906494141e+00 -3.999019563198089600e-01
1.649000000000000000e+03 5.634909057617187500e+01 -2.843781089782714844e+01 -1.309608370065689087e-01 7.437213420867919922e+00 2.191875696182250977e+00 2.102737188339233398e+00
1.650000000000000000e+03 7.424893188476562500e+01 -1.002518177032470703e+00 -1.152060985565185547e+00 5.877789020538330078e+00 1.417718410491943359e+00 -9.382939338684082031e-01
1.651000000000000000e+03 7.354472351074218750e+01 -2.234455108642578125e+00 3.008723855018615723e-01 4.427580833435058594e+00 1.418535947799682617e+00 -1.253865718841552734e+00
1.652000000000000000e+03 6.820042419433593750e+01 -3.400217437744140625e+01 1.262972593307495117e+00 6.179219245910644531e+00 2.232657670974731445e+00 -1.642901182174682617e+00
1.653000000000000000e+03 6.409128570556640625e+01 -2.636333847045898438e+01 -1.511167407035827637e+00 7.762809276580810547e+00 1.875492572784423828e+00 -2.828124046325683594e+00
1.654000000000000000e+03 3.416001510620117188e+01 -1.174347305297851562e+01 1.311820864677429199e+00 2.878558635711669922e+00 1.257113814353942871e+00 -1.193449646234512329e-01
1.655000000000000000e+03 3.005459403991699219e+01 -7.390168666839599609e+00 9.445772767066955566e-01 1.067359638214111328e+01 3.485451936721801758e+00 3.724064230918884277e-01
1.656000000000000000e+03 3.490734863281250000e+01 2.230805397033691406e+01 9.869748353958129883e-02 7.121055603027343750e+00 2.165925979614257812e+00 -9.462600350379943848e-01
1.657000000000000000e+03 3.598750305175781250e+01 2.269784545898437500e+01 -1.381915062665939331e-01 5.520928382873535156e+00 1.614821076393127441e+00 -1.497607231140136719e+00
1.658000000000000000e+03 4.630348205566406250e+01 3.248471832275390625e+01 -5.489557981491088867e-01 5.369361400604248047e+00 1.446121692657470703e+00 -4.758198261260986328e-01
1.659000000000000000e+03 6.717253112792968750e+01 -1.171481609344482422e+01 3.261961936950683594e-01 3.001522541046142578e+00 9.983156323432922363e-01 -1.221119046211242676e+00
1.660000000000000000e+03 3.180288696289062500e+01 -1.569146275520324707e+00 1.601804852485656738e+00 4.814518928527832031e+00 1.924897193908691406e+00 -1.245420575141906738e+00
1.661000000000000000e+03 4.382106018066406250e+01 1.577968692779541016e+01 1.793745398521423340e+00 8.547221183776855469e+00 3.102290153503417969e+00 1.404289960861206055e+00
1.662000000000000000e+03 5.163211822509765625e+01 1.871123886108398438e+01 -1.409771561622619629e+00 2.929682493209838867e+00 4.559732973575592041e-01 -1.615134835243225098e+00
1.663000000000000000e+03 5.262747192382812500e+01 1.778953552246093750e+01 -3.695574402809143066e-02 3.441411256790161133e+00 1.021336674690246582e+00 -1.711238265037536621e+00
1.664000000000000000e+03 5.357809066772460938e+01 1.684248161315917969e+01 5.131437182426452637e-01 4.134984970092773438e+00 1.394438624382019043e+00 -1.965829372406005859e+00
1.665000000000000000e+03 3.966687774658203125e+01 1.622378587722778320e+00 4.642433822154998779e-01 6.575647354125976562e+00 2.111967086791992188e+00 9.707708954811096191e-01
1.666000000000000000e+03 3.772219848632812500e+01 2.123996496200561523e+00 2.446314811706542969e+00 3.619498252868652344e+00 1.819743871688842773e+00 3.068661212921142578e+00
1.667000000000000000e+03 5.632503509521484375e+01 1.114762401580810547e+01 1.449039459228515625e+00 9.085969924926757812e+00 3.160502672195434570e+00 7.571781873703002930e-01
1.668000000000000000e+03 5.913166427612304688e+01 1.125092029571533203e+01 1.332909703254699707e+00 8.055415153503417969e+00 2.816497564315795898e+00 3.545088171958923340e-01
1.669000000000000000e+03 3.721854400634765625e+01 -1.335332095623016357e-01 -3.132190108299255371e-01 3.800550460815429688e+00 1.046199440956115723e+00 3.372372150421142578e+00
1.670000000000000000e+03 2.998175621032714844e+01 1.044363784790039062e+01 3.289545059204101562e+00 8.080761909484863281e+00 3.411092281341552734e+00 4.276607036590576172e+00
1.671000000000000000e+03 2.425334930419921875e+01 1.376364517211914062e+01 -4.372733235359191895e-01 3.687010288238525391e+00 9.749210476875305176e-01 -1.900803327560424805e+00
1.672000000000000000e+03 5.151524066925048828e+00 -1.744864845275878906e+01 1.042030215263366699e+00 5.351750373840332031e+00 1.918134212493896484e+00 1.784036397933959961e+00
1.673000000000000000e+03 3.502944946289062500e+01 1.293544960021972656e+01 -2.733208894729614258e+00 -4.314384609460830688e-02 -8.329058289527893066e-01 -6.888806819915771484e-01
1.674000000000000000e+03 3.004475212097167969e+01 4.579903125762939453e+00 1.389291763305664062e+00 5.963077545166015625e+00 2.205710649490356445e+00 -2.817261934280395508e+00
1.675000000000000000e+03 2.802317619323730469e+01 6.355350494384765625e+00 2.313768863677978516e+00 7.351526737213134766e+00 2.899588584899902344e+00 -1.211835891008377075e-01
1.676000000000000000e+03 1.831443977355957031e+01 -1.350429534912109375e+01 -3.103024244308471680e+00 4.487456321716308594e+00 4.153295755386352539e-01 -2.469516992568969727e-01
1.677000000000000000e+03 4.005271530151367188e+01 3.569150924682617188e+00 2.843472003936767578e+00 9.500655174255371094e+00 3.703238248825073242e+00 1.706820607185363770e+00
1.678000000000000000e+03 3.851465606689453125e+01 1.192332553863525391e+01 -6.220049262046813965e-01 4.348789691925048828e+00 1.118035435676574707e+00 -9.652513265609741211e-01
1.679000000000000000e+03 4.055373001098632812e+01 1.023938179016113281e+01 -1.630369424819946289e-01 8.007853507995605469e+00 2.353445053100585938e+00 4.074895977973937988e-01
1.680000000000000000e+03 4.490459823608398438e+01 -1.554033660888671875e+01 -1.550547957420349121e+00 3.803995847702026367e+00 6.760343313217163086e-01 1.637420415878295898e+00
1.681000000000000000e+03 1.722130203247070312e+01 -1.762954139709472656e+01 8.114289045333862305e-01 4.386243820190429688e+00 1.559301853179931641e+00 -2.424726635217666626e-01
1.682000000000000000e+03 1.325657272338867188e+01 -2.210851860046386719e+01 -9.199808351695537567e-03 8.178107738494873047e-01 2.425832897424697876e-01 8.858591914176940918e-01
1.683000000000000000e+03 2.933710670471191406e+01 -1.985772013664245605e+00 3.042331218719482422e+00 8.683935165405273438e+00 3.517879962921142578e+00 -3.706289529800415039e+00
1.684000000000000000e+03 1.729464721679687500e+01 -1.167687702178955078e+01 -1.728772997856140137e+00 6.199575424194335938e+00 1.341240644454956055e+00 -7.797601819038391113e-01
1.685000000000000000e+03 2.943752288818359375e+01 2.784306764602661133e+00 -7.539576292037963867e-01 6.112086296081542969e+00 1.607438683509826660e+00 -1.651392102241516113e+00
1.686000000000000000e+03 2.718293571472167969e+01 -7.949573993682861328e-01 3.007735013961791992e+00 4.358789920806884766e+00 2.209957361221313477e+00 -3.629284620285034180e+00
1.687000000000000000e+03 5.543891143798828125e+01 -1.930046081542968750e+01 1.310914397239685059e+00 1.023091983795166016e+01 3.462550163269042969e+00 -1.808573007583618164e+00
1.688000000000000000e+03 5.635662460327148438e+01 -1.677932739257812500e+01 4.440615177154541016e-01 6.307134628295898438e+00 2.025358915328979492e+00 -6.409217715263366699e-01
1.689000000000000000e+03 5.071798324584960938e+01 -2.541386413574218750e+01 -3.753392457962036133e+00 9.079077839851379395e-01 -8.536453843116760254e-01 -1.026903748512268066e+00
1.690000000000000000e+03 8.971032142639160156e+00 -2.848060417175292969e+01 6.405894756317138672e-01 9.364433288574218750e-01 4.731098413467407227e-01 3.064017593860626221e-01
1.691000000000000000e+03 5.195946884155273438e+01 -2.548806762695312500e+01 -4.619950294494628906e+00 6.722441911697387695e-01 -1.184311866760253906e+00 1.035157963633537292e-01
1.692000000000000000e+03 5.351951217651367188e+01 -1.472653102874755859e+01 -8.043618202209472656e-01 3.714241981506347656e+00 8.729640245437622070e-01 -3.575820684432983398e+00
1.693000000000000000e+03 5.339689254760742188e+01 -1.652791786193847656e+01 -8.481364846229553223e-01 2.284228324890136719e+00 4.308275282382965088e-01 -1.994050145149230957e+00
1.694000000000000000e+03 1.628862190246582031e+01 -2.225991821289062500e+01 1.908833384513854980e-01 3.130780696868896484e+00 9.964991807937622070e-01 7.706981897354125977e-01
1.695000000000000000e+03 1.578715991973876953e+01 -2.100472450256347656e+01 1.309835672378540039e+00 4.746245861053466797e+00 1.816824436187744141e+00 1.372171282768249512e+00
1.696000000000000000e+03 1.403105831146240234e+01 -2.558023834228515625e+01 -9.552567601203918457e-01 2.855841159820556641e+00 5.701753497123718262e-01 1.626713514328002930e+00
1.697000000000000000e+03 6.251246929168701172e-01 -2.615352630615234375e+01 -7.129038684070110321e-03 2.374213695526123047e+00 7.101253867149353027e-01 -8.319047093391418457e-02
1.698000000000000000e+03 1.356977748870849609e+01 -2.321932029724121094e+01 -8.732948899269104004e-01 2.263068675994873047e+00 4.169321656227111816e-01 1.697110891342163086e+00
1.699000000000000000e+03 1.983516573905944824e+00 -1.566968059539794922e+01 2.232431322336196899e-01 1.375729590654373169e-01 1.082448288798332214e-01 1.572040319442749023e-01
1.700000000000000000e+03 6.634156107902526855e-01 -1.613073158264160156e+01 -2.567364647984504700e-02 -1.435138940811157227e+00 -4.382437765598297119e-01 1.806720346212387085e-02
1.701000000000000000e+03 1.680608749389648438e+01 -1.973151588439941406e+01 1.432912468910217285e+00 4.262038707733154297e+00 1.708485364913940430e+00 1.244433671236038208e-01
1.702000000000000000e+03 4.054240417480468750e+01 -2.086576843261718750e+01 1.617026209831237793e+00 7.067077636718750000e+00 2.605231285095214844e+00 -1.256998658180236816e+00
1.703000000000000000e+03 4.712799453735351562e+01 -2.673812866210937500e+01 -1.119129776954650879e+00 4.862955570220947266e+00 1.123147726058959961e+00 -3.558084011077880859e+00
1.704000000000000000e+03 5.541319656372070312e+01 -2.201040649414062500e+01 1.402653932571411133e+00 1.270468616485595703e+01 4.232202053070068359e+00 1.806165695190429688e+00
1.705000000000000000e+03 5.700833892822265625e+01 -1.965769958496093750e+01 2.112896442413330078e+00 7.306577205657958984e+00 2.825842142105102539e+00 -9.207613021135330200e-02
1.706000000000000000e+03 5.522216415405273438e+01 -2.764740562438964844e+01 -1.385360956192016602e+00 7.037272930145263672e+00 1.695573568344116211e+00 1.728441715240478516e+00
1.707000000000000000e+03 1.762895393371582031e+01 -9.936183929443359375e+00 1.987464308738708496e+00 8.628293991088867188e+00 3.184727668762207031e+00 -3.302048921585083008e+00
1.708000000000000000e+03 1.711567115783691406e+01 -8.625342369079589844e+00 1.523422479629516602e+00 1.294253158569335938e+01 4.339786052703857422e+00 -1.819723606109619141e+00
1.709000000000000000e+03 1.421439051628112793e+00 -4.005182647705078125e+01 2.222845517098903656e-02 2.263421773910522461e+00 6.856950521469116211e-01 1.149123385548591614e-01
1.710000000000000000e+03 6.478116512298583984e-01 3.750305938720703125e+01 -8.567254245281219482e-02 2.042555093765258789e+00 5.870647430419921875e-01 1.996309310197830200e-02
1.711000000000000000e+03 2.223357677459716797e+00 3.625093460083007812e+01 -1.895855069160461426e-01 1.563326120376586914e+00 4.121221899986267090e-01 -7.258146256208419800e-02
1.712000000000000000e+03 6.968258023262023926e-01 3.472820281982421875e+01 -4.366670176386833191e-02 1.818371057510375977e+00 5.324113368988037109e-01 -1.135259568691253662e-01
1.713000000000000000e+03 8.042514324188232422e-01 2.750007057189941406e+01 4.535378515720367432e-02 -7.197548747062683105e-01 -2.023203372955322266e-01 -2.506943941116333008e-01
1.714000000000000000e+03 6.694327592849731445e-01 2.606984710693359375e+01 1.224890500307083130e-01 -1.106814265251159668e+00 -2.952975928783416748e-01 -1.037039831280708313e-01
1.715000000000000000e+03 7.757821083068847656e-01 -3.591809082031250000e+01 -3.180047729983925819e-03 1.801166057586669922e+00 5.393958091735839844e-01 7.244161516427993774e-02
1.716000000000000000e+03 2.023072481155395508e+00 -3.281020355224609375e+01 1.027546375989913940e-01 1.642066836357116699e+00 5.234464406967163086e-01 4.071920365095138550e-02
1.717000000000000000e+03 5.960782170295715332e-01 2.327954483032226562e+01 5.680732429027557373e-02 -1.102595329284667969e+00 -3.137363791465759277e-01 5.344282090663909912e-02
1.718000000000000000e+03 2.310507774353027344e+00 2.690188598632812500e+01 3.451398909091949463e-01 2.848923504352569580e-01 1.890096813440322876e-01 -4.250109195709228516e-01
1.719000000000000000e+03 5.343266963958740234e+00 3.377682113647460938e+01 -8.180115222930908203e-01 1.088306546211242676e+00 8.108850568532943726e-02 -4.102968573570251465e-01
1.720000000000000000e+03 2.917966842651367188e+00 -2.859736251831054688e+01 1.087010204792022705e-01 1.560261845588684082e+00 5.006888508796691895e-01 -3.259764909744262695e-01
1.721000000000000000e+03 6.050592899322509766e+00 -2.441163063049316406e+01 -1.326890230178833008e+00 6.628394126892089844e-01 -1.992152333259582520e-01 -3.633451461791992188e-01
1.722000000000000000e+03 1.657627105712890625e+00 -1.035287570953369141e+01 -3.749277442693710327e-02 -3.763765096664428711e-01 -1.241607815027236938e-01 -1.117652058601379395e-01
1.723000000000000000e+03 7.196957468986511230e-01 -2.323935127258300781e+01 -1.219616979360580444e-01 2.252375602722167969e+00 6.391241550445556641e-01 2.340560257434844971e-01
1.724000000000000000e+03 2.484805583953857422e+00 -3.671193313598632812e+01 8.565152995288372040e-03 1.918989658355712891e+00 5.782664418220520020e-01 2.565661072731018066e-01
1.725000000000000000e+03 6.554793715476989746e-01 2.045193290710449219e+01 1.241504959762096405e-02 -8.394734263420104980e-01 -2.481175214052200317e-01 1.569244824349880219e-02
1.726000000000000000e+03 6.695053577423095703e-01 1.901652336120605469e+01 -4.523884877562522888e-02 -8.216538429260253906e-01 -2.600678205490112305e-01 -6.828614044934511185e-03
1.727000000000000000e+03 6.235216259956359863e-01 1.474091243743896484e+01 7.631155196577310562e-03 -1.231412410736083984e+00 -3.671343624591827393e-01 -9.157043695449829102e-02
1.728000000000000000e+03 5.929770469665527344e-01 1.334973621368408203e+01 8.853499777615070343e-03 -1.420669198036193848e+00 -4.235447049140930176e-01 -7.279489189386367798e-02
1.729000000000000000e+03 5.224227309226989746e-01 7.782289028167724609e+00 9.126488119363784790e-03 -1.359483242034912109e+00 -4.051070213317871094e-01 7.887592166662216187e-02
1.730000000000000000e+03 5.138740539550781250e-01 6.391582965850830078e+00 1.671242527663707733e-02 -1.096232295036315918e+00 -3.238559663295745850e-01 1.121933385729789734e-01
1.731000000000000000e+03 7.026717066764831543e-01 -1.751631927490234375e+01 1.796643137931823730e-01 -1.090784192085266113e+00 -2.733359634876251221e-01 2.450211048126220703e-01
1.732000000000000000e+03 3.735003709793090820e+00 -3.908327865600585938e+01 -1.418658941984176636e-01 2.127687215805053711e+00 5.957463979721069336e-01 3.140234351158142090e-01
1.733000000000000000e+03 3.623036861419677734e+00 -3.500102615356445312e+01 1.281752735376358032e-01 1.749766945838928223e+00 5.633826851844787598e-01 3.085831403732299805e-01
1.734000000000000000e+03 2.122061491012573242e+00 -3.414103698730468750e+01 6.451263278722763062e-02 1.697836875915527344e+00 5.287048220634460449e-01 1.283308714628219604e-01
1.735000000000000000e+03 1.923889756202697754e+00 -3.147962570190429688e+01 8.001036196947097778e-02 1.615237712860107422e+00 5.085744261741638184e-01 -6.961972266435623169e-02
1.736000000000000000e+03 4.885607242584228516e+00 -2.519031333923339844e+01 -7.697799801826477051e-01 1.228213191032409668e+00 1.375299692153930664e-01 -3.742601871490478516e-01
1.737000000000000000e+03 1.942084670066833496e+00 -2.455062484741210938e+01 -2.639328241348266602e-01 1.992433428764343262e+00 5.185501575469970703e-01 3.939149435609579086e-03
1.738000000000000000e+03 2.200274229049682617e+00 -2.138008499145507812e+01 -3.950375914573669434e-01 1.756585717201232910e+00 4.084644317626953125e-01 1.061645746231079102e+00
1.739000000000000000e+03 7.155135869979858398e-01 -1.891840553283691406e+01 9.838663041591644287e-02 -2.823491096496582031e-01 -5.518874153494834900e-02 4.893009066581726074e-01
1.740000000000000000e+03 6.387126922607421875e+00 -8.971560478210449219e+00 2.313361614942550659e-01 6.819885373115539551e-01 2.739973962306976318e-01 8.630775809288024902e-01
1.741000000000000000e+03 5.641694664955139160e-01 -1.196410083770751953e+01 1.919955387711524963e-02 -1.115059375762939453e+00 -3.287579417228698730e-01 -7.560377568006515503e-02
1.742000000000000000e+03 2.925729751586914062e+00 -1.263954257965087891e+01 8.436418138444423676e-03 5.699817538261413574e-01 1.735254526138305664e-01 -1.056065410375595093e-01
1.743000000000000000e+03 3.829411506652832031e+00 -8.641816139221191406e+00 5.028229951858520508e-02 2.002259045839309692e-01 7.515245676040649414e-02 1.082514375448226929e-01
1.744000000000000000e+03 2.615035295486450195e+00 -7.552228927612304688e+00 5.098995566368103027e-02 -1.763370335102081299e-01 -3.760412335395812988e-02 -8.222845196723937988e-02
1.745000000000000000e+03 5.267711281776428223e-01 4.971362590789794922e+00 -1.586533850058913231e-03 -7.439945340156555176e-01 -2.236743271350860596e-01 1.335068345069885254e-01
1.746000000000000000e+03 1.847620368003845215e+00 4.063582420349121094e+00 -3.880102932453155518e-02 -3.965844810009002686e-01 -1.306156516075134277e-01 3.484810590744018555e-01
1.747000000000000000e+03 1.602430105209350586e+00 1.032392311096191406e+01 7.703384757041931152e-02 -1.060905933380126953e+00 -2.951616346836090088e-01 3.229836001992225647e-02
1.748000000000000000e+03 5.337763428688049316e-01 1.056808280944824219e+01 1.660109497606754303e-02 -1.609245419502258301e+00 -4.777933061122894287e-01 4.599979612976312637e-03
1.749000000000000000e+03 1.805574536323547363e+00 1.299186992645263672e+01 5.915134027600288391e-02 -8.717651963233947754e-01 -2.437841445207595825e-01 -1.756455898284912109e-01
1.750000000000000000e+03 1.986207246780395508e+00 1.871135711669921875e+01 -8.297109603881835938e-02 -2.995597124099731445e-01 -1.147592365741729736e-01 -9.435479342937469482e-02
1.751000000000000000e+03 1.777943968772888184e+00 2.435093116760253906e+01 1.271662265062332153e-01 -2.733162641525268555e-01 -4.384501278400421143e-02 4.349859803915023804e-02
1.752000000000000000e+03 4.418988418579101562e+01 -1.965382766723632812e+01 2.883361339569091797e+00 4.700668334960937500e+00 2.275208950042724609e+00 1.592384874820709229e-01
1.753000000000000000e+03 1.399806308746337891e+01 -8.913172721862792969e+00 2.005934476852416992e+00 3.120733499526977539e+00 1.538000464439392090e+00 1.137463808059692383e+00
1.754000000000000000e+03 5.682713699340820312e+01 -2.091101837158203125e+01 2.215935468673706055e+00 8.326331138610839844e+00 3.162679910659790039e+00 4.303352534770965576e-01
1.755000000000000000e+03 4.681477355957031250e+01 -2.389789009094238281e+01 8.131720423698425293e-01 6.044641017913818359e+00 2.057343959808349609e+00 -2.328811645507812500e+00
1.756000000000000000e+03 1.674160766601562500e+01 -4.574356973171234131e-01 -4.450222104787826538e-02 4.221534252166748047e+00 1.253109693527221680e+00 3.191894531250000000e+00
1.757000000000000000e+03 2.969417381286621094e+01 -4.674648761749267578e+00 1.503198981285095215e+00 1.200797080993652344e+01 4.053350925445556641e+00 -2.780301332473754883e+00
1.758000000000000000e+03 2.534852027893066406e+01 9.762938618659973145e-01 4.208369255065917969e-01 1.805882334709167480e+00 6.680157780647277832e-01 -1.575384855270385742e+00
1.759000000000000000e+03 2.817516517639160156e+01 -1.622656941413879395e+00 3.817251682281494141e+00 7.575038433074951172e+00 3.417686939239501953e+00 -4.846963882446289062e+00
1.760000000000000000e+03 2.020581817626953125e+01 -7.713217735290527344e-01 -3.870952367782592773e+00 1.478336334228515625e+00 -7.177847623825073242e-01 -9.353067874908447266e-01
1.761000000000000000e+03 2.084269142150878906e+01 -1.420966833829879761e-01 -4.250564098358154297e+00 -5.186195373535156250e-01 -1.430755138397216797e+00 -1.153266906738281250e+00
1.762000000000000000e+03 3.449983978271484375e+01 -3.482538938522338867e+00 2.104628801345825195e+00 4.033254623413085938e+00 1.841364979743957520e+00 4.058945775032043457e-01
1.763000000000000000e+03 2.807297325134277344e+01 -1.321452045440673828e+01 -2.824043512344360352e+00 6.058583259582519531e+00 9.703618288040161133e-01 2.304473876953125000e+00
1.764000000000000000e+03 1.742379188537597656e+01 -3.944294691085815430e+00 3.267503738403320312e+00 1.488403320312500000e+01 5.445460796356201172e+00 5.546013355255126953e+00
1.765000000000000000e+03 2.848532295227050781e+01 1.172453641891479492e+00 -8.598289489746093750e-01 6.322978973388671875e+00 1.638945102691650391e+00 -2.291005849838256836e+00
1.766000000000000000e+03 3.088298034667968750e+01 -1.338942146301269531e+01 -3.046887397766113281e+00 5.526484966278076172e+00 7.438793778419494629e-01 2.527367591857910156e+00
1.767000000000000000e+03 2.785065269470214844e+01 2.461056858301162720e-01 3.427689149975776672e-02 6.425639152526855469e+00 1.937974929809570312e+00 -3.023355722427368164e+00
1.768000000000000000e+03 1.581754875183105469e+01 -6.557798862457275391e+00 2.231453180313110352e+00 8.202012062072753906e+00 3.130039453506469727e+00 1.845311760902404785e+00
1.769000000000000000e+03 2.741577911376953125e+01 -1.420139122009277344e+01 -2.906956195831298828e+00 4.863046646118164062e+00 5.868270993232727051e-01 2.018289089202880859e+00
1.770000000000000000e+03 2.589207267761230469e+01 -1.894899368286132812e+01 1.657865881919860840e+00 3.631698131561279297e+00 1.586869239807128906e+00 3.037588298320770264e-01
1.771000000000000000e+03 3.151583862304687500e+01 -6.864279747009277344e+00 2.368374109268188477e+00 7.816420078277587891e+00 3.055438280105590820e+00 -3.737007975578308105e-01
1.772000000000000000e+03 1.811756515502929688e+01 -9.784982800483703613e-01 -1.149613857269287109e+00 1.012850475311279297e+01 2.693667173385620117e+00 5.450224399566650391e+00
1.773000000000000000e+03 1.924570655822753906e+01 -1.442541360855102539e+00 1.641102433204650879e+00 8.196067810058593750e+00 2.951151132583618164e+00 4.814690589904785156e+00
1.774000000000000000e+03 3.197750282287597656e+01 -8.043194770812988281e+00 2.794964313507080078e+00 6.620530605316162109e+00 2.824648618698120117e+00 3.673592954874038696e-02
1.775000000000000000e+03 1.842914772033691406e+01 -1.117172718048095703e+01 -5.858192220330238342e-03 3.822482347488403320e+00 1.144987225532531738e+00 -1.935086131095886230e+00
1.776000000000000000e+03 4.338674545288085938e+01 7.057341575622558594e+00 3.755903840065002441e-01 6.892680168151855469e+00 2.180481195449829102e+00 1.759411692619323730e-01
1.777000000000000000e+03 4.167994689941406250e+01 9.048051834106445312e+00 1.170882433652877808e-01 8.535116195678710938e+00 2.595661163330078125e+00 9.833880662918090820e-01
1.778000000000000000e+03 4.053509140014648438e+01 1.756614112854003906e+01 1.811763644218444824e+00 3.287858247756958008e+00 1.529886603355407715e+00 -8.627940416336059570e-01
1.779000000000000000e+03 2.631155776977539062e+01 1.476543712615966797e+01 -4.148465633392333984e+00 -3.261315226554870605e-01 -1.342379212379455566e+00 4.801024198532104492e-01
1.780000000000000000e+03 2.318401527404785156e+01 1.604439544677734375e+01 -2.117602586746215820e+00 5.923106670379638672e+00 1.141651272773742676e+00 -4.157178103923797607e-01
1.781000000000000000e+03 4.592484664916992188e+01 7.264725208282470703e+00 -1.560924351215362549e-01 3.753983259201049805e+00 1.079367280006408691e+00 -1.138422846794128418e+00
1.782000000000000000e+03 4.691304397583007812e+01 6.447084903717041016e+00 -5.185914635658264160e-01 2.004201173782348633e+00 4.456829130649566650e-01 -7.312239408493041992e-01
1.783000000000000000e+03 6.001990509033203125e+01 1.639958000183105469e+01 2.132655620574951172e+00 9.255156517028808594e+00 3.416343688964843750e+00 2.100508451461791992e+00
1.784000000000000000e+03 6.618934631347656250e+01 2.670845222473144531e+01 2.426089525222778320e+00 5.034057617187500000e+00 2.238044261932373047e+00 1.105759382247924805e+00
1.785000000000000000e+03 6.762991333007812500e+01 2.066030883789062500e+01 -3.403421401977539062e+00 2.409830987453460693e-01 -9.487314820289611816e-01 -1.024022549390792847e-01
1.786000000000000000e+03 1.936007118225097656e+01 -1.442266178131103516e+01 -2.528501510620117188e+00 2.998816967010498047e+00 1.410946995019912720e-01 -8.322290182113647461e-01
1.787000000000000000e+03 2.201937675476074219e+01 -1.576859092712402344e+01 -9.553283452987670898e-01 -1.711190491914749146e-01 -3.379342257976531982e-01 -9.225511550903320312e-01
1.788000000000000000e+03 1.667883872985839844e+01 3.032510757446289062e+00 2.274239778518676758e+00 1.854563653469085693e-01 7.379088401794433594e-01 -1.203511595726013184e+00
1.789000000000000000e+03 1.647544288635253906e+01 3.022035598754882812e+00 2.078894853591918945e+00 -5.147343128919601440e-02 6.082264184951782227e-01 -1.126471877098083496e+00
1.790000000000000000e+03 1.872124290466308594e+01 3.309975147247314453e+00 1.216083765029907227e+00 8.370530128479003906e+00 2.875983953475952148e+00 -8.896783590316772461e-01
1.791000000000000000e+03 1.742874717712402344e+01 3.594531536102294922e+00 2.285566329956054688e+00 2.049381017684936523e+00 1.300484180450439453e+00 -1.901452302932739258e+00
1.792000000000000000e+03 1.688228034973144531e+01 3.043547153472900391e+00 2.541026353836059570e+00 3.683043718338012695e-01 8.727992177009582520e-01 -1.351325154304504395e+00
1.793000000000000000e+03 1.824971961975097656e+01 6.553850650787353516e+00 -1.234925508499145508e+00 1.893268823623657227e+00 1.975030004978179932e-01 3.217808008193969727e-01
1.794000000000000000e+03 2.005961036682128906e+01 2.731958389282226562e+00 3.830193996429443359e+00 9.250061988830566406e+00 3.924076795578002930e+00 5.110012054443359375e+00
1.795000000000000000e+03 1.911730003356933594e+01 -1.118752285838127136e-01 -2.093454837799072266e+00 1.393136405944824219e+01 3.551372766494750977e+00 5.192679882049560547e+00
1.796000000000000000e+03 2.093054962158203125e+01 7.149704098701477051e-01 4.079940795898437500e+00 1.302499532699584961e+00 1.614732027053833008e+00 3.023828268051147461e-01
1.797000000000000000e+03 1.994581413269042969e+01 3.331321716308593750e+00 1.893311738967895508e+00 8.598391532897949219e+00 3.147511005401611328e+00 3.752941846847534180e+00
1.798000000000000000e+03 2.195853233337402344e+01 4.943280518054962158e-01 6.943665146827697754e-01 -4.212472736835479736e-01 8.193578571081161499e-02 -9.505200982093811035e-01
1.799000000000000000e+03 2.135144424438476562e+01 5.825246572494506836e-01 2.493678569793701172e+00 -2.010422646999359131e-01 6.877908706665039062e-01 -3.715739846229553223e-01
1.800000000000000000e+03 2.000286483764648438e+01 -1.411532908678054810e-01 -3.347954750061035156e-01 7.694118499755859375e+00 2.207797050476074219e+00 2.874601602554321289e+00
1.801000000000000000e+03 2.068392372131347656e+01 2.297855854034423828e+00 6.332534790039062500e+00 5.287921428680419922e+00 3.486136913299560547e+00 5.045867919921875000e+00
1.802000000000000000e+03 1.903462409973144531e+01 3.128154516220092773e+00 1.011608004570007324e+00 1.006263542175292969e+01 3.322273015975952148e+00 2.158107608556747437e-01
1.803000000000000000e+03 2.080429267883300781e+01 3.300478458404541016e+00 3.289038419723510742e+00 5.687313079833984375e+00 2.692905426025390625e+00 4.315768718719482422e+00
1.804000000000000000e+03 1.834311676025390625e+01 -2.894513607025146484e-01 -1.342846274375915527e+00 1.082990550994873047e+01 2.846117734909057617e+00 7.366017818450927734e+00
1.805000000000000000e+03 1.584654998779296875e+01 4.440890789031982422e+00 1.439105033874511719e+00 -6.250135600566864014e-02 4.129811227321624756e-01 -1.939436674118041992e+00
1.806000000000000000e+03 1.618533897399902344e+01 3.648092746734619141e+00 1.779840946197509766e+00 -3.396047651767730713e-02 5.237641334533691406e-01 -1.580730080604553223e+00
1.807000000000000000e+03 1.894058990478515625e+01 -7.840502262115478516e-01 -3.352426290512084961e+00 1.191244697570800781e+01 2.568006277084350586e+00 5.615996360778808594e+00
1.808000000000000000e+03 1.480195617675781250e+01 3.504245281219482422e+00 1.083760023117065430e+00 -2.531228363513946533e-01 2.491911649703979492e-01 -1.315842270851135254e+00
1.809000000000000000e+03 1.545159816741943359e+01 3.911486387252807617e+00 1.559425592422485352e+00 -2.813108861446380615e-01 3.834344148635864258e-01 -1.504229426383972168e+00
1.810000000000000000e+03 1.105034065246582031e+01 4.473213672637939453e+00 2.672859132289886475e-01 8.871887922286987305e-01 3.463424146175384521e-01 -5.403173565864562988e-01
1.811000000000000000e+03 1.205725002288818359e+01 3.107460260391235352e+00 -1.560924202203750610e-01 2.635727524757385254e-01 3.224410116672515869e-02 -6.251050233840942383e-01
1.812000000000000000e+03 1.020694637298583984e+01 5.152168750762939453e+00 3.823610842227935791e-01 1.079413771629333496e+00 4.385324716567993164e-01 -4.242611229419708252e-01
1.813000000000000000e+03 1.118475818634033203e+01 3.735457658767700195e+00 -1.385652422904968262e-01 6.249938607215881348e-01 1.459285914897918701e-01 -4.908364117145538330e-01
1.814000000000000000e+03 1.302257633209228516e+01 -2.048422336578369141e+00 6.738634705543518066e-01 3.678453564643859863e-01 3.125126361846923828e-01 -4.140585660934448242e-01
1.815000000000000000e+03 1.586995792388916016e+01 -1.178364038467407227e+00 7.139813899993896484e-01 3.413517236709594727e+00 1.238249540328979492e+00 1.643621444702148438e+00
1.816000000000000000e+03 1.192724990844726562e+01 3.846524238586425781e+00 9.148332476615905762e-02 5.117158889770507812e-01 1.809597611427307129e-01 -8.588863015174865723e-01
1.817000000000000000e+03 1.146295928955078125e+01 -2.296638488769531250e+00 4.055011868476867676e-01 -3.794864714145660400e-01 7.804413326084613800e-03 -7.139919400215148926e-01
1.818000000000000000e+03 1.401863098144531250e+01 -3.582005500793457031e+00 2.886100769042968750e+00 2.368052721023559570e+00 1.576246023178100586e+00 8.975927829742431641e-01
1.819000000000000000e+03 1.417767238616943359e+01 3.467488765716552734e+00 6.492218971252441406e-01 -1.268200427293777466e-01 1.567205488681793213e-01 -1.191519498825073242e+00
1.820000000000000000e+03 1.325997924804687500e+01 4.129995822906494141e+00 4.947355091571807861e-01 3.162999451160430908e-01 2.433106303215026855e-01 -1.392373919486999512e+00
1.821000000000000000e+03 4.354142665863037109e+00 -3.827904462814331055e+00 4.821058735251426697e-02 -1.180193796753883362e-01 -2.094263769686222076e-02 -2.643816471099853516e-01
1.822000000000000000e+03 8.378693580627441406e+00 -4.239011764526367188e+00 8.310323953628540039e-01 -4.269416928291320801e-01 1.212272197008132935e-01 -2.067569643259048462e-01
1.823000000000000000e+03 6.636562347412109375e+00 -3.552459239959716797e+00 1.885515302419662476e-01 -2.417754232883453369e-01 -1.596716605126857758e-02 -3.769986331462860107e-01
1.824000000000000000e+03 8.324760437011718750e+00 -3.458928823471069336e+00 4.886899590492248535e-01 -4.226406812667846680e-01 1.981478370726108551e-02 -4.523706436157226562e-01
1.825000000000000000e+03 5.837285041809082031e+00 -2.728610277175903320e+00 -1.017295047640800476e-01 -1.519435346126556396e-01 -7.610191404819488525e-02 -3.859018683433532715e-01
1.826000000000000000e+03 5.753657341003417969e+00 -4.433397769927978516e+00 2.827757894992828369e-01 -1.706926077604293823e-01 3.362495079636573792e-02 -2.242772132158279419e-01
1.827000000000000000e+03 5.036548137664794922e+00 -3.541943550109863281e+00 5.420375242829322815e-02 -1.575742363929748535e-01 -3.101114556193351746e-02 -3.161745667457580566e-01
1.828000000000000000e+03 2.277984857559204102e+00 -3.226037740707397461e+00 -2.312892302870750427e-02 -1.329542100429534912e-01 -4.682493954896926880e-02 -1.975591033697128296e-01
1.829000000000000000e+03 1.526379346847534180e+00 -4.929554462432861328e+00 1.175635401159524918e-02 -2.924385666847229004e-01 -8.420466631650924683e-02 -1.421429961919784546e-01
1.830000000000000000e+03 1.518725681304931641e+01 4.494545459747314453e+00 1.010041475296020508e+00 -1.173339709639549255e-01 2.678122520446777344e-01 -1.804425835609436035e+00
1.831000000000000000e+03 1.068037509918212891e+01 -2.427657365798950195e+00 2.858963608741760254e-01 -5.575811862945556641e-01 -8.150544017553329468e-02 -7.577747106552124023e-01
1.832000000000000000e+03 1.229315853118896484e+01 -2.886715412139892578e+00 1.482938170433044434e+00 1.497120410203933716e-01 4.897950589656829834e-01 -2.820531129837036133e-01
1.833000000000000000e+03 1.077462100982666016e+01 -3.136623859405517578e+00 1.065482854843139648e+00 -4.296828806400299072e-01 1.907399892807006836e-01 -4.712734520435333252e-01
1.834000000000000000e+03 1.382540702819824219e+01 -4.432273864746093750e+00 3.325545072555541992e+00 2.752341032028198242e+00 1.823365807533264160e+00 1.116027832031250000e+00
1.835000000000000000e+03 3.667832612991333008e+00 2.670691013336181641e+00 -2.354004532098770142e-01 -7.488029450178146362e-02 -9.308422356843948364e-02 4.459698796272277832e-01
1.836000000000000000e+03 5.961946487426757812e+00 3.682418107986450195e+00 -1.974249631166458130e-01 1.509531885385513306e-01 -1.394153386354446411e-02 4.686424434185028076e-01
1.837000000000000000e+03 4.282935619354248047e+00 3.588432073593139648e+00 -1.561969369649887085e-01 -3.404895961284637451e-02 -5.707376822829246521e-02 5.136402249336242676e-01
1.838000000000000000e+03 4.420231819152832031e+00 2.719979286193847656e+00 -2.986525297164916992e-01 -2.042019739747047424e-02 -9.572181850671768188e-02 4.600375294685363770e-01
1.839000000000000000e+03 4.866615235805511475e-01 3.546018838882446289e+00 -1.899781636893749237e-02 -4.239547848701477051e-01 -1.328857839107513428e-01 1.089453399181365967e-01
1.840000000000000000e+03 1.380254149436950684e+00 3.240764141082763672e+00 -4.412785917520523071e-02 -3.289751410484313965e-01 -1.119308993220329285e-01 2.672993540763854980e-01
1.841000000000000000e+03 6.824704170227050781e+00 3.597841024398803711e+00 -2.550339996814727783e-01 2.460220009088516235e-01 -2.703602658584713936e-03 4.019642472267150879e-01
1.842000000000000000e+03 9.085076332092285156e+00 3.417000293731689453e+00 -2.952932417392730713e-01 4.981392323970794678e-01 6.085379049181938171e-02 2.490765042603015900e-02
1.843000000000000000e+03 8.402070999145507812e+00 4.121453762054443359e+00 -1.076654940843582153e-01 5.650073885917663574e-01 1.372025609016418457e-01 1.688560396432876587e-01
1.844000000000000000e+03 2.277210044860839844e+01 7.117304205894470215e-01 2.846720255911350250e-02 -5.663266777992248535e-01 -1.613578498363494873e-01 -7.828507423400878906e-01
1.845000000000000000e+03 2.429544067382812500e+01 3.028691530227661133e+00 2.564076423645019531e+00 2.263520956039428711e+00 1.448279261589050293e+00 3.352009356021881104e-01
1.846000000000000000e+03 9.169112205505371094e+00 -3.390677213668823242e+00 6.584785580635070801e-01 -5.162378549575805664e-01 4.267221689224243164e-02 -4.547814428806304932e-01
1.847000000000000000e+03 9.987639427185058594e+00 -3.270018577575683594e+00 8.673108816146850586e-01 -5.514789819717407227e-01 9.474956989288330078e-02 -5.168101191520690918e-01
1.848000000000000000e+03 4.181917572021484375e+01 1.019241428375244141e+01 4.096498191356658936e-01 8.116679191589355469e+00 2.557898759841918945e+00 1.234591126441955566e+00
1.849000000000000000e+03 4.051583862304687500e+01 8.975283622741699219e+00 3.572602570056915283e-01 8.488978385925292969e+00 2.653871536254882812e+00 9.223163723945617676e-01
1.850000000000000000e+03 2.804334068298339844e+01 -1.569914722442626953e+01 -2.213360309600830078e+00 6.201172351837158203e+00 1.196343660354614258e+00 1.762725591659545898e+00
1.851000000000000000e+03 3.125650024414062500e+01 -1.446021461486816406e+01 -4.657545566558837891e+00 5.822044372558593750e+00 3.493495583534240723e-01 2.113590002059936523e+00
1.852000000000000000e+03 2.093378067016601562e+01 3.532155156135559082e-01 1.446043848991394043e+00 4.981626570224761963e-01 5.832619667053222656e-01 1.163660734891891479e-01
1.853000000000000000e+03 3.942949295043945312e+01 -2.923967170715332031e+01 -1.732496857643127441e+00 9.214750289916992188e+00 2.244676113128662109e+00 1.525635361671447754e+00
1.854000000000000000e+03 4.462157058715820312e+01 1.857770919799804688e+01 -2.118601799011230469e-01 6.903494834899902344e+00 2.007490396499633789e+00 1.787665605545043945e+00
1.855000000000000000e+03 4.231236267089843750e+01 2.064777374267578125e+01 -3.024320006370544434e-01 2.210202932357788086e+00 5.723312497138977051e-01 1.616842031478881836e+00
1.856000000000000000e+03 3.437179183959960938e+01 2.161251449584960938e+01 3.265642821788787842e-01 7.647912025451660156e+00 2.392342805862426758e+00 -5.642691850662231445e-01
1.857000000000000000e+03 3.230891418457031250e+01 -1.391232872009277344e+01 -3.479674816131591797e+00 3.147955656051635742e+00 -9.951574355363845825e-02 2.556045055389404297e+00
1.858000000000000000e+03 3.302636337280273438e+01 -1.053498744964599609e+01 2.524380207061767578e+00 4.255882740020751953e+00 2.034078836441040039e+00 1.824856847524642944e-01
1.859000000000000000e+03 3.259805679321289062e+01 2.766763496398925781e+01 8.311867713928222656e-01 7.222786903381347656e+00 2.416192054748535156e+00 -4.670571088790893555e-01
1.860000000000000000e+03 3.320913696289062500e+01 2.647901916503906250e+01 9.158479571342468262e-01 8.553923606872558594e+00 2.840931653976440430e+00 7.912249863147735596e-02
1.861000000000000000e+03 1.141714859008789062e+01 -2.518544006347656250e+01 -8.177644610404968262e-01 9.967277646064758301e-01 5.368899181485176086e-02 1.089411258697509766e+00
1.862000000000000000e+03 1.207290172576904297e+01 -3.188140106201171875e+01 1.216043353080749512e+00 3.498041152954101562e+00 1.414225339889526367e+00 1.247996091842651367e+00
1.863000000000000000e+03 4.490524291992187500e+01 7.914986133575439453e+00 -4.091932475566864014e-01 5.825006961822509766e+00 1.624744176864624023e+00 -3.161835670471191406e-01
1.864000000000000000e+03 4.735626220703125000e+01 2.746519660949707031e+01 1.546115994453430176e+00 8.590533256530761719e+00 3.040994644165039062e+00 1.109458208084106445e+00
1.865000000000000000e+03 5.131547927856445312e+01 3.027327728271484375e+01 1.560555696487426758e+00 7.006599903106689453e+00 2.570146560668945312e+00 8.246316909790039062e-01
1.866000000000000000e+03 3.256306076049804688e+01 1.926421356201171875e+01 8.102608323097229004e-01 1.008079433441162109e+01 3.267316579818725586e+00 1.196393132209777832e+00
1.867000000000000000e+03 3.953260040283203125e+01 1.901050949096679688e+01 1.392798423767089844e+00 1.884036064147949219e+00 9.830503463745117188e-01 -1.241259932518005371e+00
1.868000000000000000e+03 3.213169097900390625e+01 1.412441730499267578e+01 -1.683402180671691895e+00 5.197776794433593750e+00 1.054312467575073242e+00 2.722866058349609375e+00
1.869000000000000000e+03 3.021880340576171875e+01 1.343062591552734375e+01 -1.329692244529724121e+00 5.301402091979980469e+00 1.191512942314147949e+00 4.230349540710449219e+00
1.870000000000000000e+03 5.221630477905273438e+01 3.074206733703613281e+01 1.455758333206176758e+00 7.587959289550781250e+00 2.713115215301513672e+00 1.415729761123657227e+00
1.871000000000000000e+03 3.156228446960449219e+01 -3.922139406204223633e-01 5.212948918342590332e-01 4.460850238800048828e+00 1.494643568992614746e+00 -1.398529171943664551e+00
1.872000000000000000e+03 4.082616806030273438e+01 -2.198034095764160156e+01 1.795192360877990723e+00 8.339575767517089844e+00 3.040430545806884766e+00 3.071724474430084229e-01
1.873000000000000000e+03 4.127470779418945312e+01 -2.302499580383300781e+01 2.234248876571655273e+00 6.685698032379150391e+00 2.675983905792236328e+00 1.903610706329345703e+00
1.874000000000000000e+03 2.883358001708984375e+01 -2.848912239074707031e+01 -1.790567755699157715e+00 5.227890968322753906e+00 1.031196951866149902e+00 -3.206484913825988770e-01
1.875000000000000000e+03 2.482695579528808594e+01 2.086165428161621094e+00 1.653979063034057617e+00 1.750534057617187500e+00 1.021353960037231445e+00 -9.497228860855102539e-01
1.876000000000000000e+03 3.503771591186523438e+01 -1.429597568511962891e+01 -5.516698360443115234e+00 4.646725356578826904e-01 -1.515607714653015137e+00 -8.714540004730224609e-01
1.877000000000000000e+03 3.268526840209960938e+01 1.844996261596679688e+01 1.665156483650207520e+00 8.229495048522949219e+00 2.968395471572875977e+00 1.280305624008178711e+00
1.878000000000000000e+03 6.820430755615234375e+01 4.989418983459472656e+00 9.733913093805313110e-02 1.533468484878540039e+00 4.892423152923583984e-01 1.824837207794189453e+00
1.879000000000000000e+03 6.733965301513671875e+01 7.000887393951416016e-01 4.790866374969482422e-01 3.158761262893676758e+00 1.091354370117187500e+00 1.931389212608337402e+00
1.880000000000000000e+03 4.481325149536132812e+01 -2.646837997436523438e+01 -1.752313852310180664e+00 2.065810441970825195e+00 9.404899179935455322e-02 -2.633147001266479492e+00
1.881000000000000000e+03 7.172485351562500000e+01 3.715607821941375732e-01 1.071075648069381714e-01 1.255733132362365723e+00 4.088521897792816162e-01 -2.007335238158702850e-02
1.882000000000000000e+03 7.115985107421875000e+01 4.300968170166015625e+00 -5.488539487123489380e-02 3.888287305831909180e+00 1.150020599365234375e+00 1.178373813629150391e+00
1.883000000000000000e+03 6.731465148925781250e+01 3.036237716674804688e+01 1.063786506652832031e+00 5.340591430664062500e+00 1.921313405036926270e+00 9.137979745864868164e-01
1.884000000000000000e+03 6.467414093017578125e+01 3.137786674499511719e+01 7.801598906517028809e-01 5.551113605499267578e+00 1.899381995201110840e+00 3.911247849464416504e-01
1.885000000000000000e+03 9.290023803710937500e+00 -4.984592437744140625e+00 1.460951685905456543e+00 -4.613405466079711914e-01 2.998833358287811279e-01 8.856310695409774780e-02
1.886000000000000000e+03 1.098387908935546875e+01 -1.122216796875000000e+01 -8.104900270700454712e-02 -4.067456126213073730e-01 -1.463383883237838745e-01 2.432196378707885742e+00
1.887000000000000000e+03 4.259116744995117188e+01 7.835766077041625977e-01 9.528816342353820801e-01 4.084732532501220703e+00 1.511284232139587402e+00 -1.219493627548217773e+00
1.888000000000000000e+03 6.033337020874023438e+01 2.405048370361328125e+00 -1.437902450561523438e+00 5.158433914184570312e+00 1.116159319877624512e+00 -2.210297107696533203e+00
1.889000000000000000e+03 5.220046615600585938e+01 2.621944999694824219e+01 1.822299361228942871e+00 6.169362545013427734e+00 2.397498607635498047e+00 -2.720906436443328857e-01
1.890000000000000000e+03 5.132918548583984375e+01 2.384926986694335938e+01 7.810963392257690430e-01 5.172430038452148438e+00 1.786057949066162109e+00 -6.632965207099914551e-01
1.891000000000000000e+03 4.192855453491210938e+01 -2.407066535949707031e+01 2.596024990081787109e+00 4.236634731292724609e+00 2.049798011779785156e+00 1.297533035278320312e+00
1.892000000000000000e+03 1.111927127838134766e+01 -4.093487930297851562e+01 -1.442324519157409668e+00 1.849214911460876465e+00 1.220671236515045166e-01 3.577365577220916748e-01
1.893000000000000000e+03 3.381381225585937500e+01 2.958844566345214844e+01 8.830947279930114746e-01 8.414172172546386719e+00 2.789180040359497070e+00 -4.033873081207275391e-01
1.894000000000000000e+03 6.272905349731445312e+01 -5.707193374633789062e+00 1.531720876693725586e+00 9.902067184448242188e+00 3.430136442184448242e+00 1.887258440256118774e-01
1.895000000000000000e+03 1.147206306457519531e+01 6.184986114501953125e+00 9.469716548919677734e-01 1.318101763725280762e+00 6.795219779014587402e-01 -9.154576063156127930e-01
1.896000000000000000e+03 5.924064254760742188e+01 1.788680076599121094e+00 -1.240248441696166992e+00 4.531507492065429688e+00 9.873777627944946289e-01 -2.529643058776855469e+00
1.897000000000000000e+03 5.560379028320312500e+01 7.568925857543945312e+00 1.645986557006835938e+00 7.987010955810546875e+00 2.889899253845214844e+00 7.334991693496704102e-01
1.898000000000000000e+03 6.041393661499023438e+01 1.080504226684570312e+01 1.600101351737976074e+00 8.099822044372558594e+00 2.909976959228515625e+00 -1.073511958122253418e+00
1.899000000000000000e+03 5.640888214111328125e+01 1.416659259796142578e+01 1.674489140510559082e+00 7.273207664489746094e+00 2.684309005737304688e+00 1.960021108388900757e-01
1.900000000000000000e+03 4.767227172851562500e+01 -2.769412231445312500e+01 -6.527974009513854980e-01 5.482210159301757812e+00 1.448823928833007812e+00 -3.700230598449707031e+00
1.901000000000000000e+03 4.845726013183593750e+01 -2.833007049560546875e+01 1.202105730772018433e-01 5.608676910400390625e+00 1.718666195869445801e+00 -3.301776409149169922e+00
1.902000000000000000e+03 1.373830413818359375e+01 1.909316635131835938e+01 1.513397395610809326e-01 -1.481683105230331421e-01 9.514263947494328022e-04 -7.330302894115447998e-02
1.903000000000000000e+03 6.875354003906250000e+01 5.871840953826904297e+00 -1.062495335936546326e-01 1.631089806556701660e+00 4.574520885944366455e-01 2.079125165939331055e+00
1.904000000000000000e+03 5.070108032226562500e+01 1.958346748352050781e+01 -1.249821424484252930e+00 2.743446350097656250e+00 4.480874836444854736e-01 -1.656510472297668457e+00
1.905000000000000000e+03 6.355607604980468750e+01 3.618067550659179688e+01 -1.299782872200012207e+00 3.895347833633422852e+00 7.786695361137390137e-01 -2.976995110511779785e-01
1.906000000000000000e+03 6.356129455566406250e+01 -2.029055023193359375e+01 1.744164109230041504e+00 8.396046638488769531e+00 3.042063236236572266e+00 -1.624573588371276855e+00
1.907000000000000000e+03 1.701158714294433594e+01 -2.593318176269531250e+01 -1.214828491210937500e+00 1.917066097259521484e+00 2.106713056564331055e-01 1.591311216354370117e+00
1.908000000000000000e+03 3.036551284790039062e+01 2.303127288818359375e+00 -1.053902387619018555e+00 5.105976581573486328e+00 1.215622305870056152e+00 -1.710187077522277832e+00
1.909000000000000000e+03 2.040169143676757812e+01 1.434149551391601562e+01 9.718742966651916504e-01 1.266228008270263672e+01 4.090246200561523438e+00 -1.567926764488220215e+00
1.910000000000000000e+03 2.283782577514648438e+01 1.339877891540527344e+01 2.679099440574645996e-01 5.542824268341064453e+00 1.743220329284667969e+00 -1.886414289474487305e+00
1.911000000000000000e+03 1.392820739746093750e+01 5.387785434722900391e+00 3.901708126068115234e-01 4.841450452804565430e-01 2.622947394847869873e-01 -1.886938214302062988e+00
1.912000000000000000e+03 7.555432891845703125e+01 3.478818416595458984e+00 -3.095347583293914795e-01 6.834335803985595703e+00 1.957440257072448730e+00 -7.749434709548950195e-01
1.913000000000000000e+03 4.788783264160156250e+01 5.542060375213623047e+00 -9.751769304275512695e-01 1.411339879035949707e+00 1.308488696813583374e-01 -8.984848260879516602e-01
1.914000000000000000e+03 2.046500396728515625e+01 8.300811767578125000e+00 -1.286946415901184082e+00 5.786811828613281250e+00 1.349959611892700195e+00 3.832697868347167969e-01
1.915000000000000000e+03 6.059155273437500000e+01 -4.042561054229736328e-01 -6.109544038772583008e-01 6.526046276092529297e+00 1.774527549743652344e+00 -1.823682785034179688e+00
1.916000000000000000e+03 1.705022811889648438e+01 5.529537677764892578e+00 2.468409985303878784e-01 4.028555750846862793e-01 1.949089765548706055e-01 -1.268474936485290527e+00
1.917000000000000000e+03 7.357455444335937500e+01 -3.863009643554687500e+01 -2.681837677955627441e-01 6.736209869384765625e+00 1.940407752990722656e+00 -6.296503543853759766e-01
1.918000000000000000e+03 7.566448974609375000e+01 -3.560647964477539062e+01 9.651034325361251831e-02 6.937508106231689453e+00 2.110205411911010742e+00 -3.888827860355377197e-01
1.919000000000000000e+03 7.819562530517578125e+01 1.954730033874511719e+01 -1.603568941354751587e-01 7.278863430023193359e+00 2.135551929473876953e+00 4.077909886837005615e-01
1.920000000000000000e+03 7.210881805419921875e+01 1.736418151855468750e+01 -6.011535525321960449e-01 8.040725708007812500e+00 2.231871843338012695e+00 -5.723216533660888672e-01
1.921000000000000000e+03 7.734993743896484375e+01 -2.434628295898437500e+01 4.306865930557250977e-01 7.777460575103759766e+00 2.462444067001342773e+00 -4.127317368984222412e-01
1.922000000000000000e+03 7.379048919677734375e+01 -2.617532730102539062e+01 -1.751389980316162109e+00 8.496137619018554688e+00 2.023424386978149414e+00 9.069188237190246582e-01
1.923000000000000000e+03 7.758843994140625000e+01 3.650960540771484375e+01 -7.587555795907974243e-02 7.048124313354492188e+00 2.091674566268920898e+00 1.816477477550506592e-01
1.924000000000000000e+03 7.655438995361328125e+01 3.358805847167968750e+01 1.141688823699951172e-01 6.661763668060302734e+00 2.032779693603515625e+00 1.661565303802490234e-01
1.925000000000000000e+03 7.650922393798828125e+01 -2.541686439514160156e+01 -1.061793491244316101e-01 8.272961616516113281e+00 2.450034856796264648e+00 -6.353641152381896973e-01
1.926000000000000000e+03 7.777945709228515625e+01 -2.857835197448730469e+01 -1.709326654672622681e-01 7.564759254455566406e+00 2.218147993087768555e+00 -7.900746166706085205e-02
1.927000000000000000e+03 7.824121093750000000e+01 -2.738058471679687500e+01 -1.863711774349212646e-01 7.594997882843017578e+00 2.222588062286376953e+00 -2.201089709997177124e-01
1.928000000000000000e+03 7.465179443359375000e+01 -2.522657775878906250e+01 -2.841419167816638947e-02 8.709300994873046875e+00 2.604266166687011719e+00 -3.173123598098754883e-01
1.929000000000000000e+03 7.641300201416015625e+01 -2.331113433837890625e+01 9.931700825691223145e-01 8.723153114318847656e+00 2.914896965026855469e+00 3.748970478773117065e-02
1.930000000000000000e+03 7.615745544433593750e+01 -3.153726768493652344e+01 1.526600122451782227e-01 6.858130455017089844e+00 2.103237152099609375e+00 1.452225595712661743e-01
1.931000000000000000e+03 7.595288848876953125e+01 -3.427714538574218750e+01 2.486627548933029175e-01 6.803937911987304688e+00 2.115780115127563477e+00 -2.319061756134033203e-01
1.932000000000000000e+03 7.111171722412109375e+01 -3.388618087768554688e+01 1.252200365066528320e+00 5.189728260040283203e+00 1.932578563690185547e+00 -9.195389151573181152e-01
1.933000000000000000e+03 7.496695709228515625e+01 -4.060306549072265625e+01 -2.873198688030242920e-01 7.261909484863281250e+00 2.092376947402954102e+00 -3.217156231403350830e-01
1.934000000000000000e+03 7.811724853515625000e+01 2.233505249023437500e+01 -1.561801582574844360e-01 7.391320705413818359e+00 2.170542240142822266e+00 1.194810145534574986e-03
1.935000000000000000e+03 7.693537139892578125e+01 2.090392112731933594e+01 -4.362536966800689697e-01 7.293178558349609375e+00 2.057077407836914062e+00 1.792385429143905640e-01
1.936000000000000000e+03 7.582214355468750000e+01 2.218526840209960938e+01 -5.290406942367553711e-01 7.006013870239257812e+00 1.943091988563537598e+00 -1.929865181446075439e-01
1.937000000000000000e+03 7.701483154296875000e+01 1.560815906524658203e+01 2.667648494243621826e-01 7.076124668121337891e+00 2.202866792678833008e+00 7.259127497673034668e-01
1.938000000000000000e+03 7.813890838623046875e+01 1.410208320617675781e+01 2.397129833698272705e-01 6.323840141296386719e+00 1.969065904617309570e+00 3.683450222015380859e-01
1.939000000000000000e+03 7.463351440429687500e+01 1.304489517211914062e+01 1.252144098281860352e+00 8.768307685852050781e+00 3.006135463714599609e+00 1.668863594532012939e-01
1.940000000000000000e+03 7.826590728759765625e+01 -2.091826629638671875e+01 3.116741180419921875e-01 7.625033855438232422e+00 2.381012439727783203e+00 6.912994980812072754e-01
1.941000000000000000e+03 7.691204833984375000e+01 1.430080413818359375e+01 4.219551384449005127e-01 7.090920925140380859e+00 2.253862857818603516e+00 5.005313158035278320e-01
1.942000000000000000e+03 7.679110717773437500e+01 2.367024993896484375e+01 -2.057499438524246216e-01 7.002490520477294922e+00 2.039022207260131836e+00 -2.207359373569488525e-01
1.943000000000000000e+03 7.788879394531250000e+01 2.660688591003417969e+01 3.586303815245628357e-02 7.063528060913085938e+00 2.129817485809326172e+00 -1.837498694658279419e-01
1.944000000000000000e+03 7.801930999755859375e+01 3.082302474975585938e+01 4.049085453152656555e-02 6.913465023040771484e+00 2.086186885833740234e+00 -6.378124468028545380e-03
1.945000000000000000e+03 7.657727813720703125e+01 2.968754386901855469e+01 1.424525380134582520e-01 6.602201938629150391e+00 2.023396253585815430e+00 -8.688738197088241577e-02
1.946000000000000000e+03 7.829701995849609375e+01 -1.678760910034179688e+01 -1.618912816047668457e-01 8.977025032043457031e+00 2.644540309906005859e+00 9.470675587654113770e-01
1.947000000000000000e+03 7.585370635986328125e+01 -1.950265121459960938e+01 4.948433041572570801e-01 8.808562278747558594e+00 2.791021585464477539e+00 1.077314972877502441e+00
1.948000000000000000e+03 7.801393890380859375e+01 -7.016471862792968750e+00 7.008816003799438477e-01 9.179918289184570312e+00 2.964239835739135742e+00 -1.301436424255371094e-01
1.949000000000000000e+03 7.496344757080078125e+01 4.460234642028808594e+00 -3.470652997493743896e-01 6.804209232330322266e+00 1.937143206596374512e+00 -7.340266108512878418e-01
1.950000000000000000e+03 7.815102386474609375e+01 -2.819700241088867188e+00 -2.214585542678833008e-01 9.052097320556640625e+00 2.649191856384277344e+00 6.204342842102050781e-01
1.951000000000000000e+03 7.815469360351562500e+01 -1.443376541137695312e+00 -2.454213649034500122e-01 8.951666831970214844e+00 2.611873626708984375e+00 3.432308435440063477e-01
1.952000000000000000e+03 7.496682739257812500e+01 2.868248558044433594e+01 2.921860516071319580e-01 6.168251514434814453e+00 1.938131332397460938e+00 -1.840734332799911499e-01
1.953000000000000000e+03 7.701047515869140625e+01 1.950122070312500000e+01 -3.880448937416076660e-01 7.342559814453125000e+00 2.086354494094848633e+00 5.266235470771789551e-01
1.954000000000000000e+03 7.811038208007812500e+01 6.909117698669433594e+00 -6.559117231518030167e-03 7.327147006988525391e+00 2.196176290512084961e+00 -8.802411556243896484e-01
1.955000000000000000e+03 7.691307830810546875e+01 6.918303012847900391e+00 -4.456163197755813599e-02 7.398948669433593750e+00 2.206315994262695312e+00 -1.059662818908691406e+00
1.956000000000000000e+03 7.432601928710937500e+01 -1.394573116302490234e+01 -1.189197540283203125e+00 5.360412597656250000e+00 1.251364469528198242e+00 9.393399953842163086e-01
1.957000000000000000e+03 7.716751861572265625e+01 -2.092803382873535156e+01 5.927177667617797852e-01 8.148324966430664062e+00 2.622312784194946289e+00 7.712482810020446777e-01
1.958000000000000000e+03 7.611341094970703125e+01 -1.450863838195800781e+01 -1.004366397857666016e+00 8.042450904846191406e+00 2.111425399780273438e+00 6.966248750686645508e-01
1.959000000000000000e+03 7.535444641113281250e+01 3.133184623718261719e+01 2.253018617630004883e-01 6.362972259521484375e+00 1.976482272148132324e+00 7.246525585651397705e-02
1.960000000000000000e+03 7.672621917724609375e+01 3.226997756958007812e+01 9.918584674596786499e-02 6.675442218780517578e+00 2.032388448715209961e+00 1.088871508836746216e-01
1.961000000000000000e+03 7.388045501708984375e+01 1.777893257141113281e+01 -7.506456971168518066e-01 7.928876399993896484e+00 2.153469085693359375e+00 3.671796321868896484e-01
1.962000000000000000e+03 7.583915710449218750e+01 2.102701759338378906e+01 -5.385853052139282227e-01 7.181293010711669922e+00 1.992812275886535645e+00 9.012149274349212646e-02
1.963000000000000000e+03 7.698976898193359375e+01 8.345312118530273438e+00 1.660079956054687500e-01 7.229280471801757812e+00 2.218586444854736328e+00 -1.072113275527954102e+00
1.964000000000000000e+03 7.554963684082031250e+01 -1.449278712272644043e+00 -8.807765841484069824e-01 7.820005416870117188e+00 2.081768751144409180e+00 -4.324777424335479736e-01
1.965000000000000000e+03 7.770391845703125000e+01 3.502576446533203125e+01 2.041464485228061676e-02 6.967179298400878906e+00 2.096278190612792969e+00 1.603260785341262817e-01
1.966000000000000000e+03 7.337008666992187500e+01 4.935877799987792969e+00 -3.357153832912445068e-01 5.968489170074462891e+00 1.689832091331481934e+00 -6.239445134997367859e-02
1.967000000000000000e+03 7.690962219238281250e+01 2.482512235641479492e+00 -3.110081851482391357e-01 7.680041790008544922e+00 2.210710048675537109e+00 -7.312560677528381348e-01
1.968000000000000000e+03 7.677110290527343750e+01 5.407720565795898438e+00 -1.434509158134460449e-01 7.418556690216064453e+00 2.182531833648681641e+00 -1.012785911560058594e+00
1.969000000000000000e+03 7.507102203369140625e+01 -1.292665195465087891e+01 -1.574242115020751953e+00 6.984399795532226562e+00 1.623047232627868652e+00 8.239601254463195801e-01
1.970000000000000000e+03 7.604512786865234375e+01 -1.195545291900634766e+01 -1.404178619384765625e+00 8.742622375488281250e+00 2.201533317565917969e+00 7.769180834293365479e-02
1.971000000000000000e+03 7.595962524414062500e+01 -9.932048797607421875e+00 -3.089652024209499359e-02 1.014278888702392578e+01 3.033567667007446289e+00 -6.634569168090820312e-01
1.972000000000000000e+03 7.689368438720703125e+01 -2.854402780532836914e+00 -3.773557841777801514e-01 8.944380760192871094e+00 2.570107460021972656e+00 4.228479266166687012e-01
1.973000000000000000e+03 4.606924057006835938e+01 -1.542787361145019531e+01 -2.716604232788085938e+00 5.613023757934570312e+00 8.689259290695190430e-01 2.648415327072143555e+00
1.974000000000000000e+03 2.171512985229492188e+01 2.435267257690429688e+01 -2.015015929937362671e-01 9.778249740600585938e+00 2.873024463653564453e+00 3.659464120864868164e-01
1.975000000000000000e+03 2.187801742553710938e+01 2.541951370239257812e+01 -6.801949143409729004e-01 8.679282188415527344e+00 2.399726152420043945e+00 -5.696831345558166504e-01
1.976000000000000000e+03 6.499768066406250000e+01 -2.529526901245117188e+01 -1.031779766082763672e+00 8.429959297180175781e+00 2.219454050064086914e+00 -2.956412553787231445e+00
1.977000000000000000e+03 4.415199279785156250e+01 3.465401458740234375e+01 -1.390561699867248535e+00 2.775188684463500977e+00 4.153881072998046875e-01 -1.015739679336547852e+00
1.978000000000000000e+03 6.699878692626953125e+01 -2.766880416870117188e+01 1.751398295164108276e-01 6.339334964752197266e+00 1.954342365264892578e+00 -2.622035026550292969e+00
1.979000000000000000e+03 3.886191940307617188e+01 -1.645656394958496094e+01 -8.065666556358337402e-01 5.597184658050537109e+00 1.437185287475585938e+00 -1.945682168006896973e+00
1.980000000000000000e+03 3.914443206787109375e+01 -1.345797634124755859e+01 -2.729789495468139648e+00 5.516951084136962891e+00 8.361485004425048828e-01 -2.644382715225219727e+00
1.981000000000000000e+03 1.022340393066406250e+01 7.946198463439941406e+00 1.284738779067993164e+00 2.062370300292968750e+00 1.004132628440856934e+00 -1.147496581077575684e+00
1.982000000000000000e+03 2.812533378601074219e+01 -2.668992042541503906e+01 -1.458543300628662109e+00 5.923915386199951172e+00 1.339611649513244629e+00 8.948388509452342987e-03
1.983000000000000000e+03 1.849739193916320801e+00 3.190140533447265625e+01 -1.376370340585708618e-01 1.075847744941711426e+00 2.814632058143615723e-01 -6.742829084396362305e-01
1.984000000000000000e+03 4.496401786804199219e+00 3.261534500122070312e+01 -4.917552173137664795e-01 1.410699367523193359e+00 2.756832540035247803e-01 -6.977118253707885742e-01
1.985000000000000000e+03 3.000703573226928711e+00 2.795478630065917969e+01 4.574214220046997070e-01 1.032842993736267090e+00 4.470793008804321289e-01 -6.898059844970703125e-01
1.986000000000000000e+03 4.326351165771484375e+00 2.431033897399902344e+01 3.867316544055938721e-01 1.490702629089355469e+00 5.632302761077880859e-01 -1.590906232595443726e-01
1.987000000000000000e+03 3.068923473358154297e+00 2.966152763366699219e+01 1.138520166277885437e-01 1.332479238510131836e+00 4.338993728160858154e-01 -8.953697085380554199e-01
1.988000000000000000e+03 4.014685153961181641e+00 3.134654235839843750e+01 -2.794241905212402344e-01 1.455946683883666992e+00 3.529567718505859375e-01 -9.585511684417724609e-01
1.989000000000000000e+03 1.835214376449584961e+00 3.056517028808593750e+01 1.269539911299943924e-02 7.325969338417053223e-01 2.235877066850662231e-01 -6.923400163650512695e-01
1.990000000000000000e+03 3.282942771911621094e+00 3.879410934448242188e+01 -1.400692909955978394e-01 1.527541756629943848e+00 4.162417650222778320e-01 3.974270075559616089e-02
1.991000000000000000e+03 2.081590414047241211e+00 3.470378494262695312e+01 -1.744292527437210083e-01 1.518052816390991211e+00 4.030870795249938965e-01 -3.466186821460723877e-01
1.992000000000000000e+03 5.152382373809814453e+00 2.608393287658691406e+01 1.065324902534484863e+00 2.617229461669921875e+00 1.104766249656677246e+00 -6.026512384414672852e-01
1.993000000000000000e+03 3.307462453842163086e+00 3.312308120727539062e+01 -3.865153491497039795e-01 1.370805263519287109e+00 2.952869832515716553e-01 -6.890195012092590332e-01
1.994000000000000000e+03 3.763776063919067383e+00 -3.612587356567382812e+01 8.852490037679672241e-02 1.895933985710144043e+00 5.953376293182373047e-01 4.112090170383453369e-01
1.995000000000000000e+03 4.231149673461914062e+00 -3.699816513061523438e+01 1.648429461056366563e-04 1.945812940597534180e+00 5.837933421134948730e-01 4.379013180732727051e-01
1.996000000000000000e+03 1.765220403671264648e+00 -2.880291938781738281e+01 3.843926265835762024e-02 1.746525287628173828e+00 5.354893803596496582e-01 -2.540875077247619629e-01
1.997000000000000000e+03 7.041075706481933594e+00 -2.658526420593261719e+01 -5.845147743821144104e-02 5.216789245605468750e-01 1.389682292938232422e-01 -2.097876369953155518e-01
1.998000000000000000e+03 4.957745075225830078e+00 -3.476013565063476562e+01 2.555678486824035645e-01 1.753644108772277832e+00 6.027635931968688965e-01 4.763219058513641357e-01
1.999000000000000000e+03 3.068988084793090820e+00 -2.985520935058593750e+01 1.644794940948486328e-01 1.511965870857238770e+00 5.029336214065551758e-01 -2.350505888462066650e-01
2.000000000000000000e+03 1.829019188880920410e+00 -3.014620590209960938e+01 9.336811304092407227e-02 1.658238649368286133e+00 5.254819989204406738e-01 -1.739083975553512573e-01
2.001000000000000000e+03 1.874501705169677734e+00 2.166883850097656250e+01 -4.601934924721717834e-02 -2.707202732563018799e-01 -9.502188861370086670e-02 9.466107934713363647e-02
2.002000000000000000e+03 1.950658679008483887e+00 2.020243644714355469e+01 -9.619522839784622192e-02 -2.606669962406158447e-01 -1.070586666464805603e-01 3.769817575812339783e-02
2.003000000000000000e+03 3.714599847793579102e+00 2.337635231018066406e+01 8.045154064893722534e-02 9.416896700859069824e-01 3.066423535346984863e-01 5.184771027415990829e-03
2.004000000000000000e+03 2.089805841445922852e+00 -1.990776252746582031e+01 7.796618342399597168e-02 1.298507094383239746e+00 4.129419922828674316e-01 1.345080971717834473e+00
2.005000000000000000e+03 3.275292396545410156e+00 -1.512966156005859375e+01 4.119165539741516113e-01 1.347376942634582520e+00 5.277880430221557617e-01 1.982326954603195190e-01
2.006000000000000000e+03 5.984962463378906250e+00 -1.383763694763183594e+01 7.707042098045349121e-01 2.631641149520874023e+00 1.020703554153442383e+00 1.079894185066223145e+00
2.007000000000000000e+03 5.591358661651611328e+00 1.871183586120605469e+01 -3.668872714042663574e-01 1.147506713867187500e+00 2.341858148574829102e-01 -3.492894470691680908e-01
2.008000000000000000e+03 5.268445968627929688e+00 1.135596084594726562e+01 5.365378856658935547e-01 4.662090837955474854e-01 3.008240759372711182e-01 -2.250642329454421997e-01
2.009000000000000000e+03 3.118789196014404297e+00 -2.453769302368164062e+01 -5.097616314888000488e-01 1.704770207405090332e+00 3.585025668144226074e-01 -2.574747987091541290e-02
2.010000000000000000e+03 5.294191837310791016e+00 -2.307629585266113281e+01 -1.715727686882019043e+00 1.284535527229309082e+00 -1.293576359748840332e-01 -3.288664296269416809e-02
2.011000000000000000e+03 3.452060461044311523e+00 -1.633840560913085938e+01 7.279200553894042969e-01 1.633585929870605469e+00 7.084518074989318848e-01 5.938223600387573242e-01
2.012000000000000000e+03 2.805258512496948242e+00 -1.012339687347412109e+01 -7.463947683572769165e-02 1.136861890554428101e-01 1.171401422470808029e-02 -7.717675715684890747e-02
2.013000000000000000e+03 1.610762834548950195e+00 -9.017850875854492188e+00 -1.433489564806222916e-02 -4.035004973411560059e-01 -1.253506243228912354e-01 -1.045466512441635132e-01
2.014000000000000000e+03 2.568868637084960938e+00 8.851972579956054688e+00 1.569055020809173584e-01 -6.400668025016784668e-01 -1.449483931064605713e-01 1.921543926000595093e-01
2.015000000000000000e+03 1.568438053131103516e+00 6.293781280517578125e+00 4.143162444233894348e-02 -7.489389777183532715e-01 -2.122521996498107910e-01 3.013322949409484863e-01
2.016000000000000000e+03 1.881736755371093750e+00 1.435926055908203125e+01 2.010942623019218445e-02 -7.266986370086669922e-01 -2.119767665863037109e-01 -2.241792678833007812e-01
2.017000000000000000e+03 3.249965667724609375e+00 1.688883399963378906e+01 -1.378463655710220337e-01 1.208272799849510193e-01 -5.105725955218076706e-03 -2.998542785644531250e-01
2.018000000000000000e+03 2.581462383270263672e+00 -5.004906654357910156e+00 4.901183396577835083e-02 -2.023701965808868408e-01 -4.600750654935836792e-02 -2.023282498121261597e-01
2.019000000000000000e+03 1.525101065635681152e+00 -6.326982021331787109e+00 2.605718933045864105e-02 -3.628732264041900635e-01 -1.010448113083839417e-01 -1.224216669797897339e-01
2.020000000000000000e+03 2.669025659561157227e+00 1.006579780578613281e+01 1.718975454568862915e-01 -6.150367259979248047e-01 -1.329417675733566284e-01 5.786578357219696045e-02
2.021000000000000000e+03 4.011471271514892578e+00 -1.227797222137451172e+01 -6.792411208152770996e-02 1.213088274002075195e+00 3.435492217540740967e-01 1.231510341167449951e-01
2.022000000000000000e+03 4.652623176574707031e+00 -1.587443923950195312e+01 9.541824460029602051e-01 3.236935615539550781e+00 1.257335424423217773e+00 9.623311161994934082e-01
2.023000000000000000e+03 2.715116500854492188e+00 -8.837836265563964844e+00 -2.115148305892944336e-02 -3.047645464539527893e-02 -1.548838149756193161e-02 -2.664516866207122803e-02
2.024000000000000000e+03 2.252946853637695312e+00 -3.544848251342773438e+01 6.817228347063064575e-02 1.821919560432434082e+00 5.670275688171386719e-01 2.249923050403594971e-01
2.025000000000000000e+03 3.519122362136840820e+00 -3.374251937866210938e+01 2.062862813472747803e-01 1.672261714935302734e+00 5.635644197463989258e-01 2.190016955137252808e-01
2.026000000000000000e+03 6.347301483154296875e+00 -3.323666763305664062e+01 6.232770681381225586e-01 1.551559567451477051e+00 6.524510383605957031e-01 4.965879321098327637e-01
2.027000000000000000e+03 1.840032696723937988e+00 -2.601522827148437500e+01 -1.194934919476509094e-01 1.965997815132141113e+00 5.539513230323791504e-01 -1.964614689350128174e-01
2.028000000000000000e+03 6.478136539459228516e+00 -2.566294479370117188e+01 -5.757964849472045898e-01 4.085074067115783691e-01 -5.018671974539756775e-02 -4.572104513645172119e-01
2.029000000000000000e+03 3.306447267532348633e+00 -1.947693824768066406e+01 4.512009918689727783e-01 1.984704256057739258e+00 7.307716012001037598e-01 1.379322648048400879e+00
2.030000000000000000e+03 2.834468126296997070e+00 1.130733680725097656e+01 1.995176821947097778e-01 -5.058307051658630371e-01 -9.189391136169433594e-02 -9.079598635435104370e-02
2.031000000000000000e+03 3.092505693435668945e+00 1.260390758514404297e+01 1.662684082984924316e-01 -3.295052945613861084e-01 -4.897107183933258057e-02 -2.353122830390930176e-01
2.032000000000000000e+03 3.194175004959106445e+00 1.401656723022460938e+01 9.916289150714874268e-02 -1.790827065706253052e-01 -2.397594414651393890e-02 -3.437530100345611572e-01
2.033000000000000000e+03 3.131755113601684570e+00 1.545840263366699219e+01 -3.087280504405498505e-02 -6.427992880344390869e-02 -2.854581922292709351e-02 -3.568012118339538574e-01
2.034000000000000000e+03 3.215667486190795898e+00 1.999446105957031250e+01 -1.832577586174011230e-01 3.395389914512634277e-01 4.688437283039093018e-02 -6.369344890117645264e-02
2.035000000000000000e+03 3.295971632003784180e+00 1.841891479492187500e+01 -1.937253773212432861e-01 2.316560894250869751e-01 1.137921214103698730e-02 -1.821446269750595093e-01
2.036000000000000000e+03 1.840580558776855469e+01 -7.079046368598937988e-01 -2.271004915237426758e+00 1.074313545227050781e+01 2.541639089584350586e+00 6.100104808807373047e+00
2.037000000000000000e+03 1.719306182861328125e+01 -2.555161237716674805e+00 2.588250398635864258e+00 1.011165332794189453e+01 3.809971332550048828e+00 3.978086471557617188e+00
2.038000000000000000e+03 2.647726631164550781e+01 2.984094238281250000e+01 -3.933507204055786133e-01 3.389526605606079102e-01 -1.631942205131053925e-02 -1.132179498672485352e-01
2.039000000000000000e+03 7.203572845458984375e+01 1.925878715515136719e+01 -1.757105588912963867e+00 6.881998538970947266e+00 1.537467837333679199e+00 -5.672609210014343262e-01
2.040000000000000000e+03 3.280094528198242188e+01 -6.382545948028564453e+00 2.912446975708007812e+00 6.314797878265380859e+00 2.768173456192016602e+00 -8.436444401741027832e-01
2.041000000000000000e+03 6.032163238525390625e+01 3.880183792114257812e+01 -2.758549451828002930e-01 1.459540486335754395e+00 3.551056683063507080e-01 -2.102535814046859741e-01
2.042000000000000000e+03 5.744796752929687500e+01 3.925992965698242188e+01 -6.140333414077758789e-01 2.289262056350708008e+00 5.025686025619506836e-01 1.039674997329711914e+00
2.043000000000000000e+03 2.197394371032714844e+01 2.636364364624023438e+01 -4.324964880943298340e-01 8.295646667480468750e+00 2.358944892883300781e+00 -7.141133546829223633e-01
2.044000000000000000e+03 4.084906005859375000e+01 2.364338397979736328e+00 1.500351667404174805e+00 6.028887748718261719e+00 2.258771896362304688e+00 -6.744225323200225830e-02
2.045000000000000000e+03 4.378729248046875000e+01 -2.833546876907348633e+00 -1.609220653772354126e-01 1.934870243072509766e+00 5.321844220161437988e-01 -1.802898883819580078e+00
2.046000000000000000e+03 3.410111999511718750e+01 2.065678596496582031e+01 6.934360861778259277e-01 7.324131011962890625e+00 2.405270099639892578e+00 -5.491905212402343750e-01
2.047000000000000000e+03 2.799087524414062500e+01 4.947640895843505859e+00 1.299015760421752930e+00 6.916233539581298828e+00 2.464574813842773438e+00 -2.336736619472503662e-01
2.048000000000000000e+03 5.452466201782226562e+01 1.784557533264160156e+01 1.764765679836273193e-01 4.746694087982177734e+00 1.476951122283935547e+00 -1.885891556739807129e+00
2.049000000000000000e+03 5.354545593261718750e+01 1.875338172912597656e+01 -6.816983819007873535e-01 4.266223907470703125e+00 1.075357556343078613e+00 -2.238424062728881836e+00
2.050000000000000000e+03 2.544004631042480469e+01 9.879514694213867188e+00 2.316177845001220703e+00 4.219271659851074219e+00 1.960634827613830566e+00 -9.632523059844970703e-01
2.051000000000000000e+03 3.673235321044921875e+01 1.344917297363281250e+01 -1.649978905916213989e-01 1.754541277885437012e+00 4.768630266189575195e-01 -2.092053413391113281e+00
2.052000000000000000e+03 4.951417541503906250e+01 -9.695919036865234375e+00 2.184641361236572266e+00 7.668994903564453125e+00 2.956090927124023438e+00 -7.981754839420318604e-02
2.053000000000000000e+03 2.420087623596191406e+01 -2.814181327819824219e+01 -1.529373884201049805e+00 4.395716190338134766e+00 8.599026203155517578e-01 -1.424371153116226196e-01
2.054000000000000000e+03 2.092123603820800781e+01 -2.362904167175292969e+01 8.281309008598327637e-01 3.778969049453735352e-01 3.618083298206329346e-01 -2.096140086650848389e-01
2.055000000000000000e+03 7.488016510009765625e+01 -2.150493431091308594e+01 1.287109971046447754e+00 1.056518650054931641e+01 3.555688858032226562e+00 2.779239416122436523e-01
2.056000000000000000e+03 7.550156402587890625e+01 -2.238338851928710938e+01 1.293698072433471680e+00 9.563676834106445312e+00 3.257212400436401367e+00 2.845919430255889893e-01
2.057000000000000000e+03 4.115450286865234375e+01 1.609910583496093750e+01 1.915183782577514648e+00 4.614226341247558594e+00 1.958822965621948242e+00 -7.906174659729003906e-01
2.058000000000000000e+03 5.478218460083007812e+01 2.248338127136230469e+01 -1.034173727035522461e+00 4.273550510406494141e+00 9.718129634857177734e-01 -2.511171340942382812e+00
2.059000000000000000e+03 5.366861724853515625e+01 2.455943298339843750e+01 2.483020164072513580e-02 5.654870033264160156e+00 1.703910112380981445e+00 -1.216739416122436523e+00
2.060000000000000000e+03 4.595086288452148438e+01 -2.353527069091796875e+00 4.978409111499786377e-01 3.711097240447998047e+00 1.262681484222412109e+00 -2.357351064682006836e+00
2.061000000000000000e+03 3.247421646118164062e+01 4.822811782360076904e-01 -9.127032160758972168e-01 2.462674617767333984e+00 4.649914205074310303e-01 -9.276306629180908203e-01
2.062000000000000000e+03 4.302757740020751953e+00 1.201379680633544922e+01 3.383443653583526611e-01 1.494364291429519653e-01 1.463342308998107910e-01 -2.608743011951446533e-01
2.063000000000000000e+03 5.603584289550781250e+01 9.967115402221679688e+00 1.468800306320190430e+00 9.625606536865234375e+00 3.328321933746337891e+00 1.367971897125244141e+00
2.064000000000000000e+03 4.788339233398437500e+01 -5.849686264991760254e-01 6.450414657592773438e-01 4.544285774230957031e+00 1.556798219680786133e+00 -1.847253441810607910e+00
2.065000000000000000e+03 4.698073196411132812e+01 -5.186264991760253906e+00 9.048101902008056641e-01 5.825966358184814453e+00 2.019232988357543945e+00 -1.792650461196899414e+00
2.066000000000000000e+03 5.250023269653320312e+01 1.957113456726074219e+01 -8.525444865226745605e-01 3.951771497726440430e+00 9.297680854797363281e-01 -2.345418691635131836e+00
2.067000000000000000e+03 4.494342803955078125e+00 2.961944580078125000e+01 8.083583414554595947e-02 1.918405175209045410e+00 5.997723340988159180e-01 -9.807116985321044922e-01
2.068000000000000000e+03 6.389159011840820312e+01 -1.370603275299072266e+01 -1.594131827354431152e+00 6.229103088378906250e+00 1.390491366386413574e+00 6.612845659255981445e-01
2.069000000000000000e+03 6.546472167968750000e+01 -1.415812015533447266e+01 -1.494812488555908203e+00 4.508168697357177734e+00 9.040068984031677246e-01 2.719987928867340088e-01
2.070000000000000000e+03 4.633110809326171875e+01 3.453511810302734375e+01 -1.265796899795532227e+00 4.672279834747314453e+00 1.021944880485534668e+00 -7.159967422485351562e-01
2.071000000000000000e+03 6.361546993255615234e+00 2.399898910522460938e+01 6.678217649459838867e-01 2.302661418914794922e+00 8.911449313163757324e-01 -8.744355440139770508e-01
2.072000000000000000e+03 5.735559940338134766e+00 2.512109184265136719e+01 7.026758790016174316e-01 2.887735843658447266e+00 1.077123522758483887e+00 -7.613399624824523926e-01
2.073000000000000000e+03 4.898448944091796875e+01 2.936211776733398438e+01 1.494725108146667480e+00 6.909395694732666016e+00 2.521236181259155273e+00 8.826681971549987793e-01
2.074000000000000000e+03 1.552254581451416016e+01 2.074521064758300781e+01 7.860822677612304688e-01 -6.390343904495239258e-01 4.411435872316360474e-02 3.662493824958801270e-02
2.075000000000000000e+03 7.300354003906250000e+01 1.524734115600585938e+01 1.133771896362304688e+00 9.531261444091796875e+00 3.199509859085083008e+00 -2.707950770854949951e-01
2.076000000000000000e+03 7.600372314453125000e+01 1.701844215393066406e+01 -2.988749928772449493e-02 7.556717395782470703e+00 2.258049011230468750e+00 8.434503674507141113e-01
2.077000000000000000e+03 2.922839164733886719e+01 -1.488283443450927734e+01 -3.031341791152954102e+00 7.069921016693115234e+00 1.211573719978332520e+00 1.999532222747802734e+00
2.078000000000000000e+03 1.036636734008789062e+01 -3.813372802734375000e+01 -5.590381622314453125e-01 2.118552923202514648e+00 4.678544402122497559e-01 7.899179458618164062e-01
2.079000000000000000e+03 1.102970790863037109e+01 -3.435198974609375000e+01 5.744642615318298340e-01 2.674731254577636719e+00 9.747586846351623535e-01 9.948799610137939453e-01
2.080000000000000000e+03 2.988197517395019531e+01 -1.358250522613525391e+01 -3.322361469268798828e+00 6.885726451873779297e+00 1.069009423255920410e+00 2.438583612442016602e+00
2.081000000000000000e+03 2.400820159912109375e+01 -1.480695819854736328e+01 -2.915860652923583984e+00 -2.818855345249176025e-01 -9.593238234519958496e-01 3.523132205009460449e-01
2.082000000000000000e+03 2.738660049438476562e+01 -1.799592781066894531e+01 5.579593181610107422e-01 5.810251712799072266e+00 1.910463333129882812e+00 9.564932584762573242e-01
2.083000000000000000e+03 3.235463714599609375e+01 2.578713226318359375e+01 5.637113451957702637e-01 8.051129341125488281e+00 2.584452152252197266e+00 1.806245446205139160e-01
2.084000000000000000e+03 3.239522933959960938e+01 2.995675849914550781e+01 7.157437205314636230e-01 6.168409347534179688e+00 2.065245866775512695e+00 -1.369325518608093262e+00
2.085000000000000000e+03 9.323592185974121094e+00 9.015200614929199219e+00 1.088585257530212402e+00 2.462756395339965820e+00 1.065402507781982422e+00 -7.025130987167358398e-01
2.086000000000000000e+03 8.983009338378906250e+00 4.113428592681884766e+00 -9.675100445747375488e-02 6.410135030746459961e-01 1.632787585258483887e-01 2.275214903056621552e-02
2.087000000000000000e+03 4.723814773559570312e+01 3.371740722656250000e+01 -5.762891173362731934e-01 5.266659736633300781e+00 1.407111167907714844e+00 -4.280496537685394287e-01
2.088000000000000000e+03 5.991832733154296875e+01 -1.920781326293945312e+01 2.179432868957519531e+00 5.600268363952636719e+00 2.333910226821899414e+00 -4.455693066120147705e-01
2.089000000000000000e+03 6.236602783203125000e+01 -1.936596679687500000e+01 1.481192231178283691e+00 6.898210048675537109e+00 2.513820648193359375e+00 -1.443758010864257812e+00
2.090000000000000000e+03 1.188838100433349609e+01 1.898620223999023438e+01 6.704162061214447021e-02 2.412645965814590454e-01 9.249186515808105469e-02 -1.340657025575637817e-01
2.091000000000000000e+03 5.516402053833007812e+01 -1.131819820404052734e+01 -1.360408365726470947e-01 3.228548288345336914e+00 9.277521967887878418e-01 -2.709483861923217773e+00
2.092000000000000000e+03 3.799066925048828125e+01 -3.647187709808349609e+00 2.783764302730560303e-01 4.261587142944335938e+00 1.361989140510559082e+00 2.294607400894165039e+00
2.093000000000000000e+03 3.829878997802734375e+01 -2.670260190963745117e+00 1.346493661403656006e-01 3.830107927322387695e+00 1.189427137374877930e+00 2.725813865661621094e+00
2.094000000000000000e+03 1.489569282531738281e+01 -2.274164962768554688e+01 -8.071744441986083984e-01 3.363144397735595703e+00 7.667909860610961914e-01 1.575146198272705078e+00
2.095000000000000000e+03 4.125775909423828125e+01 -1.585262012481689453e+01 -1.227963566780090332e+00 3.144945383071899414e+00 5.750945806503295898e-01 -1.909617662429809570e+00
2.096000000000000000e+03 7.154604339599609375e+01 -3.598410797119140625e+01 3.338245451450347900e-01 5.839377880096435547e+00 1.851960778236389160e+00 -1.071000576019287109e+00
2.097000000000000000e+03 6.789290618896484375e+01 -3.735356903076171875e+01 -1.047718286514282227e+00 5.665325641632080078e+00 1.385282158851623535e+00 -1.035192012786865234e+00
2.098000000000000000e+03 4.982256317138671875e+01 2.493185997009277344e+01 1.906307816505432129e+00 5.661845207214355469e+00 2.270445823669433594e+00 4.812595546245574951e-01
2.099000000000000000e+03 5.233288955688476562e+01 2.788060951232910156e+01 1.515068054199218750e+00 7.219261646270751953e+00 2.620298862457275391e+00 1.980625838041305542e-01
2.100000000000000000e+03 1.103520679473876953e+01 -3.123511505126953125e+01 1.257706165313720703e+00 2.388255596160888672e+00 1.093788504600524902e+00 1.033357739448547363e+00
2.101000000000000000e+03 2.873673057556152344e+01 -3.649342358112335205e-01 1.561269611120223999e-01 6.992985248565673828e+00 2.144733667373657227e+00 -2.507924079895019531e+00
2.102000000000000000e+03 2.966118049621582031e+01 -6.592838168144226074e-01 6.804400086402893066e-01 6.403529167175292969e+00 2.125190734863281250e+00 -2.362530231475830078e+00
2.103000000000000000e+03 5.947488403320312500e+01 8.400265693664550781e+00 3.823006451129913330e-01 6.488493442535400391e+00 2.061238288879394531e+00 -6.535400748252868652e-01
2.104000000000000000e+03 1.943823432922363281e+01 -1.635139274597167969e+01 -4.085463285446166992e-01 2.208232641220092773e+00 5.399059057235717773e-01 -8.681280612945556641e-01
2.105000000000000000e+03 2.029438591003417969e+01 -1.540413093566894531e+01 -1.054680705070495605e+00 1.304301857948303223e+00 7.488634437322616577e-02 -1.042516231536865234e+00
2.106000000000000000e+03 5.064031219482421875e+01 -3.242712402343750000e+01 2.766491413116455078e+00 8.228247642517089844e+00 3.298421859741210938e+00 -1.169402480125427246e+00
2.107000000000000000e+03 5.140685272216796875e+01 -3.376710128784179688e+01 2.068684816360473633e+00 7.678925991058349609e+00 2.924283266067504883e+00 -6.320704817771911621e-01
2.108000000000000000e+03 1.377197933197021484e+01 -1.099955368041992188e+01 -3.459090590476989746e-01 1.693816065788269043e+00 4.043720960617065430e-01 8.035914301872253418e-01
2.109000000000000000e+03 1.581945419311523438e+01 -7.724611759185791016e+00 1.918149948120117188e+00 8.500319480895996094e+00 3.125540971755981445e+00 4.941191375255584717e-01
2.110000000000000000e+03 4.332783889770507812e+01 -1.501504135131835938e+01 -1.527452826499938965e+00 1.082872033119201660e+00 -1.333742290735244751e-01 1.511143296957015991e-01
2.111000000000000000e+03 3.869299697875976562e+01 -1.530349636077880859e+01 -2.610729932785034180e+00 6.079226970672607422e+00 1.040549159049987793e+00 -2.221044778823852539e+00
2.112000000000000000e+03 2.814503669738769531e+01 -1.950521469116210938e+01 1.833963990211486816e+00 8.318786621093750000e+00 3.045825004577636719e+00 1.596223235130310059e+00
2.113000000000000000e+03 5.537038803100585938e+01 1.496828174591064453e+01 1.247169137001037598e+00 6.698742866516113281e+00 2.383773565292358398e+00 -6.408168077468872070e-01
2.114000000000000000e+03 6.071250534057617188e+01 1.882546424865722656e+01 1.384754657745361328e+00 7.187386512756347656e+00 2.571642398834228516e+00 2.063216924667358398e+00
2.115000000000000000e+03 4.448740005493164062e+01 -1.849401664733886719e+01 1.712586879730224609e+00 4.900917530059814453e+00 1.984051346778869629e+00 5.511564388871192932e-02
2.116000000000000000e+03 7.074894714355468750e+01 -1.453860855102539062e+01 -1.542922407388687134e-01 8.125819563865661621e-01 1.974869221448898315e-01 -1.494349479675292969e+00
2.117000000000000000e+03 4.654640197753906250e+01 -2.565946769714355469e+01 -1.006004333496093750e+00 4.741433143615722656e+00 1.120628595352172852e+00 -3.210277795791625977e+00
2.118000000000000000e+03 4.815772247314453125e+01 -4.105605697631835938e+01 -2.167935848236083984e+00 3.277411460876464844e+00 3.328426480293273926e-01 5.256745815277099609e-01
2.119000000000000000e+03 7.582664489746093750e+01 -4.284211158752441406e+00 3.833480179309844971e-01 9.646953582763671875e+00 3.009090423583984375e+00 -2.485630065202713013e-01
2.120000000000000000e+03 7.688815307617187500e+01 -1.471947431564331055e+00 -5.626454949378967285e-01 8.672879219055175781e+00 2.433069944381713867e+00 1.905622780323028564e-01
2.121000000000000000e+03 3.763373184204101562e+01 -3.169152641296386719e+01 2.476155757904052734e+00 4.523956298828125000e+00 2.100033760070800781e+00 2.019703865051269531e+00
2.122000000000000000e+03 7.127773284912109375e+01 2.017506790161132812e+01 -1.667764067649841309e+00 5.776471614837646484e+00 1.232612252235412598e+00 -1.417922496795654297e+00
2.123000000000000000e+03 3.858235168457031250e+01 1.305982208251953125e+01 -9.145351499319076538e-02 3.900844335556030273e+00 1.142817258834838867e+00 -1.494920849800109863e+00
2.124000000000000000e+03 6.839355468750000000e+01 -1.304233074188232422e+01 -5.016683340072631836e-01 1.347356319427490234e+00 2.537063956260681152e-01 -1.353515625000000000e+00
2.125000000000000000e+03 6.580844116210937500e+01 -1.201223945617675781e+01 -5.152685046195983887e-01 5.073457717895507812e+00 1.367456793785095215e+00 -6.909542083740234375e-01
2.126000000000000000e+03 5.510684967041015625e+01 -3.137091636657714844e+01 2.222161531448364258e+00 8.892688751220703125e+00 3.334455013275146484e+00 9.731377959251403809e-01
2.127000000000000000e+03 1.796220397949218750e+01 3.746284484863281250e+01 -7.272334098815917969e-01 2.467372655868530273e+00 5.220417380332946777e-01 -5.466198325157165527e-01
2.128000000000000000e+03 2.568832206726074219e+01 1.399047756195068359e+01 -1.082606434822082520e+00 1.179003238677978516e+00 2.891906164586544037e-02 -1.130104422569274902e+00
2.129000000000000000e+03 2.397988891601562500e+01 1.543997478485107422e+01 -2.509375333786010742e+00 4.302183151245117188e+00 5.378422737121582031e-01 -1.238791704177856445e+00
2.130000000000000000e+03 6.453454589843750000e+01 3.970650100708007812e+01 -6.060824394226074219e-01 3.690558433532714844e+00 9.253427982330322266e-01 -1.824126988649368286e-01
2.131000000000000000e+03 1.773342323303222656e+01 2.157519721984863281e+01 1.289543986320495605e+00 6.929456591606140137e-01 5.947468876838684082e-01 1.643481478095054626e-02
2.132000000000000000e+03 1.898781013488769531e+01 1.866165542602539062e+01 -7.781023532152175903e-02 3.796254873275756836e+00 1.115533351898193359e+00 -2.100050449371337891e-01
2.133000000000000000e+03 5.923034286499023438e+01 -2.294367599487304688e+01 2.350492238998413086e+00 4.127509117126464844e+00 1.943400502204895020e+00 4.837717711925506592e-01
2.134000000000000000e+03 2.607054710388183594e+01 -2.963500595092773438e+01 -8.379348516464233398e-01 5.423943042755126953e+00 1.375802516937255859e+00 3.503687083721160889e-01
2.135000000000000000e+03 2.586253166198730469e+01 -2.800113296508789062e+01 -1.636575102806091309e+00 5.436763286590576172e+00 1.140056490898132324e+00 2.644529342651367188e-01
2.136000000000000000e+03 3.864311599731445312e+01 -2.296156734228134155e-01 -2.532710731029510498e-01 4.845254421234130859e+00 1.377594947814941406e+00 2.514675617218017578e+00
2.137000000000000000e+03 6.373924636840820312e+01 -3.482567787170410156e+00 1.728310942649841309e+00 8.212152481079101562e+00 2.982139110565185547e+00 1.195930242538452148e-01
2.138000000000000000e+03 6.248137283325195312e+01 -4.264030456542968750e+00 1.754308104515075684e+00 9.720982551574707031e+00 3.442587375640869141e+00 -1.008717417716979980e+00
2.139000000000000000e+03 3.551366806030273438e+01 2.380676651000976562e+01 -7.951764762401580811e-02 7.010729789733886719e+00 2.079363584518432617e+00 -1.173634052276611328e+00
2.140000000000000000e+03 4.966831207275390625e+00 3.068453407287597656e+01 -1.350030004978179932e-01 1.987436175346374512e+00 5.557299852371215820e-01 -6.657910346984863281e-01
2.141000000000000000e+03 6.764088630676269531e+00 2.138548660278320312e+01 -1.227314546704292297e-01 1.575563788414001465e+00 4.358496963977813721e-01 -5.205287933349609375e-01
2.142000000000000000e+03 1.666061973571777344e+01 -1.044080066680908203e+01 -2.026373594999313354e-01 7.142693042755126953e+00 2.082016706466674805e+00 -3.441164791584014893e-01
2.143000000000000000e+03 1.721213150024414062e+01 -1.284698200225830078e+01 -2.986404657363891602e+00 5.544369220733642578e+00 7.673894166946411133e-01 -5.160395503044128418e-01
2.144000000000000000e+03 4.574447250366210938e+01 -1.887108802795410156e+01 1.775354385375976562e+00 6.890692234039306641e+00 2.599813938140869141e+00 8.203250765800476074e-01
2.145000000000000000e+03 4.319965362548828125e+01 -1.805646324157714844e+01 1.696192026138305664e+00 3.810499906539916992e+00 1.652007579803466797e+00 -1.775269396603107452e-02
2.146000000000000000e+03 5.818226242065429688e+01 -2.128245544433593750e+01 2.851861953735351562e+00 5.544564247131347656e+00 2.518927812576293945e+00 2.904222309589385986e-01
2.147000000000000000e+03 2.875724601745605469e+01 -1.224862766265869141e+01 -1.680034399032592773e+00 6.617588520050048828e+00 1.481266140937805176e+00 2.543840885162353516e+00
2.148000000000000000e+03 6.552447509765625000e+01 2.548460960388183594e+00 -8.889868110418319702e-02 3.345125436782836914e+00 9.768680334091186523e-01 7.045516967773437500e-01
2.149000000000000000e+03 4.885692977905273438e+01 -7.664807319641113281e+00 2.125854253768920898e+00 8.673383712768554688e+00 3.239771604537963867e+00 3.816979825496673584e-01
2.150000000000000000e+03 4.487189102172851562e+01 -2.347320556640625000e+01 2.348823308944702148e+00 4.308763504028320312e+00 1.997276067733764648e+00 -5.704668164253234863e-01
2.151000000000000000e+03 6.283584976196289062e+01 6.927610874176025391e+00 -1.172215700149536133e+00 3.519040107727050781e+00 7.040473222732543945e-01 -1.461095213890075684e+00
2.152000000000000000e+03 6.031778717041015625e+01 6.732128620147705078e+00 -5.444779396057128906e-01 5.547471523284912109e+00 1.500898003578186035e+00 -1.458290696144104004e+00
2.153000000000000000e+03 5.124454879760742188e+01 -3.591477155685424805e+00 1.360851287841796875e+00 8.187583923339843750e+00 2.864530563354492188e+00 1.040135994553565979e-01
2.154000000000000000e+03 5.118621444702148438e+01 -2.330532550811767578e+00 1.016431570053100586e+00 7.167513370513916016e+00 2.455183506011962891e+00 -8.633281290531158447e-02
2.155000000000000000e+03 5.448368835449218750e+01 -2.892437744140625000e+01 7.169657349586486816e-01 6.738915920257568359e+00 2.236764430999755859e+00 1.528557896614074707e+00
2.156000000000000000e+03 1.177776241302490234e+01 -2.837475204467773438e+01 6.646437048912048340e-01 2.125805616378784180e+00 8.371347784996032715e-01 1.033018589019775391e+00
2.157000000000000000e+03 3.414641189575195312e+01 -2.996124839782714844e+01 -1.132505774497985840e+00 -2.427625358104705811e-01 -4.125804901123046875e-01 -9.998882412910461426e-01
2.158000000000000000e+03 3.176497840881347656e+01 -2.889039611816406250e+01 -2.195709943771362305e+00 2.201708078384399414e+00 1.799445250071585178e-03 -1.054643988609313965e+00
2.159000000000000000e+03 3.809573745727539062e+01 4.115597152709960938e+01 -7.098797559738159180e-01 2.507213592529296875e+00 5.392001867294311523e-01 1.704408377408981323e-01
2.160000000000000000e+03 3.472466278076171875e+01 4.032111740112304688e+01 -1.173108935356140137e+00 3.515154600143432617e+00 7.026137113571166992e-01 1.850513517856597900e-01
2.161000000000000000e+03 4.284159660339355469e+00 -2.189139366149902344e+01 -1.307439208030700684e+00 2.144822120666503906e+00 2.512148618698120117e-01 8.898302316665649414e-01
2.162000000000000000e+03 5.328376770019531250e+01 5.847962498664855957e-01 -1.184568166732788086e+00 6.071081638336181641e+00 1.465953946113586426e+00 1.889284133911132812e+00
2.163000000000000000e+03 4.954468917846679688e+01 -1.354776740074157715e+00 7.338702082633972168e-01 5.594071388244628906e+00 1.898382544517517090e+00 -9.916341900825500488e-01
2.164000000000000000e+03 1.654960060119628906e+01 -3.391170978546142578e+00 3.829059362411499023e+00 8.540411949157714844e+00 3.710841417312622070e+00 3.163218259811401367e+00
2.165000000000000000e+03 1.308863162994384766e+01 -2.812143087387084961e+00 1.790950536727905273e+00 6.841694712638854980e-01 7.425360083580017090e-01 -2.859410084784030914e-02
2.166000000000000000e+03 5.469209194183349609e+00 3.187607955932617188e+01 -4.747638702392578125e-01 1.305982232093811035e+00 2.493655085563659668e-01 -4.919210374355316162e-01
2.167000000000000000e+03 6.091933727264404297e+00 3.299837875366210938e+01 -6.295894384384155273e-01 8.146539330482482910e-01 5.551935359835624695e-02 -4.485323131084442139e-01
2.168000000000000000e+03 6.557611846923828125e+01 4.903199672698974609e+00 -6.711114943027496338e-02 1.348571896553039551e+00 3.844382464885711670e-01 9.563760459423065186e-02
2.169000000000000000e+03 6.811234283447265625e+01 1.954772114753723145e+00 2.714168727397918701e-01 2.125886440277099609e+00 7.191909551620483398e-01 2.058036088943481445e+00
2.170000000000000000e+03 1.059837055206298828e+01 -2.593358039855957031e+01 -3.937586247920989990e-01 7.935072779655456543e-01 1.199245974421501160e-01 7.918584942817687988e-01
2.171000000000000000e+03 5.853207015991210938e+01 2.224456405639648438e+01 -1.209481716156005859e+00 7.251583933830261230e-01 -1.452969908714294434e-01 2.325957566499710083e-01
2.172000000000000000e+03 2.221767997741699219e+01 2.984053230285644531e+01 4.047739803791046143e-01 5.080071926116943359e+00 1.645453691482543945e+00 5.920295119285583496e-01
2.173000000000000000e+03 3.120953559875488281e+01 -5.642284393310546875e+00 2.092861175537109375e+00 8.779770851135253906e+00 3.261789560317993164e+00 -1.407269716262817383e+00
2.174000000000000000e+03 3.545418930053710938e+01 -4.341069698333740234e+00 1.691276073455810547e+00 4.856860637664794922e+00 1.964441061019897461e+00 6.028770804405212402e-01
2.175000000000000000e+03 4.440560150146484375e+01 1.728757476806640625e+01 1.270226478576660156e+00 7.461760997772216797e+00 2.619596242904663086e+00 1.782168984413146973e+00
2.176000000000000000e+03 4.160951995849609375e+01 1.713560104370117188e+01 1.510079145431518555e+00 4.258306503295898438e+00 1.730515599250793457e+00 -3.749691843986511230e-01
2.177000000000000000e+03 3.673571777343750000e+01 -1.437077522277832031e+01 -3.583505868911743164e+00 4.895033359527587891e+00 3.934581577777862549e-01 -3.127357006072998047e+00
2.178000000000000000e+03 4.219190979003906250e+01 -1.650825881958007812e+01 2.027396112680435181e-01 2.627682209014892578e+00 8.491265773773193359e-01 -8.977943062782287598e-01
2.179000000000000000e+03 2.109792518615722656e+01 1.866686820983886719e+01 -4.427257180213928223e-01 8.776444435119628906e+00 2.500115633010864258e+00 5.795059800148010254e-01
2.180000000000000000e+03 3.325591659545898438e+01 2.486257743835449219e+01 6.108185052871704102e-01 8.590655326843261719e+00 2.760442018508911133e+00 3.544210195541381836e-01
2.181000000000000000e+03 4.325932312011718750e+01 1.128337097167968750e+01 8.520334959030151367e-01 8.897263526916503906e+00 2.924789190292358398e+00 1.074835419654846191e+00
2.182000000000000000e+03 4.335173034667968750e+01 1.264429569244384766e+01 1.334326744079589844e+00 9.232061386108398438e+00 3.169916629791259766e+00 7.150965929031372070e-01
2.183000000000000000e+03 3.848152160644531250e+01 1.069087862968444824e+00 4.546539485454559326e-01 5.893906116485595703e+00 1.904567956924438477e+00 3.192271232604980469e+00
2.184000000000000000e+03 5.077931213378906250e+01 3.338177490234375000e+01 1.601288467645645142e-01 6.643561840057373047e+00 2.041107177734375000e+00 2.737862169742584229e-01
2.185000000000000000e+03 5.909355545043945312e+01 -1.758517074584960938e+01 1.100429296493530273e+00 6.023721694946289062e+00 2.137245416641235352e+00 -1.309125721454620361e-01
2.186000000000000000e+03 5.841598510742187500e+01 -2.005385589599609375e+01 2.452873706817626953e+00 6.124917507171630859e+00 2.573337316513061523e+00 9.835699945688247681e-02
2.187000000000000000e+03 6.353053665161132812e+01 2.371076774597167969e+01 1.965648680925369263e-02 6.412064552307128906e+00 1.929516315460205078e+00 2.745169639587402344e+00
2.188000000000000000e+03 6.359217071533203125e+01 2.122691345214843750e+01 -2.214205265045166016e+00 5.043949604034423828e+00 8.489233255386352539e-01 3.724341392517089844e+00
2.189000000000000000e+03 2.654965782165527344e+01 -2.707172012329101562e+01 -1.608057618141174316e+00 5.654436588287353516e+00 1.213913679122924805e+00 4.250367283821105957e-01
2.190000000000000000e+03 5.410373306274414062e+01 2.090629196166992188e+01 -9.311290383338928223e-01 4.524849414825439453e+00 1.078116059303283691e+00 -2.632217168807983398e+00
2.191000000000000000e+03 6.663468933105468750e+01 -3.992019653320312500e+01 -1.718495607376098633e+00 4.753476142883300781e+00 9.104942083358764648e-01 -3.537976369261741638e-02
2.192000000000000000e+03 5.989070129394531250e+01 9.591087341308593750e+00 8.835269212722778320e-01 6.628030776977539062e+00 2.253467321395874023e+00 -3.770208656787872314e-01
2.193000000000000000e+03 1.637880134582519531e+01 -1.396658802032470703e+01 -3.365247249603271484e+00 5.572359085083007812e+00 6.621335744857788086e-01 6.310210824012756348e-01
2.194000000000000000e+03 1.739693832397460938e+01 -1.473823928833007812e+01 -2.091519355773925781e+00 4.738912105560302734e+00 7.942178845405578613e-01 -1.071954146027565002e-01
2.195000000000000000e+03 5.263841247558593750e+01 2.127569007873535156e+01 -6.714805364608764648e-01 4.488705635070800781e+00 1.145167589187622070e+00 -2.229983091354370117e+00
2.196000000000000000e+03 3.648092269897460938e+01 3.493944931030273438e+01 -1.953196525573730469e+00 4.184491634368896484e+00 6.693885326385498047e-01 9.113076329231262207e-01
2.197000000000000000e+03 1.275967884063720703e+01 -2.587715339660644531e+01 -5.949927568435668945e-01 2.297195196151733398e+00 5.106607079505920410e-01 1.377645492553710938e+00
2.198000000000000000e+03 1.556103992462158203e+01 -2.647913360595703125e+01 -5.222755670547485352e-01 2.939923524856567383e+00 7.252944111824035645e-01 1.586140871047973633e+00
2.199000000000000000e+03 9.057603836059570312e+00 -3.713077163696289062e+01 -3.725486993789672852e-02 2.139226913452148438e+00 6.305915713310241699e-01 7.928397059440612793e-01
2.200000000000000000e+03 3.954853057861328125e+01 1.168108558654785156e+01 -2.965998947620391846e-01 5.525770187377929688e+00 1.568751096725463867e+00 -3.860349357128143311e-01
2.201000000000000000e+03 7.159191131591796875e+01 -1.548460483551025391e+01 -2.914627492427825928e-01 2.069975614547729492e+00 5.335538983345031738e-01 -1.198277711868286133e+00
2.202000000000000000e+03 9.183806419372558594e+00 1.828102684020996094e+01 -3.875792622566223145e-01 1.364028215408325195e+00 2.929347157478332520e-01 -3.172526955604553223e-01
2.203000000000000000e+03 4.524621963500976562e+00 1.839838600158691406e+01 -2.943312525749206543e-01 7.002192735671997070e-01 1.217664107680320740e-01 -2.886662781238555908e-01
2.204000000000000000e+03 3.331458663940429688e+01 1.893526077270507812e+01 1.355362057685852051e+00 7.282906055450439453e+00 2.591480255126953125e+00 -6.406653672456741333e-02
2.205000000000000000e+03 3.808787536621093750e+01 2.027035522460937500e+01 5.040697455406188965e-01 2.249453067779541016e+00 8.260568380355834961e-01 -1.735191583633422852e+00
2.206000000000000000e+03 4.593460464477539062e+01 -2.263719177246093750e+01 2.925818443298339844e+00 6.080760478973388672e+00 2.701973676681518555e+00 -1.119233489036560059e+00
2.207000000000000000e+03 4.008982467651367188e+01 -2.649273872375488281e+01 -1.166843891143798828e+00 8.203894615173339844e+00 2.111115217208862305e+00 9.545289278030395508e-01
2.208000000000000000e+03 4.220026779174804688e+01 1.421075248718261719e+01 1.698147773742675781e+00 6.911343097686767578e+00 2.582847356796264648e+00 1.723494082689285278e-01
2.209000000000000000e+03 4.733832168579101562e+01 2.353330421447753906e+01 1.572105884552001953e+00 7.126385688781738281e+00 2.609547376632690430e+00 1.353755354881286621e+00
2.210000000000000000e+03 4.569137954711914062e+01 1.922961235046386719e+01 -1.431243777275085449e+00 6.966951847076416016e+00 1.660712361335754395e+00 2.655621767044067383e+00
2.211000000000000000e+03 5.200529479980468750e+01 -3.835752487182617188e+01 -2.019216537475585938e+00 6.887252807617187500e+00 1.460410833358764648e+00 2.378620952367782593e-01
2.212000000000000000e+03 5.028874969482421875e+01 -3.750376129150390625e+01 -1.739632129669189453e+00 5.937901020050048828e+00 1.259480714797973633e+00 3.316994011402130127e-01
2.213000000000000000e+03 6.722098541259765625e+01 2.178938293457031250e+01 -9.895991683006286621e-01 1.196883678436279297e+00 6.218535825610160828e-02 -5.398615598678588867e-01
2.214000000000000000e+03 1.906692504882812500e+01 2.066470527648925781e+01 1.300033688545227051e+00 3.517430543899536133e+00 1.445239305496215820e+00 2.880003154277801514e-01
2.215000000000000000e+03 7.466609191894531250e+01 -1.938572311401367188e+01 7.055543661117553711e-01 8.907866477966308594e+00 2.884026288986206055e+00 5.100665688514709473e-01
2.216000000000000000e+03 7.710852050781250000e+01 -1.815946197509765625e+01 -2.766441367566585541e-02 8.490487098693847656e+00 2.538846969604492188e+00 1.310676097869873047e+00
2.217000000000000000e+03 5.241671752929687500e+01 -3.071222877502441406e+01 2.737229108810424805e+00 6.094477176666259766e+00 2.649511814117431641e+00 -9.999526292085647583e-02
2.218000000000000000e+03 6.565208435058593750e+01 3.260506057739257812e+01 1.244077980518341064e-01 5.591206550598144531e+00 1.714684247970581055e+00 8.224026560783386230e-01
2.219000000000000000e+03 1.003848552703857422e+01 1.733842277526855469e+01 -3.600654602050781250e-01 1.361617565155029297e+00 3.004656434059143066e-01 -5.389070603996515274e-03
2.220000000000000000e+03 8.663067817687988281e+00 1.942594718933105469e+01 -2.825152575969696045e-01 1.279946804046630859e+00 2.992294728755950928e-01 -4.368281662464141846e-01
2.221000000000000000e+03 4.625819396972656250e+01 5.633652210235595703e+00 -2.787876427173614502e-01 3.285364151000976562e+00 9.019729495048522949e-01 -1.467180609703063965e+00
2.222000000000000000e+03 4.365364837646484375e+01 2.115970039367675781e+01 -9.009467363357543945e-01 5.094869613647460938e+00 1.258176922798156738e+00 3.213443279266357422e+00
2.223000000000000000e+03 3.296822738647460938e+01 -3.082305717468261719e+01 -1.044853180646896362e-01 8.350515961647033691e-01 2.191698849201202393e-01 -8.523161411285400391e-01
2.224000000000000000e+03 7.475986480712890625e+01 -2.716714859008789062e+01 -7.685053348541259766e-01 7.682961463928222656e+00 2.074336767196655273e+00 7.383174300193786621e-01
2.225000000000000000e+03 7.295455169677734375e+01 -2.714530944824218750e+01 -1.069781422615051270e+00 6.172501087188720703e+00 1.530815839767456055e+00 2.490932226181030273e+00
2.226000000000000000e+03 6.134876632690429688e+01 -1.590903043746948242e+00 1.064571857452392578e+00 8.061216354370117188e+00 2.737736463546752930e+00 -1.326987743377685547e+00
2.227000000000000000e+03 4.928047180175781250e+01 2.140577888488769531e+01 2.576647698879241943e-01 3.038402557373046875e+00 9.888202548027038574e-01 -1.495331972837448120e-01
2.228000000000000000e+03 4.834671783447265625e+01 -1.204860496520996094e+01 2.602470815181732178e-01 7.111379146575927734e+00 2.211487770080566406e+00 1.760528832674026489e-01
2.229000000000000000e+03 5.091582870483398438e+01 -8.354625701904296875e+00 2.086272716522216797e+00 7.113736152648925781e+00 2.760002613067626953e+00 -3.864399790763854980e-01
2.230000000000000000e+03 2.862199592590332031e+01 3.223498535156250000e+01 4.737300276756286621e-01 2.547047853469848633e+00 9.062333703041076660e-01 -1.087738990783691406e+00
2.231000000000000000e+03 4.686625957489013672e+00 3.496453857421875000e+01 -5.391286015510559082e-01 1.171664476394653320e+00 1.897607594728469849e-01 -3.352456688880920410e-01
2.232000000000000000e+03 6.226978302001953125e+01 2.249263763427734375e+01 -1.932640194892883301e+00 5.938307762145996094e+00 1.201700329780578613e+00 3.454999685287475586e+00
2.233000000000000000e+03 6.261623382568359375e+01 -8.922615051269531250e+00 7.135550975799560547e-01 8.558963775634765625e+00 2.781755685806274414e+00 5.392951369285583496e-01
2.234000000000000000e+03 1.239524841308593750e+01 4.135235977172851562e+01 3.124122321605682373e-02 2.746133208274841309e-01 9.175635874271392822e-02 -8.795372396707534790e-02
2.235000000000000000e+03 1.447614669799804688e+01 3.660427474975585938e+01 -3.881524205207824707e-01 6.054300665855407715e-01 6.518328934907913208e-02 -4.795165657997131348e-01
2.236000000000000000e+03 5.835072708129882812e+01 1.382264804840087891e+01 1.848642110824584961e+00 8.197837829589843750e+00 3.013944149017333984e+00 9.818540811538696289e-01
2.237000000000000000e+03 7.309593963623046875e+01 9.723960876464843750e+00 1.118324995040893555e+00 8.683614730834960938e+00 2.940582036972045898e+00 -2.572225928306579590e-01
2.238000000000000000e+03 6.321439743041992188e+01 -2.297031021118164062e+01 3.237229347229003906e+00 6.472748279571533203e+00 2.912993431091308594e+00 -2.032705545425415039e+00
2.239000000000000000e+03 6.281541061401367188e+01 -2.558557701110839844e+01 -9.527675509452819824e-01 4.084870338439941406e+00 9.396308660507202148e-01 -2.788574218750000000e+00
2.240000000000000000e+03 7.412623596191406250e+01 -1.224901390075683594e+01 -1.478903412818908691e+00 4.856598854064941406e+00 1.013308644294738770e+00 1.538272500038146973e+00
2.241000000000000000e+03 3.644354629516601562e+01 -3.377603149414062500e+01 1.726589083671569824e+00 3.646934747695922852e+00 1.612057209014892578e+00 2.309985876083374023e+00
2.242000000000000000e+03 4.036889266967773438e+01 -1.749271774291992188e+01 8.713404536247253418e-01 4.598593235015869141e+00 1.640980005264282227e+00 -1.810891866683959961e+00
2.243000000000000000e+03 4.375462722778320312e+01 -2.070108985900878906e+01 3.397123336791992188e+00 4.764523029327392578e+00 2.448493957519531250e+00 5.420913803391158581e-04
2.244000000000000000e+03 3.251613235473632812e+01 -5.189105987548828125e+00 3.010918140411376953e+00 6.091882228851318359e+00 2.730840206146240234e+00 -1.120562672615051270e+00
2.245000000000000000e+03 3.069581604003906250e+01 -3.090188026428222656e+00 2.820610523223876953e+00 7.082154273986816406e+00 2.970829486846923828e+00 -2.005710124969482422e+00
2.246000000000000000e+03 5.228869628906250000e+01 3.410517501831054688e+01 -3.871585428714752197e-02 6.428600788116455078e+00 1.916965365409851074e+00 4.379796385765075684e-01
2.247000000000000000e+03 4.957640075683593750e+01 3.221933746337890625e+01 3.996904790401458740e-01 6.216075897216796875e+00 1.984729886054992676e+00 4.705020785331726074e-01
2.248000000000000000e+03 3.044683837890625000e+01 -1.061598014831542969e+01 1.437374472618103027e+00 6.762524127960205078e+00 2.459969520568847656e+00 1.319790005683898926e+00
2.249000000000000000e+03 7.575985717773437500e+01 7.012915134429931641e+00 -5.587047711014747620e-02 7.382568836212158203e+00 2.198009490966796875e+00 -1.095088481903076172e+00
2.250000000000000000e+03 5.536783599853515625e+01 1.747018814086914062e+00 -1.141136527061462402e+00 2.893636703491210938e+00 5.257500410079956055e-01 2.027351856231689453e+00
2.251000000000000000e+03 5.646401977539062500e+01 1.922363996505737305e+00 -4.211237728595733643e-01 2.236753702163696289e+00 5.446889400482177734e-01 4.260230362415313721e-01
2.252000000000000000e+03 7.218814849853515625e+01 -2.815845680236816406e+01 2.699466347694396973e-01 4.115697860717773438e+00 1.315693259239196777e+00 1.920994043350219727e+00
2.253000000000000000e+03 7.025801849365234375e+01 -2.840592193603515625e+01 1.060631275177001953e+00 2.070455551147460938e+00 9.393260478973388672e-01 5.429468750953674316e-01
2.254000000000000000e+03 7.366812896728515625e+01 1.947208595275878906e+01 -1.278515100479125977e+00 7.361732959747314453e+00 1.824965357780456543e+00 -3.721457347273826599e-02
2.255000000000000000e+03 2.708837890625000000e+01 -2.323239517211914062e+01 1.410018801689147949e+00 6.661218166351318359e+00 2.421370983123779297e+00 5.642538070678710938e-01
2.256000000000000000e+03 2.581326103210449219e+01 -2.286265563964843750e+01 1.560752987861633301e+00 4.749917984008789062e+00 1.893201231956481934e+00 2.906088531017303467e-01
2.257000000000000000e+03 2.658151245117187500e+01 1.017028141021728516e+01 2.413472175598144531e+00 4.314307689666748047e+00 2.018333911895751953e+00 -2.415835112333297729e-01
2.258000000000000000e+03 2.782077026367187500e+01 1.052585697174072266e+01 2.426518917083740234e+00 4.910397529602050781e+00 2.201074838638305664e+00 8.686513304710388184e-01
2.259000000000000000e+03 2.015507888793945312e+01 2.130305480957031250e+01 1.605453610420227051e+00 6.663106918334960938e+00 2.480568170547485352e+00 -8.863106369972229004e-02
2.260000000000000000e+03 4.696905612945556641e+00 -2.687801551818847656e+01 -2.034381628036499023e-01 1.153099179267883301e+00 2.848982810974121094e-01 -4.623279273509979248e-01
2.261000000000000000e+03 7.379627704620361328e+00 -2.418156623840332031e+01 -1.705569624900817871e+00 -8.735679835081100464e-02 -5.378779172897338867e-01 -2.040256261825561523e-01
2.262000000000000000e+03 1.201473045349121094e+01 -1.071476078033447266e+01 4.348520636558532715e-01 -1.562341861426830292e-02 1.257685869932174683e-01 1.816691637039184570e+00
2.263000000000000000e+03 1.456682205200195312e+01 -1.207620525360107422e+01 -2.104805946350097656e+00 3.329249382019042969e+00 3.673330247402191162e-01 -3.277220204472541809e-02
2.264000000000000000e+03 7.976840019226074219e+00 1.567641830444335938e+01 -1.491161733865737915e-01 1.603108882904052734e+00 4.361978173255920410e-01 -4.585705995559692383e-01
2.265000000000000000e+03 3.390849304199218750e+01 -8.446699142456054688e+00 3.311708211898803711e+00 5.232373714447021484e+00 2.563224554061889648e+00 -6.472474336624145508e-01
2.266000000000000000e+03 2.655752372741699219e+01 -3.234699630737304688e+01 3.727397620677947998e-01 5.194694995880126953e+00 1.670230388641357422e+00 -4.729876518249511719e-01
2.267000000000000000e+03 6.416123962402343750e+01 2.547219657897949219e+01 2.497447729110717773e+00 5.889940261840820312e+00 2.516216516494750977e+00 1.355194449424743652e+00
2.268000000000000000e+03 3.341677474975585938e+01 -1.339198780059814453e+01 -1.204160928726196289e+00 1.260770916938781738e+00 1.698298379778862000e-02 9.892270565032958984e-01
2.269000000000000000e+03 3.673220825195312500e+01 -1.135729885101318359e+01 1.643837094306945801e+00 5.639034748077392578e+00 2.184861660003662109e+00 -2.376527070999145508e+00
2.270000000000000000e+03 8.295136451721191406e+00 1.169578933715820312e+01 7.712308764457702637e-01 2.432167768478393555e+00 9.610195755958557129e-01 -5.917441844940185547e-01
2.271000000000000000e+03 2.686676216125488281e+01 8.964277267456054688e+00 2.757206439971923828e+00 5.202145576477050781e+00 2.387805700302124023e+00 -1.189905330538749695e-01
2.272000000000000000e+03 6.964822387695312500e+01 -2.952083015441894531e+01 1.938914060592651367e+00 3.089270114898681641e+00 1.508455276489257812e+00 -5.725063681602478027e-01
2.273000000000000000e+03 2.153843879699707031e+01 1.466654491424560547e+01 2.597795128822326660e-01 7.571456909179687500e+00 2.349370956420898438e+00 -1.096420049667358398e+00
2.274000000000000000e+03 2.331567382812500000e+01 1.441939258575439453e+01 -5.917736291885375977e-01 5.180583953857421875e+00 1.376643061637878418e+00 -1.464158654212951660e+00
2.275000000000000000e+03 5.000106811523437500e+01 -6.296532154083251953e+00 2.032663106918334961e+00 7.865996360778808594e+00 2.969597816467285156e+00 1.627098470926284790e-01
2.276000000000000000e+03 5.543892669677734375e+01 -3.585050964355468750e+01 7.846763730049133301e-01 7.769224166870117188e+00 2.566170215606689453e+00 -5.497934222221374512e-01
2.277000000000000000e+03 9.078688621520996094e+00 -3.451766586303710938e+01 4.705336987972259521e-01 2.059347391128540039e+00 7.589643001556396484e-01 8.825069665908813477e-01
2.278000000000000000e+03 2.820733261108398438e+01 3.624251127243041992e+00 8.448059856891632080e-02 6.513136386871337891e+00 1.979285001754760742e+00 -1.208149671554565430e+00
2.279000000000000000e+03 7.206309795379638672e+00 -1.288385677337646484e+01 4.143503010272979736e-01 2.299285173416137695e+00 8.140906095504760742e-01 1.328049421310424805e+00
2.280000000000000000e+03 4.729372406005859375e+01 2.618428230285644531e+01 2.500441551208496094e+00 8.438142776489257812e+00 3.281575202941894531e+00 2.001301765441894531e+00
2.281000000000000000e+03 4.306739044189453125e+01 1.001778602600097656e+01 6.823619455099105835e-02 8.595166206359863281e+00 2.599020719528198242e+00 9.050756096839904785e-01
2.282000000000000000e+03 6.553179168701171875e+01 -1.825207591056823730e+00 1.077211856842041016e+00 6.035616397857666016e+00 2.133848428726196289e+00 1.437548875808715820e+00
2.283000000000000000e+03 3.611679077148437500e+01 -2.397574186325073242e+00 8.121227622032165527e-01 3.759048938751220703e+00 1.371351480484008789e+00 2.005582332611083984e+00
2.284000000000000000e+03 3.461130905151367188e+01 -5.397632122039794922e+00 2.750294208526611328e+00 5.146382808685302734e+00 2.369003057479858398e+00 -4.172918796539306641e-01
2.285000000000000000e+03 6.049499130249023438e+01 -1.074914646148681641e+01 -1.478667140007019043e+00 6.520049095153808594e+00 1.512414574623107910e+00 1.923117280006408691e+00
2.286000000000000000e+03 3.401441192626953125e+01 3.441007232666015625e+01 -1.230305075645446777e+00 5.432025909423828125e+00 1.260516285896301270e+00 -2.029204219579696655e-01
2.287000000000000000e+03 5.361066055297851562e+01 4.871410846710205078e+00 -1.413450717926025391e+00 5.599676609039306641e+00 1.255867838859558105e+00 2.466313123703002930e+00
2.288000000000000000e+03 5.169780349731445312e+01 3.603018760681152344e+00 -1.250201165676116943e-01 2.867773294448852539e+00 8.228259682655334473e-01 2.279024124145507812e+00
2.289000000000000000e+03 6.316513824462890625e+01 -4.145289993286132812e+01 -9.439047574996948242e-01 8.683114051818847656e-01 -2.267800644040107727e-02 2.386001050472259521e-01
2.290000000000000000e+03 7.011007690429687500e+01 2.231816864013671875e+01 -9.158323407173156738e-01 4.000116825103759766e+00 9.252852797508239746e-01 -1.393600821495056152e+00
2.291000000000000000e+03 5.148575210571289062e+01 -3.634700012207031250e+01 -1.267714053392410278e-01 7.102000236511230469e+00 2.092568635940551758e+00 -5.056096613407135010e-02
2.292000000000000000e+03 5.232447814941406250e+01 -3.276934051513671875e+01 2.906763792037963867e+00 6.961010456085205078e+00 2.960332155227661133e+00 -5.043261051177978516e-01
2.293000000000000000e+03 5.123097991943359375e+01 -6.200918197631835938e+00 2.114860296249389648e+00 8.106719017028808594e+00 3.066473960876464844e+00 5.489712581038475037e-02
2.294000000000000000e+03 5.177291488647460938e+01 -2.710994338989257812e+01 5.271928906440734863e-01 2.701210737228393555e+00 9.685210585594177246e-01 7.978403009474277496e-03
2.295000000000000000e+03 5.416147613525390625e+01 -2.683287239074707031e+01 -1.189751505851745605e+00 6.326666355133056641e+00 1.541074514389038086e+00 2.654300451278686523e+00
2.296000000000000000e+03 3.981750488281250000e+01 1.415184116363525391e+01 9.947416782379150391e-01 4.597240447998046875e+00 1.677594542503356934e+00 -1.130043387413024902e+00
2.297000000000000000e+03 1.698637580871582031e+01 -2.063978958129882812e+01 1.341323137283325195e+00 3.627701759338378906e+00 1.490707516670227051e+00 8.485830575227737427e-02
2.298000000000000000e+03 1.890572547912597656e+01 -1.881465530395507812e+01 1.472306489944458008e+00 2.252477407455444336e+00 1.117435097694396973e+00 -8.649666309356689453e-01
2.299000000000000000e+03 4.824034118652343750e+01 -1.634650707244873047e+00 6.537954211235046387e-01 4.881585597991943359e+00 1.660614252090454102e+00 -1.744623661041259766e+00
2.300000000000000000e+03 7.129398345947265625e+01 2.277454376220703125e+01 -5.231769680976867676e-01 5.091124534606933594e+00 1.370384335517883301e+00 -1.333503365516662598e+00
2.301000000000000000e+03 4.929377746582031250e+01 -1.406995010375976562e+01 -1.543559074401855469e+00 4.418389797210693359e+00 8.624491691589355469e-01 8.596485257148742676e-01
2.302000000000000000e+03 5.965894699096679688e+01 1.501838207244873047e+01 1.735735654830932617e+00 9.456180572509765625e+00 3.357574939727783203e+00 1.636773467063903809e+00
2.303000000000000000e+03 6.352169799804687500e+01 -2.166689682006835938e+01 3.085254907608032227e+00 7.800159931182861328e+00 3.265624523162841797e+00 -2.496383428573608398e+00
2.304000000000000000e+03 5.625181198120117188e+01 -1.292961406707763672e+01 -1.498828679323196411e-01 3.741250276565551758e+00 1.077410221099853516e+00 -1.857167840003967285e+00
2.305000000000000000e+03 1.771646499633789062e+01 -1.658203697204589844e+01 3.838577866554260254e-02 4.149125576019287109e+00 1.256253361701965332e+00 -3.884311616420745850e-01
2.306000000000000000e+03 5.321457672119140625e+01 4.122341156005859375e+01 -1.623491644859313965e+00 4.551761627197265625e+00 8.784810304641723633e-01 1.696379035711288452e-01
2.307000000000000000e+03 5.534057235717773438e+01 3.687502288818359375e+01 -1.168773770332336426e+00 4.274576187133789062e+00 9.317407011985778809e-01 1.654910564422607422e+00
2.308000000000000000e+03 2.301659774780273438e+01 -1.523258590698242188e+01 -1.784622550010681152e+00 -7.692409753799438477e-01 -7.661590576171875000e-01 -2.078186422586441040e-01
2.309000000000000000e+03 2.149419212341308594e+01 -2.486783599853515625e+01 -1.040254235267639160e-01 4.924009442329406738e-01 1.165126562118530273e-01 -4.128471016883850098e-01
2.310000000000000000e+03 1.845699119567871094e+01 -2.236207580566406250e+01 9.760800004005432129e-01 1.711419224739074707e+00 8.062497973442077637e-01 1.135386601090431213e-01
2.311000000000000000e+03 6.616756439208984375e+01 3.530073547363281250e+01 -6.880986690521240234e-01 5.144274234771728516e+00 1.336852669715881348e+00 3.911701738834381104e-01
2.312000000000000000e+03 5.508372497558593750e+01 -1.274978923797607422e+01 -1.900839060544967651e-01 3.890428781509399414e+00 1.110103487968444824e+00 -2.735604763031005859e+00
2.313000000000000000e+03 5.156969833374023438e+01 -2.989262008666992188e+01 2.507707595825195312e+00 5.585846900939941406e+00 2.428066253662109375e+00 -6.085491180419921875e-01
2.314000000000000000e+03 3.759386825561523438e+01 -3.484102630615234375e+01 4.453356266021728516e-01 4.546260833740234375e+00 1.497478842735290527e+00 1.920112252235412598e+00
2.315000000000000000e+03 3.572966766357421875e+01 -3.864460754394531250e+01 -1.207442998886108398e+00 3.972743272781372070e+00 8.295900821685791016e-01 6.976660490036010742e-01
2.316000000000000000e+03 6.788940429687500000e+01 -2.710965156555175781e+01 -7.642801403999328613e-01 4.000661849975585938e+00 9.709144830703735352e-01 -2.176601171493530273e+00
2.317000000000000000e+03 3.048709869384765625e+01 2.979782295227050781e+01 4.578202366828918457e-01 3.734479188919067383e+00 1.257689833641052246e+00 -1.818680644035339355e+00
2.318000000000000000e+03 4.884878921508789062e+01 4.637979507446289062e+00 -2.942675948143005371e-01 1.074070930480957031e+00 2.339410036802291870e-01 -7.242230176925659180e-01
2.319000000000000000e+03 5.081275939941406250e+01 2.572889328002929688e+00 -2.604757845401763916e-01 3.041469335556030273e+00 8.342980742454528809e-01 8.905661106109619141e-01
2.320000000000000000e+03 6.364065551757812500e+01 -8.390959739685058594e+00 1.529004573822021484e+00 8.717768669128417969e+00 3.074031829833984375e+00 1.792115345597267151e-02
2.321000000000000000e+03 8.438172340393066406e+00 2.066647720336914062e+01 -7.997370511293411255e-02 1.374736189842224121e+00 3.884287476539611816e-01 -5.788736939430236816e-01
2.322000000000000000e+03 5.403749084472656250e+01 -3.591439819335937500e+01 5.414811372756958008e-01 7.693942546844482422e+00 2.470627069473266602e+00 -1.384606063365936279e-01
2.323000000000000000e+03 2.129607200622558594e+01 3.050602722167968750e+01 1.050288081169128418e+00 5.718103408813476562e+00 2.030517339706420898e+00 4.671275019645690918e-01
2.324000000000000000e+03 2.376852607727050781e+01 2.922607040405273438e+01 -5.249046683311462402e-01 3.747898101806640625e+00 9.668980240821838379e-01 9.977802038192749023e-01
2.325000000000000000e+03 3.485138702392578125e+01 -1.509780526161193848e+00 1.179415106773376465e+00 2.891797542572021484e+00 1.221363782882690430e+00 1.299457788467407227e+00
2.326000000000000000e+03 3.713984680175781250e+01 -2.452708005905151367e+00 4.496390819549560547e-01 3.867949724197387695e+00 1.295276641845703125e+00 2.338233470916748047e+00
2.327000000000000000e+03 4.612895584106445312e+01 -1.655029106140136719e+01 -1.099308609962463379e+00 6.223829746246337891e+00 1.537356257438659668e+00 1.583818793296813965e+00
2.328000000000000000e+03 2.864260292053222656e+01 1.400578689575195312e+01 -1.953270077705383301e+00 2.292048692703247070e+00 1.016335859894752502e-01 2.937947273254394531e+00
2.329000000000000000e+03 5.567033767700195312e+01 6.418545722961425781e+00 6.141190528869628906e-01 7.549051761627197266e+00 2.448951244354248047e+00 6.072836518287658691e-01
2.330000000000000000e+03 5.875551986694335938e+01 1.010166168212890625e+01 1.541830778121948242e+00 7.531637668609619141e+00 2.722040653228759766e+00 1.916234493255615234e-01
2.331000000000000000e+03 4.192581653594970703e+00 2.696264076232910156e+01 7.908030748367309570e-01 1.810124754905700684e+00 7.802783846855163574e-01 -8.034386634826660156e-01
2.332000000000000000e+03 5.858783721923828125e+01 -2.531945610046386719e+01 -5.085387825965881348e-01 4.804278373718261719e+00 1.288721919059753418e+00 1.830218911170959473e+00
2.333000000000000000e+03 5.634617996215820312e+01 -2.448498916625976562e+01 -7.924363017082214355e-01 8.595011711120605469e+00 2.340772628784179688e+00 1.337550997734069824e+00
2.334000000000000000e+03 3.322380065917968750e+01 1.626126670837402344e+01 2.238924503326416016e+00 4.957638740539550781e+00 2.158968925476074219e+00 1.500390768051147461e-01
2.335000000000000000e+03 3.420591354370117188e+01 1.342861366271972656e+01 -1.301225572824478149e-01 9.187312722206115723e-01 2.365826070308685303e-01 3.474151492118835449e-01
2.336000000000000000e+03 6.501084136962890625e+01 -1.581943607330322266e+01 -2.071604728698730469e+00 5.397253990173339844e+00 9.976947307586669922e-01 7.314311861991882324e-01
2.337000000000000000e+03 6.190108108520507812e+01 -1.841975784301757812e+01 1.011142015457153320e+00 6.459181308746337891e+00 2.241096973419189453e+00 -8.025630116462707520e-01
2.338000000000000000e+03 5.065217971801757812e+01 -2.970847702026367188e+01 2.184840679168701172e+00 6.121626377105712891e+00 2.491940021514892578e+00 -1.265978336334228516e+00
2.339000000000000000e+03 3.451804351806640625e+01 1.453281497955322266e+01 3.705079555511474609e-01 1.937763094902038574e+00 6.924813389778137207e-01 -3.571513295173645020e-01
2.340000000000000000e+03 6.711769866943359375e+01 -2.891992950439453125e+01 1.662139415740966797e+00 6.625812053680419922e+00 2.486385345458984375e+00 -1.884543776512145996e+00
2.341000000000000000e+03 3.078990554809570312e+01 -2.962338256835937500e+01 -1.346428513526916504e+00 3.021471977233886719e+00 5.025130510330200195e-01 -1.054331660270690918e+00
2.342000000000000000e+03 3.519741058349609375e+01 -3.230389404296875000e+01 1.717672348022460938e+00 1.546025633811950684e+00 9.791094064712524414e-01 1.020499467849731445e+00
2.343000000000000000e+03 2.977743530273437500e+01 -1.242570018768310547e+01 -1.963529586791992188e+00 6.807633876800537109e+00 1.453231334686279297e+00 1.918865442276000977e+00
2.344000000000000000e+03 2.514450263977050781e+01 3.097872543334960938e+01 6.876015663146972656e-01 1.867889285087585449e+00 7.666472792625427246e-01 8.708266615867614746e-01
2.345000000000000000e+03 2.335576438903808594e+01 3.024759292602539062e+01 4.840982854366302490e-01 3.970797538757324219e+00 1.336468815803527832e+00 9.023264050483703613e-01
2.346000000000000000e+03 7.489586830139160156e+00 -2.557691574096679688e+01 -4.577934443950653076e-01 2.771629989147186279e-01 -5.418913066387176514e-02 -2.326556444168090820e-01
2.347000000000000000e+03 9.794321060180664062e+00 -2.507575988769531250e+01 -9.804469347000122070e-01 5.327666178345680237e-02 -2.781510651111602783e-01 6.031661629676818848e-01
2.348000000000000000e+03 5.541286468505859375e+01 -2.550727272033691406e+01 -3.161204576492309570e+00 7.437058448791503906e+00 1.282756209373474121e+00 2.084403038024902344e+00
2.349000000000000000e+03 5.519876480102539062e+01 -1.622865104675292969e+01 -1.150252819061279297e+00 6.427308559417724609e+00 1.583116650581359863e+00 -1.345394849777221680e+00
2.350000000000000000e+03 5.646871185302734375e+01 -2.342028427124023438e+01 6.591600775718688965e-01 7.786394596099853516e+00 2.533666372299194336e+00 3.871170580387115479e-01
2.351000000000000000e+03 5.073465824127197266e+00 -4.043970108032226562e+01 -2.947728633880615234e-01 2.230777263641357422e+00 5.808013081550598145e-01 2.622793912887573242e-01
2.352000000000000000e+03 6.529294490814208984e+00 -3.847813415527343750e+01 -4.137167930603027344e-01 2.182356357574462891e+00 5.305918455123901367e-01 5.630306005477905273e-01
2.353000000000000000e+03 8.454623222351074219e+00 -1.199649715423583984e+01 -2.365513443946838379e-01 1.575678110122680664e+00 4.017380177974700928e-01 1.733315229415893555e+00
2.354000000000000000e+03 4.323742866516113281e+00 -1.336859226226806641e+01 2.444672584533691406e-01 1.610701441764831543e+00 5.565506219863891602e-01 2.540710568428039551e-01
2.355000000000000000e+03 4.152770614624023438e+01 4.051797389984130859e+00 1.891274809837341309e+00 7.002366065979003906e+00 2.668092250823974609e+00 -3.014610409736633301e-01
2.356000000000000000e+03 3.231065750122070312e+01 -3.899276733398437500e+01 -8.676291704177856445e-01 3.889995098114013672e+00 9.067097902297973633e-01 1.252646595239639282e-01
2.357000000000000000e+03 5.515250396728515625e+01 -1.386882591247558594e+01 -5.852825045585632324e-01 4.592144012451171875e+00 1.202058434486389160e+00 -2.667086839675903320e+00
2.358000000000000000e+03 6.274079513549804688e+01 2.337024927139282227e+00 -8.595958948135375977e-01 5.021258354187011719e+00 1.248498797416687012e+00 -1.244678378105163574e+00
2.359000000000000000e+03 5.859437561035156250e+01 2.122322082519531250e+01 -2.420161366462707520e-01 2.966944932937622070e+00 8.174786567687988281e-01 3.007852137088775635e-01
2.360000000000000000e+03 5.856127166748046875e+01 1.760325050354003906e+01 1.599655151367187500e+00 6.345324993133544922e+00 2.383494138717651367e+00 5.408900976181030273e-01
2.361000000000000000e+03 5.626394271850585938e+01 2.169463157653808594e+01 -1.450346112251281738e+00 2.926561117172241211e+00 4.428644776344299316e-01 -2.516193151473999023e+00
2.362000000000000000e+03 6.718460083007812500e+01 -1.319660663604736328e+01 -5.277431607246398926e-01 2.542053222656250000e+00 6.042930483818054199e-01 -5.672345161437988281e-01
2.363000000000000000e+03 7.504350280761718750e+01 -1.121406269073486328e+01 -1.985320210456848145e+00 8.170874595642089844e+00 1.855666279792785645e+00 6.608746647834777832e-01
2.364000000000000000e+03 6.881512451171875000e+01 -3.540358352661132812e+01 3.343034088611602783e-01 6.158753395080566406e+00 1.947916984558105469e+00 -1.510099768638610840e+00
2.365000000000000000e+03 6.998389434814453125e+01 -3.265706253051757812e+01 1.836978912353515625e+00 5.069262981414794922e+00 2.071872472763061523e+00 -1.430433154106140137e+00
2.366000000000000000e+03 4.977806854248046875e+01 -1.504302787780761719e+01 -1.929389595985412598e+00 2.462252855300903320e+00 1.598589420318603516e-01 1.230550765991210938e+00
2.367000000000000000e+03 5.202714538574218750e+01 -1.428409290313720703e+01 -1.135139584541320801e+00 2.229690074920654297e+00 3.283651471138000488e-01 -2.765610933303833008e+00
2.368000000000000000e+03 1.698581504821777344e+01 3.666782140731811523e+00 2.051088333129882812e+00 1.036358356475830078e+00 9.262339472770690918e-01 -1.760374665260314941e+00
2.369000000000000000e+03 1.960428428649902344e+01 4.062637329101562500e+00 5.218681693077087402e-01 7.234403133392333984e+00 2.326881408691406250e+00 1.924446105957031250e+00
2.370000000000000000e+03 2.115540122985839844e+01 2.858102798461914062e+00 4.281567573547363281e+00 4.257578372955322266e+00 2.561743736267089844e+00 4.328959465026855469e+00
2.371000000000000000e+03 2.039370155334472656e+01 3.071698904037475586e+00 3.213579416275024414e+00 7.294071674346923828e+00 3.152295351028442383e+00 4.778730869293212891e+00
2.372000000000000000e+03 2.095748138427734375e+01 2.393404483795166016e+00 5.814371109008789062e+00 4.002021789550781250e+00 2.944917678833007812e+00 4.722033500671386719e+00
2.373000000000000000e+03 1.753620338439941406e+01 -1.730474472045898438e+00 1.715866327285766602e+00 1.004740047454833984e+01 3.528980016708374023e+00 4.861238002777099609e+00
2.374000000000000000e+03 1.757588386535644531e+01 3.374765634536743164e+00 2.431570529937744141e+00 2.218361377716064453e+00 1.394979596138000488e+00 -2.004945278167724609e+00
2.375000000000000000e+03 1.742009925842285156e+01 3.273259401321411133e+00 2.619348287582397461e+00 1.776349544525146484e+00 1.318709373474121094e+00 -1.903491735458374023e+00
2.376000000000000000e+03 1.726641654968261719e+01 3.249880075454711914e+00 2.641918897628784180e+00 1.252430081367492676e+00 1.168304681777954102e+00 -1.700691342353820801e+00
2.377000000000000000e+03 1.765205383300781250e+01 -9.949713349342346191e-01 3.264991641044616699e-01 9.062062263488769531e+00 2.816568613052368164e+00 5.054195404052734375e+00
2.378000000000000000e+03 1.730640411376953125e+01 -8.203857541084289551e-01 3.269411325454711914e-01 7.481936454772949219e+00 2.342663288116455078e+00 4.590308666229248047e+00
2.379000000000000000e+03 2.140845489501953125e+01 2.179532766342163086e+00 5.480186939239501953e+00 2.287795543670654297e+00 2.330394744873046875e+00 3.572224855422973633e+00
2.380000000000000000e+03 1.580878162384033203e+01 3.899564027786254883e+00 1.584803104400634766e+00 -1.740087866783142090e-01 4.232383072376251221e-01 -1.512230396270751953e+00
2.381000000000000000e+03 9.771131515502929688e+00 3.504917621612548828e+00 -2.720983326435089111e-01 5.158702731132507324e-01 7.313157618045806885e-02 -1.096696481108665466e-01
2.382000000000000000e+03 1.046227741241455078e+01 3.616149663925170898e+00 -1.437803059816360474e-01 5.896872282028198242e-01 1.337720900774002075e-01 -2.844800949096679688e-01
2.383000000000000000e+03 1.614901733398437500e+01 -1.721752882003784180e+00 1.498932838439941406e+00 4.883639335632324219e+00 1.914771556854248047e+00 2.291552305221557617e+00
2.384000000000000000e+03 1.696992492675781250e+01 -1.584069252014160156e+00 1.417887210845947266e+00 7.537216663360595703e+00 2.686531066894531250e+00 3.607628822326660156e+00
2.385000000000000000e+03 1.269278144836425781e+01 4.585248470306396484e+00 2.860171496868133545e-01 6.286525130271911621e-01 2.744008898735046387e-01 -1.303656458854675293e+00
2.386000000000000000e+03 1.392942714691162109e+01 -2.709282875061035156e+00 2.036376476287841797e+00 1.656936287879943848e+00 1.107993841171264648e+00 4.377705752849578857e-01
2.387000000000000000e+03 1.153570365905761719e+01 -3.003428697586059570e+00 1.229343652725219727e+00 -3.318960964679718018e-01 2.692342400550842285e-01 -4.595868289470672607e-01
2.388000000000000000e+03 8.411797523498535156e+00 -5.014809131622314453e+00 1.127463459968566895e+00 -3.776304125785827637e-01 2.249499410390853882e-01 2.806032262742519379e-02
2.389000000000000000e+03 5.815524101257324219e+00 -3.563925027847290039e+00 8.422703295946121216e-02 -1.881409585475921631e-01 -3.117417730391025543e-02 -3.375816047191619873e-01
2.390000000000000000e+03 7.517663955688476562e+00 -4.293357849121093750e+00 6.226657032966613770e-01 -3.389736711978912354e-01 8.510760962963104248e-02 -2.420288920402526855e-01
2.391000000000000000e+03 3.986436128616333008e+00 -3.197677612304687500e+00 -6.482870876789093018e-02 -1.377622187137603760e-01 -6.077727675437927246e-02 -2.848324179649353027e-01
2.392000000000000000e+03 6.804810523986816406e+00 -5.148006916046142578e+00 5.881399512290954590e-01 -2.323904782533645630e-01 1.067248359322547913e-01 -3.848416730761528015e-02
2.393000000000000000e+03 3.635481834411621094e+00 -4.189141273498535156e+00 3.428457677364349365e-02 -1.534667313098907471e-01 -3.575464710593223572e-02 -2.473898231983184814e-01
2.394000000000000000e+03 2.840195178985595703e+00 -4.022361278533935547e+00 -4.290269222110509872e-03 -1.971434503793716431e-01 -6.043011322617530823e-02 -2.171298861503601074e-01
2.395000000000000000e+03 3.583389997482299805e+00 -6.244412422180175781e+00 1.399466246366500854e-01 -1.192172542214393616e-01 6.218811962753534317e-03 -1.115525215864181519e-01
2.396000000000000000e+03 2.556440591812133789e+00 -6.277789115905761719e+00 5.596256628632545471e-02 -2.288922816514968872e-01 -5.187891423702239990e-02 -1.256592720746994019e-01
2.397000000000000000e+03 1.277530384063720703e+01 5.433161258697509766e+00 5.890324115753173828e-01 1.024890422821044922e+00 4.841768443584442139e-01 -1.177972078323364258e+00
2.398000000000000000e+03 1.306538200378417969e+01 -3.595401525497436523e+00 2.453559160232543945e+00 1.017648696899414062e+00 1.041362404823303223e+00 2.624785900115966797e-01
2.399000000000000000e+03 1.287242603302001953e+01 -4.411442279815673828e+00 2.876345634460449219e+00 1.008455276489257812e+00 1.165440201759338379e+00 5.426629185676574707e-01
2.400000000000000000e+03 1.229684162139892578e+01 -3.584227323532104492e+00 2.197380781173706055e+00 2.214512228965759277e-01 7.256496548652648926e-01 2.035759575664997101e-02
2.401000000000000000e+03 1.757746315002441406e+01 6.140638828277587891e+00 -3.144332468509674072e-01 8.212749958038330078e-01 1.520525217056274414e-01 -4.890748262405395508e-01
2.402000000000000000e+03 8.378974914550781250e+00 3.409651994705200195e+00 -3.212321102619171143e-01 4.118992984294891357e-01 2.720015496015548706e-02 1.909032016992568970e-01
2.403000000000000000e+03 7.075816154479980469e+00 5.406842231750488281e+00 1.611817032098770142e-01 5.112332701683044434e-01 2.017244845628738403e-01 3.535870313644409180e-01
2.404000000000000000e+03 4.611921787261962891e+00 8.370185852050781250e+00 4.285510182380676270e-01 6.841122359037399292e-02 1.490886658430099487e-01 2.641958892345428467e-01
2.405000000000000000e+03 5.090976715087890625e+00 3.698774099349975586e+00 -1.836528033018112183e-01 4.074181243777275085e-02 -4.287329688668251038e-02 5.109244585037231445e-01
2.406000000000000000e+03 3.288179159164428711e+00 4.009546756744384766e+00 -7.346422970294952393e-02 -2.118639200925827026e-01 -8.559844642877578735e-02 5.031033158302307129e-01
2.407000000000000000e+03 4.000671863555908203e+00 6.266681671142578125e+00 1.489617824554443359e-01 -1.178742349147796631e-01 9.326265193521976471e-03 4.871207177639007568e-01
2.408000000000000000e+03 3.609252691268920898e+00 3.404878616333007812e+00 -1.459104865789413452e-01 -1.098888367414474487e-01 -7.673979550600051880e-02 4.979346096515655518e-01
2.409000000000000000e+03 1.550680756568908691e+00 5.019328594207763672e+00 -1.155970152467489243e-03 -5.592809915542602539e-01 -1.681310832500457764e-01 3.262470960617065430e-01
2.410000000000000000e+03 1.594407463073730469e+01 -2.786822319030761719e+00 2.806921005249023438e+00 5.845682621002197266e+00 2.595781087875366211e+00 2.402330636978149414e+00
2.411000000000000000e+03 1.553390979766845703e+01 -2.132302284240722656e+00 1.998953104019165039e+00 3.880929708480834961e+00 1.763964891433715820e+00 1.615210056304931641e+00
2.412000000000000000e+03 9.609204292297363281e+00 4.268406867980957031e+00 2.521548792719841003e-02 6.763824820518493652e-01 2.104793936014175415e-01 -1.269784569740295410e-01
2.413000000000000000e+03 7.992708683013916016e+00 5.133909225463867188e+00 1.671442836523056030e-01 6.856481432914733887e-01 2.558377385139465332e-01 1.809298992156982422e-01
2.414000000000000000e+03 1.705416488647460938e+01 4.407260417938232422e+00 1.359544515609741211e+00 9.934051036834716797e-01 7.058848738670349121e-01 -1.514103055000305176e+00
2.415000000000000000e+03 2.003152084350585938e+01 7.119124889373779297e+00 -1.193935751914978027e+00 4.359025001525878906e+00 9.495268464088439941e-01 1.414725780487060547e+00
2.416000000000000000e+03 1.899767112731933594e+01 6.561550617218017578e+00 -1.482509851455688477e+00 3.056584358215332031e+00 4.722223579883575439e-01 7.719466090202331543e-01
2.417000000000000000e+03 1.475208950042724609e+01 4.123624801635742188e+00 9.789534211158752441e-01 -1.809266060590744019e-01 2.394080460071563721e-01 -1.557046651840209961e+00
2.418000000000000000e+03 2.096268844604492188e+01 5.416095733642578125e+00 3.417986631393432617e-01 5.298476696014404297e+00 1.692082524299621582e+00 2.399549007415771484e+00
2.419000000000000000e+03 2.389644622802734375e+01 1.486870884895324707e+00 1.939872145652770996e+00 6.206103563308715820e-01 7.681447863578796387e-01 -5.911954641342163086e-01
2.420000000000000000e+03 1.557630157470703125e+01 -4.200654506683349609e+00 3.700271129608154297e+00 6.279763221740722656e+00 2.994010448455810547e+00 2.638738393783569336e+00
2.421000000000000000e+03 9.295290946960449219e+00 -4.196481704711914062e+00 1.134134054183959961e+00 -4.730255007743835449e-01 1.983325481414794922e-01 -2.001028060913085938e-01
2.422000000000000000e+03 1.065300655364990234e+01 -4.601339340209960938e+00 1.904167771339416504e+00 -3.964352011680603027e-01 4.523197710514068604e-01 1.335618644952774048e-01
2.423000000000000000e+03 1.013768959045410156e+01 -4.016011714935302734e+00 1.379499435424804688e+00 -4.468038380146026611e-01 2.798086702823638916e-01 -1.215813457965850830e-01
2.424000000000000000e+03 2.568209266662597656e+01 2.893893241882324219e+00 1.417931318283081055e+00 3.469943761825561523e+00 1.466362476348876953e+00 -8.738844990730285645e-01
2.425000000000000000e+03 1.174835872650146484e+01 5.371328830718994141e+00 7.769155502319335938e-01 1.184249877929687500e+00 5.883496403694152832e-01 -8.013956546783447266e-01
2.426000000000000000e+03 4.857072830200195312e+01 -1.349276161193847656e+01 -1.525320649147033691e+00 5.832704067230224609e+00 1.292215108871459961e+00 9.464503526687622070e-01
2.427000000000000000e+03 4.839219284057617188e+01 -1.431936073303222656e+01 -2.279557228088378906e+00 5.422701835632324219e+00 9.429433941841125488e-01 1.590509653091430664e+00
2.428000000000000000e+03 2.974484252929687500e+01 1.362678885459899902e+00 -1.587493181228637695e+00 5.899572372436523438e+00 1.293623805046081543e+00 -1.872489094734191895e+00
2.429000000000000000e+03 2.650550651550292969e+01 3.794703722000122070e+00 1.267065167427062988e+00 4.941632270812988281e+00 1.862609267234802246e+00 -6.167964935302734375e-01
2.430000000000000000e+03 6.320148849487304688e+01 -2.123673915863037109e+00 1.137981534004211426e+00 7.686238765716552734e+00 2.647266149520874023e+00 -1.322665661573410034e-01
2.431000000000000000e+03 3.381108856201171875e+01 -1.695273756980895996e+00 1.618990182876586914e+00 2.764807701110839844e+00 1.315139412879943848e+00 6.520513892173767090e-01
2.432000000000000000e+03 4.149170303344726562e+01 -2.074696922302246094e+01 2.451640129089355469e+00 6.357240676879882812e+00 2.642664194107055664e+00 -1.952203214168548584e-01
2.433000000000000000e+03 4.231565093994140625e+01 -2.235862350463867188e+01 3.253866195678710938e+00 4.837502956390380859e+00 2.427410840988159180e+00 4.128830730915069580e-01
2.434000000000000000e+03 5.049419403076171875e+01 2.776026725769042969e+01 2.065279960632324219e+00 6.400662899017333984e+00 2.539783000946044922e+00 8.737711906433105469e-01
2.435000000000000000e+03 2.452396202087402344e+01 -1.566833209991455078e+01 -1.218260884284973145e+00 8.342192173004150391e-01 -1.152124926447868347e-01 5.850193500518798828e-01
2.436000000000000000e+03 4.075897216796875000e+01 -1.484923076629638672e+01 -2.205878973007202148e+00 3.746097803115844727e+00 4.620656669139862061e-01 -2.712182760238647461e+00
2.437000000000000000e+03 4.249927902221679688e+01 -2.613037681579589844e+01 4.641899168491363525e-01 2.311218023300170898e+00 8.326224088668823242e-01 1.245418787002563477e+00
2.438000000000000000e+03 4.499594879150390625e+01 -2.544797325134277344e+01 4.646730124950408936e-01 2.590361595153808594e+00 9.165103435516357422e-01 -2.127447843551635742e+00
2.439000000000000000e+03 5.084119033813476562e+01 2.117465400695800781e+01 -2.965739369392395020e-01 3.807239532470703125e+00 1.053199648857116699e+00 -1.521071314811706543e+00
2.440000000000000000e+03 2.109746932983398438e+01 -1.645475387573242188e+01 -3.466423451900482178e-01 1.303512454032897949e-01 -6.488732993602752686e-02 -9.857374429702758789e-01
2.441000000000000000e+03 2.419902229309082031e+01 -2.381655120849609375e+01 8.780479431152343750e-01 3.062097549438476562e+00 1.182043671607971191e+00 -1.362082213163375854e-01
2.442000000000000000e+03 5.699394226074218750e+01 3.508912563323974609e+00 -6.071832180023193359e-01 4.323197841644287109e+00 1.114804387092590332e+00 -2.450831830501556396e-01
2.443000000000000000e+03 4.197896957397460938e+01 1.143846988677978516e+01 4.616079032421112061e-01 8.048625946044921875e+00 2.553070068359375000e+00 8.417553901672363281e-01
2.444000000000000000e+03 6.413144683837890625e+01 -2.390214347839355469e+01 1.824870228767395020e+00 7.860758304595947266e+00 2.905688524246215820e+00 -2.517690420150756836e+00
2.445000000000000000e+03 5.164492797851562500e+01 2.046035385131835938e+01 -6.507154107093811035e-01 3.606856107711791992e+00 8.868422508239746094e-01 -1.990745425224304199e+00
2.446000000000000000e+03 2.659639358520507812e+01 -1.651547431945800781e+01 -9.006430506706237793e-01 4.108600616455078125e+00 9.623873233795166016e-01 1.053176164627075195e+00
2.447000000000000000e+03 2.592395019531250000e+01 -1.495311164855957031e+01 -2.806361913681030273e+00 2.565680027008056641e+00 -7.220459729433059692e-02 1.111984968185424805e+00
2.448000000000000000e+03 3.925822067260742188e+01 1.662938690185546875e+01 2.003326892852783203e+00 3.069865226745605469e+00 1.521957635879516602e+00 -1.648020744323730469e+00
2.449000000000000000e+03 2.547619247436523438e+01 -2.013557052612304688e+01 2.285412073135375977e+00 3.492187738418579102e+00 1.733279943466186523e+00 1.161058470606803894e-01
2.450000000000000000e+03 4.377302932739257812e+01 8.349303245544433594e+00 -1.091139689087867737e-01 6.797964572906494141e+00 2.006655216217041016e+00 3.732305169105529785e-01
2.451000000000000000e+03 3.354854202270507812e+01 1.475374221801757812e+01 1.628203988075256348e-01 3.576992511749267578e+00 1.121943831443786621e+00 8.649841547012329102e-01
2.452000000000000000e+03 7.714363098144531250e+01 1.817757797241210938e+01 -1.982930451631546021e-01 7.282865047454833984e+00 2.125371694564819336e+00 7.212578058242797852e-01
2.453000000000000000e+03 4.321336746215820312e+01 1.772442054748535156e+01 7.040963768959045410e-01 6.185170650482177734e+00 2.066780090332031250e+00 9.776471257209777832e-01
2.454000000000000000e+03 4.366266250610351562e+01 1.877392005920410156e+01 2.474051415920257568e-01 6.065139293670654297e+00 1.893763303756713867e+00 1.389672875404357910e+00
2.455000000000000000e+03 1.000311660766601562e+01 6.479351520538330078e+00 7.107323408126831055e-01 1.441177725791931152e+00 6.455730199813842773e-01 -5.844147205352783203e-01
2.456000000000000000e+03 3.338422775268554688e+01 -5.673111081123352051e-01 7.095474600791931152e-01 1.883212447166442871e+00 7.778279781341552734e-01 -1.164851039648056030e-01
2.457000000000000000e+03 2.919224166870117188e+01 -2.720656967163085938e+01 -1.941690206527709961e+00 5.440467834472656250e+00 1.049633264541625977e+00 -1.107878014445304871e-01
2.458000000000000000e+03 3.559354400634765625e+01 1.419793415069580078e+01 8.186318278312683105e-01 1.132059454917907715e+00 5.852074027061462402e-01 -1.233156323432922363e+00
2.459000000000000000e+03 2.293772888183593750e+01 1.243796730041503906e+01 1.119534373283386230e+00 5.614513397216796875e+00 2.020214319229125977e+00 -2.433884143829345703e+00
2.460000000000000000e+03 4.271592330932617188e+01 4.480507850646972656e+00 1.506680727005004883e+00 6.145636081695556641e+00 2.295695066452026367e+00 -5.180162191390991211e-01
2.461000000000000000e+03 4.538642501831054688e+01 6.362164974212646484e+00 -2.744132280349731445e-01 4.493741512298583984e+00 1.265798449516296387e+00 -7.384170889854431152e-01
2.462000000000000000e+03 6.239400100708007812e+01 -9.205397963523864746e-01 1.652587503194808960e-01 7.010249137878417969e+00 2.152652263641357422e+00 -4.643431603908538818e-01
2.463000000000000000e+03 4.734659194946289062e+01 -1.541826438903808594e+01 -3.236340999603271484e+00 5.661339282989501953e+00 7.274994850158691406e-01 2.438506364822387695e+00
2.464000000000000000e+03 2.722082710266113281e+01 2.937665462493896484e+00 3.303359150886535645e-01 5.547894001007080078e+00 1.763468861579895020e+00 -1.216947436332702637e+00
2.465000000000000000e+03 7.688854217529296875e+01 1.098625564575195312e+01 5.622441172599792480e-01 6.984905719757080078e+00 2.264144897460937500e+00 -6.378035545349121094e-01
2.466000000000000000e+03 7.676712799072265625e+01 1.296419525146484375e+01 6.898150444030761719e-01 7.059149742126464844e+00 2.324689388275146484e+00 1.436700075864791870e-01
2.467000000000000000e+03 7.715701293945312500e+01 -1.682214355468750000e+01 -2.614849805831909180e-01 8.544226646423339844e+00 2.484822511672973633e+00 1.135212540626525879e+00
2.468000000000000000e+03 7.705961608886718750e+01 -1.958201980590820312e+01 3.731763958930969238e-01 8.244393348693847656e+00 2.585271120071411133e+00 1.173390030860900879e+00
2.469000000000000000e+03 7.478884124755859375e+01 7.369959354400634766e+00 -1.167204417288303375e-02 7.471597671508789062e+00 2.237977743148803711e+00 -8.940301537513732910e-01
2.470000000000000000e+03 7.566898345947265625e+01 2.258183002471923828e+00 -4.523268640041351318e-01 6.751778602600097656e+00 1.889835476875305176e+00 -7.652968764305114746e-01
2.471000000000000000e+03 7.420079040527343750e+01 8.105755805969238281e+00 2.021912634372711182e-01 7.878706932067871094e+00 2.424269437789916992e+00 -7.640967369079589844e-01
2.472000000000000000e+03 7.607125854492187500e+01 -1.559488201141357422e+01 -7.637094855308532715e-01 8.042657852172851562e+00 2.183684587478637695e+00 9.035860896110534668e-01
2.473000000000000000e+03 7.598635101318359375e+01 -1.681390380859375000e+01 -4.634392261505126953e-01 8.146988868713378906e+00 2.305064916610717773e+00 1.189760565757751465e+00
2.474000000000000000e+03 7.400572204589843750e+01 6.612290859222412109e+00 -2.389985769987106323e-01 7.143416404724121094e+00 2.071325302124023438e+00 -5.580506920814514160e-01
2.475000000000000000e+03 7.679209899902343750e+01 3.886210441589355469e+00 -2.612462341785430908e-01 7.485928058624267578e+00 2.167404413223266602e+00 -8.725631237030029297e-01
2.476000000000000000e+03 7.711022186279296875e+01 -1.428548049926757812e+01 -6.852969527244567871e-01 8.761640548706054688e+00 2.422903060913085938e+00 4.996401369571685791e-01
2.477000000000000000e+03 7.679271697998046875e+01 -1.301873397827148438e+01 -1.087254047393798828e+00 8.922633171081542969e+00 2.350613832473754883e+00 5.187012255191802979e-02
2.478000000000000000e+03 7.577399444580078125e+01 9.701292037963867188e+00 6.327000260353088379e-01 7.600077152252197266e+00 2.469833135604858398e+00 -9.277690052986145020e-01
2.479000000000000000e+03 7.630223846435546875e+01 1.187750339508056641e+01 9.759203791618347168e-01 7.493866920471191406e+00 2.540936231613159180e+00 -1.530488133430480957e-01
2.480000000000000000e+03 7.493785858154296875e+01 -1.547801208496093750e+01 -9.072310328483581543e-01 6.722745895385742188e+00 1.744654536247253418e+00 7.640681266784667969e-01
2.481000000000000000e+03 7.438619995117187500e+01 2.049861145019531250e+01 -9.309654235839843750e-01 7.095549583435058594e+00 1.849375247955322266e+00 -1.805461198091506958e-01
2.482000000000000000e+03 7.711065673828125000e+01 1.689241981506347656e+01 6.781445816159248352e-03 7.196712493896484375e+00 2.161048173904418945e+00 8.514494895935058594e-01
2.483000000000000000e+03 7.431249237060546875e+01 1.488607311248779297e+01 8.555119037628173828e-01 8.743600845336914062e+00 2.879733800888061523e+00 5.486859679222106934e-01
2.484000000000000000e+03 7.580796813964843750e+01 -9.832102060317993164e-02 -9.900032877922058105e-01 7.367425918579101562e+00 1.913226842880249023e+00 -5.998525023460388184e-01
2.485000000000000000e+03 7.695771789550781250e+01 -1.197607070207595825e-01 -6.636894941329956055e-01 8.229582786560058594e+00 2.269767999649047852e+00 -2.382190823554992676e-01
2.486000000000000000e+03 7.491999816894531250e+01 1.730344772338867188e+01 -2.156007438898086548e-01 7.929179668426513672e+00 2.314073801040649414e+00 7.904338836669921875e-01
2.487000000000000000e+03 7.629492187500000000e+01 -2.144352722167968750e+01 9.349716901779174805e-01 8.847109794616699219e+00 2.934624195098876953e+00 6.561791300773620605e-01
2.488000000000000000e+03 7.480877685546875000e+01 3.471013641357421875e+01 1.141460612416267395e-01 6.387037754058837891e+00 1.950355172157287598e+00 2.810856997966766357e-01
2.489000000000000000e+03 7.351085662841796875e+01 2.722718238830566406e+01 4.652743339538574219e-01 5.694131851196289062e+00 1.847821831703186035e+00 -4.320085942745208740e-01
2.490000000000000000e+03 7.641009521484375000e+01 2.664581871032714844e+01 4.872534796595573425e-02 6.627212524414062500e+00 2.002781391143798828e+00 -3.057477176189422607e-01
2.491000000000000000e+03 7.333387756347656250e+01 2.230979919433593750e+01 -8.013732433319091797e-01 6.284020423889160156e+00 1.644794106483459473e+00 -6.632125973701477051e-01
2.492000000000000000e+03 7.641082000732421875e+01 2.822722434997558594e+01 1.670971214771270752e-01 6.564182281494140625e+00 2.019383668899536133e+00 -1.972532570362091064e-01
2.493000000000000000e+03 7.497505187988281250e+01 2.639040756225585938e+01 1.616150736808776855e-01 6.256761550903320312e+00 1.925513029098510742e+00 -3.944007158279418945e-01
2.494000000000000000e+03 7.495381927490234375e+01 -3.165475654602050781e+01 3.029130399227142334e-01 6.441150665283203125e+00 2.023219108581542969e+00 2.778261303901672363e-01
2.495000000000000000e+03 7.342957305908203125e+01 -3.676981353759765625e+01 2.863474749028682709e-02 6.442150115966796875e+00 1.941235423088073730e+00 -7.756714224815368652e-01
2.496000000000000000e+03 7.545137786865234375e+01 -3.695348739624023438e+01 -2.445176243782043457e-02 7.038598537445068359e+00 2.104243993759155273e+00 -3.978310525417327881e-01
2.497000000000000000e+03 7.669651031494140625e+01 3.100047874450683594e+01 1.688779294490814209e-01 6.623973369598388672e+00 2.037855386734008789e+00 1.917056553065776825e-02
2.498000000000000000e+03 7.348344421386718750e+01 2.811855697631835938e+01 5.079115033149719238e-01 5.681805610656738281e+00 1.856915116310119629e+00 -1.826520264148712158e-01
2.499000000000000000e+03 7.544895935058593750e+01 -2.837523269653320312e+01 -5.956727862358093262e-01 7.423909664154052734e+00 2.048470973968505859e+00 4.287641644477844238e-01
2.500000000000000000e+03 7.616969299316406250e+01 -3.294360733032226562e+01 2.575608789920806885e-01 6.842029094696044922e+00 2.129876852035522461e+00 9.886347688734531403e-03
2.501000000000000000e+03 7.443384552001953125e+01 -3.042301750183105469e+01 1.554571688175201416e-01 6.368817806243896484e+00 1.957282423973083496e+00 5.623400807380676270e-01
2.502000000000000000e+03 7.515825653076171875e+01 3.008289337158203125e+01 2.884605228900909424e-01 6.256070613861083984e+00 1.963359355926513672e+00 -1.353549119085073471e-02
2.503000000000000000e+03 4.011473846435546875e+01 -5.658166408538818359e-01 2.122951000928878784e-01 3.874825716018676758e+00 1.226136326789855957e+00 1.355482578277587891e+00
2.504000000000000000e+03 3.983869171142578125e+01 -1.839544773101806641e+00 -3.769983649253845215e-01 3.111409664154052734e+00 8.203234076499938965e-01 2.052248954772949219e+00
2.505000000000000000e+03 3.391893768310546875e+01 -6.531002998352050781e+00 3.096030235290527344e+00 5.466931819915771484e+00 2.568888664245605469e+00 -7.415435314178466797e-01
2.506000000000000000e+03 3.569227981567382812e+01 -6.185254573822021484e+00 2.272791862487792969e+00 6.005296230316162109e+00 2.483426332473754883e+00 -1.296728104352951050e-01
2.507000000000000000e+03 4.575539016723632812e+01 -2.459132003784179688e+01 7.567838430404663086e-01 4.313668727874755859e+00 1.521135807037353516e+00 -1.903504848480224609e+00
2.508000000000000000e+03 4.295502090454101562e+01 -1.914051437377929688e+01 2.313608646392822266e+00 4.405987739562988281e+00 2.015878915786743164e+00 -4.488528966903686523e-01
2.509000000000000000e+03 5.242240428924560547e+00 2.189509582519531250e+01 -1.071493849158287048e-01 1.481888771057128906e+00 4.124217927455902100e-01 -2.048051506280899048e-01
2.510000000000000000e+03 2.875876188278198242e+00 2.292381858825683594e+01 2.493128739297389984e-02 3.852156996726989746e-01 1.230440959334373474e-01 7.707349210977554321e-02
2.511000000000000000e+03 5.347823143005371094e+00 2.341728782653808594e+01 1.917294859886169434e-01 1.863849163055419922e+00 6.166735887527465820e-01 -3.350464701652526855e-01
2.512000000000000000e+03 4.083322048187255859e+00 -1.707930183410644531e+01 1.079003691673278809e+00 2.846644401550292969e+00 1.177694439888000488e+00 1.062471747398376465e+00
2.513000000000000000e+03 4.633882999420166016e+00 -1.458493328094482422e+01 6.253502964973449707e-01 2.424419879913330078e+00 9.149310588836669922e-01 6.912577748298645020e-01
2.514000000000000000e+03 4.549300193786621094e+00 2.263556289672851562e+01 5.334062501788139343e-03 1.188590288162231445e+00 3.581773042678833008e-01 -1.017378792166709900e-01
2.515000000000000000e+03 6.820384025573730469e+00 1.499212360382080078e+01 2.484981343150138855e-02 1.470545768737792969e+00 4.486186802387237549e-01 -5.099232196807861328e-01
2.516000000000000000e+03 4.320944309234619141e+00 1.974532890319824219e+01 -2.526446580886840820e-01 7.272830009460449219e-01 1.423915028572082520e-01 -1.356963366270065308e-01
2.517000000000000000e+03 3.032288074493408203e+00 -2.593680953979492188e+01 -2.787450551986694336e-01 1.660709619522094727e+00 4.145893752574920654e-01 -2.555793821811676025e-01
2.518000000000000000e+03 2.871549606323242188e+00 -2.731196975708007812e+01 -4.062180593609809875e-02 1.605649352073669434e+00 4.695082604885101318e-01 -3.706488609313964844e-01
2.519000000000000000e+03 6.068610191345214844e+00 -2.726255989074707031e+01 6.148979067802429199e-02 7.632243037223815918e-01 2.474142313003540039e-01 -3.448282778263092041e-01
2.520000000000000000e+03 4.232465744018554688e+00 1.527649021148681641e+01 -3.139846399426460266e-02 3.234751224517822266e-01 8.762300014495849609e-02 -4.245561957359313965e-01
2.521000000000000000e+03 6.091303825378417969e+00 1.605833816528320312e+01 -2.047057151794433594e-01 1.122224092483520508e+00 2.752555310726165771e-01 -5.424253940582275391e-01
2.522000000000000000e+03 4.483837604522705078e+00 1.403707218170166016e+01 1.304361373186111450e-01 3.851591646671295166e-01 1.546785831451416016e-01 -4.268481433391571045e-01
2.523000000000000000e+03 4.037677764892578125e+00 -9.933225631713867188e+00 -1.036491245031356812e-01 5.766744017601013184e-01 1.419075727462768555e-01 2.029788047075271606e-01
2.524000000000000000e+03 2.846920728683471680e+00 -1.138202762603759766e+01 -8.303164690732955933e-02 3.089258372783660889e-01 6.776826083660125732e-02 -6.354314088821411133e-02
2.525000000000000000e+03 3.093725681304931641e+00 -1.389624500274658203e+01 1.990882754325866699e-01 9.868328571319580078e-01 3.557763397693634033e-01 2.954135835170745850e-02
2.526000000000000000e+03 5.970746040344238281e+00 9.122818946838378906e+00 6.707128286361694336e-01 6.234053373336791992e-01 3.882354497909545898e-01 8.077323436737060547e-02
2.527000000000000000e+03 3.676795721054077148e+00 3.597871398925781250e+01 -3.461636602878570557e-01 1.385974407196044922e+00 3.119432330131530762e-01 -1.730371415615081787e-01
2.528000000000000000e+03 3.248134136199951172e+00 -3.113096237182617188e+01 2.474854588508605957e-01 1.514411568641662598e+00 5.285691022872924805e-01 -8.875865489244461060e-02
2.529000000000000000e+03 6.141617774963378906e+00 1.017097187042236328e+01 7.091523408889770508e-01 7.475023865699768066e-01 4.369964301586151123e-01 -1.190818846225738525e-01
2.530000000000000000e+03 2.986232280731201172e+00 3.176194953918457031e+01 -1.896425932645797729e-01 1.265923500061035156e+00 3.228842616081237793e-01 -8.130882978439331055e-01
2.531000000000000000e+03 7.735918045043945312e+00 -3.483867645263671875e+01 4.826072156429290771e-01 1.862166762351989746e+00 7.034322023391723633e-01 7.824695110321044922e-01
2.532000000000000000e+03 4.309546470642089844e+00 -2.947354888916015625e+01 3.153044283390045166e-01 1.295083761215209961e+00 4.831164777278900146e-01 -2.500003576278686523e-01
2.533000000000000000e+03 4.604927062988281250e+00 -3.071185493469238281e+01 3.857207000255584717e-01 1.338292121887207031e+00 5.172038674354553223e-01 -6.580303609371185303e-02
2.534000000000000000e+03 3.403805732727050781e+00 -3.243064117431640625e+01 2.191263288259506226e-01 1.556617259979248047e+00 5.327230691909790039e-01 7.355900108814239502e-02
2.535000000000000000e+03 2.567804574966430664e+00 7.678926467895507812e+00 1.349508017301559448e-01 -5.857824087142944336e-01 -1.352494806051254272e-01 3.134739398956298828e-01
2.536000000000000000e+03 3.735934257507324219e+00 9.765644073486328125e+00 3.204034566879272461e-01 -2.027019560337066650e-01 3.531045466661453247e-02 8.213367313146591187e-02
2.537000000000000000e+03 3.630258798599243164e+00 -5.117033004760742188e+00 1.081640645861625671e-01 -1.730012744665145874e-01 -1.945116370916366577e-02 -1.934392005205154419e-01
2.538000000000000000e+03 3.060992956161499023e+00 6.836523056030273438e+00 1.184122785925865173e-01 -4.112177193164825439e-01 -8.784162998199462891e-02 4.188840389251708984e-01
2.539000000000000000e+03 2.169215011596679688e+01 8.347496986389160156e+00 9.205323457717895508e-02 5.361204624176025391e+00 1.635977387428283691e+00 -4.301492590457201004e-03
2.540000000000000000e+03 2.183970832824707031e+01 9.632212638854980469e+00 5.561738014221191406e-01 5.412666797637939453e+00 1.790652155876159668e+00 -1.081985831260681152e+00
2.541000000000000000e+03 6.301671504974365234e+00 -3.475942611694335938e+01 3.082838356494903564e-01 1.715369701385498047e+00 6.070960760116577148e-01 6.549656987190246582e-01
2.542000000000000000e+03 1.439177131652832031e+01 2.186626052856445312e+01 1.736847609281539917e-01 -5.356242656707763672e-01 -1.085818484425544739e-01 -4.694287776947021484e-01
2.543000000000000000e+03 4.953853225708007812e+01 -2.850116729736328125e+01 1.105520844459533691e+00 5.605175018310546875e+00 2.013208627700805664e+00 -2.313698768615722656e+00
2.544000000000000000e+03 7.533010101318359375e+01 1.236733531951904297e+01 1.005581378936767578e+00 8.078208923339843750e+00 2.725137233734130859e+00 -5.371139571070671082e-02
2.545000000000000000e+03 5.174661159515380859e+00 -3.773353958129882812e+01 -1.090216487646102905e-01 2.068471193313598633e+00 5.878348946571350098e-01 5.297731161117553711e-01
2.546000000000000000e+03 5.988630294799804688e+00 -3.626696777343750000e+01 6.982643157243728638e-02 1.930533885955810547e+00 6.001080870628356934e-01 6.431715488433837891e-01
2.547000000000000000e+03 2.367544364929199219e+01 1.293646907806396484e+01 1.325240135192871094e-01 4.435121059417724609e+00 1.370293498039245605e+00 -1.965148568153381348e+00
2.548000000000000000e+03 2.721268272399902344e+01 1.173378086090087891e+01 1.489232659339904785e+00 3.006095170974731445e+00 1.348598361015319824e+00 4.661093950271606445e-01
2.549000000000000000e+03 6.494966030120849609e+00 3.826989746093750000e+01 -2.662250697612762451e-01 3.382888138294219971e-01 2.161912433803081512e-02 6.893114000558853149e-02
2.550000000000000000e+03 6.678557586669921875e+01 2.813927841186523438e+01 1.799061894416809082e+00 5.131188869476318359e+00 2.079075336456298828e+00 1.033501029014587402e+00
2.551000000000000000e+03 6.688137817382812500e+01 2.578533172607421875e+01 1.924088835716247559e+00 3.796003341674804688e+00 1.716027617454528809e+00 5.178754925727844238e-01
2.552000000000000000e+03 1.256939601898193359e+01 1.990137100219726562e+01 2.015946656465530396e-01 -4.055099561810493469e-02 4.831309989094734192e-02 -2.406115531921386719e-01
2.553000000000000000e+03 4.931137084960937500e+01 -1.133906745910644531e+01 1.622467398643493652e+00 6.478869438171386719e+00 2.430401086807250977e+00 -1.299385428428649902e-01
2.554000000000000000e+03 1.103751087188720703e+01 1.815638351440429688e+01 -1.491364240646362305e-01 6.256288290023803711e-01 1.429477185010910034e-01 1.111543271690607071e-02
2.555000000000000000e+03 2.632817077636718750e+01 1.960133194923400879e+00 8.014293313026428223e-01 4.132175922393798828e+00 1.480081558227539062e+00 -1.990885853767395020e+00
2.556000000000000000e+03 2.782681846618652344e+01 1.939023017883300781e+00 -4.351206421852111816e-01 6.119115352630615234e+00 1.705198407173156738e+00 -2.102540731430053711e+00
2.557000000000000000e+03 2.908878898620605469e+01 1.912997841835021973e+00 -1.016939282417297363e+00 6.007593154907226562e+00 1.497196078300476074e+00 -1.854549288749694824e+00
2.558000000000000000e+03 2.685971832275390625e+01 6.334465503692626953e+00 2.341364145278930664e+00 5.903617382049560547e+00 2.473494529724121094e+00 3.116987347602844238e-01
2.559000000000000000e+03 2.696177101135253906e+01 7.682332515716552734e+00 2.892567396163940430e+00 5.672299385070800781e+00 2.569460153579711914e+00 3.400095403194427490e-01
2.560000000000000000e+03 5.972301483154296875e+01 2.117306327819824219e+01 -5.860806703567504883e-01 3.872730255126953125e+00 9.859948754310607910e-01 1.707717895507812500e+00
2.561000000000000000e+03 5.201712036132812500e+01 4.866411685943603516e-01 -6.224701404571533203e-01 5.050431728363037109e+00 1.328388452529907227e+00 9.177294373512268066e-01
2.562000000000000000e+03 5.312479019165039062e+01 1.704127192497253418e+00 -1.194639563560485840e+00 4.888113021850585938e+00 1.108042001724243164e+00 1.832702755928039551e+00
2.563000000000000000e+03 1.964871978759765625e+01 1.954462623596191406e+01 6.731393337249755859e-01 4.879350662231445312e+00 1.665747046470642090e+00 2.145315706729888916e-01
2.564000000000000000e+03 6.660532379150390625e+01 4.532980918884277344e+00 -1.636597216129302979e-01 1.296100735664367676e+00 3.397322893142700195e-01 1.069531440734863281e+00
2.565000000000000000e+03 4.488937377929687500e+01 -2.149947738647460938e+01 3.277035236358642578e+00 5.547601699829101562e+00 2.647391080856323242e+00 -2.666540443897247314e-01
2.566000000000000000e+03 4.545868682861328125e+01 -2.026963233947753906e+01 2.941470384597778320e+00 6.801908016204833984e+00 2.923013448715209961e+00 -1.058790832757949829e-01
2.567000000000000000e+03 6.625153350830078125e+01 1.561963915824890137e+00 2.421521022915840149e-02 3.391505956649780273e+00 1.024716377258300781e+00 1.258480548858642578e+00
2.568000000000000000e+03 4.883034515380859375e+01 -6.462685108184814453e+00 1.619544863700866699e+00 8.085279464721679688e+00 2.911447286605834961e+00 -1.932846754789352417e-01
2.569000000000000000e+03 5.722075271606445312e+01 9.493527412414550781e+00 1.864392280578613281e+00 7.746537208557128906e+00 2.883278846740722656e+00 7.767202258110046387e-01
2.570000000000000000e+03 5.773414611816406250e+01 -2.372062301635742188e+01 8.571449518203735352e-01 6.273922443389892578e+00 2.139320373535156250e+00 1.204914212226867676e+00
2.571000000000000000e+03 6.609847259521484375e+01 2.154136085510253906e+01 -8.631042242050170898e-01 5.315470099449157715e-01 -9.946715831756591797e-02 7.316923141479492188e-01
2.572000000000000000e+03 6.016725540161132812e+01 -2.467330360412597656e+01 8.190335631370544434e-01 2.335052728652954102e+00 9.462258815765380859e-01 7.409607172012329102e-01
2.573000000000000000e+03 1.631205368041992188e+01 -1.217558193206787109e+01 -2.465097188949584961e+00 5.945233821868896484e+00 1.044040918350219727e+00 -6.189282285049557686e-04
2.574000000000000000e+03 4.376966476440429688e+01 -2.413790702819824219e+01 2.398858070373535156e+00 3.384603023529052734e+00 1.735038280487060547e+00 -1.051522940397262573e-01
2.575000000000000000e+03 6.436860656738281250e+01 -1.012242436408996582e+00 3.730899095535278320e-01 6.352200508117675781e+00 2.017586946487426758e+00 7.066451907157897949e-01
2.576000000000000000e+03 5.502140045166015625e+01 4.001019001007080078e+00 -1.006306409835815430e+00 5.296118736267089844e+00 1.286943674087524414e+00 1.688204526901245117e+00
2.577000000000000000e+03 9.965622901916503906e+00 -3.049680709838867188e+01 1.178100824356079102e+00 1.692568063735961914e+00 8.612006902694702148e-01 6.916840076446533203e-01
2.578000000000000000e+03 7.468187713623046875e+01 -1.807031822204589844e+01 -9.639728814363479614e-02 8.257292747497558594e+00 2.448268651962280273e+00 6.040166616439819336e-01
2.579000000000000000e+03 2.283596229553222656e+01 -2.414556312561035156e+01 5.641559362411499023e-01 1.737615346908569336e+00 6.905313730239868164e-01 -2.816231250762939453e-01
2.580000000000000000e+03 1.962183952331542969e+01 -2.416207504272460938e+01 4.083955287933349609e-01 3.500490486621856689e-01 2.275333702564239502e-01 1.651095747947692871e-01
2.581000000000000000e+03 4.424763870239257812e+01 1.939609146118164062e+01 -1.158577442169189453e+00 6.187036514282226562e+00 1.508537769317626953e+00 2.245273113250732422e+00
2.582000000000000000e+03 7.380171203613281250e+01 9.019378662109375000e+00 6.994342803955078125e-01 8.220829010009765625e+00 2.676078796386718750e+00 -4.036382138729095459e-01
2.583000000000000000e+03 8.647643089294433594e+00 1.032788085937500000e+01 1.157057642936706543e+00 2.416788816452026367e+00 1.072153925895690918e+00 -5.807795524597167969e-01
2.584000000000000000e+03 6.767292976379394531e+00 1.237843227386474609e+01 5.269441008567810059e-01 1.344326496124267578e+00 5.613812208175659180e-01 -5.308774709701538086e-01
2.585000000000000000e+03 6.464086914062500000e+01 2.470523452758789062e+01 1.367307424545288086e+00 5.179572582244873047e+00 1.964064002037048340e+00 1.765368700027465820e+00
2.586000000000000000e+03 1.560536861419677734e+01 -1.113318538665771484e+01 -1.164887309074401855e+00 5.359507560729980469e+00 1.258386135101318359e+00 1.956996768712997437e-01
2.587000000000000000e+03 3.052597045898437500e+01 3.151417732238769531e+01 3.510895073413848877e-01 3.794089078903198242e+00 1.243553638458251953e+00 -1.700293421745300293e+00
2.588000000000000000e+03 7.413986206054687500e+01 -2.812500762939453125e+01 -5.492133498191833496e-01 6.849963665008544922e+00 1.890225052833557129e+00 9.186794757843017578e-01
2.589000000000000000e+03 3.350965118408203125e+01 -3.192197990417480469e+01 7.917996048927307129e-01 9.639931321144104004e-01 5.267378091812133789e-01 -2.840748727321624756e-01
2.590000000000000000e+03 3.477155303955078125e+01 -3.102778053283691406e+01 8.606038093566894531e-01 4.655686020851135254e-01 3.978517055511474609e-01 1.126326471567153931e-01
2.591000000000000000e+03 3.141676521301269531e+01 -9.832089424133300781e+00 2.757030248641967773e+00 6.020956516265869141e+00 2.633395910263061523e+00 1.227305173873901367e+00
2.592000000000000000e+03 3.122274208068847656e+01 -1.148563289642333984e+01 1.249734535813331604e-01 5.931831836700439453e+00 1.817041635513305664e+00 1.538934230804443359e+00
2.593000000000000000e+03 6.911629486083984375e+01 -3.046858024597167969e+01 2.490015745162963867e+00 4.174054622650146484e+00 1.999221086502075195e+00 -1.297719120979309082e+00
2.594000000000000000e+03 3.599431610107421875e+01 -1.314751148223876953e+00 7.658312320709228516e-01 2.831305027008056641e+00 1.079140901565551758e+00 2.493933439254760742e+00
2.595000000000000000e+03 5.423327636718750000e+01 1.770549893379211426e+00 -1.559810876846313477e+00 4.251055717468261719e+00 8.073734045028686523e-01 2.333242416381835938e+00
2.596000000000000000e+03 5.094451904296875000e+01 -3.070176315307617188e+01 3.106555700302124023e+00 6.604476451873779297e+00 2.913309574127197266e+00 -9.044338464736938477e-01
2.597000000000000000e+03 1.280375862121582031e+01 -2.809617614746093750e+01 4.884839653968811035e-01 2.775876522064208984e+00 9.793081879615783691e-01 1.294129967689514160e+00
2.598000000000000000e+03 1.282539653778076172e+01 -2.701451683044433594e+01 4.526722803711891174e-02 2.527411699295043945e+00 7.718037366867065430e-01 1.319896936416625977e+00
2.599000000000000000e+03 6.352376556396484375e+01 2.250942802429199219e+01 -9.551637768745422363e-01 5.225038051605224609e+00 1.280962228775024414e+00 3.135163784027099609e+00
2.600000000000000000e+03 6.474770355224609375e+01 2.372957801818847656e+01 7.008874416351318359e-01 4.496493339538574219e+00 1.559214234352111816e+00 1.614698529243469238e+00
2.601000000000000000e+03 5.956995010375976562e+01 -1.104619693756103516e+01 -3.552716970443725586e-01 4.574514865875244141e+00 1.265772938728332520e+00 2.330317020416259766e+00
2.602000000000000000e+03 5.262497711181640625e+01 4.361637592315673828e+00 -5.824281573295593262e-01 4.254721164703369141e+00 1.101687908172607422e+00 3.247579336166381836e+00
2.603000000000000000e+03 5.113996887207031250e+01 -7.351107120513916016e+00 1.997184991836547852e+00 7.921085834503173828e+00 2.975481271743774414e+00 -1.222894191741943359e-01
2.604000000000000000e+03 7.064022064208984375e+01 2.118080329895019531e+01 -1.253077864646911621e+00 4.566462039947509766e+00 9.940152764320373535e-01 -1.419894576072692871e+00
2.605000000000000000e+03 7.165294647216796875e+01 2.176381492614746094e+01 -1.229443192481994629e+00 5.587617874145507812e+00 1.307452440261840820e+00 -1.259035944938659668e+00
2.606000000000000000e+03 1.139986991882324219e+01 -9.705983161926269531e+00 1.010291337966918945e+00 2.058166116476058960e-01 3.648323714733123779e-01 2.074190378189086914e+00
2.607000000000000000e+03 1.865410614013671875e+01 -2.063287353515625000e+01 1.722711801528930664e+00 1.865411281585693359e+00 1.076436877250671387e+00 -5.120933055877685547e-01
2.608000000000000000e+03 8.903861999511718750e+00 -2.712491035461425781e+01 2.130606919527053833e-01 5.405331850051879883e-01 2.260781675577163696e-01 1.964696347713470459e-01
2.609000000000000000e+03 5.836333847045898438e+01 1.511123466491699219e+01 1.855917692184448242e+00 7.842061042785644531e+00 2.909393548965454102e+00 1.080114722251892090e+00
2.610000000000000000e+03 5.954214477539062500e+01 1.365503406524658203e+01 1.155022501945495605e+00 9.517810821533203125e+00 3.201849937438964844e+00 9.142435193061828613e-01
2.611000000000000000e+03 5.472894287109375000e+01 5.137844562530517578e+00 -4.876322448253631592e-01 5.949552059173583984e+00 1.638575911521911621e+00 1.267343878746032715e+00
2.612000000000000000e+03 5.421162414550781250e+01 2.873558044433593750e+00 -1.221691966056823730e+00 4.509354591369628906e+00 9.862987995147705078e-01 2.200709342956542969e+00
2.613000000000000000e+03 1.923581695556640625e+01 2.407466316223144531e+01 -8.261785507202148438e-01 4.339304924011230469e+00 1.053937911987304688e+00 1.655404567718505859e-01
2.614000000000000000e+03 2.913076782226562500e+01 -3.331758880615234375e+01 4.234256744384765625e-01 3.688728094100952148e+00 1.233646154403686523e+00 -5.592125058174133301e-01
2.615000000000000000e+03 3.060285377502441406e+01 -3.201528930664062500e+01 1.306560039520263672e-01 2.856645584106445312e+00 8.961904644966125488e-01 -7.954720854759216309e-01
2.616000000000000000e+03 5.685451507568359375e+01 -1.557760715484619141e+01 -4.454150795936584473e-01 5.987669944763183594e+00 1.662676453590393066e+00 -9.484865069389343262e-01
2.617000000000000000e+03 5.760084533691406250e+01 -1.209839630126953125e+01 1.788048595190048218e-01 2.473970890045166016e+00 7.958327531814575195e-01 -4.761944115161895752e-01
2.618000000000000000e+03 5.275373840332031250e+01 -2.730272674560546875e+01 -4.717290103435516357e-01 3.742530107498168945e+00 9.812403321266174316e-01 1.439553976058959961e+00
2.619000000000000000e+03 4.855275344848632812e+01 2.621155166625976562e+01 2.447278738021850586e+00 6.549903392791748047e+00 2.699154615402221680e+00 1.138598680496215820e+00
2.620000000000000000e+03 2.697648429870605469e+01 -1.533145713806152344e+01 -2.164833545684814453e+00 4.163480281829833984e+00 5.995940566062927246e-01 1.338110566139221191e+00
2.621000000000000000e+03 4.979364776611328125e+01 3.679320335388183594e+00 2.089234814047813416e-02 1.589117884635925293e+00 4.830030798912048340e-01 1.228686869144439697e-01
2.622000000000000000e+03 6.408649444580078125e+01 -1.011270427703857422e+01 3.107275813817977905e-02 7.739776611328125000e+00 2.331254720687866211e+00 -3.168805851601064205e-04
2.623000000000000000e+03 4.508001708984375000e+01 -1.790824055671691895e+00 3.467215895652770996e-01 3.210978507995605469e+00 1.067310094833374023e+00 -2.398155212402343750e+00
2.624000000000000000e+03 4.161731338500976562e+01 1.374458074569702148e+00 9.225966334342956543e-01 5.358548164367675781e+00 1.884343385696411133e+00 -5.084725618362426758e-01
2.625000000000000000e+03 5.837148666381835938e+01 8.955389022827148438e+00 1.002750158309936523e+00 7.028563022613525391e+00 2.409393787384033203e+00 7.767217606306076050e-02
2.626000000000000000e+03 5.882040500640869141e+00 -1.075221157073974609e+01 -1.804121136665344238e-01 1.347148895263671875e+00 3.500210344791412354e-01 7.962585091590881348e-01
2.627000000000000000e+03 1.845190811157226562e+01 -1.551729011535644531e+01 -8.838333487510681152e-01 3.666990756988525391e+00 8.349472284317016602e-01 -3.577035963535308838e-01
2.628000000000000000e+03 5.804508209228515625e+01 -2.634637451171875000e+01 -2.050983905792236328e+00 5.983534812927246094e+00 1.179765343666076660e+00 1.992382049560546875e+00
2.629000000000000000e+03 4.854445266723632812e+01 -2.723023033142089844e+01 -1.046761989593505859e+00 5.155251026153564453e+00 1.232546687126159668e+00 -3.379018545150756836e+00
2.630000000000000000e+03 7.150997924804687500e+01 6.969637870788574219e+00 -3.666502237319946289e-01 6.025027275085449219e+00 1.697513103485107422e+00 1.100439310073852539e+00
2.631000000000000000e+03 6.874851226806640625e+01 3.170854330062866211e+00 3.409189283847808838e-01 2.047349452972412109e+00 7.164805531501770020e-01 1.960440397262573242e+00
2.632000000000000000e+03 2.953063583374023438e+01 -1.139870071411132812e+01 3.408254683017730713e-01 7.379717350006103516e+00 2.316162824630737305e+00 2.066097497940063477e+00
2.633000000000000000e+03 5.327379608154296875e+01 2.039321517944335938e+01 -8.012057542800903320e-01 4.314600467681884766e+00 1.054018378257751465e+00 -2.482926130294799805e+00
2.634000000000000000e+03 6.072596359252929688e+01 -1.215166568756103516e+01 -9.946843981742858887e-01 5.933829784393310547e+00 1.481743574142456055e+00 1.403197050094604492e+00
2.635000000000000000e+03 6.311111450195312500e+01 -1.151274108886718750e+01 -1.314632534980773926e+00 7.211474895477294922e+00 1.769052743911743164e+00 7.825698256492614746e-01
2.636000000000000000e+03 1.414607715606689453e+01 -2.685527420043945312e+01 -1.179559305310249329e-01 3.081863403320312500e+00 8.891721963882446289e-01 1.523509025573730469e+00
2.637000000000000000e+03 4.072087478637695312e+01 5.520185232162475586e-01 6.041037440299987793e-01 4.821841239929199219e+00 1.627783536911010742e+00 6.442925333976745605e-01
2.638000000000000000e+03 5.359659194946289062e+01 -2.790040397644042969e+01 -3.022593855857849121e-01 4.852781772613525391e+00 1.365156769752502441e+00 1.540281534194946289e+00
2.639000000000000000e+03 6.449378967285156250e+01 4.930864334106445312e+00 -7.566482424736022949e-01 2.130776882171630859e+00 4.122385978698730469e-01 -9.930962324142456055e-01
2.640000000000000000e+03 6.179470443725585938e+01 5.620317935943603516e+00 -1.132551431655883789e+00 4.537458419799804688e+00 1.021472096443176270e+00 -1.778144955635070801e+00
2.641000000000000000e+03 5.631594467163085938e+01 -2.545109939575195312e+01 -1.824789166450500488e+00 7.747718334197998047e+00 1.776878714561462402e+00 1.818577289581298828e+00
2.642000000000000000e+03 1.468587684631347656e+01 -7.741702079772949219e+00 2.633569002151489258e+00 4.808163166046142578e+00 2.232519626617431641e+00 7.822646498680114746e-01
2.643000000000000000e+03 1.300638008117675781e+01 -9.922185897827148438e+00 7.844762206077575684e-01 1.019885063171386719e+00 5.413083434104919434e-01 1.405663967132568359e+00
2.644000000000000000e+03 2.370558929443359375e+01 3.509106063842773438e+01 -2.414713054895401001e-01 3.619981527328491211e+00 1.013553023338317871e+00 4.629788696765899658e-01
2.645000000000000000e+03 4.965873336791992188e+01 3.028674697875976562e+01 1.271140694618225098e+00 6.664854526519775391e+00 2.380798578262329102e+00 8.990337252616882324e-01
2.646000000000000000e+03 5.073421859741210938e+01 -1.348463630676269531e+01 -5.799904465675354004e-01 3.554327487945556641e+00 8.923011422157287598e-01 -7.392951250076293945e-01
2.647000000000000000e+03 4.547801589965820312e+01 3.584837722778320312e+01 -1.332817077636718750e+00 4.070516109466552734e+00 8.213096261024475098e-01 -1.105355620384216309e+00
2.648000000000000000e+03 4.435313034057617188e+01 3.756640625000000000e+01 -1.087293982505798340e+00 3.265489339828491211e+00 6.534585952758789062e-01 -8.477352857589721680e-01
2.649000000000000000e+03 9.326151847839355469e+00 7.339918136596679688e+00 8.136806488037109375e-01 1.658463716506958008e+00 7.416433095932006836e-01 -3.701219558715820312e-01
2.650000000000000000e+03 1.802419853210449219e+01 -2.337323570251464844e+01 1.548850685358047485e-01 1.830827951431274414e+00 5.957139134407043457e-01 5.739392042160034180e-01
2.651000000000000000e+03 6.595381927490234375e+01 -1.320656394958496094e+01 -9.839246869087219238e-01 4.287474632263183594e+00 9.910650849342346191e-01 -1.193586811423301697e-01
2.652000000000000000e+03 6.753691101074218750e+01 -1.459713459014892578e+01 -7.000945210456848145e-01 1.131421327590942383e+00 1.293980330228805542e-01 -6.402692794799804688e-01
2.653000000000000000e+03 7.601367950439453125e+01 4.061323547363281250e+01 -9.040793031454086304e-02 7.039105415344238281e+00 2.084609270095825195e+00 1.397976875305175781e-01
2.654000000000000000e+03 2.816341400146484375e+00 3.062408065795898438e+01 -1.260991096496582031e-01 1.075612068176269531e+00 2.848538756370544434e-01 -1.037551164627075195e+00
2.655000000000000000e+03 2.918265342712402344e+01 6.388689279556274414e-01 -4.810054004192352295e-01 6.309040546417236328e+00 1.748410582542419434e+00 -2.445892810821533203e+00
2.656000000000000000e+03 3.004051208496093750e+01 -2.893231773376464844e+01 -1.597579121589660645e+00 3.975444555282592773e+00 7.133596539497375488e-01 -7.487947940826416016e-01
2.657000000000000000e+03 6.160813903808593750e+01 6.718514442443847656e+00 -6.070991754531860352e-01 4.475241661071777344e+00 1.160442709922790527e+00 -1.868720650672912598e+00
2.658000000000000000e+03 5.794141387939453125e+01 4.216513156890869141e+00 -4.210498034954071045e-01 4.793378829956054688e+00 1.311698675155639648e+00 -1.096276760101318359e+00
2.659000000000000000e+03 3.447934341430664062e+01 -1.300357532501220703e+01 -1.204929828643798828e+00 1.487847208976745605e+00 8.487518876791000366e-02 -7.323362827301025391e-01
2.660000000000000000e+03 5.664596176147460938e+01 7.424569606781005859e+00 1.210327386856079102e+00 7.380966186523437500e+00 2.577388048171997070e+00 4.542409777641296387e-01
2.661000000000000000e+03 4.302645874023437500e+01 -2.321833419799804688e+01 2.680524587631225586e+00 4.472137928009033203e+00 2.145798683166503906e+00 5.073652267456054688e-01
2.662000000000000000e+03 4.486599349975585938e+01 4.473030090332031250e+00 6.514602899551391602e-01 4.388754844665527344e+00 1.512064576148986816e+00 -1.436467766761779785e+00
2.663000000000000000e+03 2.255888366699218750e+01 1.517585372924804688e+01 -1.254966497421264648e+00 6.915668010711669922e+00 1.698210358619689941e+00 -8.467743992805480957e-01
2.664000000000000000e+03 4.975734710693359375e+01 2.865012168884277344e+01 1.876100301742553711e+00 6.860906600952148438e+00 2.621102094650268555e+00 1.242920994758605957e+00
2.665000000000000000e+03 5.054399490356445312e+01 3.120455932617187500e+01 1.093185544013977051e+00 6.828828811645507812e+00 2.376604318618774414e+00 8.712980747222900391e-01
2.666000000000000000e+03 5.224123001098632812e+01 3.598788833618164062e+01 -1.144185662269592285e+00 6.092582225799560547e+00 1.484519004821777344e+00 4.934408366680145264e-01
2.667000000000000000e+03 5.290707397460937500e+01 -1.077750682830810547e+01 9.423724412918090820e-01 4.612586021423339844e+00 1.666487574577331543e+00 -2.213315725326538086e+00
2.668000000000000000e+03 6.877648925781250000e+01 -1.412270164489746094e+01 -4.344283640384674072e-01 5.493561625480651855e-01 3.447834029793739319e-02 -1.528608441352844238e+00
2.669000000000000000e+03 7.290821075439453125e+01 1.843915367126464844e+01 -1.023561358451843262e+00 7.468847751617431641e+00 1.933585882186889648e+00 -5.721798166632652283e-02
2.670000000000000000e+03 7.218893432617187500e+01 2.088492393493652344e+01 -1.381708264350891113e+00 6.189901828765869141e+00 1.442458033561706543e+00 -8.246313929557800293e-01
2.671000000000000000e+03 5.529197692871093750e+01 1.685350608825683594e+01 7.972127795219421387e-01 5.337384700775146484e+00 1.840379238128662109e+00 -1.165524363517761230e+00
2.672000000000000000e+03 5.748189163208007812e+01 1.637364006042480469e+01 1.714033484458923340e+00 6.385163784027099609e+00 2.429759263992309570e+00 2.635452449321746826e-01
2.673000000000000000e+03 3.418965148925781250e+01 1.553454685211181641e+01 1.179220318794250488e+00 3.388538122177124023e+00 1.370327591896057129e+00 -2.563143074512481689e-01
2.674000000000000000e+03 3.501898193359375000e+01 1.650652885437011719e+01 2.224948883056640625e+00 3.150793075561523438e+00 1.612722516059875488e+00 -1.196154236793518066e+00
2.675000000000000000e+03 5.755995559692382812e+01 1.061675357818603516e+01 1.569507360458374023e+00 8.111707687377929688e+00 2.904364585876464844e+00 9.458822011947631836e-01
2.676000000000000000e+03 3.315242767333984375e+01 -7.434201240539550781e+00 3.089717864990234375e+00 6.140073776245117188e+00 2.768937349319458008e+00 -6.378837227821350098e-01
2.677000000000000000e+03 4.697648620605468750e+01 -1.885163187980651855e+00 6.212880015373229980e-01 4.518594741821289062e+00 1.541964888572692871e+00 -2.208393335342407227e+00
2.678000000000000000e+03 2.407076263427734375e+01 -2.639974021911621094e+01 -1.418130517005920410e+00 3.811965227127075195e+00 7.181503772735595703e-01 -1.210709735751152039e-01
2.679000000000000000e+03 2.494012641906738281e+01 -2.724918365478515625e+01 -1.693059444427490234e+00 4.667347908020019531e+00 8.922865986824035645e-01 3.393802642822265625e-01
2.680000000000000000e+03 4.776463699340820312e+01 -4.082950115203857422e+00 9.350901842117309570e-01 5.863083362579345703e+00 2.039452075958251953e+00 -1.649547815322875977e+00
2.681000000000000000e+03 4.996515655517578125e+01 -3.756613492965698242e+00 1.403329253196716309e+00 7.026690959930419922e+00 2.529006004333496094e+00 -6.726893782615661621e-01
2.682000000000000000e+03 6.168413925170898438e+01 4.119322967529296875e+01 -2.048210501670837402e-01 2.427107810974121094e+00 6.666860580444335938e-01 -1.752024143934249878e-01
2.683000000000000000e+03 1.222644901275634766e+01 -8.971984863281250000e+00 2.019772052764892578e+00 8.227588534355163574e-01 8.527592420578002930e-01 1.802404642105102539e+00
2.684000000000000000e+03 3.829015350341796875e+01 1.893359375000000000e+01 1.521374344825744629e+00 2.063775300979614258e+00 1.075544953346252441e+00 -1.835439562797546387e+00
2.685000000000000000e+03 3.667282104492187500e+01 2.002195167541503906e+01 1.034956216812133789e+00 3.241940736770629883e+00 1.283069133758544922e+00 -1.726524114608764648e+00
2.686000000000000000e+03 6.780556488037109375e+01 2.854439544677734375e+01 1.550092458724975586e+00 4.575572013854980469e+00 1.837699413299560547e+00 7.324836850166320801e-01
2.687000000000000000e+03 6.870140075683593750e+01 3.054750061035156250e+01 1.041105747222900391e+00 5.044209003448486328e+00 1.825594425201416016e+00 7.554772496223449707e-01
2.688000000000000000e+03 6.823050689697265625e+01 -3.016726493835449219e+01 2.413996458053588867e+00 5.450036048889160156e+00 2.359209775924682617e+00 -1.670321226119995117e+00
2.689000000000000000e+03 6.460096740722656250e+01 -1.229257106781005859e+01 -1.346310019493103027e+00 6.461630344390869141e+00 1.534596085548400879e+00 1.880927681922912598e-01
2.690000000000000000e+03 5.488165378570556641e+00 -1.267019557952880859e+01 7.159687578678131104e-02 1.982581734657287598e+00 6.162536144256591797e-01 6.167708635330200195e-01
2.691000000000000000e+03 4.910076618194580078e+00 -1.161877250671386719e+01 -1.025808528065681458e-01 1.346150994300842285e+00 3.730710744857788086e-01 4.037995636463165283e-01
2.692000000000000000e+03 4.168275070190429688e+01 -1.878017616271972656e+01 2.050279140472412109e+00 4.682725906372070312e+00 2.019901514053344727e+00 -7.390997409820556641e-01
2.693000000000000000e+03 7.373181915283203125e+01 -1.515051841735839844e+01 -5.839130282402038574e-01 4.920940399169921875e+00 1.301108121871948242e+00 2.735776901245117188e-01
2.694000000000000000e+03 2.624537849426269531e+01 -1.772747421264648438e+01 6.373354196548461914e-01 3.888518095016479492e+00 1.357756137847900391e+00 5.276225805282592773e-01
2.695000000000000000e+03 1.931814575195312500e+01 2.236866378784179688e+01 7.983453273773193359e-01 4.365429401397705078e+00 1.549132347106933594e+00 1.003284230828285217e-01
2.696000000000000000e+03 1.788927459716796875e+01 2.041172599792480469e+01 1.228664159774780273e+00 1.338914275169372559e+00 7.702735066413879395e-01 6.871853023767471313e-02
2.697000000000000000e+03 6.146707534790039062e+00 2.239995384216308594e+01 4.911004379391670227e-02 1.792122125625610352e+00 5.523696541786193848e-01 -4.999609887599945068e-01
2.698000000000000000e+03 1.670673942565917969e+01 4.114187622070312500e+01 -5.694932341575622559e-01 1.899258375167846680e+00 3.989295661449432373e-01 -1.762239187955856323e-01
2.699000000000000000e+03 2.758203506469726562e+01 -2.786741447448730469e+01 -1.768563628196716309e+00 5.744413852691650391e+00 1.192755103111267090e+00 2.301661372184753418e-01
2.700000000000000000e+03 4.364191818237304688e+01 4.870373249053955078e+00 1.080905795097351074e+00 5.374615669250488281e+00 1.936656475067138672e+00 -9.656026363372802734e-01
2.701000000000000000e+03 6.155182266235351562e+01 -1.989726066589355469e+01 2.347950458526611328e+00 5.678108215332031250e+00 2.407817602157592773e+00 -1.082270026206970215e+00
2.702000000000000000e+03 3.861062622070312500e+01 1.429047107696533203e+01 9.694364070892333984e-01 3.453242778778076172e+00 1.326803684234619141e+00 -1.832266807556152344e+00
2.703000000000000000e+03 1.465572166442871094e+01 -5.644536018371582031e+00 3.264094352722167969e+00 5.488171100616455078e+00 2.625679731369018555e+00 1.515552401542663574e+00
2.704000000000000000e+03 4.423254776000976562e+01 5.943523406982421875e+00 3.236173391342163086e-01 5.593846321105957031e+00 1.775239109992980957e+00 -6.714620590209960938e-01
2.705000000000000000e+03 6.728073120117187500e+01 -3.145011138916015625e+01 2.687832355499267578e+00 7.409607887268066406e+00 3.029232025146484375e+00 -2.672581911087036133e+00
2.706000000000000000e+03 6.839105224609375000e+01 -3.110525321960449219e+01 2.393047809600830078e+00 5.566561222076416016e+00 2.387882709503173828e+00 -1.518072366714477539e+00
2.707000000000000000e+03 5.324797058105468750e+01 2.289367675781250000e+01 -5.431422591209411621e-01 4.986673355102539062e+00 1.333059310913085938e+00 -1.862119317054748535e+00
2.708000000000000000e+03 4.873395919799804688e+01 2.838927841186523438e+01 1.664153695106506348e+00 7.150345325469970703e+00 2.644349813461303711e+00 1.137639880180358887e+00
2.709000000000000000e+03 1.255678844451904297e+01 -2.476771163940429688e+01 -1.110902190208435059e+00 1.832889080047607422e+00 2.165960818529129028e-01 1.525915145874023438e+00
2.710000000000000000e+03 4.096379852294921875e+01 1.517937850952148438e+01 1.700319766998291016e+00 5.072453022003173828e+00 2.031831979751586914e+00 -7.302503585815429688e-01
2.711000000000000000e+03 5.828834915161132812e+01 1.275238990783691406e+01 1.473698139190673828e+00 8.538927078247070312e+00 3.003787755966186523e+00 8.658246397972106934e-01
2.712000000000000000e+03 1.383528232574462891e+01 -2.437551689147949219e+01 -1.351484894752502441e+00 2.716430187225341797e+00 4.094835817813873291e-01 1.717581033706665039e+00
2.713000000000000000e+03 1.175008010864257812e+01 -3.006831932067871094e+01 1.303417921066284180e+00 2.653001546859741211e+00 1.186925888061523438e+00 1.111066818237304688e+00
2.714000000000000000e+03 6.303542613983154297e+00 -3.166272735595703125e+01 6.474308371543884277e-01 1.303870916366577148e+00 5.853905081748962402e-01 2.505424916744232178e-01
2.715000000000000000e+03 2.621253013610839844e+01 -2.168534278869628906e+01 2.160305738449096680e+00 5.041255950927734375e+00 2.160468578338623047e+00 4.098705053329467773e-01
2.716000000000000000e+03 3.849917221069335938e+01 -1.512353539466857910e+00 -2.609865665435791016e-01 3.797677040100097656e+00 1.061007142066955566e+00 2.708419799804687500e+00
2.717000000000000000e+03 5.489717483520507812e+01 -1.473254108428955078e+01 -9.157249927520751953e-01 4.947327613830566406e+00 1.209480762481689453e+00 -2.299714088439941406e+00
2.718000000000000000e+03 5.577080154418945312e+01 -1.516614437103271484e+01 -5.318485498428344727e-01 5.453491210937500000e+00 1.476492881774902344e+00 -1.940032124519348145e+00
2.719000000000000000e+03 5.169455051422119141e+00 1.549579334259033203e+01 -7.729905098676681519e-02 8.438432216644287109e-01 2.299632579088211060e-01 -4.909622669219970703e-01
2.720000000000000000e+03 4.190758895874023438e+01 1.544154930114746094e+01 1.934219360351562500e+00 5.946001052856445312e+00 2.364066123962402344e+00 -1.722775399684906006e-01
2.721000000000000000e+03 4.090168380737304688e+01 1.284517097473144531e+01 7.395574450492858887e-01 6.238459587097167969e+00 2.093405008316040039e+00 -1.516064852476119995e-01
2.722000000000000000e+03 2.835060310363769531e+01 -1.470081710815429688e+01 -2.925394535064697266e+00 6.456853389739990234e+00 1.059437632560729980e+00 1.758060812950134277e+00
2.723000000000000000e+03 2.892254447937011719e+01 -1.396072006225585938e+01 -3.476946830749511719e+00 6.583748340606689453e+00 9.320405125617980957e-01 2.108438014984130859e+00
2.724000000000000000e+03 3.972227478027343750e+01 1.295480823516845703e+01 4.663027226924896240e-01 5.097797393798828125e+00 1.669229984283447266e+00 -9.600324630737304688e-01
2.725000000000000000e+03 5.710834121704101562e+01 1.535230064392089844e+01 1.691106796264648438e+00 7.018875122070312500e+00 2.612994432449340820e+00 2.406063526868820190e-01
2.726000000000000000e+03 4.215296554565429688e+01 3.840796279907226562e+01 -7.198993563652038574e-01 2.022227048873901367e+00 3.906983137130737305e-01 -5.931894183158874512e-01
2.727000000000000000e+03 5.399627685546875000e+01 -3.123109436035156250e+01 2.605169057846069336e+00 7.040954589843750000e+00 2.893837213516235352e+00 4.741695523262023926e-01
2.728000000000000000e+03 4.981527709960937500e+01 -2.529340505599975586e+00 8.347457051277160645e-01 6.339234828948974609e+00 2.152194023132324219e+00 -8.890515565872192383e-01
2.729000000000000000e+03 5.050582122802734375e+01 2.750507593154907227e-01 2.500824630260467529e-01 5.029506206512451172e+00 1.583876490592956543e+00 -7.058931142091751099e-02
2.730000000000000000e+03 5.030545425415039062e+01 -1.060336875915527344e+01 1.891239285469055176e+00 6.330744743347167969e+00 2.466595172882080078e+00 -6.087944507598876953e-01
2.731000000000000000e+03 1.679808616638183594e+01 -2.482070159912109375e+01 -1.028742790222167969e+00 2.274793386459350586e+00 3.738151788711547852e-01 1.615135073661804199e+00
2.732000000000000000e+03 1.663050651550292969e+01 -2.354734420776367188e+01 -5.466080904006958008e-01 2.677231311798095703e+00 6.391869783401489258e-01 1.361356139183044434e+00
2.733000000000000000e+03 5.519836425781250000e+01 -4.009141540527343750e+01 -2.875186443328857422e+00 6.728652954101562500e+00 1.156039953231811523e+00 -1.464899182319641113e-01
2.734000000000000000e+03 5.280500793457031250e+01 -2.856547355651855469e+01 1.316985964775085449e+00 4.742769718170166016e+00 1.817926764488220215e+00 4.219217300415039062e-01
2.735000000000000000e+03 7.531613159179687500e+01 1.835910034179687500e+01 -6.599827408790588379e-01 7.640387535095214844e+00 2.094121456146240234e+00 5.969399213790893555e-01
2.736000000000000000e+03 3.303702545166015625e+01 -3.570329904556274414e+00 2.608203411102294922e+00 4.876825809478759766e+00 2.245508670806884766e+00 -7.147086262702941895e-01
2.737000000000000000e+03 3.207214736938476562e+01 -4.009644031524658203e+00 2.708491563796997070e+00 6.095039367675781250e+00 2.641059398651123047e+00 -1.089597344398498535e+00
2.738000000000000000e+03 4.083093643188476562e+01 1.890715980529785156e+01 1.182702779769897461e+00 2.337010622024536133e+00 1.055914044380187988e+00 -4.109056293964385986e-01
2.739000000000000000e+03 4.879332733154296875e+01 -3.920544385910034180e+00 9.526529908180236816e-01 6.277942657470703125e+00 2.169178724288940430e+00 -1.058646678924560547e+00
2.740000000000000000e+03 4.910599136352539062e+01 -1.706039756536483765e-01 4.545983672142028809e-01 4.548013210296630859e+00 1.500783443450927734e+00 -1.283716797828674316e+00
2.741000000000000000e+03 4.939033126831054688e+01 3.465419387817382812e+01 -7.155178189277648926e-01 5.787605285644531250e+00 1.521626234054565430e+00 -1.699946522712707520e-01
2.742000000000000000e+03 1.822043800354003906e+01 -1.810674476623535156e+01 1.207567572593688965e+00 3.100155830383300781e+00 1.292317032814025879e+00 -4.426255226135253906e-01
2.743000000000000000e+03 6.429876708984375000e+01 -1.122620582580566406e+01 -8.122019767761230469e-01 7.323299407958984375e+00 1.953329205513000488e+00 2.172992378473281860e-01
2.744000000000000000e+03 6.190159225463867188e+01 -1.193283557891845703e+01 -1.358395695686340332e+00 7.014294147491455078e+00 1.696769475936889648e+00 1.396977186203002930e+00
2.745000000000000000e+03 4.495981979370117188e+01 -1.642894744873046875e+01 -7.052813172340393066e-01 4.624782085418701172e+00 1.175850152969360352e+00 1.417863368988037109e+00
2.746000000000000000e+03 1.338998699188232422e+01 2.064981460571289062e+01 3.183452785015106201e-01 -2.514638304710388184e-01 2.006443403661251068e-02 -2.724615037441253662e-01
2.747000000000000000e+03 5.935099792480468750e+01 1.887506675720214844e+01 1.106700778007507324e+00 6.017696857452392578e+00 2.137319326400756836e+00 8.970277905464172363e-01
2.748000000000000000e+03 5.946308517456054688e+01 2.000173568725585938e+01 5.206317901611328125e-01 4.913630962371826172e+00 1.630278825759887695e+00 9.366036653518676758e-01
2.749000000000000000e+03 3.834712219238281250e+01 1.689205741882324219e+01 2.051291465759277344e+00 2.512681961059570312e+00 1.369192123413085938e+00 -1.959078431129455566e+00
2.750000000000000000e+03 6.244266510009765625e+00 1.769053459167480469e+01 -3.616656959056854248e-01 1.202734947204589844e+00 2.523207664489746094e-01 -4.448599219322204590e-01
2.751000000000000000e+03 8.105124473571777344e+00 1.751092529296875000e+01 -3.770011365413665771e-01 1.473366975784301758e+00 3.289097249507904053e-01 -3.926720619201660156e-01
2.752000000000000000e+03 3.651181411743164062e+01 -3.287144470214843750e+01 2.713172435760498047e+00 2.968197107315063477e+00 1.704410791397094727e+00 1.753373384475708008e+00
2.753000000000000000e+03 3.202492904663085938e+01 4.149893951416015625e+01 -1.144146442413330078e+00 3.740504741668701172e+00 7.789074778556823730e-01 6.743856705725193024e-03
2.754000000000000000e+03 3.491553878784179688e+01 -7.321722984313964844e+00 3.216850519180297852e+00 5.659140586853027344e+00 2.662797212600708008e+00 -1.047843456268310547e+00
2.755000000000000000e+03 3.261952590942382812e+01 -9.223943710327148438e+00 3.016680002212524414e+00 5.648353576660156250e+00 2.599509954452514648e+00 1.126840487122535706e-01
2.756000000000000000e+03 1.875295448303222656e+01 -1.727284622192382812e+01 6.398536562919616699e-01 2.766122102737426758e+00 1.021792769432067871e+00 -7.014595270156860352e-01
2.757000000000000000e+03 9.966462135314941406e+00 -2.859443092346191406e+01 7.636479139328002930e-01 1.346326589584350586e+00 6.329923272132873535e-01 5.716343522071838379e-01
2.758000000000000000e+03 9.233969688415527344e+00 -3.182279205322265625e+01 1.027051568031311035e+00 1.684746623039245605e+00 8.135394454002380371e-01 7.414980530738830566e-01
2.759000000000000000e+03 3.700215148925781250e+01 -3.499190092086791992e+00 8.799368739128112793e-01 4.420829296112060547e+00 1.590229868888854980e+00 1.788482785224914551e+00
2.760000000000000000e+03 7.171153068542480469e+00 1.834582138061523438e+01 -4.355579018592834473e-01 1.408959388732910156e+00 2.920204401016235352e-01 -4.576319754123687744e-01
2.761000000000000000e+03 1.902929878234863281e+01 3.491329193115234375e+00 7.956234812736511230e-01 8.385593414306640625e+00 2.754364967346191406e+00 3.457185924053192139e-01
2.762000000000000000e+03 1.948732185363769531e+01 3.354576587677001953e+00 1.131678223609924316e+00 9.477114677429199219e+00 3.182637929916381836e+00 2.099613428115844727e+00
2.763000000000000000e+03 2.075412178039550781e+01 6.682827949523925781e+00 -6.497617363929748535e-01 5.315454959869384766e+00 1.399708032608032227e+00 1.338883757591247559e+00
2.764000000000000000e+03 2.060140228271484375e+01 2.517439842224121094e+00 5.466207981109619141e+00 5.849903106689453125e+00 3.394833564758300781e+00 5.227779388427734375e+00
2.765000000000000000e+03 1.979005432128906250e+01 6.315151214599609375e+00 -9.064334630966186523e-01 4.071829319000244141e+00 9.496188163757324219e-01 1.384832501411437988e+00
2.766000000000000000e+03 2.095421028137207031e+01 1.938250780105590820e+00 6.787908554077148438e+00 3.222522735595703125e+00 3.003129243850708008e+00 3.797661304473876953e+00
2.767000000000000000e+03 1.752592277526855469e+01 4.348571300506591797e+00 1.308121085166931152e+00 2.123713970184326172e+00 1.029550552368164062e+00 -1.421988368034362793e+00
2.768000000000000000e+03 1.829846191406250000e+01 3.582282781600952148e+00 1.456862688064575195e+00 5.425188064575195312e+00 2.064615249633789062e+00 -1.465400576591491699e+00
2.769000000000000000e+03 1.769970512390136719e+01 4.993276596069335938e+00 5.611738562583923340e-01 2.294791460037231445e+00 8.567895293235778809e-01 -8.416867256164550781e-01
2.770000000000000000e+03 1.775076103210449219e+01 3.527880191802978516e+00 2.120901584625244141e+00 2.921540498733520508e+00 1.512732625007629395e+00 -1.922602534294128418e+00
2.771000000000000000e+03 1.728073501586914062e+01 3.790158271789550781e+00 1.911766529083251953e+00 1.741360783576965332e+00 1.095938205718994141e+00 -1.688984870910644531e+00
2.772000000000000000e+03 2.102996444702148438e+01 1.665376067161560059e+00 6.689440250396728516e+00 2.250825166702270508e+00 2.682079553604125977e+00 3.227236032485961914e+00
2.773000000000000000e+03 2.153297805786132812e+01 1.444269895553588867e+00 5.226986885070800781e+00 6.297181844711303711e-01 1.757011532783508301e+00 1.761283516883850098e+00
2.774000000000000000e+03 1.664398574829101562e+01 4.319682121276855469e+00 1.558740496635437012e+00 1.871276646852493286e-01 5.237604379653930664e-01 -1.648718595504760742e+00
2.775000000000000000e+03 1.092431926727294922e+01 5.179133415222167969e+00 4.784636497497558594e-01 9.376548528671264648e-01 4.248355627059936523e-01 -5.838673710823059082e-01
2.776000000000000000e+03 4.634040832519531250e+00 -5.184689521789550781e+00 1.972457468509674072e-01 -1.186302006244659424e-01 2.358466573059558868e-02 -1.711960732936859131e-01
2.777000000000000000e+03 9.649853706359863281e+00 -1.041110420227050781e+01 4.334640502929687500e-01 4.091840386390686035e-01 2.527944147586822510e-01 2.254034519195556641e+00
2.778000000000000000e+03 2.149997901916503906e+01 1.027398586273193359e+00 3.816133499145507812e+00 1.856794208288192749e-02 1.150410413742065430e+00 4.563367068767547607e-01
2.779000000000000000e+03 6.646794795989990234e+00 -4.401966571807861328e+00 4.341378509998321533e-01 -2.601238787174224854e-01 5.220419168472290039e-02 -1.983938962221145630e-01
2.780000000000000000e+03 7.586003303527832031e+00 -5.047711849212646484e+00 8.190128207206726074e-01 -3.181927800178527832e-01 1.502460092306137085e-01 1.601278781890869141e-02
2.781000000000000000e+03 4.896961212158203125e+00 -4.303933620452880859e+00 1.337352097034454346e-01 -1.779699176549911499e-01 -1.327041070908308029e-02 -2.542114257812500000e-01
2.782000000000000000e+03 4.549140453338623047e+00 -6.211006641387939453e+00 2.382611334323883057e-01 -8.327952027320861816e-02 4.649448394775390625e-02 -4.096885025501251221e-02
2.783000000000000000e+03 3.958639860153198242e+00 4.528681755065917969e+00 -3.289009258151054382e-02 -1.064672172069549561e-01 -4.180719330906867981e-02 5.269404649734497070e-01
2.784000000000000000e+03 1.089184665679931641e+01 -3.882720708847045898e+00 1.745080232620239258e+00 -3.767491877079010010e-01 4.104993343353271484e-01 -1.847577989101409912e-01
2.785000000000000000e+03 1.428718185424804688e+01 -6.399213790893554688e+00 2.920660734176635742e+00 4.421309947967529297e+00 2.202591180801391602e+00 1.205536365509033203e+00
2.786000000000000000e+03 6.892991065979003906e+00 4.498518466949462891e+00 -1.815638877451419830e-02 3.694591820240020752e-01 1.053908392786979675e-01 3.790185153484344482e-01
2.787000000000000000e+03 6.104409217834472656e+00 5.645329475402832031e+00 1.856395751237869263e-01 3.357706069946289062e-01 1.564230471849441528e-01 4.289705455303192139e-01
2.788000000000000000e+03 5.040154933929443359e+00 5.860042572021484375e+00 1.500333547592163086e-01 1.071891412138938904e-01 7.716675102710723877e-02 4.983282387256622314e-01
2.789000000000000000e+03 4.953315734863281250e+00 4.744820594787597656e+00 4.647789057344198227e-03 4.821100085973739624e-02 1.585763692855834961e-02 5.243515372276306152e-01
2.790000000000000000e+03 1.454074954986572266e+01 -4.845180511474609375e+00 3.360797882080078125e+00 4.732278347015380859e+00 2.427922964096069336e+00 1.644622325897216797e+00
2.791000000000000000e+03 7.719308853149414062e+00 4.312110900878906250e+00 -7.669019699096679688e-02 4.476180374622344971e-01 1.112783551216125488e-01 2.935905754566192627e-01
2.792000000000000000e+03 1.030791091918945312e+01 4.372605323791503906e+00 3.948716446757316589e-02 7.591691017150878906e-01 2.395968735218048096e-01 -2.744731903076171875e-01
2.793000000000000000e+03 1.056977367401123047e+01 5.784088134765625000e+00 7.013810276985168457e-01 1.130404591560363770e+00 5.495356917381286621e-01 -5.717859268188476562e-01
2.794000000000000000e+03 9.390823364257812500e+00 5.104510307312011719e+00 2.118004113435745239e-01 9.070180654525756836e-01 3.356455266475677490e-01 -1.195384189486503601e-01
2.795000000000000000e+03 2.252417755126953125e+01 1.657727003097534180e+00 3.317039489746093750e+00 -8.365222066640853882e-02 9.700161814689636230e-01 1.022680997848510742e+00
2.796000000000000000e+03 2.054323387145996094e+01 6.106301784515380859e+00 -4.156056046485900879e-01 5.228561401367187500e+00 1.443886637687683105e+00 1.907072186470031738e+00
2.797000000000000000e+03 1.707578277587890625e+01 3.936274766921997070e+00 2.033411264419555664e+00 1.166867852210998535e+00 9.600837230682373047e-01 -1.622498989105224609e+00
2.798000000000000000e+03 1.204330539703369141e+01 -4.261804103851318359e+00 2.453126907348632812e+00 2.864623665809631348e-01 8.218767642974853516e-01 3.015589714050292969e-01
2.799000000000000000e+03 2.314139747619628906e+01 1.269512295722961426e+00 1.630384683609008789e+00 -5.146878957748413086e-01 3.347090482711791992e-01 -1.993890255689620972e-01
2.800000000000000000e+03 2.123918342590332031e+01 3.564242601394653320e+00 2.974675893783569336e+00 4.719204902648925781e+00 2.308164358139038086e+00 3.954477787017822266e+00
2.801000000000000000e+03 2.052339935302734375e+01 7.621865749359130859e+00 -1.217592358589172363e+00 5.439375400543212891e+00 1.266534924507141113e+00 9.871236085891723633e-01
2.802000000000000000e+03 5.726562500000000000e+01 1.942005157470703125e+01 5.221918225288391113e-01 4.254244327545166016e+00 1.432930946350097656e+00 -9.849173426628112793e-01
2.803000000000000000e+03 1.155112934112548828e+01 -2.726519966125488281e+01 2.056366205215454102e-01 1.822038412094116211e+00 6.083024740219116211e-01 9.936966896057128906e-01
2.804000000000000000e+03 8.440744400024414062e+00 -5.826565265655517578e+00 1.288616776466369629e+00 -3.095608055591583252e-01 2.937168180942535400e-01 4.554602205753326416e-01
2.805000000000000000e+03 1.006042480468750000e+01 -5.263257026672363281e+00 1.934344053268432617e+00 -2.522719204425811768e-01 5.046216249465942383e-01 3.777670264244079590e-01
2.806000000000000000e+03 5.039342880249023438e+01 -9.098777770996093750e+00 2.112425327301025391e+00 6.927635192871093750e+00 2.712018251419067383e+00 -1.598245948553085327e-01
2.807000000000000000e+03 4.155627441406250000e+01 -1.981005287170410156e+01 2.288587093353271484e+00 5.234043598175048828e+00 2.256789207458496094e+00 -9.286468029022216797e-01
2.808000000000000000e+03 3.524007797241210938e+01 -2.668370723724365234e+00 1.434506535530090332e+00 3.775490760803222656e+00 1.562999248504638672e+00 1.331163763999938965e+00
2.809000000000000000e+03 2.504245758056640625e+01 3.803821086883544922e+00 2.238463401794433594e+00 3.213138341903686523e+00 1.635480523109436035e+00 2.104291468858718872e-01
2.810000000000000000e+03 4.400529479980468750e+01 -1.598780727386474609e+01 -8.776379823684692383e-01 3.060957670211791992e+00 6.549959182739257812e-01 8.452403545379638672e-01
2.811000000000000000e+03 4.348014831542968750e+01 -1.692406654357910156e+01 4.325773715972900391e-01 3.343740701675415039e+00 1.132895469665527344e+00 1.234147846698760986e-01
2.812000000000000000e+03 3.396536636352539062e+01 1.817601394653320312e+01 1.923969149589538574e+00 5.878639221191406250e+00 2.340782403945922852e+00 -3.355744481086730957e-02
2.813000000000000000e+03 6.988973999023437500e+01 2.504341506958007812e+01 7.147348523139953613e-01 3.990816116333007812e+00 1.411665320396423340e+00 -8.092944025993347168e-01
2.814000000000000000e+03 6.574617767333984375e+01 2.508726882934570312e+01 1.788744449615478516e+00 4.368903160095214844e+00 1.847294330596923828e+00 8.246708512306213379e-01
2.815000000000000000e+03 6.813682556152343750e+01 2.246307182312011719e+01 -5.380589365959167480e-01 2.034846782684326172e+00 4.490363895893096924e-01 -9.973078370094299316e-01
2.816000000000000000e+03 1.502803516387939453e+01 5.375376224517822266e+00 1.097303628921508789e+00 -2.605551779270172119e-01 2.510245442390441895e-01 -2.135714292526245117e+00
2.817000000000000000e+03 6.752603149414062500e+01 2.933723068237304688e+01 1.469648361206054688e+00 4.912377357482910156e+00 1.914607644081115723e+00 9.981545805931091309e-01
2.818000000000000000e+03 5.175723266601562500e+01 -2.860822677612304688e+01 1.054323792457580566e+00 5.147975921630859375e+00 1.860689997673034668e+00 -3.649882972240447998e-01
2.819000000000000000e+03 4.388224792480468750e+01 -1.703414320945739746e+00 5.249679684638977051e-01 2.536528825759887695e+00 9.184490442276000977e-01 -2.008153200149536133e+00
2.820000000000000000e+03 4.524517440795898438e+01 -5.992967486381530762e-01 7.506500482559204102e-01 3.426893949508666992e+00 1.253263235092163086e+00 -2.382686138153076172e+00
2.821000000000000000e+03 4.484911727905273438e+01 2.010585212707519531e+01 -1.572538733482360840e+00 6.265347480773925781e+00 1.407842636108398438e+00 2.858096361160278320e+00
2.822000000000000000e+03 7.323965454101562500e+01 -3.319970703125000000e+01 8.034584522247314453e-01 5.658505916595458984e+00 1.938589334487915039e+00 -2.628260254859924316e-01
2.823000000000000000e+03 1.868368530273437500e+01 5.923115253448486328e+00 -4.772334396839141846e-01 3.081180095672607422e+00 7.811840176582336426e-01 2.977190911769866943e-01
2.824000000000000000e+03 1.813621520996093750e+01 5.498756885528564453e+00 -2.331215441226959229e-01 2.836999177932739258e+00 7.811633348464965820e-01 -2.721954584121704102e-01
2.825000000000000000e+03 5.337271499633789062e+01 -1.216635513305664062e+01 -1.325315684080123901e-01 3.768864393234252930e+00 1.090899825096130371e+00 -2.961786508560180664e+00
2.826000000000000000e+03 6.093323135375976562e+01 1.292677879333496094e+00 -1.257115721702575684e+00 5.780915737152099609e+00 1.357139945030212402e+00 -2.020401954650878906e+00
2.827000000000000000e+03 6.227066040039062500e+01 -2.136701202392578125e+01 2.960572957992553711e+00 5.679316043853759766e+00 2.591966867446899414e+00 -1.559170246124267578e+00
2.828000000000000000e+03 6.075166702270507812e+01 -2.213528442382812500e+01 3.036648035049438477e+00 4.131238460540771484e+00 2.150365829467773438e+00 -6.957199573516845703e-01
2.829000000000000000e+03 4.098302078247070312e+01 1.409072780609130859e+01 1.374476671218872070e+00 5.586762428283691406e+00 2.088371753692626953e+00 -5.787586569786071777e-01
2.830000000000000000e+03 4.145423507690429688e+01 -1.101954221725463867e+00 3.578708469867706299e-01 2.807356119155883789e+00 9.495680928230285645e-01 1.362721323966979980e-01
2.831000000000000000e+03 3.313290023803710938e+01 -1.196943950653076172e+01 7.944238185882568359e-02 3.381001710891723633e+00 1.038133263587951660e+00 8.771845698356628418e-01
2.832000000000000000e+03 3.498560333251953125e+01 -1.042765235900878906e+01 2.893291711807250977e+00 4.080420970916748047e+00 2.092113733291625977e+00 -1.185764193534851074e+00
2.833000000000000000e+03 8.709510803222656250e+00 -2.568868255615234375e+01 -4.087963402271270752e-01 1.486681997776031494e-01 -7.803843915462493896e-02 1.141724288463592529e-01
2.834000000000000000e+03 1.025924968719482422e+01 -2.721645164489746094e+01 2.486672550439834595e-01 9.448130726814270020e-01 3.580440878868103027e-01 6.742674708366394043e-01
2.835000000000000000e+03 6.600650787353515625e+01 2.272911453247070312e+01 3.235343694686889648e-01 2.277942657470703125e+00 7.804431319236755371e-01 1.033880472183227539e+00
2.836000000000000000e+03 6.161565780639648438e+01 2.016587853431701660e-01 -7.826485037803649902e-01 6.714560985565185547e+00 1.779573798179626465e+00 -1.292652249336242676e+00
2.837000000000000000e+03 5.407538223266601562e+01 3.824272155761718750e+00 -5.750557184219360352e-01 4.648557662963867188e+00 1.222050547599792480e+00 2.167213201522827148e+00
2.838000000000000000e+03 6.208710861206054688e+01 4.473122119903564453e+00 -1.077806115150451660e+00 4.625628948211669922e+00 1.064346790313720703e+00 -1.961889505386352539e+00
2.839000000000000000e+03 5.599397277832031250e+01 5.196850299835205078e+00 -1.220895648002624512e-01 6.119647979736328125e+00 1.799267411231994629e+00 4.638126492500305176e-01
2.840000000000000000e+03 3.946829319000244141e+00 1.088606071472167969e+01 3.223060965538024902e-01 -1.150785088539123535e-01 6.216827780008316040e-02 -6.658209115266799927e-02
2.841000000000000000e+03 7.168531417846679688e+00 1.131194782257080078e+01 8.607506155967712402e-01 1.453494429588317871e+00 6.942735314369201660e-01 -4.414444267749786377e-01
2.842000000000000000e+03 4.910116577148437500e+01 -1.278393554687500000e+01 -6.524534225463867188e-01 6.132465362548828125e+00 1.644003510475158691e+00 6.253379583358764648e-01
2.843000000000000000e+03 3.848048400878906250e+01 1.781661605834960938e+01 1.992347478866577148e+00 2.492135763168334961e+00 1.345344901084899902e+00 -1.797272324562072754e+00
2.844000000000000000e+03 6.330455780029296875e+01 4.757492065429687500e+00 -1.162684917449951172e+00 3.270788908004760742e+00 6.324312090873718262e-01 -1.436949729919433594e+00
2.845000000000000000e+03 7.343991851806640625e+01 -2.920889472961425781e+01 -1.803014278411865234e-01 5.927289009094238281e+00 1.724096298217773438e+00 1.252915263175964355e+00
2.846000000000000000e+03 5.974280548095703125e+01 -1.202656173706054688e+01 -1.211534738540649414e+00 5.617182254791259766e+00 1.321694254875183105e+00 1.395797729492187500e+00
2.847000000000000000e+03 6.319963073730468750e+01 -1.520523738861083984e+01 -1.576882481575012207e+00 6.490179061889648438e+00 1.473989009857177734e+00 6.256130933761596680e-01
2.848000000000000000e+03 5.737368392944335938e+01 -1.324848270416259766e+01 -2.614620625972747803e-01 4.159078598022460938e+00 1.169284939765930176e+00 -1.023424386978149414e+00
2.849000000000000000e+03 5.548630714416503906e+00 -2.623751449584960938e+01 -4.001699090003967285e-01 8.306647539138793945e-01 1.291484683752059937e-01 -4.901633560657501221e-01
2.850000000000000000e+03 5.907196807861328125e+01 7.166787147521972656e+00 1.550899296998977661e-01 5.999950885772705078e+00 1.846512198448181152e+00 -1.023074030876159668e+00
2.851000000000000000e+03 5.834546279907226562e+01 1.628747940063476562e+01 1.993251800537109375e+00 7.226143360137939453e+00 2.765818595886230469e+00 9.841611981391906738e-01
2.852000000000000000e+03 7.141168212890625000e+01 -2.921422576904296875e+01 8.526717424392700195e-01 3.230364561080932617e+00 1.224910855293273926e+00 9.811078906059265137e-01
2.853000000000000000e+03 5.797445297241210938e+01 7.872816085815429688e+00 9.231411814689636230e-01 6.717447757720947266e+00 2.292176723480224609e+00 -1.520717591047286987e-01
2.854000000000000000e+03 2.353934669494628906e+01 3.158753585815429688e+01 4.264186620712280273e-01 3.496535539627075195e+00 1.176886200904846191e+00 8.964784145355224609e-01
2.855000000000000000e+03 3.407526016235351562e+01 -3.313245391845703125e+01 1.305003166198730469e+00 1.612566351890563965e+00 8.752708435058593750e-01 5.214372277259826660e-01
2.856000000000000000e+03 4.186268234252929688e+01 8.026411056518554688e+00 4.093579649925231934e-01 8.323286056518554688e+00 2.619793176651000977e+00 1.116425752639770508e+00
2.857000000000000000e+03 6.532540893554687500e+01 3.433016538619995117e-01 6.472691148519515991e-02 4.882740497589111328e+00 1.484240293502807617e+00 1.039150595664978027e+00
2.858000000000000000e+03 3.982032775878906250e+01 -1.514598083496093750e+01 -2.690170288085937500e+00 5.052052974700927734e+00 7.085648775100708008e-01 -2.437043666839599609e+00
2.859000000000000000e+03 2.662239837646484375e+01 -2.048087120056152344e+01 2.361007213592529297e+00 5.227250576019287109e+00 2.276477336883544922e+00 5.006476640701293945e-01
2.860000000000000000e+03 1.776750755310058594e+01 -1.995093917846679688e+01 1.480747938156127930e+00 3.214989423751831055e+00 1.408721208572387695e+00 -2.975589632987976074e-01
2.861000000000000000e+03 2.040136528015136719e+01 -1.884269332885742188e+01 1.687172055244445801e+00 8.966692090034484863e-01 7.751523852348327637e-01 -1.029850125312805176e+00
2.862000000000000000e+03 2.441457366943359375e+01 1.211595726013183594e+01 1.316440939903259277e+00 3.606690645217895508e+00 1.476939439773559570e+00 -2.053811311721801758e+00
2.863000000000000000e+03 2.518651390075683594e+01 1.298148822784423828e+01 5.222928524017333984e-02 2.498947381973266602e+00 7.653530240058898926e-01 -1.748754978179931641e+00
2.864000000000000000e+03 2.147412490844726562e+01 7.421449184417724609e+00 -3.490925431251525879e-01 5.390667438507080078e+00 1.512472510337829590e+00 7.426785826683044434e-01
2.865000000000000000e+03 8.252866744995117188e+00 5.957878112792968750e+00 3.472593426704406738e-01 8.459350466728210449e-01 3.579583168029785156e-01 1.446317732334136963e-01
2.866000000000000000e+03 3.284689712524414062e+01 -1.558443069458007812e+00 1.433914661407470703e+00 3.386387825012207031e+00 1.446090698242187500e+00 -8.186345696449279785e-01
2.867000000000000000e+03 2.384467506408691406e+01 -1.833191871643066406e+01 1.404889941215515137e+00 1.334637165069580078e+00 8.218581080436706543e-01 -2.390424311161041260e-01
2.868000000000000000e+03 2.178281974792480469e+01 -1.748009681701660156e+01 1.024198651313781738e+00 3.280152380466461182e-01 4.056641757488250732e-01 -7.954477071762084961e-01
2.869000000000000000e+03 4.232983398437500000e+01 -2.097339057922363281e+01 3.247363090515136719e+00 4.805564403533935547e+00 2.415878295898437500e+00 -1.083508431911468506e-01
2.870000000000000000e+03 5.652080535888671875e+01 -2.639136314392089844e+01 -2.199306726455688477e+00 7.197565078735351562e+00 1.499477505683898926e+00 2.231103897094726562e+00
2.871000000000000000e+03 3.062646484375000000e+01 -7.071343064308166504e-01 1.039765477180480957e+00 6.331944942474365234e+00 2.211513042449951172e+00 -1.921061038970947266e+00
2.872000000000000000e+03 3.062735176086425781e+01 -1.847546815872192383e+00 1.795591711997985840e+00 6.802621364593505859e+00 2.579463958740234375e+00 -1.998020052909851074e+00
2.873000000000000000e+03 2.392155647277832031e+01 1.057238483428955078e+01 1.603684544563293457e+00 4.541958808898925781e+00 1.843693017959594727e+00 -1.726392030715942383e+00
2.874000000000000000e+03 2.576266479492187500e+01 8.754240989685058594e+00 2.517087697982788086e+00 4.584839344024658203e+00 2.130578279495239258e+00 -3.199923932552337646e-01
2.875000000000000000e+03 3.788936614990234375e+01 1.592545700073242188e+01 1.738109350204467773e+00 2.716416358947753906e+00 1.336357712745666504e+00 -2.015232563018798828e+00
2.876000000000000000e+03 3.737636947631835938e+01 1.472974109649658203e+01 1.156816244125366211e+00 2.308495521545410156e+00 1.039593577384948730e+00 -2.009449720382690430e+00
2.877000000000000000e+03 4.395774459838867188e+01 -2.517016983032226562e+01 1.342141747474670410e+00 2.384001493453979492e+00 1.117842912673950195e+00 -6.155013442039489746e-01
2.878000000000000000e+03 7.101628112792968750e+01 2.057897806167602539e+00 3.697375059127807617e-01 2.342283010482788086e+00 8.136061429977416992e-01 9.461349844932556152e-01
2.879000000000000000e+03 7.233566284179687500e+01 1.746751546859741211e+00 -1.828011870384216309e-02 3.426441431045532227e+00 1.022448420524597168e+00 -1.148948669433593750e-01
2.880000000000000000e+03 7.453429412841796875e+01 2.558655977249145508e+00 -4.328219294548034668e-01 5.983428478240966797e+00 1.665181994438171387e+00 -6.524307727813720703e-01
2.881000000000000000e+03 1.500236606597900391e+01 -6.687695026397705078e+00 2.639494419097900391e+00 6.330306053161621094e+00 2.690940141677856445e+00 9.205080270767211914e-01
2.882000000000000000e+03 2.680176734924316406e+01 -2.879064178466796875e+01 -1.610318422317504883e+00 5.639101028442382812e+00 1.208634853363037109e+00 2.430591434240341187e-01
2.883000000000000000e+03 1.058206558227539062e+01 -1.024022865295410156e+01 5.661633014678955078e-01 5.801075696945190430e-02 1.872522234916687012e-01 2.240124940872192383e+00
2.884000000000000000e+03 7.540647125244140625e+01 3.345066452026367188e+01 1.081670001149177551e-01 6.443351268768310547e+00 1.965455532073974609e+00 2.202485650777816772e-01
2.885000000000000000e+03 7.443406677246093750e+01 2.760301399230957031e+01 2.944087982177734375e-01 5.961545467376708984e+00 1.876786231994628906e+00 -3.175432085990905762e-01
2.886000000000000000e+03 7.580947875976562500e+01 1.581043529510498047e+01 3.456447720527648926e-01 7.703577518463134766e+00 2.414766550064086914e+00 8.336059451103210449e-01
2.887000000000000000e+03 7.457636260986328125e+01 1.613572311401367188e+01 3.436844944953918457e-01 8.237912178039550781e+00 2.574478864669799805e+00 6.717348098754882812e-01
2.888000000000000000e+03 2.526480865478515625e+01 -2.499125480651855469e+01 -4.823093488812446594e-02 4.630964279174804688e+00 1.374819993972778320e+00 2.643047273159027100e-01
2.889000000000000000e+03 3.588599014282226562e+01 1.776055717468261719e+01 2.112298727035522461e+00 3.444494724273681641e+00 1.667037963867187500e+00 -1.397081255912780762e+00
2.890000000000000000e+03 4.234158325195312500e+01 5.645070075988769531e+00 1.300944447517395020e+00 7.148704051971435547e+00 2.534894466400146484e+00 -1.156577095389366150e-01
2.891000000000000000e+03 4.338669967651367188e+01 3.344484090805053711e+00 1.303976535797119141e+00 4.937194347381591797e+00 1.872351288795471191e+00 -1.346287250518798828e+00
2.892000000000000000e+03 7.556331634521484375e+01 2.345180892944335938e+01 -2.692750394344329834e-01 6.761131763458251953e+00 1.947556972503662109e+00 -3.391899466514587402e-01
2.893000000000000000e+03 7.337098693847656250e+01 2.323454284667968750e+01 -4.724596738815307617e-01 6.150726318359375000e+00 1.703479886054992676e+00 -8.102675676345825195e-01
2.894000000000000000e+03 7.225279998779296875e+01 2.519631576538085938e+01 2.154490053653717041e-01 5.236482620239257812e+00 1.635579466819763184e+00 -7.862111926078796387e-01
2.895000000000000000e+03 7.528524017333984375e+01 2.488867759704589844e+01 -1.323532015085220337e-01 6.455481529235839844e+00 1.896938443183898926e+00 -4.549118876457214355e-01
2.896000000000000000e+03 7.287985992431640625e+01 2.013599967956542969e+01 -1.305852174758911133e+00 6.837529659271240234e+00 1.659503340721130371e+00 -6.228384971618652344e-01
2.897000000000000000e+03 7.833413696289062500e+01 -2.496190071105957031e+01 -1.148305274546146393e-02 7.402732849121093750e+00 2.217375040054321289e+00 -5.611544251441955566e-01
2.898000000000000000e+03 7.389392089843750000e+01 1.053196716308593750e+01 1.559609413146972656e+00 8.691103935241699219e+00 3.075214147567749023e+00 -2.053480595350265503e-01
2.899000000000000000e+03 7.471556854248046875e+01 1.143071079254150391e+01 1.391874313354492188e+00 8.673122406005859375e+00 3.019499063491821289e+00 -2.721438407897949219e-01
2.900000000000000000e+03 7.225535583496093750e+01 4.554451942443847656e+00 -2.981201112270355225e-01 5.118166923522949219e+00 1.446013927459716797e+00 5.061473250389099121e-01
2.901000000000000000e+03 7.556346130371093750e+01 5.583793163299560547e+00 -2.576956450939178467e-01 7.235903263092041016e+00 2.093462228775024414e+00 -9.316087365150451660e-01
2.902000000000000000e+03 7.380272674560546875e+01 3.653040647506713867e+00 -2.885331511497497559e-01 5.644771575927734375e+00 1.606871485710144043e+00 -4.546912312507629395e-01
2.903000000000000000e+03 7.597324371337890625e+01 1.915342903137207031e+01 -5.454490780830383301e-01 7.422520160675048828e+00 2.063121318817138672e+00 4.711498320102691650e-01
2.904000000000000000e+03 7.615733337402343750e+01 1.814091873168945312e+01 -3.404652178287506104e-01 7.534407138824462891e+00 2.158182621002197266e+00 8.110470175743103027e-01
2.905000000000000000e+03 7.496334838867187500e+01 8.376183509826660156e+00 3.290780484676361084e-01 7.619072914123535156e+00 2.384445190429687500e+00 -9.814506173133850098e-01
2.906000000000000000e+03 7.371225738525390625e+01 1.193919539451599121e+00 -4.066096842288970947e-01 4.798386096954345703e+00 1.317533016204833984e+00 -8.103309869766235352e-01
2.907000000000000000e+03 7.557646179199218750e+01 1.333348655700683594e+01 1.059367537498474121e+00 7.980670928955078125e+00 2.712011575698852539e+00 1.890234351158142090e-01
2.908000000000000000e+03 7.392862701416015625e+01 1.377533245086669922e+01 1.535389780998229980e+00 8.987336158752441406e+00 3.156817913055419922e+00 5.874268338084220886e-02
2.909000000000000000e+03 6.707424163818359375e+01 2.694067001342773438e+00 2.469256371259689331e-01 2.344043970108032227e+00 7.772908806800842285e-01 1.529350757598876953e+00
2.910000000000000000e+03 7.357598876953125000e+01 2.919840621948242188e+01 5.239316821098327637e-01 5.720025062561035156e+00 1.873186945915222168e+00 -3.035815060138702393e-02
2.911000000000000000e+03 7.525907135009765625e+01 1.991805458068847656e+01 -8.463338017463684082e-01 7.371994495391845703e+00 1.957698225975036621e+00 2.405586391687393188e-01
2.912000000000000000e+03 7.361600494384765625e+01 2.104743576049804688e+01 -1.143516540527343750e+00 6.802175521850585938e+00 1.697597622871398926e+00 -3.919312357902526855e-01
2.913000000000000000e+03 7.246041870117187500e+01 -3.018219375610351562e+01 9.794651865959167480e-01 4.802421569824218750e+00 1.734566092491149902e+00 8.813823461532592773e-01
2.914000000000000000e+03 7.556706237792968750e+01 3.240352630615234375e+01 2.029516994953155518e-01 6.393554687500000000e+00 1.978951930999755859e+00 1.431731730699539185e-01
2.915000000000000000e+03 7.279896545410156250e+01 3.304047012329101562e+01 2.705244719982147217e-01 5.952914237976074219e+00 1.867031574249267578e+00 3.619964122772216797e-01
2.916000000000000000e+03 7.243176269531250000e+01 -3.451147460937500000e+01 8.313814401626586914e-01 5.825572967529296875e+00 1.997086286544799805e+00 -6.964954137802124023e-01
2.917000000000000000e+03 7.495247650146484375e+01 -3.274122238159179688e+01 4.282348453998565674e-01 6.373915195465087891e+00 2.040645122528076172e+00 -5.094116926193237305e-02
2.918000000000000000e+03 7.360804748535156250e+01 3.061010169982910156e+01 4.220551848411560059e-01 5.864587306976318359e+00 1.885992646217346191e+00 1.121165528893470764e-01
2.919000000000000000e+03 4.267284011840820312e+01 -2.012875938415527344e+01 2.862942934036254883e+00 4.779670238494873047e+00 2.292783975601196289e+00 -3.605969250202178955e-02
2.920000000000000000e+03 5.484052181243896484e+00 -2.896097564697265625e+01 3.614214360713958740e-01 1.040048718452453613e+00 4.204410314559936523e-01 -2.431397587060928345e-01
2.921000000000000000e+03 5.086669921875000000e+00 -2.786470222473144531e+01 1.301697492599487305e-01 1.046249747276306152e+00 3.529258370399475098e-01 -3.875968456268310547e-01
2.922000000000000000e+03 7.250172424316406250e+01 7.279532432556152344e+00 -8.401644974946975708e-02 7.034395217895507812e+00 2.085113763809204102e+00 3.728923797607421875e-01
2.923000000000000000e+03 4.001418113708496094e+00 -1.118459606170654297e+01 -1.211668998003005981e-01 8.599259257316589355e-01 2.216277122497558594e-01 1.437361687421798706e-01
2.924000000000000000e+03 3.374046087265014648e+00 -2.316265296936035156e+01 -9.153292775154113770e-01 1.872887849807739258e+00 2.872675657272338867e-01 4.505401849746704102e-01
2.925000000000000000e+03 6.985159301757812500e+01 2.532540798187255859e+00 2.991010546684265137e-01 2.184307575225830078e+00 7.450225353240966797e-01 1.809842705726623535e+00
2.926000000000000000e+03 4.409314632415771484e+00 1.635515975952148438e+01 -1.657515019178390503e-01 5.115351080894470215e-01 1.037350744009017944e-01 -4.186686277389526367e-01
2.927000000000000000e+03 4.765492916107177734e+00 2.058157920837402344e+01 -2.852100431919097900e-01 1.001016616821289062e+00 2.147419601678848267e-01 -1.392733454704284668e-01
2.928000000000000000e+03 6.523368358612060547e+00 1.910986900329589844e+01 -3.495906889438629150e-01 1.326275229454040527e+00 2.930053770542144775e-01 -4.142051339149475098e-01
2.929000000000000000e+03 5.721994876861572266e+00 2.098605537414550781e+01 -2.378627657890319824e-01 1.434116363525390625e+00 3.588760793209075928e-01 -3.316538631916046143e-01
2.930000000000000000e+03 3.856621265411376953e+00 -2.722468376159667969e+01 -3.152655437588691711e-02 1.397282600402832031e+00 4.097267985343933105e-01 -3.901845812797546387e-01
2.931000000000000000e+03 2.205434799194335938e+01 4.228666782379150391e+00 2.436722278594970703e+00 3.901147603988647461e+00 1.901360988616943359e+00 2.986016750335693359e+00
2.932000000000000000e+03 4.937638759613037109e+00 -3.342469406127929688e+01 3.649840056896209717e-01 1.544190287590026855e+00 5.727522969245910645e-01 3.348544538021087646e-01
2.933000000000000000e+03 7.692490100860595703e+00 -3.317618942260742188e+01 6.907272934913635254e-01 1.656187534332275391e+00 7.040745019912719727e-01 6.707142591476440430e-01
2.934000000000000000e+03 5.669546604156494141e+00 1.444918441772460938e+01 9.138410538434982300e-02 9.432202577590942383e-01 3.103813230991363525e-01 -5.374837517738342285e-01
2.935000000000000000e+03 4.842196941375732422e+00 -3.597212982177734375e+01 9.069532155990600586e-02 1.857094883918762207e+00 5.843370556831359863e-01 4.948868751525878906e-01
2.936000000000000000e+03 5.821482658386230469e+00 1.196494865417480469e+01 5.714908838272094727e-01 8.196852803230285645e-01 4.173528552055358887e-01 -3.830743730068206787e-01
2.937000000000000000e+03 6.156431198120117188e+00 1.113147735595703125e+01 6.976149082183837891e-01 9.007517695426940918e-01 4.795100092887878418e-01 -2.881233692169189453e-01
2.938000000000000000e+03 7.368615722656250000e+01 3.402706909179687500e+01 1.465284079313278198e-01 6.101757526397705078e+00 1.874485731124877930e+00 2.980384230613708496e-01
2.939000000000000000e+03 3.659031629562377930e+00 -7.422260284423828125e+00 9.981947392225265503e-02 -5.554145667701959610e-03 2.827959880232810974e-02 1.221193559467792511e-02
2.940000000000000000e+03 3.434609174728393555e+00 7.634442806243896484e+00 2.395118027925491333e-01 -3.095000684261322021e-01 -2.099647931754589081e-02 3.563503026962280273e-01
2.941000000000000000e+03 7.224234104156494141e+00 8.819917678833007812e+00 8.320241570472717285e-01 1.176254153251647949e+00 6.024835109710693359e-01 -5.931950360536575317e-02
2.942000000000000000e+03 5.361891269683837891e+00 6.963688850402832031e+00 3.458333313465118408e-01 2.532501518726348877e-01 1.797250509262084961e-01 4.027113020420074463e-01
2.943000000000000000e+03 5.188544082641601562e+01 2.321972846984863281e+01 2.261988371610641479e-01 4.920033454895019531e+00 1.543869733810424805e+00 -1.192761659622192383e+00
2.944000000000000000e+03 5.381652832031250000e+00 -6.193701267242431641e+00 3.367570340633392334e-01 -2.955609932541847229e-02 9.216027706861495972e-02 3.408194705843925476e-02
2.945000000000000000e+03 4.856990814208984375e+01 -2.745999097824096680e+00 9.298706650733947754e-01 5.696823596954345703e+00 1.988008260726928711e+00 -1.475481033325195312e+00
2.946000000000000000e+03 4.689952468872070312e+01 -4.275621414184570312e+00 6.283885836601257324e-01 4.887829303741455078e+00 1.654865384101867676e+00 -1.709169387817382812e+00
2.947000000000000000e+03 4.915595054626464844e+00 -8.355843544006347656e+00 1.266497671604156494e-01 3.340284824371337891e-01 1.382034718990325928e-01 3.007752895355224609e-01
2.948000000000000000e+03 5.546967029571533203e+00 -6.994568347930908203e+00 3.949238955974578857e-01 7.387974858283996582e-02 1.406410932540893555e-01 2.306187599897384644e-01
2.949000000000000000e+03 5.724062728881835938e+01 5.447858810424804688e+00 -4.048662260174751282e-02 5.803579330444335938e+00 1.728927850723266602e+00 -5.533398389816284180e-01
2.950000000000000000e+03 4.183270263671875000e+01 -1.764856147766113281e+01 1.081135034561157227e+00 3.949344635009765625e+00 1.509143948554992676e+00 -1.199772357940673828e+00
2.951000000000000000e+03 4.708660507202148438e+01 4.759770393371582031e+00 4.861351475119590759e-02 2.391217231750488281e+00 7.319492101669311523e-01 -1.449754834175109863e+00
2.952000000000000000e+03 2.340907669067382812e+01 1.154132080078125000e+01 9.948601126670837402e-01 5.117173671722412109e+00 1.833610177040100098e+00 -1.862838387489318848e+00
2.953000000000000000e+03 2.285090827941894531e+01 1.013159179687500000e+01 1.061135411262512207e+00 5.478241443634033203e+00 1.961812973022460938e+00 -1.352841973304748535e+00
2.954000000000000000e+03 4.990327835083007812e+01 2.043226432800292969e+01 -4.166376292705535889e-01 2.532035350799560547e+00 6.346192955970764160e-01 -1.055773735046386719e+00
2.955000000000000000e+03 6.600003719329833984e+00 -1.183671283721923828e+01 -1.247671619057655334e-01 1.962249994277954102e+00 5.512448549270629883e-01 1.048291444778442383e+00
2.956000000000000000e+03 6.347511291503906250e+01 -1.265182495117187500e+01 -1.393880009651184082e+00 6.847572326660156250e+00 1.636107683181762695e+00 8.456980586051940918e-01
2.957000000000000000e+03 2.740536499023437500e+01 3.113677787780761719e+01 7.011592984199523926e-01 1.444952964782714844e+00 6.438336968421936035e-01 -6.820624470710754395e-01
2.958000000000000000e+03 5.369905471801757812e+01 2.190902328491210938e+01 -7.828177213668823242e-01 4.718513488769531250e+00 1.180708646774291992e+00 -2.376287460327148438e+00
2.959000000000000000e+03 4.626010513305664062e+01 1.326794505119323730e+00 9.058920741081237793e-01 3.614310264587402344e+00 1.356060743331909180e+00 -2.246070146560668945e+00
2.960000000000000000e+03 5.766080093383789062e+01 2.101075172424316406e+01 -2.711286544799804688e-01 2.597817420959472656e+00 6.980066299438476562e-01 -1.074129819869995117e+00
2.961000000000000000e+03 5.514551162719726562e+01 2.125515556335449219e+01 -9.237816929817199707e-01 3.936267852783203125e+00 9.037458300590515137e-01 -2.565964221954345703e+00
2.962000000000000000e+03 5.210215377807617188e+01 2.462247467041015625e+01 8.194646835327148438e-01 5.562121391296386719e+00 1.914475917816162109e+00 -5.894675850868225098e-01
2.963000000000000000e+03 4.213644409179687500e+01 2.891183137893676758e+00 1.892896533012390137e+00 5.987338542938232422e+00 2.364070653915405273e+00 -9.057884812355041504e-01
2.964000000000000000e+03 2.661229515075683594e+01 1.356887435913085938e+01 -8.331002593040466309e-01 8.101042509078979492e-01 -6.898803636431694031e-03 -3.868209719657897949e-01
2.965000000000000000e+03 2.562462806701660156e+01 -2.638797378540039062e+01 -1.318377494812011719e+00 5.187773227691650391e+00 1.160818815231323242e+00 1.966144293546676636e-01
2.966000000000000000e+03 2.916425132751464844e+01 -1.594126892089843750e+01 -2.069649219512939453e+00 7.190049171447753906e+00 1.536119937896728516e+00 1.735312461853027344e+00
2.967000000000000000e+03 6.093686294555664062e+01 -1.902325057983398438e+01 1.808830857276916504e+00 5.860456466674804688e+00 2.300786256790161133e+00 -8.586854338645935059e-01
2.968000000000000000e+03 6.248287963867187500e+01 -2.028573417663574219e+01 2.470877170562744141e+00 6.322806835174560547e+00 2.638105392456054688e+00 -1.833022952079772949e+00
2.969000000000000000e+03 5.949481201171875000e+01 -2.169021606445312500e+01 2.707865476608276367e+00 4.827473640441894531e+00 2.260601758956909180e+00 -3.383127450942993164e-01
2.970000000000000000e+03 3.621096801757812500e+01 -1.205198669433593750e+01 6.737564504146575928e-02 4.684785842895507812e+00 1.425648331642150879e+00 -2.238746643066406250e+00
2.971000000000000000e+03 3.464503479003906250e+01 -9.452904701232910156e+00 3.438586235046386719e+00 4.859705448150634766e+00 2.489487409591674805e+00 -1.156384944915771484e+00
2.972000000000000000e+03 1.160845661163330078e+01 -2.611485481262207031e+01 -3.093168139457702637e-01 1.510687708854675293e+00 3.604112565517425537e-01 1.127713322639465332e+00
2.973000000000000000e+03 4.812685775756835938e+01 2.082376289367675781e+01 -1.210648044943809509e-01 3.632412910461425781e+00 1.053404450416564941e+00 1.497004985809326172e+00
2.974000000000000000e+03 1.966420364379882812e+01 -1.973331451416015625e+01 1.735967040061950684e+00 1.363815546035766602e+00 9.299347996711730957e-01 -6.595247983932495117e-01
2.975000000000000000e+03 5.397098541259765625e+01 -1.307032012939453125e+01 -3.476507663726806641e-01 4.071866989135742188e+00 1.117264866828918457e+00 -3.337304592132568359e+00
2.976000000000000000e+03 5.433825683593750000e+01 -1.408081340789794922e+01 -1.066663980484008789e+00 4.573597908020019531e+00 1.052080273628234863e+00 -2.914983272552490234e+00
2.977000000000000000e+03 5.609758758544921875e+01 -1.407965660095214844e+01 -5.448598265647888184e-01 4.838059902191162109e+00 1.287960052490234375e+00 -1.884400486946105957e+00
2.978000000000000000e+03 4.859144592285156250e+01 2.731572532653808594e+01 2.390605926513671875e+00 6.898215293884277344e+00 2.786646366119384766e+00 1.456107497215270996e+00
2.979000000000000000e+03 6.538392639160156250e+01 3.657014846801757812e+00 -4.727829694747924805e-01 2.699755191802978516e+00 6.680917143821716309e-01 9.104149043560028076e-02
2.980000000000000000e+03 3.122749328613281250e+01 3.062111091613769531e+01 3.681785762310028076e-01 4.563186645507812500e+00 1.479409575462341309e+00 -1.643203616142272949e+00
2.981000000000000000e+03 5.245677947998046875e+01 -1.174388408660888672e+01 5.786446928977966309e-01 4.062414169311523438e+00 1.392317652702331543e+00 -2.321732759475708008e+00
2.982000000000000000e+03 2.595868492126464844e+01 3.250175476074218750e+01 6.043648123741149902e-01 2.130445003509521484e+00 8.204429149627685547e-01 1.843413710594177246e-01
2.983000000000000000e+03 2.624581718444824219e+01 3.602618789672851562e+01 -2.238374501466751099e-01 3.364340305328369141e+00 9.421508908271789551e-01 -3.974683955311775208e-02
2.984000000000000000e+03 4.222737503051757812e+01 -1.539294910430908203e+01 -1.634996533393859863e+00 1.572053313255310059e+00 -1.888297684490680695e-02 -1.214404582977294922e+00
2.985000000000000000e+03 5.044952392578125000e+01 2.598302650451660156e+01 2.131198883056640625e+00 5.768496990203857422e+00 2.369908809661865234e+00 6.495538949966430664e-01
2.986000000000000000e+03 4.789589691162109375e+01 3.809462070465087891e+00 1.406873017549514771e-01 2.148377180099487305e+00 6.867193579673767090e-01 -1.315094590187072754e+00
2.987000000000000000e+03 3.720640563964843750e+01 -1.333953261375427246e+00 -4.351471364498138428e-02 3.828833580017089844e+00 1.135595679283142090e+00 3.041274547576904297e+00
2.988000000000000000e+03 3.183671951293945312e+01 -2.836450099945068359e+00 2.345398426055908203e+00 5.566595077514648438e+00 2.373598098754882812e+00 -1.537002921104431152e+00
2.989000000000000000e+03 5.344818115234375000e+01 -2.987532234191894531e+01 1.918703317642211914e+00 6.194447517395019531e+00 2.433945178985595703e+00 4.091509878635406494e-01
2.990000000000000000e+03 5.975086975097656250e+01 3.597429752349853516e+00 -1.091220259666442871e+00 5.018466472625732422e+00 1.178173780441284180e+00 -2.269790887832641602e+00
2.991000000000000000e+03 6.159044265747070312e+00 2.005238914489746094e+01 -3.484036922454833984e-01 1.363201618194580078e+00 3.044393956661224365e-01 -3.825229108333587646e-01
2.992000000000000000e+03 6.190247344970703125e+01 -1.552334308624267578e+01 -1.085661292076110840e+00 6.620025157928466797e+00 1.660309195518493652e+00 4.255270957946777344e-01
2.993000000000000000e+03 6.970462799072265625e+01 5.370365142822265625e+00 2.645514206960797310e-03 3.032762527465820312e+00 9.106224179267883301e-01 1.892130970954895020e+00
2.994000000000000000e+03 7.080569458007812500e+01 5.440605640411376953e+00 -2.858131229877471924e-01 4.254668235778808594e+00 1.190656423568725586e+00 1.425276279449462891e+00
2.995000000000000000e+03 7.189318084716796875e+01 5.762881278991699219e+00 -3.662587404251098633e-01 5.495626449584960938e+00 1.538810253143310547e+00 8.480579257011413574e-01
2.996000000000000000e+03 3.702052688598632812e+01 1.859564208984375000e+01 1.673199892044067383e+00 3.057324647903442383e+00 1.419157385826110840e+00 -1.934456229209899902e+00
2.997000000000000000e+03 7.481838989257812500e+01 3.564884066581726074e-01 -8.996040225028991699e-01 6.409056663513183594e+00 1.652835726737976074e+00 -9.005902409553527832e-01
2.998000000000000000e+03 3.610493850708007812e+01 -3.488387298583984375e+01 8.328742980957031250e-01 3.861148118972778320e+00 1.408206701278686523e+00 1.719351291656494141e+00
2.999000000000000000e+03 6.900577545166015625e+01 -3.200996398925781250e+01 2.453613281250000000e+00 5.136247158050537109e+00 2.276957988739013672e+00 -1.660754323005676270e+00
3.000000000000000000e+03 5.249566268920898438e+01 -1.271631050109863281e+01 1.009473577141761780e-01 3.652413845062255859e+00 1.126008391380310059e+00 -2.816259384155273438e+00
3.001000000000000000e+03 2.774736785888671875e+01 -3.282050323486328125e+01 2.528911530971527100e-01 4.855955123901367188e+00 1.532653927803039551e+00 -3.163188993930816650e-01
3.002000000000000000e+03 2.848370742797851562e+01 -2.998637580871582031e+01 -9.763069748878479004e-01 4.767804145812988281e+00 1.137449145317077637e+00 -2.247687131166458130e-01
3.003000000000000000e+03 5.384537124633789062e+01 3.576888275146484375e+01 -1.033968091011047363e+00 5.591139316558837891e+00 1.367151379585266113e+00 8.202860951423645020e-01
3.004000000000000000e+03 2.905108070373535156e+01 -3.499094009399414062e+01 4.933062791824340820e-01 3.819128513336181641e+00 1.293730378150939941e+00 -6.161166429519653320e-01
3.005000000000000000e+03 9.844922065734863281e+00 1.971543121337890625e+01 -1.557948440313339233e-01 1.084887623786926270e+00 2.787278294563293457e-01 -3.644843995571136475e-01
3.006000000000000000e+03 1.088655662536621094e+01 1.956952857971191406e+01 -2.499057736713439226e-04 5.835846066474914551e-01 1.750003993511199951e-01 -2.081297636032104492e-01
3.007000000000000000e+03 4.842108535766601562e+01 3.308934783935546875e+01 -2.232963442802429199e-01 6.082450389862060547e+00 1.757746338844299316e+00 -1.413869708776473999e-01
3.008000000000000000e+03 4.269077682495117188e+01 8.792322158813476562e+00 3.453560769557952881e-01 7.867156028747558594e+00 2.463753700256347656e+00 9.987607002258300781e-01
3.009000000000000000e+03 2.362137603759765625e+01 -1.633434867858886719e+01 -2.891480922698974609e-01 4.945654869079589844e-01 6.162522360682487488e-02 -1.496125757694244385e-01
3.010000000000000000e+03 2.263337707519531250e+01 -1.686535072326660156e+01 3.738003671169281006e-01 3.299774602055549622e-02 1.220394372940063477e-01 -4.958075881004333496e-01
3.011000000000000000e+03 2.228479003906250000e+01 3.374818038940429688e+01 -2.172822654247283936e-01 4.469384670257568359e+00 1.275630712509155273e+00 5.668063163757324219e-01
3.012000000000000000e+03 4.745245742797851562e+01 -2.994015693664550781e+00 6.368474960327148438e-01 4.945476055145263672e+00 1.674697160720825195e+00 -1.840980410575866699e+00
3.013000000000000000e+03 4.866181564331054688e+01 3.786762619018554688e+01 -1.453442215919494629e+00 5.071883201599121094e+00 1.085532307624816895e+00 -3.539637327194213867e-01
3.014000000000000000e+03 5.439395523071289062e+01 3.881380844116210938e+01 -1.391497731208801270e+00 4.356083393096923828e+00 8.893756270408630371e-01 7.987422347068786621e-01
3.015000000000000000e+03 5.135134506225585938e+01 2.532077598571777344e+01 1.392325758934020996e+00 5.848637104034423828e+00 2.172288894653320312e+00 3.169138729572296143e-02
3.016000000000000000e+03 5.002705001831054688e+01 2.287938690185546875e+01 9.764321446418762207e-01 4.228446006774902344e+00 1.561463475227355957e+00 -4.158329367637634277e-01
3.017000000000000000e+03 4.192881774902343750e+01 -1.134078875184059143e-01 6.745890974998474121e-01 3.439307928085327148e+00 1.234169125556945801e+00 -6.546189785003662109e-01
3.018000000000000000e+03 4.268429183959960938e+01 -1.497918128967285156e+00 5.519905686378479004e-01 2.119090795516967773e+00 8.013244271278381348e-01 -1.123563170433044434e+00
3.019000000000000000e+03 7.401924896240234375e+01 3.631824111938476562e+01 -9.064747393131256104e-02 6.319013595581054688e+00 1.868509888648986816e+00 3.154210150241851807e-01
3.020000000000000000e+03 5.673957061767578125e+01 1.686532592773437500e+01 1.312199354171752930e+00 6.049294471740722656e+00 2.208448171615600586e+00 -3.951859772205352783e-01
3.021000000000000000e+03 5.800396347045898438e+01 1.847510719299316406e+01 1.255519986152648926e+00 5.297365188598632812e+00 1.965865612030029297e+00 -5.297657847404479980e-02
3.022000000000000000e+03 2.510367393493652344e+01 -1.743484115600585938e+01 4.554096162319183350e-01 2.207157611846923828e+00 7.987701892852783203e-01 3.179616332054138184e-01
3.023000000000000000e+03 2.481697463989257812e+01 -2.573925781250000000e+01 -7.694798111915588379e-01 4.197752475738525391e+00 1.028481721878051758e+00 2.431064397096633911e-01
3.024000000000000000e+03 2.618916702270507812e+01 -2.545339775085449219e+01 -6.061567664146423340e-01 5.356546878814697266e+00 1.425117015838623047e+00 5.720499157905578613e-01
3.025000000000000000e+03 6.819492340087890625e+01 3.232487487792968750e+01 4.463447034358978271e-01 5.348067760467529297e+00 1.738323807716369629e+00 8.325655460357666016e-01
3.026000000000000000e+03 6.707295989990234375e+01 3.379714202880859375e+01 -6.824366748332977295e-02 5.349701404571533203e+00 1.584437251091003418e+00 6.946741342544555664e-01
3.027000000000000000e+03 3.366790008544921875e+01 -4.487047195434570312e+00 2.625376224517822266e+00 5.080425262451171875e+00 2.311740398406982422e+00 -4.446203112602233887e-01
3.028000000000000000e+03 4.863206863403320312e+01 2.499752807617187500e+01 2.246625661849975586e+00 6.401469230651855469e+00 2.594428539276123047e+00 1.115141987800598145e+00
3.029000000000000000e+03 4.864226150512695312e+01 2.372744560241699219e+01 1.717207431793212891e+00 5.436877250671386719e+00 2.146225452423095703e+00 8.556702136993408203e-01
3.030000000000000000e+03 6.478331756591796875e+01 2.259416198730468750e+01 -4.302639365196228027e-01 3.846048593521118164e+00 1.024735331535339355e+00 2.165922641754150391e+00
3.031000000000000000e+03 3.482261276245117188e+01 1.888037109375000000e+01 1.597956895828247070e+00 5.029983043670654297e+00 1.988381981849670410e+00 -1.033667087554931641e+00
3.032000000000000000e+03 6.602002716064453125e+01 2.393809127807617188e+01 1.002471208572387695e+00 3.414638996124267578e+00 1.325133085250854492e+00 8.666116595268249512e-01
3.033000000000000000e+03 1.903508758544921875e+01 4.084411144256591797e+00 5.562624931335449219e-01 6.803893089294433594e+00 2.208046674728393555e+00 5.397088527679443359e-01
3.034000000000000000e+03 2.040606307983398438e+01 4.184195041656494141e+00 1.292306661605834961e+00 6.341937541961669922e+00 2.290273189544677734e+00 3.170794010162353516e+00
3.035000000000000000e+03 2.174687004089355469e+01 2.813273906707763672e+00 4.287416458129882812e+00 2.585871934890747070e+00 2.061986446380615234e+00 3.406121730804443359e+00
3.036000000000000000e+03 1.668622970581054688e+01 4.882302284240722656e+00 9.848783612251281738e-01 3.511244356632232666e-01 4.008008539676666260e-01 -1.594024777412414551e+00
3.037000000000000000e+03 2.062862014770507812e+01 3.713991403579711914e+00 2.131366491317749023e+00 6.154065608978271484e+00 2.485629796981811523e+00 3.912845611572265625e+00
3.038000000000000000e+03 2.202707099914550781e+01 1.539848089218139648e+00 4.239927768707275391e+00 3.231407999992370605e-01 1.368920564651489258e+00 9.283233880996704102e-01
3.039000000000000000e+03 2.199584960937500000e+01 1.998581409454345703e+00 4.575536251068115234e+00 1.014536261558532715e+00 1.677021741867065430e+00 2.295207023620605469e+00
3.040000000000000000e+03 1.870930290222167969e+01 4.062144279479980469e+00 7.109334468841552734e-01 5.951142787933349609e+00 1.998622894287109375e+00 -2.676609754562377930e-01
3.041000000000000000e+03 8.263389587402343750e+00 -6.608457088470458984e+00 1.222473859786987305e+00 -8.640833199024200439e-02 3.408196568489074707e-01 7.149659991264343262e-01
3.042000000000000000e+03 6.900472164154052734e+00 -5.807349205017089844e+00 7.309110760688781738e-01 -2.086740434169769287e-01 1.566711068153381348e-01 1.572603285312652588e-01
3.043000000000000000e+03 1.633833503723144531e+01 4.079270839691162109e+00 1.820072412490844727e+00 2.945780195295810699e-02 5.548590421676635742e-01 -1.740144252777099609e+00
3.044000000000000000e+03 5.565148830413818359e+00 -5.326018810272216797e+00 3.535870015621185303e-01 -1.628758609294891357e-01 5.721333995461463928e-02 -8.497098833322525024e-02
3.045000000000000000e+03 4.650975704193115234e+00 -7.258676052093505859e+00 2.323087751865386963e-01 7.295963168144226074e-02 9.158052504062652588e-02 1.275644153356552124e-01
3.046000000000000000e+03 5.682312488555908203e+00 8.049789428710937500e+00 5.302342772483825684e-01 4.341142773628234863e-01 2.893045842647552490e-01 2.583867907524108887e-01
3.047000000000000000e+03 7.355144977569580078e+00 6.319221973419189453e+00 4.050895273685455322e-01 7.105097770690917969e-01 3.346797823905944824e-01 2.234366834163665771e-01
3.048000000000000000e+03 2.355462837219238281e+01 2.387991905212402344e+00 2.856567382812500000e+00 1.143215060234069824e+00 1.199934720993041992e+00 4.196171462535858154e-01
3.049000000000000000e+03 8.687562942504882812e+00 4.719088554382324219e+00 1.128575727343559265e-01 7.280653715133666992e-01 2.522768676280975342e-01 8.379697799682617188e-02
3.050000000000000000e+03 6.384756565093994141e+00 6.658822059631347656e+00 3.519613444805145264e-01 5.081146359443664551e-01 2.580227851867675781e-01 3.458963036537170410e-01
3.051000000000000000e+03 1.381083488464355469e+01 -5.889159202575683594e+00 3.388944149017333984e+00 2.877224922180175781e+00 1.879850745201110840e+00 1.297897458076477051e+00
3.052000000000000000e+03 1.075379848480224609e+01 -5.955291748046875000e+00 2.345805168151855469e+00 -7.383097708225250244e-02 6.815922856330871582e-01 7.988190054893493652e-01
3.053000000000000000e+03 2.595690917968750000e+01 7.647432804107666016e+00 2.552549839019775391e+00 5.037042617797851562e+00 2.276877641677856445e+00 -3.585688769817352295e-02
3.054000000000000000e+03 2.026238822937011719e+01 3.474308967590332031e+00 2.199675559997558594e+00 7.383152008056640625e+00 2.874848365783691406e+00 3.930484294891357422e+00
3.055000000000000000e+03 2.584665870666503906e+01 4.637073993682861328e+00 2.112185478210449219e+00 4.446032047271728516e+00 1.967465281486511230e+00 1.392276138067245483e-01
3.056000000000000000e+03 1.155542278289794922e+01 -5.150314331054687500e+00 2.584980249404907227e+00 2.980227768421173096e-01 8.649009466171264648e-01 5.697023272514343262e-01
3.057000000000000000e+03 3.197934341430664062e+01 -1.087831497192382812e+01 1.413281559944152832e+00 5.114266872406005859e+00 1.958264589309692383e+00 8.573145866394042969e-01
3.058000000000000000e+03 5.156296920776367188e+01 -3.167821693420410156e+01 3.259506225585937500e+00 6.768036842346191406e+00 3.008262872695922852e+00 -9.789320826530456543e-01
3.059000000000000000e+03 6.137100219726562500e+01 2.932903289794921875e+00 -1.246208310127258301e+00 5.251920700073242188e+00 1.201713681221008301e+00 -2.092732667922973633e+00
3.060000000000000000e+03 6.044325637817382812e+01 5.392529964447021484e+00 -7.398023009300231934e-01 5.169986724853515625e+00 1.329055428504943848e+00 -1.932849287986755371e+00
3.061000000000000000e+03 1.261521720886230469e+01 -5.384297847747802734e+00 3.092816829681396484e+00 1.099912881851196289e+00 1.257818937301635742e+00 1.022121429443359375e+00
3.062000000000000000e+03 6.045120620727539062e+01 -1.367889976501464844e+01 -1.011410236358642578e+00 6.134313583374023438e+00 1.536870956420898438e+00 1.108753442764282227e+00
3.063000000000000000e+03 6.447852325439453125e+01 3.648561239242553711e+00 -4.143675565719604492e-01 2.975902557373046875e+00 7.684605121612548828e-01 -2.719888389110565186e-01
3.064000000000000000e+03 6.255463790893554688e+01 8.711088895797729492e-01 -7.044077515602111816e-01 5.854877948760986328e+00 1.545141100883483887e+00 -8.322979211807250977e-01
3.065000000000000000e+03 2.437633895874023438e+01 9.543468475341796875e+00 1.817954778671264648e+00 4.451979160308837891e+00 1.880980134010314941e+00 -1.029772043228149414e+00
3.066000000000000000e+03 2.618169593811035156e+01 1.134214878082275391e+01 1.911942958831787109e+00 3.404396057128906250e+00 1.594901680946350098e+00 -9.362670183181762695e-01
3.067000000000000000e+03 4.840844345092773438e+01 9.754226207733154297e-01 6.087911128997802734e-01 3.829102754592895508e+00 1.331368088722229004e+00 -1.518783688545227051e+00
3.068000000000000000e+03 2.683642768859863281e+01 4.955003261566162109e+00 1.697924375534057617e+00 5.558498382568359375e+00 2.176926851272583008e+00 -1.009020879864692688e-01
3.069000000000000000e+03 4.480285644531250000e+01 7.414849400520324707e-01 7.782336473464965820e-01 3.656749486923217773e+00 1.330494880676269531e+00 -2.224655866622924805e+00
3.070000000000000000e+03 4.972079086303710938e+01 1.639818906784057617e+00 1.529448628425598145e-01 3.510805845260620117e+00 1.099125266075134277e+00 -4.063193798065185547e-01
3.071000000000000000e+03 7.561540222167968750e+01 -2.635215759277343750e+01 -8.178490996360778809e-01 8.412577629089355469e+00 2.278418540954589844e+00 8.686750382184982300e-02
3.072000000000000000e+03 5.001403427124023438e+01 -5.047717571258544922e+00 1.670802593231201172e+00 7.486044883728027344e+00 2.747054338455200195e+00 -7.363471388816833496e-02
3.073000000000000000e+03 2.481213760375976562e+01 -1.864087867736816406e+01 1.693020582199096680e+00 2.279128789901733398e+00 1.191644787788391113e+00 -3.171100839972496033e-02
3.074000000000000000e+03 8.622272491455078125e+00 6.692326068878173828e+00 6.272736191749572754e-01 1.229053139686584473e+00 5.568980574607849121e-01 -1.054143384099006653e-01
3.075000000000000000e+03 7.333034515380859375e+01 -3.123829841613769531e+01 6.321189999580383301e-01 5.509459495544433594e+00 1.842473506927490234e+00 4.650721848011016846e-01
3.076000000000000000e+03 7.065333557128906250e+01 -3.021216964721679688e+01 1.966904282569885254e+00 3.526196479797363281e+00 1.647930264472961426e+00 -4.687607288360595703e-02
3.077000000000000000e+03 7.830045223236083984e+00 -3.151004028320312500e+01 9.317266941070556641e-01 1.377387404441833496e+00 6.927342414855957031e-01 4.751487374305725098e-01
3.078000000000000000e+03 1.086565685272216797e+01 -2.928413581848144531e+01 9.837144017219543457e-01 1.775622248649597168e+00 8.278009891510009766e-01 8.017159104347229004e-01
3.079000000000000000e+03 1.370216083526611328e+01 -7.185392379760742188e+00 2.869663476943969727e+00 2.858045339584350586e+00 1.718312621116638184e+00 1.269279003143310547e+00
3.080000000000000000e+03 4.357818984985351562e+01 1.987116634845733643e-01 9.096443057060241699e-01 3.606568813323974609e+00 1.354863882064819336e+00 -1.766234517097473145e+00
3.081000000000000000e+03 4.271650314331054688e+01 1.769224643707275391e+00 1.075447320938110352e+00 4.685745716094970703e+00 1.728357911109924316e+00 -1.371335268020629883e+00
3.082000000000000000e+03 5.674177932739257812e+01 6.517071723937988281e+00 6.634313464164733887e-01 6.643581390380859375e+00 2.192103862762451172e+00 4.659792408347129822e-02
3.083000000000000000e+03 5.616380691528320312e+01 3.047295331954956055e+00 -9.415580630302429199e-01 3.913415908813476562e+00 8.915573358535766602e-01 7.259520292282104492e-01
3.084000000000000000e+03 7.253295135498046875e+01 2.220478248596191406e+01 -8.061679601669311523e-01 5.975079536437988281e+00 1.550673484802246094e+00 -9.973519444465637207e-01
3.085000000000000000e+03 4.021949005126953125e+01 1.639873313903808594e+01 1.799298524856567383e+00 3.674250841140747070e+00 1.642064809799194336e+00 -1.267369151115417480e+00
3.086000000000000000e+03 3.947823333740234375e+01 1.776588439941406250e+01 1.879013895988464355e+00 2.466062068939208984e+00 1.303522706031799316e+00 -1.452199220657348633e+00
3.087000000000000000e+03 5.736437606811523438e+01 2.204776954650878906e+01 -1.064977526664733887e+00 1.735667467117309570e+00 2.012069821357727051e-01 -1.902471184730529785e+00
3.088000000000000000e+03 2.143190193176269531e+01 6.475883960723876953e+00 1.836172491312026978e-01 5.061836242675781250e+00 1.573635935783386230e+00 1.520996093750000000e+00
3.089000000000000000e+03 5.003816223144531250e+01 -8.369633674621582031e+00 2.233955621719360352e+00 7.661103725433349609e+00 2.968517780303955078e+00 2.174654603004455566e-01
3.090000000000000000e+03 4.552813339233398438e+01 2.572914600372314453e+00 7.878615856170654297e-01 3.664210081100463867e+00 1.335621476173400879e+00 -2.063641071319580078e+00
3.091000000000000000e+03 5.690174102783203125e+01 8.399092674255371094e+00 1.370240688323974609e+00 7.649156093597412109e+00 2.705818891525268555e+00 4.331521689891815186e-01
3.092000000000000000e+03 4.409626770019531250e+01 2.084864854812622070e+00 1.248198986053466797e+00 4.283342838287353516e+00 1.659462571144104004e+00 -1.876309394836425781e+00
3.093000000000000000e+03 7.119171142578125000e+01 -3.273923873901367188e+01 1.402840137481689453e+00 5.016698837280273438e+00 1.925861716270446777e+00 -7.329039573669433594e-01
3.094000000000000000e+03 6.423007965087890625e+01 1.068294525146484375e+00 -3.452211320400238037e-01 5.033440113067626953e+00 1.406465768814086914e+00 2.177430838346481323e-01
3.095000000000000000e+03 2.665360832214355469e+01 -2.439297103881835938e+01 5.755976438522338867e-01 6.118719577789306641e+00 2.008295297622680664e+00 4.266678094863891602e-01
3.096000000000000000e+03 2.549805068969726562e+01 -2.399690055847167969e+01 8.370117545127868652e-01 4.500087738037109375e+00 1.601129889488220215e+00 4.502224624156951904e-01
3.097000000000000000e+03 7.253116607666015625e+01 3.214324712753295898e+00 -7.093247771263122559e-02 4.362923622131347656e+00 1.287597417831420898e+00 1.945620775222778320e-01
3.098000000000000000e+03 6.988340759277343750e+01 -3.111653900146484375e+01 2.092188835144042969e+00 4.186487197875976562e+00 1.883602857589721680e+00 -8.467069864273071289e-01
3.099000000000000000e+03 7.405580139160156250e+01 -3.220122909545898438e+01 6.417977809906005859e-01 6.049595355987548828e+00 2.007417917251586914e+00 1.679871976375579834e-01
3.100000000000000000e+03 7.294151306152343750e+01 2.155093574523925781e+01 -1.063759922981262207e+00 6.423745632171630859e+00 1.607995748519897461e+00 -8.484710454940795898e-01
3.101000000000000000e+03 7.441707611083984375e+01 2.327749443054199219e+01 -4.760887920856475830e-01 6.471820354461669922e+00 1.798719406127929688e+00 -4.869916439056396484e-01
3.102000000000000000e+03 7.327943420410156250e+01 2.419142723083496094e+01 -2.403510063886642456e-01 5.837835788726806641e+00 1.679245352745056152e+00 -7.411712408065795898e-01
3.103000000000000000e+03 7.248975372314453125e+01 2.725480270385742188e+01 5.742964744567871094e-01 5.312347888946533203e+00 1.765993237495422363e+00 -3.929896950721740723e-01
3.104000000000000000e+03 6.977300262451171875e+01 2.650258636474609375e+01 1.341071963310241699e+00 4.366137981414794922e+00 1.712162971496582031e+00 -2.764514684677124023e-01
3.105000000000000000e+03 7.294755554199218750e+01 6.128149986267089844e+00 -4.597332179546356201e-01 6.534439086914062500e+00 1.822411775588989258e+00 1.350141316652297974e-01
3.106000000000000000e+03 5.539000320434570312e+01 1.994393157958984375e+01 -4.636498391628265381e-01 4.129689216613769531e+00 1.099811792373657227e+00 -2.416000127792358398e+00
3.107000000000000000e+03 5.769425582885742188e+01 -1.721305847167968750e+01 1.001314759254455566e+00 6.517796516418457031e+00 2.255733251571655273e+00 -3.038270771503448486e-01
3.108000000000000000e+03 6.861107635498046875e+01 2.364000320434570312e+01 4.555868208408355713e-01 2.902893066406250000e+00 1.007544040679931641e+00 -1.039032340049743652e+00
3.109000000000000000e+03 2.217540740966796875e+01 -2.292183876037597656e+01 1.426639556884765625e+00 1.110072255134582520e+00 7.610135674476623535e-01 -5.128127336502075195e-01
3.110000000000000000e+03 2.024800300598144531e+01 -2.252722167968750000e+01 1.430606961250305176e+00 7.429885864257812500e-01 6.520786285400390625e-01 -3.129759430885314941e-01
3.111000000000000000e+03 6.545867919921875000e+00 -2.831258392333984375e+01 3.685716390609741211e-01 8.867427110671997070e-01 3.765943050384521484e-01 -1.765454262495040894e-01
3.112000000000000000e+03 6.346552276611328125e+01 3.580480098724365234e+00 -7.148612737655639648e-01 3.865611314773559570e+00 9.452250003814697266e-01 -1.143356680870056152e+00
3.113000000000000000e+03 6.046985244750976562e+01 -2.339503097534179688e+01 2.373713016510009766e+00 3.431155681610107422e+00 1.741460561752319336e+00 -5.044210553169250488e-01
3.114000000000000000e+03 6.198831939697265625e+01 -2.257638549804687500e+01 3.102553367614746094e+00 4.947920799255371094e+00 2.415142297744750977e+00 -1.661127686500549316e+00
3.115000000000000000e+03 4.337382507324218750e+01 5.897760868072509766e+00 8.366917967796325684e-01 5.896647453308105469e+00 2.020001649856567383e+00 -1.741423159837722778e-01
3.116000000000000000e+03 7.494391918182373047e+00 1.927096176147460938e+01 -3.699784576892852783e-01 1.480185866355895996e+00 3.330622017383575439e-01 -4.481051862239837646e-01
3.117000000000000000e+03 5.233881473541259766e+00 1.973612976074218750e+01 -3.214750289916992188e-01 1.105645179748535156e+00 2.352510392665863037e-01 -2.966479063034057617e-01
3.118000000000000000e+03 5.282295227050781250e+00 -9.562954902648925781e+00 2.425002306699752808e-02 7.377131581306457520e-01 2.285889536142349243e-01 5.152599811553955078e-01
3.119000000000000000e+03 5.720629501342773438e+01 1.765073585510253906e+01 1.194910764694213867e+00 5.317580699920654297e+00 1.953747391700744629e+00 -4.185462892055511475e-01
3.120000000000000000e+03 7.382592773437500000e+01 1.223942375183105469e+01 1.471045017242431641e+00 9.678709983825683594e+00 3.344926595687866211e+00 -4.665547981858253479e-02
3.121000000000000000e+03 7.097878932952880859e+00 1.670815849304199219e+01 -3.408414721488952637e-01 1.445124745368957520e+00 3.312849700450897217e-01 -4.727978408336639404e-01
3.122000000000000000e+03 2.384966087341308594e+01 8.179099082946777344e+00 1.547156214714050293e+00 4.675128936767578125e+00 1.866685509681701660e+00 -2.334521114826202393e-01
3.123000000000000000e+03 4.719191741943359375e+01 3.109960258007049561e-01 5.814155936241149902e-01 3.806688070297241211e+00 1.316431045532226562e+00 -2.205180644989013672e+00
3.124000000000000000e+03 4.875146865844726562e+01 2.795182704925537109e+00 2.852937281131744385e-01 2.557379484176635742e+00 8.528019785881042480e-01 -9.218112230300903320e-01
3.125000000000000000e+03 3.617004394531250000e+01 1.552303218841552734e+01 1.404418230056762695e+00 2.245229005813598633e+00 1.094894170761108398e+00 -1.825652837753295898e+00
3.126000000000000000e+03 5.913706588745117188e+01 4.914546489715576172e+00 -5.976121425628662109e-01 5.221197128295898438e+00 1.387075424194335938e+00 -1.741737365722656250e+00
3.127000000000000000e+03 7.192709350585937500e+01 3.084185028076171875e+01 6.145525574684143066e-01 5.489305019378662109e+00 1.831157326698303223e+00 3.227006793022155762e-01
3.128000000000000000e+03 7.395192718505859375e+01 3.195620346069335938e+01 3.128471970558166504e-01 5.996734142303466797e+00 1.892874479293823242e+00 2.233880013227462769e-01
3.129000000000000000e+03 4.957666778564453125e+01 2.678087043762207031e+01 2.169309377670288086e+00 6.537980079650878906e+00 2.612186908721923828e+00 1.018037199974060059e+00
3.130000000000000000e+03 7.391530513763427734e+00 1.007799243927001953e+01 9.436920881271362305e-01 1.457333445549011230e+00 7.203076481819152832e-01 -2.433401197195053101e-01
3.131000000000000000e+03 4.823141574859619141e+00 9.435117721557617188e+00 4.719837605953216553e-01 1.754978448152542114e-01 1.942444741725921631e-01 1.017733961343765259e-01
3.132000000000000000e+03 7.036952972412109375e+01 3.652163743972778320e+00 2.163689285516738892e-01 2.935067176818847656e+00 9.454308152198791504e-01 1.494567394256591797e+00
3.133000000000000000e+03 3.893083953857421875e+01 1.551353645324707031e+01 1.595169901847839355e+00 3.175651788711547852e+00 1.431246519088745117e+00 -1.763884902000427246e+00
3.134000000000000000e+03 5.945675373077392578e+00 -7.911305904388427734e+00 3.489104509353637695e-01 2.954875230789184570e-01 1.933193951845169067e-01 4.929798245429992676e-01
3.135000000000000000e+03 1.288045024871826172e+01 -6.393633365631103516e+00 2.976228952407836914e+00 1.511426925659179688e+00 1.346296787261962891e+00 1.153160810470581055e+00
3.136000000000000000e+03 5.135618972778320312e+01 -1.134983158111572266e+01 1.087262153625488281e+00 4.984675407409667969e+00 1.821581244468688965e+00 -1.531254410743713379e+00
3.137000000000000000e+03 2.247083854675292969e+01 8.764904022216796875e+00 3.575787842273712158e-01 5.449357986450195312e+00 1.742081046104431152e+00 -5.482339262962341309e-01
3.138000000000000000e+03 7.501083374023437500e+01 2.155753517150878906e+01 -7.337722778320312500e-01 6.967219352722167969e+00 1.870034098625183105e+00 -1.763671338558197021e-01
3.139000000000000000e+03 5.718828964233398438e+01 -1.439338684082031250e+01 -1.576878428459167480e-01 4.811464309692382812e+00 1.396132946014404297e+00 -9.797649383544921875e-01
3.140000000000000000e+03 6.786898803710937500e+01 2.668018341064453125e+01 1.970151424407958984e+00 4.154895782470703125e+00 1.837514162063598633e+00 3.191735744476318359e-01
3.141000000000000000e+03 2.503100204467773438e+01 1.104749679565429688e+01 1.686042785644531250e+00 3.740486621856689453e+00 1.627958774566650391e+00 -1.326958775520324707e+00
3.142000000000000000e+03 8.693008422851562500e+00 -9.993208885192871094e+00 2.700847983360290527e-01 6.142761707305908203e-01 2.653082907199859619e-01 2.084646463394165039e+00
3.143000000000000000e+03 2.337800979614257812e+01 9.172044754028320312e+00 1.208323717117309570e+00 4.924298763275146484e+00 1.839786767959594727e+00 -1.006561994552612305e+00
3.144000000000000000e+03 4.438728332519531250e+01 5.184502601623535156e+00 5.685726404190063477e-01 4.941380023956298828e+00 1.652985811233520508e+00 -9.630964398384094238e-01
3.145000000000000000e+03 2.401855278015136719e+01 -1.737308120727539062e+01 7.588304877281188965e-01 1.087399363517761230e+00 5.538689494132995605e-01 1.227046828716993332e-02
3.146000000000000000e+03 2.822603034973144531e+01 -3.148032569885253906e+01 -1.220068261027336121e-01 4.385442733764648438e+00 1.279030799865722656e+00 -4.483593702316284180e-01
3.147000000000000000e+03 4.770061874389648438e+01 3.508705520629882812e+01 -1.194785714149475098e+00 5.293472290039062500e+00 1.229605913162231445e+00 -7.010625600814819336e-01
3.148000000000000000e+03 7.764254570007324219e+00 -1.096278095245361328e+01 -2.408157140016555786e-01 1.435150861740112305e+00 3.583005666732788086e-01 1.689193964004516602e+00
3.149000000000000000e+03 5.867566680908203125e+01 -1.884200859069824219e+01 2.011926651000976562e+00 6.075624942779541016e+00 2.426265478134155273e+00 -1.990552693605422974e-01
3.150000000000000000e+03 5.977288055419921875e+01 -2.042899894714355469e+01 2.784738779067993164e+00 5.064429759979248047e+00 2.354750633239746094e+00 -4.206793308258056641e-01
3.151000000000000000e+03 2.499694252014160156e+01 -2.130401420593261719e+01 2.222143650054931641e+00 3.167798280715942383e+00 1.616982579231262207e+00 7.239408325403928757e-03
3.152000000000000000e+03 3.996638107299804688e+01 1.529395771026611328e+01 1.688973069190979004e+00 4.107691764831542969e+00 1.738999485969543457e+00 -1.365248560905456543e+00
3.153000000000000000e+03 4.493996429443359375e+01 5.631574630737304688e+00 2.368938773870468140e-01 4.516518592834472656e+00 1.426023840904235840e+00 -1.182323455810546875e+00
3.154000000000000000e+03 6.979381561279296875e+01 -3.374108505249023438e+01 1.315263390541076660e+00 5.651552677154541016e+00 2.090044975280761719e+00 -1.515214085578918457e+00
3.155000000000000000e+03 7.235115814208984375e+01 2.308936882019042969e+01 -6.296936869621276855e-01 5.613466262817382812e+00 1.495131850242614746e+00 -9.902620911598205566e-01
3.156000000000000000e+03 2.916422462463378906e+01 -3.691744232177734375e+01 -1.335335671901702881e-01 4.060619354248046875e+00 1.178125739097595215e+00 -6.022145152091979980e-01
3.157000000000000000e+03 2.750473594665527344e+01 3.392567443847656250e+01 3.745586872100830078e-01 2.765221834182739258e+00 9.419341683387756348e-01 -4.143136143684387207e-01
3.158000000000000000e+03 3.285254669189453125e+01 3.231164932250976562e+01 -9.751720726490020752e-02 5.955243110656738281e+00 1.757317662239074707e+00 -1.095691561698913574e+00
3.159000000000000000e+03 3.168657112121582031e+01 3.269604492187500000e+01 -1.492176502943038940e-01 4.876170635223388672e+00 1.418085813522338867e+00 -1.374435663223266602e+00
3.160000000000000000e+03 6.714284515380859375e+01 2.278460311889648438e+01 2.424742579460144043e-01 2.019666433334350586e+00 6.786421537399291992e-01 -8.850218355655670166e-02
3.161000000000000000e+03 2.412027359008789062e+01 3.325558853149414062e+01 3.731114864349365234e-01 3.354595422744750977e+00 1.118312120437622070e+00 7.919227480888366699e-01
3.162000000000000000e+03 2.166413688659667969e+01 -2.015324974060058594e+01 2.064904689788818359e+00 6.120572686195373535e-01 8.030885457992553711e-01 -6.687219738960266113e-01
3.163000000000000000e+03 5.857098388671875000e+01 -1.250680255889892578e+01 -4.326520860195159912e-01 3.524852275848388672e+00 9.276600480079650879e-01 6.049362421035766602e-01
3.164000000000000000e+03 5.833868408203125000e+01 6.119227886199951172e+00 4.186666384339332581e-02 5.781693935394287109e+00 1.747068166732788086e+00 -9.640498757362365723e-01
3.165000000000000000e+03 5.748809814453125000e+01 6.988058090209960938e+00 6.651714444160461426e-01 6.566855430603027344e+00 2.169608116149902344e+00 -3.192128539085388184e-01
3.166000000000000000e+03 2.316229438781738281e+01 -1.777481842041015625e+01 1.188430070877075195e+00 5.995191335678100586e-01 5.363847613334655762e-01 -3.932668864727020264e-01
3.167000000000000000e+03 6.672368621826171875e+01 3.152865409851074219e+01 7.152994275093078613e-01 5.320952415466308594e+00 1.810875535011291504e+00 9.157590270042419434e-01
3.168000000000000000e+03 6.490128326416015625e+01 -1.330419540405273438e+01 -1.290822863578796387e+00 5.711349010467529297e+00 1.326157808303833008e+00 2.860351204872131348e-01
3.169000000000000000e+03 6.248753356933593750e+01 -1.682279968261718750e+01 -4.182613790035247803e-01 6.659693717956542969e+00 1.872429728507995605e+00 -1.450819820165634155e-01
3.170000000000000000e+03 8.892888069152832031e+00 -3.320547485351562500e+01 8.676701188087463379e-01 1.806411385536193848e+00 8.022244572639465332e-01 8.299786448478698730e-01
3.171000000000000000e+03 9.196157455444335938e+00 -2.959763336181640625e+01 9.560244083404541016e-01 1.338361859321594238e+00 6.883158683776855469e-01 4.770979583263397217e-01
3.172000000000000000e+03 5.938377380371093750e+01 -1.304604721069335938e+01 -5.168720483779907227e-01 4.902935981750488281e+00 1.315819144248962402e+00 9.320785999298095703e-01
3.173000000000000000e+03 4.986520767211914062e+01 -1.233261108398437500e+01 2.818250060081481934e-01 5.522311687469482422e+00 1.741241097450256348e+00 -6.195259094238281250e-01
3.174000000000000000e+03 6.027197647094726562e+01 -1.813119697570800781e+01 1.203661680221557617e+00 6.137645244598388672e+00 2.202392101287841797e+00 -3.143504261970520020e-01
3.175000000000000000e+03 5.415784072875976562e+01 1.984115409851074219e+01 -4.994318485260009766e-01 4.420355319976806641e+00 1.176277041435241699e+00 -2.516375780105590820e+00
3.176000000000000000e+03 7.624675750732421875e+00 -2.759535789489746094e+01 2.373358011245727539e-01 6.431437134742736816e-01 2.641438543796539307e-01 -5.708497390151023865e-02
3.177000000000000000e+03 7.962072849273681641e+00 -2.878121948242187500e+01 6.827421784400939941e-01 8.397020101547241211e-01 4.567332565784454346e-01 1.333167403936386108e-01
3.178000000000000000e+03 4.717806243896484375e+01 3.666571426391601562e+01 -1.269480943679809570e+00 4.769209861755371094e+00 1.049918651580810547e+00 -7.496137619018554688e-01
3.179000000000000000e+03 4.979104232788085938e+01 2.390689086914062500e+01 1.562144398689270020e+00 5.255461692810058594e+00 2.045281887054443359e+00 1.283104568719863892e-01
3.180000000000000000e+03 6.241028976440429688e+01 3.345615625381469727e+00 -1.181869626045227051e+00 4.704915523529052734e+00 1.056913852691650391e+00 -1.633339405059814453e+00
3.181000000000000000e+03 5.790064239501953125e+01 1.706119346618652344e+01 1.747636914253234863e+00 6.111169815063476562e+00 2.357642173767089844e+00 3.739261031150817871e-01
3.182000000000000000e+03 6.064333724975585938e+01 -1.604427909851074219e+01 -1.564362794160842896e-01 6.279400348663330078e+00 1.836889266967773438e+00 3.258478939533233643e-01
3.183000000000000000e+03 5.015325546264648438e+01 3.991714096069335938e+01 -1.827090859413146973e+00 5.147438049316406250e+00 9.961041212081909180e-01 -1.343740709125995636e-02
3.184000000000000000e+03 6.189347457885742188e+01 1.853308320045471191e+00 -1.226211309432983398e+00 5.634815216064453125e+00 1.322581171989440918e+00 -1.539013385772705078e+00
3.185000000000000000e+03 4.665981674194335938e+01 -6.759181618690490723e-01 6.022086143493652344e-01 3.923155307769775391e+00 1.357609152793884277e+00 -2.367588520050048828e+00
3.186000000000000000e+03 5.118745803833007812e+01 2.205025100708007812e+01 7.475925236940383911e-02 4.074203491210937500e+00 1.244688868522644043e+00 -1.320336937904357910e+00
3.187000000000000000e+03 2.240960121154785156e+01 -1.847102165222167969e+01 1.557715773582458496e+00 4.566267430782318115e-01 6.043027639389038086e-01 -6.563442349433898926e-01
3.188000000000000000e+03 6.720962524414062500e+01 2.731195449829101562e+01 1.976147294044494629e+00 4.224808692932128906e+00 1.860286831855773926e+00 8.338002562522888184e-01
3.189000000000000000e+03 7.215216064453125000e+01 2.928003883361816406e+01 7.042664885520935059e-01 5.370713233947753906e+00 1.822493910789489746e+00 7.213015109300613403e-02
3.190000000000000000e+03 5.851993942260742188e+01 -1.348832225799560547e+01 -1.324926167726516724e-01 4.376847743988037109e+00 1.273306608200073242e+00 2.904624938964843750e-01
3.191000000000000000e+03 3.770236206054687500e+01 3.555494689941406250e+01 -1.534024715423583984e+00 2.185507774353027344e+00 1.954448968172073364e-01 1.483469009399414062e+00
3.192000000000000000e+03 9.146183013916015625e+00 3.624800109863281250e+01 -1.020844936370849609e+00 -3.796352446079254150e-01 -4.201440513134002686e-01 -1.512330472469329834e-01
3.193000000000000000e+03 8.106719017028808594e+00 4.125234222412109375e+01 1.950563341379165649e-01 1.149578467011451721e-01 9.300425648689270020e-02 6.006784271448850632e-03
3.194000000000000000e+03 2.810707473754882812e+01 -4.131384277343750000e+01 -1.735359668731689453e+00 4.625760555267333984e+00 8.671203255653381348e-01 -2.932928800582885742e-01
3.195000000000000000e+03 9.037830352783203125e+00 3.872742843627929688e+01 -9.403246641159057617e-02 -8.517276495695114136e-02 -5.376156792044639587e-02 6.380057334899902344e-02
3.196000000000000000e+03 2.099160575866699219e+01 -1.808450889587402344e+01 1.186051726341247559e+00 4.593237340450286865e-01 4.936126470565795898e-01 -9.693504571914672852e-01
3.197000000000000000e+03 1.797996139526367188e+01 4.146591663360595703e+00 1.136802434921264648e+00 3.587948083877563477e+00 1.417425155639648438e+00 -1.319933772087097168e+00
3.198000000000000000e+03 1.817705535888671875e+01 4.577544689178466797e+00 5.334395170211791992e-01 3.934704065322875977e+00 1.340443134307861328e+00 -7.878021597862243652e-01
3.199000000000000000e+03 2.149929809570312500e+01 3.181184291839599609e+00 3.975007057189941406e+00 3.750483036041259766e+00 2.317646980285644531e+00 3.818356275558471680e+00
3.200000000000000000e+03 2.304760169982910156e+01 4.238702297210693359e+00 2.647159814834594727e+00 3.261051177978515625e+00 1.772463321685791016e+00 1.989479184150695801e+00
3.201000000000000000e+03 2.009995460510253906e+01 4.738292217254638672e+00 3.615998327732086182e-01 5.888859272003173828e+00 1.875137686729431152e+00 2.332206726074218750e+00
3.202000000000000000e+03 2.248841476440429688e+01 2.671788692474365234e+00 3.822053670883178711e+00 1.518557667732238770e+00 1.602183341979980469e+00 2.144138574600219727e+00
3.203000000000000000e+03 2.369107437133789062e+01 3.829617738723754883e+00 2.764531373977661133e+00 2.676648855209350586e+00 1.632354140281677246e+00 1.289038896560668945e+00
3.204000000000000000e+03 1.915195465087890625e+01 5.277380466461181641e+00 -2.600393891334533691e-01 4.614363670349121094e+00 1.306297302246093750e+00 9.536173343658447266e-01
3.205000000000000000e+03 1.858891296386718750e+01 4.929675102233886719e+00 1.714113503694534302e-01 4.137322425842285156e+00 1.292620062828063965e+00 -7.493010163307189941e-02
3.206000000000000000e+03 1.981566047668457031e+01 5.467696189880371094e+00 -2.912385165691375732e-01 4.904580593109130859e+00 1.384002566337585449e+00 1.628682732582092285e+00
3.207000000000000000e+03 7.612201213836669922e+00 -5.786968708038330078e+00 8.864864706993103027e-01 -1.771768033504486084e-01 2.127929031848907471e-01 2.520944476127624512e-01
3.208000000000000000e+03 9.373960494995117188e+00 -9.071972846984863281e+00 1.154098629951477051e+00 2.162915170192718506e-01 4.111170172691345215e-01 1.832805156707763672e+00
3.209000000000000000e+03 2.253862762451171875e+01 2.139347553253173828e+00 4.139997959136962891e+00 6.720367074012756348e-01 1.443610310554504395e+00 1.286626577377319336e+00
3.210000000000000000e+03 2.165071105957031250e+01 3.919633626937866211e+00 2.724215030670166016e+00 4.224743366241455078e+00 2.084687471389770508e+00 3.391021966934204102e+00
3.211000000000000000e+03 7.708783626556396484e+00 -7.157780647277832031e+00 9.513854980468750000e-01 1.227585971355438232e-02 2.890984117984771729e-01 7.993690371513366699e-01
3.212000000000000000e+03 6.293187141418457031e+00 -5.604430675506591797e+00 5.319051146507263184e-01 -1.066937893629074097e-01 1.275634020566940308e-01 2.908935770392417908e-02
3.213000000000000000e+03 6.767307281494140625e+00 7.701040744781494141e+00 6.273922324180603027e-01 7.644413709640502930e-01 4.175500869750976562e-01 1.866305023431777954e-01
3.214000000000000000e+03 8.887479782104492188e+00 -7.091025829315185547e+00 1.410387754440307617e+00 -1.617764383554458618e-01 3.745834231376647949e-01 9.828578829765319824e-01
3.215000000000000000e+03 9.445405006408691406e+00 -7.742475032806396484e+00 1.622218489646911621e+00 2.126318216323852539e-02 4.930444955825805664e-01 1.362641096115112305e+00
3.216000000000000000e+03 3.762108993530273438e+01 1.749075126647949219e+01 2.136124134063720703e+00 2.463517665863037109e+00 1.379892587661743164e+00 -1.874244928359985352e+00
3.217000000000000000e+03 2.148683357238769531e+01 4.612596988677978516e+00 1.685163378715515137e+00 4.699439048767089844e+00 1.915380835533142090e+00 3.092607498168945312e+00
3.218000000000000000e+03 2.155518531799316406e+01 6.939800739288330078e+00 -2.091121226549148560e-01 5.430708885192871094e+00 1.566478967666625977e+00 1.110865712165832520e+00
3.219000000000000000e+03 1.206886672973632812e+01 -7.229615688323974609e+00 2.640032052993774414e+00 9.341622591018676758e-01 1.072258234024047852e+00 1.394669771194458008e+00
3.220000000000000000e+03 5.845384216308593750e+01 -1.465653038024902344e+01 -3.846591114997863770e-01 5.460897922515869141e+00 1.522871613502502441e+00 -5.722199380397796631e-02
3.221000000000000000e+03 6.238527679443359375e+01 -1.311887550354003906e+01 -1.339465379714965820e+00 6.543493747711181641e+00 1.561208486557006836e+00 1.080765604972839355e+00
3.222000000000000000e+03 1.301112174987792969e+01 -8.088138580322265625e+00 2.452221632003784180e+00 1.684945106506347656e+00 1.241150021553039551e+00 1.379652500152587891e+00
3.223000000000000000e+03 2.053333854675292969e+01 -2.074868965148925781e+01 1.988155007362365723e+00 8.673648834228515625e-01 8.566559553146362305e-01 -6.972700357437133789e-01
3.224000000000000000e+03 2.320160484313964844e+01 -2.195254325866699219e+01 1.843627452850341797e+00 1.696826219558715820e+00 1.062136054039001465e+00 -3.832763135433197021e-01
3.225000000000000000e+03 1.948247528076171875e+01 -2.153634834289550781e+01 1.621689677238464355e+00 1.276013255119323730e+00 8.693108558654785156e-01 -3.652232587337493896e-01
3.226000000000000000e+03 1.918033790588378906e+01 -2.313650321960449219e+01 7.840893864631652832e-01 8.346439003944396973e-01 4.856199920177459717e-01 2.532236278057098389e-01
3.227000000000000000e+03 2.224079322814941406e+01 6.828669071197509766e+00 5.883410573005676270e-01 4.919587135314941406e+00 1.652378559112548828e+00 9.619388580322265625e-01
3.228000000000000000e+03 2.144792556762695312e+01 6.026676177978515625e+00 3.915986120700836182e-01 5.000415325164794922e+00 1.617604255676269531e+00 1.917084932327270508e+00
3.229000000000000000e+03 6.774708557128906250e+01 2.508622932434082031e+01 1.620917677879333496e+00 3.442551136016845703e+00 1.519040703773498535e+00 -1.035444140434265137e-01
3.230000000000000000e+03 6.988093566894531250e+01 2.364469146728515625e+01 1.283651292324066162e-01 3.964156627655029297e+00 1.227756500244140625e+00 -1.243153810501098633e+00
3.231000000000000000e+03 6.173768234252929688e+01 -1.410690212249755859e+01 -1.254795789718627930e+00 6.480288028717041016e+00 1.567647695541381836e+00 8.533971905708312988e-01
3.232000000000000000e+03 5.940152740478515625e+01 -1.627982330322265625e+01 3.316045999526977539e-01 6.106985569000244141e+00 1.931577086448669434e+00 -2.206782437860965729e-02
3.233000000000000000e+03 4.756454467773437500e+01 2.056031703948974609e+00 4.934208095073699951e-01 3.174205303192138672e+00 1.100287914276123047e+00 -1.746109366416931152e+00
3.234000000000000000e+03 7.063852310180664062e+00 -2.943560791015625000e+01 6.589137315750122070e-01 9.851736426353454590e-01 4.932262003421783447e-01 3.424115106463432312e-02
3.235000000000000000e+03 4.517169570922851562e+01 3.656077146530151367e+00 9.069652557373046875e-01 3.946931838989257812e+00 1.456169128417968750e+00 -1.701621890068054199e+00
3.236000000000000000e+03 4.423906326293945312e+01 3.944484949111938477e+00 1.020044445991516113e+00 4.820430278778076172e+00 1.752142429351806641e+00 -1.420187592506408691e+00
3.237000000000000000e+03 2.299008369445800781e+01 7.819749832153320312e+00 1.014295697212219238e+00 4.921818733215332031e+00 1.780834317207336426e+00 1.275971382856369019e-01
3.238000000000000000e+03 7.926400184631347656e+00 -9.219348907470703125e+00 4.699010252952575684e-01 6.749389767646789551e-01 3.434520065784454346e-01 1.496677637100219727e+00
3.239000000000000000e+03 3.279607391357421875e+01 -3.407595062255859375e+01 9.386908411979675293e-01 2.144241094589233398e+00 9.248795509338378906e-01 9.773575700819492340e-03
3.240000000000000000e+03 3.179048728942871094e+01 -3.153495597839355469e+01 5.819950252771377563e-02 2.044868946075439453e+00 6.309205293655395508e-01 -9.060891866683959961e-01
3.241000000000000000e+03 7.133366394042968750e+01 3.235064268112182617e+00 1.089989766478538513e-01 3.409718751907348633e+00 1.055615305900573730e+00 8.202345371246337891e-01
3.242000000000000000e+03 6.453516387939453125e+01 2.352641582489013672e+00 -4.364874958992004395e-01 4.073659420013427734e+00 1.091151595115661621e+00 -2.524021081626415253e-02
3.243000000000000000e+03 2.434267807006835938e+01 -2.493502426147460938e+01 -9.920651465654373169e-02 3.497454166412353516e+00 1.019474267959594727e+00 8.930885791778564453e-02
3.244000000000000000e+03 5.664902496337890625e+01 2.047940635681152344e+01 -8.179238997399806976e-03 3.371195077896118164e+00 1.008904695510864258e+00 -1.737563610076904297e+00
3.245000000000000000e+03 5.976617813110351562e+00 -3.019784545898437500e+01 5.995711684226989746e-01 1.145647525787353516e+00 5.235655903816223145e-01 7.793724071234464645e-03
3.246000000000000000e+03 7.343550109863281250e+01 2.511415290832519531e+01 6.079855188727378845e-02 5.829493999481201172e+00 1.767087697982788086e+00 -6.811146736145019531e-01
3.247000000000000000e+03 7.110842895507812500e+01 2.391846466064453125e+01 -1.391979306936264038e-01 4.686443328857421875e+00 1.364173650741577148e+00 -1.130454540252685547e+00
3.248000000000000000e+03 2.445245361328125000e+01 -2.253624916076660156e+01 1.725622415542602539e+00 2.855898618698120117e+00 1.374456405639648438e+00 5.765358451753854752e-03
3.249000000000000000e+03 2.327299308776855469e+01 -1.923932266235351562e+01 2.034271240234375000e+00 1.110056877136230469e+00 9.432983994483947754e-01 -4.171994924545288086e-01
3.250000000000000000e+03 5.022322654724121094e+00 1.045101642608642578e+01 4.982101321220397949e-01 3.433246314525604248e-01 2.524604201316833496e-01 -6.593842804431915283e-02
3.251000000000000000e+03 1.006818008422851562e+01 -9.587001800537109375e+00 8.273435235023498535e-01 2.890147268772125244e-01 3.349074721336364746e-01 2.171481847763061523e+00
3.252000000000000000e+03 5.809553909301757812e+01 -1.594421005249023438e+01 1.276188045740127563e-01 5.920702457427978516e+00 1.814496278762817383e+00 -1.959226429462432861e-01
3.253000000000000000e+03 8.157771110534667969e+00 -7.788621425628662109e+00 9.926762580871582031e-01 1.726291477680206299e-01 3.495916128158569336e-01 1.124448180198669434e+00
3.254000000000000000e+03 6.991122722625732422e+00 -9.985756874084472656e+00 9.067738056182861328e-02 1.012808918952941895e+00 3.310458660125732422e-01 1.265897870063781738e+00
3.255000000000000000e+03 6.124263763427734375e+01 -1.733680534362792969e+01 3.960020542144775391e-01 6.328485488891601562e+00 2.017346143722534180e+00 -3.224429488182067871e-01
3.256000000000000000e+03 3.421444320678710938e+01 3.221123123168945312e+01 -3.157338201999664307e-01 6.648986339569091797e+00 1.899975776672363281e+00 -5.757660865783691406e-01
3.257000000000000000e+03 5.063753890991210938e+01 2.443241310119628906e+01 1.428849935531616211e+00 5.138033866882324219e+00 1.970065236091613770e+00 -4.458577185869216919e-02
3.258000000000000000e+03 7.243461608886718750e+01 2.814134597778320312e+01 7.841973304748535156e-01 5.342984676361083984e+00 1.838154673576354980e+00 -1.779220700263977051e-01
3.259000000000000000e+03 6.857507324218750000e+01 2.596241378784179688e+01 1.491875410079956055e+00 3.915028810501098633e+00 1.622071266174316406e+00 -2.868838422000408173e-02
3.260000000000000000e+03 2.576264190673828125e+01 6.601205348968505859e+00 2.478429794311523438e+00 4.810011386871337891e+00 2.186532258987426758e+00 3.145274221897125244e-01
3.261000000000000000e+03 2.476720237731933594e+01 8.490109443664550781e+00 2.070839166641235352e+00 4.570085048675537109e+00 1.992277264595031738e+00 -4.915548861026763916e-01
3.262000000000000000e+03 7.154860687255859375e+01 -3.108554458618164062e+01 1.495926022529602051e+00 4.216847419738769531e+00 1.713832020759582520e+00 9.657958894968032837e-02
3.263000000000000000e+03 7.396862030029296875e+01 -3.521198654174804688e+01 4.198347926139831543e-01 6.252257347106933594e+00 2.001627683639526367e+00 -5.490554571151733398e-01
3.264000000000000000e+03 7.066676330566406250e+01 -3.183080101013183594e+01 2.104738235473632812e+00 4.464648246765136719e+00 1.970815896987915039e+00 -7.018060088157653809e-01
3.265000000000000000e+03 2.142160987854003906e+01 -1.903648376464843750e+01 1.888280034065246582e+00 6.583352684974670410e-01 7.639845609664916992e-01 -7.680291533470153809e-01
3.266000000000000000e+03 2.437110710144042969e+01 -1.973573684692382812e+01 2.047874927520751953e+00 2.173650503158569336e+00 1.266457676887512207e+00 -1.869567930698394775e-01
3.267000000000000000e+03 6.809726715087890625e+01 3.538028717041015625e+01 -3.747781515121459961e-01 5.380140304565429688e+00 1.501608729362487793e+00 5.055050253868103027e-01
3.268000000000000000e+03 3.178052902221679688e+01 -3.668839645385742188e+01 9.189219027757644653e-02 3.314671993255615234e+00 1.021969199180603027e+00 5.435802508145570755e-03
3.269000000000000000e+03 7.160460662841796875e+01 3.254896545410156250e+01 3.772076070308685303e-01 5.563416481018066406e+00 1.782187104225158691e+00 4.730972051620483398e-01
3.270000000000000000e+03 7.003575134277343750e+01 3.474719619750976562e+01 -5.109317973256111145e-02 5.543750286102294922e+00 1.647797107696533203e+00 5.692142248153686523e-01
3.271000000000000000e+03 3.302926254272460938e+01 3.614250946044921875e+01 -1.282789945602416992e+00 4.606142997741699219e+00 9.970058798789978027e-01 -2.648615539073944092e-01
3.272000000000000000e+03 4.396633911132812500e+01 -7.011263966560363770e-01 6.234983801841735840e-01 2.971267938613891602e+00 1.078429937362670898e+00 -2.072660446166992188e+00
3.273000000000000000e+03 6.819945526123046875e+01 2.764733695983886719e+01 1.630762815475463867e+00 4.618414402008056641e+00 1.874753236770629883e+00 3.804479539394378662e-01
3.274000000000000000e+03 8.018774986267089844e+00 -2.999220275878906250e+01 8.532258868217468262e-01 1.157603383064270020e+00 6.032487750053405762e-01 3.090816438198089600e-01
3.275000000000000000e+03 3.078049659729003906e+01 -3.324344635009765625e+01 4.959784746170043945e-01 2.823001623153686523e+00 9.956940412521362305e-01 -6.340143084526062012e-01
3.276000000000000000e+03 2.944927787780761719e+01 -3.192538070678710938e+01 -1.034328714013099670e-01 3.815360784530639648e+00 1.113578438758850098e+00 -6.180986762046813965e-01
3.277000000000000000e+03 3.549957656860351562e+01 3.609156799316406250e+01 -1.439404606819152832e+00 3.868453979492187500e+00 7.287148237228393555e-01 6.538147330284118652e-01
3.278000000000000000e+03 4.687623977661132812e+01 4.105207824707031250e+01 -1.470855951309204102e+00 4.183210372924804688e+00 8.137062788009643555e-01 -2.752423584461212158e-01
3.279000000000000000e+03 5.626608276367187500e+01 1.762832832336425781e+01 8.648772835731506348e-01 5.313796520233154297e+00 1.853602170944213867e+00 -1.027634501457214355e+00
3.280000000000000000e+03 4.681356811523437500e+01 3.111238718032836914e+00 5.504807233810424805e-01 3.087677001953125000e+00 1.091447353363037109e+00 -1.840316057205200195e+00
3.281000000000000000e+03 4.208537673950195312e+01 1.842295074462890625e+01 1.127420783042907715e+00 3.913275241851806641e+00 1.512208819389343262e+00 4.864304363727569580e-01
3.282000000000000000e+03 5.330798339843750000e+01 -3.371244049072265625e+01 2.529716491699218750e+00 7.512773990631103516e+00 3.012747049331665039e+00 -2.466556429862976074e-01
3.283000000000000000e+03 5.445454025268554688e+01 -3.427322006225585938e+01 2.412629365921020508e+00 8.441927909851074219e+00 3.256367206573486328e+00 -2.299901694059371948e-01
3.284000000000000000e+03 2.100312423706054688e+01 3.960196495056152344e+00 2.245898485183715820e+00 5.356344223022460938e+00 2.280672788619995117e+00 3.651553869247436523e+00
3.285000000000000000e+03 2.008932495117187500e+01 3.950105905532836914e+00 1.070887923240661621e+00 6.987358093261718750e+00 2.417473793029785156e+00 3.030400753021240234e+00
3.286000000000000000e+03 2.055371665954589844e+01 4.896478176116943359e+00 5.421131253242492676e-01 5.492451190948486328e+00 1.810369253158569336e+00 2.643001317977905273e+00
3.287000000000000000e+03 2.222730636596679688e+01 3.145759582519531250e+00 3.964243412017822266e+00 2.481853485107421875e+00 1.933829069137573242e+00 2.792932033538818359e+00
3.288000000000000000e+03 2.231060218811035156e+01 3.887383460998535156e+00 2.998279333114624023e+00 3.412505388259887695e+00 1.923235416412353516e+00 2.811052083969116211e+00
3.289000000000000000e+03 2.311399650573730469e+01 3.101811885833740234e+00 3.525264024734497070e+00 1.893174648284912109e+00 1.625531554222106934e+00 1.648519873619079590e+00
3.290000000000000000e+03 2.044697570800781250e+01 5.486295223236083984e+00 -3.297753259539604187e-02 5.135369777679443359e+00 1.530717611312866211e+00 2.262121200561523438e+00
3.291000000000000000e+03 7.332366943359375000e+00 -8.391068458557128906e+00 5.596535205841064453e-01 3.989278376102447510e-01 2.875744104385375977e-01 1.076940536499023438e+00
3.292000000000000000e+03 2.433345031738281250e+01 4.668672084808349609e+00 2.477503299713134766e+00 3.497980594635009766e+00 1.792645096778869629e+00 9.649523496627807617e-01
3.293000000000000000e+03 2.244270896911621094e+01 5.941271781921386719e+00 1.162831187248229980e+00 4.588152885437011719e+00 1.725295186042785645e+00 1.669123172760009766e+00
3.294000000000000000e+03 2.137898063659667969e+01 5.326730251312255859e+00 8.403213024139404297e-01 5.017237186431884766e+00 1.757267594337463379e+00 2.418323516845703125e+00
3.295000000000000000e+03 2.359328842163085938e+01 5.492300510406494141e+00 2.086086034774780273e+00 3.935190916061401367e+00 1.806383132934570312e+00 1.312685251235961914e+00
3.296000000000000000e+03 2.510423851013183594e+01 7.411839008331298828e+00 2.244351387023925781e+00 4.493750572204589844e+00 2.021430492401123047e+00 1.235067322850227356e-01
3.297000000000000000e+03 2.130593490600585938e+01 -2.183712387084960938e+01 1.880209803581237793e+00 7.159703373908996582e-01 7.788540124893188477e-01 -4.904824793338775635e-01
3.298000000000000000e+03 1.069607257843017578e+01 -7.654211044311523438e+00 2.221434116363525391e+00 2.477788329124450684e-01 7.407639026641845703e-01 1.589101552963256836e+00
3.299000000000000000e+03 1.016007518768310547e+01 -7.134650230407714844e+00 1.924850702285766602e+00 -1.246651187539100647e-01 5.400556921958923340e-01 1.142700910568237305e+00
3.300000000000000000e+03 1.106135082244873047e+01 -6.828773021697998047e+00 2.415361404418945312e+00 1.861723810434341431e-01 7.804601788520812988e-01 1.205928087234497070e+00
3.301000000000000000e+03 2.510790252685546875e+01 5.593113422393798828e+00 2.244240760803222656e+00 4.267405509948730469e+00 1.953493833541870117e+00 5.683152079582214355e-01
3.302000000000000000e+03 1.005993938446044922e+01 -8.337351799011230469e+00 1.507276296615600586e+00 1.158186793327331543e-01 4.869284927845001221e-01 1.696994900703430176e+00
3.303000000000000000e+03 8.721124649047851562e+00 -8.456128120422363281e+00 1.001181840896606445e+00 1.478607505559921265e-01 3.447127640247344971e-01 1.553021550178527832e+00
3.304000000000000000e+03 2.419971847534179688e+01 6.235842227935791016e+00 2.155857086181640625e+00 4.291715145111083984e+00 1.934271693229675293e+00 8.159343004226684570e-01
3.305000000000000000e+03 2.385904884338378906e+01 -2.081733894348144531e+01 2.279451608657836914e+00 1.944134831428527832e+00 1.267075896263122559e+00 -2.233249098062515259e-01
3.306000000000000000e+03 4.619778823852539062e+01 4.096115112304687500e+00 3.930460214614868164e-01 3.259807109832763672e+00 1.095855951309204102e+00 -1.785319566726684570e+00
3.307000000000000000e+03 7.231660461425781250e+01 -3.216647720336914062e+01 1.276444554328918457e+00 5.168842792510986328e+00 1.933586120605468750e+00 -6.565026193857192993e-02
3.308000000000000000e+03 7.026290893554687500e+01 3.066342163085937500e+01 8.703222870826721191e-01 5.124670028686523438e+00 1.798497676849365234e+00 5.057700276374816895e-01
3.309000000000000000e+03 7.779126644134521484e+00 7.246360301971435547e+00 5.903132557868957520e-01 1.014255404472351074e+00 4.813705980777740479e-01 8.563616126775741577e-02
3.310000000000000000e+03 3.258354949951171875e+01 3.336155700683593750e+01 -4.961445033550262451e-01 5.269034862518310547e+00 1.431867122650146484e+00 -1.070260286331176758e+00
3.311000000000000000e+03 7.223801422119140625e+01 2.410916709899902344e+01 -1.254787296056747437e-01 5.471382141113281250e+00 1.603770971298217773e+00 -9.954125285148620605e-01
3.312000000000000000e+03 7.235311889648437500e+01 2.628314590454101562e+01 4.861099720001220703e-01 5.277873516082763672e+00 1.729194998741149902e+00 -6.067535281181335449e-01
3.313000000000000000e+03 6.569555664062500000e+01 3.734035491943359375e+01 -8.295790553092956543e-01 4.576979637145996094e+00 1.124220252037048340e+00 -3.310140594840049744e-02
3.314000000000000000e+03 6.856449890136718750e+01 2.919633865356445312e+01 1.361542463302612305e+00 5.006631374359130859e+00 1.910452127456665039e+00 5.786556601524353027e-01
3.315000000000000000e+03 5.082271099090576172e+00 1.286078834533691406e+01 3.230352997779846191e-01 5.063398480415344238e-01 2.488125413656234741e-01 -4.172880947589874268e-01
3.316000000000000000e+03 6.937260437011718750e+01 2.810617065429687500e+01 1.330486774444580078e+00 4.518593788146972656e+00 1.754724144935607910e+00 2.894231677055358887e-01
3.317000000000000000e+03 3.226493453979492188e+01 3.477098846435546875e+01 -9.064552187919616699e-01 4.898973941802978516e+00 1.197755575180053711e+00 -8.203098773956298828e-01
3.318000000000000000e+03 3.023476791381835938e+01 3.286701965332031250e+01 1.810008883476257324e-01 3.832262516021728516e+00 1.203979015350341797e+00 -1.399278283119201660e+00
3.319000000000000000e+03 6.329479217529296875e+01 1.607322096824645996e+00 -7.550301551818847656e-01 5.372518062591552734e+00 1.385246396064758301e+00 -6.948790550231933594e-01
3.320000000000000000e+03 7.072164916992187500e+01 -3.906147766113281250e+01 -8.886735439300537109e-01 6.120744705200195312e+00 1.569621443748474121e+00 -7.674036026000976562e-01
3.321000000000000000e+03 6.989312744140625000e+01 -3.700314712524414062e+01 -1.397888362407684326e-01 6.172031402587890625e+00 1.809672713279724121e+00 -1.093316912651062012e+00
3.322000000000000000e+03 7.256792449951171875e+01 3.538603210449218750e+01 3.210552781820297241e-02 6.079468250274658203e+00 1.833472132682800293e+00 4.481680691242218018e-01
3.323000000000000000e+03 5.978952789306640625e+01 -1.503842735290527344e+01 -5.178371667861938477e-01 5.908559322357177734e+00 1.617216587066650391e+00 4.049927592277526855e-01
3.324000000000000000e+03 2.076357460021972656e+01 4.387999534606933594e+00 1.290004491806030273e+00 5.655473232269287109e+00 2.083643436431884766e+00 3.234937191009521484e+00
3.325000000000000000e+03 1.932585334777832031e+01 4.617216110229492188e+00 1.750774830579757690e-01 5.857715606689453125e+00 1.809837937355041504e+00 1.107469081878662109e+00
3.326000000000000000e+03 2.138970184326171875e+01 4.998733520507812500e+00 1.184691309928894043e+00 4.950320720672607422e+00 1.840503573417663574e+00 2.700771570205688477e+00
3.327000000000000000e+03 2.099425506591796875e+01 4.969058036804199219e+00 8.416042923927307129e-01 5.200909137725830078e+00 1.812754034996032715e+00 2.836263656616210938e+00
3.328000000000000000e+03 2.269433593750000000e+01 3.587496757507324219e+00 3.168267011642456055e+00 2.686891317367553711e+00 1.756547451019287109e+00 2.287567615509033203e+00
3.329000000000000000e+03 2.249530792236328125e+01 4.320504188537597656e+00 2.432945489883422852e+00 3.705608129501342773e+00 1.841566085815429688e+00 2.569970846176147461e+00
3.330000000000000000e+03 2.293522453308105469e+01 6.326638221740722656e+00 1.335326433181762695e+00 4.690470218658447266e+00 1.807739019393920898e+00 1.236818790435791016e+00
3.331000000000000000e+03 2.298284149169921875e+01 4.998054504394531250e+00 2.167443513870239258e+00 3.881876468658447266e+00 1.814795970916748047e+00 1.841645240783691406e+00
3.332000000000000000e+03 1.144082450866699219e+01 -8.189518928527832031e+00 1.985081553459167480e+00 3.886242806911468506e-01 7.121117711067199707e-01 1.621766686439514160e+00
3.333000000000000000e+03 2.223371505737304688e+01 -2.112473678588867188e+01 2.152534246444702148e+00 9.228679537773132324e-01 9.226206541061401367e-01 -5.998164415359497070e-01
3.334000000000000000e+03 1.074053287506103516e+01 -8.937180519104003906e+00 1.712222933769226074e+00 2.063605487346649170e-01 5.755750536918640137e-01 1.954283595085144043e+00
3.335000000000000000e+03 7.110001373291015625e+01 2.652530479431152344e+01 8.688911199569702148e-01 4.713571071624755859e+00 1.674738645553588867e+00 -4.434650540351867676e-01
3.336000000000000000e+03 7.151992034912109375e+01 2.766138839721679688e+01 8.464097976684570312e-01 4.939144611358642578e+00 1.735666394233703613e+00 -2.221493870019912720e-01
3.337000000000000000e+03 3.214136886596679688e+01 3.754310226440429688e+01 -1.250234007835388184e+00 4.352576732635498047e+00 9.307028055191040039e-01 -2.287214547395706177e-01
3.338000000000000000e+03 2.920376014709472656e+01 3.690177917480468750e+01 -6.411836743354797363e-01 3.789543628692626953e+00 9.445080161094665527e-01 -4.639205634593963623e-01
3.339000000000000000e+03 2.135790252685546875e+01 4.244020462036132812e+00 1.984566450119018555e+00 4.809351921081542969e+00 2.038175582885742188e+00 3.384469032287597656e+00
3.340000000000000000e+03 2.192146301269531250e+01 4.714546680450439453e+00 1.866399049758911133e+00 4.411131381988525391e+00 1.883259057998657227e+00 2.747911691665649414e+00
3.341000000000000000e+03 2.192135238647460938e+01 5.493448734283447266e+00 1.134614109992980957e+00 4.721329689025878906e+00 1.756783127784729004e+00 2.220525979995727539e+00
3.342000000000000000e+03 6.804906463623046875e+01 4.084204483032226562e+01 -5.675673484802246094e-01 4.892402172088623047e+00 1.297450423240661621e+00 3.130888566374778748e-02
3.343000000000000000e+03 7.450793457031250000e+01 -3.388574218750000000e+01 4.902419149875640869e-01 6.381078243255615234e+00 2.061396121978759766e+00 -2.316300123929977417e-01
3.344000000000000000e+03 3.182340812683105469e+01 3.949260711669921875e+01 -1.202428460121154785e+00 4.018168449401855469e+00 8.447220325469970703e-01 -4.958176240324974060e-02
3.345000000000000000e+03 2.243321418762207031e+01 4.843589305877685547e+00 2.093289136886596680e+00 3.895740985870361328e+00 1.796709060668945312e+00 2.442176103591918945e+00
3.346000000000000000e+03 2.773027420043945312e+01 4.140929794311523438e+01 -1.065533399581909180e+00 3.944968223571777344e+00 8.638304471969604492e-01 -3.845392540097236633e-02
3.347000000000000000e+03 7.300426483154296875e+01 3.836840820312500000e+01 -2.194219529628753662e-01 6.153087615966796875e+00 1.780099630355834961e+00 2.896220982074737549e-01
3.348000000000000000e+03 7.951461791992187500e+00 -4.118481063842773438e+01 -8.014700412750244141e-01 2.279364585876464844e+00 4.433683753013610840e-01 1.889906227588653564e-01
3.349000000000000000e+03 8.486168861389160156e+00 -3.892465591430664062e+01 -7.949427962303161621e-01 2.162986993789672852e+00 4.104132652282714844e-01 7.690576910972595215e-01
3.350000000000000000e+03 3.223517990112304688e+01 -3.270840454101562500e+01 7.097192406654357910e-01 1.883591175079345703e+00 7.779931426048278809e-01 -4.826086163520812988e-01
3.351000000000000000e+03 5.790446281433105469e+00 3.597589492797851562e+01 -5.729695558547973633e-01 6.276581883430480957e-01 1.640659198164939880e-02 -3.202350437641143799e-02
3.352000000000000000e+03 2.002301788330078125e+01 3.965552902221679688e+01 -9.329293966293334961e-01 3.141902446746826172e+00 6.626919507980346680e-01 -1.931853294372558594e-01
3.353000000000000000e+03 1.991646957397460938e+01 3.585348892211914062e+01 -7.548779845237731934e-01 3.755812168121337891e+00 9.002802371978759766e-01 -3.280912041664123535e-01
3.354000000000000000e+03 6.235531997680664062e+01 3.765174484252929688e+01 -7.992641329765319824e-01 2.433676481246948242e+00 4.903237223625183105e-01 -7.735430002212524414e-01
3.355000000000000000e+03 1.222230434417724609e+01 3.890383148193359375e+01 -5.914132669568061829e-02 1.824627369642257690e-01 3.699642419815063477e-02 -2.822465896606445312e-01
3.356000000000000000e+03 2.835575866699218750e+01 3.916799163818359375e+01 -9.125813245773315430e-01 3.818377256393432617e+00 8.717387914657592773e-01 -1.616513580083847046e-01
3.357000000000000000e+03 2.335731697082519531e+01 4.107825469970703125e+01 -1.009191155433654785e+00 3.575012445449829102e+00 7.697464227676391602e-01 3.543497528880834579e-03
3.358000000000000000e+03 2.688797950744628906e+01 -3.668091964721679688e+01 1.874485462903976440e-01 4.663825988769531250e+00 1.455382347106933594e+00 -6.001052260398864746e-01
3.359000000000000000e+03 1.643570709228515625e+01 -3.741632103919982910e-01 -2.975268661975860596e-01 3.369279146194458008e+00 9.215257167816162109e-01 2.123823881149291992e+00
3.360000000000000000e+03 1.662368774414062500e+01 -2.985123991966247559e-01 -3.077368140220642090e-01 3.762475967407226562e+00 1.036421775817871094e+00 2.796313762664794922e+00
3.361000000000000000e+03 1.679941749572753906e+01 -2.744760811328887939e-01 -2.123372554779052734e-01 3.860746383666992188e+00 1.094522714614868164e+00 3.221226215362548828e+00
3.362000000000000000e+03 1.710141563415527344e+01 -6.157616376876831055e-01 8.837208896875381470e-02 5.916612625122070312e+00 1.801495432853698730e+00 4.021957397460937500e+00
3.363000000000000000e+03 1.854588699340820312e+01 -2.483121305704116821e-01 -1.178793311119079590e+00 1.210195636749267578e+01 3.276949167251586914e+00 7.348256111145019531e+00
3.364000000000000000e+03 1.905224418640136719e+01 -3.627836108207702637e-01 -2.843640327453613281e+00 1.261864089965820312e+01 2.932500123977661133e+00 5.617064476013183594e+00
3.365000000000000000e+03 1.960309410095214844e+01 3.588639020919799805e+00 8.967341780662536621e-01 8.588430404663085938e+00 2.845549345016479492e+00 2.304236650466918945e+00
3.366000000000000000e+03 1.866080093383789062e+01 3.087461948394775391e+00 1.413775563240051270e+00 8.587867736816406250e+00 3.000493049621582031e+00 -1.543747901916503906e+00
3.367000000000000000e+03 1.799591827392578125e+01 3.613866567611694336e+00 1.734757423400878906e+00 3.871395111083984375e+00 1.681845784187316895e+00 -1.710357308387756348e+00
3.368000000000000000e+03 1.709309387207031250e+01 3.299750566482543945e+00 2.469913005828857422e+00 9.725145101547241211e-01 1.032728314399719238e+00 -1.662276029586791992e+00
3.369000000000000000e+03 1.585117912292480469e+01 2.977055788040161133e+00 1.541988492012023926e+00 -2.304797917604446411e-01 3.934526145458221436e-01 -1.011826157569885254e+00
3.370000000000000000e+03 5.505195617675781250e+01 -2.443834686279296875e+01 -5.369969010353088379e-01 7.404753684997558594e+00 2.060327053070068359e+00 1.994635343551635742e+00
3.371000000000000000e+03 2.114975929260253906e+01 2.938587951660156250e+01 1.246219992637634277e+00 6.867691516876220703e+00 2.434173583984375000e+00 -6.006994843482971191e-01
3.372000000000000000e+03 1.010471916198730469e+01 2.182311058044433594e+01 3.307717442512512207e-01 7.787920832633972168e-01 3.328691422939300537e-01 -5.194532275199890137e-01
3.373000000000000000e+03 6.446020507812500000e+01 -9.134937286376953125e+00 8.277266025543212891e-01 8.340770721435546875e+00 2.750549077987670898e+00 -2.374097704887390137e-01
3.374000000000000000e+03 3.023627471923828125e+01 -2.702128982543945312e+01 -1.282890796661376953e+00 3.888139963150024414e+00 7.815747261047363281e-01 -9.304459691047668457e-01
3.375000000000000000e+03 3.938171768188476562e+01 -2.709809684753417969e+01 -2.738721132278442383e+00 9.747117042541503906e+00 2.102518796920776367e+00 1.546888113021850586e+00
3.376000000000000000e+03 4.904556274414062500e+01 -8.731617927551269531e+00 2.599438905715942383e+00 8.201960563659667969e+00 3.240419864654541016e+00 3.408676087856292725e-01
3.377000000000000000e+03 5.220171356201171875e+01 2.969133567810058594e+01 1.518747568130493164e+00 8.186781883239746094e+00 2.911659002304077148e+00 1.323820710182189941e+00
3.378000000000000000e+03 5.314264678955078125e+01 2.717737388610839844e+01 1.367619395256042480e+00 8.202912330627441406e+00 2.871159553527832031e+00 -7.190445661544799805e-01
3.379000000000000000e+03 5.136797332763671875e+01 2.695632362365722656e+01 1.888109922409057617e+00 6.751491069793701172e+00 2.591880321502685547e+00 4.023873507976531982e-01
3.380000000000000000e+03 6.182578659057617188e+01 8.537118911743164062e+00 4.231043159961700439e-01 4.411694526672363281e+00 1.450439691543579102e+00 -1.654910922050476074e+00
3.381000000000000000e+03 6.045152664184570312e+01 1.767099189758300781e+01 2.522540569305419922e+00 8.206628799438476562e+00 3.218750715255737305e+00 2.415690183639526367e+00
3.382000000000000000e+03 6.951214599609375000e+01 6.377069950103759766e+00 -2.997868955135345459e-01 2.938753128051757812e+00 7.916898727416992188e-01 1.954656839370727539e+00
3.383000000000000000e+03 2.765868568420410156e+01 1.366947650909423828e+01 -4.841310083866119385e-01 1.294946789741516113e+00 2.432447373867034912e-01 1.056490182876586914e+00
3.384000000000000000e+03 1.521384525299072266e+01 -3.986302566528320312e+01 -1.995246767997741699e+00 4.060447961091995239e-02 -5.863927006721496582e-01 4.869762659072875977e-01
3.385000000000000000e+03 1.299245834350585938e+01 -4.194056701660156250e+01 -1.607294321060180664e+00 1.502965927124023438e+00 -3.129851818084716797e-02 5.329480022192001343e-02
3.386000000000000000e+03 1.874955368041992188e+01 3.591067790985107422e+00 8.905676007270812988e-01 7.254283428192138672e+00 2.443455219268798828e+00 -5.523584485054016113e-01
3.387000000000000000e+03 1.834690856933593750e+01 4.096632480621337891e+00 8.510396480560302734e-01 4.920257091522216797e+00 1.731388926506042480e+00 -9.426931738853454590e-01
3.388000000000000000e+03 1.978157806396484375e+01 -4.565970301628112793e-01 -9.270446300506591797e-01 9.669167518615722656e+00 2.622636795043945312e+00 3.646463871002197266e+00
3.389000000000000000e+03 1.751423645019531250e+01 3.830171108245849609e+00 1.845322608947753906e+00 2.290740013122558594e+00 1.240818738937377930e+00 -1.811865687370300293e+00
3.390000000000000000e+03 1.731274986267089844e+01 3.436727523803710938e+00 2.332612514495849609e+00 1.645129323005676270e+00 1.193322539329528809e+00 -1.800152063369750977e+00
3.391000000000000000e+03 1.688850975036621094e+01 3.403882980346679688e+00 2.348052740097045898e+00 6.673569083213806152e-01 9.046229124069213867e-01 -1.493979096412658691e+00
3.392000000000000000e+03 1.715910530090332031e+01 3.548395395278930664e+00 2.357346534729003906e+00 1.176011085510253906e+00 1.060007333755493164e+00 -1.692065834999084473e+00
3.393000000000000000e+03 1.687815666198730469e+01 -7.709727287292480469e-01 3.364078998565673828e-01 5.541974067687988281e+00 1.763514637947082520e+00 3.520693063735961914e+00
3.394000000000000000e+03 1.931036949157714844e+01 -5.420941114425659180e-01 -2.595858573913574219e+00 1.185514926910400391e+01 2.777787208557128906e+00 5.251554012298583984e+00
3.395000000000000000e+03 2.149890518188476562e+01 1.829481363296508789e+00 5.636889934539794922e+00 1.430506587028503418e+00 2.120218992233276367e+00 2.431843996047973633e+00
3.396000000000000000e+03 2.086341094970703125e+01 2.938457965850830078e+00 4.139533042907714844e+00 5.234564781188964844e+00 2.812229394912719727e+00 4.715094089508056641e+00
3.397000000000000000e+03 2.089242935180664062e+01 2.656806468963623047e+00 5.194385051727294922e+00 4.758794307708740234e+00 2.985953807830810547e+00 4.616050243377685547e+00
3.398000000000000000e+03 1.970142745971679688e+01 3.302243232727050781e+00 1.482361555099487305e+00 9.354713439941406250e+00 3.251122474670410156e+00 2.972059726715087891e+00
3.399000000000000000e+03 1.982621765136718750e+01 3.742555141448974609e+00 1.076728224754333496e+00 7.651950836181640625e+00 2.618603706359863281e+00 2.601134777069091797e+00
3.400000000000000000e+03 1.917314338684082031e+01 3.729007959365844727e+00 5.663381814956665039e-01 8.003553390502929688e+00 2.570967674255371094e+00 9.433326125144958496e-01
3.401000000000000000e+03 1.968530845642089844e+01 -1.913288086652755737e-01 -2.111628532409667969e+00 1.226607894897460938e+01 3.046334981918334961e+00 2.804209232330322266e+00
3.402000000000000000e+03 2.130520057678222656e+01 2.531048297882080078e+00 5.292388439178466797e+00 3.244001865386962891e+00 2.560917139053344727e+00 3.838793516159057617e+00
3.403000000000000000e+03 1.343048763275146484e+01 -4.081857681274414062e+01 -2.041374206542968750e+00 1.413100481033325195e+00 -1.884821206331253052e-01 1.684838831424713135e-01
3.404000000000000000e+03 6.811023712158203125e+01 -3.887760162353515625e+01 -1.188128113746643066e+00 5.480113506317138672e+00 1.287595629692077637e+00 -4.412540495395660400e-01
3.405000000000000000e+03 6.545388793945312500e+01 -3.862993621826171875e+01 -1.943161725997924805e+00 4.030169486999511719e+00 6.261022686958312988e-01 3.776687681674957275e-01
3.406000000000000000e+03 4.690730285644531250e+01 -3.841341781616210938e+01 -2.260850906372070312e+00 1.906833410263061523e+00 -1.062052324414253235e-01 6.765956282615661621e-01
3.407000000000000000e+03 3.879001235961914062e+01 3.648812866210937500e+01 -8.017152547836303711e-01 1.215917587280273438e+00 1.242606863379478455e-01 9.375406503677368164e-01
3.408000000000000000e+03 3.376161575317382812e+01 1.969495964050292969e+01 1.100995063781738281e+00 7.670931816101074219e+00 2.631578207015991211e+00 4.911515396088361740e-03
3.409000000000000000e+03 1.443233489990234375e+01 2.087296676635742188e+01 5.899949669837951660e-01 -5.561022758483886719e-01 1.016780827194452286e-02 -1.650744378566741943e-01
3.410000000000000000e+03 7.212945938110351562e+00 2.035527229309082031e+01 -2.518367171287536621e-01 1.488697052001953125e+00 3.710580766201019287e-01 -4.835955202579498291e-01
3.411000000000000000e+03 2.547293853759765625e+01 -1.618891716003417969e+01 -7.447430491447448730e-01 2.221406698226928711e+00 4.429990649223327637e-01 6.581360697746276855e-01
3.412000000000000000e+03 3.493326568603515625e+01 2.484741401672363281e+01 4.425589442253112793e-01 8.597427368164062500e+00 2.711995840072631836e+00 -5.047816038131713867e-01
3.413000000000000000e+03 1.696036338806152344e+01 -1.870217514038085938e+01 1.480509281158447266e+00 5.058072090148925781e+00 1.961574435234069824e+00 -5.601138994097709656e-02
3.414000000000000000e+03 1.042273044586181641e+01 -3.244754028320312500e+01 1.116208195686340332e+00 2.282094001770019531e+00 1.019490718841552734e+00 9.973221421241760254e-01
3.415000000000000000e+03 2.808126640319824219e+01 7.759146213531494141e+00 2.420151233673095703e+00 8.152948379516601562e+00 3.171929836273193359e+00 4.544169008731842041e-01
3.416000000000000000e+03 5.715552520751953125e+01 -2.572025680541992188e+01 -1.517890214920043945e+00 7.179652690887451172e+00 1.698528766632080078e+00 1.612049341201782227e+00
3.417000000000000000e+03 5.161590957641601562e+01 -1.316196823120117188e+01 3.066320344805717468e-02 3.116793632507324219e+00 9.442370533943176270e-01 -1.826050519943237305e+00
3.418000000000000000e+03 6.733802032470703125e+01 2.392842864990234375e+01 9.891520738601684570e-01 2.782309532165527344e+00 1.131438493728637695e+00 1.986891403794288635e-02
3.419000000000000000e+03 5.415703964233398438e+01 -3.791868209838867188e+01 -1.766664981842041016e+00 7.480239868164062500e+00 1.714072465896606445e+00 -3.456076383590698242e-01
3.420000000000000000e+03 7.144692897796630859e+00 3.654772949218750000e+01 -4.345079660415649414e-01 3.681043684482574463e-01 -1.992108672857284546e-02 5.453411117196083069e-02
3.421000000000000000e+03 7.342072296142578125e+01 7.654151439666748047e+00 -1.106231100857257843e-02 7.754528045654296875e+00 2.323039770126342773e+00 -2.068036198616027832e-01
3.422000000000000000e+03 1.356961345672607422e+01 -3.956332397460937500e+01 -1.310996174812316895e+00 1.076099872589111328e+00 -7.046887278556823730e-02 2.386077046394348145e-01
3.423000000000000000e+03 6.502349853515625000e+01 -2.727244758605957031e+01 -1.275332450866699219e+00 8.724682807922363281e+00 2.234805107116699219e+00 -2.622302770614624023e+00
3.424000000000000000e+03 3.989842987060546875e+01 -2.834517478942871094e+01 -3.216540098190307617e+00 8.993170738220214844e+00 1.732989192008972168e+00 1.616151332855224609e+00
3.425000000000000000e+03 3.888351440429687500e+01 -2.794231414794921875e+01 -2.904471635818481445e+00 8.449231147766113281e+00 1.663427829742431641e+00 2.007816553115844727e+00
3.426000000000000000e+03 2.414534807205200195e+00 3.618514060974121094e+00 -8.712583780288696289e-02 -2.471560388803482056e-01 -1.002845615148544312e-01 3.998405635356903076e-01
3.427000000000000000e+03 4.173462677001953125e+01 -2.156684112548828125e+01 2.646413803100585938e+00 5.766870021820068359e+00 2.523985147476196289e+00 5.577899813652038574e-01
3.428000000000000000e+03 1.682539558410644531e+01 3.887065887451171875e+00 2.121335029602050781e+00 5.995266437530517578e-01 8.162584900856018066e-01 -1.667482852935791016e+00
3.429000000000000000e+03 7.297751617431640625e+01 1.399536323547363281e+01 1.275977253913879395e+00 1.127618122100830078e+01 3.765647649765014648e+00 -3.695567250251770020e-01
3.430000000000000000e+03 1.789723968505859375e+01 2.249195671081542969e+01 7.718268036842346191e-01 9.181564450263977051e-01 5.069949626922607422e-01 -2.037952393293380737e-01
3.431000000000000000e+03 1.941749191284179688e+01 3.855974912643432617e+00 6.386012434959411621e-01 7.826511859893798828e+00 2.539533853530883789e+00 1.452203750610351562e+00
3.432000000000000000e+03 5.795743179321289062e+01 -2.253341293334960938e+01 1.855130314826965332e+00 5.958906650543212891e+00 2.344211101531982422e+00 3.277760446071624756e-01
3.433000000000000000e+03 2.202891159057617188e+01 1.044637560844421387e+00 3.086440563201904297e+00 -1.143160313367843628e-01 8.916373848915100098e-01 3.322541713714599609e-01
3.434000000000000000e+03 3.568279266357421875e+01 -3.329570770263671875e+01 1.752118706703186035e+00 2.714778423309326172e+00 1.340069055557250977e+00 1.444575309753417969e+00
3.435000000000000000e+03 2.259716987609863281e+01 1.177687525749206543e+00 2.740532159805297852e+00 -3.389293253421783447e-01 7.204808592796325684e-01 2.992476895451545715e-02
3.436000000000000000e+03 2.191254997253417969e+01 2.423359870910644531e+00 4.939963817596435547e+00 1.700652956962585449e+00 1.992184996604919434e+00 2.705006599426269531e+00
3.437000000000000000e+03 1.800929260253906250e+01 -1.899101257324218750e+01 1.573265552520751953e+00 2.618185997009277344e+00 1.257435441017150879e+00 -3.919281959533691406e-01
3.438000000000000000e+03 4.065428733825683594e+00 -2.616180801391601562e+01 -3.883259594440460205e-01 1.422014236450195312e+00 3.101064562797546387e-01 -3.670674264430999756e-01
3.439000000000000000e+03 4.828441619873046875e+00 -3.204346847534179688e+01 4.500997662544250488e-01 1.437826514244079590e+00 5.663778781890869141e-01 1.303772479295730591e-01
3.440000000000000000e+03 3.831637191772460938e+01 -1.428184413909912109e+01 -3.297225952148437500e+00 6.245551109313964844e+00 8.844974637031555176e-01 -3.240404844284057617e+00
3.441000000000000000e+03 1.657872772216796875e+01 -2.184718132019042969e+00 2.436197757720947266e+00 7.054619312286376953e+00 2.847245216369628906e+00 3.087191343307495117e+00
3.442000000000000000e+03 1.959486770629882812e+01 -1.805486297607421875e+01 1.135877966880798340e+00 1.569844484329223633e+00 8.117166757583618164e-01 -7.452695369720458984e-01
3.443000000000000000e+03 7.738668060302734375e+01 -3.587193679809570312e+01 1.901714317500591278e-02 7.393199443817138672e+00 2.223664999008178711e+00 -1.625522822141647339e-01
3.444000000000000000e+03 1.888891983032226562e+01 4.465676307678222656e+00 2.505960762500762939e-01 5.430940628051757812e+00 1.704461097717285156e+00 2.622237503528594971e-01
3.445000000000000000e+03 3.446256256103515625e+01 3.532561492919921875e+01 -1.532940030097961426e+00 4.892574787139892578e+00 1.007890462875366211e+00 3.073190338909626007e-02
3.446000000000000000e+03 3.564154434204101562e+01 -3.649051284790039062e+01 -2.156364619731903076e-01 3.680662870407104492e+00 1.039507985115051270e+00 1.226649641990661621e+00
3.447000000000000000e+03 3.745698547363281250e+01 -3.377253723144531250e+01 1.973860144615173340e+00 4.986280918121337891e+00 2.088042259216308594e+00 1.702297329902648926e+00
3.448000000000000000e+03 7.556556701660156250e+01 -2.071989440917968750e+01 1.142065167427062988e+00 8.872177124023437500e+00 3.004272699356079102e+00 7.671151757240295410e-01
3.449000000000000000e+03 3.596461868286132812e+01 -1.125461387634277344e+01 2.048789262771606445e+00 4.750668048858642578e+00 2.039837121963500977e+00 -2.000444650650024414e+00
3.450000000000000000e+03 7.718275451660156250e+01 -1.554358196258544922e+01 -5.097618699073791504e-01 8.723561286926269531e+00 2.464139938354492188e+00 9.304584860801696777e-01
3.451000000000000000e+03 8.404470443725585938e+00 8.216483116149902344e+00 9.533836841583251953e-01 1.559998750686645508e+00 7.540147304534912109e-01 -2.337808758020401001e-01
3.452000000000000000e+03 5.088275146484375000e+01 -1.242108917236328125e+01 3.918681442737579346e-01 4.480131626129150391e+00 1.461599946022033691e+00 -1.351493954658508301e+00
3.453000000000000000e+03 5.581097030639648438e+01 1.869210052490234375e+01 3.528260588645935059e-01 4.692906856536865234e+00 1.513719797134399414e+00 -1.578834891319274902e+00
3.454000000000000000e+03 6.156045150756835938e+01 7.711735248565673828e+00 -7.311014533042907715e-01 5.101962089538574219e+00 1.311258196830749512e+00 -1.484635114669799805e+00
3.455000000000000000e+03 3.081241989135742188e+01 -1.242382431030273438e+01 -1.092145919799804688e+00 5.912077903747558594e+00 1.445979595184326172e+00 1.835203766822814941e+00
3.456000000000000000e+03 7.580921936035156250e+01 -1.363277053833007812e+01 -1.328048110008239746e+00 7.747743606567382812e+00 1.925908565521240234e+00 6.875599622726440430e-01
3.457000000000000000e+03 5.273687744140625000e+01 2.382152748107910156e+01 8.994300663471221924e-02 5.323027610778808594e+00 1.623891234397888184e+00 -1.288588166236877441e+00
3.458000000000000000e+03 6.438517761230468750e+01 -1.475008869171142578e+01 -1.670610189437866211e+00 5.594194412231445312e+00 1.177075266838073730e+00 6.349579691886901855e-01
3.459000000000000000e+03 6.284787368774414062e+01 -1.408830928802490234e+01 -1.550724864006042480e+00 6.614162445068359375e+00 1.519031167030334473e+00 8.004903793334960938e-01
3.460000000000000000e+03 4.283789062500000000e+01 1.950791740417480469e+01 -1.270361691713333130e-01 4.463263511657714844e+00 1.300868272781372070e+00 1.617438554763793945e+00
3.461000000000000000e+03 6.555829620361328125e+01 3.064844703674316406e+01 6.319839954376220703e-01 6.189848423004150391e+00 2.046549558639526367e+00 8.276926875114440918e-01
3.462000000000000000e+03 3.406761550903320312e+01 -1.047093200683593750e+01 2.440929174423217773e+00 4.165289402008056641e+00 1.981865525245666504e+00 -3.069080114364624023e-01
3.463000000000000000e+03 6.991940307617187500e+01 3.265190505981445312e+01 4.040371179580688477e-01 5.389999389648437500e+00 1.738211035728454590e+00 6.670439243316650391e-01
3.464000000000000000e+03 6.877303314208984375e+01 2.489190864562988281e+01 1.125463366508483887e+00 3.582460165023803711e+00 1.412376999855041504e+00 -5.623793601989746094e-01
3.465000000000000000e+03 3.487871932983398438e+01 -3.424311828613281250e+01 1.343458652496337891e+00 2.413163423538208008e+00 1.126986622810363770e+00 1.321359038352966309e+00
3.466000000000000000e+03 2.976801300048828125e+01 -3.005537033081054688e+01 -1.042608976364135742e+00 3.943088054656982422e+00 8.701437115669250488e-01 -7.966424822807312012e-01
3.467000000000000000e+03 3.017687416076660156e+01 -3.106614494323730469e+01 -4.801516532897949219e-01 3.459843635559082031e+00 8.939076066017150879e-01 -8.213617801666259766e-01
3.468000000000000000e+03 1.823183822631835938e+01 -2.450353813171386719e+01 -4.799388647079467773e-01 9.998956322669982910e-01 1.559870243072509766e-01 1.207515478134155273e+00
3.469000000000000000e+03 5.894822311401367188e+01 -2.416964530944824219e+01 6.786080598831176758e-01 4.089612007141113281e+00 1.430466055870056152e+00 8.694168329238891602e-01
3.470000000000000000e+03 3.530646896362304688e+01 2.011085510253906250e+01 1.030832052230834961e+00 5.419018268585205078e+00 1.934955120086669922e+00 -1.160000801086425781e+00
3.471000000000000000e+03 7.168421936035156250e+01 3.407601928710937500e+01 1.608658879995346069e-01 5.712033748626708984e+00 1.761869907379150391e+00 5.309363007545471191e-01
3.472000000000000000e+03 1.364449691772460938e+01 -5.189653873443603516e+00 3.223944664001464844e+00 2.618896722793579102e+00 1.752852439880371094e+00 9.739061594009399414e-01
3.473000000000000000e+03 5.609695434570312500e+01 4.056605815887451172e+00 -6.624404191970825195e-01 5.057865142822265625e+00 1.318627476692199707e+00 4.240421354770660400e-01
3.474000000000000000e+03 6.105377578735351562e+01 -2.089996337890625000e+01 2.792837142944335938e+00 5.155046939849853516e+00 2.384365320205688477e+00 -1.182847499847412109e+00
3.475000000000000000e+03 7.697710418701171875e+01 9.703300476074218750e+00 3.743423223495483398e-01 7.141905784606933594e+00 2.254874467849731445e+00 -8.019471168518066406e-01
3.476000000000000000e+03 3.378836441040039062e+01 -3.561601257324218750e+01 4.481858313083648682e-01 2.931338310241699219e+00 1.013857245445251465e+00 7.858282327651977539e-01
3.477000000000000000e+03 3.279500961303710938e+01 -2.670565843582153320e+00 2.396112203598022461e+00 4.323116779327392578e+00 2.015768766403198242e+00 -5.715411305427551270e-01
3.478000000000000000e+03 3.433975219726562500e+00 3.457020568847656250e+01 -4.142459034919738770e-01 1.397639751434326172e+00 2.950181663036346436e-01 -3.524678945541381836e-01
3.479000000000000000e+03 1.162027740478515625e+01 -3.738141059875488281e+00 1.929914951324462891e+00 5.567077547311782837e-03 5.806446075439453125e-01 -6.562775373458862305e-02
3.480000000000000000e+03 2.109590148925781250e+01 7.941671848297119141e+00 -4.993413984775543213e-01 5.374628543853759766e+00 1.462586164474487305e+00 1.656056493520736694e-01
3.481000000000000000e+03 2.297401809692382812e+01 1.914799094200134277e+00 3.627075195312500000e+00 2.776661515235900879e-01 1.171422481536865234e+00 6.741211414337158203e-01
3.482000000000000000e+03 2.845745563507080078e+00 2.400969505310058594e+01 1.568137556314468384e-01 4.303999841213226318e-01 1.761641204357147217e-01 7.255079597234725952e-02
3.483000000000000000e+03 5.057625579833984375e+01 2.946561622619628906e+01 1.780675649642944336e+00 6.776875495910644531e+00 2.567265272140502930e+00 1.139179110527038574e+00
3.484000000000000000e+03 1.659480667114257812e+01 -1.324614286422729492e+00 1.161168575286865234e+00 5.712539196014404297e+00 2.062112331390380859e+00 2.906626462936401367e+00
3.485000000000000000e+03 1.022888565063476562e+01 1.887449264526367188e+01 -2.283600419759750366e-01 1.014943957328796387e+00 2.359751760959625244e-01 -1.747392266988754272e-01
3.486000000000000000e+03 4.886470794677734375e+01 -5.175065517425537109e+00 1.409061551094055176e+00 7.231337547302246094e+00 2.592119693756103516e+00 -7.469396591186523438e-01
3.487000000000000000e+03 6.507037353515625000e+01 2.963489532470703125e+01 9.391767382621765137e-01 6.883762836456298828e+00 2.346881866455078125e+00 1.138249039649963379e+00
3.488000000000000000e+03 7.589923858642578125e+01 8.373341560363769531e+00 2.364947497844696045e-01 7.575418472290039062e+00 2.343574047088623047e+00 -1.029934048652648926e+00
3.489000000000000000e+03 5.942796325683593750e+01 1.782626914978027344e+01 1.841451287269592285e+00 7.080612659454345703e+00 2.676619052886962891e+00 1.038663506507873535e+00
3.490000000000000000e+03 5.912253189086914062e+01 1.686976814270019531e+01 2.194917917251586914e+00 7.453889846801757812e+00 2.894642353057861328e+00 1.241706252098083496e+00
3.491000000000000000e+03 3.083400344848632812e+01 3.251025974750518799e-01 -7.953642010688781738e-01 5.180754184722900391e+00 1.315616965293884277e+00 -1.968099951744079590e+00
3.492000000000000000e+03 3.366120910644531250e+01 -2.815397977828979492e+00 2.086272478103637695e+00 3.872860193252563477e+00 1.787739753723144531e+00 8.213324844837188721e-02
3.493000000000000000e+03 2.111947059631347656e+01 4.556070804595947266e+00 1.390794157981872559e+00 5.224742412567138672e+00 1.984660983085632324e+00 3.184020280838012695e+00
3.494000000000000000e+03 2.994443130493164062e+01 4.828943610191345215e-01 -7.815825939178466797e-01 6.169751644134521484e+00 1.616450667381286621e+00 -2.158195734024047852e+00
3.495000000000000000e+03 1.857660293579101562e+01 2.176503181457519531e+01 1.400292992591857910e+00 2.493950843811035156e+00 1.168273091316223145e+00 9.157549589872360229e-02
3.496000000000000000e+03 6.356843566894531250e+01 2.493957519531250000e+00 -7.590458989143371582e-01 4.592312335968017578e+00 1.149979948997497559e+00 -5.729413032531738281e-01
3.497000000000000000e+03 7.446691894531250000e+01 5.483767032623291016e+00 -3.536130189895629883e-01 6.774116516113281250e+00 1.926151037216186523e+00 -7.035608887672424316e-01
3.498000000000000000e+03 1.977624511718750000e+01 4.414296150207519531e+00 5.135368108749389648e-01 6.394718647003173828e+00 2.072476625442504883e+00 2.047599077224731445e+00
3.499000000000000000e+03 4.558727264404296875e+01 4.952605724334716797e+00 2.965323626995086670e-01 3.932476520538330078e+00 1.268702626228332520e+00 -1.309932708740234375e+00
3.500000000000000000e+03 7.458583831787109375e+01 3.293852615356445312e+01 2.083980590105056763e-01 6.284549713134765625e+00 1.947884321212768555e+00 2.445819675922393799e-01
3.501000000000000000e+03 2.202901458740234375e+01 6.337583065032958984e+00 8.016564249992370605e-01 4.936017036437988281e+00 1.721302032470703125e+00 1.498681664466857910e+00
3.502000000000000000e+03 3.111422157287597656e+01 -3.478697204589843750e+01 6.235138773918151855e-01 2.847209215164184570e+00 1.041216969490051270e+00 -2.968035340309143066e-01
3.503000000000000000e+03 7.450839233398437500e+01 1.887827491760253906e+01 -8.274232745170593262e-01 7.560221195220947266e+00 2.019839286804199219e+00 3.442758917808532715e-01
3.504000000000000000e+03 3.210976409912109375e+01 -1.195099639892578125e+01 -1.636667251586914062e-01 4.332581043243408203e+00 1.250674247741699219e+00 1.232891082763671875e+00
3.505000000000000000e+03 4.038136959075927734e+00 -2.831290245056152344e+01 1.012672036886215210e-01 1.327304363250732422e+00 4.285714626312255859e-01 -3.815828263759613037e-01
3.506000000000000000e+03 2.193114662170410156e+01 3.529946327209472656e+00 3.247766733169555664e+00 3.359328031539916992e+00 1.982128381729125977e+00 3.204448223114013672e+00
3.507000000000000000e+03 2.172065162658691406e+01 5.135778427124023438e+00 1.281764864921569824e+00 4.666678428649902344e+00 1.784532904624938965e+00 2.529910087585449219e+00
3.508000000000000000e+03 2.588378667831420898e+00 6.043917655944824219e+00 8.829624205827713013e-02 -4.508782923221588135e-01 -1.087746173143386841e-01 4.284416735172271729e-01
3.509000000000000000e+03 4.293842315673828125e+00 2.158681488037109375e+01 -1.375319361686706543e-01 9.572452306747436523e-01 2.459139972925186157e-01 -6.646888703107833862e-02
3.510000000000000000e+03 1.244240665435791016e+01 -2.905667114257812500e+01 1.028891563415527344e+00 2.776464939117431641e+00 1.141606926918029785e+00 1.194356918334960938e+00
3.511000000000000000e+03 5.103832244873046875e+01 2.300578689575195312e+01 6.117855906486511230e-01 4.909170150756835938e+00 1.656286716461181641e+00 -9.723210334777832031e-01
3.512000000000000000e+03 5.219758605957031250e+01 2.228069877624511719e+01 -1.655854433774948120e-01 4.740241050720214844e+00 1.372396707534790039e+00 -1.813297867774963379e+00
3.513000000000000000e+03 2.108169364929199219e+01 5.846339702606201172e+00 2.063310444355010986e-01 5.211536884307861328e+00 1.625360369682312012e+00 1.971302390098571777e+00
3.514000000000000000e+03 2.147445487976074219e+01 5.649607658386230469e+00 6.999967098236083984e-01 5.025404453277587891e+00 1.717620372772216797e+00 2.283141374588012695e+00
3.515000000000000000e+03 2.195104408264160156e+01 5.939078330993652344e+00 8.280063867568969727e-01 4.877710342407226562e+00 1.711714982986450195e+00 1.909381985664367676e+00
3.516000000000000000e+03 4.267085647583007812e+01 1.641659927368164062e+01 1.728789448738098145e+00 6.077225208282470703e+00 2.341804504394531250e+00 2.931821048259735107e-01
3.517000000000000000e+03 2.216904830932617188e+01 7.562252044677734375e+00 2.288945764303207397e-01 5.284669876098632812e+00 1.654069304466247559e+00 4.205325543880462646e-01
3.518000000000000000e+03 9.126074790954589844e+00 5.977499008178710938e+00 4.867123067378997803e-01 1.122135400772094727e+00 4.826543331146240234e-01 -1.425686925649642944e-01
3.519000000000000000e+03 2.279129981994628906e+01 -2.024123001098632812e+01 2.088924884796142578e+00 1.072104215621948242e+00 9.483087658882141113e-01 -5.607796907424926758e-01
3.520000000000000000e+03 2.427087974548339844e+01 7.152354240417480469e+00 1.903566479682922363e+00 4.534906387329101562e+00 1.931541800498962402e+00 2.600368559360504150e-01
3.521000000000000000e+03 2.350184440612792969e+01 6.888482093811035156e+00 1.427640795707702637e+00 4.554917335510253906e+00 1.794767379760742188e+00 6.512464880943298340e-01
3.522000000000000000e+03 3.578422307968139648e+00 8.658842086791992188e+00 2.741691172122955322e-01 -2.690735757350921631e-01 1.528661465272307396e-03 2.440411001443862915e-01
3.523000000000000000e+03 9.714258193969726562e+00 -6.461408615112304688e+00 1.754269957542419434e+00 -1.256324201822280884e-01 4.885912537574768066e-01 8.846852183341979980e-01
3.524000000000000000e+03 7.106636810302734375e+01 2.517041969299316406e+01 5.500239133834838867e-01 4.669060230255126953e+00 1.565725326538085938e+00 -8.966186642646789551e-01
3.525000000000000000e+03 1.932713890075683594e+01 4.178933620452880859e+00 4.950204789638519287e-01 6.985283374786376953e+00 2.244091272354125977e+00 1.296039104461669922e+00
3.526000000000000000e+03 3.399854898452758789e+00 5.427467346191406250e+00 5.713265389204025269e-02 -2.279929369688034058e-01 -5.125808715820312500e-02 5.082537531852722168e-01
3.527000000000000000e+03 3.155340194702148438e+01 3.154528617858886719e+01 3.323168456554412842e-01 4.850676059722900391e+00 1.554897904396057129e+00 -1.585540533065795898e+00
3.528000000000000000e+03 6.898845195770263672e+00 -7.497632026672363281e+00 6.495928168296813965e-01 1.692420691251754761e-01 2.456504553556442261e-01 6.772500276565551758e-01
3.529000000000000000e+03 2.247116661071777344e+01 5.379692077636718750e+00 1.609079718589782715e+00 4.332567214965820312e+00 1.782494187355041504e+00 1.957828521728515625e+00
3.530000000000000000e+03 6.787068843841552734e+00 -6.591401576995849609e+00 6.803420186042785645e-01 -2.759894356131553650e-03 2.032746374607086182e-01 3.626664578914642334e-01
3.531000000000000000e+03 7.420124816894531250e+01 2.208603477478027344e+01 -6.831657290458679199e-01 6.681964397430419922e+00 1.799639582633972168e+00 -5.134035348892211914e-01
3.532000000000000000e+03 9.329945564270019531e+00 -5.734052658081054688e+00 1.701358795166015625e+00 -3.134294748306274414e-01 4.163787961006164551e-01 5.311143994331359863e-01
3.533000000000000000e+03 7.363419342041015625e+01 2.617215538024902344e+01 2.036813646554946899e-01 5.743224620819091797e+00 1.784071803092956543e+00 -5.563760399818420410e-01
3.534000000000000000e+03 4.358153343200683594e+00 7.299107551574707031e+00 2.830446958541870117e-01 -2.985328063368797302e-02 7.595742493867874146e-02 4.028843641281127930e-01
3.535000000000000000e+03 7.557961940765380859e+00 -6.509236335754394531e+00 9.661103487014770508e-01 -1.450794935226440430e-01 2.463092505931854248e-01 4.972228705883026123e-01
3.536000000000000000e+03 7.419972991943359375e+01 2.446848869323730469e+01 -1.154161393642425537e-01 6.232007026672363281e+00 1.834977269172668457e+00 -5.856609344482421875e-01
3.537000000000000000e+03 6.064447879791259766e+00 -6.404337882995605469e+00 4.928215444087982178e-01 -6.168129295110702515e-02 1.293420791625976562e-01 2.085181176662445068e-01
3.538000000000000000e+03 1.164188671112060547e+01 -6.408420205116271973e-01 -2.408577919006347656e+00 -4.018120169639587402e-01 -8.431169986724853516e-01 -1.104947328567504883e+00
3.539000000000000000e+03 1.114333343505859375e+01 -9.638190269470214844e-01 -1.816481590270996094e+00 -4.528530836105346680e-01 -6.808003783226013184e-01 -1.009229779243469238e+00
3.540000000000000000e+03 1.047802829742431641e+01 -1.165746927261352539e+00 -1.464186310768127441e+00 -5.175014734268188477e-01 -5.945063233375549316e-01 -9.072262644767761230e-01
3.541000000000000000e+03 1.283452892303466797e+01 -6.903956532478332520e-01 -2.070816040039062500e+00 -2.515255808830261230e-01 -6.967024803161621094e-01 -1.051943421363830566e+00
3.542000000000000000e+03 1.193027877807617188e+01 1.151840761303901672e-01 -4.299222946166992188e+00 -2.800652980804443359e-01 -1.373786568641662598e+00 -1.131204485893249512e+00
3.543000000000000000e+03 1.263249683380126953e+01 2.781985700130462646e-01 -4.897831439971923828e+00 -3.192091286182403564e-01 -1.565112113952636719e+00 -1.254107117652893066e+00
3.544000000000000000e+03 1.274783229827880859e+01 -2.048932313919067383e-01 -3.467026948928833008e+00 -3.446457386016845703e-01 -1.143501758575439453e+00 -1.191978454589843750e+00
3.545000000000000000e+03 1.211132717132568359e+01 -3.568227887153625488e-01 -3.187291860580444336e+00 -3.507389128208160400e-01 -1.061409235000610352e+00 -1.198409557342529297e+00
3.546000000000000000e+03 1.079599571228027344e+01 -4.061367511749267578e-01 -3.141634225845336914e+00 -3.695956766605377197e-01 -1.053368926048278809e+00 -9.125699400901794434e-01
3.547000000000000000e+03 1.032479381561279297e+01 -2.041071653366088867e-01 -3.502100944519042969e+00 -2.431022077798843384e-01 -1.123560905456542969e+00 -7.529804706573486328e-01
3.548000000000000000e+03 1.214581108093261719e+01 -8.372238874435424805e-01 -1.931073904037475586e+00 -3.674309551715850830e-01 -6.895514726638793945e-01 -1.084930419921875000e+00
3.549000000000000000e+03 1.128246116638183594e+01 -8.337459713220596313e-02 -3.692648410797119141e+00 -2.568460702896118164e-01 -1.184848308563232422e+00 -1.036091685295104980e+00
3.550000000000000000e+03 1.034692001342773438e+01 -6.888106465339660645e-01 -2.161714076995849609e+00 -4.252955019474029541e-01 -7.761029005050659180e-01 -8.429464697837829590e-01
3.551000000000000000e+03 8.916132926940917969e+00 -2.506131827831268311e-01 -2.113578796386718750e+00 -2.394741028547286987e-02 -6.412578821182250977e-01 -1.426554024219512939e-01
3.552000000000000000e+03 9.692123413085937500e+00 -7.493630051612854004e-01 -1.934684514999389648e+00 -3.553633391857147217e-01 -6.870143413543701172e-01 -7.516751885414123535e-01
3.553000000000000000e+03 8.918049812316894531e+00 -6.927543282508850098e-01 -1.753514885902404785e+00 -1.256208568811416626e-01 -5.637407302856445312e-01 -5.372844338417053223e-01
3.554000000000000000e+03 9.648056030273437500e+00 -2.638143002986907959e-01 -2.916797637939453125e+00 -1.532049328088760376e-01 -9.210007786750793457e-01 -4.016357958316802979e-01
3.555000000000000000e+03 8.154308319091796875e+00 -1.228553891181945801e+00 -1.090659141540527344e+00 -1.000929698348045349e-01 -3.572256267070770264e-01 -5.192196369171142578e-01
3.556000000000000000e+03 7.473508834838867188e+00 -1.232156991958618164e+00 -7.581724524497985840e-01 -1.341261267662048340e-01 -2.676895856857299805e-01 -3.941751718521118164e-01
3.557000000000000000e+03 7.074560642242431641e+00 -4.203135967254638672e-01 -1.088890314102172852e+00 -2.703490108251571655e-02 -3.347775638103485107e-01 -1.264825463294982910e-01
3.558000000000000000e+03 5.890971660614013672e+00 -7.002560496330261230e-01 -6.548025608062744141e-01 -4.772190935909748077e-03 -1.978724300861358643e-01 -1.948801726102828979e-01
3.559000000000000000e+03 5.928364753723144531e+00 -1.201545953750610352e+00 -5.627517104148864746e-01 -3.531607985496520996e-02 -1.794203370809555054e-01 -2.814798653125762939e-01
3.560000000000000000e+03 2.863341331481933594e+00 -7.422564625740051270e-01 -1.577354073524475098e-01 -2.433135174214839935e-02 -5.462003126740455627e-02 -9.840264171361923218e-02
3.561000000000000000e+03 1.058057665824890137e+00 -3.748902678489685059e-01 -6.499348673969507217e-03 -1.406087540090084076e-02 -6.168067455291748047e-03 -1.025344245135784149e-02
3.562000000000000000e+03 6.763093471527099609e-01 -1.114890217781066895e+00 -3.786656633019447327e-02 -3.159151598811149597e-02 -2.083742432296276093e-02 -2.929750829935073853e-02
3.563000000000000000e+03 3.718457221984863281e-01 -5.571892857551574707e-01 1.394869643263518810e-03 5.429248791188001633e-03 2.047235611826181412e-03 3.037969581782817841e-03
3.564000000000000000e+03 9.735111236572265625e+00 -1.245548725128173828e+00 -1.255918264389038086e+00 -4.053768217563629150e-01 -4.983885288238525391e-01 -8.386789560317993164e-01
3.565000000000000000e+03 8.917677879333496094e+00 -1.202141165733337402e+00 -1.208035588264465332e+00 -2.588534653186798096e-01 -4.400666952133178711e-01 -7.004854679107666016e-01
3.566000000000000000e+03 6.739960670471191406e+00 -1.160313606262207031e+00 -6.959410905838012695e-01 -6.636501103639602661e-02 -2.286918312311172485e-01 -3.540022373199462891e-01
3.567000000000000000e+03 5.134454727172851562e+00 -1.272265315055847168e+00 -4.158956408500671387e-01 -3.654768317937850952e-02 -1.357329934835433960e-01 -2.309388518333435059e-01
3.568000000000000000e+03 4.372000217437744141e+00 -1.252426385879516602e+00 -2.947504520416259766e-01 -2.015498653054237366e-02 -9.447163343429565430e-02 -2.093420475721359253e-01
3.569000000000000000e+03 3.570179939270019531e+00 -1.230927824974060059e+00 -2.223076224327087402e-01 -3.395822644233703613e-02 -7.687975466251373291e-02 -1.587923914194107056e-01
3.570000000000000000e+03 2.779547452926635742e+00 -1.239921450614929199e+00 -1.426187157630920410e-01 -2.546729892492294312e-02 -5.042580515146255493e-02 -1.424423158168792725e-01
3.571000000000000000e+03 2.053123474121093750e+00 -1.202446341514587402e+00 -8.629030734300613403e-02 -4.918128252029418945e-02 -4.064147546887397766e-02 -8.887433260679244995e-02
3.572000000000000000e+03 8.304567337036132812e+00 -3.333913385868072510e-01 -1.531229257583618164e+00 3.491543233394622803e-02 -4.488941431045532227e-01 -1.886176317930221558e-01
3.573000000000000000e+03 7.785604476928710938e+00 -6.954160928726196289e-01 -1.266252040863037109e+00 -4.164263978600502014e-02 -3.923684060573577881e-01 -2.722665369510650635e-01
3.574000000000000000e+03 5.777234077453613281e+00 -2.587101459503173828e-01 -6.818272471427917480e-01 -2.871178323403000832e-03 -2.054095417261123657e-01 -2.438204176723957062e-02
3.575000000000000000e+03 5.140887737274169922e+00 -4.519757926464080811e-01 -5.208272933959960938e-01 1.484512630850076675e-02 -1.517946571111679077e-01 -9.244027733802795410e-02
3.576000000000000000e+03 4.283826351165771484e+00 -5.508585572242736816e-01 -3.398423492908477783e-01 1.358608715236186981e-02 -9.787687659263610840e-02 -1.199870705604553223e-01
3.577000000000000000e+03 2.797286510467529297e+00 -2.623349428176879883e-01 -1.517733931541442871e-01 -1.720454357564449310e-02 -5.069338157773017883e-02 -1.381270587444305420e-02
3.578000000000000000e+03 2.311141014099121094e+00 -5.849785804748535156e-01 -8.359154313802719116e-02 9.952936321496963501e-03 -2.209158241748809814e-02 -5.696359649300575256e-02
3.579000000000000000e+03 1.723823428153991699e+00 -4.128980934619903564e-01 -5.319253355264663696e-02 -7.043428253382444382e-03 -1.807078905403614044e-02 -2.744376100599765778e-02
3.580000000000000000e+03 1.347968816757202148e+00 -1.152898073196411133e+00 -3.677107393741607666e-02 -2.984716929495334625e-02 -1.998547278344631195e-02 -4.655478149652481079e-02
3.581000000000000000e+03 3.496164321899414062e+00 -2.463080585002899170e-01 -2.368455380201339722e-01 -4.471504653338342905e-04 -7.118780165910720825e-02 -4.357338324189186096e-02
3.582000000000000000e+03 4.643378734588623047e+00 -8.108587265014648438e-01 -3.885358572006225586e-01 -2.778984606266021729e-02 -1.248977109789848328e-01 -1.413677185773849487e-01
3.583000000000000000e+03 4.205290317535400391e+00 -2.000058889389038086e-01 -3.589868545532226562e-01 1.231975760310888290e-02 -1.040001362562179565e-01 -2.497828938066959381e-02
3.584000000000000000e+03 4.796587944030761719e+00 -2.160976678133010864e-01 -5.138229131698608398e-01 -1.288282405585050583e-02 -1.580117195844650269e-01 -3.454907238483428955e-02
3.585000000000000000e+03 6.398046970367431641e+00 -3.186181187629699707e-01 -8.632948994636535645e-01 -2.334350533783435822e-02 -2.659915387630462646e-01 -7.370284199714660645e-02
3.586000000000000000e+03 5.211853027343750000e+00 -8.416439890861511230e-01 -4.985053241252899170e-01 -1.002679113298654556e-03 -1.498524099588394165e-01 -1.791651099920272827e-01
3.587000000000000000e+03 3.577568054199218750e+00 -7.172358632087707520e-01 -2.454757690429687500e-01 -1.859598606824874878e-02 -7.922152429819107056e-02 -1.026516780257225037e-01
3.588000000000000000e+03 1.876065063476562500e+01 1.446022272109985352e+00 4.324421691894531250e+01 6.159937858581542969e+00 1.482124614715576172e+01 1.318538570404052734e+01
3.589000000000000000e+03 1.876582527160644531e+01 1.427254319190979004e+00 3.925685501098632812e+01 1.717056083679199219e+01 1.692822456359863281e+01 2.212294960021972656e+01
3.590000000000000000e+03 1.877455711364746094e+01 1.409852981567382812e+00 3.517927932739257812e+01 2.699326896667480469e+01 1.865176582336425781e+01 2.553588867187500000e+01
3.591000000000000000e+03 1.878650856018066406e+01 1.394484400749206543e+00 2.980334472656250000e+01 3.683133316040039062e+01 1.999040222167968750e+01 2.630489349365234375e+01
3.592000000000000000e+03 1.880122184753417969e+01 1.381736636161804199e+00 2.512882041931152344e+01 4.514165115356445312e+01 2.108114242553710938e+01 2.445439338684082031e+01
3.593000000000000000e+03 1.881813812255859375e+01 1.372097492218017578e+00 2.103892707824707031e+01 5.192227172851562500e+01 2.188836097717285156e+01 2.043410491943359375e+01
3.594000000000000000e+03 1.883660507202148438e+01 1.365935921669006348e+00 1.831466293334960938e+01 5.584945297241210938e+01 2.224923515319824219e+01 1.542406654357910156e+01
3.595000000000000000e+03 1.885591888427734375e+01 1.363487720489501953e+00 1.811748313903808594e+01 5.779623413085937500e+01 2.277411651611328125e+01 9.524445533752441406e+00
3.596000000000000000e+03 1.887533950805664062e+01 1.364846467971801758e+00 1.818630790710449219e+01 5.670032882690429688e+01 2.246599197387695312e+01 4.307500839233398438e+00
3.597000000000000000e+03 1.889412498474121094e+01 1.369960188865661621e+00 2.183775711059570312e+01 5.455395889282226562e+01 2.291751480102539062e+01 5.062445625662803650e-02
3.598000000000000000e+03 1.891155433654785156e+01 1.378633260726928711e+00 2.390781402587890625e+01 4.993157958984375000e+01 2.215181732177734375e+01 -3.086318731307983398e+00
3.599000000000000000e+03 1.892696380615234375e+01 1.390533804893493652e+00 2.859121322631835938e+01 4.643711090087890625e+01 2.250849723815917969e+01 -3.889923810958862305e+00
3.600000000000000000e+03 1.893976020812988281e+01 1.405206322669982910e+00 3.151279640197753906e+01 4.120690155029296875e+01 2.181590843200683594e+01 -3.781912326812744141e+00
3.601000000000000000e+03 1.894945526123046875e+01 1.422089338302612305e+00 3.458223342895507812e+01 3.836691665649414062e+01 2.188474464416503906e+01 -1.991418600082397461e+00
3.602000000000000000e+03 1.895567703247070312e+01 1.440536737442016602e+00 3.639000320434570312e+01 3.552907180786132812e+01 2.157572364807128906e+01 7.388037443161010742e-01
3.603000000000000000e+03 1.895818901062011719e+01 1.459842562675476074e+00 3.719522857666015625e+01 3.462325286865234375e+01 2.154554557800292969e+01 3.933384656906127930e+00
3.604000000000000000e+03 1.895689392089843750e+01 1.479268074035644531e+00 3.663575363159179688e+01 3.488468933105468750e+01 2.145613098144531250e+01 7.369457244873046875e+00
3.605000000000000000e+03 1.895184135437011719e+01 1.498069882392883301e+00 3.493737030029296875e+01 3.690665435791015625e+01 2.155320739746093750e+01 1.043433094024658203e+01
3.606000000000000000e+03 1.894322586059570312e+01 1.515528440475463867e+00 3.173819351196289062e+01 3.979071807861328125e+01 2.145867347717285156e+01 1.283797645568847656e+01
3.607000000000000000e+03 1.893137741088867188e+01 1.530975580215454102e+00 2.790921020507812500e+01 4.413575744628906250e+01 2.161349105834960938e+01 1.382834243774414062e+01
3.608000000000000000e+03 1.891674613952636719e+01 1.543820142745971680e+00 2.281581115722656250e+01 4.825718688964843750e+01 2.132189941406250000e+01 1.343437194824218750e+01
3.609000000000000000e+03 1.889989662170410156e+01 1.553570628166198730e+00 1.832637596130371094e+01 5.244884872436523438e+01 2.123256683349609375e+01 1.103832817077636719e+01
3.610000000000000000e+03 1.888146972656250000e+01 1.559853792190551758e+00 1.357757949829101562e+01 5.495743560791015625e+01 2.056050491333007812e+01 7.143896579742431641e+00
3.611000000000000000e+03 1.886217117309570312e+01 1.562429428100585938e+00 1.059383201599121094e+01 5.581259918212890625e+01 1.992192840576171875e+01 1.961149454116821289e+00
3.612000000000000000e+03 1.884274101257324219e+01 1.561198592185974121e+00 8.312562942504882812e+00 5.395182800292968750e+01 1.867931747436523438e+01 -3.658130884170532227e+00
3.613000000000000000e+03 1.882392311096191406e+01 1.556208729743957520e+00 7.995475769042968750e+00 4.987510299682617188e+01 1.736117362976074219e+01 -8.949450492858886719e+00
3.614000000000000000e+03 1.880643653869628906e+01 1.547650575637817383e+00 8.130788803100585938e+00 4.348424148559570312e+01 1.548450946807861328e+01 -1.322467041015625000e+01
3.615000000000000000e+03 1.879095077514648438e+01 1.535851836204528809e+00 9.309615135192871094e+00 3.579762268066406250e+01 1.353217124938964844e+01 -1.593481922149658203e+01
3.616000000000000000e+03 1.877805709838867188e+01 1.521263837814331055e+00 1.000777530670166016e+01 2.732783889770507812e+01 1.120068454742431641e+01 -1.706629943847656250e+01
3.617000000000000000e+03 1.876825141906738281e+01 1.504445075988769531e+00 1.090473651885986328e+01 1.868866729736328125e+01 8.878021240234375000e+00 -1.631412315368652344e+01
3.618000000000000000e+03 1.876190757751464844e+01 1.486038923263549805e+00 1.080887985229492188e+01 1.072965526580810547e+01 6.461560726165771484e+00 -1.413133430480957031e+01
3.619000000000000000e+03 1.875926971435546875e+01 1.466749906539916992e+00 1.102144336700439453e+01 3.192231655120849609e+00 4.264102458953857422e+00 -6.751253128051757812e+00
