# el_label, x, y, sXX, sYY, sZZ, sXY
1.000000000000000000e+00 1.307423973083496094e+01 1.803115367889404297e+00 -6.184231042861938477e-01 1.545763667672872543e-02 -1.808896511793136597e-01 8.543671108782291412e-03
2.000000000000000000e+00 1.322374725341796875e+01 1.078295350074768066e+00 -6.898624300956726074e-01 -8.149659261107444763e-03 -2.094036191701889038e-01 -9.710276126861572266e-02
3.000000000000000000e+00 1.396254444122314453e+01 1.243136167526245117e+00 -7.991313934326171875e-01 -1.777252182364463806e-02 -2.450711727142333984e-01 -1.167433485388755798e-01
4.000000000000000000e+00 1.470126342773437500e+01 1.407449364662170410e+00 -9.235643744468688965e-01 -1.937540806829929352e-02 -2.828819453716278076e-01 -1.338483840227127075e-01
5.000000000000000000e+00 1.544029712677001953e+01 1.569983482360839844e+00 -1.112750053405761719e+00 -4.393051564693450928e-02 -3.470041751861572266e-01 -1.235077679157257080e-01
6.000000000000000000e+00 1.532874107360839844e+01 2.303210496902465820e+00 -8.495833277702331543e-01 -2.248320914804935455e-02 -2.616199553012847900e-01 3.844234719872474670e-02
7.000000000000000000e+00 1.382568740844726562e+01 1.970758438110351562e+00 -6.998931765556335449e-01 3.129822388291358948e-02 -2.005784809589385986e-01 5.351229570806026459e-03
8.000000000000000000e+00 1.457705688476562500e+01 2.137874126434326172e+00 -8.006359934806823730e-01 2.694193273782730103e-03 -2.393825352191925049e-01 1.574550382792949677e-02
9.000000000000000000e+00 1.104393005371093750e+01 6.161050796508789062e-01 -4.354537427425384521e-01 -7.394376210868358612e-03 -1.328544318675994873e-01 -4.943482577800750732e-02
1.000000000000000000e+01 1.093760776519775391e+01 1.349887132644653320e+00 -4.138823747634887695e-01 3.412337973713874817e-02 -1.139276921749114990e-01 2.231422998011112213e-02
1.100000000000000000e+01 1.032133674621582031e+01 4.645727574825286865e-01 -3.533038198947906494e-01 1.342587359249591827e-02 -1.019633859395980835e-01 -2.936643548309803009e-02
1.200000000000000000e+01 1.176770782470703125e+01 7.675349712371826172e-01 -5.137360095977783203e-01 -3.183292865287512541e-04 -1.542162895202636719e-01 -6.658359616994857788e-02
1.300000000000000000e+01 1.234649181365966797e+01 1.644436478614807129e+00 -5.442388057708740234e-01 2.802830934524536133e-02 -1.548631489276885986e-01 1.343096792697906494e-02
1.400000000000000000e+01 1.249242305755615234e+01 9.189449548721313477e-01 -5.948234796524047852e-01 -1.429283060133457184e-02 -1.827348917722702026e-01 -8.046676218509674072e-02
1.500000000000000000e+01 1.023481845855712891e+01 1.202500104904174805e+00 -3.769584596157073975e-01 2.280978858470916748e-02 -1.062446013092994690e-01 2.419004775583744049e-02
1.600000000000000000e+01 1.164158153533935547e+01 1.497171759605407715e+00 -4.715598523616790771e-01 1.380100101232528687e-02 -1.373276561498641968e-01 1.796555146574974060e-02
1.700000000000000000e+01 7.887229919433593750e+00 3.867234289646148682e-01 -2.741960585117340088e-01 -1.601817319169640541e-03 -8.273936063051223755e-02 1.820430345833301544e-02
1.800000000000000000e+01 8.716233253479003906e+00 3.873925805091857910e-01 -3.073230683803558350e-01 6.362367887049913406e-03 -9.028820693492889404e-02 1.242819894105195999e-02
1.900000000000000000e+01 7.056899547576904297e+00 3.878324329853057861e-01 -2.324462532997131348e-01 2.838180167600512505e-03 -6.888242065906524658e-02 1.969831436872482300e-02
2.000000000000000000e+01 6.178035259246826172e+00 1.128378868103027344e+00 -1.748566478490829468e-01 1.791003975085914135e-03 -5.191969126462936401e-02 5.688252300024032593e-02
2.100000000000000000e+01 4.565147399902343750e+00 3.867084681987762451e-01 -9.936559945344924927e-02 -2.168632345274090767e-03 -3.046026825904846191e-02 1.846264302730560303e-02
2.200000000000000000e+01 3.734298944473266602e+00 3.859201967716217041e-01 -6.088028475642204285e-02 -5.660257884301245213e-04 -1.843389309942722321e-02 1.565227657556533813e-02
2.300000000000000000e+01 2.903336763381958008e+00 3.870553672313690186e-01 -3.003481589257717133e-02 -3.035236382856965065e-03 -9.921015240252017975e-03 1.140458229929208755e-02
2.400000000000000000e+01 2.880990266799926758e+00 1.127055406570434570e+00 -4.414470493793487549e-02 -9.392886422574520111e-03 -1.606127806007862091e-02 3.419133275747299194e-02
2.500000000000000000e+01 2.073071718215942383e+00 3.892002105712890625e-01 -9.989384561777114868e-03 -1.709089847281575203e-03 -3.509542439132928848e-03 6.325087975710630417e-03
2.600000000000000000e+01 2.057110071182250977e+00 1.129200220108032227e+00 -2.265035361051559448e-02 -1.201166119426488876e-02 -1.039860397577285767e-02 2.044893428683280945e-02
2.700000000000000000e+01 1.234333992004394531e+00 1.129331231117248535e+00 -9.019242599606513977e-03 -8.333876729011535645e-03 -5.205935798585414886e-03 7.618429604917764664e-03
2.800000000000000000e+01 4.116423428058624268e-01 1.129539847373962402e+00 -1.915984670631587505e-03 -5.438427906483411789e-04 -7.379482267424464226e-04 1.113555859774351120e-03
2.900000000000000000e+01 4.148346781730651855e-01 3.895398080348968506e-01 3.517930454108864069e-04 4.156661161687225103e-04 2.302377397427335382e-04 -3.302835684735327959e-04
3.000000000000000000e+01 4.530031204223632812e+00 1.126708507537841797e+00 -1.038108393549919128e-01 -2.962894970551133156e-03 -3.203212097287178040e-02 5.191785097122192383e-02
3.100000000000000000e+01 5.353859424591064453e+00 1.127378344535827637e+00 -1.388921588659286499e-01 -3.868250176310539246e-03 -4.282812401652336121e-02 5.610637739300727844e-02
3.200000000000000000e+01 6.225920200347900391e+00 3.883788883686065674e-01 -1.877001672983169556e-01 -1.978656975552439690e-03 -5.690364539623260498e-02 2.075435034930706024e-02
3.300000000000000000e+01 7.002630233764648438e+00 1.127832412719726562e+00 -2.119443118572235107e-01 -6.991176633164286613e-04 -6.379302591085433960e-02 5.667081475257873535e-02
3.400000000000000000e+01 7.826575756072998047e+00 1.126723408699035645e+00 -2.477071285247802734e-01 8.472266606986522675e-03 -7.177045941352844238e-02 5.072112381458282471e-02
3.500000000000000000e+01 9.544963836669921875e+00 3.890661597251892090e-01 -3.158523440361022949e-01 6.437356118112802505e-03 -9.282449632883071899e-02 -2.416639588773250580e-03
3.600000000000000000e+01 9.471539497375488281e+00 1.129066109657287598e+00 -3.315054178237915039e-01 3.134179487824440002e-02 -9.004908800125122070e-02 2.417967841029167175e-02
3.700000000000000000e+01 3.705567836761474609e+00 1.125920176506042480e+00 -7.169039547443389893e-02 -8.334315381944179535e-03 -2.400741353631019592e-02 4.476208239793777466e-02
3.800000000000000000e+01 1.243910908699035645e+00 3.893312513828277588e-01 -1.002880278974771500e-03 -2.307557500898838043e-03 -9.931313106790184975e-04 1.547379884868860245e-03
3.900000000000000000e+01 5.395359992980957031e+00 3.873783648014068604e-01 -1.424485743045806885e-01 9.929619263857603073e-04 -4.243668541312217712e-02 1.985446177423000336e-02
4.000000000000000000e+01 8.649193763732910156e+00 1.127392530441284180e+00 -2.814171612262725830e-01 8.851835504174232483e-03 -8.176959306001663208e-02 4.118381068110466003e-02
4.100000000000000000e+01 8.970457077026367188e+00 -1.137874245643615723e+00 -3.021137556061148643e-03 -1.243616361171007156e-02 -4.637190606445074081e-03 -2.322207950055599213e-02
4.200000000000000000e+01 8.943898200988769531e+00 -3.978742659091949463e-01 5.615851841866970062e-03 3.822105005383491516e-03 2.831387100741267204e-03 -8.261233568191528320e-03
4.300000000000000000e+01 9.675095558166503906e+00 -3.934291601181030273e-01 -1.428956165909767151e-02 -9.560667909681797028e-03 -7.155068684369325638e-03 -1.289488933980464935e-02
4.400000000000000000e+01 8.210844039916992188e+00 -3.997015058994293213e-01 1.892123185098171234e-02 -6.124142091721296310e-03 3.839127020910382271e-03 -6.007726769894361496e-03
4.500000000000000000e+01 7.471634387969970703e+00 -4.002913832664489746e-01 2.732712030410766602e-02 2.908510155975818634e-03 9.070688858628273010e-03 -2.593356650322675705e-03
4.600000000000000000e+01 6.697712898254394531e+00 -3.948567509651184082e-01 3.207453340291976929e-02 -3.869878128170967102e-03 8.461396209895610809e-03 -2.559636021032929420e-03
4.700000000000000000e+01 5.996616840362548828e+00 -2.975540459156036377e-01 3.515804558992385864e-02 2.913813106715679169e-03 1.142155751585960388e-02 8.825673721730709076e-04
4.800000000000000000e+01 4.704762458801269531e+00 -2.634612619876861572e-01 3.045547567307949066e-02 4.819988680537790060e-04 9.281242266297340393e-03 2.412542933598160744e-03
4.900000000000000000e+01 1.328154802322387695e+00 -5.921700596809387207e-01 2.945687854662537575e-03 5.727839306928217411e-04 1.055541564710438251e-03 3.003830090165138245e-03
5.000000000000000000e+01 2.050547361373901367e+00 -1.302320599555969238e+00 8.281206712126731873e-03 3.096872474998235703e-03 3.413423663005232811e-03 9.282241575419902802e-03
5.100000000000000000e+01 1.100269436836242676e+00 -2.579847574234008789e-01 1.073317253030836582e-03 -1.431372482329607010e-03 -1.074165775207802653e-04 4.067971312906593084e-04
5.200000000000000000e+01 7.313934564590454102e-01 -1.136229634284973145e+00 2.250919584184885025e-03 1.479787868447601795e-03 1.119212247431278229e-03 2.255079336464405060e-03
5.300000000000000000e+01 3.948557078838348389e-01 -5.465090870857238770e-01 2.815005427692085505e-04 9.767997544258832932e-04 3.774900978896766901e-04 4.953150055371224880e-04
5.400000000000000000e+01 9.735026359558105469e+00 -1.133429169654846191e+00 -1.466463971883058548e-02 -5.744394380599260330e-03 -6.122710183262825012e-03 -3.032604604959487915e-02
5.500000000000000000e+01 8.204030990600585938e+00 -1.139701485633850098e+00 7.214867509901523590e-03 -8.506493177264928818e-04 1.909265527501702309e-03 -1.432793587446212769e-02
5.600000000000000000e+01 7.431449413299560547e+00 -1.140291333198547363e+00 1.533115096390247345e-02 -9.204329922795295715e-03 1.838046126067638397e-03 -1.042090728878974915e-02
5.700000000000000000e+01 6.624156475067138672e+00 -1.134856700897216797e+00 1.958335749804973602e-02 -9.384399891132488847e-05 5.846854299306869507e-03 -2.519788453355431557e-03
5.800000000000000000e+01 5.799453258514404297e+00 -1.182115197181701660e+00 2.085088938474655151e-02 -6.830494385212659836e-03 4.206118639558553696e-03 3.859612916130572557e-04
5.900000000000000000e+01 5.011734962463378906e+00 -1.248350262641906738e+00 1.977684348821640015e-02 -4.348864604253321886e-04 5.802587140351533890e-03 6.565969437360763550e-03
6.000000000000000000e+01 4.251304149627685547e+00 -1.270629644393920898e+00 1.543508935719728470e-02 -4.196477122604846954e-03 3.371583763509988785e-03 5.842667073011398315e-03
6.100000000000000000e+01 3.500344753265380859e+00 -1.290351510047912598e+00 1.543343625962734222e-02 1.179170329123735428e-03 4.983781836926937103e-03 1.085771713405847549e-02
6.200000000000000000e+01 2.764770030975341797e+00 -1.311714053153991699e+00 8.328882046043872833e-03 -3.942675830330699682e-04 2.380384132266044617e-03 8.201869204640388489e-03
6.300000000000000000e+01 2.804219961166381836e+00 -9.161376357078552246e-01 1.251664757728576660e-02 1.252549584023654461e-03 4.130759276449680328e-03 7.438475731760263443e-03
6.400000000000000000e+01 1.783497571945190430e+00 -7.618596553802490234e-01 6.166003178805112839e-03 1.648794277571141720e-03 2.344439271837472916e-03 5.186127033084630966e-03
6.500000000000000000e+01 2.272170543670654297e+00 -9.032281041145324707e-01 6.442499347031116486e-03 8.214589906856417656e-04 2.179187489673495293e-03 6.557183340191841125e-03
6.600000000000000000e+01 4.855762481689453125e+00 -7.518115043640136719e-01 2.291526086628437042e-02 -2.884057117626070976e-03 6.009360775351524353e-03 2.908420050516724586e-03
6.700000000000000000e+01 3.442619800567626953e+00 -8.362870812416076660e-01 1.535401772707700729e-02 -1.076006330549716949e-03 4.283403512090444565e-03 6.434830836951732635e-03
6.800000000000000000e+01 2.681409835815429688e+00 -5.107127428054809570e-01 1.270219869911670685e-02 8.489433676004409790e-04 4.065342713147401810e-03 3.672458464279770851e-03
6.900000000000000000e+01 2.254583597183227539e+00 -2.807539403438568115e-01 9.308619424700737000e-03 6.463978934334591031e-05 2.811977639794349670e-03 1.909621874801814556e-03
7.000000000000000000e+01 1.365055561065673828e+00 -1.241105675697326660e+00 1.550975255668163300e-03 3.607610473409295082e-03 1.547575695440173149e-03 5.176265724003314972e-03
7.100000000000000000e+01 1.685097575187683105e+00 -2.159404754638671875e-01 4.463375546038150787e-03 1.377106644213199615e-03 1.752144657075405121e-03 8.882725378498435020e-04
7.200000000000000000e+01 3.307399272918701172e+00 -3.059355318546295166e-01 1.754570752382278442e-02 -3.604177036322653294e-04 5.155587103217840195e-03 2.998591866344213486e-03
7.300000000000000000e+01 4.001618385314941406e+00 -2.834403216838836670e-01 2.410831674933433533e-02 -2.038276870734989643e-04 7.171346805989742279e-03 2.051777206361293793e-03
7.400000000000000000e+01 5.375914096832275391e+00 -2.288835346698760986e-01 3.384728729724884033e-02 -2.661186736077070236e-03 9.355830028653144836e-03 -3.785378357861191034e-04
7.500000000000000000e+01 4.139993190765380859e+00 -7.940700054168701172e-01 2.064694277942180634e-02 5.348113481886684895e-04 6.354526150971651077e-03 6.776671390980482101e-03
7.600000000000000000e+01 5.566827297210693359e+00 -6.509987115859985352e-01 2.746541239321231842e-02 -1.335308479610830545e-04 8.199564181268215179e-03 2.971715293824672699e-03
7.700000000000000000e+01 1.115754413604736328e+01 -1.603091955184936523e-01 -5.892768502235412598e-02 -1.407384965568780899e-02 -2.190046012401580811e-02 -2.304419130086898804e-02
7.800000000000000000e+01 1.126386642456054688e+01 -8.940912485122680664e-01 -4.300389811396598816e-02 -9.672710672020912170e-03 -1.580298319458961487e-02 -3.971500694751739502e-02
7.900000000000000000e+01 1.049932956695556641e+01 -1.051980972290039062e+00 -2.681138552725315094e-02 -1.963202282786369324e-02 -1.393302250653505325e-02 -3.548316657543182373e-02
8.000000000000000000e+01 1.279222297668457031e+01 -5.713624954223632812e-01 -7.416257262229919434e-02 -1.040728483349084854e-02 -2.537095732986927032e-02 -4.735865443944931030e-02
8.100000000000000000e+01 1.264629268646240234e+01 1.541289687156677246e-01 -1.039923727512359619e-01 -1.694976352155208588e-02 -3.628263995051383972e-02 -3.253377974033355713e-02
8.200000000000000000e+01 1.190196800231933594e+01 -3.807745641097426414e-03 -8.089082688093185425e-02 -1.815909636206924915e-03 -2.481202036142349243e-02 -2.977416105568408966e-02
8.300000000000000000e+01 1.202809429168701172e+01 -7.334445118904113770e-01 -5.861592292785644531e-02 -2.204037830233573914e-02 -2.419689111411571503e-02 -4.270414635539054871e-02
8.400000000000000000e+01 1.041281127929687500e+01 -3.140535950660705566e-01 -3.734552860260009766e-02 -3.933815751224756241e-04 -1.132167316973209381e-02 -1.940654031932353973e-02
8.500000000000000000e+01 3.017667007446289062e+01 -1.514159560203552246e+00 -1.612785148620605469e+01 -1.339996695518493652e+00 -5.240354537963867188e+00 7.719186544418334961e-01
8.600000000000000000e+01 2.998001861572265625e+01 -1.483437776565551758e+00 -7.176126480102539062e+00 6.347976326942443848e-01 -1.962398648262023926e+00 1.439238071441650391e+00
8.700000000000000000e+01 2.978336524963378906e+01 -1.452715992927551270e+00 -5.316355228424072266e+00 -6.649354696273803711e-01 -1.794387221336364746e+00 4.916998744010925293e-01
8.800000000000000000e+01 2.958671188354492188e+01 -1.421994209289550781e+00 -3.702238321304321289e+00 5.709057450294494629e-01 -9.393997788429260254e-01 4.877269268035888672e-01
8.900000000000000000e+01 3.017334747314453125e+01 -1.572563052177429199e+00 -6.078915596008300781e+00 -4.396390616893768311e-01 -1.955566406250000000e+00 -1.359560251235961914e+00
9.000000000000000000e+01 2.997447967529296875e+01 -1.580776929855346680e+00 -5.402429580688476562e+00 -4.756388068199157715e-01 -1.763420581817626953e+00 -6.878995895385742188e-01
9.100000000000000000e+01 2.977560997009277344e+01 -1.588990807533264160e+00 -2.894388675689697266e+00 7.335467934608459473e-01 -6.482525467872619629e-01 -2.504414319992065430e-01
9.200000000000000000e+01 2.957674217224121094e+01 -1.597204804420471191e+00 -2.334505081176757812e+00 -2.464330345392227173e-01 -7.742814421653747559e-01 -6.400436162948608398e-01
9.300000000000000000e+01 3.018147659301757812e+01 -1.630493521690368652e+00 -4.910029768943786621e-01 -6.749182343482971191e-01 -3.497763574123382568e-01 1.484107505530118942e-02
9.400000000000000000e+01 2.998802566528320312e+01 -1.677327752113342285e+00 -8.009563088417053223e-01 -9.646953642368316650e-02 -2.692277431488037109e-01 -6.217769980430603027e-01
9.500000000000000000e+01 2.979457664489746094e+01 -1.724161982536315918e+00 -1.003758430480957031e+00 3.691057860851287842e-02 -2.900543510913848877e-01 -7.217386960983276367e-01
9.600000000000000000e+01 2.960112762451171875e+01 -1.770996212959289551e+00 -2.893278896808624268e-01 5.398727059364318848e-01 7.516344636678695679e-02 -5.930022597312927246e-01
9.700000000000000000e+01 3.020074462890625000e+01 -1.685727000236511230e+00 3.736941576004028320e+00 1.117861747741699219e+00 1.456441044807434082e+00 2.196889162063598633e+00
9.800000000000000000e+01 3.002013969421386719e+01 -1.769383549690246582e+00 1.821358919143676758e+00 2.839305698871612549e-01 6.315868496894836426e-01 8.273841142654418945e-01
9.900000000000000000e+01 2.983953666687011719e+01 -1.853040099143981934e+00 1.521812915802001953e+00 7.780532836914062500e-01 6.899598240852355957e-01 1.577250361442565918e-01
1.000000000000000000e+02 2.965893363952636719e+01 -1.936696767807006836e+00 1.228890657424926758e+00 4.547501504421234131e-01 5.050922632217407227e-01 -2.640144228935241699e-01
1.010000000000000000e+02 3.023041343688964844e+01 -1.736142992973327637e+00 5.534769535064697266e+00 3.418010234832763672e+00 2.685833930969238281e+00 4.885582447052001953e+00
1.020000000000000000e+02 3.006958770751953125e+01 -1.853410243988037109e+00 3.566037178039550781e+00 2.503440618515014648e+00 1.820843338966369629e+00 2.660287857055664062e+00
1.030000000000000000e+02 2.990876388549804688e+01 -1.970677495002746582e+00 2.810218334197998047e+00 1.695519328117370605e+00 1.351721286773681641e+00 1.438112735748291016e+00
1.040000000000000000e+02 2.974794006347656250e+01 -2.087944746017456055e+00 2.215902566909790039e+00 1.805212378501892090e+00 1.206334471702575684e+00 9.334828853607177734e-01
1.050000000000000000e+02 3.026934242248535156e+01 -1.779806137084960938e+00 5.734316349029541016e+00 7.681635379791259766e+00 4.024785518646240234e+00 7.086081504821777344e+00
1.060000000000000000e+02 3.013447189331054688e+01 -1.926181912422180176e+00 3.975124359130859375e+00 4.989868164062500000e+00 2.689497709274291992e+00 4.272059440612792969e+00
1.070000000000000000e+02 2.999960136413574219e+01 -2.072557926177978516e+00 3.092004060745239258e+00 4.274858951568603516e+00 2.210058927536010742e+00 2.826581478118896484e+00
1.080000000000000000e+02 2.986473083496093750e+01 -2.218933820724487305e+00 2.715344905853271484e+00 3.213663816452026367e+00 1.778702616691589355e+00 1.989635229110717773e+00
1.090000000000000000e+02 3.031604003906250000e+01 -1.815039873123168945e+00 4.576339244842529297e+00 1.230587482452392578e+01 5.064664363861083984e+00 8.323607444763183594e+00
1.100000000000000000e+02 3.021229934692382812e+01 -1.984904885292053223e+00 3.441169738769531250e+00 8.768954277038574219e+00 3.663037300109863281e+00 5.088828086853027344e+00
1.110000000000000000e+02 3.010856056213378906e+01 -2.154770135879516602e+00 2.806488990783691406e+00 6.775361061096191406e+00 2.874555110931396484e+00 3.879162311553955078e+00
1.120000000000000000e+02 3.000482177734375000e+01 -2.324635267257690430e+00 2.061912298202514648e+00 6.236225605010986328e+00 2.489441394805908203e+00 2.674261331558227539e+00
1.130000000000000000e+02 3.036870956420898438e+01 -1.840491771697998047e+00 2.878816843032836914e+00 1.754366683959960938e+01 6.126745223999023438e+00 7.835020065307617188e+00
1.140000000000000000e+02 3.030008506774902344e+01 -2.027324676513671875e+00 2.459646701812744141e+00 1.238779830932617188e+01 4.454233646392822266e+00 5.282479286193847656e+00
1.150000000000000000e+02 3.023146057128906250e+01 -2.214157819747924805e+00 1.925328850746154785e+00 1.013692665100097656e+01 3.618676424026489258e+00 3.787571668624877930e+00
1.160000000000000000e+02 3.016283416748046875e+01 -2.400990962982177734e+00 1.399273753166198730e+00 8.695873260498046875e+00 3.028543949127197266e+00 3.281930923461914062e+00
1.170000000000000000e+02 3.042533302307128906e+01 -1.855184555053710938e+00 1.510253310203552246e+00 2.214838981628417969e+01 7.097593307495117188e+00 6.001193523406982422e+00
1.180000000000000000e+02 3.039445686340332031e+01 -2.051812887191772461e+00 1.383287549018859863e+00 1.583918666839599609e+01 5.166742324829101562e+00 4.245384216308593750e+00
1.190000000000000000e+02 3.036357879638671875e+01 -2.248440980911254883e+00 1.076510906219482422e+00 1.328612518310546875e+01 4.308790683746337891e+00 3.308656215667724609e+00
1.200000000000000000e+02 3.033270263671875000e+01 -2.445069551467895508e+00 6.586205363273620605e-01 1.144019603729248047e+01 3.629644870758056641e+00 2.453064441680908203e+00
1.210000000000000000e+02 3.048373413085937500e+01 -1.858554363250732422e+00 6.410528421401977539e-01 2.539947509765625000e+01 7.812158584594726562e+00 3.026412248611450195e+00
1.220000000000000000e+02 3.049179077148437500e+01 -2.057429075241088867e+00 1.102296113967895508e+00 1.882400894165039062e+01 5.977891445159912109e+00 2.469278573989868164e+00
1.230000000000000000e+02 3.049984741210937500e+01 -2.256303787231445312e+00 3.104743361473083496e-01 1.554051303863525391e+01 4.755296230316162109e+00 1.899974822998046875e+00
1.240000000000000000e+02 3.050790405273437500e+01 -2.455178737640380859e+00 3.428773581981658936e-01 1.420396900177001953e+01 4.364054203033447266e+00 1.577208995819091797e+00
1.250000000000000000e+02 3.054167175292968750e+01 -1.850471615791320801e+00 1.618306636810302734e+00 2.735498046875000000e+01 8.691986083984375000e+00 -3.070392310619354248e-01
1.260000000000000000e+02 3.058835220336914062e+01 -2.043957948684692383e+00 9.383809566497802734e-01 2.060206794738769531e+01 6.462134361267089844e+00 8.746159821748733521e-02
1.270000000000000000e+02 3.063503265380859375e+01 -2.237444162368774414e+00 7.636159658432006836e-01 1.742177581787109375e+01 5.455617904663085938e+00 2.745119109749794006e-02
1.280000000000000000e+02 3.068171501159667969e+01 -2.430930614471435547e+00 2.289263457059860229e-01 1.477332878112792969e+01 4.500676631927490234e+00 3.568161278963088989e-02
1.290000000000000000e+02 3.059692001342773438e+01 -1.831246733665466309e+00 3.332074880599975586e+00 2.755801010131835938e+01 9.267025947570800781e+00 -3.498754978179931641e+00
1.300000000000000000e+02 3.068043327331542969e+01 -2.011916399002075195e+00 2.081003189086914062e+00 2.157134819030761719e+01 7.095705509185791016e+00 -2.309982061386108398e+00
1.310000000000000000e+02 3.076394653320312500e+01 -2.192586183547973633e+00 1.480134725570678711e+00 1.803176307678222656e+01 5.853569507598876953e+00 -2.074076175689697266e+00
1.320000000000000000e+02 3.084746170043945312e+01 -2.373255968093872070e+00 1.140635967254638672e+00 1.550355148315429688e+01 4.993256092071533203e+00 -2.277531623840332031e+00
1.330000000000000000e+02 3.064735984802246094e+01 -1.801617860794067383e+00 6.162198066711425781e+00 2.672734832763671875e+01 9.866864204406738281e+00 -5.931314945220947266e+00
1.340000000000000000e+02 3.076449966430664062e+01 -1.962535023689270020e+00 3.815170288085937500e+00 2.135170936584472656e+01 7.550063610076904297e+00 -4.316651344299316406e+00
1.350000000000000000e+02 3.088163948059082031e+01 -2.123452186584472656e+00 2.919535398483276367e+00 1.799531364440917969e+01 6.274454593658447266e+00 -4.083157062530517578e+00
1.360000000000000000e+02 3.099877929687500000e+01 -2.284369230270385742e+00 2.271154165267944336e+00 1.619783401489257812e+01 5.540696620941162109e+00 -3.999777317047119141e+00
1.370000000000000000e+02 3.069105339050292969e+01 -1.762722253799438477e+00 8.993412017822265625e+00 2.529144477844238281e+01 1.028545665740966797e+01 -7.267101764678955078e+00
1.380000000000000000e+02 3.083732223510742188e+01 -1.897709012031555176e+00 6.433705806732177734e+00 2.034724617004394531e+01 8.034285545349121094e+00 -5.846276760101318359e+00
1.390000000000000000e+02 3.098359107971191406e+01 -2.032695770263671875e+00 4.627230644226074219e+00 1.740497016906738281e+01 6.609660625457763672e+00 -5.252373218536376953e+00
1.400000000000000000e+02 3.112986183166503906e+01 -2.167682409286499023e+00 3.779155492782592773e+00 1.561260795593261719e+01 5.817529201507568359e+00 -4.889873027801513672e+00
1.410000000000000000e+02 3.072632408142089844e+01 -1.716053247451782227e+00 1.241159820556640625e+01 2.375582313537597656e+01 1.085022640228271484e+01 -7.400453090667724609e+00
1.420000000000000000e+02 3.089610671997070312e+01 -1.819927334785461426e+00 8.521640777587890625e+00 1.894173812866210938e+01 8.239013671875000000e+00 -6.668807983398437500e+00
1.430000000000000000e+02 3.106589126586914062e+01 -1.923801422119140625e+00 7.328787803649902344e+00 1.628264045715332031e+01 7.083428859710693359e+00 -5.634066104888916016e+00
1.440000000000000000e+02 3.123567390441894531e+01 -2.027675628662109375e+00 5.427619457244873047e+00 1.416276359558105469e+01 5.877114772796630859e+00 -5.069443702697753906e+00
1.450000000000000000e+02 3.075181770324707031e+01 -1.663402557373046875e+00 1.457595634460449219e+01 2.209609603881835938e+01 1.100161552429199219e+01 -7.086330413818359375e+00
1.460000000000000000e+02 3.093859672546386719e+01 -1.732176184654235840e+00 1.118301582336425781e+01 1.787702178955078125e+01 8.718011856079101562e+00 -6.193799972534179688e+00
1.470000000000000000e+02 3.112537574768066406e+01 -1.800949811935424805e+00 8.978918075561523438e+00 1.470699787139892578e+01 7.105774879455566406e+00 -5.738647937774658203e+00
1.480000000000000000e+02 3.131215476989746094e+01 -1.869723439216613770e+00 8.445334434509277344e+00 1.312929821014404297e+01 6.472389698028564453e+00 -4.862950325012207031e+00
1.490000000000000000e+02 3.076655578613281250e+01 -1.606791496276855469e+00 1.662468910217285156e+01 2.144531822204589844e+01 1.142100238800048828e+01 -5.803139209747314453e+00
1.500000000000000000e+02 3.096315956115722656e+01 -1.637824296951293945e+00 1.275731849670410156e+01 1.663214302062988281e+01 8.816838264465332031e+00 -5.443092346191406250e+00
1.510000000000000000e+02 3.115976333618164062e+01 -1.668857216835021973e+00 1.078551769256591797e+01 1.393359375000000000e+01 7.415733337402343750e+00 -4.775356769561767578e+00
1.520000000000000000e+02 3.135636711120605469e+01 -1.699890136718750000e+00 9.258809089660644531e+00 1.214763069152832031e+01 6.421931743621826172e+00 -4.629964828491210938e+00
1.530000000000000000e+02 3.076997184753417969e+01 -1.548393249511718750e+00 1.757868003845214844e+01 2.103493499755859375e+01 1.158408451080322266e+01 -4.611819267272949219e+00
1.540000000000000000e+02 3.096885299682617188e+01 -1.540493965148925781e+00 1.394498157501220703e+01 1.621474838256835938e+01 9.047918319702148438e+00 -3.825157403945922852e+00
1.550000000000000000e+02 3.116773414611816406e+01 -1.532594680786132812e+00 1.143510913848876953e+01 1.362301349639892578e+01 7.517436981201171875e+00 -3.820746183395385742e+00
1.560000000000000000e+02 3.136661529541015625e+01 -1.524695396423339844e+00 9.623794555664062500e+00 1.143325805664062500e+01 6.317115783691406250e+00 -3.041094303131103516e+00
1.570000000000000000e+02 3.076193428039550781e+01 -1.490449905395507812e+00 1.784969520568847656e+01 2.142845916748046875e+01 1.178344631195068359e+01 -2.964220762252807617e+00
1.580000000000000000e+02 3.095545768737792969e+01 -1.443921804428100586e+00 1.416603565216064453e+01 1.631330680847167969e+01 9.143802642822265625e+00 -2.596053600311279297e+00
1.590000000000000000e+02 3.114898109436035156e+01 -1.397393584251403809e+00 1.135860824584960938e+01 1.397980022430419922e+01 7.601522445678710938e+00 -1.997925996780395508e+00
1.600000000000000000e+02 3.134250450134277344e+01 -1.350865483283996582e+00 9.870937347412109375e+00 1.152924251556396484e+01 6.420053958892822266e+00 -2.244554758071899414e+00
1.610000000000000000e+02 3.074275398254394531e+01 -1.435186028480529785e+00 1.752817535400390625e+01 2.201668167114257812e+01 1.186345767974853516e+01 -1.858053326606750488e+00
1.620000000000000000e+02 3.092348861694335938e+01 -1.351815223693847656e+00 1.331430912017822266e+01 1.747315979003906250e+01 9.236240386962890625e+00 -1.179438948631286621e+00
1.630000000000000000e+02 3.110422515869140625e+01 -1.268444418907165527e+00 1.103848266601562500e+01 1.433441829681396484e+01 7.611870765686035156e+00 -9.719963669776916504e-01
1.640000000000000000e+02 3.128496170043945312e+01 -1.185073733329772949e+00 8.972969055175781250e+00 1.305638790130615234e+01 6.608807086944580078e+00 -9.023488759994506836e-01
1.650000000000000000e+02 3.071316528320312500e+01 -1.384723067283630371e+00 1.632998275756835938e+01 2.355692481994628906e+01 1.196607208251953125e+01 -9.847884774208068848e-01
1.660000000000000000e+02 3.087417411804199219e+01 -1.267710328102111816e+00 1.211529922485351562e+01 1.857670593261718750e+01 9.207601547241210938e+00 -4.319232404232025146e-01
1.670000000000000000e+02 3.103518295288085938e+01 -1.150697708129882812e+00 9.599208831787109375e+00 1.583621501922607422e+01 7.630627155303955078e+00 -4.911560118198394775e-01
1.680000000000000000e+02 3.119619369506835938e+01 -1.033684968948364258e+00 8.387561798095703125e+00 1.362324237823486328e+01 6.603241443634033203e+00 -1.661999970674514771e-01
1.690000000000000000e+02 3.067430305480957031e+01 -1.340998530387878418e+00 1.472436714172363281e+01 2.505690383911132812e+01 1.193438148498535156e+01 -7.530407905578613281e-01
1.700000000000000000e+02 3.080940628051757812e+01 -1.194836139678955078e+00 1.032068157196044922e+01 2.023619842529296875e+01 9.167063713073730469e+00 -5.508293509483337402e-01
1.710000000000000000e+02 3.094450759887695312e+01 -1.048673629760742188e+00 8.086270332336425781e+00 1.711874961853027344e+01 7.561506271362304688e+00 -4.994023740291595459e-01
1.720000000000000000e+02 3.107961082458496094e+01 -9.025112390518188477e-01 6.695281982421875000e+00 1.481605243682861328e+01 6.453400135040283203e+00 -8.782684206962585449e-01
1.730000000000000000e+02 3.062766265869140625e+01 -1.305690884590148926e+00 1.280084609985351562e+01 2.700838851928710938e+01 1.194277000427246094e+01 -1.474515199661254883e+00
1.740000000000000000e+02 3.073167037963867188e+01 -1.135990023612976074e+00 8.501141548156738281e+00 2.140950775146484375e+01 8.973195075988769531e+00 -1.442394256591796875e+00
1.750000000000000000e+02 3.083567810058593750e+01 -9.662892222404479980e-01 6.492911815643310547e+00 1.824079132080078125e+01 7.420110702514648438e+00 -1.538946151733398438e+00
1.760000000000000000e+02 3.093968582153320312e+01 -7.965884208679199219e-01 5.004944801330566406e+00 1.620402526855468750e+01 6.362691402435302734e+00 -1.543692708015441895e+00
1.770000000000000000e+02 3.057503128051757812e+01 -1.280155777931213379e+00 1.062380504608154297e+01 2.806688117980957031e+01 1.160720539093017578e+01 -2.941242456436157227e+00
1.780000000000000000e+02 3.064395332336425781e+01 -1.093431472778320312e+00 7.358052730560302734e+00 2.243475723266601562e+01 8.937842369079589844e+00 -3.373502016067504883e+00
1.790000000000000000e+02 3.071287345886230469e+01 -9.067071676254272461e-01 4.905067920684814453e+00 1.858537101745605469e+01 7.047131538391113281e+00 -2.985958337783813477e+00
1.800000000000000000e+02 3.078179550170898438e+01 -7.199829220771789551e-01 4.041663169860839844e+00 1.642544174194335938e+01 6.140131473541259766e+00 -3.130060672760009766e+00
1.810000000000000000e+02 3.051843261718750000e+01 -1.265373349189758301e+00 9.994057655334472656e+00 2.891852569580078125e+01 1.167377471923828125e+01 -5.713982582092285156e+00
1.820000000000000000e+02 3.054961967468261719e+01 -1.068794131278991699e+00 5.903864383697509766e+00 2.195568084716796875e+01 8.357863426208496094e+00 -5.437860012054443359e+00
1.830000000000000000e+02 3.058080863952636719e+01 -8.722149133682250977e-01 4.979031085968017578e+00 1.852232551574707031e+01 7.050406932830810547e+00 -5.188579082489013672e+00
1.840000000000000000e+02 3.061199760437011719e+01 -6.756356954574584961e-01 2.391221761703491211e+00 1.577584457397460938e+01 5.450119972229003906e+00 -4.944619178771972656e+00
1.850000000000000000e+02 3.046003532409667969e+01 -1.261911273002624512e+00 8.814348220825195312e+00 2.770474052429199219e+01 1.095572662353515625e+01 -8.793455123901367188e+00
1.860000000000000000e+02 3.045229530334472656e+01 -1.063023924827575684e+00 6.949707508087158203e+00 2.080597877502441406e+01 8.326705932617187500e+00 -7.869739055633544922e+00
1.870000000000000000e+02 3.044455337524414062e+01 -8.641366958618164062e-01 4.184948921203613281e+00 1.699802017211914062e+01 6.354890823364257812e+00 -7.126906394958496094e+00
1.880000000000000000e+02 3.043680953979492188e+01 -6.652494072914123535e-01 3.319478034973144531e+00 1.535756301879882812e+01 5.603112220764160156e+00 -6.511002540588378906e+00
1.890000000000000000e+02 3.040208625793457031e+01 -1.269902348518371582e+00 1.055102539062500000e+01 2.538474273681640625e+01 1.078073024749755859e+01 -1.185745143890380859e+01
1.900000000000000000e+02 3.035571098327636719e+01 -1.076342463493347168e+00 7.299274921417236328e+00 1.790694236755371094e+01 7.561865329742431641e+00 -9.862479209899902344e+00
1.910000000000000000e+02 3.030933570861816406e+01 -8.827825784683227539e-01 5.727898120880126953e+00 1.505880355834960938e+01 6.236010551452636719e+00 -8.555843353271484375e+00
1.920000000000000000e+02 3.026296043395996094e+01 -6.892226934432983398e-01 3.726545572280883789e+00 1.303555488586425781e+01 5.028630256652832031e+00 -7.544608592987060547e+00
1.930000000000000000e+02 3.034680747985839844e+01 -1.289039850234985352e+00 1.231799030303955078e+01 2.079207038879394531e+01 9.933018684387207031e+00 -1.421333408355712891e+01
1.940000000000000000e+02 3.026358032226562500e+01 -1.108238220214843750e+00 9.481056213378906250e+00 1.448260974884033203e+01 7.189099788665771484e+00 -1.088529300689697266e+01
1.950000000000000000e+02 3.018035316467285156e+01 -9.274367094039916992e-01 6.758935451507568359e+00 1.185870647430419922e+01 5.585292339324951172e+00 -9.102502822875976562e+00
1.960000000000000000e+02 3.009712409973144531e+01 -7.466351389884948730e-01 5.412188053131103516e+00 1.047798347473144531e+01 4.767051219940185547e+00 -8.196666717529296875e+00
1.970000000000000000e+02 3.029632186889648438e+01 -1.318588972091674805e+00 1.560668659210205078e+01 1.511429691314697266e+01 9.216295242309570312e+00 -1.497487258911132812e+01
1.980000000000000000e+02 3.017943763732910156e+01 -1.157486915588378906e+00 1.108656978607177734e+01 1.025167846679687500e+01 6.401474475860595703e+00 -1.054725837707519531e+01
1.990000000000000000e+02 3.006255149841308594e+01 -9.963847994804382324e-01 8.566184997558593750e+00 8.553049087524414062e+00 5.135770320892333984e+00 -8.820298194885253906e+00
2.000000000000000000e+02 2.994566535949707031e+01 -8.352827429771423340e-01 6.360907554626464844e+00 7.714089393615722656e+00 4.222498893737792969e+00 -7.666100025177001953e+00
2.010000000000000000e+02 3.025256729125976562e+01 -1.357415556907653809e+00 1.812739181518554688e+01 8.892519950866699219e+00 8.105973243713378906e+00 -1.355785751342773438e+01
2.020000000000000000e+02 3.010651016235351562e+01 -1.222197651863098145e+00 1.279510688781738281e+01 6.133207321166992188e+00 5.678494453430175781e+00 -9.013945579528808594e+00
2.030000000000000000e+02 2.996045494079589844e+01 -1.086979985237121582e+00 9.291489601135253906e+00 5.626657485961914062e+00 4.475444316864013672e+00 -7.299015045166015625e+00
2.040000000000000000e+02 2.981439971923828125e+01 -9.517621397972106934e-01 7.510164737701416016e+00 4.900239944458007812e+00 3.723121643066406250e+00 -6.616833686828613281e+00
2.050000000000000000e+02 3.021722221374511719e+01 -1.404028654098510742e+00 1.980395698547363281e+01 2.600277662277221680e+00 6.721270561218261719e+00 -9.852607727050781250e+00
2.060000000000000000e+02 3.004760360717773438e+01 -1.299886345863342285e+00 1.239582252502441406e+01 3.603849649429321289e+00 4.799901962280273438e+00 -6.250007152557373047e+00
2.070000000000000000e+02 2.987798309326171875e+01 -1.195744037628173828e+00 9.942051887512207031e+00 3.208590030670166016e+00 3.945192575454711914e+00 -5.785423755645751953e+00
2.080000000000000000e+02 2.970836639404296875e+01 -1.091601729393005371e+00 7.771911621093750000e+00 2.465147733688354492e+00 3.071117877960205078e+00 -4.747458457946777344e+00
2.090000000000000000e+02 3.019164466857910156e+01 -1.456639051437377930e+00 1.589275741577148438e+01 -2.231100797653198242e-01 4.700894355773925781e+00 -4.465306758880615234e+00
2.100000000000000000e+02 3.000497436523437500e+01 -1.387570261955261230e+00 1.237064170837402344e+01 2.307100772857666016e+00 4.403322696685791016e+00 -4.681371688842773438e+00
2.110000000000000000e+02 2.981830596923828125e+01 -1.318501472473144531e+00 9.315823554992675781e+00 9.660534858703613281e-01 3.084563016891479492e+00 -3.334040164947509766e+00
2.120000000000000000e+02 2.963163566589355469e+01 -1.249432802200317383e+00 7.366975307464599609e+00 1.063030600547790527e+00 2.529001712799072266e+00 -2.859951257705688477e+00
2.130000000000000000e+02 1.699329376220703125e+01 1.733680725097656250e+00 -1.338021039962768555e+00 -2.364358864724636078e-02 -4.084993898868560791e-01 -1.273999921977519989e-02
2.140000000000000000e+02 1.695392799377441406e+01 2.472698688507080078e+00 -1.038293957710266113e+00 -7.005086541175842285e-02 -3.325034379959106445e-01 8.717177808284759521e-02
2.150000000000000000e+02 1.875735855102539062e+01 1.661689996719360352e+00 -2.343447208404541016e+00 -1.545290946960449219e-01 -7.493929266929626465e-01 2.624593675136566162e-01
2.160000000000000000e+02 1.619928550720214844e+01 1.679693222045898438e+00 -1.251618862152099609e+00 -4.055730625987052917e-02 -3.876528739929199219e-01 -7.005031406879425049e-02
2.170000000000000000e+02 1.850215530395507812e+01 2.159750938415527344e+00 -1.461616277694702148e+00 -1.983227431774139404e-01 -4.979816973209381104e-01 2.734803855419158936e-01
2.180000000000000000e+02 1.855502510070800781e+01 2.348356962203979492e+00 -1.254467368125915527e+00 -3.020931482315063477e-01 -4.669681787490844727e-01 3.645309507846832275e-01
2.190000000000000000e+02 1.880655288696289062e+01 1.789058804512023926e+00 -2.102557182312011719e+00 -2.654205560684204102e-01 -7.103933095932006836e-01 3.589527308940887451e-01
2.200000000000000000e+02 1.880963325500488281e+01 2.664381980895996094e+00 -1.110728502273559570e+00 -3.520944714546203613e-01 -4.388468861579895020e-01 3.864564001560211182e-01
2.210000000000000000e+02 1.830487442016601562e+01 2.633037090301513672e+00 -1.083952784538269043e+00 -2.585237324237823486e-01 -4.027429521083831787e-01 3.419072926044464111e-01
2.220000000000000000e+02 1.867906951904296875e+01 2.845469236373901367e+00 -1.007356524467468262e+00 -3.232922554016113281e-01 -3.991946280002593994e-01 3.713239133358001709e-01
2.230000000000000000e+02 1.611600875854492188e+01 2.415784835815429688e+00 -9.213474988937377930e-01 -6.808938831090927124e-02 -2.968310713768005371e-01 4.353573918342590332e-02
2.240000000000000000e+02 1.882996940612792969e+01 2.501240730285644531e+00 -1.216975092887878418e+00 -3.427025973796844482e-01 -4.679033160209655762e-01 3.979766964912414551e-01
2.250000000000000000e+02 1.878106307983398438e+01 2.124827623367309570e+00 -1.536473393440246582e+00 -3.033783435821533203e-01 -5.519555211067199707e-01 3.531368672847747803e-01
2.260000000000000000e+02 1.880648422241210938e+01 2.322834014892578125e+00 -1.308093667030334473e+00 -3.239320218563079834e-01 -4.896076917648315430e-01 3.585261106491088867e-01
2.270000000000000000e+02 1.879180145263671875e+01 1.941533088684082031e+00 -1.685807347297668457e+00 -3.022851347923278809e-01 -5.964277386665344238e-01 2.614246010780334473e-01
2.280000000000000000e+02 1.774669456481933594e+01 2.591729164123535156e+00 -1.093242645263671875e+00 -1.434352993965148926e-01 -3.710033893585205078e-01 2.188498377799987793e-01
2.290000000000000000e+02 1.796875953674316406e+01 2.131354331970214844e+00 -1.405535221099853516e+00 -8.654499053955078125e-02 -4.476240873336791992e-01 1.948896050453186035e-01
2.300000000000000000e+02 1.775106048583984375e+01 1.690620303153991699e+00 -1.504113793373107910e+00 1.764688827097415924e-02 -4.459400773048400879e-01 -3.352469066157937050e-03
2.310000000000000000e+02 1.859969902038574219e+01 2.537580966949462891e+00 -1.188050508499145508e+00 -3.027898967266082764e-01 -4.472521245479583740e-01 3.665839433670043945e-01
2.320000000000000000e+02 1.830430221557617188e+01 2.331517219543457031e+00 -1.249191403388977051e+00 -1.852277815341949463e-01 -4.303257763385772705e-01 2.690193951129913330e-01
2.330000000000000000e+02 1.841211128234863281e+01 1.615110993385314941e+00 -2.037933588027954102e+00 -4.059182479977607727e-02 -6.235576272010803223e-01 4.865951091051101685e-02
2.340000000000000000e+02 1.866221427917480469e+01 1.841050148010253906e+00 -1.917533159255981445e+00 -2.009295672178268433e-01 -6.355388164520263672e-01 2.332565933465957642e-01
2.350000000000000000e+02 1.839391136169433594e+01 1.918751716613769531e+00 -1.630295515060424805e+00 -1.213268786668777466e-01 -5.254867076873779297e-01 2.132843136787414551e-01
2.360000000000000000e+02 5.870287322998046875e+01 -1.347459573298692703e-02 -7.134247422218322754e-01 2.406929969787597656e+00 5.080515146255493164e-01 -1.469498276710510254e+00
2.370000000000000000e+02 5.958644866943359375e+01 -1.001508474349975586e+00 1.744045853614807129e+00 4.273256301879882812e+00 1.805190682411193848e+00 -2.644054889678955078e+00
2.380000000000000000e+02 6.098621749877929688e+01 -3.394008874893188477e+00 1.759160161018371582e+00 1.165799713134765625e+01 4.025147438049316406e+00 -2.306509017944335938e+00
2.390000000000000000e+02 6.582764434814453125e+01 6.458183765411376953e+00 -2.528157949447631836e+00 -8.585920184850692749e-02 -7.842051982879638672e-01 3.816924393177032471e-01
2.400000000000000000e+02 6.298026275634765625e+01 5.893315315246582031e+00 -8.988258242607116699e-01 3.099168539047241211e+00 6.601028442382812500e-01 -1.555353403091430664e+00
2.410000000000000000e+02 6.402888488769531250e+01 7.413018703460693359e+00 -1.667017698287963867e+00 3.465218544006347656e-01 -3.961487412452697754e-01 2.303931489586830139e-02
2.420000000000000000e+02 6.328877639770507812e+01 8.308889389038085938e+00 1.541365385055541992e-01 7.240515947341918945e-01 2.634564340114593506e-01 -4.468502998352050781e-01
2.430000000000000000e+02 6.119178009033203125e+01 9.336791038513183594e+00 4.882520735263824463e-01 4.802440643310546875e+00 1.587207794189453125e+00 -1.052158355712890625e+00
2.440000000000000000e+02 6.080407714843750000e+01 1.199333572387695312e+01 6.649652123451232910e-01 9.476426124572753906e+00 3.042417287826538086e+00 -7.740194797515869141e-01
2.450000000000000000e+02 5.539222335815429688e+01 1.272375679016113281e+01 1.079801678657531738e+00 9.100337982177734375e+00 3.054041862487792969e+00 -1.695502102375030518e-01
2.460000000000000000e+02 5.485940170288085938e+01 1.163874149322509766e+01 3.984080255031585693e-01 1.075650787353515625e+01 3.346474885940551758e+00 -1.028364151716232300e-01
2.470000000000000000e+02 5.441253662109375000e+01 7.807762145996093750e+00 3.075976848602294922e+00 1.142850303649902344e+01 4.351344108581542969e+00 4.237780094146728516e+00
2.480000000000000000e+02 5.162842941284179688e+01 3.623540878295898438e+00 2.779337167739868164e-01 2.988504409790039062e+00 9.799314141273498535e-01 2.752317905426025391e+00
2.490000000000000000e+02 5.538166809082031250e+01 3.357157707214355469e-01 -1.305464625358581543e+00 1.759442448616027832e+00 1.361933499574661255e-01 1.260788202285766602e+00
2.500000000000000000e+02 6.767114257812500000e+01 -1.419510483741760254e+00 1.890117049217224121e+00 2.966075181961059570e+00 1.456857681274414062e+00 2.262800455093383789e+00
2.510000000000000000e+02 6.851560211181640625e+01 -1.888402998447418213e-01 6.181691288948059082e-01 2.030910730361938477e+00 7.947239279747009277e-01 2.114078521728515625e+00
2.520000000000000000e+02 7.239851379394531250e+01 -1.377992630004882812e+00 -1.690643548965454102e+00 7.912636995315551758e-01 -2.698139250278472900e-01 -1.052616443485021591e-02
2.530000000000000000e+02 7.429111480712890625e+01 -3.512345790863037109e+00 7.570340037345886230e-01 7.077050685882568359e+00 2.350225448608398438e+00 -2.377475738525390625e+00
2.540000000000000000e+02 7.543737030029296875e+01 3.406417965888977051e-01 -8.433996438980102539e-01 6.593932151794433594e+00 1.725159764289855957e+00 -8.195487260818481445e-01
2.550000000000000000e+02 7.703953552246093750e+01 -3.573056459426879883e+00 -6.309834122657775879e-02 9.187265396118164062e+00 2.737250328063964844e+00 4.853401184082031250e-01
2.560000000000000000e+02 7.712469482421875000e+01 -5.953560352325439453e+00 7.485921978950500488e-01 9.907533645629882812e+00 3.196837663650512695e+00 2.972723245620727539e-01
2.570000000000000000e+02 7.681876373291015625e+01 -7.375403404235839844e+00 1.121522545814514160e+00 1.049921989440917969e+01 3.486222505569458008e+00 -3.329000174999237061e-01
2.580000000000000000e+02 7.951756286621093750e+01 -5.513767719268798828e+00 5.224779620766639709e-02 7.210758686065673828e+00 2.178901910781860352e+00 1.853408068418502808e-01
2.590000000000000000e+02 7.932120513916015625e+01 -9.621231079101562500e+00 -4.336387664079666138e-02 8.409485816955566406e+00 2.509836673736572266e+00 -4.662125408649444580e-01
2.600000000000000000e+02 7.800214385986328125e+01 -1.081797504425048828e+01 -3.447498381137847900e-01 9.378912925720214844e+00 2.710248947143554688e+00 -1.026389598846435547e+00
2.610000000000000000e+02 7.931246185302734375e+01 -1.240450668334960938e+01 -2.433495074510574341e-01 1.002752494812011719e+01 2.935252428054809570e+00 -2.099524438381195068e-01
2.620000000000000000e+02 7.439207458496093750e+01 -2.324601936340332031e+01 1.367022275924682617e+00 1.164894962310791016e+01 3.904791593551635742e+00 8.837842345237731934e-01
2.630000000000000000e+02 7.924585723876953125e+01 -3.336301040649414062e+01 2.478531002998352051e-02 7.502793312072753906e+00 2.258273601531982422e+00 -1.315212622284889221e-02
2.640000000000000000e+02 7.801847839355468750e+01 -4.169074249267578125e+01 3.392125247046351433e-03 7.727662563323974609e+00 2.319316387176513672e+00 9.381765848957002163e-04
2.650000000000000000e+02 7.752696990966796875e+01 -3.731216049194335938e+01 -1.310541946440935135e-02 7.380921840667724609e+00 2.210344791412353516e+00 -1.676305085420608521e-01
2.660000000000000000e+02 5.802301025390625000e+01 -1.090300750732421875e+01 -6.759004592895507812e-01 1.057599544525146484e+00 1.145097315311431885e-01 4.709275066852569580e-02
2.670000000000000000e+02 5.906321716308593750e+01 -1.135780906677246094e+01 1.916298717260360718e-01 3.692136526107788086e+00 1.165129899978637695e+00 1.858638167381286621e+00
2.680000000000000000e+02 5.692292022705078125e+01 -1.041664314270019531e+01 -9.795825481414794922e-01 8.354427218437194824e-01 -4.324195533990859985e-02 -7.747244238853454590e-01
2.690000000000000000e+02 5.420001220703125000e+01 -1.615445137023925781e+01 4.283144697546958923e-02 4.901054382324218750e+00 1.483165740966796875e+00 -2.488654136657714844e+00
2.700000000000000000e+02 5.461156845092773438e+01 -1.755195617675781250e+01 1.568538546562194824e+00 6.804112911224365234e+00 2.511795520782470703e+00 -2.999297380447387695e+00
2.710000000000000000e+02 5.625581741333007812e+01 -1.790668296813964844e+01 1.380668997764587402e+00 6.857439994812011719e+00 2.471432685852050781e+00 -4.318338632583618164e-01
2.720000000000000000e+02 6.467774963378906250e+01 -2.015177726745605469e+01 2.134000509977340698e-01 9.625910758972167969e+00 2.951793193817138672e+00 -6.731431931257247925e-02
2.730000000000000000e+02 6.461566162109375000e+01 -1.759987640380859375e+01 -2.578710913658142090e-01 6.260191440582275391e+00 1.800696015357971191e+00 2.708765864372253418e-01
2.740000000000000000e+02 6.339076995849609375e+01 -1.792516326904296875e+01 4.604205116629600525e-02 6.846190452575683594e+00 2.067669868469238281e+00 -4.102052748203277588e-01
2.750000000000000000e+02 6.685303497314453125e+01 -1.052934169769287109e+01 1.199059367179870605e+00 3.267361879348754883e+00 1.339926362037658691e+00 -1.682991147041320801e+00
2.760000000000000000e+02 6.377620315551757812e+01 -1.070143699645996094e+01 -5.863913297653198242e-01 7.293112754821777344e+00 2.012016534805297852e+00 2.939175367355346680e-01
2.770000000000000000e+02 6.492530059814453125e+01 -1.010794353485107422e+01 1.042191907763481140e-01 7.600780963897705078e+00 2.311500072479248047e+00 -5.095648765563964844e-01
2.780000000000000000e+02 6.135429000854492188e+01 -8.952942848205566406e+00 1.324791312217712402e+00 8.534543991088867188e+00 2.957800626754760742e+00 1.925157666206359863e+00
2.790000000000000000e+02 6.005992889404296875e+01 -9.547323226928710938e+00 9.234251976013183594e-01 5.461656093597412109e+00 1.915524363517761230e+00 2.589391231536865234e+00
2.800000000000000000e+02 6.200042724609375000e+01 -1.018074417114257812e+01 -5.275743007659912109e-01 7.404823303222656250e+00 2.063174724578857422e+00 9.842936992645263672e-01
2.810000000000000000e+02 6.124408721923828125e+01 -7.592991828918457031e+00 1.802019000053405762e+00 1.057726192474365234e+01 3.713784217834472656e+00 2.175476312637329102e+00
2.820000000000000000e+02 6.491877746582031250e+01 -3.217833042144775391e+00 1.648418188095092773e+00 7.779707431793212891e+00 2.828437566757202148e+00 1.430424213409423828e+00
2.830000000000000000e+02 6.333366012573242188e+01 -6.679439544677734375e+00 1.715678691864013672e+00 9.416507720947265625e+00 3.339656114578247070e+00 6.384298205375671387e-01
2.840000000000000000e+02 5.421586990356445312e+01 -1.155832004547119141e+01 2.494517713785171509e-01 3.510685682296752930e+00 1.128041267395019531e+00 -2.599730253219604492e+00
2.850000000000000000e+02 4.691996002197265625e+01 -6.589252948760986328e+00 1.960738062858581543e+00 6.520471572875976562e+00 2.544362783432006836e+00 -2.916070938110351562e+00
2.860000000000000000e+02 4.794889068603515625e+01 -5.744374752044677734e+00 1.082177996635437012e+00 7.537070274353027344e+00 2.585774660110473633e+00 -9.684205651283264160e-01
2.870000000000000000e+02 4.989117431640625000e+01 -5.289193630218505859e+00 1.760193705558776855e+00 7.806232452392578125e+00 2.869927883148193359e+00 -2.569668292999267578e-01
2.880000000000000000e+02 4.608895492553710938e+01 -5.595973491668701172e+00 1.781495571136474609e+00 3.500512123107910156e+00 1.584602355957031250e+00 -2.222388982772827148e+00
2.890000000000000000e+02 4.990328216552734375e+01 -8.446722984313964844e+00 2.300033330917358398e+00 8.033982276916503906e+00 3.100204706192016602e+00 1.349104940891265869e-01
2.900000000000000000e+02 4.775135803222656250e+01 -9.691303253173828125e+00 1.282205939292907715e+00 1.323243141174316406e+01 4.354391098022460938e+00 1.025770425796508789e+00
2.910000000000000000e+02 4.861442947387695312e+01 -1.355716896057128906e+01 -1.276975274085998535e+00 5.846736431121826172e+00 1.370928287506103516e+00 1.233200788497924805e+00
2.920000000000000000e+02 4.741275405883789062e+01 -1.094298076629638672e+01 2.467112541198730469e+00 1.180422878265380859e+01 4.281402111053466797e+00 3.463454723358154297e+00
2.930000000000000000e+02 4.539363479614257812e+01 -1.299579429626464844e+01 -1.387079596519470215e+00 2.434789657592773438e+00 3.143130242824554443e-01 1.607014298439025879e+00
2.940000000000000000e+02 4.277146911621093750e+01 -1.372626686096191406e+01 -5.882840633392333984e+00 -2.212724387645721436e-01 -1.831233859062194824e+00 -3.277914226055145264e-01
2.950000000000000000e+02 4.157721710205078125e+01 -1.422543907165527344e+01 -3.531646966934204102e+00 1.294960618019104004e+00 -6.710059046745300293e-01 -1.323532104492187500e+00
2.960000000000000000e+02 4.062404251098632812e+01 -1.335808086395263672e+01 -2.669265747070312500e+00 2.298868894577026367e+00 -1.111189946532249451e-01 -1.288010001182556152e+00
2.970000000000000000e+02 3.662681579589843750e+01 -1.393681907653808594e+01 -2.086063385009765625e+00 4.193836212158203125e+00 6.323318481445312500e-01 -2.639843702316284180e+00
2.980000000000000000e+02 3.708383560180664062e+01 -7.907829284667968750e+00 1.096465468406677246e+00 1.101230144500732422e+01 3.632629871368408203e+00 1.835953742265701294e-01
2.990000000000000000e+02 3.755374526977539062e+01 -6.089807033538818359e+00 2.084092140197753906e+00 8.657323837280273438e+00 3.222424745559692383e+00 2.698302507400512695e+00
3.000000000000000000e+02 3.576175308227539062e+01 -1.097022771835327148e+00 1.835845232009887695e+00 2.338423967361450195e+00 1.252280831336975098e+00 2.883116483688354492e+00
3.010000000000000000e+02 3.494541168212890625e+01 -3.437595367431640625e-01 1.468189239501953125e+00 1.164590716361999512e+00 7.898339629173278809e-01 2.619557142257690430e+00
3.020000000000000000e+02 3.736954879760742188e+01 2.895091474056243896e-01 5.760285854339599609e-01 4.323266983032226562e+00 1.469788670539855957e+00 4.457993030548095703e+00
3.030000000000000000e+02 4.219572448730468750e+01 -3.512336969375610352e+00 -1.460654020309448242e+00 1.328466180711984634e-02 -4.342108368873596191e-01 9.381452202796936035e-02
3.040000000000000000e+02 4.295108413696289062e+01 -1.490198254585266113e+00 1.051084041595458984e+00 2.493738889694213867e+00 1.063446879386901855e+00 -1.036875128746032715e+00
3.050000000000000000e+02 4.446661758422851562e+01 -4.518962383270263672e+00 9.618832468986511230e-01 1.327418684959411621e+00 6.867905855178833008e-01 -1.313521981239318848e+00
3.060000000000000000e+02 5.321744537353515625e+01 -1.974841594696044922e+00 1.915579199790954590e+00 8.493911743164062500e+00 3.122847080230712891e+00 3.158947944641113281e+00
3.070000000000000000e+02 5.076720809936523438e+01 4.798570156097412109e+00 -1.090247750282287598e+00 6.742955446243286133e-01 -1.247856542468070984e-01 1.366281628608703613e+00
3.080000000000000000e+02 4.972942352294921875e+01 5.655305385589599609e+00 -2.652441978454589844e+00 -3.382518887519836426e-01 -8.972081542015075684e-01 1.091088414192199707e+00
3.090000000000000000e+02 4.756383895874023438e+01 7.273299217224121094e+00 -9.419043064117431641e-01 -1.561946887522935867e-02 -2.872571349143981934e-01 7.390813827514648438e-01
3.100000000000000000e+02 4.654232025146484375e+01 8.205360412597656250e+00 -6.328327655792236328e-01 8.333783745765686035e-01 6.016368418931961060e-02 -9.219972044229507446e-02
3.110000000000000000e+02 4.118404769897460938e+01 5.060348510742187500e+00 2.704817533493041992e+00 8.520460128784179688e+00 3.367583274841308594e+00 8.814963698387145996e-01
3.120000000000000000e+02 4.425571823120117188e+01 9.853092193603515625e+00 -4.035698622465133667e-02 8.040709495544433594e+00 2.400105714797973633e+00 2.334418147802352905e-01
3.130000000000000000e+02 4.138075256347656250e+01 1.217228221893310547e+01 2.503070533275604248e-01 7.615462303161621094e+00 2.359730720520019531e+00 8.822164535522460938e-01
3.140000000000000000e+02 3.935203933715820312e+01 1.006844425201416016e+01 -1.106206327676773071e-01 6.707618236541748047e+00 1.979099273681640625e+00 -4.602385759353637695e-01
3.150000000000000000e+02 3.927526092529296875e+01 8.764979362487792969e+00 4.543799757957458496e-01 9.037084579467773438e+00 2.847439289093017578e+00 -1.364822864532470703e+00
3.160000000000000000e+02 4.078248214721679688e+01 7.552188396453857422e+00 6.519710421562194824e-01 9.985020637512207031e+00 3.191097497940063477e+00 9.492437839508056641e-01
3.170000000000000000e+02 3.965282058715820312e+01 6.102713108062744141e+00 3.891655206680297852e-01 1.460424518585205078e+01 4.498023033142089844e+00 3.990868926048278809e-01
3.180000000000000000e+02 4.081893539428710938e+01 2.125796079635620117e+00 1.855108737945556641e+00 6.703669071197509766e+00 2.567633390426635742e+00 2.098752111196517944e-01
3.190000000000000000e+02 3.761059951782226562e+01 2.018985748291015625e+00 3.515983343124389648e+00 4.054738044738769531e+00 2.271216392517089844e+00 3.803698539733886719e+00
3.200000000000000000e+02 3.555074691772460938e+01 6.009944081306457520e-01 -1.158090949058532715e+00 8.571206927299499512e-01 -9.029106050729751587e-02 2.979478120803833008e+00
3.210000000000000000e+02 3.720073699951171875e+01 -1.276188254356384277e+00 8.501849770545959473e-01 4.281250000000000000e+00 1.539430379867553711e+00 3.628460884094238281e+00
3.220000000000000000e+02 3.439029312133789062e+01 1.287855505943298340e+00 -5.382733821868896484e+00 -9.606165289878845215e-01 -1.903005123138427734e+00 2.210459232330322266e+00
3.230000000000000000e+02 3.317216873168945312e+01 1.861997604370117188e+00 -5.396563529968261719e+00 -3.356345593929290771e-01 -1.719659447669982910e+00 2.020162343978881836e+00
3.240000000000000000e+02 3.078553581237792969e+01 3.020626008510589600e-01 -9.732387065887451172e-01 1.189362430572509766e+01 3.276115655899047852e+00 -3.995361804962158203e+00
3.250000000000000000e+02 3.228072738647460938e+01 -1.271624326705932617e+00 6.252805233001708984e+00 6.778353691101074219e+00 3.909347772598266602e+00 -1.931023478507995605e+00
3.260000000000000000e+02 3.636857223510742188e+01 -3.990184545516967773e+00 1.933355689048767090e+00 5.557868480682373047e+00 2.247367143630981445e+00 1.377924084663391113e+00
3.270000000000000000e+02 3.260860061645507812e+01 -1.904415130615234375e+00 5.152010917663574219e+00 6.622685432434082031e+00 3.532408714294433594e+00 -2.514879226684570312e+00
3.280000000000000000e+02 3.206105041503906250e+01 -3.460330009460449219e+00 1.314781427383422852e+00 9.536371231079101562e+00 3.255345582962036133e+00 -2.269668579101562500e+00
3.290000000000000000e+02 3.038723373413085938e+01 -4.015045642852783203e+00 -8.782069683074951172e-01 8.157531738281250000e+00 2.183797597885131836e+00 7.085460424423217773e-01
3.300000000000000000e+02 2.958180618286132812e+01 -3.039019346237182617e+00 3.579125702381134033e-01 3.772809743881225586e+00 1.239216685295104980e+00 1.327438592910766602e+00
3.310000000000000000e+02 5.273646545410156250e+01 -3.177937746047973633e+00 1.028624176979064941e+00 1.042475414276123047e+01 3.436013460159301758e+00 2.324833154678344727e+00
3.320000000000000000e+02 5.378750228881835938e+01 -8.474483489990234375e-01 1.240499019622802734e+00 5.585970401763916016e+00 2.047940731048583984e+00 2.790136575698852539e+00
3.330000000000000000e+02 5.307260894775390625e+01 6.150455951690673828e+00 2.614652156829833984e+00 5.311564922332763672e+00 2.377865076065063477e+00 3.482573270797729492e+00
3.340000000000000000e+02 4.560874938964843750e+01 -2.801436805725097656e+01 -2.018654584884643555e+00 1.023894548416137695e+00 -2.984280288219451904e-01 -1.038015246391296387e+00
3.350000000000000000e+02 4.775767135620117188e+01 -2.937863349914550781e+01 3.348702430725097656e+00 4.681995868682861328e+00 2.409209489822387695e+00 -3.930766582489013672e+00
3.360000000000000000e+02 5.064129638671875000e+01 -2.637739562988281250e+01 -1.221158385276794434e+00 2.329634904861450195e+00 3.325429856777191162e-01 -2.539541482925415039e+00
3.370000000000000000e+02 5.069189071655273438e+01 -2.517863273620605469e+01 -4.092605590820312500e+00 7.781865000724792480e-01 -9.943257570266723633e-01 -8.224459290504455566e-01
3.380000000000000000e+02 5.064171600341796875e+01 -2.758325576782226562e+01 8.146902173757553101e-02 4.380321025848388672e+00 1.338537096977233887e+00 -1.250702261924743652e+00
3.390000000000000000e+02 4.940699005126953125e+01 -2.527924728393554688e+01 -1.705828428268432617e+00 3.306376695632934570e+00 4.801645278930664062e-01 -2.377100706100463867e+00
3.400000000000000000e+02 4.800680923461914062e+01 -2.326054954528808594e+01 3.505242586135864258e+00 5.493188381195068359e+00 2.699529409408569336e+00 -4.047476291656494141e+00
3.410000000000000000e+02 4.669110870361328125e+01 -2.104570770263671875e+01 1.760410904884338379e+00 1.068157768249511719e+01 3.732596635818481445e+00 -1.182425260543823242e+00
3.420000000000000000e+02 4.486548233032226562e+01 -1.657308387756347656e+01 -3.688071966171264648e-01 4.511303901672363281e+00 1.242748975753784180e+00 1.137299656867980957e+00
3.430000000000000000e+02 4.067827606201171875e+01 -1.641225051879882812e+01 -2.579673826694488525e-01 3.866031408309936523e+00 1.082419157028198242e+00 -2.155127286911010742e+00
3.440000000000000000e+02 4.746286392211914062e+01 -1.666931152343750000e+01 -1.180070519447326660e+00 5.718689918518066406e+00 1.361585855484008789e+00 2.408130168914794922e+00
3.450000000000000000e+02 4.888229751586914062e+01 -1.663304328918457031e+01 -2.034632444381713867e+00 2.284310579299926758e+00 7.490342855453491211e-02 1.129678130149841309e+00
3.460000000000000000e+02 5.017360305786132812e+01 -1.622793388366699219e+01 -4.354327678680419922e+00 4.752919450402259827e-02 -1.292039513587951660e+00 -7.037606835365295410e-01
3.470000000000000000e+02 4.873482894897460938e+01 -3.031385803222656250e+01 4.113101482391357422e+00 8.164953231811523438e+00 3.683416366577148438e+00 -4.863828659057617188e+00
3.480000000000000000e+02 4.938055038452148438e+01 -3.138631248474121094e+01 2.789138317108154297e+00 1.126621532440185547e+01 4.216606140136718750e+00 -3.223146677017211914e+00
3.490000000000000000e+02 4.947127532958984375e+01 -3.442013168334960938e+01 1.183994412422180176e+00 8.605128288269042969e+00 2.936736822128295898e+00 1.860087156295776367e+00
3.500000000000000000e+02 4.856044006347656250e+01 -3.615502548217773438e+01 3.580611050128936768e-01 4.460238456726074219e+00 1.445489764213562012e+00 1.590206742286682129e+00
3.510000000000000000e+02 5.619519042968750000e+01 -3.540298461914062500e+01 1.844306468963623047e+00 9.968172073364257812e+00 3.543743610382080078e+00 -2.385629653930664062e+00
3.520000000000000000e+02 5.781707000732421875e+01 -3.743979263305664062e+01 -8.521011471748352051e-01 3.511738061904907227e+00 7.978910803794860840e-01 -1.541379332542419434e+00
3.530000000000000000e+02 5.588074111938476562e+01 -3.329505157470703125e+01 1.210337281227111816e+00 1.203569412231445312e+01 3.973809480667114258e+00 -3.414855003356933594e-01
3.540000000000000000e+02 5.242407989501953125e+01 -3.119723892211914062e+01 3.181205749511718750e+00 6.267819881439208984e+00 2.834707498550415039e+00 -4.153076708316802979e-01
3.550000000000000000e+02 5.663653564453125000e+01 -3.009879302978515625e+01 1.864608645439147949e+00 9.260970115661621094e+00 3.337673664093017578e+00 3.167000055313110352e+00
3.560000000000000000e+02 5.738129425048828125e+01 -2.908000373840332031e+01 1.460622549057006836e+00 6.503429412841796875e+00 2.389215707778930664e+00 3.301458597183227539e+00
3.570000000000000000e+02 5.642116165161132812e+01 -2.221365165710449219e+01 2.259565591812133789e+00 7.929715633392333984e+00 3.056784391403198242e+00 8.128277063369750977e-01
3.580000000000000000e+02 5.992105102539062500e+01 -2.597263717651367188e+01 -2.221479654312133789e+00 1.470941424369812012e+00 -2.251614779233932495e-01 7.127240300178527832e-01
3.590000000000000000e+02 6.508835601806640625e+01 -2.309759712219238281e+01 3.396374225616455078e+00 1.142919540405273438e+01 4.447670936584472656e+00 -4.687618732452392578e+00
3.600000000000000000e+02 6.569064331054687500e+01 -2.748790550231933594e+01 -8.366489410400390625e-01 7.912966251373291016e+00 2.122895240783691406e+00 -2.408541917800903320e+00
3.610000000000000000e+02 6.362757110595703125e+01 -2.759098815917968750e+01 8.954201936721801758e-01 5.109132766723632812e+00 1.801365852355957031e+00 -2.645472526550292969e+00
3.620000000000000000e+02 6.566973114013671875e+01 -2.915774536132812500e+01 2.534888744354248047e+00 1.017133617401123047e+01 3.811867237091064453e+00 -3.988641500473022461e+00
3.630000000000000000e+02 6.562574768066406250e+01 -3.031455039978027344e+01 2.795082330703735352e+00 1.295504474639892578e+01 4.725038051605224609e+00 -4.341667652130126953e+00
3.640000000000000000e+02 6.882912445068359375e+01 -2.827318382263183594e+01 1.061356067657470703e+00 2.493396282196044922e+00 1.066425800323486328e+00 -1.299713730812072754e+00
3.650000000000000000e+02 6.600717926025390625e+01 -3.290564727783203125e+01 3.459899127483367920e-01 9.600681304931640625e+00 2.984001398086547852e+00 -8.711305260658264160e-01
3.660000000000000000e+02 6.616333770751953125e+01 -3.422333526611328125e+01 3.995502293109893799e-01 8.150611877441406250e+00 2.565048456192016602e+00 -2.117774784564971924e-01
3.670000000000000000e+02 6.514815521240234375e+01 -3.632696533203125000e+01 2.025417238473892212e-01 4.323249340057373047e+00 1.357737302780151367e+00 4.725250303745269775e-01
3.680000000000000000e+02 6.417951202392578125e+01 -3.717469406127929688e+01 -1.128848671913146973e+00 1.672890037298202515e-01 -2.884679138660430908e-01 1.347161531448364258e-01
3.690000000000000000e+02 6.863291168212890625e+01 -3.475380325317382812e+01 6.221308112144470215e-01 5.964027404785156250e+00 1.975847363471984863e+00 -1.542704820632934570e+00
3.700000000000000000e+02 6.586589050292968750e+01 -3.157083892822265625e+01 1.129098534584045410e+00 1.203646945953369141e+01 3.949670314788818359e+00 -2.137693405151367188e+00
3.710000000000000000e+02 6.622496032714843750e+01 -2.593730735778808594e+01 -1.089419960975646973e+00 7.285128593444824219e+00 1.858712673187255859e+00 -2.824562788009643555e+00
3.720000000000000000e+02 6.704602050781250000e+01 -2.524397468566894531e+01 9.396560192108154297e-01 4.111362934112548828e+00 1.515305638313293457e+00 -2.380338430404663086e+00
3.730000000000000000e+02 4.791629028320312500e+01 -3.955869674682617188e+01 -2.115504980087280273e+00 3.259496688842773438e+00 3.431974947452545166e-01 1.257755160331726074e+00
3.740000000000000000e+02 4.751734542846679688e+01 -3.703579711914062500e+01 -1.062842488288879395e+00 1.907091617584228516e+00 2.532747387886047363e-01 8.309419751167297363e-01
3.750000000000000000e+02 4.246664810180664062e+01 -3.824177551269531250e+01 -3.129507780075073242e+00 2.237565070390701294e-02 -9.321396946907043457e-01 8.247674256563186646e-02
3.760000000000000000e+02 4.623916625976562500e+01 -3.808221054077148438e+01 -2.460957765579223633e+00 9.003574252128601074e-01 -4.681801199913024902e-01 3.336946666240692139e-02
3.770000000000000000e+02 4.121387481689453125e+01 -3.721881484985351562e+01 -1.417187690734863281e+00 5.674393773078918457e-01 -2.549244761466979980e-01 2.521787285804748535e-01
3.780000000000000000e+02 3.929784011840820312e+01 -3.409932327270507812e+01 9.917149543762207031e-01 9.387945175170898438e+00 3.113898038864135742e+00 -5.479357242584228516e-01
3.790000000000000000e+02 3.890377426147460938e+01 -3.201126098632812500e+01 1.758922696113586426e+00 1.074993133544921875e+01 3.752656221389770508e+00 2.357185840606689453e+00
3.800000000000000000e+02 3.634187698364257812e+01 -2.980850028991699219e+01 -3.787912130355834961e-01 1.551789164543151855e+00 3.518993556499481201e-01 1.440252542495727539e+00
3.810000000000000000e+02 3.622036361694335938e+01 -3.082279205322265625e+01 5.734416246414184570e-01 2.093712329864501953e+00 8.001461625099182129e-01 8.600491881370544434e-01
3.820000000000000000e+02 3.110299301147460938e+01 -2.630720520019531250e+01 -1.591870337724685669e-01 1.811832666397094727e+00 4.957936704158782959e-01 -8.159954547882080078e-01
3.830000000000000000e+02 2.933416557312011719e+01 -2.439223861694335938e+01 1.226427078247070312e+00 8.070599555969238281e+00 2.789108037948608398e+00 -2.208093881607055664e+00
3.840000000000000000e+02 2.931107902526855469e+01 -2.639797019958496094e+01 -1.346121907234191895e+00 5.691366672515869141e+00 1.303573489189147949e+00 -7.487096190452575684e-01
3.850000000000000000e+02 2.244788169860839844e+01 -2.811000061035156250e+01 -1.712315201759338379e+00 -4.105878174304962158e-01 -6.368709206581115723e-01 1.097686171531677246e+00
3.860000000000000000e+02 2.316218948364257812e+01 -2.718734359741210938e+01 -1.390031814575195312e+00 1.357671976089477539e+00 -9.707963094115257263e-03 4.352951347827911377e-01
3.870000000000000000e+02 2.341584205627441406e+01 -2.906888389587402344e+01 -9.466144442558288574e-01 1.007702112197875977e+00 1.832630485296249390e-02 2.664982676506042480e-01
3.880000000000000000e+02 2.509227180480957031e+01 -2.891959571838378906e+01 -1.742864370346069336e+00 4.251905918121337891e+00 7.527124881744384766e-01 6.962082386016845703e-01
3.890000000000000000e+02 2.962658119201660156e+01 -3.138241004943847656e+01 -5.889490842819213867e-01 3.327694177627563477e+00 8.216235637664794922e-01 -5.770503878593444824e-01
3.900000000000000000e+02 2.501703453063964844e+01 -3.344622802734375000e+01 1.593413762748241425e-03 5.898960590362548828e+00 1.770166158676147461e+00 -1.532021015882492065e-01
3.910000000000000000e+02 2.352886772155761719e+01 -3.894662475585937500e+01 -4.839311242103576660e-01 1.491292953491210938e+00 3.022085428237915039e-01 4.776667356491088867e-01
3.920000000000000000e+02 2.450768661499023438e+01 -3.771238327026367188e+01 3.373647332191467285e-01 3.910089731216430664e+00 1.274236321449279785e+00 5.178317427635192871e-01
3.930000000000000000e+02 2.215671157836914062e+01 -3.978466796875000000e+01 -1.229771375656127930e+00 6.130509972572326660e-01 -1.850161105394363403e-01 8.134860545396804810e-03
3.940000000000000000e+02 2.254467582702636719e+01 -4.151025390625000000e+01 -1.639370322227478027e+00 9.495615363121032715e-01 -2.069426476955413818e-01 2.654272019863128662e-01
3.950000000000000000e+02 1.721254730224609375e+01 -4.030560684204101562e+01 -1.651590466499328613e+00 -2.143457680940628052e-01 -5.597808361053466797e-01 7.248273491859436035e-01
3.960000000000000000e+02 1.622134208679199219e+01 -3.971239852905273438e+01 -1.904380679130554199e+00 -7.195829749107360840e-01 -7.871891260147094727e-01 6.327704191207885742e-01
3.970000000000000000e+02 1.528873157501220703e+01 -3.897499084472656250e+01 -3.714002668857574463e-01 -1.814529150724411011e-01 -1.658559441566467285e-01 6.771202683448791504e-01
3.980000000000000000e+02 1.324400043487548828e+01 -3.713836669921875000e+01 -1.064872294664382935e-01 9.038412570953369141e-01 2.392062097787857056e-01 6.414870172739028931e-02
3.990000000000000000e+02 1.203582668304443359e+01 -3.624659729003906250e+01 2.745913714170455933e-02 1.278073430061340332e+00 3.916597664356231689e-01 2.499172240495681763e-01
4.000000000000000000e+02 1.267435455322265625e+01 -4.060923767089843750e+01 -1.205019116401672363e+00 7.728194594383239746e-01 -1.296599060297012329e-01 1.631387770175933838e-01
4.010000000000000000e+02 4.120676040649414062e+00 -2.407775115966796875e+01 5.039277672767639160e-02 -6.316582858562469482e-02 -3.831915557384490967e-03 -7.111702114343643188e-02
4.020000000000000000e+02 6.561550498008728027e-01 -3.033370780944824219e+01 -1.426250953227281570e-02 -8.349593877792358398e-01 -2.547665536403656006e-01 2.335155382752418518e-02
4.030000000000000000e+02 6.650852560997009277e-01 -3.173369598388671875e+01 3.563845902681350708e-02 -7.403951883316040039e-01 -2.114270180463790894e-01 5.735816434025764465e-02
4.040000000000000000e+02 1.007909774780273438e+00 -3.726511001586914062e+01 4.708652198314666748e-02 -1.015856564044952393e-01 -1.634974032640457153e-02 1.310087889432907104e-01
4.050000000000000000e+02 8.038487434387207031e+00 -3.546346282958984375e+01 4.226773232221603394e-02 5.496894121170043945e-01 1.775871366262435913e-01 5.909472107887268066e-01
4.060000000000000000e+02 3.942976760864257812e+01 -3.070000076293945312e+01 1.426162481307983398e+00 1.009187030792236328e+01 3.455410003662109375e+00 3.723718881607055664e+00
4.070000000000000000e+02 3.734856414794921875e+01 -2.866426467895507812e+01 -2.961633920669555664e+00 2.767787456512451172e+00 -5.815387517213821411e-02 6.686986088752746582e-01
4.080000000000000000e+02 3.384605407714843750e+01 -2.937218856811523438e+01 -2.863607168197631836e+00 -3.785837888717651367e-01 -9.726572632789611816e-01 -4.318738579750061035e-01
4.090000000000000000e+02 3.297564315795898438e+01 -2.821301460266113281e+01 -3.494263172149658203e+00 -1.048114597797393799e-01 -1.079722404479980469e+00 3.457936346530914307e-01
4.100000000000000000e+02 3.788687515258789062e+01 -2.758435058593750000e+01 -2.310799360275268555e+00 3.444473505020141602e+00 3.401022553443908691e-01 9.643824696540832520e-01
4.110000000000000000e+02 4.019886016845703125e+01 -2.952059173583984375e+01 3.691434562206268311e-01 7.870369911193847656e+00 2.471853971481323242e+00 2.907551527023315430e+00
4.120000000000000000e+02 4.373480606079101562e+01 -2.730016899108886719e+01 -5.481660842895507812e+00 -1.226074397563934326e-01 -1.681280493736267090e+00 -5.602922439575195312e-01
4.130000000000000000e+02 4.888259887695312500e+01 -2.422977447509765625e+01 6.398707032203674316e-01 3.316163539886474609e+00 1.186810255050659180e+00 -2.598041057586669922e+00
4.140000000000000000e+02 4.259735488891601562e+01 -2.469979667663574219e+01 2.089848995208740234e+00 3.444962739944458008e+00 1.660443544387817383e+00 7.295958399772644043e-01
4.150000000000000000e+02 4.561666870117187500e+01 -1.867151641845703125e+01 2.145329236984252930e+00 5.952013492584228516e+00 2.429202795028686523e+00 5.026186704635620117e-01
4.160000000000000000e+02 3.701675796508789062e+01 -1.625776863098144531e+01 4.917854070663452148e-01 3.546657562255859375e+00 1.211532831192016602e+00 -1.953934431076049805e+00
4.170000000000000000e+02 3.608861160278320312e+01 -1.543508148193359375e+01 -3.775888919830322266e+00 1.424947857856750488e+00 -7.052823305130004883e-01 -4.128432571887969971e-01
4.180000000000000000e+02 3.797308349609375000e+01 -1.070547580718994141e+01 3.742299795150756836e+00 7.977380752563476562e+00 3.515904188156127930e+00 -4.367847919464111328e+00
4.190000000000000000e+02 3.883357620239257812e+01 -1.153787708282470703e+01 2.771131277084350586e+00 4.799901962280273438e+00 2.271310091018676758e+00 -4.085608482360839844e+00
4.200000000000000000e+02 3.129313468933105469e+01 1.446213054656982422e+01 -2.721838951110839844e+00 4.300486564636230469e+00 4.735942482948303223e-01 2.540594100952148438e+00
4.210000000000000000e+02 3.031614303588867188e+01 1.546606731414794922e+01 -2.381731033325195312e+00 2.149406194686889648e+00 -6.969747692346572876e-02 1.516559243202209473e+00
4.220000000000000000e+02 2.955665206909179688e+01 1.463966941833496094e+01 -3.888212442398071289e+00 1.398662209510803223e+00 -7.468650937080383301e-01 1.266325473785400391e+00
4.230000000000000000e+02 2.727993202209472656e+01 1.521256828308105469e+01 -5.720867156982421875e+00 -1.202632114291191101e-01 -1.752339124679565430e+00 1.522467136383056641e-01
4.240000000000000000e+02 2.457934379577636719e+01 1.647499847412109375e+01 -1.831866502761840820e-01 1.325547814369201660e+00 3.427083492279052734e-01 -6.480379104614257812e-01
4.250000000000000000e+02 1.876172447204589844e+01 1.733296585083007812e+01 7.872212678194046021e-02 1.271113753318786621e+00 4.049507677555084229e-01 -3.341915607452392578e-01
4.260000000000000000e+02 2.093061256408691406e+01 1.973433113098144531e+01 1.316997051239013672e+00 4.579038143157958984e+00 1.768810510635375977e+00 -2.348117530345916748e-01
4.270000000000000000e+02 2.216342163085937500e+01 2.157888031005859375e+01 6.024257540702819824e-01 8.078765869140625000e+00 2.604357481002807617e+00 1.538304686546325684e-01
4.280000000000000000e+02 2.449386978149414062e+01 2.841302108764648438e+01 -8.232790231704711914e-02 1.105296492576599121e+00 3.068905770778656006e-01 3.330568671226501465e-01
4.290000000000000000e+02 2.333522033691406250e+01 2.660043144226074219e+01 4.925895109772682190e-02 3.001551389694213867e+00 9.152430891990661621e-01 5.806742906570434570e-01
4.300000000000000000e+02 1.985012435913085938e+01 2.918271827697753906e+01 1.671724170446395874e-01 6.432089328765869141e+00 1.979778647422790527e+00 -4.374079406261444092e-01
4.310000000000000000e+02 2.495847129821777344e+01 3.258184051513671875e+01 3.976930975914001465e-01 1.828943729400634766e+00 6.679910421371459961e-01 8.922407031059265137e-02
4.320000000000000000e+02 2.335018730163574219e+01 3.596949386596679688e+01 -3.834917545318603516e-01 2.559085130691528320e+00 6.526780128479003906e-01 3.251518309116363525e-02
4.330000000000000000e+02 2.281333923339843750e+01 4.101142501831054688e+01 -6.719092726707458496e-01 2.413315057754516602e+00 5.224217772483825684e-01 2.022224245592951775e-03
4.340000000000000000e+02 1.876172637939453125e+01 3.780992889404296875e+01 -4.549125730991363525e-01 1.775857090950012207e+00 3.962833285331726074e-01 -3.316605091094970703e-01
4.350000000000000000e+02 1.700852394104003906e+01 3.476144790649414062e+01 -6.089516356587409973e-02 1.057676911354064941e+00 2.990345060825347900e-01 -6.804596781730651855e-01
4.360000000000000000e+02 1.204043102264404297e+01 3.475870895385742188e+01 -6.269965171813964844e-01 2.609807811677455902e-02 -1.802695393562316895e-01 9.711271524429321289e-02
4.370000000000000000e+02 1.619366073608398438e+01 3.371596908569335938e+01 -1.696073412895202637e-01 2.177924960851669312e-01 1.445554662495851517e-02 -8.034852892160415649e-02
4.380000000000000000e+02 1.729084014892578125e+01 3.317008590698242188e+01 2.565299868583679199e-01 7.137333750724792480e-01 2.910790145397186279e-01 -5.194436311721801758e-01
4.390000000000000000e+02 1.993711090087890625e+01 2.789728927612304688e+01 2.050468027591705322e-01 5.690996170043945312e+00 1.768812894821166992e+00 -1.878128014504909515e-02
4.400000000000000000e+02 2.091079139709472656e+01 2.580821037292480469e+01 -3.931293487548828125e-01 4.553911685943603516e+00 1.248234748840332031e+00 -4.802571237087249756e-01
4.410000000000000000e+02 1.990299797058105469e+01 2.500709152221679688e+01 -7.546201348304748535e-01 4.048439502716064453e+00 9.881457090377807617e-01 -3.518795669078826904e-01
4.420000000000000000e+02 2.029607582092285156e+01 2.394962120056152344e+01 -2.052513808012008667e-01 4.042387962341308594e+00 1.151140928268432617e+00 -1.700829863548278809e-01
4.430000000000000000e+02 1.752956390380859375e+01 2.423737335205078125e+01 -9.194597005844116211e-01 -4.274139702320098877e-01 -4.040620923042297363e-01 -6.775563955307006836e-01
4.440000000000000000e+02 1.781561088562011719e+01 1.910158538818359375e+01 1.204234004020690918e+00 4.317548274993896484e-01 4.907966554164886475e-01 -9.000700712203979492e-02
4.450000000000000000e+02 1.485869979858398438e+01 1.854810523986816406e+01 1.478311419486999512e+00 5.438916385173797607e-02 4.598101675510406494e-01 8.214507997035980225e-02
4.460000000000000000e+02 1.645427703857421875e+01 1.933981132507324219e+01 1.223966598510742188e+00 -1.653200834989547729e-01 3.175939321517944336e-01 2.937633395195007324e-01
4.470000000000000000e+02 1.680420684814453125e+01 2.171767997741699219e+01 9.504421949386596680e-01 3.645290806889533997e-02 2.960685193538665771e-01 -2.267201989889144897e-02
4.480000000000000000e+02 1.996358680725097656e+01 1.711693000793457031e+01 1.549353171139955521e-02 3.194268703460693359e+00 9.629287123680114746e-01 -4.140361547470092773e-01
4.490000000000000000e+02 2.255820274353027344e+01 1.753664779663085938e+01 3.478583395481109619e-01 4.741692066192626953e+00 1.526865124702453613e+00 -1.095221757888793945e+00
4.500000000000000000e+02 2.338521957397460938e+01 1.436319541931152344e+01 -8.598821759223937988e-01 3.068286895751953125e+00 6.625214219093322754e-01 -1.731338143348693848e+00
4.510000000000000000e+02 2.090252494812011719e+01 9.134604454040527344e+00 6.251525878906250000e-02 9.577987790107727051e-01 3.060942292213439941e-01 -7.882115840911865234e-01
4.520000000000000000e+02 1.937095260620117188e+01 8.722579002380371094e+00 -1.485632807016372681e-01 -6.537326574325561523e-01 -2.406887710094451904e-01 -4.243641793727874756e-01
4.530000000000000000e+02 1.788611793518066406e+01 7.481412887573242188e+00 3.258709609508514404e-01 -2.230976969003677368e-01 3.083197958767414093e-02 -3.010773099958896637e-02
4.540000000000000000e+02 2.494762802124023438e+01 1.579235196113586426e+00 -1.113279581069946289e+00 4.702935814857482910e-01 -1.928958147764205933e-01 1.726392358541488647e-01
4.550000000000000000e+02 3.169319915771484375e+01 -1.553409919142723083e-02 1.803063392639160156e+00 8.727377891540527344e+00 3.159132480621337891e+00 -1.331540465354919434e+00
4.560000000000000000e+02 3.295104980468750000e+01 1.237221813201904297e+01 -4.108188152313232422e+00 5.729361176490783691e-01 -1.060575485229492188e+00 7.556477785110473633e-01
4.570000000000000000e+02 3.712988281250000000e+01 1.142735767364501953e+01 -1.209222912788391113e+00 7.832673788070678711e-01 -1.277866661548614502e-01 1.693788170814514160e-02
4.580000000000000000e+02 3.602062225341796875e+01 1.214370441436767578e+01 -3.724132299423217773e+00 -8.427831530570983887e-02 -1.142523169517517090e+00 2.556213736534118652e-01
4.590000000000000000e+02 3.787411880493164062e+01 1.250608444213867188e+01 -1.421232223510742188e+00 3.232780933380126953e+00 5.434646010398864746e-01 -1.440830469131469727e+00
4.600000000000000000e+02 2.863367462158203125e+01 6.930388927459716797e+00 2.130914449691772461e+00 1.164877796173095703e+01 4.133907794952392578e+00 -1.678337931632995605e+00
4.610000000000000000e+02 2.912708473205566406e+01 7.970746040344238281e+00 9.241406917572021484e-01 1.197414112091064453e+01 3.869484663009643555e+00 5.842146873474121094e-01
4.620000000000000000e+02 2.442869567871093750e+01 1.363804721832275391e+01 -9.691598415374755859e-01 2.500133037567138672e+00 4.592919349670410156e-01 -2.359676122665405273e+00
4.630000000000000000e+02 3.001388740539550781e+01 1.287462139129638672e+01 -2.519677400588989258e+00 3.922362565994262695e+00 4.208055436611175537e-01 2.007059097290039062e+00
4.640000000000000000e+02 7.307926177978515625e+01 -1.146478843688964844e+01 -2.112504720687866211e+00 6.939810514450073242e-01 -4.255571067333221436e-01 -6.524098664522171021e-02
4.650000000000000000e+02 7.107524871826171875e+01 -1.211245441436767578e+01 -2.190072774887084961e+00 -3.298902213573455811e-01 -7.559889554977416992e-01 -7.986440062522888184e-01
4.660000000000000000e+02 6.945061492919921875e+01 -1.323583030700683594e+01 -3.965142667293548584e-01 1.900882422924041748e-01 -6.192781031131744385e-02 -1.600899219512939453e+00
4.670000000000000000e+02 6.963709259033203125e+01 -1.543043994903564453e+01 -7.609169483184814453e-01 5.665338784456253052e-02 -2.112790644168853760e-01 -1.079431056976318359e+00
4.680000000000000000e+02 7.036264801025390625e+01 -1.641934394836425781e+01 -6.331787109375000000e-01 1.144740134477615356e-01 -1.556114107370376587e-01 -4.873203337192535400e-01
4.690000000000000000e+02 7.231748199462890625e+01 -1.768549537658691406e+01 8.672912716865539551e-01 3.679968357086181641e+00 1.364177823066711426e+00 -1.607852458953857422e+00
4.700000000000000000e+02 7.927289581298828125e+01 -1.659688377380371094e+01 -1.188495010137557983e-01 9.102591514587402344e+00 2.695122480392456055e+00 4.196606576442718506e-01
4.710000000000000000e+02 7.815944671630859375e+01 -1.793298339843750000e+01 -3.277389565482735634e-03 8.223452568054199219e+00 2.466052532196044922e+00 9.843661785125732422e-01
4.720000000000000000e+02 7.935842132568359375e+01 -2.357237625122070312e+01 7.749184966087341309e-02 6.244323730468750000e+00 1.896544694900512695e+00 -9.231811016798019409e-02
4.730000000000000000e+02 7.818683624267578125e+01 -2.637092781066894531e+01 -1.417581588029861450e-01 7.336225986480712891e+00 2.158340454101562500e+00 -4.356397092342376709e-01
4.740000000000000000e+02 7.938425445556640625e+01 -2.643000411987304688e+01 -5.671104788780212402e-02 7.034679412841796875e+00 2.093390464782714844e+00 -2.014199197292327881e-01
4.750000000000000000e+02 7.186920928955078125e+01 -2.594016075134277344e+01 -1.360149860382080078e+00 1.646204948425292969e+00 8.581653982400894165e-02 1.152760982513427734e+00
4.760000000000000000e+02 7.123773193359375000e+01 -2.711355018615722656e+01 -1.450924754142761230e+00 1.593449115753173828e+00 4.275728017091751099e-02 1.149608969688415527e+00
4.770000000000000000e+02 6.991773223876953125e+01 -2.670513534545898438e+01 -3.057972908020019531e+00 8.878172188997268677e-02 -8.907573223114013672e-01 3.081139624118804932e-01
4.780000000000000000e+02 6.830862426757812500e+01 -1.607520866394042969e+01 -2.307199716567993164e+00 1.872289343737065792e-03 -6.915981769561767578e-01 -6.188644170761108398e-01
4.790000000000000000e+02 6.210997772216796875e+01 3.899777603149414062e+01 -5.000190138816833496e-01 2.373903751373291016e+00 5.621654391288757324e-01 -5.885929465293884277e-01
4.800000000000000000e+02 5.257798385620117188e+01 3.584634399414062500e+01 -1.106151461601257324e+00 5.616032600402832031e+00 1.352964282035827637e+00 4.565675556659698486e-01
4.810000000000000000e+02 4.980192184448242188e+01 3.459837341308593750e+01 -8.100711703300476074e-01 5.744524955749511719e+00 1.480336070060729980e+00 -2.016724199056625366e-01
4.820000000000000000e+02 4.040283966064453125e+01 3.966782379150390625e+01 -5.563580989837646484e-01 1.638115882873535156e+00 3.245273232460021973e-01 -1.846656762063503265e-02
4.830000000000000000e+02 4.119488525390625000e+01 3.616818237304687500e+01 -1.011343955993652344e+00 6.467972397804260254e-01 -1.093640252947807312e-01 -6.794796586036682129e-01
4.840000000000000000e+02 4.307564163208007812e+01 3.288003540039062500e+01 -4.330037832260131836e-01 1.070744991302490234e+00 1.913223564624786377e-01 -3.907066881656646729e-01
4.850000000000000000e+02 4.188938903808593750e+01 3.374325180053710938e+01 -1.472491621971130371e+00 2.789517045021057129e-01 -3.580619692802429199e-01 1.143022775650024414e-01
4.860000000000000000e+02 4.505473709106445312e+01 3.103002548217773438e+01 8.788378834724426270e-01 4.396365642547607422e+00 1.582561135292053223e+00 -1.591286182403564453e+00
4.870000000000000000e+02 4.608256912231445312e+01 2.908450126647949219e+01 9.209824204444885254e-01 8.005696296691894531e+00 2.678003787994384766e+00 -1.076479077339172363e+00
4.880000000000000000e+02 4.619398117065429688e+01 2.772129440307617188e+01 5.739306807518005371e-01 9.622567176818847656e+00 3.058949470520019531e+00 1.747364643961191177e-03
4.890000000000000000e+02 4.606138610839843750e+01 2.370167922973632812e+01 1.906289815902709961e+00 8.240192413330078125e+00 3.043944835662841797e+00 2.892580509185791016e+00
4.900000000000000000e+02 4.473104476928710938e+01 2.317953300476074219e+01 1.887038588523864746e+00 6.536944389343261719e+00 2.527194976806640625e+00 3.383413314819335938e+00
4.910000000000000000e+02 4.296905136108398438e+01 2.060903739929199219e+01 -1.534156203269958496e+00 3.156298875808715820e+00 4.866427779197692871e-01 1.943629264831542969e+00
4.920000000000000000e+02 4.075794601440429688e+01 2.016717529296875000e+01 -5.190069675445556641e-01 1.158585906028747559e+00 1.918736845254898071e-01 -8.068206310272216797e-01
4.930000000000000000e+02 4.226818084716796875e+01 2.178293800354003906e+01 -3.416393756866455078e+00 8.093025684356689453e-01 -7.821273803710937500e-01 1.506279557943344116e-01
4.940000000000000000e+02 4.607064437866210938e+01 2.074071121215820312e+01 -2.139882087707519531e+00 6.562812328338623047e+00 1.326879143714904785e+00 2.692095041275024414e+00
4.950000000000000000e+02 4.641725540161132812e+01 1.790840339660644531e+01 1.765064477920532227e+00 6.645802497863769531e+00 2.523260116577148438e+00 3.238893032073974609e+00
4.960000000000000000e+02 4.550325012207031250e+01 1.669436073303222656e+01 2.206059694290161133e+00 1.031056594848632812e+01 3.754987716674804688e+00 4.075219631195068359e+00
4.970000000000000000e+02 5.077054977416992188e+01 1.797289657592773438e+01 -1.586420297622680664e+00 7.386772036552429199e-01 -2.543229162693023682e-01 2.125931829214096069e-01
4.980000000000000000e+02 4.963542556762695312e+01 1.873742675781250000e+01 -4.561240196228027344e+00 -2.377413064241409302e-01 -1.439694523811340332e+00 7.910106182098388672e-01
4.990000000000000000e+02 4.897940444946289062e+01 2.295870971679687500e+01 8.542190194129943848e-01 4.631858348846435547e+00 1.645823121070861816e+00 4.409018754959106445e-01
5.000000000000000000e+02 5.359057235717773438e+01 2.834215736389160156e+01 6.018452048301696777e-01 9.187225341796875000e+00 2.936721086502075195e+00 -3.643783628940582275e-01
5.010000000000000000e+02 5.359369277954101562e+01 2.957830238342285156e+01 1.339321881532669067e-01 9.244827270507812500e+00 2.813627719879150391e+00 4.905328750610351562e-01
5.020000000000000000e+02 5.354635620117187500e+01 3.083853530883789062e+01 1.092033624649047852e+00 9.978752136230468750e+00 3.321235656738281250e+00 1.543716907501220703e+00
5.030000000000000000e+02 5.297011184692382812e+01 3.222270965576171875e+01 1.480169653892517090e+00 8.311622619628906250e+00 2.937537670135498047e+00 1.461975455284118652e+00
5.040000000000000000e+02 5.600606155395507812e+01 3.502713012695312500e+01 2.436826974153518677e-01 2.776870727539062500e+00 9.061660766601562500e-01 1.634314060211181641e+00
5.050000000000000000e+02 5.487640762329101562e+01 3.650388336181640625e+01 -1.203847289085388184e+00 4.403541088104248047e+00 9.599081873893737793e-01 1.206938743591308594e+00
5.060000000000000000e+02 6.233005523681640625e+01 3.698342132568359375e+01 -1.224814772605895996e+00 2.401043653488159180e+00 3.528686463832855225e-01 -7.559680938720703125e-01
5.070000000000000000e+02 6.179019165039062500e+01 3.460968399047851562e+01 -7.437447309494018555e-01 1.392395734786987305e+00 1.945953071117401123e-01 -1.677666902542114258e-01
5.080000000000000000e+02 6.276947021484375000e+01 3.354399871826171875e+01 -4.032920300960540771e-02 3.272426843643188477e+00 9.696292877197265625e-01 -8.226031661033630371e-01
5.090000000000000000e+02 6.347931289672851562e+01 3.241358184814453125e+01 6.054503321647644043e-01 6.172394752502441406e+00 2.033353567123413086e+00 -5.698213577270507812e-01
5.100000000000000000e+02 6.433797454833984375e+01 3.456884002685546875e+01 -9.314826130867004395e-01 4.946488380432128906e+00 1.204501748085021973e+00 2.539305388927459717e-01
5.110000000000000000e+02 6.899407958984375000e+01 2.148068046569824219e+01 -1.337463498115539551e+00 2.668565034866333008e+00 3.993304371833801270e-01 -1.395829200744628906e+00
5.120000000000000000e+02 7.811611938476562500e+01 1.796114349365234375e+01 -1.115171909332275391e-01 7.422107696533203125e+00 2.193177223205566406e+00 6.931623220443725586e-01
5.130000000000000000e+02 7.933310699462890625e+01 2.369336128234863281e+01 -1.603417471051216125e-02 8.263683319091796875e+00 2.474294662475585938e+00 -3.527983278036117554e-02
5.140000000000000000e+02 7.530506896972656250e+01 2.539508056640625000e+01 2.811783552169799805e-02 6.676184654235839844e+00 2.011290788650512695e+00 -4.755793511867523193e-01
5.150000000000000000e+02 7.933101654052734375e+01 2.925008773803710938e+01 4.055795073509216309e-02 7.620645999908447266e+00 2.298361301422119141e+00 -4.180091992020606995e-02
5.160000000000000000e+02 7.014267730712890625e+01 3.477564239501953125e+01 1.804117485880851746e-02 5.804352283477783203e+00 1.746718049049377441e+00 6.463562846183776855e-01
5.170000000000000000e+02 5.906158447265625000e+01 3.625494003295898438e+01 -2.012026071548461914e+00 1.347594708204269409e-01 -5.631799697875976562e-01 3.602429926395416260e-01
5.180000000000000000e+02 6.452175903320312500e+01 3.129301261901855469e+01 7.256563901901245117e-01 6.511867046356201172e+00 2.171257019042968750e+00 2.154895365238189697e-01
5.190000000000000000e+02 6.353649902343750000e+01 2.893107032775878906e+01 -1.846347562968730927e-02 8.065465927124023438e+00 2.414100646972656250e+00 7.679529190063476562e-01
5.200000000000000000e+02 6.333256149291992188e+01 2.768951416015625000e+01 7.252270579338073730e-01 1.050802803039550781e+01 3.369976520538330078e+00 1.310120820999145508e+00
5.210000000000000000e+02 6.303688812255859375e+01 2.644559097290039062e+01 2.651650428771972656e+00 1.229575920104980469e+01 4.484222888946533203e+00 4.263069152832031250e+00
5.220000000000000000e+02 6.485745239257812500e+01 2.149940490722656250e+01 -1.462233901023864746e+00 2.425438404083251953e+00 2.889613509178161621e-01 3.344255685806274414e+00
5.230000000000000000e+02 6.223739242553710938e+01 2.400459671020507812e+01 5.802838206291198730e-01 6.277684211730957031e+00 2.057390451431274414e+00 3.589670419692993164e+00
5.240000000000000000e+02 5.842034149169921875e+01 2.323898887634277344e+01 -6.365810871124267578e+00 -1.118351146578788757e-01 -1.943293809890747070e+00 -3.948518037796020508e-01
5.250000000000000000e+02 5.717078781127929688e+01 2.327113914489746094e+01 -4.006122112274169922e+00 6.455975174903869629e-01 -1.008157372474670410e+00 -7.147835493087768555e-01
5.260000000000000000e+02 5.542851638793945312e+01 2.435844993591308594e+01 -9.938921779394149780e-03 2.923670768737792969e+00 8.741195201873779297e-01 -1.703960657119750977e+00
5.270000000000000000e+02 5.461298370361328125e+01 2.535424613952636719e+01 1.696185231208801270e+00 5.139122486114501953e+00 2.050592184066772461e+00 -2.666537523269653320e+00
5.280000000000000000e+02 4.051307296752929688e+01 3.446078109741210938e+01 -2.646608114242553711e+00 -1.081710085272789001e-01 -8.264337182044982910e-01 2.039760053157806396e-01
5.290000000000000000e+02 3.921715927124023438e+01 3.708338928222656250e+01 -4.777816236019134521e-01 9.365222454071044922e-01 1.376221925020217896e-01 4.030333459377288818e-01
5.300000000000000000e+02 2.775949287414550781e+01 2.878904342651367188e+01 1.445050090551376343e-01 6.054937839508056641e-01 2.249996364116668701e-01 -5.267598628997802734e-01
5.310000000000000000e+02 2.979207611083984375e+01 2.887551879882812500e+01 5.895678400993347168e-01 2.464915752410888672e+00 9.163450598716735840e-01 -1.302274346351623535e+00
5.320000000000000000e+02 2.875174522399902344e+01 2.789068031311035156e+01 5.994705557823181152e-01 8.885399103164672852e-01 4.464031457901000977e-01 -7.799090743064880371e-01
5.330000000000000000e+02 3.060131645202636719e+01 2.596298027038574219e+01 1.140725255012512207e+00 3.144691944122314453e+00 1.285625219345092773e+00 -1.720748066902160645e+00
5.340000000000000000e+02 3.135766220092773438e+01 2.490488433837890625e+01 1.042063832283020020e+00 6.487553596496582031e+00 2.258885145187377930e+00 -1.488514184951782227e+00
5.350000000000000000e+02 3.242198181152343750e+01 2.395729064941406250e+01 8.238641023635864258e-01 7.480220317840576172e+00 2.491225481033325195e+00 -6.400235891342163086e-01
5.360000000000000000e+02 3.188664817810058594e+01 1.811315155029296875e+01 7.124626040458679199e-01 7.845290184020996094e+00 2.567325830459594727e+00 8.547934293746948242e-01
5.370000000000000000e+02 3.235443496704101562e+01 1.558384513854980469e+01 -1.304138779640197754e+00 3.725673198699951172e+00 7.264603376388549805e-01 -1.346891373395919800e-01
5.380000000000000000e+02 4.078245162963867188e+01 2.157916831970214844e+01 -3.794955492019653320e+00 -9.351995587348937988e-02 -1.166542649269104004e+00 -2.226732671260833740e-01
5.390000000000000000e+02 3.933540725708007812e+01 2.182078933715820312e+01 -1.892060995101928711e+00 8.534091711044311523e-01 -3.115955293178558350e-01 -6.591042280197143555e-01
5.400000000000000000e+02 3.931108856201171875e+01 2.030866241455078125e+01 -6.306228041648864746e-01 1.403955459594726562e+00 2.319997847080230713e-01 -2.242015123367309570e+00
5.410000000000000000e+02 3.357965469360351562e+01 1.758652114868164062e+01 8.941357731819152832e-01 3.946619987487792969e+00 1.452226758003234863e+00 -6.803181171417236328e-01
5.420000000000000000e+02 4.466188812255859375e+01 1.389703750610351562e+01 1.053067922592163086e+00 1.419528198242187500e+01 4.574505329132080078e+00 1.936481952667236328e+00
5.430000000000000000e+02 4.495997619628906250e+01 1.530411434173583984e+01 1.777105569839477539e+00 1.270226955413818359e+01 4.343812465667724609e+00 3.425099849700927734e+00
5.440000000000000000e+02 4.458749008178710938e+01 1.250619506835937500e+01 7.551850080490112305e-01 1.370206546783447266e+01 4.337175369262695312e+00 9.469539672136306763e-02
5.450000000000000000e+02 3.784459686279296875e+01 2.184524345397949219e+01 -3.357185125350952148e-01 2.028536319732666016e+00 5.078453421592712402e-01 -1.431002497673034668e+00
5.460000000000000000e+02 3.663251113891601562e+01 2.416262435913085938e+01 1.610568165779113770e+00 3.456465244293212891e+00 1.520110011100769043e+00 -2.189288377761840820e+00
5.470000000000000000e+02 3.382997894287109375e+01 2.580052757263183594e+01 1.155305743217468262e+00 7.430549144744873047e+00 2.575756311416625977e+00 -4.135866463184356689e-01
5.480000000000000000e+02 3.527193450927734375e+01 2.667758560180664062e+01 1.125701665878295898e+00 1.102058792114257812e+01 3.643887042999267578e+00 -1.795180439949035645e+00
5.490000000000000000e+02 3.415761566162109375e+01 2.695456504821777344e+01 1.378154754638671875e+00 8.044361114501953125e+00 2.826754808425903320e+00 -6.319041252136230469e-01
5.500000000000000000e+02 3.562003326416015625e+01 3.088141250610351562e+01 6.801716685295104980e-01 7.235260963439941406e+00 2.374629735946655273e+00 1.754452824592590332e+00
5.510000000000000000e+02 3.532341003417968750e+01 2.952771949768066406e+01 6.161046028137207031e-01 9.455072402954101562e+00 3.021353244781494141e+00 1.189655542373657227e+00
5.520000000000000000e+02 3.600472640991210938e+01 3.215493392944335938e+01 2.123507857322692871e-01 4.697635173797607422e+00 1.472995877265930176e+00 1.289293766021728516e+00
5.530000000000000000e+02 3.564538574218750000e+01 3.395953369140625000e+01 -8.402674198150634766e-01 3.789660453796386719e+00 8.848178982734680176e-01 6.679152846336364746e-01
5.540000000000000000e+02 3.734540176391601562e+01 3.440155029296875000e+01 -1.165436744689941406e+00 2.114322423934936523e+00 2.846657335758209229e-01 7.291796803474426270e-01
5.550000000000000000e+02 2.558633804321289062e+01 2.907792663574218750e+01 -2.812625765800476074e-01 2.533946931362152100e-01 -8.360358886420726776e-03 2.369190007448196411e-02
5.560000000000000000e+02 2.891798019409179688e+01 3.002010536193847656e+01 5.760284066200256348e-01 1.888945341110229492e+00 7.394921183586120605e-01 -1.336090326309204102e+00
5.570000000000000000e+02 6.502405548095703125e+01 2.020896148681640625e+01 -4.302412986755371094e+00 4.063552618026733398e-01 -1.168817281723022461e+00 7.121098041534423828e-01
5.580000000000000000e+02 6.111532211303710938e+01 2.114904785156250000e+01 -1.462556242942810059e+00 6.221328735351562500e+00 1.427631735801696777e+00 3.023852586746215820e+00
5.590000000000000000e+02 6.360395050048828125e+01 2.511006927490234375e+01 1.674758791923522949e+00 7.350848674774169922e+00 2.707682132720947266e+00 2.057711839675903320e+00
5.600000000000000000e+02 6.372108840942382812e+01 1.992811012268066406e+01 6.997889280319213867e-02 3.210240125656127930e+00 9.840657114982604980e-01 2.919056653976440430e+00
5.610000000000000000e+02 6.110411071777343750e+01 1.992181015014648438e+01 1.189215555787086487e-01 7.411425113677978516e+00 2.259104013442993164e+00 2.723982572555541992e+00
5.620000000000000000e+02 5.460245513916015625e+01 1.565140724182128906e+01 6.577480435371398926e-01 5.670394420623779297e+00 1.898442864418029785e+00 -1.139257550239562988e+00
5.630000000000000000e+02 6.152456283569335938e+01 1.746001815795898438e+01 2.754589557647705078e+00 1.212331104278564453e+01 4.463370323181152344e+00 5.171319484710693359e+00
5.640000000000000000e+02 5.351988983154296875e+01 1.856153297424316406e+01 -1.167907595634460449e+00 3.892264127731323242e+00 8.173069357872009277e-01 -2.099958181381225586e+00
5.650000000000000000e+02 5.373051071166992188e+01 1.487463188171386719e+01 1.233572602272033691e+00 4.508147239685058594e+00 1.722515940666198730e+00 -2.235086441040039062e+00
5.660000000000000000e+02 5.283182907104492188e+01 1.597363090515136719e+01 1.013827562332153320e+00 2.717911481857299805e+00 1.119521737098693848e+00 -1.521902918815612793e+00
5.670000000000000000e+02 6.633623504638671875e+01 2.035047531127929688e+01 -6.039344787597656250e+00 -4.386913776397705078e-01 -1.943410873413085938e+00 8.812854886054992676e-01
5.680000000000000000e+02 6.833573913574218750e+01 1.953140640258789062e+01 -3.586722612380981445e+00 5.503951013088226318e-02 -1.059504985809326172e+00 7.648941874504089355e-01
5.690000000000000000e+02 6.926094055175781250e+01 1.857342529296875000e+01 -9.713312387466430664e-01 1.194080352783203125e+00 6.682474911212921143e-02 7.644486427307128906e-02
5.700000000000000000e+02 7.022525024414062500e+01 1.758298683166503906e+01 -1.099066436290740967e-01 2.965400695800781250e+00 8.566482067108154297e-01 -1.239065408706665039e+00
5.710000000000000000e+02 7.177033996582031250e+01 1.516176700592041016e+01 1.207800626754760742e+00 1.171287918090820312e+01 3.876204013824462891e+00 -2.080508947372436523e+00
5.720000000000000000e+02 7.199194335937500000e+01 1.379563236236572266e+01 4.365247488021850586e-01 1.370037078857421875e+01 4.241068363189697266e+00 -1.093771815299987793e+00
5.730000000000000000e+02 7.135703277587890625e+01 9.383489608764648438e+00 2.301864624023437500e+00 8.780799865722656250e+00 3.324799299240112305e+00 3.471811056137084961e+00
5.740000000000000000e+02 7.219851684570312500e+01 8.550031661987304688e+00 5.335645675659179688e-01 9.296616554260253906e+00 2.949054241180419922e+00 1.076218962669372559e+00
5.750000000000000000e+02 6.901556396484375000e+01 7.336677551269531250e+00 7.231409549713134766e-01 1.279553174972534180e+00 6.008082628250122070e-01 1.312123656272888184e+00
5.760000000000000000e+02 6.919373321533203125e+01 4.142189979553222656e+00 1.057174429297447205e-01 2.609427928924560547e+00 8.145436048507690430e-01 2.265228509902954102e+00
5.770000000000000000e+02 6.787215423583984375e+01 6.849342823028564453e+00 -1.088635206222534180e+00 4.608219563961029053e-01 -1.883439868688583374e-01 6.710132360458374023e-01
5.780000000000000000e+02 6.982649993896484375e+01 -7.130892872810363770e-01 -2.993482351303100586e-01 6.694668531417846680e-01 1.110355779528617859e-01 1.114892601966857910e+00
5.790000000000000000e+02 6.704257965087890625e+01 5.871160507202148438e+00 -1.236995935440063477e+00 5.489808917045593262e-01 -2.064045071601867676e-01 1.132461309432983398e+00
5.800000000000000000e+02 6.073306655883789062e+01 1.340165805816650391e+01 3.532946109771728516e-01 1.090958690643310547e+01 3.378864288330078125e+00 4.355403184890747070e-01
5.810000000000000000e+02 1.565199661254882812e+01 2.318603897094726562e+01 -5.030663013458251953e-01 -4.373519718647003174e-01 -2.821255028247833252e-01 -4.402355551719665527e-01
5.820000000000000000e+02 1.031467342376708984e+01 2.259467697143554688e+01 9.556411504745483398e-01 2.253886461257934570e-01 3.543089330196380615e-01 -3.789158165454864502e-01
5.830000000000000000e+02 8.954437255859375000e+00 2.226745223999023438e+01 7.635549902915954590e-01 6.189184188842773438e-01 4.147420227527618408e-01 -4.835348725318908691e-01
5.840000000000000000e+02 7.407285690307617188e+00 2.435960578918457031e+01 8.544349670410156250e-01 1.011590123176574707e+00 5.598075389862060547e-01 -9.287725687026977539e-01
5.850000000000000000e+02 1.859412312507629395e+00 2.597711753845214844e+01 1.055694893002510071e-01 -8.747425079345703125e-01 -2.307519018650054932e-01 -1.649601012468338013e-01
5.860000000000000000e+02 6.207939386367797852e-01 1.914643859863281250e+01 -4.680649377405643463e-03 -1.239646553993225098e+00 -3.732981383800506592e-01 5.058128386735916138e-02
5.870000000000000000e+02 1.893519878387451172e+00 1.623380088806152344e+01 -6.103449035435914993e-03 -7.193576693534851074e-01 -2.176383286714553833e-01 1.221077069640159607e-01
5.880000000000000000e+02 6.083369255065917969e-01 1.490013313293457031e+01 -1.487766508944332600e-03 -9.004155397415161133e-01 -2.705709934234619141e-01 4.185978323221206665e-02
5.890000000000000000e+02 1.750301003456115723e+00 9.310254096984863281e+00 -2.705128164961934090e-03 -3.535960614681243896e-01 -1.068903580307960510e-01 1.283692419528961182e-01
5.900000000000000000e+02 9.587167739868164062e+00 1.097438716888427734e+01 3.832690790295600891e-02 5.162310004234313965e-01 1.663673669099807739e-01 5.026041530072689056e-03
5.910000000000000000e+02 9.536877632141113281e+00 1.351130104064941406e+01 8.852130174636840820e-02 7.849289178848266602e-01 2.620350718498229980e-01 1.588132083415985107e-01
5.920000000000000000e+02 9.538712501525878906e+00 1.226291275024414062e+01 4.698354750871658325e-03 7.048200964927673340e-01 2.128555327653884888e-01 5.785010755062103271e-02
5.930000000000000000e+02 7.831236362457275391e+00 1.391464710235595703e+01 1.049347966909408569e-01 3.344204723834991455e-01 1.318065822124481201e-01 1.605550348758697510e-01
5.940000000000000000e+02 4.541000843048095703e+00 1.640657806396484375e+01 1.853927737101912498e-03 -1.695906221866607666e-01 -5.032100528478622437e-02 1.703084409236907959e-01
5.950000000000000000e+02 1.097821617126464844e+01 1.661514663696289062e+01 2.821097075939178467e-01 4.598523378372192383e-01 2.225886136293411255e-01 2.890717685222625732e-01
5.960000000000000000e+02 1.206042957305908203e+01 1.764314842224121094e+01 5.852614641189575195e-01 2.371526658535003662e-01 2.467242330312728882e-01 2.335662692785263062e-01
5.970000000000000000e+02 5.894857048988342285e-01 2.476587486267089844e+01 7.744063157588243484e-03 -1.644553780555725098e+00 -4.910429120063781738e-01 -7.805458735674619675e-03
5.980000000000000000e+02 3.294455289840698242e+00 2.704999923706054688e+01 2.374958842992782593e-01 -1.313721984624862671e-01 3.183710947632789612e-02 -3.794393241405487061e-01
5.990000000000000000e+02 5.748823165893554688e+00 2.828149795532226562e+01 4.335824400186538696e-02 1.339986085891723633e+00 4.150032997131347656e-01 -1.825757622718811035e-01
6.000000000000000000e+02 5.972383499145507812e+00 3.097656822204589844e+01 -1.225897818803787231e-01 2.183251082897186279e-01 2.872059680521488190e-02 -1.765911132097244263e-01
6.010000000000000000e+02 5.810124874114990234e-01 3.193233108520507812e+01 1.279457565397024155e-02 -2.292190939188003540e-01 -6.492735445499420166e-02 -1.310591250658035278e-01
6.020000000000000000e+02 1.761248946189880371e+00 3.320478439331054688e+01 -4.916189983487129211e-02 2.052864758297801018e-03 -1.413271110504865646e-02 -2.598445713520050049e-01
6.030000000000000000e+02 4.473757266998291016e+00 4.059755706787109375e+01 1.610083878040313721e-02 2.703811414539813995e-02 1.294168643653392792e-02 -2.969967015087604523e-02
6.040000000000000000e+02 1.074778556823730469e+01 3.510306930541992188e+01 -8.035265803337097168e-01 -1.152109429240226746e-01 -2.756212651729583740e-01 -1.638478226959705353e-02
6.050000000000000000e+02 5.830735564231872559e-01 3.329475021362304688e+01 -4.371050745248794556e-02 6.219619140028953552e-02 5.545705091208219528e-03 -9.368009120225906372e-02
6.060000000000000000e+02 5.667373180389404297e+00 3.239002609252929688e+01 -2.661074697971343994e-01 4.366928711533546448e-02 -6.673145294189453125e-02 -2.992194890975952148e-01
6.070000000000000000e+02 9.287268638610839844e+00 3.508535003662109375e+01 -9.076726436614990234e-01 -2.839923799037933350e-01 -3.574995100498199463e-01 -2.402384877204895020e-01
6.080000000000000000e+02 1.184974956512451172e+01 3.617678070068359375e+01 -5.465788841247558594e-01 -3.895302489399909973e-02 -1.756595671176910400e-01 -1.524665653705596924e-01
6.090000000000000000e+02 1.484153461456298828e+01 -2.129416847229003906e+01 5.038929581642150879e-01 5.201602578163146973e-01 3.072159588336944580e-01 5.314881801605224609e-01
6.100000000000000000e+02 1.913284111022949219e+01 -2.308521842956542969e+01 1.055180430412292480e+00 -1.489898413419723511e-01 2.718571722507476807e-01 1.179670810699462891e+00
6.110000000000000000e+02 1.821583557128906250e+01 -2.642321777343750000e+01 7.925929874181747437e-02 1.109525859355926514e-01 5.706356465816497803e-02 8.165683150291442871e-01
6.120000000000000000e+02 1.484811305999755859e+01 -2.858058738708496094e+01 1.310873746871948242e+00 1.914611339569091797e+00 9.676455259323120117e-01 1.349980711936950684e+00
6.130000000000000000e+02 1.409526920318603516e+01 -2.980534934997558594e+01 8.833631277084350586e-01 2.259654998779296875e+00 9.429054260253906250e-01 1.333783388137817383e+00
6.140000000000000000e+02 2.023270034790039062e+01 -2.652524948120117188e+01 -1.741851329803466797e+00 -8.189689517021179199e-01 -7.682461142539978027e-01 1.226049661636352539e+00
6.150000000000000000e+02 2.205497550964355469e+01 -2.631606483459472656e+01 -7.997157573699951172e-01 1.240625083446502686e-01 -2.026959657669067383e-01 5.969884395599365234e-01
6.160000000000000000e+02 2.320221519470214844e+01 -1.358919239044189453e+01 -3.039631128311157227e+00 -1.397154778242111206e-01 -9.538039565086364746e-01 -4.017216861248016357e-01
6.170000000000000000e+02 1.592073059082031250e+01 -1.693156814575195312e+01 1.266903728246688843e-01 4.521570205688476562e-01 1.736542135477066040e-01 -2.536587715148925781e-01
6.180000000000000000e+02 1.606468772888183594e+01 -1.824128150939941406e+01 1.183247640728950500e-01 2.582635879516601562e-01 1.129765063524246216e-01 -8.415773510932922363e-03
6.190000000000000000e+02 1.663025665283203125e+01 -1.939418220520019531e+01 4.022655487060546875e-01 2.307286560535430908e-01 1.898982673883438110e-01 2.442849576473236084e-01
6.200000000000000000e+02 1.254539012908935547e+01 -3.498975753784179688e+01 1.203339663334190845e-03 1.752053260803222656e+00 5.259770154953002930e-01 1.948121637105941772e-01
6.210000000000000000e+02 1.243420886993408203e+01 -3.051233482360839844e+01 7.053878307342529297e-01 1.784089922904968262e+00 7.468433380126953125e-01 7.257004380226135254e-01
6.220000000000000000e+02 9.524933815002441406e+00 -3.367417907714843750e+01 3.077517151832580566e-01 8.441303372383117676e-01 3.455646336078643799e-01 5.887055397033691406e-01
6.230000000000000000e+02 1.139972782135009766e+01 -2.450245857238769531e+01 2.892729938030242920e-01 3.561789095401763916e-01 1.936355680227279663e-01 1.730761229991912842e-01
6.240000000000000000e+02 1.035722351074218750e+01 -2.311216354370117188e+01 -1.962560713291168213e-01 1.841910369694232941e-02 -5.335109308362007141e-02 -5.736923962831497192e-02
6.250000000000000000e+02 1.166301345825195312e+01 -2.296504402160644531e+01 -8.340523391962051392e-02 1.555028855800628662e-01 2.162929438054561615e-02 1.007472425699234009e-01
6.260000000000000000e+02 3.151196670532226562e+01 -1.604611206054687500e+01 -8.273964524269104004e-01 3.325931787490844727e+00 7.495605945587158203e-01 1.688509106636047363e+00
6.270000000000000000e+02 2.761145210266113281e+01 -1.152410411834716797e+01 4.190026283264160156e+00 4.779623031616210938e+00 2.690894842147827148e+00 4.356969356536865234e+00
6.280000000000000000e+02 1.722006988525390625e+01 -8.411175727844238281e+00 -1.863604038953781128e-02 1.038414835929870605e-01 2.556163258850574493e-02 3.459217399358749390e-02
6.290000000000000000e+02 1.269151973724365234e+01 -1.243351745605468750e+01 -9.237181395292282104e-02 1.400663256645202637e-01 1.430835109204053879e-02 -1.177288517355918884e-01
6.300000000000000000e+02 1.701327514648437500e+01 -9.879138946533203125e+00 -2.890523374080657959e-01 4.812290146946907043e-02 -7.227882742881774902e-02 1.596689969301223755e-01
6.310000000000000000e+02 3.405991744995117188e+01 -1.502323246002197266e+01 -8.080630302429199219e+00 -9.121924042701721191e-01 -2.697846889495849609e+00 -1.555187720805406570e-02
6.320000000000000000e+02 3.839538192749023438e+01 -1.394558715820312500e+01 -2.587805747985839844e+00 5.651748657226562500e+00 9.191828966140747070e-01 -2.642546415328979492e+00
6.330000000000000000e+02 3.785147094726562500e+01 -1.727346229553222656e+01 2.054827213287353516e+00 5.806032657623291016e+00 2.358258008956909180e+00 -3.486742973327636719e+00
6.340000000000000000e+02 3.984549713134765625e+01 -2.233110427856445312e+01 1.395120918750762939e-01 9.024471282958984375e+00 2.749195098876953125e+00 -1.859500408172607422e-01
6.350000000000000000e+02 4.386665344238281250e+01 -2.195298957824707031e+01 3.202464342117309570e+00 4.592607975006103516e+00 2.338521718978881836e+00 2.224434614181518555e-01
6.360000000000000000e+02 4.164356613159179688e+01 -2.711242675781250000e+01 -2.298683643341064453e+00 4.209762573242187500e+00 5.733237266540527344e-01 1.775334358215332031e+00
6.370000000000000000e+02 4.216938400268554688e+01 -2.790028190612792969e+01 -5.385375022888183594e+00 8.815443515777587891e-02 -1.589166283607482910e+00 -1.097507476806640625e+00
6.380000000000000000e+02 4.068925476074218750e+01 -2.756441688537597656e+01 -3.220139980316162109e+00 6.817131042480468750e+00 1.079097390174865723e+00 1.673027396202087402e+00
6.390000000000000000e+02 2.872230529785156250e+01 -2.235447120666503906e+01 1.285618782043457031e+00 1.167844676971435547e+01 3.889219522476196289e+00 -6.604001522064208984e-01
6.400000000000000000e+02 2.735958862304687500e+01 -2.209158134460449219e+01 1.929202914237976074e+00 7.103725433349609375e+00 2.709878683090209961e+00 7.829898595809936523e-01
6.410000000000000000e+02 2.909008407592773438e+01 -1.959077835083007812e+01 1.899697780609130859e+00 1.151592445373535156e+01 4.024686813354492188e+00 2.867292881011962891e+00
6.420000000000000000e+02 3.050143623352050781e+01 -1.709826469421386719e+01 1.581954598426818848e+00 6.726431846618652344e+00 2.492516040802001953e+00 3.175994396209716797e+00
6.430000000000000000e+02 3.276629638671875000e+01 -1.534263134002685547e+01 -4.824302196502685547e+00 8.323368430137634277e-01 -1.197589635848999023e+00 -4.352709352970123291e-01
6.440000000000000000e+02 1.648227500915527344e+01 4.686474323272705078e+00 -1.432059258222579956e-01 -1.329603791236877441e-01 -8.284988999366760254e-02 1.345583498477935791e-01
6.450000000000000000e+02 1.605351448059082031e+01 3.173984289169311523e+00 -6.695222258567810059e-01 -5.506627261638641357e-02 -2.173765599727630615e-01 1.248183026909828186e-01
6.460000000000000000e+02 1.547313213348388672e+01 6.553007602691650391e+00 6.158299446105957031e-01 3.343271091580390930e-02 1.947787851095199585e-01 1.693828701972961426e-01
6.470000000000000000e+02 1.373328971862792969e+01 2.765443563461303711e+00 -5.566894412040710449e-01 3.269163519144058228e-02 -1.571993380784988403e-01 1.110905110836029053e-01
6.480000000000000000e+02 1.155216026306152344e+01 2.203655958175659180e+00 -4.261956512928009033e-01 4.238981381058692932e-02 -1.151417493820190430e-01 8.549541234970092773e-02
6.490000000000000000e+02 1.201952171325683594e+01 5.162144660949707031e+00 -9.523382037878036499e-02 1.062460127286612988e-03 -2.825140953063964844e-02 1.747065335512161255e-01
6.500000000000000000e+02 1.092105293273925781e+01 2.137594461441040039e+00 -3.766712248325347900e-01 3.158283978700637817e-02 -1.035265102982521057e-01 7.648769021034240723e-02
6.510000000000000000e+02 6.440261006355285645e-01 6.409597873687744141e+00 -1.761119230650365353e-03 -2.218797504901885986e-01 -6.709226220846176147e-02 4.512977600097656250e-02
6.520000000000000000e+02 2.451532840728759766e+00 4.038547992706298828e+00 -3.722644597291946411e-02 -7.425992935895919800e-02 -3.344590961933135986e-02 1.014065369963645935e-01
6.530000000000000000e+02 1.046774101257324219e+01 9.109871864318847656e+00 3.362661227583885193e-03 1.469984352588653564e-01 4.510832950472831726e-02 -3.363351151347160339e-02
6.540000000000000000e+02 5.446117782592773438e+01 1.371520709991455078e+01 1.252315998077392578e+00 7.948167800903320312e+00 2.760145187377929688e+00 -1.553002476692199707e+00
6.550000000000000000e+02 7.722972393035888672e+00 -2.304836845397949219e+01 2.409308999776840210e-01 2.622776031494140625e-01 1.509625613689422607e-01 -2.786700427532196045e-01
6.560000000000000000e+02 8.997887611389160156e+00 -2.320111465454101562e+01 -3.002804890275001526e-02 4.649240896105766296e-02 4.939307924360036850e-03 -1.365189701318740845e-01
6.570000000000000000e+02 4.802349567413330078e+00 -1.883810806274414062e+01 7.372476160526275635e-02 3.046611845493316650e-01 1.135157868266105652e-01 -1.846964508295059204e-01
6.580000000000000000e+02 3.358053207397460938e+00 -2.157828330993652344e+01 1.309038847684860229e-01 -1.841723322868347168e-01 -1.598053239285945892e-02 -1.243577525019645691e-01
6.590000000000000000e+02 2.966951131820678711e+00 -1.941077804565429688e+01 9.258493036031723022e-02 -2.313362210988998413e-01 -4.162538424134254456e-02 -2.704237401485443115e-01
6.600000000000000000e+02 3.217614889144897461e+00 -1.725827217102050781e+01 -5.352733656764030457e-02 -1.157532781362533569e-01 -5.078418552875518799e-02 -2.984363734722137451e-01
6.610000000000000000e+02 5.915834903717041016e+00 -1.584085655212402344e+01 -1.594987809658050537e-01 -2.346475869417190552e-01 -1.182439103722572327e-01 -2.091815918684005737e-01
6.620000000000000000e+02 6.783289432525634766e+00 -1.484114456176757812e+01 -2.421061545610427856e-01 -2.948915660381317139e-01 -1.610993146896362305e-01 -2.291508466005325317e-01
6.630000000000000000e+02 9.311989784240722656e+00 -1.201294708251953125e+01 -3.735628724098205566e-01 -2.076511979103088379e-01 -1.743642240762710571e-01 -1.372188925743103027e-01
6.640000000000000000e+02 1.042205333709716797e+01 -1.246378517150878906e+01 -3.882977664470672607e-01 -6.577105820178985596e-02 -1.362206488847732544e-01 -6.656561046838760376e-02
6.650000000000000000e+02 8.657274246215820312e+00 -1.297094535827636719e+01 -3.870919644832611084e-01 -2.219640314579010010e-01 -1.827168017625808716e-01 -2.316316217184066772e-01
6.660000000000000000e+02 1.217269039154052734e+01 -1.390070796012878418e+00 -4.180880635976791382e-02 -1.427345443516969681e-02 -1.682467758655548096e-02 -5.273952707648277283e-02
6.670000000000000000e+02 9.151471138000488281e+00 -2.512462615966796875e+00 -4.817108623683452606e-03 -2.732833474874496460e-02 -9.643632918596267700e-03 -3.924205526709556580e-02
6.680000000000000000e+02 9.822664260864257812e+00 -1.802657604217529297e+00 -1.211967226117849350e-02 -2.316964231431484222e-02 -1.058679446578025818e-02 -3.944171220064163208e-02
6.690000000000000000e+02 4.315650463104248047e+00 -1.940138578414916992e+00 1.376090664416551590e-02 -2.720811404287815094e-03 3.312028711661696434e-03 1.109640020877122879e-02
6.700000000000000000e+02 1.727646827697753906e+00 -1.471393489837646484e+01 -5.591731891036033630e-02 -8.491974323987960815e-02 -4.225111752748489380e-02 -1.258458048105239868e-01
6.710000000000000000e+02 4.919110298156738281e+00 -1.656159210205078125e+01 -1.465926319360733032e-01 -1.444609910249710083e-01 -8.731608837842941284e-02 -1.730392575263977051e-01
6.720000000000000000e+02 6.143151092529296875e+01 -3.869539642333984375e+01 -3.738511323928833008e+00 -7.378914356231689453e-01 -1.342920780181884766e+00 1.617873907089233398e-01
6.730000000000000000e+02 5.806523895263671875e+01 -3.894634628295898438e+01 -1.718801259994506836e+00 3.321081399917602539e+00 4.806840419769287109e-01 -1.424968123435974121e+00
6.740000000000000000e+02 6.603772735595703125e+01 -2.427713012695312500e+01 2.794617414474487305e+00 7.413051605224609375e+00 3.062300682067871094e+00 -4.631343841552734375e+00
6.750000000000000000e+02 6.119076156616210938e+01 -2.647197151184082031e+01 -4.583199977874755859e+00 -3.675509989261627197e-01 -1.485225319862365723e+00 -3.557984828948974609e-01
6.760000000000000000e+02 6.465863037109375000e+01 -2.161937522888183594e+01 2.056899070739746094e+00 1.202434349060058594e+01 4.224372863769531250e+00 -2.316927433013916016e+00
6.770000000000000000e+02 6.697947692871093750e+01 -1.641477203369140625e+01 -2.620505571365356445e+00 1.491005271673202515e-01 -7.414214611053466797e-01 -3.239653110504150391e-01
6.780000000000000000e+02 5.158046340942382812e+01 -1.187205314636230469e+01 1.096531391143798828e+00 4.387394905090332031e+00 1.645177841186523438e+00 -1.819813132286071777e+00
6.790000000000000000e+02 4.833592987060546875e+01 -8.605104446411132812e+00 1.875952243804931641e+00 1.079582405090332031e+01 3.801532745361328125e+00 -1.391353309154510498e-01
6.800000000000000000e+02 5.291099548339843750e+01 -1.621060371398925781e+01 -9.708859324455261230e-01 2.310025453567504883e+00 4.017418324947357178e-01 -1.861506462097167969e+00
6.810000000000000000e+02 5.519546890258789062e+01 -1.868677711486816406e+01 1.671305656433105469e+00 9.877614974975585938e+00 3.464676380157470703e+00 -2.396738052368164062e+00
6.820000000000000000e+02 5.552831649780273438e+01 -2.071998023986816406e+01 8.438248634338378906e-01 1.143294048309326172e+01 3.683029651641845703e+00 -2.636685073375701904e-01
6.830000000000000000e+02 5.475210189819335938e+01 -2.603510284423828125e+01 -2.432370662689208984e+00 7.453711032867431641e+00 1.506402134895324707e+00 2.802668333053588867e+00
6.840000000000000000e+02 5.820103454589843750e+01 -2.800791549682617188e+01 4.476189315319061279e-01 4.623764514923095703e+00 1.521414995193481445e+00 2.024428844451904297e+00
6.850000000000000000e+02 5.306941604614257812e+01 -2.570493316650390625e+01 -2.941920280456542969e+00 2.293034553527832031e+00 -1.946656852960586548e-01 1.521606206893920898e+00
6.860000000000000000e+02 2.034170150756835938e+01 -7.248975634574890137e-01 1.095912456512451172e-01 5.667458847165107727e-02 4.987975209951400757e-02 1.056156009435653687e-01
6.870000000000000000e+02 1.846590423583984375e+01 -2.464549779891967773e+00 8.308174461126327515e-02 1.254974901676177979e-01 6.257377564907073975e-02 7.456366717815399170e-02
6.880000000000000000e+02 1.741649246215820312e+01 -5.162592887878417969e+00 2.709183376282453537e-03 1.928303837776184082e-01 5.866187065839767456e-02 3.169780597090721130e-02
6.890000000000000000e+02 3.528443098068237305e+00 -1.950971007347106934e+00 9.185859002172946930e-03 -2.622065134346485138e-03 1.969137927517294884e-03 1.005115546286106110e-02
6.900000000000000000e+02 3.428869724273681641e+00 -3.786240386962890625e+01 -9.765887632966041565e-03 1.582154929637908936e-01 4.453488439321517944e-02 3.309880197048187256e-01
6.910000000000000000e+02 2.623773956298828125e+01 -3.852208328247070312e+01 -6.814349293708801270e-01 4.014089584350585938e+00 9.997964501380920410e-01 -5.413266420364379883e-01
6.920000000000000000e+02 2.727753257751464844e+01 -2.999286651611328125e+01 -1.106549501419067383e+00 4.650015354156494141e+00 1.063039660453796387e+00 2.797996401786804199e-01
6.930000000000000000e+02 2.499822616577148438e+01 -3.211064147949218750e+01 3.547926545143127441e-01 5.841520309448242188e+00 1.858893871307373047e+00 -4.705922603607177734e-01
6.940000000000000000e+02 4.052131271362304688e+01 -3.607838439941406250e+01 -3.866635262966156006e-01 1.171379685401916504e+00 2.354148477315902710e-01 -3.771463632583618164e-01
6.950000000000000000e+02 3.827276992797851562e+01 -3.659798812866210938e+01 -1.250531911849975586e+00 4.369243144989013672e+00 9.356133341789245605e-01 8.498083949089050293e-01
6.960000000000000000e+02 2.874909782409667969e+01 -3.898281860351562500e+01 -7.808120846748352051e-01 3.733343124389648438e+00 8.857592940330505371e-01 -3.540914356708526611e-01
6.970000000000000000e+02 7.814791870117187500e+01 -3.042845344543457031e+01 -5.100567266345024109e-02 7.302963256835937500e+00 2.175587415695190430e+00 3.951650485396385193e-02
6.980000000000000000e+02 7.371199035644531250e+01 -2.080494117736816406e+01 5.042230486869812012e-01 1.268533039093017578e+01 3.956866025924682617e+00 -1.113296151161193848e+00
6.990000000000000000e+02 7.932973480224609375e+01 2.867435455322265625e+00 -7.456729561090469360e-02 8.963169097900390625e+00 2.666580438613891602e+00 -2.521854043006896973e-01
7.000000000000000000e+02 7.944303894042968750e+01 1.254635334014892578e+01 4.108184948563575745e-02 5.196379184722900391e+00 1.571238398551940918e+00 7.097195833921432495e-02
7.010000000000000000e+02 7.938912963867187500e+01 1.667448616027832031e+01 3.072482161223888397e-02 6.718454837799072266e+00 2.024754047393798828e+00 3.122067451477050781e-01
7.020000000000000000e+02 7.926078033447265625e+01 3.204000091552734375e+01 3.271399065852165222e-02 7.558648586273193359e+00 2.277408838272094727e+00 2.044222690165042877e-02
7.030000000000000000e+02 7.898040771484375000e+01 3.887493515014648438e+01 -4.939826577901840210e-02 7.854825496673583984e+00 2.341628074645996094e+00 -1.372302323579788208e-02
7.040000000000000000e+02 7.181304168701171875e+01 3.574744033813476562e+01 -1.120769828557968140e-01 6.143695831298828125e+00 1.809485673904418945e+00 4.751723408699035645e-01
7.050000000000000000e+02 7.578185272216796875e+01 3.853081893920898438e+01 -1.716017872095108032e-01 7.089717864990234375e+00 2.075434684753417969e+00 2.067180126905441284e-01
7.060000000000000000e+02 3.895792007446289062e+01 3.473662567138671875e+01 -2.351034164428710938e+00 2.005360275506973267e-01 -6.451494097709655762e-01 2.905963957309722900e-01
7.070000000000000000e+02 1.944913268089294434e+00 4.167047882080078125e+01 4.731148853898048401e-02 2.460528910160064697e-01 8.800931274890899658e-02 1.323145534843206406e-02
7.080000000000000000e+02 3.537470817565917969e+00 3.840481185913085938e+01 -7.319375127553939819e-02 1.327274143695831299e-01 1.786009967327117920e-02 -5.135983973741531372e-02
7.090000000000000000e+02 2.938371849060058594e+01 -9.293859481811523438e+00 3.077098369598388672e+00 1.529488945007324219e+01 5.511596202850341797e+00 4.952933788299560547e+00
7.100000000000000000e+02 7.803796386718750000e+01 4.463550567626953125e+00 -8.939421176910400391e-02 7.793325424194335938e+00 2.311179399490356445e+00 -7.674843668937683105e-01
7.110000000000000000e+02 7.938794708251953125e+01 8.438632011413574219e+00 9.550061076879501343e-03 6.229598045349121094e+00 1.871744513511657715e+00 -2.811607122421264648e-01
7.120000000000000000e+02 7.197519683837890625e+01 1.046363830566406250e+01 1.863238096237182617e+00 1.291142272949218750e+01 4.432398319244384766e+00 2.488267421722412109e+00
7.130000000000000000e+02 4.859974670410156250e+01 6.345865249633789062e+00 -2.413236379623413086e+00 -8.180818557739257812e-01 -9.693954586982727051e-01 9.585574269294738770e-01
7.140000000000000000e+02 3.967744445800781250e+01 4.777503967285156250e+00 2.312619447708129883e+00 1.471541500091552734e+01 5.108410358428955078e+00 2.709342956542968750e+00
7.150000000000000000e+02 3.870615386962890625e+01 2.825329065322875977e+00 4.205071449279785156e+00 9.400718688964843750e+00 4.081737041473388672e+00 4.682863235473632812e+00
7.160000000000000000e+02 5.800095367431640625e+01 1.074313521385192871e+00 -1.809728860855102539e+00 1.900715351104736328e+00 2.729596197605133057e-02 -1.472238063812255859e+00
7.170000000000000000e+02 5.870313262939453125e+01 2.861891746520996094e+00 -8.848258852958679199e-01 3.973118305206298828e+00 9.264876842498779297e-01 -1.915161848068237305e+00
7.180000000000000000e+02 6.246406555175781250e+01 9.051123619079589844e+00 7.670660018920898438e-01 2.412645578384399414e+00 9.539134502410888672e-01 -1.296939134597778320e+00
7.190000000000000000e+02 4.494549560546875000e+01 -2.705838012695312500e+01 -2.872020959854125977e+00 1.180814385414123535e+00 -5.073619484901428223e-01 -1.273305535316467285e+00
7.200000000000000000e+02 4.719120407104492188e+01 -2.218023681640625000e+01 2.973300695419311523e+00 9.352129936218261719e+00 3.697629213333129883e+00 -4.200896739959716797e+00
7.210000000000000000e+02 5.189710235595703125e+01 -3.402801132202148438e+01 1.986126422882080078e+00 7.327859878540039062e+00 2.794195890426635742e+00 -8.220235705375671387e-01
7.220000000000000000e+02 2.102609443664550781e+01 1.063176918029785156e+01 -6.063257530331611633e-02 1.544468998908996582e+00 4.451509416103363037e-01 -1.165648818016052246e+00
7.230000000000000000e+02 2.225408554077148438e+01 1.119478225708007812e+01 5.842774733901023865e-02 2.472510099411010742e+00 7.592813372611999512e-01 -1.994043231010437012e+00
7.240000000000000000e+02 2.366846847534179688e+01 1.726096153259277344e+01 6.691862940788269043e-01 3.163169145584106445e+00 1.149706602096557617e+00 -1.497577786445617676e+00
7.250000000000000000e+02 2.236677169799804688e+01 1.620260810852050781e+01 -4.758149981498718262e-01 4.050797939300537109e+00 1.072494864463806152e+00 -5.937609076499938965e-01
7.260000000000000000e+02 2.935094833374023438e+01 9.173557281494140625e+00 1.178114533424377441e+00 8.581468582153320312e+00 2.927874803543090820e+00 1.973361611366271973e+00
7.270000000000000000e+02 2.230881309509277344e+01 -1.368047428131103516e+01 -3.180195093154907227e+00 -4.289068877696990967e-01 -1.082730531692504883e+00 2.225815206766128540e-01
7.280000000000000000e+02 3.716624450683593750e+01 -9.042718887329101562e+00 2.122780323028564453e+00 1.129204940795898438e+01 4.024448871612548828e+00 -2.631471395492553711e+00
7.290000000000000000e+02 6.682546997070312500e+01 3.142238807678222656e+01 8.199064135551452637e-01 5.460814476013183594e+00 1.884216308593750000e+00 9.265421032905578613e-01
7.300000000000000000e+02 7.246627807617187500e+01 2.963302803039550781e+01 6.914026141166687012e-01 5.653450965881347656e+00 1.903456091880798340e+00 7.079110294580459595e-02
7.310000000000000000e+02 5.413543319702148438e+01 3.294868850708007812e+01 1.569517016410827637e+00 7.854215621948242188e+00 2.827119827270507812e+00 2.570590972900390625e+00
7.320000000000000000e+02 4.745643615722656250e+01 3.287803649902343750e+01 -4.134674072265625000e-01 5.425670146942138672e+00 1.503660917282104492e+00 -3.954515159130096436e-01
7.330000000000000000e+02 4.627705383300781250e+01 3.052970695495605469e+01 8.178861737251281738e-01 6.140305519104003906e+00 2.087457418441772461e+00 -9.041541218757629395e-01
7.340000000000000000e+02 4.596632385253906250e+01 2.499791526794433594e+01 2.366783618927001953e+00 1.076528644561767578e+01 3.939621210098266602e+00 3.338609218597412109e+00
7.350000000000000000e+02 6.962524414062500000e+01 2.040569686889648438e+01 -2.321440696716308594e+00 3.599701881408691406e+00 3.834784030914306641e-01 -1.373320937156677246e+00
7.360000000000000000e+02 3.433859634399414062e+01 2.407858657836914062e+01 5.733191370964050293e-01 6.843022823333740234e+00 2.224902629852294922e+00 -4.608523547649383545e-01
7.370000000000000000e+02 4.824732208251953125e+01 2.176541709899902344e+01 -3.704682588577270508e-01 4.148672103881835938e+00 1.133461236953735352e+00 1.230971693992614746e+00
7.380000000000000000e+02 8.588893890380859375e+00 1.925168800354003906e+01 2.054983228445053101e-01 4.639190733432769775e-01 2.008252143859863281e-01 -1.247498616576194763e-01
7.390000000000000000e+02 9.070148468017578125e+00 1.465118789672851562e+01 1.409344822168350220e-01 6.578340530395507812e-01 2.396305501461029053e-01 1.718893349170684814e-01
7.400000000000000000e+02 2.241324615478515625e+01 2.293424987792968750e+01 1.845087110996246338e-01 7.439113140106201172e+00 2.287086486816406250e+00 9.785397648811340332e-01
7.410000000000000000e+02 2.318876838684082031e+01 2.778083419799804688e+01 2.023629657924175262e-02 2.640770673751831055e+00 7.983021140098571777e-01 2.649662494659423828e-01
7.420000000000000000e+02 5.683137774467468262e-01 -1.064748764038085938e+01 -9.837306104600429535e-03 8.959069103002548218e-02 2.392601408064365387e-02 -2.031059935688972473e-03
7.430000000000000000e+02 6.123034667968750000e+01 -4.765762805938720703e+00 3.167343735694885254e-01 1.082967567443847656e+01 3.343922853469848633e+00 -6.684673428535461426e-01
7.440000000000000000e+02 6.022630691528320312e+00 -2.183881759643554688e+01 3.503156304359436035e-01 4.470849931240081787e-01 2.392201870679855347e-01 -3.785605728626251221e-01
7.450000000000000000e+02 6.041242218017578125e+01 -2.126657009124755859e+00 2.287809848785400391e+00 8.064768791198730469e+00 3.105773448944091797e+00 -3.661280393600463867e+00
7.460000000000000000e+02 5.412470245361328125e+01 -8.674574851989746094e+00 1.872909069061279297e+00 3.210668563842773438e+00 1.525073289871215820e+00 -2.332318305969238281e+00
7.470000000000000000e+02 5.238493347167968750e+01 -4.364324569702148438e+00 8.630964159965515137e-01 1.131595802307128906e+01 3.653716325759887695e+00 6.985879540443420410e-01
7.480000000000000000e+02 4.666616821289062500e+01 -2.863183403015136719e+01 1.671343445777893066e+00 2.634786844253540039e+00 1.291839003562927246e+00 -2.264669656753540039e+00
7.490000000000000000e+02 4.437433242797851562e+01 -3.864553451538085938e+01 -3.207901716232299805e+00 -1.409969478845596313e-01 -1.004669666290283203e+00 -7.428129017353057861e-02
7.500000000000000000e+02 4.114237976074218750e+01 -2.855699157714843750e+01 -1.240458488464355469e+00 4.148162364959716797e+00 8.723111152648925781e-01 7.945417761802673340e-01
7.510000000000000000e+02 3.953002548217773438e+01 7.472481250762939453e+00 7.766677737236022949e-01 1.301841640472412109e+01 4.138525485992431641e+00 -8.174100518226623535e-01
7.520000000000000000e+02 3.104740142822265625e+01 1.188511180877685547e+01 -8.064081668853759766e-01 2.919334650039672852e+00 6.338779926300048828e-01 2.099855422973632812e+00
7.530000000000000000e+02 7.495116424560546875e+01 -9.544187545776367188e+00 1.172338247299194336e+00 1.169674110412597656e+01 3.860723733901977539e+00 2.038004636764526367e+00
7.540000000000000000e+02 6.604159545898437500e+01 -9.474183082580566406e+00 1.422323703765869141e+00 6.149897575378417969e+00 2.271666288375854492e+00 -2.772693634033203125e+00
7.550000000000000000e+02 6.391320800781250000e+01 -5.637755870819091797e+00 1.931840658187866211e+00 9.695609092712402344e+00 3.488234996795654297e+00 1.005028262734413147e-01
7.560000000000000000e+02 6.479387664794921875e+01 2.817839813232421875e+01 1.575062751770019531e+00 7.223118782043457031e+00 2.639454603195190430e+00 1.790322422981262207e+00
7.570000000000000000e+02 5.974230957031250000e+01 2.350419616699218750e+01 -3.828657150268554688e+00 7.547807097434997559e-01 -9.221629500389099121e-01 2.538745999336242676e-01
7.580000000000000000e+02 5.498992919921875000e+01 3.397675704956054688e+01 1.305972933769226074e+00 4.749752998352050781e+00 1.816717863082885742e+00 2.427443265914916992e+00
7.590000000000000000e+02 4.778618240356445312e+01 3.053344154357910156e+01 7.133637666702270508e-01 6.615668773651123047e+00 2.198709726333618164e+00 3.015269041061401367e-01
7.600000000000000000e+02 4.617329406738281250e+01 2.631364631652832031e+01 1.059713006019592285e+00 1.127317333221435547e+01 3.699866056442260742e+00 1.615800976753234863e+00
7.610000000000000000e+02 4.359508895874023438e+01 2.241053962707519531e+01 -5.335209369659423828e-01 2.556082487106323242e+00 6.067684888839721680e-01 1.795525550842285156e+00
7.620000000000000000e+02 3.579894256591796875e+01 2.531627082824707031e+01 1.827698230743408203e+00 7.676329612731933594e+00 2.851208209991455078e+00 -2.683146238327026367e+00
7.630000000000000000e+02 3.175023269653320312e+01 2.053436279296875000e+01 1.458159089088439941e-01 7.581574440002441406e+00 2.318217039108276367e+00 -8.189035952091217041e-02
7.640000000000000000e+02 3.231928253173828125e+01 1.707300567626953125e+01 1.588986158370971680e+00 5.929351329803466797e+00 2.255501270294189453e+00 8.274210095405578613e-01
7.650000000000000000e+02 2.838303756713867188e+01 1.515959358215332031e+01 -5.615229129791259766e+00 3.265865743160247803e-01 -1.586592793464660645e+00 3.698996603488922119e-01
7.660000000000000000e+02 2.250464439392089844e+01 1.889973640441894531e+01 1.058306932449340820e+00 6.648375988006591797e+00 2.312005043029785156e+00 -1.786939382553100586e+00
7.670000000000000000e+02 2.167840194702148438e+01 2.733204650878906250e+01 -7.402957230806350708e-02 4.566329956054687500e+00 1.347690105438232422e+00 -2.832286059856414795e-01
7.680000000000000000e+02 7.115523529052734375e+01 1.647553253173828125e+01 1.096164822578430176e+00 6.985236644744873047e+00 2.424420356750488281e+00 -2.213585138320922852e+00
7.690000000000000000e+02 7.281033325195312500e+01 1.152793025970458984e+01 1.626997947692871094e+00 1.251401329040527344e+01 4.242303371429443359e+00 9.875378012657165527e-01
7.700000000000000000e+02 6.107524871826171875e+01 1.067033004760742188e+01 1.065419197082519531e+00 6.640682220458984375e+00 2.311830520629882812e+00 -1.554543137550354004e+00
7.710000000000000000e+02 6.079333877563476562e+01 1.480930709838867188e+01 7.794954180717468262e-01 1.269934177398681641e+01 4.043651103973388672e+00 1.698628902435302734e+00
7.720000000000000000e+02 6.210959625244140625e+01 1.861315536499023438e+01 3.830352306365966797e+00 9.099647521972656250e+00 3.878999948501586914e+00 5.125198364257812500e+00
7.730000000000000000e+02 1.346654319763183594e+01 3.467721939086914062e+01 -6.353256106376647949e-01 5.086799338459968567e-02 -1.753372848033905029e-01 2.479820698499679565e-02
7.740000000000000000e+02 1.492698574066162109e+01 3.433559036254882812e+01 -4.487959742546081543e-01 -3.391086123883724213e-03 -1.356561183929443359e-01 -2.899219468235969543e-02
7.750000000000000000e+02 1.988722991943359375e+01 3.233409118652343750e+01 3.227251172065734863e-01 3.581706523895263672e+00 1.171329498291015625e+00 -5.854023694992065430e-01
7.760000000000000000e+02 2.298123168945312500e+01 2.544943428039550781e+01 2.344182729721069336e-01 4.836202144622802734e+00 1.521186113357543945e+00 9.671062231063842773e-01
7.770000000000000000e+02 1.430948352813720703e+01 2.185232734680175781e+01 4.061085283756256104e-01 -2.688758969306945801e-01 4.116979613900184631e-02 -2.922606766223907471e-01
7.780000000000000000e+02 1.301361083984375000e+01 2.271095085144042969e+01 2.941954731941223145e-01 -6.098184734582901001e-02 6.996408849954605103e-02 -1.049720719456672668e-01
7.790000000000000000e+02 6.452569961547851562e+00 2.545589637756347656e+01 8.359553217887878418e-01 1.573968529701232910e+00 7.229771614074707031e-01 -8.869934082031250000e-01
7.800000000000000000e+02 6.842793464660644531e+00 3.312538909912109375e+01 -3.470529913902282715e-01 -2.137369513511657715e-01 -1.682369858026504517e-01 -2.788038849830627441e-01
7.810000000000000000e+02 2.425001335144042969e+01 -3.007142639160156250e+01 -2.138182818889617920e-01 3.777392387390136719e+00 1.069072246551513672e+00 -4.107692539691925049e-01
7.820000000000000000e+02 2.495623016357421875e+01 -3.630672454833984375e+01 2.332191467285156250e-01 5.683273792266845703e+00 1.774947881698608398e+00 4.033992290496826172e-01
7.830000000000000000e+02 1.886851882934570312e+01 -4.084105300903320312e+01 -2.118255376815795898e+00 -3.985465168952941895e-01 -7.550405859947204590e-01 -2.691659331321716309e-01
7.840000000000000000e+02 1.270445728302001953e+01 -3.367632293701171875e+01 2.053510099649429321e-01 2.275233507156372070e+00 7.441753745079040527e-01 3.202906847000122070e-01
7.850000000000000000e+02 1.299256038665771484e+01 -3.233889007568359375e+01 3.153840005397796631e-01 2.620785474777221680e+00 8.808508515357971191e-01 7.000359296798706055e-01
7.860000000000000000e+02 1.707160377502441406e+01 -2.686295127868652344e+01 1.595135331153869629e+00 8.500184416770935059e-01 7.335461378097534180e-01 9.016650915145874023e-01
7.870000000000000000e+02 3.860006332397460938e+01 -1.840887832641601562e+01 2.152587652206420898e+00 6.801945209503173828e+00 2.686359882354736328e+00 -3.421242237091064453e+00
7.880000000000000000e+02 3.969400787353515625e+01 -2.098237228393554688e+01 1.458555579185485840e+00 8.711788177490234375e+00 3.051103115081787109e+00 -1.479276537895202637e+00
7.890000000000000000e+02 3.498577117919921875e+01 -2.869087409973144531e+01 -5.388807296752929688e+00 -6.685075759887695312e-01 -1.817194461822509766e+00 -3.302881717681884766e-01
7.900000000000000000e+02 3.016355514526367188e+01 -2.535971450805664062e+01 8.225849270820617676e-01 3.918685436248779297e+00 1.422381043434143066e+00 -1.845373392105102539e+00
7.910000000000000000e+02 2.970743560791015625e+01 -1.828978347778320312e+01 1.903688192367553711e+00 9.400673866271972656e+00 3.391308546066284180e+00 3.951465845108032227e+00
7.920000000000000000e+02 1.760346221923828125e+01 1.790787506103515625e+01 1.647476255893707275e-01 -4.819512367248535156e-02 3.496574983000755310e-02 9.910697489976882935e-02
7.930000000000000000e+02 1.768463897705078125e+01 3.280913829803466797e+00 -7.004858851432800293e-01 -2.429712116718292236e-01 -2.830371260643005371e-01 2.361430078744888306e-01
7.940000000000000000e+02 9.430523872375488281e+00 9.624710083007812500e+00 -1.485104113817214966e-02 2.983027994632720947e-01 8.503552526235580444e-02 4.506456851959228516e-02
7.950000000000000000e+02 1.012610816955566406e+01 1.554693889617919922e+01 1.809033602476119995e-01 7.103223204612731934e-01 2.673676908016204834e-01 2.732386589050292969e-01
7.960000000000000000e+02 5.468582153320312500e+01 9.051512718200683594e+00 1.452723026275634766e+00 1.399803543090820312e+01 4.635227203369140625e+00 2.655043125152587891e+00
7.970000000000000000e+02 4.217693710327148438e+01 6.547989845275878906e+00 1.431125998497009277e+00 7.551636695861816406e+00 2.694828748703002930e+00 9.313104748725891113e-01
7.980000000000000000e+02 1.367636489868164062e+01 -2.804221725463867188e+01 9.199528098106384277e-01 1.459422588348388672e+00 7.138125896453857422e-01 8.376028537750244141e-01
7.990000000000000000e+02 7.723508358001708984e+00 -1.388050460815429688e+01 -2.562340795993804932e-01 -2.333655655384063721e-01 -1.468798965215682983e-01 -2.555655241012573242e-01
8.000000000000000000e+02 6.485668182373046875e+01 -3.928795242309570312e+01 -1.869476556777954102e+00 2.549661636352539062e+00 2.040555328130722046e-01 5.524314045906066895e-01
8.010000000000000000e+02 5.564376831054687500e+01 -3.071659469604492188e+01 1.892582535743713379e+00 9.189596176147460938e+00 3.324653625488281250e+00 1.949572443962097168e+00
8.020000000000000000e+02 5.261920166015625000e+01 -6.493300437927246094e+00 1.885625720024108887e+00 9.849590301513671875e+00 3.520564794540405273e+00 -1.843992471694946289e+00
8.030000000000000000e+02 3.964815902709960938e+01 -1.251389789581298828e+01 6.683979034423828125e-01 3.909553766250610352e+00 1.373385429382324219e+00 -2.511762857437133789e+00
8.040000000000000000e+02 3.693364334106445312e+01 -1.019439411163330078e+01 3.297087430953979492e+00 8.328026771545410156e+00 3.487534284591674805e+00 -2.860785007476806641e+00
8.050000000000000000e+02 3.963677978515625000e+01 -3.184317350387573242e+00 4.229452311992645264e-01 2.533022403717041016e+00 8.867903351783752441e-01 1.980938434600830078e+00
8.060000000000000000e+02 7.347003936767578125e+01 -1.814974594116210938e+01 4.542346596717834473e-01 6.664642810821533203e+00 2.135663270950317383e+00 -1.123340606689453125e+00
8.070000000000000000e+02 5.507153701782226562e+01 -2.322433090209960938e+01 1.707381963729858398e+00 9.986052513122558594e+00 3.508030414581298828e+00 3.108444929122924805e+00
8.080000000000000000e+02 2.024428176879882812e+01 -5.312227606773376465e-01 9.648726880550384521e-02 4.473682865500450134e-02 4.236723110079765320e-02 3.110068477690219879e-02
8.090000000000000000e+02 1.971294975280761719e+01 -3.986385464668273926e-01 -3.466900810599327087e-02 1.394301373511552811e-02 -6.217798218131065369e-03 -1.294437423348426819e-02
8.100000000000000000e+02 1.937473487854003906e+01 -3.264454901218414307e-01 -4.108125343918800354e-02 5.096682906150817871e-02 2.965672872960567474e-03 -1.138759031891822815e-02
8.110000000000000000e+02 2.003520965576171875e+01 -1.087474942207336426e+00 1.021142452955245972e-01 5.586137995123863220e-02 4.739268496632575989e-02 1.243167817592620850e-01
8.120000000000000000e+02 1.897218322753906250e+01 -3.092707395553588867e-01 -7.985316216945648193e-02 4.111145436763763428e-02 -1.162251178175210953e-02 -2.762677520513534546e-02
8.130000000000000000e+02 1.821747398376464844e+01 -2.987443804740905762e-01 -9.380053728818893433e-02 2.935586683452129364e-02 -1.933339983224868774e-02 -2.543039061129093170e-02
8.140000000000000000e+02 1.693306350708007812e+01 -5.157847404479980469e+00 2.029241062700748444e-02 1.527607887983322144e-01 5.191596224904060364e-02 1.950321905314922333e-02
8.150000000000000000e+02 1.139582633972167969e+01 -1.552055239677429199e+00 -3.067108243703842163e-02 -2.671773359179496765e-02 -1.721664518117904663e-02 -4.831621423363685608e-02
8.160000000000000000e+02 1.061158752441406250e+01 -1.707588434219360352e+00 -2.195183746516704559e-02 -1.378024928271770477e-02 -1.071962621062994003e-02 -4.586315155029296875e-02
8.170000000000000000e+02 9.036485671997070312e+00 -1.835494279861450195e+00 -5.849720444530248642e-03 -9.750317782163619995e-03 -4.680011421442031860e-03 -3.137799352407455444e-02
8.180000000000000000e+02 7.467250347137451172e+00 -1.879227519035339355e+00 7.010659668594598770e-03 -7.342949975281953812e-03 -9.968704398488625884e-05 -1.371076982468366623e-02
8.190000000000000000e+02 5.892793178558349609e+00 -1.913991570472717285e+00 1.335576921701431274e-02 -5.888052284717559814e-03 2.240315079689025879e-03 1.710836542770266533e-03
8.200000000000000000e+02 5.104704856872558594e+00 -1.927427768707275391e+00 1.368405669927597046e-02 -9.100819937884807587e-03 1.374971005134284496e-03 3.888919251039624214e-03
8.210000000000000000e+02 4.357292175292968750e+00 -2.840212106704711914e+00 7.530718110501766205e-03 -1.086042169481515884e-02 -9.989109821617603302e-04 8.279162459075450897e-03
8.220000000000000000e+02 2.746402502059936523e+00 -1.961146354675292969e+00 9.347396902740001678e-03 1.734939753077924252e-03 3.324700985103845596e-03 1.271581277251243591e-02
8.230000000000000000e+02 1.964617848396301270e+00 -1.986539840698242188e+00 4.347718320786952972e-03 3.262977115809917450e-03 2.283208770677447319e-03 1.056927721947431564e-02
8.240000000000000000e+02 4.776628315448760986e-01 -3.518042325973510742e+00 2.422350924462080002e-03 2.141464687883853912e-02 7.151099387556314468e-03 5.499701015651226044e-03
8.250000000000000000e+02 2.124858140945434570e+00 -4.166228866577148438e+01 -1.465376168489456177e-01 2.241462767124176025e-01 2.328259870409965515e-02 4.201117157936096191e-02
8.260000000000000000e+02 6.202845096588134766e+00 -3.791275787353515625e+01 -1.762815713882446289e-01 5.038053393363952637e-01 9.825713932514190674e-02 4.314024448394775391e-01
8.270000000000000000e+02 1.229173660278320312e+00 -3.865545654296875000e+01 -3.919169306755065918e-02 5.067824199795722961e-02 3.445963840931653976e-03 1.134935244917869568e-01
8.280000000000000000e+02 7.553032636642456055e-01 -3.451490020751953125e+01 4.236886650323867798e-02 -4.548242092132568359e-01 -1.237366050481796265e-01 9.629648923873901367e-02
8.290000000000000000e+02 6.960765719413757324e-01 -3.312991333007812500e+01 -2.100743353366851807e-02 -6.177187561988830566e-01 -1.916178613901138306e-01 5.942808091640472412e-02
8.300000000000000000e+02 6.537185311317443848e-01 -2.893514251708984375e+01 2.254705876111984253e-02 -8.828678131103515625e-01 -2.580962181091308594e-01 2.158502675592899323e-02
8.310000000000000000e+02 6.435906887054443359e-01 -2.753684043884277344e+01 -1.142652332782745361e-02 -9.129214882850646973e-01 -2.773044109344482422e-01 3.708702744916081429e-03
8.320000000000000000e+02 1.936977386474609375e+00 -2.728261566162109375e+01 3.144251555204391479e-02 -6.080747842788696289e-01 -1.729896813631057739e-01 1.876620203256607056e-02
8.330000000000000000e+02 1.917409300804138184e+00 -2.307559967041015625e+01 9.646390564739704132e-03 -5.558199882507324219e-01 -1.638520658016204834e-01 -3.242927417159080505e-02
8.340000000000000000e+02 6.709122061729431152e-01 -2.186640739440917969e+01 5.658826790750026703e-03 -8.846324086189270020e-01 -2.636920809745788574e-01 -2.298287674784660339e-02
8.350000000000000000e+02 1.959520459175109863e+00 -1.755508041381835938e+01 -2.739109471440315247e-02 -2.591426372528076172e-01 -8.596011996269226074e-02 -2.340794056653976440e-01
8.360000000000000000e+02 6.446159482002258301e-01 -2.047612380981445312e+01 3.733906149864196777e-02 -8.013098835945129395e-01 -2.291912436485290527e-01 -6.211131811141967773e-02
8.370000000000000000e+02 1.840232133865356445e+00 -1.611162185668945312e+01 -3.338772431015968323e-02 -1.652948856353759766e-01 -5.960478261113166809e-02 -1.894115358591079712e-01
8.380000000000000000e+02 5.828483104705810547e-01 -1.486302280426025391e+01 -6.999004981480538845e-04 -6.868445128202438354e-02 -2.081530541181564331e-02 -4.957782104611396790e-02
8.390000000000000000e+02 5.615589022636413574e-01 -1.345778846740722656e+01 -1.836506091058254242e-02 3.039565682411193848e-02 3.609178820624947548e-03 -2.747110091149806976e-02
8.400000000000000000e+02 1.666005969047546387e+00 -1.197546386718750000e+01 -2.810619771480560303e-02 5.289929453283548355e-03 -6.844880059361457825e-03 -3.229525312781333923e-02
8.410000000000000000e+02 5.791375637054443359e-01 -9.234485626220703125e+00 4.121617414057254791e-03 8.504077792167663574e-02 2.674871869385242462e-02 5.823403131216764450e-03
8.420000000000000000e+02 5.744046568870544434e-01 -7.818799495697021484e+00 -4.183894488960504532e-03 7.126892358064651489e-02 2.012550830841064453e-02 5.444913171231746674e-03
8.430000000000000000e+02 5.562624335289001465e-01 -6.398745059967041016e+00 2.591561991721391678e-03 5.459748208522796631e-02 1.715671271085739136e-02 7.803522050380706787e-03
8.440000000000000000e+02 7.423880004882812500e+01 -3.901919937133789062e+01 -3.156698644161224365e-01 6.779442787170410156e+00 1.939131975173950195e+00 -5.403975248336791992e-01
8.450000000000000000e+02 5.024336242675781250e+01 -3.947322082519531250e+01 -2.452336311340332031e+00 5.515883922576904297e+00 9.190642833709716797e-01 3.777559697628021240e-01
8.460000000000000000e+02 1.203237438201904297e+01 -3.827951812744140625e+01 -7.953265309333801270e-01 8.653010725975036621e-01 2.099236100912094116e-02 4.378536045551300049e-01
8.470000000000000000e+02 7.607015991210937500e+01 4.061408996582031250e+01 -1.057450920343399048e-01 7.382093429565429688e+00 2.182904481887817383e+00 1.799506843090057373e-01
8.480000000000000000e+02 7.809985351562500000e+01 4.173488235473632812e+01 9.484449028968811035e-02 7.750606536865234375e+00 2.353635311126708984e+00 -2.643324062228202820e-02
8.490000000000000000e+02 7.773504638671875000e+01 3.797614669799804688e+01 -9.604141116142272949e-02 7.572448730468750000e+00 2.242922067642211914e+00 1.254174113273620605e-01
8.500000000000000000e+02 7.917186737060546875e+01 3.486072540283203125e+01 1.633829064667224884e-02 7.709888458251953125e+00 2.317867994308471680e+00 6.875383853912353516e-02
8.510000000000000000e+02 7.765785980224609375e+01 3.342223358154296875e+01 7.036033272743225098e-02 7.272967338562011719e+00 2.202998399734497070e+00 1.231495365500450134e-01
8.520000000000000000e+02 7.921234130859375000e+01 3.344610595703125000e+01 2.673260867595672607e-03 7.614890575408935547e+00 2.285269021987915039e+00 5.298094451427459717e-02
8.530000000000000000e+02 7.930317687988281250e+01 3.063970756530761719e+01 -5.512619856745004654e-03 7.557243824005126953e+00 2.265519380569458008e+00 -6.599068641662597656e-03
8.540000000000000000e+02 7.800424194335937500e+01 2.922991561889648438e+01 3.997752070426940918e-02 7.327481269836425781e+00 2.210237741470336914e+00 -1.100918054580688477e-01
8.550000000000000000e+02 7.934210205078125000e+01 2.648282051086425781e+01 2.743340842425823212e-02 7.927762031555175781e+00 2.386558532714843750e+00 -8.012482523918151855e-02
8.560000000000000000e+02 7.665691375732421875e+01 2.661658859252929688e+01 1.002297624945640564e-01 7.054854869842529297e+00 2.146525382995605469e+00 -3.265792727470397949e-01
8.570000000000000000e+02 7.933972167968750000e+01 2.509109687805175781e+01 -2.675973437726497650e-02 8.118415832519531250e+00 2.427496671676635742e+00 -8.026663959026336670e-02
8.580000000000000000e+02 7.933187866210937500e+01 2.087749099731445312e+01 -4.961559176445007324e-02 8.177426338195800781e+00 2.438343286514282227e+00 1.233827620744705200e-01
8.590000000000000000e+02 7.934549713134765625e+01 1.946985435485839844e+01 -3.130109980702400208e-02 7.865071296691894531e+00 2.350131034851074219e+00 2.097300291061401367e-01
8.600000000000000000e+02 7.798130035400390625e+01 2.083515167236328125e+01 -2.208549976348876953e-01 7.809501647949218750e+00 2.276593923568725586e+00 2.494073361158370972e-01
8.610000000000000000e+02 7.936854553222656250e+01 1.806684112548828125e+01 -4.304368048906326294e-02 7.362390041351318359e+00 2.195803880691528320e+00 2.910802662372589111e-01
8.620000000000000000e+02 7.942530059814453125e+01 1.391658210754394531e+01 6.460247933864593506e-02 5.517649650573730469e+00 1.674675583839416504e+00 2.018188089132308960e-01
8.630000000000000000e+02 7.832693481445312500e+01 1.254772758483886719e+01 3.009551763534545898e-01 6.191532611846923828e+00 1.947746396064758301e+00 1.892215758562088013e-01
8.640000000000000000e+02 7.943858337402343750e+01 1.117420578002929688e+01 8.199694007635116577e-02 5.232841491699218750e+00 1.594451546669006348e+00 -8.634410053491592407e-02
8.650000000000000000e+02 7.937104034423828125e+01 7.061123847961425781e+00 4.018807038664817810e-02 6.933055877685546875e+00 2.091973304748535156e+00 -3.417077362537384033e-01
8.660000000000000000e+02 7.935433959960937500e+01 5.670735359191894531e+00 -3.622722253203392029e-02 7.670103549957275391e+00 2.290163040161132812e+00 -3.338514864444732666e-01
8.670000000000000000e+02 7.807051086425781250e+01 5.869921684265136719e+00 -3.368379175662994385e-02 7.477685451507568359e+00 2.233200550079345703e+00 -8.523523211479187012e-01
8.680000000000000000e+02 7.934096527099609375e+01 4.273864746093750000e+00 1.905434764921665192e-02 8.364038467407226562e+00 2.514927864074707031e+00 -3.236484229564666748e-01
8.690000000000000000e+02 7.928182220458984375e+01 1.736424863338470459e-02 -1.461168676614761353e-01 9.484687805175781250e+00 2.801571369171142578e+00 3.509394451975822449e-02
8.700000000000000000e+02 7.931076812744140625e+01 -1.419961094856262207e+00 -8.943660184741020203e-03 9.291647911071777344e+00 2.784811258316040039e+00 1.856094151735305786e-01
8.710000000000000000e+02 7.940692138671875000e+01 -2.832116365432739258e+00 -9.810852259397506714e-02 8.814704895019531250e+00 2.614979028701782227e+00 2.940278351306915283e-01
8.720000000000000000e+02 7.950460815429687500e+01 -4.187984466552734375e+00 6.029479578137397766e-02 8.001296997070312500e+00 2.418477535247802734e+00 3.577739000320434570e-01
8.730000000000000000e+02 7.853585052490234375e+01 -4.279776573181152344e+00 5.299498885869979858e-02 8.501163482666015625e+00 2.566247463226318359e+00 7.307004332542419434e-01
8.740000000000000000e+02 7.792034912109375000e+01 -9.356121063232421875e+00 3.192577064037322998e-01 9.116517066955566406e+00 2.830732345581054688e+00 -1.109731197357177734e+00
8.750000000000000000e+02 7.936914062500000000e+01 -8.222772598266601562e+00 1.914931833744049072e-01 7.529347896575927734e+00 2.316252231597900391e+00 -3.613787293434143066e-01
8.760000000000000000e+02 7.932931518554687500e+01 -1.102292346954345703e+01 4.324128106236457825e-02 9.349304199218750000e+00 2.817763805389404297e+00 -4.813645184040069580e-01
8.770000000000000000e+02 7.696402740478515625e+01 -1.130581188201904297e+01 -8.502236604690551758e-01 9.402543067932128906e+00 2.565696001052856445e+00 -6.774907708168029785e-01
8.780000000000000000e+02 7.921290588378906250e+01 -1.516124343872070312e+01 -6.312463432550430298e-02 9.730101585388183594e+00 2.900093078613281250e+00 2.420481741428375244e-01
8.790000000000000000e+02 7.389461517333984375e+01 -1.667552375793457031e+01 -5.020846724510192871e-01 5.633032321929931641e+00 1.539284229278564453e+00 1.749338805675506592e-01
8.800000000000000000e+02 7.936597442626953125e+01 -1.802397727966308594e+01 7.747792452573776245e-02 8.242922782897949219e+00 2.496120214462280273e+00 4.341640174388885498e-01
8.810000000000000000e+02 7.836365509033203125e+01 -1.928370285034179688e+01 1.016310900449752808e-01 7.774282455444335938e+00 2.362774133682250977e+00 8.940048813819885254e-01
8.820000000000000000e+02 7.383326721191406250e+01 -2.207460021972656250e+01 6.629438400268554688e-01 1.322018241882324219e+01 4.164937973022460938e+00 4.720149338245391846e-01
8.830000000000000000e+02 7.806945037841796875e+01 -2.334117317199707031e+01 4.084461331367492676e-01 7.243719100952148438e+00 2.295649528503417969e+00 -1.684629470109939575e-01
8.840000000000000000e+02 7.935292053222656250e+01 -2.500061416625976562e+01 4.856567829847335815e-02 6.584080696105957031e+00 1.989793896675109863e+00 -2.213145345449447632e-01
8.850000000000000000e+02 7.940879821777343750e+01 -2.921767425537109375e+01 -4.819490015506744385e-02 7.526958465576171875e+00 2.243628978729248047e+00 -2.980406396090984344e-02
8.860000000000000000e+02 7.789140319824218750e+01 -3.176693344116210938e+01 4.027167707681655884e-02 7.177086353302001953e+00 2.165207386016845703e+00 4.600326344370841980e-02
8.870000000000000000e+02 7.930303955078125000e+01 -3.197426223754882812e+01 -8.932452648878097534e-03 7.506755352020263672e+00 2.249346971511840820e+00 5.768133793026208878e-03
8.880000000000000000e+02 7.920056152343750000e+01 -3.614460754394531250e+01 1.498423330485820770e-02 7.590958595275878906e+00 2.281782865524291992e+00 -4.235339909791946411e-02
8.890000000000000000e+02 7.916256713867187500e+01 -3.751130676269531250e+01 -1.542337890714406967e-02 7.654744625091552734e+00 2.291796445846557617e+00 -3.840932622551918030e-02
8.900000000000000000e+02 7.906226348876953125e+01 -3.885965347290039062e+01 7.573707494884729385e-03 7.706422328948974609e+00 2.314198970794677734e+00 -3.564419224858283997e-02
8.910000000000000000e+02 7.876176452636718750e+01 -4.020670318603515625e+01 -3.570617362856864929e-02 7.729857921600341797e+00 2.308245658874511719e+00 -8.478719741106033325e-03
8.920000000000000000e+02 2.747347450256347656e+01 4.107492446899414062e+01 -8.971028923988342285e-01 3.015449762344360352e+00 6.355040669441223145e-01 -1.332344710826873779e-01
8.930000000000000000e+02 4.759136962890625000e+01 3.907944869995117188e+01 -1.518716812133789062e+00 4.335054874420166016e+00 8.449014425277709961e-01 -5.040159821510314941e-01
8.940000000000000000e+02 4.147267043590545654e-01 2.181755065917968750e+00 -2.384564140811562538e-03 -1.333135273307561874e-02 -4.714774899184703827e-03 6.950607523322105408e-03
8.950000000000000000e+02 2.188906908035278320e+00 3.094931364059448242e+00 -3.016195632517337799e-02 -5.799737572669982910e-02 -2.644780091941356659e-02 7.195701450109481812e-02
8.960000000000000000e+02 4.559102535247802734e+00 2.820444345474243164e+00 -9.912722557783126831e-02 -1.901258155703544617e-02 -3.544194251298904419e-02 1.124295890331268311e-01
8.970000000000000000e+02 2.913923740386962891e+00 4.798930644989013672e+00 -3.994237631559371948e-02 -8.681718260049819946e-02 -3.802786767482757568e-02 1.285412758588790894e-01
8.980000000000000000e+02 5.794327855110168457e-01 9.274801254272460938e+00 -1.331373550783609971e-05 -4.422885775566101074e-01 -1.326905637979507446e-01 4.664532095193862915e-02
8.990000000000000000e+02 5.505903363227844238e-01 1.207652378082275391e+01 -9.693851461634039879e-04 -6.799906492233276367e-01 -2.042880207300186157e-01 4.526776820421218872e-02
9.000000000000000000e+02 1.628208637237548828e+00 1.203455257415771484e+01 9.401380666531622410e-04 -5.298576354980468750e-01 -1.586752533912658691e-01 1.230709254741668701e-01
9.010000000000000000e+02 6.266929507255554199e-01 1.631080436706542969e+01 -4.770279861986637115e-03 -1.007071733474731445e+00 -3.035525977611541748e-01 4.927105456590652466e-02
9.020000000000000000e+02 6.251749992370605469e-01 1.772629547119140625e+01 4.255049396306276321e-03 -1.122388601303100586e+00 -3.354400694370269775e-01 4.953452944755554199e-02
9.030000000000000000e+02 5.887498855590820312e-01 2.197078895568847656e+01 -3.569639986380934715e-03 -1.504594564437866211e+00 -4.524492621421813965e-01 5.939241498708724976e-02
9.040000000000000000e+02 2.911329269409179688e+00 2.449066162109375000e+01 2.073561549186706543e-01 -4.105270802974700928e-01 -6.095127761363983154e-02 -2.012536115944385529e-02
9.050000000000000000e+02 4.388570785522460938e+00 2.539941406250000000e+01 4.453536272048950195e-01 3.635398447513580322e-01 2.426680326461791992e-01 -2.231027334928512573e-01
9.060000000000000000e+02 2.152007818222045898e+00 2.872300720214843750e+01 3.918588161468505859e-02 -4.644929468631744385e-01 -1.275921165943145752e-01 -4.153751730918884277e-01
9.070000000000000000e+02 2.640669107437133789e+00 2.986779594421386719e+01 1.375597901642322540e-02 -1.824192404747009277e-01 -5.059897899627685547e-02 -5.357752442359924316e-01
9.080000000000000000e+02 7.080788016319274902e-01 3.050929450988769531e+01 -5.456293374300003052e-02 -5.989393591880798340e-01 -1.960506886243820190e-01 -1.860945969820022583e-01
9.090000000000000000e+02 3.133445262908935547e+00 3.146708488464355469e+01 -1.310701370239257812e-01 7.129517942667007446e-02 -1.793248951435089111e-02 -4.948231875896453857e-01
9.100000000000000000e+02 6.731328964233398438e-01 3.605327987670898438e+01 -3.157406672835350037e-02 3.221847712993621826e-01 8.718320727348327637e-02 -2.905700914561748505e-02
9.110000000000000000e+02 2.146513700485229492e+00 3.720338821411132812e+01 -6.162384524941444397e-02 2.217272371053695679e-01 4.803102090954780579e-02 -3.722466900944709778e-02
9.120000000000000000e+02 8.444762229919433594e-01 3.880682373046875000e+01 -7.133170962333679199e-03 3.170441091060638428e-01 9.297328442335128784e-02 1.715277321636676788e-02
9.130000000000000000e+02 1.158459901809692383e+00 4.016485977172851562e+01 -1.877429708838462830e-02 2.689950168132781982e-01 7.506621628999710083e-02 4.003310576081275940e-02
9.140000000000000000e+02 1.022285270690917969e+01 2.088495492935180664e+00 -3.437365889549255371e-01 4.280949756503105164e-02 -9.027812629938125610e-02 7.543946057558059692e-02
9.150000000000000000e+02 9.428269386291503906e+00 1.969630122184753418e+00 -3.032781481742858887e-01 2.570024132728576660e-02 -8.327336609363555908e-02 7.652547210454940796e-02
9.160000000000000000e+02 8.618895530700683594e+00 1.927283406257629395e+00 -2.656559348106384277e-01 2.691887319087982178e-02 -7.162111252546310425e-02 7.627779245376586914e-02
9.170000000000000000e+02 7.806044101715087891e+00 1.915737152099609375e+00 -2.278104424476623535e-01 8.659997954964637756e-03 -6.574513763189315796e-02 8.480989933013916016e-02
9.180000000000000000e+02 6.987728118896484375e+00 1.926948070526123047e+00 -1.949933767318725586e-01 7.358508650213479996e-03 -5.629045888781547546e-02 8.890858292579650879e-02
9.190000000000000000e+02 5.350380897521972656e+00 1.945556759834289551e+00 -1.328804194927215576e-01 -4.360544960945844650e-03 -4.117228835821151733e-02 8.821972459554672241e-02
9.200000000000000000e+02 4.533152580261230469e+00 1.940583467483520508e+00 -1.044381037354469299e-01 -1.174038648605346680e-02 -3.485354781150817871e-02 8.240932971239089966e-02
9.210000000000000000e+02 3.717357158660888672e+00 1.946260571479797363e+00 -7.660879194736480713e-02 -1.608070358633995056e-02 -2.780685015022754669e-02 7.359779626131057739e-02
9.220000000000000000e+02 2.076850652694702148e+00 2.044950962066650391e+00 -2.885534055531024933e-02 -3.010320849716663361e-02 -1.768756471574306488e-02 4.247916862368583679e-02
9.230000000000000000e+02 1.246104717254638672e+00 2.119578838348388672e+00 -1.156380306929349899e-02 -2.858495712280273438e-02 -1.204462815076112747e-02 2.335049398243427277e-02
9.240000000000000000e+02 1.142090225219726562e+01 8.262756347656250000e+00 1.258778199553489685e-02 1.769310235977172852e-02 9.084265679121017456e-03 2.423211466521024704e-03
9.250000000000000000e+02 1.223150539398193359e+01 2.413749217987060547e+00 -4.619644880294799805e-01 2.866579405963420868e-02 -1.299896091222763062e-01 8.872066438198089600e-02
9.260000000000000000e+02 1.406953334808349609e+01 4.421330451965332031e+00 -1.874344646930694580e-01 6.790431588888168335e-02 -3.585904464125633240e-02 2.034031748771667480e-01
9.270000000000000000e+02 1.449192714691162109e+01 2.918018102645874023e+00 -5.956279635429382324e-01 3.224240988492965698e-02 -1.690156757831573486e-01 1.216080412268638611e-01
9.280000000000000000e+02 1.526180934906005859e+01 3.086455583572387695e+00 -6.375553607940673828e-01 -2.166179753839969635e-02 -1.977651417255401611e-01 1.155634671449661255e-01
9.290000000000000000e+02 1.686886787414550781e+01 3.216435194015502930e+00 -6.838821768760681152e-01 -1.329348385334014893e-01 -2.450451105833053589e-01 1.541552841663360596e-01
9.300000000000000000e+02 1.849807929992675781e+01 3.335252761840820312e+00 -6.482533812522888184e-01 -3.452924787998199463e-01 -2.980637550354003906e-01 3.167032599449157715e-01
9.310000000000000000e+02 2.165067291259765625e+01 2.469879627227783203e+00 -9.648479223251342773e-01 -3.123037219047546387e-01 -3.831455111503601074e-01 6.105026602745056152e-01
9.320000000000000000e+02 2.125281715393066406e+01 2.566859483718872070e+00 -9.594467282295227051e-01 -3.425805568695068359e-01 -3.906081914901733398e-01 5.991743206977844238e-01
9.330000000000000000e+02 2.185233116149902344e+01 2.416198492050170898e+00 -9.894140958786010742e-01 -2.846271097660064697e-01 -3.822123706340789795e-01 6.485762000083923340e-01
9.340000000000000000e+02 2.616679954528808594e+01 1.354070782661437988e+00 -9.563903212547302246e-01 1.287241935729980469e+00 9.925548732280731201e-02 -6.211461424827575684e-01
9.350000000000000000e+02 2.574003410339355469e+01 1.413489699363708496e+00 -1.023797750473022461e+00 9.627251625061035156e-01 -1.832177117466926575e-02 -2.859036326408386230e-01
9.360000000000000000e+02 2.671364593505859375e+01 1.112902045249938965e+00 -8.493442535400390625e-01 1.752792835235595703e+00 2.710345685482025146e-01 -1.123039603233337402e+00
9.370000000000000000e+02 2.734016609191894531e+01 9.830535054206848145e-01 -7.135972380638122559e-01 2.426475286483764648e+00 5.138633847236633301e-01 -1.953002572059631348e+00
9.380000000000000000e+02 2.824321937561035156e+01 7.551538944244384766e-01 -3.384408950805664062e-01 3.661484003067016602e+00 9.969128966331481934e-01 -3.123183727264404297e+00
9.390000000000000000e+02 2.845321655273437500e+01 7.197521328926086426e-01 -1.432232409715652466e-01 4.116521835327148438e+00 1.191989541053771973e+00 -3.687196016311645508e+00
9.400000000000000000e+02 2.885169029235839844e+01 6.079125404357910156e-01 1.399128735065460205e-01 4.858450889587402344e+00 1.499509096145629883e+00 -4.389944076538085938e+00
9.410000000000000000e+02 3.017763900756835938e+01 4.526471138000488281e+00 3.361245870590209961e+00 8.413592338562011719e+00 3.532451629638671875e+00 -5.018905162811279297e+00
9.420000000000000000e+02 3.008186340332031250e+01 3.177516162395477295e-01 -2.735457420349121094e-01 9.580403327941894531e+00 2.792057275772094727e+00 -5.512567520141601562e+00
9.430000000000000000e+02 3.027323532104492188e+01 2.427686452865600586e-01 -2.686846256256103516e-01 1.026224231719970703e+01 2.998067378997802734e+00 -5.405993461608886719e+00
9.440000000000000000e+02 2.965456199645996094e+01 8.191786408424377441e-01 -8.342462182044982910e-01 8.000830650329589844e+00 2.149975299835205078e+00 -5.213957786560058594e+00
9.450000000000000000e+02 3.118736457824707031e+01 -5.532338842749595642e-02 8.243044614791870117e-01 1.116049575805664062e+01 3.595440149307250977e+00 -2.271099090576171875e+00
9.460000000000000000e+02 2.894181442260742188e+01 -3.239659786224365234e+00 -1.617391258478164673e-01 -2.023961246013641357e-01 -1.092405766248703003e-01 6.144300699234008789e-01
9.470000000000000000e+02 2.881504249572753906e+01 -2.827539443969726562e+00 2.158117741346359253e-01 -3.378799259662628174e-01 -3.662044554948806763e-02 4.323743283748626709e-02
9.480000000000000000e+02 2.837207984924316406e+01 -2.628871440887451172e+00 8.528830856084823608e-02 -1.338201165199279785e+00 -3.758738636970520020e-01 5.440756678581237793e-01
9.490000000000000000e+02 2.824222755432128906e+01 -2.632145881652832031e+00 4.654621183872222900e-01 -4.415982961654663086e-01 7.159141357988119125e-03 3.179030716419219971e-01
9.500000000000000000e+02 2.910306739807128906e+01 -3.927821636199951172e+00 -2.703748345375061035e-01 1.390880823135375977e+00 3.361517786979675293e-01 4.622481167316436768e-01
9.510000000000000000e+02 3.038897895812988281e+01 -6.317625522613525391e+00 3.053509294986724854e-01 8.110564231872558594e+00 2.524774551391601562e+00 8.647229671478271484e-01
9.520000000000000000e+02 3.111194992065429688e+01 -3.547623395919799805e+00 -4.654928147792816162e-01 1.082104682922363281e+01 3.106666326522827148e+00 -6.654571294784545898e-01
9.530000000000000000e+02 2.961351013183593750e+01 -7.168160915374755859e+00 1.274784654378890991e-01 8.712297439575195312e+00 2.651932716369628906e+00 5.267086625099182129e-01
9.540000000000000000e+02 2.959164619445800781e+01 -7.608107089996337891e+00 9.827779978513717651e-02 9.376522064208984375e+00 2.842439889907836914e+00 6.515555381774902344e-01
9.550000000000000000e+02 2.922347450256347656e+01 -9.684961318969726562e+00 4.319098472595214844e+00 1.381629467010498047e+01 5.440618038177490234e+00 6.346573829650878906e+00
9.560000000000000000e+02 2.790417671203613281e+01 -1.124481582641601562e+01 4.590043067932128906e+00 5.780827045440673828e+00 3.111261129379272461e+00 4.980436801910400391e+00
9.570000000000000000e+02 2.854008483886718750e+01 -1.126261234283447266e+01 3.273946046829223633e+00 7.438573837280273438e+00 3.213755846023559570e+00 4.655388832092285156e+00
9.580000000000000000e+02 2.662661743164062500e+01 -1.224166870117187500e+01 2.056535720825195312e+00 2.004350185394287109e+00 1.218265771865844727e+00 2.060588121414184570e+00
9.590000000000000000e+02 2.479531669616699219e+01 -1.313813209533691406e+01 -1.644088864326477051e+00 8.415190875530242920e-02 -4.679810702800750732e-01 -1.926825344562530518e-01
9.600000000000000000e+02 2.440946769714355469e+01 -1.327102851867675781e+01 -2.111798763275146484e+00 -1.234263647347688675e-03 -6.339098811149597168e-01 -3.555458784103393555e-01
9.610000000000000000e+02 2.186351394653320312e+01 -1.353914260864257812e+01 -2.802584409713745117e+00 -3.878535628318786621e-01 -9.571313858032226562e-01 6.137933135032653809e-01
9.620000000000000000e+02 2.145329093933105469e+01 -1.336415481567382812e+01 -2.250703573226928711e+00 -4.912798106670379639e-01 -8.225950598716735840e-01 7.692114710807800293e-01
9.630000000000000000e+02 2.072411537170410156e+01 -1.290124988555908203e+01 -1.320033788681030273e+00 -5.532271862030029297e-01 -5.619782805442810059e-01 7.536036968231201172e-01
9.640000000000000000e+02 2.012444114685058594e+01 -1.230793666839599609e+01 -7.445130944252014160e-01 -5.140683054924011230e-01 -3.775744140148162842e-01 5.953466892242431641e-01
9.650000000000000000e+02 1.970932006835937500e+01 -1.268697738647460938e+01 -8.468573689460754395e-01 -2.468539476394653320e-01 -3.281134068965911865e-01 4.036273658275604248e-01
9.660000000000000000e+02 1.728005599975585938e+01 -8.830031394958496094e+00 -3.884202241897583008e-02 3.557597473263740540e-02 -9.798143291845917702e-04 6.105466187000274658e-02
9.670000000000000000e+02 1.728173065185546875e+01 -6.779214382171630859e+00 -3.520529484376311302e-03 1.995568126440048218e-01 5.881088227033615112e-02 8.500783704221248627e-03
9.680000000000000000e+02 1.734578514099121094e+01 -5.973205089569091797e+00 -1.689119380898773670e-03 2.055801153182983398e-01 6.116729974746704102e-02 1.872766762971878052e-02
9.690000000000000000e+02 1.738031005859375000e+01 -5.570166587829589844e+00 1.373866014182567596e-02 2.001620829105377197e-01 6.417022645473480225e-02 2.484386600553989410e-02
9.700000000000000000e+02 1.542470264434814453e+01 -1.856124639511108398e+00 -2.714947611093521118e-02 1.030289847403764725e-02 -5.053973291069269180e-03 -4.501293599605560303e-02
9.710000000000000000e+02 1.368489742279052734e+01 -1.063787937164306641e+00 -6.120086461305618286e-02 -1.018175669014453888e-02 -2.141478657722473145e-02 -5.507976561784744263e-02
9.720000000000000000e+02 1.766445922851562500e+01 -3.933899879455566406e+00 3.591407090425491333e-02 1.690171211957931519e-01 6.147935986518859863e-02 5.078764259815216064e-02
9.730000000000000000e+02 2.056535339355468750e+01 -6.278705596923828125e-01 2.320371270179748535e-01 1.005566120147705078e-01 9.977812319993972778e-02 1.432269513607025146e-01
9.740000000000000000e+02 2.041502189636230469e+01 -5.767340660095214844e-01 1.058317199349403381e-01 7.692475803196430206e-03 3.405725955963134766e-02 2.722403779625892639e-02
9.750000000000000000e+02 2.069371986389160156e+01 -6.992368698120117188e-01 5.513212829828262329e-02 3.823648393154144287e-02 2.801058441400527954e-02 1.590411514043807983e-01
9.760000000000000000e+02 1.953810882568359375e+01 -3.540382683277130127e-01 -1.486853230744600296e-02 2.632905030623078346e-03 -3.670688020065426826e-03 -1.365642622113227844e-02
9.770000000000000000e+02 1.904501342773437500e+01 -1.857775449752807617e+00 1.033516898751258850e-01 9.720305353403091431e-02 6.016642227768898010e-02 7.268201559782028198e-02
9.780000000000000000e+02 2.979687118530273438e+01 -3.561522245407104492e+00 -4.452533125877380371e-01 6.056557178497314453e+00 1.683391213417053223e+00 1.229372501373291016e+00
9.790000000000000000e+02 2.960511779785156250e+01 -3.302530765533447266e+00 -2.308125644922256470e-01 4.060377120971679688e+00 1.148869395256042480e+00 1.176734328269958496e+00
9.800000000000000000e+02 2.867897987365722656e+01 -3.129051446914672852e+00 -3.698571026325225830e-01 -1.307127833366394043e+00 -5.030954480171203613e-01 8.650075793266296387e-01
9.810000000000000000e+02 2.845913887023925781e+01 -2.881502151489257812e+00 -8.094324469566345215e-01 -1.444976925849914551e+00 -6.763228178024291992e-01 6.844061613082885742e-01
9.820000000000000000e+02 2.864820480346679688e+01 -2.724960327148437500e+00 5.770326852798461914e-01 -9.592350721359252930e-01 -1.146607249975204468e-01 -2.310564974322915077e-03
9.830000000000000000e+02 2.922183036804199219e+01 -2.924640655517578125e+00 4.125162065029144287e-01 9.732466936111450195e-01 4.157288670539855957e-01 4.003289937973022461e-01
9.840000000000000000e+02 2.902379608154296875e+01 -2.897909879684448242e+00 3.427182137966156006e-01 4.246248900890350342e-01 2.302029281854629517e-01 4.506213963031768799e-01
9.850000000000000000e+02 3.080414772033691406e+01 4.523772001266479492e-02 -4.588163495063781738e-01 1.236926078796386719e+01 3.573133230209350586e+00 -4.141711711883544922e+00
9.860000000000000000e+02 3.207853317260742188e+01 2.771058320999145508e+00 -1.695374608039855957e+00 2.290646314620971680e+00 1.785815507173538208e-01 -3.414503037929534912e-01
9.870000000000000000e+02 2.517962837219238281e+01 1.896721363067626953e+00 -7.225964069366455078e-01 8.149077892303466797e-01 2.769341692328453064e-02 -5.509152635931968689e-02
9.880000000000000000e+02 2.924698448181152344e+01 5.228246450424194336e-01 1.934807300567626953e-01 6.024014949798583984e+00 1.865248680114746094e+00 -5.039643764495849609e+00
9.890000000000000000e+02 2.987025260925292969e+01 3.907639980316162109e-01 -1.787895411252975464e-01 8.311138153076171875e+00 2.439704656600952148e+00 -5.412855625152587891e+00
9.900000000000000000e+02 2.804507827758789062e+01 7.814037799835205078e-01 -3.445185124874114990e-01 3.140375137329101562e+00 8.387569785118103027e-01 -2.854676008224487305e+00
9.910000000000000000e+02 2.768649291992187500e+01 8.341265320777893066e-01 -4.547642767429351807e-01 2.589512825012207031e+00 6.404246091842651367e-01 -2.403927087783813477e+00
9.920000000000000000e+02 1.934681320190429688e+01 3.114534616470336914e+00 -6.810051202774047852e-01 -3.961239159107208252e-01 -3.231387138366699219e-01 3.908986151218414307e-01
9.930000000000000000e+02 1.955286216735839844e+01 2.998352050781250000e+00 -7.868216037750244141e-01 -4.281423985958099365e-01 -3.644891977310180664e-01 4.210516810417175293e-01
9.940000000000000000e+02 2.006906127929687500e+01 3.128101110458374023e+00 -7.008465528488159180e-01 -4.055489599704742432e-01 -3.319186568260192871e-01 4.347042143344879150e-01
9.950000000000000000e+02 2.051470756530761719e+01 3.117615461349487305e+00 -6.288195252418518066e-01 -3.934405744075775146e-01 -3.066780269145965576e-01 4.757698476314544678e-01
9.960000000000000000e+02 2.069325828552246094e+01 2.700131416320800781e+00 -9.125149846076965332e-01 -3.698155879974365234e-01 -3.846991658210754395e-01 5.620334148406982422e-01
9.970000000000000000e+02 2.105576705932617188e+01 2.604498147964477539e+00 -9.896382689476013184e-01 -3.297711014747619629e-01 -3.958228230476379395e-01 5.844652056694030762e-01
9.980000000000000000e+02 2.224966049194335938e+01 2.310030937194824219e+00 -1.030062794685363770e+00 -2.549829185009002686e-01 -3.855137228965759277e-01 6.557965278625488281e-01
9.990000000000000000e+02 2.244832229614257812e+01 2.259494304656982422e+00 -1.027595877647399902e+00 -2.314826697111129761e-01 -3.777235746383666992e-01 6.465750336647033691e-01
1.000000000000000000e+03 2.264896583557128906e+01 2.212220430374145508e+00 -1.052814006805419922e+00 -2.076890468597412109e-01 -3.781509101390838623e-01 6.615803241729736328e-01
1.001000000000000000e+03 2.433262062072753906e+01 1.740032434463500977e+00 -1.124840021133422852e+00 1.525103300809860229e-01 -2.916989326477050781e-01 3.648269772529602051e-01
1.002000000000000000e+03 2.474838638305664062e+01 1.625323772430419922e+00 -1.110232591629028320e+00 3.653977811336517334e-01 -2.234504371881484985e-01 2.069737464189529419e-01
1.003000000000000000e+03 2.653861618041992188e+01 1.159833908081054688e+00 -8.395506739616394043e-01 1.383275270462036133e+00 1.631173938512802124e-01 -9.647284746170043945e-01
1.004000000000000000e+03 2.693486213684082031e+01 1.116676568984985352e+00 -7.994745969772338867e-01 1.939012765884399414e+00 3.418614268302917480e-01 -1.374800205230712891e+00
1.005000000000000000e+03 2.594664955139160156e+01 1.382986783981323242e+00 -9.752010703086853027e-01 1.180711150169372559e+00 6.165302544832229614e-02 -4.806754291057586670e-01
1.006000000000000000e+03 2.837800979614257812e+01 1.079411029815673828e+00 -3.857947587966918945e-01 4.516841411590576172e+00 1.239313960075378418e+00 -3.651540279388427734e+00
1.007000000000000000e+03 2.865459251403808594e+01 6.696344017982482910e-01 -7.743946462869644165e-02 4.582913875579833984e+00 1.351642251014709473e+00 -3.974632740020751953e+00
1.008000000000000000e+03 2.921228027343750000e+01 8.390543460845947266e-01 -2.620612382888793945e-01 6.439923763275146484e+00 1.853358745574951172e+00 -5.040010929107666016e+00
1.009000000000000000e+03 2.966272163391113281e+01 4.448971450328826904e-01 -7.867681235074996948e-02 7.734194278717041016e+00 2.296655178070068359e+00 -5.494271755218505859e+00
1.010000000000000000e+03 3.110062980651855469e+01 3.724394321441650391e+00 1.313469886779785156e+00 3.958224534988403320e+00 1.581508398056030273e+00 -2.939762353897094727e+00
1.011000000000000000e+03 3.014257240295410156e+01 6.981461644172668457e-01 -1.265836715698242188e+00 9.486570358276367188e+00 2.466220140457153320e+00 -4.970754623413085938e+00
1.012000000000000000e+03 2.902196311950683594e+01 1.930109024047851562e+00 -1.535085201263427734e+00 6.605690002441406250e+00 1.521181344985961914e+00 -3.677822589874267578e+00
1.013000000000000000e+03 3.061745834350585938e+01 8.756417781114578247e-02 -3.568499982357025146e-01 1.159119510650634766e+01 3.370303630828857422e+00 -4.533955574035644531e+00
1.014000000000000000e+03 3.054597091674804688e+01 4.237467646598815918e-01 -1.094754099845886230e+00 1.085474586486816406e+01 2.927997589111328125e+00 -4.234185218811035156e+00
1.015000000000000000e+03 2.514712715148925781e+01 1.549558401107788086e+00 -1.071314454078674316e+00 5.730299353599548340e-01 -1.494853496551513672e-01 2.083075977861881256e-02
1.016000000000000000e+03 2.509694671630859375e+01 2.220510482788085938e+00 -3.354020714759826660e-01 8.205996155738830566e-01 1.455592662096023560e-01 -9.968540072441101074e-02
1.017000000000000000e+03 2.284844779968261719e+01 2.158450841903686523e+00 -1.015319585800170898e+00 -1.919827610254287720e-01 -3.621906936168670654e-01 6.224414110183715820e-01
1.018000000000000000e+03 2.323612976074218750e+01 2.036507606506347656e+00 -1.056108832359313965e+00 -1.110688447952270508e-01 -3.501533269882202148e-01 5.977551937103271484e-01
1.019000000000000000e+03 2.342708206176757812e+01 1.975763678550720215e+00 -1.132758498191833496e+00 -7.512185722589492798e-02 -3.623641133308410645e-01 6.097399592399597168e-01
1.020000000000000000e+03 2.397681427001953125e+01 1.775106787681579590e+00 -1.178923249244689941e+00 2.209601178765296936e-02 -3.470481932163238525e-01 4.592314362525939941e-01
1.021000000000000000e+03 2.454235267639160156e+01 1.698370933532714844e+00 -1.129970312118530273e+00 2.767442762851715088e-01 -2.559678256511688232e-01 3.414654731750488281e-01
1.022000000000000000e+03 1.906977844238281250e+01 3.268315553665161133e+00 -6.385781168937683105e-01 -4.196960330009460449e-01 -3.174822330474853516e-01 3.828328847885131836e-01
1.023000000000000000e+03 2.007934951782226562e+01 2.837131738662719727e+00 -8.615846633911132812e-01 -4.004549086093902588e-01 -3.786118626594543457e-01 4.767237901687622070e-01
1.024000000000000000e+03 2.145109367370605469e+01 2.521472454071044922e+00 -9.942561388015747070e-01 -3.149156570434570312e-01 -3.927515447139739990e-01 6.247976422309875488e-01
1.025000000000000000e+03 2.952604293823242188e+01 -8.455164909362792969e+00 6.469007730484008789e-01 1.249387741088867188e+01 3.942233562469482422e+00 1.569385409355163574e+00
1.026000000000000000e+03 1.239724922180175781e+01 -1.136935234069824219e+01 -2.225905060768127441e-01 1.653602719306945801e-01 -1.716906949877738953e-02 -1.183921173214912415e-01
1.027000000000000000e+03 1.721347618103027344e+01 -7.995540618896484375e+00 -6.237077526748180389e-03 1.443789452314376831e-01 4.144256189465522766e-02 2.039713412523269653e-02
1.028000000000000000e+03 1.740394973754882812e+01 -9.245905876159667969e+00 -1.141223162412643433e-01 -5.904236063361167908e-02 -5.194940418004989624e-02 1.087038293480873108e-01
1.029000000000000000e+03 1.434048080444335938e+01 -1.406326293945312500e+01 2.636970877647399902e-01 5.173445940017700195e-01 2.343125045299530029e-01 -3.326020836830139160e-01
1.030000000000000000e+03 2.955853080749511719e+01 -8.034104347229003906e+00 3.162352740764617920e-01 1.056247043609619141e+01 3.263611793518066406e+00 9.106801748275756836e-01
1.031000000000000000e+03 2.106928062438964844e+01 -1.315611743927001953e+01 -1.722971320152282715e+00 -5.444077253341674805e-01 -6.802137494087219238e-01 8.026802539825439453e-01
1.032000000000000000e+03 1.659151458740234375e+01 -4.814136326313018799e-01 -9.370046108961105347e-02 1.282407809048891068e-02 -2.426291443407535553e-02 -4.709521681070327759e-02
1.033000000000000000e+03 1.581479549407958984e+01 -5.957187414169311523e-01 -8.906886726617813110e-02 -5.868426524102687836e-03 -2.848118916153907776e-02 -4.525047540664672852e-02
1.034000000000000000e+03 2.897190666198730469e+01 -3.596013545989990234e+00 -5.268504619598388672e-01 -1.267558932304382324e-01 -1.960819065570831299e-01 7.054672837257385254e-01
1.035000000000000000e+03 2.880777740478515625e+01 -1.096070957183837891e+01 3.477916002273559570e+00 8.343576431274414062e+00 3.546447515487670898e+00 4.929610252380371094e+00
1.036000000000000000e+03 2.942462921142578125e+01 -1.035446357727050781e+01 3.465356349945068359e+00 1.007749748229980469e+01 4.062856197357177734e+00 4.241854190826416016e+00
1.037000000000000000e+03 1.589157485961914062e+01 -1.095886898040771484e+01 -3.426719903945922852e-01 2.532789409160614014e-01 -2.681791968643665314e-02 7.265477627515792847e-02
1.038000000000000000e+03 1.439589309692382812e+01 -9.019067883491516113e-01 -7.122706621885299683e-02 -1.875335536897182465e-02 -2.699412778019905090e-02 -4.978317022323608398e-02
1.039000000000000000e+03 1.800895309448242188e+01 -3.167104482650756836e+00 6.032212078571319580e-02 1.517059952020645142e-01 6.360843777656555176e-02 6.615100055932998657e-02
1.040000000000000000e+03 1.873995208740234375e+01 -2.149322986602783203e+00 6.870083510875701904e-02 9.831349551677703857e-02 5.010429769754409790e-02 9.146218001842498779e-02
1.041000000000000000e+03 1.867188262939453125e+01 -1.513285636901855469e+00 2.755365893244743347e-02 5.828132852911949158e-02 2.575049735605716705e-02 5.306125432252883911e-02
1.042000000000000000e+03 1.615899276733398438e+01 -5.686564445495605469e+00 6.736762356013059616e-03 1.075778007507324219e-01 3.429437056183815002e-02 6.629616022109985352e-03
1.043000000000000000e+03 2.918303489685058594e+01 -4.446108341217041016e+00 -2.101483792066574097e-01 2.878141641616821289e+00 8.003979921340942383e-01 -8.581005781888961792e-02
1.044000000000000000e+03 2.798352622985839844e+01 -1.187625312805175781e+01 2.377758741378784180e+00 5.964095592498779297e+00 2.502556324005126953e+00 3.822494506835937500e+00
1.045000000000000000e+03 2.984858703613281250e+01 -5.787064552307128906e+00 1.871688514947891235e-01 7.505759239196777344e+00 2.307878494262695312e+00 4.019140303134918213e-01
1.046000000000000000e+03 1.905573654174804688e+01 -1.243382811546325684e+00 7.111138105392456055e-02 6.400649249553680420e-02 4.053536430001258850e-02 2.476046420633792877e-02
1.047000000000000000e+03 2.926595306396484375e+01 -4.785926342010498047e+00 1.022956743836402893e-01 4.554280757904052734e+00 1.396973013877868652e+00 -3.218018114566802979e-01
1.048000000000000000e+03 2.988339996337890625e+01 -4.641613483428955078e+00 -5.509310364723205566e-01 6.671929359436035156e+00 1.836299538612365723e+00 7.688254714012145996e-01
1.049000000000000000e+03 3.039093208312988281e+01 -6.689405441284179688e+00 4.845989942550659180e-01 8.358058929443359375e+00 2.652797460556030273e+00 9.710423946380615234e-01
1.050000000000000000e+03 2.041346359252929688e+01 -1.260884284973144531e+01 -9.950387477874755859e-01 -5.619270205497741699e-01 -4.670897424221038818e-01 6.614507436752319336e-01
1.051000000000000000e+03 1.754077911376953125e+01 -4.337452411651611328e+00 1.155219785869121552e-02 1.763556897640228271e-01 5.637236684560775757e-02 4.692971333861351013e-02
1.052000000000000000e+03 2.818507003784179688e+01 -1.095451736450195312e+01 4.791929721832275391e+00 6.745357513427734375e+00 3.461186170578002930e+00 5.506561756134033203e+00
1.053000000000000000e+03 1.686976623535156250e+01 -4.697920799255371094e+00 1.226336602121591568e-02 1.359764933586120605e-01 4.447195678949356079e-02 1.825157180428504944e-02
1.054000000000000000e+03 1.695730209350585938e+01 -5.575361728668212891e+00 4.991161171346902847e-03 1.645644456148147583e-01 5.086668208241462708e-02 1.602604426443576813e-02
1.055000000000000000e+03 1.746175384521484375e+01 -4.749359130859375000e+00 2.236682362854480743e-02 1.843261569738388062e-01 6.200789660215377808e-02 3.710480034351348877e-02
1.056000000000000000e+03 1.695051574707031250e+01 -5.976832866668701172e+00 1.400401908904314041e-02 1.681884527206420898e-01 5.465773865580558777e-02 1.498109847307205200e-02
1.057000000000000000e+03 1.880813217163085938e+01 -1.240785598754882812e+01 -5.950566530227661133e-01 -9.065371006727218628e-02 -2.057131081819534302e-01 2.750799655914306641e-01
1.058000000000000000e+03 1.667334747314453125e+01 -7.594605445861816406e+00 -1.120262965559959412e-02 1.242273598909378052e-01 3.390742093324661255e-02 3.441490605473518372e-02
1.059000000000000000e+03 1.731269836425781250e+01 -6.375663757324218750e+00 9.418024681508541107e-03 2.056530416011810303e-01 6.452132016420364380e-02 1.352856960147619247e-02
1.060000000000000000e+03 1.691447830200195312e+01 -6.375297069549560547e+00 7.937578484416007996e-04 1.659809499979019165e-01 5.003241449594497681e-02 1.292945351451635361e-02
1.061000000000000000e+03 1.725305175781250000e+01 -7.183629035949707031e+00 3.286213614046573639e-03 1.866657882928848267e-01 5.698560178279876709e-02 9.010678157210350037e-03
1.062000000000000000e+03 2.517331123352050781e+01 -1.298680782318115234e+01 -1.059671878814697266e+00 2.764308750629425049e-01 -2.349722981452941895e-01 3.569043427705764771e-02
1.063000000000000000e+03 2.591133308410644531e+01 -1.263999366760253906e+01 3.585850298404693604e-01 8.938507437705993652e-01 3.757307231426239014e-01 8.412332534790039062e-01
1.064000000000000000e+03 2.956219291687011719e+01 -6.736700534820556641e+00 1.396287679672241211e-01 8.275543212890625000e+00 2.524551391601562500e+00 3.887585699558258057e-01
1.065000000000000000e+03 2.945076751708984375e+01 -5.929975032806396484e+00 5.524738505482673645e-02 7.430978775024414062e+00 2.245867729187011719e+00 -1.573554985225200653e-02
1.066000000000000000e+03 1.944361495971679688e+01 -1.006391406059265137e+00 3.082961216568946838e-02 3.272771090269088745e-02 1.906719617545604706e-02 6.416998058557510376e-02
1.067000000000000000e+03 2.917325592041015625e+01 -1.126663208007812500e+01 2.326455116271972656e+00 8.412120819091796875e+00 3.221572875976562500e+00 3.916897535324096680e+00
1.068000000000000000e+03 2.627210044860839844e+01 -1.244714164733886719e+01 1.178369045257568359e+00 1.350421667098999023e+00 7.586372494697570801e-01 1.409254431724548340e+00
1.069000000000000000e+03 2.361207008361816406e+01 -1.349006557464599609e+01 -2.784206628799438477e+00 -1.049209758639335632e-01 -8.667382597923278809e-01 -4.657550752162933350e-01
1.070000000000000000e+03 1.969224929809570312e+01 -1.327406287193298340e+00 1.326453834772109985e-01 9.389642626047134399e-02 6.796254217624664307e-02 7.062441110610961914e-02
1.071000000000000000e+03 1.902180862426757812e+01 -1.115995597839355469e+01 -4.344679713249206543e-01 -3.337225317955017090e-01 -2.304571419954299927e-01 3.930369615554809570e-01
1.072000000000000000e+03 1.930434226989746094e+01 -1.143683242797851562e+01 -4.750439226627349854e-01 -3.768122196197509766e-01 -2.555568516254425049e-01 4.173446893692016602e-01
1.073000000000000000e+03 2.940904808044433594e+01 -1.096907329559326172e+01 2.607825756072998047e+00 8.935210227966308594e+00 3.462910652160644531e+00 3.868383169174194336e+00
1.074000000000000000e+03 2.909229469299316406e+01 -1.065732192993164062e+01 3.488385200500488281e+00 9.347404479980468750e+00 3.850736856460571289e+00 4.856072902679443359e+00
1.075000000000000000e+03 1.845019912719726562e+01 -1.060914993286132812e+01 -3.745096623897552490e-01 -2.760580182075500488e-01 -1.951702982187271118e-01 3.257375657558441162e-01
1.076000000000000000e+03 1.836951446533203125e+01 -1.128754425048828125e+01 -4.296218156814575195e-01 -1.675596833229064941e-01 -1.791544407606124878e-01 2.975216209888458252e-01
1.077000000000000000e+03 1.722909736633300781e+01 -7.587878227233886719e+00 -6.977704353630542755e-03 1.687332689762115479e-01 4.852667078375816345e-02 1.123836822807788849e-02
1.078000000000000000e+03 1.936481285095214844e+01 -1.584210276603698730e+00 8.155091851949691772e-02 7.070357352495193481e-02 4.567634686827659607e-02 9.901349246501922607e-02
1.079000000000000000e+03 1.841658210754394531e+01 -1.304527091979980469e+01 -5.601357221603393555e-01 6.657061725854873657e-02 -1.480695307254791260e-01 9.590012580156326294e-02
1.080000000000000000e+03 1.661017227172851562e+01 -8.024576187133789062e+00 -3.607279062271118164e-02 1.043844744563102722e-01 2.049350552260875702e-02 5.286413803696632385e-02
1.081000000000000000e+03 1.873727416992187500e+01 -1.088527870178222656e+01 -4.135331511497497559e-01 -3.085786104202270508e-01 -2.166335284709930420e-01 3.545000553131103516e-01
1.082000000000000000e+03 3.003536987304687500e+01 -6.524672031402587891e+00 2.866476476192474365e-01 8.250486373901367188e+00 2.561140298843383789e+00 7.177414894104003906e-01
1.083000000000000000e+03 1.958081817626953125e+01 -1.171943283081054688e+01 -5.119664669036865234e-01 -4.106740951538085938e-01 -2.767921686172485352e-01 4.690818190574645996e-01
1.084000000000000000e+03 1.985118293762207031e+01 -1.201026821136474609e+01 -6.088938713073730469e-01 -4.736040532588958740e-01 -3.247493803501129150e-01 5.140220522880554199e-01
1.085000000000000000e+03 1.297379302978515625e+01 2.609719514846801758e+00 -5.048371553421020508e-01 4.341711848974227905e-02 -1.384260207414627075e-01 9.978590160608291626e-02
1.086000000000000000e+03 1.242826366424560547e+01 7.385812759399414062e+00 4.736125841736793518e-02 -6.231097970157861710e-03 1.233904808759689331e-02 -1.997274532914161682e-02
1.087000000000000000e+03 1.206708145141601562e+01 3.186168909072875977e+00 -3.450023531913757324e-01 4.833402857184410095e-02 -8.900049328804016113e-02 1.369363665580749512e-01
1.088000000000000000e+03 1.016694068908691406e+01 3.041406631469726562e+00 -2.948303222656250000e-01 2.808985672891139984e-02 -8.002214133739471436e-02 1.317215412855148315e-01
1.089000000000000000e+03 1.510270023345947266e+01 -7.445333600044250488e-01 -8.051619678735733032e-02 2.443420235067605972e-03 -2.342183329164981842e-02 -5.280808359384536743e-02
1.090000000000000000e+03 1.294368648529052734e+01 -1.226719021797180176e+00 -5.220488831400871277e-02 -2.533998526632785797e-02 -2.326346188783645630e-02 -5.190596356987953186e-02
1.091000000000000000e+03 1.656782722473144531e+01 -5.987321376800537109e+00 3.924723714590072632e-03 1.378651559352874756e-01 4.253696277737617493e-02 1.173159200698137283e-02
1.092000000000000000e+03 1.384992694854736328e+01 -1.650381565093994141e+00 -4.125526547431945801e-02 -1.996132545173168182e-02 -1.836497709155082703e-02 -5.300797894597053528e-02
1.093000000000000000e+03 1.259604167938232422e+01 4.421643733978271484e+00 -1.787230819463729858e-01 2.869106456637382507e-02 -4.500960558652877808e-02 1.846862882375717163e-01
1.094000000000000000e+03 1.289557743072509766e+01 3.542183399200439453e+00 -3.487046062946319580e-01 1.370434463024139404e-02 -1.005000770092010498e-01 1.759229600429534912e-01
1.095000000000000000e+03 1.605146598815917969e+01 4.017096996307373047e+00 -3.625361919403076172e-01 -4.135178402066230774e-02 -1.211663931608200073e-01 1.445032060146331787e-01
1.096000000000000000e+03 3.256269836425781250e+01 -7.752500940114259720e-03 2.197287082672119141e+00 4.976641654968261719e+00 2.152178525924682617e+00 -3.823840916156768799e-01
1.097000000000000000e+03 3.200764846801757812e+01 -2.501452684402465820e+00 4.008597850799560547e+00 9.655347824096679688e+00 4.099183559417724609e+00 -3.788348913192749023e+00
1.098000000000000000e+03 3.150251770019531250e+01 -3.023159265518188477e+00 7.235101461410522461e-01 1.162607192993164062e+01 3.704874515533447266e+00 -2.467779636383056641e+00
1.099000000000000000e+03 3.671308898925781250e+01 -6.910010337829589844e+00 1.778559207916259766e+00 8.925684928894042969e+00 3.211273193359375000e+00 1.020289778709411621e+00
1.100000000000000000e+03 3.045011138916015625e+01 -3.344228744506835938e+00 -6.881093382835388184e-01 9.545624732971191406e+00 2.657254695892333984e+00 6.867480278015136719e-01
1.101000000000000000e+03 3.167550277709960938e+01 -3.879350662231445312e+00 1.760599166154861450e-01 1.002117443084716797e+01 3.059170246124267578e+00 -1.353846430778503418e+00
1.102000000000000000e+03 3.157492828369140625e+01 4.842993617057800293e-01 -1.819662213325500488e+00 8.732377052307128906e+00 2.073814630508422852e+00 -2.483638525009155273e+00
1.103000000000000000e+03 3.200919342041015625e+01 -5.840610861778259277e-01 4.498032569885253906e+00 8.061931610107421875e+00 3.767989158630371094e+00 -4.597072899341583252e-01
1.104000000000000000e+03 2.992621803283691406e+01 -3.951607942581176758e+00 -9.753485918045043945e-01 6.778512477874755859e+00 1.740949153900146484e+00 1.062443017959594727e+00
1.105000000000000000e+03 2.959429168701171875e+01 -4.014435768127441406e+00 -7.629733681678771973e-01 4.604150772094726562e+00 1.152353167533874512e+00 1.070647835731506348e+00
1.106000000000000000e+03 3.148637390136718750e+01 1.020197033882141113e+00 -1.881625294685363770e+00 7.931848049163818359e+00 1.815066814422607422e+00 -2.444042682647705078e+00
1.107000000000000000e+03 3.110867691040039062e+01 1.464157462120056152e+00 -2.438008785247802734e+00 8.521171569824218750e+00 1.824948906898498535e+00 -3.318779230117797852e+00
1.108000000000000000e+03 7.569633007049560547e+00 -2.635960578918457031e+00 3.702599089592695236e-03 -2.464368939399719238e-02 -6.282327231019735336e-03 -2.180499583482742310e-02
1.109000000000000000e+03 1.724638342857360840e+00 -7.737895488739013672e+00 2.351296134293079376e-03 2.887854911386966705e-02 9.368953295052051544e-03 1.713998802006244659e-02
1.110000000000000000e+03 8.252336502075195312e+00 -1.859231710433959961e+00 2.129902364686131477e-03 -1.749140769243240356e-02 -4.608451854437589645e-03 -2.410660311579704285e-02
1.111000000000000000e+03 8.485081672668457031e+00 -3.301228046417236328e+00 -1.562168356031179428e-03 -3.462764993309974670e-02 -1.085694599896669388e-02 -3.646463528275489807e-02
1.112000000000000000e+03 8.362051963806152344e+00 -2.578714609146118164e+00 -1.744847279042005539e-03 -1.713366061449050903e-02 -5.663552321493625641e-03 -2.858790382742881775e-02
1.113000000000000000e+03 6.680348873138427734e+00 -1.898007631301879883e+00 1.133931521326303482e-02 -1.391368824988603592e-02 -7.723119342699646950e-04 -8.149703033268451691e-03
1.114000000000000000e+03 6.771837711334228516e+00 -2.692041158676147461e+00 5.979056935757398605e-03 -1.535111386328935623e-02 -2.811617217957973480e-03 -9.070130065083503723e-03
1.115000000000000000e+03 5.165982246398925781e+00 -2.795232772827148438e+00 9.218927472829818726e-03 -1.039248425513505936e-02 -3.520672034937888384e-04 7.342268712818622589e-03
1.116000000000000000e+03 2.011015892028808594e+00 -2.911455392837524414e+00 4.683994688093662262e-03 6.268336437642574310e-03 3.285699291154742241e-03 1.395684480667114258e-02
1.117000000000000000e+03 3.561467647552490234e+00 -3.865355491638183594e+00 2.631590701639652252e-03 -8.603292517364025116e-03 -1.791510614566504955e-03 1.233154628425836563e-02
1.118000000000000000e+03 1.182339549064636230e+00 -2.065588712692260742e+00 2.901477972045540810e-03 8.644045330584049225e-03 3.463656874373555183e-03 8.539916947484016418e-03
1.119000000000000000e+03 5.499506592750549316e-01 -4.946063995361328125e+00 -1.440566964447498322e-03 3.647138550877571106e-02 1.050924509763717651e-02 6.053044926375150681e-03
1.120000000000000000e+03 9.944543838500976562e+00 -2.425986528396606445e+00 -1.203472912311553955e-02 -1.863400265574455261e-02 -9.200619533658027649e-03 -4.491444677114486694e-02
1.121000000000000000e+03 1.074722194671630859e+01 -2.303230285644531250e+00 -1.582245156168937683e-02 -2.905044145882129669e-02 -1.346186827868223190e-02 -5.093586072325706482e-02
1.122000000000000000e+03 1.232931423187255859e+01 -1.989304900169372559e+00 -2.846999093890190125e-02 -2.712353505194187164e-02 -1.667805761098861694e-02 -5.515566468238830566e-02
1.123000000000000000e+03 1.456608963012695312e+01 -1.472036242485046387e+00 -4.706149920821189880e-02 -3.039191011339426041e-03 -1.503020711243152618e-02 -5.364377424120903015e-02
1.124000000000000000e+03 9.378798484802246094e+00 2.862340211868286133e+00 -2.668276727199554443e-01 4.238938540220260620e-02 -6.733148545026779175e-02 1.115403175354003906e-01
1.125000000000000000e+03 6.168911457061767578e+00 1.942231535911560059e+00 -1.637004762887954712e-01 -2.618869533762335777e-03 -4.989580437541007996e-02 9.123587608337402344e-02
1.126000000000000000e+03 1.889481663703918457e+00 6.528596878051757812e+00 -1.197401899844408035e-02 -1.904769539833068848e-01 -6.073529273271560669e-02 1.181477755308151245e-01
1.127000000000000000e+03 3.154903650283813477e+00 3.692160367965698242e+00 -5.128678679466247559e-02 -5.830916762351989746e-02 -3.287878632545471191e-02 1.078780367970466614e-01
1.128000000000000000e+03 5.136070251464843750e+00 4.715088367462158203e+00 -9.345770627260208130e-02 -3.236191347241401672e-02 -3.774588555097579956e-02 1.712321043014526367e-01
1.129000000000000000e+03 2.900311470031738281e+00 1.980748295783996582e+00 -5.071673169732093811e-02 -2.550055645406246185e-02 -2.286518737673759460e-02 5.982000380754470825e-02
1.130000000000000000e+03 1.339094877243041992e+00 3.343008756637573242e+00 -1.268188469111919403e-02 -6.721646338701248169e-02 -2.396950311958789825e-02 4.754965752363204956e-02
1.131000000000000000e+03 8.610960006713867188e+00 2.761642932891845703e+00 -2.416008412837982178e-01 2.189104259014129639e-02 -6.591293960809707642e-02 1.164599210023880005e-01
1.132000000000000000e+03 7.032446384429931641e+00 2.784091711044311523e+00 -1.788321584463119507e-01 4.421203862875699997e-03 -5.232328549027442932e-02 1.223234385251998901e-01
1.133000000000000000e+03 5.376461505889892578e+00 2.855942010879516602e+00 -1.261876225471496582e-01 -1.120016444474458694e-02 -4.121633619070053101e-02 1.198299825191497803e-01
1.134000000000000000e+03 6.209486484527587891e+00 2.847247600555419922e+00 -1.504115462303161621e-01 -4.710070497822016478e-04 -4.526476562023162842e-02 1.214352622628211975e-01
1.135000000000000000e+03 1.822045898437500000e+01 5.018433570861816406e+00 1.826209276914596558e-01 -3.939056694507598877e-01 -6.338541954755783081e-02 1.178003326058387756e-01
1.136000000000000000e+03 1.737211036682128906e+01 5.018438339233398438e+00 6.797391921281814575e-02 -2.784363031387329102e-01 -6.313871592283248901e-02 9.713082760572433472e-02
1.137000000000000000e+03 1.754292678833007812e+01 4.101853847503662109e+00 -3.235195875167846680e-01 -2.788727581501007080e-01 -1.807177066802978516e-01 2.183180153369903564e-01
1.138000000000000000e+03 1.437072849273681641e+01 5.948031902313232422e+00 3.111802041530609131e-01 8.818041533231735229e-02 1.198081821203231812e-01 1.460534334182739258e-01
1.139000000000000000e+03 1.895383071899414062e+01 -6.687519550323486328e-01 4.034916404634714127e-03 1.375196781009435654e-02 5.336065310984849930e-03 3.397989785298705101e-03
1.140000000000000000e+03 1.742332649230957031e+01 -3.858078718185424805e-01 -9.821964800357818604e-02 1.432732120156288147e-02 -2.516769804060459137e-02 -3.101495094597339630e-02
1.141000000000000000e+03 1.526485633850097656e+01 -1.305850505828857422e+00 -5.211904644966125488e-02 -6.284578703343868256e-03 -1.752108708024024963e-02 -4.733625426888465881e-02
1.142000000000000000e+03 3.998585510253906250e+01 -2.358682060241699219e+01 1.265379190444946289e+00 1.092850303649902344e+01 3.658164501190185547e+00 1.565363645553588867e+00
1.143000000000000000e+03 4.775954055786132812e+01 -2.472123336791992188e+01 -6.031663417816162109e-01 5.806729793548583984e+00 1.561069011688232422e+00 -3.120090961456298828e+00
1.144000000000000000e+03 4.759245681762695312e+01 2.634705162048339844e+01 2.312157154083251953e+00 7.373836517333984375e+00 2.905797958374023438e+00 1.659368276596069336e+00
1.145000000000000000e+03 4.763574981689453125e+01 2.916902732849121094e+01 1.283081412315368652e+00 6.750225067138671875e+00 2.409991979598999023e+00 5.283515453338623047e-01
1.146000000000000000e+03 5.392225265502929688e+01 2.639854812622070312e+01 1.578463792800903320e+00 8.151823997497558594e+00 2.919086456298828125e+00 -2.179214477539062500e+00
1.147000000000000000e+03 5.147533035278320312e+01 2.834777450561523438e+01 1.628434538841247559e+00 7.202613353729248047e+00 2.649314403533935547e+00 7.022308707237243652e-01
1.148000000000000000e+03 1.871827125549316406e+01 -2.405102348327636719e+01 7.328434586524963379e-01 -1.581434346735477448e-02 2.151087373495101929e-01 1.318004012107849121e+00
1.149000000000000000e+03 2.971290588378906250e+01 2.695352935791015625e+01 9.562349915504455566e-01 1.640881299972534180e+00 7.791348695755004883e-01 -1.117179155349731445e+00
1.150000000000000000e+03 3.303287887573242188e+01 3.000025939941406250e+01 7.145243287086486816e-01 5.551812171936035156e+00 1.879900932312011719e+00 -1.139532208442687988e+00
1.151000000000000000e+03 4.663052749633789062e+01 -1.215407657623291016e+01 1.492214083671569824e+00 6.686795234680175781e+00 2.453702926635742188e+00 3.270508289337158203e+00
1.152000000000000000e+03 5.044859313964843750e+01 -9.533210754394531250e+00 2.245567798614501953e+00 6.658909797668457031e+00 2.671343326568603516e+00 -3.117744624614715576e-01
1.153000000000000000e+03 3.125714683532714844e+01 1.627529144287109375e+01 9.367603659629821777e-01 5.391026020050048828e+00 1.898335933685302734e+00 1.996825337409973145e+00
1.154000000000000000e+03 6.065631484985351562e+01 3.575622177124023438e+01 -1.937914967536926270e+00 3.983220160007476807e-01 -4.618778824806213379e-01 1.844159960746765137e-01
1.155000000000000000e+03 5.019957733154296875e+01 -3.226744079589843750e+01 2.184235334396362305e+00 9.674295425415039062e+00 3.557559013366699219e+00 -1.361030817031860352e+00
1.156000000000000000e+03 4.333369064331054688e+01 -4.121191787719726562e+01 -1.289064645767211914e+00 3.690671026706695557e-01 -2.759992778301239014e-01 -3.525344282388687134e-02
1.157000000000000000e+03 3.913063049316406250e+01 -3.807306289672851562e+01 -2.000338792800903320e+00 3.562975883483886719e+00 4.687910974025726318e-01 1.574954837560653687e-01
1.158000000000000000e+03 4.979543685913085938e+01 -2.953900718688964844e+01 1.890020132064819336e+00 6.775161266326904297e+00 2.599554538726806641e+00 -1.853156566619873047e+00
1.159000000000000000e+03 4.969051742553710938e+01 -3.330159378051757812e+01 1.323972344398498535e+00 1.103229904174804688e+01 3.706881284713745117e+00 1.074769496917724609e-01
1.160000000000000000e+03 4.755818939208984375e+01 -7.677981376647949219e+00 1.732622861862182617e+00 1.090950202941894531e+01 3.792637586593627930e+00 -1.843557119369506836e+00
1.161000000000000000e+03 5.805427169799804688e+01 4.119163894653320312e+01 -4.489528834819793701e-01 2.276925802230834961e+00 5.483918190002441406e-01 2.660323977470397949e-01
1.162000000000000000e+03 2.474415397644042969e+01 3.048560142517089844e+01 6.189612746238708496e-01 1.383323907852172852e+00 6.006855368614196777e-01 4.392448067665100098e-01
1.163000000000000000e+03 5.732266235351562500e+01 3.584793853759765625e+01 -1.103597760200500488e+00 1.182961106300354004e+00 2.380899339914321899e-02 8.305813074111938477e-01
1.164000000000000000e+03 1.582834625244140625e+01 -2.418912506103515625e+01 3.393650352954864502e-01 9.072676301002502441e-01 3.739897906780242920e-01 9.534028172492980957e-01
1.165000000000000000e+03 1.911274528503417969e+01 -2.573387336730957031e+01 -2.067183405160903931e-01 -2.263906151056289673e-01 -1.299326866865158081e-01 1.201169133186340332e+00
1.166000000000000000e+03 4.055382537841796875e+01 -2.480259704589843750e+01 2.465475082397460938e+00 8.809997558593750000e+00 3.382641792297363281e+00 2.662448883056640625e+00
1.167000000000000000e+03 3.908847045898437500e+01 -4.208565711975097656e+00 1.600722312927246094e+00 2.731459856033325195e+00 1.299654603004455566e+00 2.342885017395019531e+00
1.168000000000000000e+03 4.095107269287109375e+01 -3.374597311019897461e+00 -5.433014631271362305e-01 8.472756743431091309e-01 9.119226038455963135e-02 9.107856750488281250e-01
1.169000000000000000e+03 4.339204788208007812e+01 -4.007009506225585938e+00 -2.935141921043395996e-01 6.443925499916076660e-01 1.052635163068771362e-01 -4.143068492412567139e-01
1.170000000000000000e+03 4.458564376831054688e+01 -2.769617795944213867e+00 3.950874507427215576e-01 2.684743404388427734e+00 9.239492416381835938e-01 -2.006406307220458984e+00
1.171000000000000000e+03 3.825070571899414062e+01 -5.086832523345947266e+00 2.938361644744873047e+00 5.205245494842529297e+00 2.443082094192504883e+00 3.325864076614379883e+00
1.172000000000000000e+03 3.083425903320312500e+01 -7.891125679016113281e+00 1.665909290313720703e+00 8.609606742858886719e+00 3.082654714584350586e+00 2.242987871170043945e+00
1.173000000000000000e+03 3.538226318359375000e+01 -1.460136032104492188e+01 -4.721973419189453125e+00 1.247088074684143066e+00 -1.042465686798095703e+00 -1.120504379272460938e+00
1.174000000000000000e+03 2.131615257263183594e+01 1.598072624206542969e+01 -3.493656814098358154e-01 4.447376728057861328e+00 1.229403257369995117e+00 -1.543119102716445923e-01
1.175000000000000000e+03 3.193782997131347656e+01 2.291613006591796875e+01 3.751419484615325928e-01 8.225275039672851562e+00 2.580125093460083008e+00 -5.384329557418823242e-01
1.176000000000000000e+03 3.385242843627929688e+01 2.312912178039550781e+01 4.240669608116149902e-01 6.758032321929931641e+00 2.154629707336425781e+00 -3.803335130214691162e-01
1.177000000000000000e+03 4.127918243408203125e+01 -2.601995849609375000e+01 -1.385999172925949097e-01 4.890444278717041016e+00 1.425553321838378906e+00 1.577139616012573242e+00
1.178000000000000000e+03 2.151996231079101562e+01 3.199879264831542969e+01 2.798218131065368652e-01 3.169401168823242188e+00 1.034766912460327148e+00 3.205907940864562988e-01
1.179000000000000000e+03 3.213740158081054688e+01 1.379232406616210938e+01 -2.348195552825927734e+00 2.320477724075317383e+00 -8.315308950841426849e-03 1.674664139747619629e+00
1.180000000000000000e+03 2.853205299377441406e+01 1.307589149475097656e+01 -1.488448619842529297e+00 2.439773797988891602e+00 2.853975594043731689e-01 6.438000202178955078e-01
1.181000000000000000e+03 2.907826805114746094e+01 1.046355628967285156e+01 1.098463654518127441e+00 5.853186130523681641e+00 2.085494995117187500e+00 1.165914416313171387e+00
1.182000000000000000e+03 3.868997573852539062e+01 -1.675543212890625000e+01 4.887688457965850830e-01 5.392014980316162109e+00 1.764235138893127441e+00 -2.165645599365234375e+00
1.183000000000000000e+03 4.035551452636718750e+01 -1.893734169006347656e+01 1.924820303916931152e+00 5.947353839874267578e+00 2.361652135848999023e+00 -1.766759753227233887e+00
1.184000000000000000e+03 3.686028671264648438e+01 1.659770202636718750e+01 7.547487020492553711e-01 2.097187280654907227e+00 8.555808067321777344e-01 -2.336801767349243164e+00
1.185000000000000000e+03 3.570879364013671875e+01 -7.392939567565917969e+00 2.509756326675415039e+00 7.980273723602294922e+00 3.147008895874023438e+00 -3.689671456813812256e-01
1.186000000000000000e+03 2.216784667968750000e+01 2.019321823120117188e+01 7.291479706764221191e-01 8.279402732849121094e+00 2.702565193176269531e+00 -9.703391790390014648e-01
1.187000000000000000e+03 2.020435142517089844e+01 1.866374015808105469e+01 4.302435219287872314e-01 3.461799383163452148e+00 1.167612910270690918e+00 -2.971640415489673615e-02
1.188000000000000000e+03 3.630003738403320312e+01 -1.131262588500976562e+01 1.890979051589965820e+00 5.101728439331054688e+00 2.097812175750732422e+00 -1.474259257316589355e+00
1.189000000000000000e+03 3.790820312500000000e+01 -3.592743873596191406e+00 9.412016272544860840e-01 5.298031806945800781e+00 1.871770024299621582e+00 2.648942708969116211e+00
1.190000000000000000e+03 3.667722702026367188e+01 -5.398843765258789062e+00 2.334903001785278320e+00 6.608294963836669922e+00 2.682959556579589844e+00 1.006281256675720215e+00
1.191000000000000000e+03 4.445949172973632812e+01 -1.450716686248779297e+01 -2.333297729492187500e+00 2.138789892196655273e+00 -5.835239961743354797e-02 1.887812852859497070e+00
1.192000000000000000e+03 4.404970932006835938e+01 -1.346365547180175781e+01 -4.841864109039306641e+00 6.449804902076721191e-01 -1.259065032005310059e+00 -1.246709227561950684e-01
1.193000000000000000e+03 3.061689567565917969e+01 2.776048469543457031e+01 7.780606746673583984e-01 3.138224840164184570e+00 1.174885630607604980e+00 -1.446213841438293457e+00
1.194000000000000000e+03 3.743201446533203125e+01 2.312615203857421875e+01 2.397694885730743408e-01 2.129932641983032227e+00 7.109106779098510742e-01 -1.344049096107482910e+00
1.195000000000000000e+03 3.136930084228515625e+01 2.668463516235351562e+01 8.021581768989562988e-01 4.882698059082031250e+00 1.705456852912902832e+00 -1.188181638717651367e+00
1.196000000000000000e+03 3.333628463745117188e+01 3.131951332092285156e+01 7.013374567031860352e-02 5.279746055603027344e+00 1.604963898658752441e+00 -8.974156379699707031e-01
1.197000000000000000e+03 4.722449111938476562e+01 -1.418129539489746094e+01 -2.484192609786987305e+00 6.512900829315185547e+00 1.208612442016601562e+00 2.674512386322021484e+00
1.198000000000000000e+03 3.203017044067382812e+01 -2.728691291809082031e+01 -1.027490139007568359e+00 7.982261776924133301e-01 -6.877916306257247925e-02 1.814943403005599976e-01
1.199000000000000000e+03 2.649966239929199219e+01 -3.362979125976562500e+01 3.643410801887512207e-01 4.598474979400634766e+00 1.488844752311706543e+00 -2.828788459300994873e-01
1.200000000000000000e+03 2.050105094909667969e+01 1.297414112091064453e+01 -5.712248012423515320e-02 4.019718647003173828e+00 1.188778758049011230e+00 -6.623443961143493652e-01
1.201000000000000000e+03 4.583805847167968750e+01 -1.419709396362304688e+01 -2.579925060272216797e+00 4.938964366912841797e+00 7.077117562294006348e-01 2.855053186416625977e+00
1.202000000000000000e+03 2.265542221069335938e+01 2.421971511840820312e+01 3.097577393054962158e-01 6.425463199615478516e+00 2.020566225051879883e+00 1.066934466361999512e+00
1.203000000000000000e+03 2.105329132080078125e+01 2.186892318725585938e+01 9.172005057334899902e-01 5.410665035247802734e+00 1.898359656333923340e+00 -1.284790337085723877e-01
1.204000000000000000e+03 1.835257530212402344e+01 2.502385902404785156e+01 -8.677201271057128906e-01 1.221898421645164490e-01 -2.236590832471847534e-01 -4.038167297840118408e-01
1.205000000000000000e+03 4.441844940185546875e+01 -3.429928779602050781e+00 4.129177629947662354e-01 2.350823163986206055e+00 8.291223049163818359e-01 -1.732597708702087402e+00
1.206000000000000000e+03 4.868489456176757812e+01 -6.802251338958740234e+00 1.756256699562072754e+00 7.872418880462646484e+00 2.888602733612060547e+00 4.705346003174781799e-02
1.207000000000000000e+03 2.131906890869140625e+01 2.837132644653320312e+01 2.045141458511352539e-01 4.254567146301269531e+00 1.337724328041076660e+00 -3.461270034313201904e-01
1.208000000000000000e+03 2.058293724060058594e+01 1.168198394775390625e+01 -8.041384816169738770e-02 2.356388092041015625e+00 6.827923059463500977e-01 -7.840055227279663086e-01
1.209000000000000000e+03 2.554735755920410156e+01 1.568336486816406250e+01 -2.630769491195678711e+00 4.598256349563598633e-01 -6.512832045555114746e-01 -1.047394424676895142e-01
1.210000000000000000e+03 4.642792510986328125e+01 -3.719703435897827148e+00 1.003285169601440430e+00 4.202153682708740234e+00 1.561631560325622559e+00 -2.159988164901733398e+00
1.211000000000000000e+03 4.548948669433593750e+01 -4.440888881683349609e+00 1.168472647666931152e+00 2.844875097274780273e+00 1.204004287719726562e+00 -1.871074557304382324e+00
1.212000000000000000e+03 2.144018936157226562e+01 2.300102233886718750e+01 2.640155255794525146e-01 6.225836753845214844e+00 1.946955680847167969e+00 1.783569008111953735e-01
1.213000000000000000e+03 3.742467498779296875e+01 -2.998414230346679688e+01 -4.230349361896514893e-01 4.000171184539794922e+00 1.073140859603881836e+00 1.125836491584777832e+00
1.214000000000000000e+03 3.271962738037109375e+01 2.051927375793457031e+01 4.480601102113723755e-02 6.996234416961669922e+00 2.112312078475952148e+00 -2.561588585376739502e-01
1.215000000000000000e+03 3.180815696716308594e+01 1.930458450317382812e+01 -3.323943167924880981e-02 7.605257511138916016e+00 2.271605491638183594e+00 5.412532016634941101e-02
1.216000000000000000e+03 3.180407142639160156e+01 2.175130653381347656e+01 -9.037453681230545044e-02 7.980369091033935547e+00 2.366998434066772461e+00 -1.285416334867477417e-01
1.217000000000000000e+03 3.327407073974609375e+01 2.225554466247558594e+01 2.748177647590637207e-01 6.758619785308837891e+00 2.110031366348266602e+00 -5.965669751167297363e-01
1.218000000000000000e+03 5.152099227905273438e+01 -1.062525653839111328e+01 1.326773524284362793e+00 5.427321910858154297e+00 2.026228666305541992e+00 -1.405544161796569824e+00
1.219000000000000000e+03 5.063490295410156250e+01 -8.731131553649902344e+00 2.087332248687744141e+00 7.268669605255126953e+00 2.806800603866577148e+00 -3.722808137536048889e-02
1.220000000000000000e+03 4.108089065551757812e+01 -2.120312213897705078e+00 6.805264353752136230e-01 2.005871295928955078e+00 8.059193491935729980e-01 1.089650869369506836e+00
1.221000000000000000e+03 3.645482254028320312e+01 1.363454103469848633e+00 -3.541309013962745667e-02 1.996066570281982422e+00 5.881960391998291016e-01 2.451794385910034180e+00
1.222000000000000000e+03 3.496657562255859375e+01 -1.369208049774169922e+01 -2.012654066085815430e+00 1.436414241790771484e+00 -1.728719323873519897e-01 -1.178615927696228027e+00
1.223000000000000000e+03 3.990044784545898438e+01 -3.511376190185546875e+01 6.540859341621398926e-01 3.891753196716308594e+00 1.363751769065856934e+00 -1.424226880073547363e+00
1.224000000000000000e+03 4.857732009887695312e+01 -2.669585418701171875e+01 -1.509009361267089844e+00 5.435916900634765625e+00 1.178072333335876465e+00 -3.517941951751708984e+00
1.225000000000000000e+03 3.922246932983398438e+01 -3.577115631103515625e+01 -1.262565732002258301e+00 5.293629646301269531e+00 1.209319114685058594e+00 3.349416851997375488e-01
1.226000000000000000e+03 4.753062057495117188e+01 -4.142115402221679688e+01 -2.141272068023681641e+00 2.532993793487548828e+00 1.175164729356765747e-01 5.386087298393249512e-01
1.227000000000000000e+03 5.440835952758789062e+01 2.020116615295410156e+01 -1.280506849288940430e+00 4.317881107330322266e+00 9.112122058868408203e-01 -2.532978296279907227e+00
1.228000000000000000e+03 5.887576675415039062e+01 1.973619079589843750e+01 3.397819697856903076e-01 4.969488143920898438e+00 1.592781066894531250e+00 5.954381823539733887e-01
1.229000000000000000e+03 3.688578796386718750e+01 -3.266545867919921875e+01 2.273935556411743164e+00 3.999708652496337891e+00 1.882093310356140137e+00 2.073623418807983398e+00
1.230000000000000000e+03 3.834671401977539062e+01 -3.332820892333984375e+01 1.726313829421997070e+00 7.795320034027099609e+00 2.856490135192871094e+00 1.362125158309936523e+00
1.231000000000000000e+03 4.822090148925781250e+01 -2.568082237243652344e+01 -1.112242221832275391e+00 5.350738525390625000e+00 1.271548867225646973e+00 -3.647713899612426758e+00
1.232000000000000000e+03 5.091085052490234375e+01 -3.366836929321289062e+01 2.441160917282104492e+00 7.163564205169677734e+00 2.881417512893676758e+00 -5.016529560089111328e-01
1.233000000000000000e+03 4.977869033813476562e+01 -3.745139694213867188e+01 -1.830712795257568359e+00 5.504097938537597656e+00 1.102015614509582520e+00 6.067999005317687988e-01
1.234000000000000000e+03 4.981007766723632812e+01 -3.564400863647460938e+01 4.206324517726898193e-01 6.527732372283935547e+00 2.084509372711181641e+00 1.158666253089904785e+00
1.235000000000000000e+03 6.377013397216796875e+01 3.016144371032714844e+01 3.330919742584228516e-01 7.483508110046386719e+00 2.344980001449584961e+00 3.323807120323181152e-01
1.236000000000000000e+03 6.726351928710937500e+01 2.948661994934082031e+01 1.346844077110290527e+00 5.218631744384765625e+00 1.969642758369445801e+00 1.030967831611633301e+00
1.237000000000000000e+03 3.946115112304687500e+01 -2.562499237060546875e+01 2.234335660934448242e+00 1.149846172332763672e+01 4.119839191436767578e+00 3.927748680114746094e+00
1.238000000000000000e+03 3.968873214721679688e+01 -2.745039176940917969e+01 -3.492506027221679688e+00 9.171422958374023438e+00 1.703675150871276855e+00 1.199013829231262207e+00
1.239000000000000000e+03 3.276979064941406250e+01 -3.057300758361816406e+01 -4.124913513660430908e-01 9.541369080543518066e-01 1.624936759471893311e-01 -8.972413539886474609e-01
1.240000000000000000e+03 2.828067207336425781e+01 -2.365921020507812500e+01 1.186189770698547363e+00 8.713094711303710938e+00 2.969785451889038086e+00 -5.313391089439392090e-01
1.241000000000000000e+03 3.838900756835937500e+01 -2.959797668457031250e+01 -8.919117450714111328e-01 6.728103160858154297e+00 1.750857472419738770e+00 1.686791181564331055e+00
1.242000000000000000e+03 3.614210128784179688e+01 -2.846727943420410156e+01 -4.653214931488037109e+00 4.074157774448394775e-01 -1.273739814758300781e+00 -6.371915936470031738e-01
1.243000000000000000e+03 2.747881698608398438e+01 -2.488071060180664062e+01 3.593025356531143188e-02 5.878140449523925781e+00 1.774221181869506836e+00 4.785545766353607178e-01
1.244000000000000000e+03 2.798976898193359375e+01 -1.914537620544433594e+01 1.646298646926879883e+00 7.940612792968750000e+00 2.876073360443115234e+00 1.506675601005554199e+00
1.245000000000000000e+03 4.855276107788085938e+01 -1.540364170074462891e+01 -3.084125518798828125e+00 5.009052753448486328e+00 5.774782299995422363e-01 2.278199672698974609e+00
1.246000000000000000e+03 5.154810333251953125e+01 -1.598149681091308594e+01 -4.436975955963134766e+00 -1.493824273347854614e-01 -1.375907540321350098e+00 -8.088569641113281250e-01
1.247000000000000000e+03 2.893029785156250000e+01 -1.157317733764648438e+01 1.982322335243225098e+00 7.816765785217285156e+00 2.939726591110229492e+00 3.872725486755371094e+00
1.248000000000000000e+03 3.871099472045898438e+01 -2.664457511901855469e+01 6.490705013275146484e-01 6.802616596221923828e+00 2.235506057739257812e+00 3.342711448669433594e+00
1.249000000000000000e+03 3.853818130493164062e+01 -1.301889896392822266e+01 -1.088895916938781738e+00 5.555371761322021484e+00 1.339942812919616699e+00 -2.798053503036499023e+00
1.250000000000000000e+03 3.090892219543457031e+01 -1.509958839416503906e+01 -2.279929637908935547e+00 5.925581932067871094e+00 1.093695759773254395e+00 2.164433956146240234e+00
1.251000000000000000e+03 4.363539886474609375e+01 -2.594514083862304688e+01 8.681485652923583984e-01 7.420117855072021484e-01 4.830481112003326416e-01 -1.043943047523498535e+00
1.252000000000000000e+03 2.750971031188964844e+01 -2.088724327087402344e+01 2.281657695770263672e+00 7.938823223114013672e+00 3.066144227981567383e+00 8.626884818077087402e-01
1.253000000000000000e+03 3.957743453979492188e+01 -1.440175056457519531e+01 -2.001395463943481445e+00 5.274964809417724609e+00 9.820708036422729492e-01 -2.922124385833740234e+00
1.254000000000000000e+03 2.879779434204101562e+01 -2.100847625732421875e+01 8.380480408668518066e-01 1.230711269378662109e+01 3.943548202514648438e+00 1.436360716819763184e+00
1.255000000000000000e+03 3.927511215209960938e+01 -1.963830566406250000e+01 1.540995597839355469e+00 7.532203197479248047e+00 2.721959590911865234e+00 -2.945453882217407227e+00
1.256000000000000000e+03 3.951729583740234375e+01 -1.779718589782714844e+01 1.420639634132385254e+00 5.478258609771728516e+00 2.069669485092163086e+00 -2.561070680618286133e+00
1.257000000000000000e+03 2.885616493225097656e+01 -1.750085067749023438e+01 7.870104908943176270e-01 8.066446304321289062e+00 2.656037092208862305e+00 1.914125680923461914e+00
1.258000000000000000e+03 4.477559280395507812e+01 -1.752240180969238281e+01 1.031050086021423340e+00 4.904651165008544922e+00 1.780710339546203613e+00 7.480216622352600098e-01
1.259000000000000000e+03 4.680844116210937500e+01 -1.901771926879882812e+01 1.596347928047180176e+00 9.735822677612304688e+00 3.399651050567626953e+00 2.095944881439208984e+00
1.260000000000000000e+03 3.108457756042480469e+01 -2.830087661743164062e+01 -2.302016496658325195e+00 2.711540460586547852e+00 1.228571832180023193e-01 -5.054469704627990723e-01
1.261000000000000000e+03 3.023508834838867188e+01 -2.728649711608886719e+01 -1.270105123519897461e+00 3.711700439453125000e+00 7.324785590171813965e-01 -6.168398261070251465e-01
1.262000000000000000e+03 6.252906417846679688e+01 2.528959846496582031e+01 3.573725223541259766e+00 8.309523582458496094e+00 3.564974784851074219e+00 4.775339603424072266e+00
1.263000000000000000e+03 6.469142150878906250e+01 2.626077079772949219e+01 2.496598720550537109e+00 6.121842861175537109e+00 2.585532426834106445e+00 1.677468061447143555e+00
1.264000000000000000e+03 1.161174201965332031e+01 -1.266396045684814453e+01 -1.379858553409576416e-01 6.639500707387924194e-02 -2.147725597023963928e-02 -3.741503506898880005e-02
1.265000000000000000e+03 9.699204444885253906e+00 -1.105348682403564453e+01 -1.510329991579055786e-01 -1.399465799331665039e-01 -8.729387074708938599e-02 -1.245677098631858826e-01
1.266000000000000000e+03 1.348814105987548828e+01 6.694999217987060547e+00 3.424386978149414062e-01 2.567205205559730530e-02 1.104332283139228821e-01 3.172625601291656494e-02
1.267000000000000000e+03 5.401459503173828125e+01 3.448788821697235107e-01 -2.077587544918060303e-01 4.503004074096679688e+00 1.288573622703552246e+00 2.306770563125610352e+00
1.268000000000000000e+03 5.667633819580078125e+01 5.674602985382080078e-01 -2.691194534301757812e+00 2.437379509210586548e-01 -7.342369556427001953e-01 -2.096307277679443359e-01
1.269000000000000000e+03 6.235616302490234375e+01 2.120562553405761719e+01 -2.305962800979614258e+00 6.426056385040283203e+00 1.236028075218200684e+00 3.728665351867675781e+00
1.270000000000000000e+03 1.417627906799316406e+01 -3.815495300292968750e+01 -5.842819213867187500e-01 1.339006274938583374e-01 -1.351143866777420044e-01 1.185965389013290405e-01
1.271000000000000000e+03 1.505673789978027344e+01 -3.978044128417968750e+01 -1.259338855743408203e+00 4.168881103396415710e-02 -3.652949929237365723e-01 2.877233028411865234e-01
1.272000000000000000e+03 6.098860549926757812e+01 2.387670707702636719e+01 -8.472839742898941040e-02 3.427402496337890625e+00 1.002802252769470215e+00 2.560649871826171875e+00
1.273000000000000000e+03 5.307776260375976562e+01 3.435297775268554688e+01 -2.949295341968536377e-01 6.500224113464355469e+00 1.861588358879089355e+00 4.706723988056182861e-01
1.274000000000000000e+03 4.678388214111328125e+01 3.189919471740722656e+01 -8.612378686666488647e-02 5.370937347412109375e+00 1.585443973541259766e+00 -2.847523391246795654e-01
1.275000000000000000e+03 5.153594970703125000e+01 3.163528633117675781e+01 1.107651114463806152e+00 6.778209686279296875e+00 2.365758180618286133e+00 7.947854399681091309e-01
1.276000000000000000e+03 5.984053421020507812e+01 2.229532432556152344e+01 -2.062121152877807617e+00 3.015953302383422852e+00 2.861496508121490479e-01 2.465557098388671875e+00
1.277000000000000000e+03 5.429132080078125000e+01 2.361890602111816406e+01 -1.094511866569519043e+00 5.144418716430664062e+00 1.214972138404846191e+00 -2.085962772369384766e+00
1.278000000000000000e+03 6.580381774902343750e+01 -1.700151252746582031e+01 -1.088978171348571777e+00 3.440261840820312500e+00 7.053851485252380371e-01 7.709044814109802246e-01
1.279000000000000000e+03 6.403810119628906250e+01 -1.644648551940917969e+01 -1.497056365013122559e+00 6.019152164459228516e+00 1.356628775596618652e+00 1.549393683671951294e-01
1.280000000000000000e+03 2.538223838806152344e+01 -3.078817558288574219e+01 -2.441195845603942871e-01 4.910201549530029297e+00 1.399824500083923340e+00 -2.947660908102989197e-02
1.281000000000000000e+03 6.107846832275390625e+01 2.245798683166503906e+01 -2.788296699523925781e+00 5.525797367095947266e+00 8.212502002716064453e-01 3.513219118118286133e+00
1.282000000000000000e+03 5.645748519897460938e+01 3.781119155883789062e+01 -1.062232971191406250e+00 2.668437004089355469e+00 4.818612039089202881e-01 1.462550401687622070e+00
1.283000000000000000e+03 5.392580032348632812e+01 3.521004867553710938e+01 -9.404209256172180176e-01 6.130477428436279297e+00 1.557016849517822266e+00 1.092582941055297852e+00
1.284000000000000000e+03 6.321469879150390625e+01 3.567304611206054688e+01 -1.537294745445251465e+00 3.542119979858398438e+00 6.014475226402282715e-01 -4.503669142723083496e-01
1.285000000000000000e+03 6.532103729248046875e+01 2.929167366027832031e+01 1.020112991333007812e+00 6.339518070220947266e+00 2.207889318466186523e+00 1.119679450988769531e+00
1.286000000000000000e+03 2.658932304382324219e+01 -3.509112167358398438e+01 3.124290108680725098e-01 4.535856246948242188e+00 1.454485535621643066e+00 -6.333318352699279785e-02
1.287000000000000000e+03 5.597911834716796875e+01 2.312399101257324219e+01 -1.869582533836364746e+00 2.847860813140869141e+00 2.934834957122802734e-01 -1.760980010032653809e+00
1.288000000000000000e+03 1.345919895172119141e+01 -3.104120635986328125e+01 6.972636580467224121e-01 2.600367069244384766e+00 9.892891645431518555e-01 1.057945370674133301e+00
1.289000000000000000e+03 1.042851257324218750e+01 -3.568144607543945312e+01 -5.940580740571022034e-02 1.045590400695800781e+00 2.958553731441497803e-01 6.041389703750610352e-01
1.290000000000000000e+03 2.592193222045898438e+01 -2.645589447021484375e+01 -1.206436872482299805e+00 4.611408233642578125e+00 1.021491408348083496e+00 5.666614770889282227e-01
1.291000000000000000e+03 2.065144157409667969e+01 -4.061313629150390625e+01 -1.968620896339416504e+00 -2.698912471532821655e-02 -5.986829996109008789e-01 -4.204605221748352051e-01
1.292000000000000000e+03 2.508533477783203125e+01 -4.042568969726562500e+01 -1.569299459457397461e+00 3.208238601684570312e+00 4.916817545890808105e-01 -2.846157848834991455e-01
1.293000000000000000e+03 6.091961288452148438e+01 4.022345542907714844e+00 -9.536095857620239258e-01 4.665834426879882812e+00 1.113667368888854980e+00 -1.990003347396850586e+00
1.294000000000000000e+03 6.610815429687500000e+01 3.318182468414306641e+00 7.231238484382629395e-02 2.436311721801757812e+00 7.525872588157653809e-01 1.074595570564270020e+00
1.295000000000000000e+03 5.601846694946289062e+01 1.114215087890625000e+01 1.218089461326599121e+00 9.572944641113281250e+00 3.237310171127319336e+00 1.246986389160156250e+00
1.296000000000000000e+03 1.306734371185302734e+01 -2.929457283020019531e+01 9.560158848762512207e-01 1.724662780761718750e+00 8.042035698890686035e-01 8.551073074340820312e-01
1.297000000000000000e+03 1.585729026794433594e+01 -2.752793502807617188e+01 1.604445695877075195e+00 1.519216537475585938e+00 9.370986819267272949e-01 1.411802649497985840e+00
1.298000000000000000e+03 1.566292572021484375e+01 -2.024719429016113281e+01 4.438050687313079834e-01 4.479191005229949951e-01 2.675172388553619385e-01 4.262118339538574219e-01
1.299000000000000000e+03 1.374560070037841797e+01 -2.215054893493652344e+01 2.393461167812347412e-01 3.750668466091156006e-01 1.843238919973373413e-01 3.796865344047546387e-01
1.300000000000000000e+03 7.230933380126953125e+01 -1.235945034027099609e+01 -1.794169068336486816e+00 6.834000945091247559e-01 -3.332307040691375732e-01 -3.500245213508605957e-01
1.301000000000000000e+03 7.220928192138671875e+01 -1.352604579925537109e+01 -6.466873884201049805e-01 1.426666021347045898e+00 2.339935898780822754e-01 -2.757002413272857666e-01
1.302000000000000000e+03 2.137520790100097656e+01 -2.723066139221191406e+01 -2.189898014068603516e+00 -1.009238362312316895e+00 -9.597408771514892578e-01 1.485008955001831055e+00
1.303000000000000000e+03 1.012476730346679688e+01 -3.239773178100585938e+01 5.419861078262329102e-01 1.000796794891357422e+00 4.628348648548126221e-01 5.022567510604858398e-01
1.304000000000000000e+03 1.137207698822021484e+01 -3.309072494506835938e+01 4.120037853717803955e-01 1.460100650787353516e+00 5.616313219070434570e-01 5.605938434600830078e-01
1.305000000000000000e+03 1.492863845825195312e+01 -2.527652740478515625e+01 3.773868381977081299e-01 1.140027403831481934e+00 4.552242457866668701e-01 8.290821909904479980e-01
1.306000000000000000e+03 1.255058670043945312e+01 -2.484626960754394531e+01 3.817541599273681641e-01 6.669695377349853516e-01 3.146170973777770996e-01 3.564896881580352783e-01
1.307000000000000000e+03 2.396311569213867188e+01 -2.618470764160156250e+01 -8.234812021255493164e-01 2.648128747940063477e+00 5.473942756652832031e-01 4.117586314678192139e-01
1.308000000000000000e+03 2.502013397216796875e+01 -3.485246276855468750e+01 2.289693206548690796e-01 5.705391883850097656e+00 1.780308365821838379e+00 1.372835040092468262e-02
1.309000000000000000e+03 2.676502609252929688e+01 -3.116566085815429688e+01 -4.211217164993286133e-01 4.558269977569580078e+00 1.241144418716430664e+00 1.654033362865447998e-01
1.310000000000000000e+03 6.136186218261718750e+01 -6.187543869018554688e+00 6.893830299377441406e-01 1.087241649627685547e+01 3.468539714813232422e+00 4.938473701477050781e-01
1.311000000000000000e+03 6.596109008789062500e+01 -3.679949045181274414e+00 2.309516668319702148e+00 7.859163761138916016e+00 3.050604104995727539e+00 3.296254396438598633e+00
1.312000000000000000e+03 6.243585205078125000e+01 -2.683539962768554688e+01 -2.637956619262695312e+00 1.730256438255310059e+00 -2.723100483417510986e-01 -7.392134070396423340e-01
1.313000000000000000e+03 6.466018676757812500e+01 -2.851503944396972656e+01 2.247959852218627930e+00 8.752813339233398438e+00 3.300231933593750000e+00 -4.479588985443115234e+00
1.314000000000000000e+03 5.539914321899414062e+01 -1.160423088073730469e+01 1.830456033349037170e-02 3.161714553833007812e+00 9.540057182312011719e-01 -2.696732282638549805e+00
1.315000000000000000e+03 5.651155090332031250e+01 -1.181514358520507812e+01 4.560216367244720459e-01 2.603262901306152344e+00 9.177853465080261230e-01 -1.967442154884338379e+00
1.316000000000000000e+03 7.357671356201171875e+01 -2.408853721618652344e+01 1.745282411575317383e+00 1.224722766876220703e+01 4.197752952575683594e+00 2.503454446792602539e+00
1.317000000000000000e+03 7.283720397949218750e+01 -2.510880851745605469e+01 1.508418202400207520e+00 6.088737010955810547e+00 2.279146671295166016e+00 2.725841999053955078e+00
1.318000000000000000e+03 5.292338562011718750e+01 2.548475074768066406e+01 1.187578558921813965e+00 5.829619407653808594e+00 2.105159521102905273e+00 -4.878322184085845947e-01
1.319000000000000000e+03 4.860422897338867188e+01 1.946253585815429688e+01 -3.834058761596679688e+00 3.092007040977478027e-01 -1.057457447052001953e+00 1.282902479171752930e+00
1.320000000000000000e+03 2.049904060363769531e+01 3.466226196289062500e+01 -3.942023813724517822e-01 2.472453832626342773e+00 6.234754323959350586e-01 -8.024942874908447266e-02
1.321000000000000000e+03 1.968941307067871094e+01 3.050232124328613281e+01 9.321923851966857910e-01 5.344170093536376953e+00 1.882908701896667480e+00 -1.043004751205444336e+00
1.322000000000000000e+03 6.973488616943359375e+01 -1.206816482543945312e+01 -9.968804121017456055e-01 1.694191396236419678e-01 -2.482383847236633301e-01 -7.065091133117675781e-01
1.323000000000000000e+03 6.852461242675781250e+01 -1.164800739288330078e+01 6.826088428497314453e-01 1.003486514091491699e+00 5.058286190032958984e-01 -1.041414976119995117e+00
1.324000000000000000e+03 7.577218627929687500e+01 1.369268417358398438e+01 9.029666781425476074e-01 7.910275459289550781e+00 2.643972635269165039e+00 5.938380360603332520e-01
1.325000000000000000e+03 1.924562263488769531e+01 2.592255020141601562e+01 -2.183022499084472656e-01 3.216357946395874023e+00 8.994166851043701172e-01 2.419002056121826172e-01
1.326000000000000000e+03 6.776965332031250000e+01 -2.868630599975585938e+01 1.417226910591125488e+00 4.229926586151123047e+00 1.694146037101745605e+00 -1.798303365707397461e+00
1.327000000000000000e+03 6.799830627441406250e+01 -2.606283187866210938e+01 -2.158768653869628906e+00 1.603299021720886230e+00 -1.666408479213714600e-01 -8.034284114837646484e-01
1.328000000000000000e+03 1.185430526733398438e+01 1.983179092407226562e+01 6.796544194221496582e-01 1.649124473333358765e-01 2.533700764179229736e-01 -1.887965798377990723e-01
1.329000000000000000e+03 8.327821731567382812e+00 2.341802406311035156e+01 1.062309741973876953e+00 7.803003787994384766e-01 5.527830123901367188e-01 -7.204346060752868652e-01
1.330000000000000000e+03 6.511757659912109375e+01 -6.259675502777099609e+00 7.975976467132568359e-01 1.187491416931152344e+01 3.801753520965576172e+00 3.447584509849548340e-01
1.331000000000000000e+03 7.816778564453125000e+01 1.657350349426269531e+01 -4.635128192603588104e-03 7.081389427185058594e+00 2.123026132583618164e+00 7.799946069717407227e-01
1.332000000000000000e+03 7.567849731445312500e+01 1.503294181823730469e+01 5.277888178825378418e-01 7.862293243408203125e+00 2.517024517059326172e+00 9.496812224388122559e-01
1.333000000000000000e+03 5.751062774658203125e+01 2.306258678436279297e+00 -5.106145143508911133e-01 2.780347108840942383e+00 6.809197664260864258e-01 -1.006227254867553711e+00
1.334000000000000000e+03 4.406949234008789062e+01 6.682096004486083984e+00 2.832682728767395020e-01 6.051477909088134766e+00 1.900423884391784668e+00 2.832212746143341064e-01
1.335000000000000000e+03 4.093716812133789062e+01 6.284788131713867188e+00 1.610023379325866699e+00 1.066494083404541016e+01 3.682489156723022461e+00 1.320339560508728027e+00
1.336000000000000000e+03 4.758720397949218750e+01 1.874835968017578125e+01 -2.667012214660644531e+00 2.140318870544433594e+00 -1.580079346895217896e-01 1.593178749084472656e+00
1.337000000000000000e+03 2.921147727966308594e+01 6.065625667572021484e+00 2.859607458114624023e+00 1.423190498352050781e+01 5.127453804016113281e+00 -3.344967603683471680e+00
1.338000000000000000e+03 6.239710235595703125e+01 1.985304260253906250e+01 8.272877931594848633e-01 7.112292766571044922e+00 2.381874084472656250e+00 3.877347707748413086e+00
1.339000000000000000e+03 6.311554312705993652e-01 -2.471506500244140625e+01 -1.043316815048456192e-02 -9.199858307838439941e-01 -2.791257202625274658e-01 -4.221176728606224060e-03
1.340000000000000000e+03 5.214199066162109375e+00 -2.087935447692871094e+01 3.101277649402618408e-01 5.140901803970336914e-01 2.472653836011886597e-01 -3.571119904518127441e-01
1.341000000000000000e+03 7.414379882812500000e+01 -1.067770862579345703e+01 -2.688573002815246582e-01 4.155977725982666016e+00 1.166136145591735840e+00 1.479693293571472168e+00
1.342000000000000000e+03 7.223635673522949219e+00 3.566545104980468750e+01 -4.950856268405914307e-01 -1.507428735494613647e-01 -1.937485486268997192e-01 -4.789670184254646301e-02
1.343000000000000000e+03 7.824493408203125000e+01 -2.777729797363281250e+01 -1.729312986135482788e-01 7.378810405731201172e+00 2.161763668060302734e+00 -2.187806516885757446e-01
1.344000000000000000e+03 5.508981704711914062e+01 -3.448448181152343750e+01 2.048549652099609375e+00 9.864537239074707031e+00 3.573925971984863281e+00 -9.838647246360778809e-01
1.345000000000000000e+03 5.631314849853515625e+01 -3.862850570678710938e+01 -1.870428681373596191e+00 6.241742610931396484e+00 1.311394214630126953e+00 -1.292457818984985352e+00
1.346000000000000000e+03 7.072828674316406250e+01 6.560319423675537109e+00 -1.506955176591873169e-01 5.113379001617431641e+00 1.488805055618286133e+00 1.881099462509155273e+00
1.347000000000000000e+03 7.121285247802734375e+01 8.266744613647460938e+00 1.649229764938354492e+00 6.733545303344726562e+00 2.514832496643066406e+00 2.685300350189208984e+00
1.348000000000000000e+03 7.012905120849609375e+01 7.922367572784423828e+00 1.938842296600341797e+00 3.975781917572021484e+00 1.774387240409851074e+00 2.425182342529296875e+00
1.349000000000000000e+03 7.311785125732421875e+01 8.869592666625976562e+00 8.742812275886535645e-01 8.816341400146484375e+00 2.907186746597290039e+00 -9.122096747159957886e-02
1.350000000000000000e+03 6.227481460571289062e+01 -2.415625953674316406e+01 1.384384393692016602e+00 4.240742683410644531e+00 1.687538146972656250e+00 -1.754118680953979492e+00
1.351000000000000000e+03 5.573375701904296875e+01 -1.004620838165283203e+01 6.250617504119873047e-01 1.867909908294677734e+00 7.478914856910705566e-01 -1.727122306823730469e+00
1.352000000000000000e+03 3.439247512817382812e+01 -1.189479351043701172e+00 3.448693752288818359e+00 2.113049983978271484e+00 1.668523073196411133e+00 7.864530682563781738e-01
1.353000000000000000e+03 5.842752456665039062e+00 2.680879592895507812e+01 4.387542605400085449e-01 1.864227652549743652e+00 6.908946037292480469e-01 -6.068123579025268555e-01
1.354000000000000000e+03 5.830426692962646484e+00 2.966512680053710938e+01 -7.323010358959436417e-03 7.327329516410827637e-01 2.176229804754257202e-01 -1.044244542717933655e-01
1.355000000000000000e+03 7.134075927734375000e+01 1.840023231506347656e+01 -1.329631209373474121e+00 6.082349777221679688e+00 1.425815582275390625e+00 -8.663816452026367188e-01
1.356000000000000000e+03 8.898271560668945312e+00 3.714487838745117188e+01 -2.709425091743469238e-01 -2.170937955379486084e-01 -1.464108973741531372e-01 -3.679577633738517761e-02
1.357000000000000000e+03 3.172570991516113281e+01 1.284171390533447266e+01 -3.150471210479736328e+00 2.115767717361450195e+00 -3.104110658168792725e-01 1.707619667053222656e+00
1.358000000000000000e+03 6.104787063598632812e+01 1.618724441528320312e+01 1.935189247131347656e+00 1.332467365264892578e+01 4.577959060668945312e+00 3.630351781845092773e+00
1.359000000000000000e+03 2.010355758666992188e+01 1.565080642700195312e+01 1.523932516574859619e-01 4.554028987884521484e+00 1.411926627159118652e+00 -9.796069860458374023e-01
1.360000000000000000e+03 5.910977554321289062e+01 -2.704777908325195312e+01 -2.172496080398559570e+00 2.038311719894409180e+00 -4.025530070066452026e-02 7.454279065132141113e-01
1.361000000000000000e+03 5.640834426879882812e+01 1.199766731262207031e+01 1.242286682128906250e+00 9.144307136535644531e+00 3.115978240966796875e+00 1.242065668106079102e+00
1.362000000000000000e+03 5.478274154663085938e+01 1.037687397003173828e+01 3.552218377590179443e-01 1.223575019836425781e+01 3.777291774749755859e+00 8.524420261383056641e-01
1.363000000000000000e+03 6.758403015136718750e+01 3.810086488723754883e+00 8.380308747291564941e-02 1.728568792343139648e+00 5.437116026878356934e-01 2.072012186050415039e+00
1.364000000000000000e+03 7.038215637207031250e+01 6.564500927925109863e-01 2.057700604200363159e-01 1.339051723480224609e+00 4.634465277194976807e-01 1.781918287277221680e+00
1.365000000000000000e+03 5.889402008056640625e+01 -1.011141872406005859e+01 -8.568567037582397461e-01 1.616035819053649902e+00 2.277537286281585693e-01 1.055548429489135742e+00
1.366000000000000000e+03 2.979095458984375000e+00 2.195909690856933594e+01 4.242009297013282776e-02 -5.082692503929138184e-01 -1.397547423839569092e-01 1.302518695592880249e-01
1.367000000000000000e+03 7.040582275390625000e+01 1.941391372680664062e+01 -2.384641885757446289e+00 4.220173358917236328e+00 5.506594181060791016e-01 -7.683922648429870605e-01
1.368000000000000000e+03 6.813048839569091797e+00 1.302202892303466797e+01 6.661190837621688843e-02 1.785446703433990479e-01 7.354697585105895996e-02 2.101164907217025757e-01
1.369000000000000000e+03 7.326943969726562500e+01 1.316692638397216797e+01 1.328350305557250977e+00 1.102343940734863281e+01 3.705537080764770508e+00 2.930214405059814453e-01
1.370000000000000000e+03 7.215367126464843750e+01 1.255143642425537109e+01 6.627710461616516113e-01 1.413514614105224609e+01 4.439375400543212891e+00 3.499532639980316162e-01
1.371000000000000000e+03 7.348404693603515625e+01 -1.954843330383300781e+01 1.227203965187072754e+00 9.648303985595703125e+00 3.262652397155761719e+00 -1.976279020309448242e+00
1.372000000000000000e+03 6.235745239257812500e+01 7.995642185211181641e+00 -6.920853257179260254e-01 3.267431974411010742e+00 7.726040482521057129e-01 -9.455485343933105469e-01
1.373000000000000000e+03 7.859614372253417969e+00 3.417695236206054688e+01 -6.269766688346862793e-01 -3.313779830932617188e-01 -2.875064015388488770e-01 -3.607930243015289307e-01
1.374000000000000000e+03 5.989570617675781250e+01 -3.866218566894531250e+01 -2.921933412551879883e+00 1.224794387817382812e+00 -5.091417431831359863e-01 -3.355506062507629395e-01
1.375000000000000000e+03 5.071254348754882812e+01 2.744761466979980469e+00 3.922249004244804382e-02 2.845810651779174805e+00 8.655099272727966309e-01 1.319745779037475586e+00
1.376000000000000000e+03 4.610663604736328125e+01 -2.648544120788574219e+01 -9.560029506683349609e-01 3.843565464019775391e+00 8.662687540054321289e-01 -3.288339138031005859e+00
1.377000000000000000e+03 4.606664276123046875e+01 -2.017058944702148438e+01 1.874154925346374512e+00 8.696226119995117188e+00 3.171114206314086914e+00 2.789691686630249023e-01
1.378000000000000000e+03 6.343076324462890625e+01 -1.178980395197868347e-01 3.949202597141265869e-02 6.219992637634277344e+00 1.877845406532287598e+00 -1.250058598816394806e-02
1.379000000000000000e+03 6.645035552978515625e+01 -1.532148361206054688e+01 -1.182791352272033691e+00 2.190034866333007812e+00 3.021730482578277588e-01 7.004754543304443359e-01
1.380000000000000000e+03 6.481299591064453125e+01 -1.882959556579589844e+01 6.546668410301208496e-01 7.650505542755126953e+00 2.491551637649536133e+00 7.222828865051269531e-01
1.381000000000000000e+03 6.079151153564453125e+01 -2.215500259399414062e+01 3.049069881439208984e+00 4.062651634216308594e+00 2.133516550064086914e+00 -8.690341711044311523e-01
1.382000000000000000e+03 2.807789611816406250e+01 9.253634452819824219e+00 1.403906583786010742e+00 6.388557434082031250e+00 2.337739229202270508e+00 -9.895488023757934570e-01
1.383000000000000000e+03 2.005203628540039062e+01 9.745477676391601562e+00 -2.777767479419708252e-01 1.415534019470214844e-01 -4.086700454354286194e-02 -5.494080781936645508e-01
1.384000000000000000e+03 6.168153381347656250e+01 -2.529442214965820312e+01 6.575074195861816406e-01 1.547681450843811035e+00 6.615566611289978027e-01 -1.441671252250671387e+00
1.385000000000000000e+03 4.783407211303710938e+01 2.277692222595214844e+01 6.126362681388854980e-01 5.790522575378417969e+00 1.920947551727294922e+00 1.395098686218261719e+00
1.386000000000000000e+03 7.938883972167968750e+01 -2.217374229431152344e+01 7.292345166206359863e-02 6.197398662567138672e+00 1.881096601486206055e+00 7.719261199235916138e-02
1.387000000000000000e+03 6.672700500488281250e+01 -2.470643043518066406e+00 2.452621459960937500e+00 4.865359306335449219e+00 2.195394277572631836e+00 3.137372255325317383e+00
1.388000000000000000e+03 5.265781021118164062e+01 -6.160820126533508301e-01 3.112920820713043213e-01 6.539494991302490234e+00 2.055236101150512695e+00 1.429088115692138672e+00
1.389000000000000000e+03 5.226109695434570312e+01 -1.535882353782653809e+00 1.053945302963256836e+00 7.056322574615478516e+00 2.433080434799194336e+00 1.089049339294433594e+00
1.390000000000000000e+03 1.339300346374511719e+01 1.835961341857910156e+01 1.096237182617187500e+00 1.249786466360092163e-01 3.663647472858428955e-01 1.938062459230422974e-01
1.391000000000000000e+03 1.186798286437988281e+01 2.126840400695800781e+01 6.781678795814514160e-01 6.816007941961288452e-02 2.238983809947967529e-01 -3.566493391990661621e-01
1.392000000000000000e+03 6.537851715087890625e+01 -8.349720001220703125e+00 1.710422039031982422e+00 1.040155124664306641e+01 3.633591890335083008e+00 -1.972207903861999512e+00
1.393000000000000000e+03 5.051285171508789062e+01 -4.257965087890625000e+00 1.617057561874389648e+00 7.698082923889160156e+00 2.794542074203491211e+00 1.444192230701446533e-01
1.394000000000000000e+03 5.174086380004882812e+01 -5.300713539123535156e+00 1.632259726524353027e+00 9.996446609497070312e+00 3.488611936569213867e+00 -3.091869652271270752e-01
1.395000000000000000e+03 6.347763442993164062e+01 -1.892540931701660156e+01 5.624291300773620605e-01 7.062899112701416016e+00 2.287598371505737305e+00 -8.055286407470703125e-01
1.396000000000000000e+03 5.276582336425781250e+01 -9.248924255371093750e+00 1.292178153991699219e+00 5.656132698059082031e+00 2.084493398666381836e+00 -2.082435607910156250e+00
1.397000000000000000e+03 5.332131576538085938e+01 -7.652818679809570312e+00 2.223744153976440430e+00 5.626494884490966797e+00 2.355071783065795898e+00 -2.791020393371582031e+00
1.398000000000000000e+03 5.703561782836914062e+01 8.968332290649414062e+00 1.705307483673095703e+00 7.961431980133056641e+00 2.900021791458129883e+00 8.226087093353271484e-01
1.399000000000000000e+03 5.187790679931640625e+01 5.593805789947509766e+00 -2.310853302478790283e-01 1.435374975204467773e+00 3.612869083881378174e-01 2.016768932342529297e+00
1.400000000000000000e+03 7.758819580078125000e+01 -1.486678981781005859e+01 -5.924394130706787109e-01 8.759797096252441406e+00 2.450207233428955078e+00 6.439960002899169922e-01
1.401000000000000000e+03 1.699048519134521484e+00 -1.058276081085205078e+01 -5.909718107432126999e-03 2.317941933870315552e-02 5.180910229682922363e-03 -2.886223373934626579e-03
1.402000000000000000e+03 6.060792541503906250e+01 -4.040607452392578125e+01 -1.016195058822631836e+00 3.209294676780700684e-01 -2.085796743631362915e-01 -3.793038427829742432e-01
1.403000000000000000e+03 2.030716323852539062e+01 2.676122665405273438e+01 1.400885265320539474e-02 4.825630664825439453e+00 1.451891899108886719e+00 -3.346936106681823730e-01
1.404000000000000000e+03 1.940187644958496094e+01 2.245892906188964844e+01 6.083876490592956543e-01 2.691577434539794922e+00 9.899895191192626953e-01 2.607960440218448639e-02
1.405000000000000000e+03 7.680411338806152344e+00 2.161557197570800781e+01 3.415818810462951660e-01 6.511892676353454590e-01 2.978313267230987549e-01 -2.716841995716094971e-01
1.406000000000000000e+03 1.832629966735839844e+01 2.266045188903808594e+01 4.816355109214782715e-01 1.144245147705078125e+00 4.877642095088958740e-01 1.820807754993438721e-01
1.407000000000000000e+03 7.256405639648437500e+01 -2.782371711730957031e+01 -2.176840305328369141e-01 4.816197395324707031e+00 1.379553914070129395e+00 2.115141630172729492e+00
1.408000000000000000e+03 5.033677291870117188e+01 -1.229354953765869141e+01 8.181850910186767578e-01 5.005676746368408203e+00 1.747158527374267578e+00 -9.216917157173156738e-01
1.409000000000000000e+03 1.843740081787109375e+01 3.269380187988281250e+01 6.019130349159240723e-01 2.228962182998657227e+00 8.492625951766967773e-01 -1.078317880630493164e+00
1.410000000000000000e+03 6.041618347167968750e+00 3.458823394775390625e+01 -4.470210671424865723e-01 4.510155878961086273e-03 -1.327532678842544556e-01 -2.333570569753646851e-01
1.411000000000000000e+03 3.307105779647827148e+00 3.570972442626953125e+01 -1.850231587886810303e-01 1.184357255697250366e-01 -1.997623220086097717e-02 -1.298232227563858032e-01
1.412000000000000000e+03 7.393935394287109375e+01 -1.438232994079589844e+01 -8.490392565727233887e-01 4.804553508758544922e+00 1.186654210090637207e+00 7.195748686790466309e-01
1.413000000000000000e+03 7.130035400390625000e+01 -1.703072166442871094e+01 7.787600159645080566e-01 9.844816923141479492e-01 5.289725065231323242e-01 -5.875673294067382812e-01
1.414000000000000000e+03 5.291594314575195312e+01 -1.036606597900390625e+01 1.196278452873229980e+00 4.534966468811035156e+00 1.719373464584350586e+00 -2.259332180023193359e+00
1.415000000000000000e+03 5.438304519653320312e+01 -9.989413261413574219e+00 1.157102584838867188e+00 3.284886360168457031e+00 1.332596659660339355e+00 -2.267130136489868164e+00
1.416000000000000000e+03 1.991085815429687500e+01 7.558561801910400391e+00 5.481997132301330566e-01 -4.469843804836273193e-01 3.036459349095821381e-02 -1.610085815191268921e-01
1.417000000000000000e+03 6.685205078125000000e+01 -2.681843566894531250e+01 -1.147969484329223633e+00 6.595418930053710938e+00 1.634234905242919922e+00 -3.171244859695434570e+00
1.418000000000000000e+03 4.580122375488281250e+01 7.130253791809082031e+00 -3.151363134384155273e-01 3.613730907440185547e+00 9.895783662796020508e-01 -6.134143471717834473e-01
1.419000000000000000e+03 4.684741210937500000e+01 6.300244808197021484e+00 -8.001475930213928223e-01 1.550144195556640625e+00 2.249989807605743408e-01 -5.505102276802062988e-01
1.420000000000000000e+03 1.629057693481445312e+01 1.835379791259765625e+01 8.169608116149902344e-01 -6.179947406053543091e-02 2.265484035015106201e-01 4.809569194912910461e-02
1.421000000000000000e+03 2.257589149475097656e+01 2.897276496887207031e+01 1.970122009515762329e-01 2.986765861511230469e+00 9.551334381103515625e-01 1.473844945430755615e-01
1.422000000000000000e+03 2.098304748535156250e+01 2.943504524230957031e+01 7.920035123825073242e-01 4.154852390289306641e+00 1.484056830406188965e+00 -2.913398146629333496e-01
1.423000000000000000e+03 1.706094169616699219e+01 2.310597419738769531e+01 -8.877320587635040283e-02 -1.912080496549606323e-01 -8.399437367916107178e-02 -2.831878960132598877e-01
1.424000000000000000e+03 1.434571933746337891e+01 2.294301223754882812e+01 -6.900925189256668091e-02 -1.943519897758960724e-02 -2.653333544731140137e-02 -1.506211012601852417e-01
1.425000000000000000e+03 7.460343241691589355e-01 2.902221298217773438e+01 4.182672873139381409e-02 -9.370952248573303223e-01 -2.685805559158325195e-01 -1.972388029098510742e-01
1.426000000000000000e+03 3.446269512176513672e+00 2.836464691162109375e+01 2.236262559890747070e-01 2.531989477574825287e-02 7.468384504318237305e-02 -5.643326640129089355e-01
1.427000000000000000e+03 4.659269809722900391e+00 2.824752426147460938e+01 1.851918846368789673e-01 7.124298214912414551e-01 2.692865133285522461e-01 -5.332072377204895020e-01
1.428000000000000000e+03 7.142583370208740234e+00 3.646003723144531250e+00 -1.667131036520004272e-01 1.644545421004295349e-02 -4.508029296994209290e-02 1.460326761007308960e-01
1.429000000000000000e+03 1.671590805053710938e+01 6.961408138275146484e+00 6.521638631820678711e-01 5.246493220329284668e-02 2.113886475563049316e-01 1.663272529840469360e-01
1.430000000000000000e+03 1.316304492950439453e+01 2.157531929016113281e+01 5.101448893547058105e-01 4.489493742585182190e-02 1.665119528770446777e-01 -2.261170297861099243e-01
1.431000000000000000e+03 1.166265392303466797e+01 2.258125686645507812e+01 5.890198945999145508e-01 6.593396514654159546e-02 1.964861452579498291e-01 -1.315377801656723022e-01
1.432000000000000000e+03 6.405296325683593750e+00 2.359967994689941406e+01 5.449246764183044434e-01 9.239201545715332031e-01 4.406534433364868164e-01 -4.519084393978118896e-01
1.433000000000000000e+03 3.411904144287109375e+01 1.665835189819335938e+01 9.678505063056945801e-01 3.279304981231689453e+00 1.274146676063537598e+00 -9.805288314819335938e-01
1.434000000000000000e+03 7.106548309326171875e+01 -1.489556312561035156e+01 -1.697318702936172485e-01 1.106547594070434570e+00 2.810446918010711670e-01 -1.334687948226928711e+00
1.435000000000000000e+03 6.880082702636718750e+01 -1.431196212768554688e+01 -3.777121305465698242e-01 2.900810837745666504e-01 -2.628930844366550446e-02 -1.398003339767456055e+00
1.436000000000000000e+03 3.168624496459960938e+01 2.842339515686035156e+01 8.100857734680175781e-01 4.666740417480468750e+00 1.643047928810119629e+00 -1.232420086860656738e+00
1.437000000000000000e+03 6.430426788330078125e+01 -2.497722434997558594e+01 -9.869512915611267090e-02 8.200304985046386719e+00 2.430482864379882812e+00 -2.775296449661254883e+00
1.438000000000000000e+03 6.524658966064453125e+01 -2.640112304687500000e+01 -1.668586015701293945e+00 8.722048759460449219e+00 2.116038799285888672e+00 -2.893668889999389648e+00
1.439000000000000000e+03 6.336265945434570312e+01 -2.014733123779296875e+01 1.693488478660583496e+00 7.961155414581298828e+00 2.896393060684204102e+00 -1.651371479034423828e+00
1.440000000000000000e+03 3.631702804565429688e+01 2.165905952453613281e+01 4.914288967847824097e-02 4.149767398834228516e+00 1.259672999382019043e+00 -1.805958628654479980e+00
1.441000000000000000e+03 7.805714416503906250e+01 -2.485780715942382812e+01 1.460450887680053711e-01 7.317350864410400391e+00 2.239018678665161133e+00 -4.380753636360168457e-01
1.442000000000000000e+03 7.526409149169921875e+01 -2.428010177612304688e+01 1.122329831123352051e+00 8.670883178710937500e+00 2.937963724136352539e+00 4.606748372316360474e-02
1.443000000000000000e+03 5.388071441650390625e+01 -2.482028388977050781e+01 -1.807020545005798340e+00 3.885944843292236328e+00 6.236773133277893066e-01 1.750725388526916504e+00
1.444000000000000000e+03 6.542804718017578125e+01 -4.968854427337646484e+00 1.264901041984558105e+00 1.108183097839355469e+01 3.704019784927368164e+00 2.137968778610229492e+00
1.445000000000000000e+03 4.554919815063476562e+01 9.131275177001953125e+00 2.804823219776153564e-02 4.473847866058349609e+00 1.350568890571594238e+00 -6.383177042007446289e-01
1.446000000000000000e+03 4.466712570190429688e+01 1.118536472320556641e+01 2.131866812705993652e-01 1.011831569671630859e+01 3.099450588226318359e+00 -6.672076582908630371e-01
1.447000000000000000e+03 5.489309310913085938e+01 2.766851663589477539e+00 -7.382411360740661621e-01 4.535862445831298828e+00 1.139286398887634277e+00 1.857829093933105469e+00
1.448000000000000000e+03 7.115277099609375000e+01 -8.635590076446533203e-01 -2.461897850036621094e+00 -1.173750460147857666e-01 -7.737818360328674316e-01 3.562311828136444092e-01
1.449000000000000000e+03 3.655966567993164062e+01 3.734791564941406250e+01 -1.274525165557861328e+00 2.580896139144897461e+00 3.919112682342529297e-01 7.420599460601806641e-01
1.450000000000000000e+03 7.295403289794921875e+01 -5.523018240928649902e-01 -1.245854616165161133e+00 2.923629045486450195e+00 5.033323168754577637e-01 -1.064412593841552734e+00
1.451000000000000000e+03 6.916778564453125000e+01 1.207324504852294922e+00 2.703219950199127197e-01 1.981955885887145996e+00 6.756833791732788086e-01 2.173141717910766602e+00
1.452000000000000000e+03 6.301009750366210938e+01 -3.823703002929687500e+01 -2.635486125946044922e+00 1.881976574659347534e-01 -7.341865301132202148e-01 -4.171531498432159424e-01
1.453000000000000000e+03 5.269279479980468750e+01 3.038141489028930664e+00 -9.981005191802978516e-01 4.777002334594726562e+00 1.133670449256896973e+00 2.521868467330932617e+00
1.454000000000000000e+03 5.442770767211914062e+01 6.551699638366699219e+00 2.234140872955322266e+00 8.170739173889160156e+00 3.121464014053344727e+00 2.899709701538085938e+00
1.455000000000000000e+03 7.742613983154296875e+01 -3.851517868041992188e+01 -6.281883269548416138e-02 7.451795578002929688e+00 2.216692924499511719e+00 -1.388791352510452271e-01
1.456000000000000000e+03 7.922246551513671875e+01 -3.475735855102539062e+01 -3.072243882343173027e-03 7.535914897918701172e+00 2.259852647781372070e+00 -2.981450222432613373e-02
1.457000000000000000e+03 7.709901428222656250e+01 -2.774410820007324219e+01 -3.660623431205749512e-01 7.443989276885986328e+00 2.123378038406372070e+00 -1.442488431930541992e-01
1.458000000000000000e+03 7.940875244140625000e+01 -2.783505821228027344e+01 -1.999107003211975098e-02 7.376924514770507812e+00 2.207080125808715820e+00 -1.139668598771095276e-01
1.459000000000000000e+03 7.916300964355468750e+01 3.627349090576171875e+01 -4.361191391944885254e-02 7.800728321075439453e+00 2.327134847640991211e+00 4.920005053281784058e-02
1.460000000000000000e+03 7.942182922363281250e+01 -2.080216217041015625e+01 8.454395830631256104e-02 6.549831867218017578e+00 1.990312814712524414e+00 2.583121657371520996e-01
1.461000000000000000e+03 7.465247344970703125e+01 -2.650750923156738281e+01 -7.486377954483032227e-01 7.940914630889892578e+00 2.157683134078979492e+00 5.791420340538024902e-01
1.462000000000000000e+03 7.712311553955078125e+01 -2.900630187988281250e+01 -2.034064829349517822e-01 7.259420394897460938e+00 2.116804122924804688e+00 2.863346785306930542e-02
1.463000000000000000e+03 7.937317657470703125e+01 -3.059449577331542969e+01 1.209401339292526245e-02 7.531542301177978516e+00 2.263090848922729492e+00 6.590018980205059052e-03
1.464000000000000000e+03 7.769820404052734375e+01 -3.318324279785156250e+01 6.921960413455963135e-02 7.121230602264404297e+00 2.157135009765625000e+00 -2.065219730138778687e-02
1.465000000000000000e+03 7.602308654785156250e+01 -3.854080963134765625e+01 -1.250204741954803467e-01 7.242403984069824219e+00 2.135215044021606445e+00 -3.415616154670715332e-01
1.466000000000000000e+03 7.684333801269531250e+01 -3.957314682006835938e+01 -8.605868369340896606e-02 7.492012500762939453e+00 2.221786022186279297e+00 -1.930682212114334106e-01
1.467000000000000000e+03 7.932930755615234375e+01 2.228698921203613281e+01 -4.310488328337669373e-02 8.299809455871582031e+00 2.477011203765869141e+00 2.628065086901187897e-02
1.468000000000000000e+03 7.820491790771484375e+01 1.520914936065673828e+01 1.437967866659164429e-01 6.702033996582031250e+00 2.053749322891235352e+00 6.830478906631469727e-01
1.469000000000000000e+03 7.940621948242187500e+01 1.529189682006835938e+01 4.587660077959299088e-04 6.065075397491455078e+00 1.819660186767578125e+00 2.752771377563476562e-01
1.470000000000000000e+03 7.781062316894531250e+01 3.199690628051757812e+01 5.036865174770355225e-02 7.257451534271240234e+00 2.192346096038818359e+00 6.652725487947463989e-02
1.471000000000000000e+03 7.801759338378906250e+01 2.788373756408691406e+01 8.328578621149063110e-02 7.400054931640625000e+00 2.245002269744873047e+00 -1.865633428096771240e-01
1.472000000000000000e+03 7.934104919433593750e+01 2.786826705932617188e+01 -1.645338535308837891e-02 7.752428531646728516e+00 2.320792436599731445e+00 -6.786241382360458374e-02
1.473000000000000000e+03 7.800583648681640625e+01 2.513540840148925781e+01 -7.159243803471326828e-03 7.629238128662109375e+00 2.286623716354370117e+00 -2.202221155166625977e-01
1.474000000000000000e+03 7.799103546142578125e+01 2.372667121887207031e+01 -1.303907483816146851e-01 7.749104499816894531e+00 2.285614013671875000e+00 -1.617977470159530640e-01
1.475000000000000000e+03 7.318092346191406250e+01 1.656168746948242188e+01 -1.075049191713333130e-01 8.740761756896972656e+00 2.589977025985717773e+00 4.599272310733795166e-01
1.476000000000000000e+03 7.571872711181640625e+01 1.077576828002929688e+01 1.097658395767211914e+00 7.707586288452148438e+00 2.641573429107666016e+00 -3.664760291576385498e-01
1.477000000000000000e+03 7.820932006835937500e+01 9.940441131591796875e+00 1.854082196950912476e-01 6.425800323486328125e+00 1.983362555503845215e+00 -4.893617033958435059e-01
1.478000000000000000e+03 7.941236114501953125e+01 9.804780006408691406e+00 3.762827068567276001e-02 5.631245136260986328e+00 1.700662016868591309e+00 -2.298974692821502686e-01
1.479000000000000000e+03 7.654822540283203125e+01 -8.841573715209960938e+00 9.423945546150207520e-01 1.050512504577636719e+01 3.434256076812744141e+00 -6.886271834373474121e-01
1.480000000000000000e+03 7.944692230224609375e+01 -6.852330684661865234e+00 8.704939484596252441e-02 7.018768787384033203e+00 2.131745338439941406e+00 -1.052827201783657074e-02
1.481000000000000000e+03 7.654714202880859375e+01 -1.642681503295898438e+01 -4.670929610729217529e-01 8.141429901123046875e+00 2.302301168441772461e+00 1.056774377822875977e+00
1.482000000000000000e+03 7.923371887207031250e+01 -1.376862430572509766e+01 -1.095497757196426392e-01 1.005880832672119141e+01 2.984777688980102539e+00 1.028751060366630554e-01
1.483000000000000000e+03 7.943125152587890625e+01 -1.942388916015625000e+01 -9.731448255479335785e-03 7.309322834014892578e+00 2.189877510070800781e+00 3.661659657955169678e-01
1.484000000000000000e+03 7.692787933349609375e+01 -2.292025756835937500e+01 7.227398157119750977e-01 7.880929946899414062e+00 2.581100940704345703e+00 7.226711511611938477e-02
1.485000000000000000e+03 7.783646392822265625e+01 6.956999003887176514e-02 -3.685263991355895996e-01 8.557484626770019531e+00 2.456687450408935547e+00 -9.347064048051834106e-02
1.486000000000000000e+03 7.930686187744140625e+01 1.447757482528686523e+00 -3.185356035828590393e-02 9.368116378784179688e+00 2.800879001617431641e+00 -1.466670781373977661e-01
1.487000000000000000e+03 7.813757324218750000e+01 8.618888854980468750e+00 1.378679126501083374e-01 6.712889671325683594e+00 2.055227279663085938e+00 -7.436434626579284668e-01
1.488000000000000000e+03 7.869399261474609375e+01 4.023714065551757812e+01 -4.929468780755996704e-02 7.800987243652343750e+00 2.325507879257202148e+00 -6.674736738204956055e-02
1.489000000000000000e+03 7.322853088378906250e+01 3.850755691528320312e+01 -2.128358185291290283e-01 6.491301059722900391e+00 1.883539557456970215e+00 2.950741946697235107e-01
1.490000000000000000e+03 7.567835998535156250e+01 3.658524703979492188e+01 -5.199037864804267883e-02 6.927538394927978516e+00 2.062664270401000977e+00 2.463934123516082764e-01
1.491000000000000000e+03 7.831746673583984375e+01 1.124595069885253906e+01 2.748577296733856201e-01 6.230083942413330078e+00 1.951482534408569336e+00 -2.311891615390777588e-01
1.492000000000000000e+03 7.796358489990234375e+01 1.583648920059204102e+00 -2.977358400821685791e-01 8.353355407714843750e+00 2.416685819625854492e+00 -4.361859858036041260e-01
1.493000000000000000e+03 7.802649688720703125e+01 3.034626960754394531e+00 -1.157314106822013855e-01 8.082313537597656250e+00 2.389974594116210938e+00 -6.729542613029479980e-01
1.494000000000000000e+03 7.523932647705078125e+01 -2.711283922195434570e+00 -6.127614378929138184e-01 8.269396781921386719e+00 2.296990633010864258e+00 -5.070028305053710938e-01
1.495000000000000000e+03 7.581827545166015625e+01 -5.444955825805664062e+00 1.166370511054992676e+00 1.181926250457763672e+01 3.895689725875854492e+00 -8.766257166862487793e-01
1.496000000000000000e+03 7.769078063964843750e+01 -4.796405792236328125e+00 3.550688028335571289e-01 9.405725479125976562e+00 2.928238153457641602e+00 6.387034058570861816e-01
1.497000000000000000e+03 7.486531829833984375e+01 -1.726281738281250000e+01 -3.769712448120117188e-01 7.549718856811523438e+00 2.151824235916137695e+00 5.433133244514465332e-01
1.498000000000000000e+03 7.567935943603515625e+01 -1.843329811096191406e+01 1.228934377431869507e-01 8.272616386413574219e+00 2.518652915954589844e+00 1.087760329246520996e+00
1.499000000000000000e+03 7.825560760498046875e+01 -2.057094764709472656e+01 2.226831465959548950e-01 7.504876613616943359e+00 2.318268060684204102e+00 6.414431929588317871e-01
1.500000000000000000e+03 1.977399635314941406e+01 6.806913852691650391e+00 6.027221679687500000e-01 -4.648738801479339600e-01 4.135449230670928955e-02 -4.168899357318878174e-02
1.501000000000000000e+03 5.603320312500000000e+01 -3.207025527954101562e+01 1.089084267616271973e+00 1.129400920867919922e+01 3.714928150177001953e+00 1.735881328582763672e+00
1.502000000000000000e+03 5.478157806396484375e+01 -2.941946983337402344e+01 1.131292104721069336e+00 6.832535743713378906e+00 2.389148473739624023e+00 1.286369681358337402e+00
1.503000000000000000e+03 4.541432571411132812e+01 2.190638542175292969e+01 -1.889897704124450684e+00 7.171815872192382812e+00 1.584575414657592773e+00 2.508110284805297852e+00
1.504000000000000000e+03 2.189459037780761719e+01 1.215096473693847656e+01 -1.327604800462722778e-01 2.839384078979492188e+00 8.119871020317077637e-01 -2.017945051193237305e+00
1.505000000000000000e+03 1.661348152160644531e+01 2.047209167480468750e+01 1.288050532341003418e+00 -8.571346104145050049e-02 3.607011437416076660e-01 2.548672445118427277e-02
1.506000000000000000e+03 7.488065338134765625e+01 -4.708176136016845703e+00 1.127753615379333496e+00 1.151669311523437500e+01 3.793334007263183594e+00 -2.381335496902465820e+00
1.507000000000000000e+03 2.126181602478027344e+01 1.732627487182617188e+01 -2.364960908889770508e-01 5.239827156066894531e+00 1.500999331474304199e+00 -2.043571472167968750e-01
1.508000000000000000e+03 5.959196090698242188e+01 1.081452178955078125e+01 1.043170213699340820e+00 7.518643379211425781e+00 2.568543910980224609e+00 6.104723811149597168e-01
1.509000000000000000e+03 7.544290924072265625e+01 -6.799456596374511719e+00 6.587077379226684570e-01 1.409345817565917969e+01 4.425650119781494141e+00 -7.483121752738952637e-01
1.510000000000000000e+03 7.532238769531250000e+01 -8.186733245849609375e+00 7.173605561256408691e-01 1.425347328186035156e+01 4.491250038146972656e+00 6.460662484169006348e-01
1.511000000000000000e+03 3.414572143554687500e+01 1.230582904815673828e+01 -5.406545162200927734e+00 -6.467699259519577026e-02 -1.641366600990295410e+00 3.510543331503868103e-02
1.512000000000000000e+03 3.319652175903320312e+01 1.348919296264648438e+01 -2.588728904724121094e+00 1.513213992118835449e+00 -3.226544857025146484e-01 8.468115329742431641e-01
1.513000000000000000e+03 6.440943908691406250e+01 -4.467693805694580078e+00 2.022822141647338867e+00 9.190789222717285156e+00 3.364083528518676758e+00 7.639935612678527832e-01
1.514000000000000000e+03 5.694733810424804688e+01 -3.647845840454101562e+01 1.082342505455017090e+00 5.851042270660400391e+00 2.080015420913696289e+00 -2.588421106338500977e+00
1.515000000000000000e+03 6.557254791259765625e+01 -1.115188789367675781e+01 -3.923278152942657471e-01 5.829204559326171875e+00 1.631063103675842285e+00 -1.027873992919921875e+00
1.516000000000000000e+03 8.374387741088867188e+00 1.305221271514892578e+01 9.176190197467803955e-02 4.323233962059020996e-01 1.572255939245223999e-01 1.740779876708984375e-01
1.517000000000000000e+03 9.233533859252929688e+00 1.652864646911621094e+01 1.429471969604492188e-01 5.195085406303405762e-01 1.987367123365402222e-01 8.977302163839340210e-02
1.518000000000000000e+03 2.174881362915039062e+01 1.332577323913574219e+01 4.192766547203063965e-02 3.436188459396362305e+00 1.043434858322143555e+00 -1.770457983016967773e+00
1.519000000000000000e+03 5.102328872680664062e+01 2.931246376037597656e+01 1.767837643623352051e+00 6.438100337982177734e+00 2.461781263351440430e+00 9.389218688011169434e-01
1.520000000000000000e+03 1.678529548645019531e+01 3.979110002517700195e+00 -3.755517601966857910e-01 -1.904167085886001587e-01 -1.697905361652374268e-01 1.764163672924041748e-01
1.521000000000000000e+03 9.938949584960937500e+00 7.893374919891357422e+00 -5.577247217297554016e-02 1.363732367753982544e-01 2.418022789061069489e-02 7.181003689765930176e-02
1.522000000000000000e+03 7.834650993347167969e+00 2.732335090637207031e+00 -2.105464935302734375e-01 2.307640202343463898e-02 -5.624102801084518433e-02 1.151259019970893860e-01
1.523000000000000000e+03 7.323387145996093750e+01 -1.318539142608642578e+01 -8.590757250785827637e-01 2.736931324005126953e+00 5.633566379547119141e-01 5.280157327651977539e-01
1.524000000000000000e+03 4.660062026977539062e+01 2.242606735229492188e+01 -5.194867253303527832e-01 6.446465492248535156e+00 1.778093695640563965e+00 1.786492586135864258e+00
1.525000000000000000e+03 4.411467742919921875e+01 3.194413566589355469e+01 3.665283024311065674e-01 1.914587616920471191e+00 6.843348145484924316e-01 -1.107818722724914551e+00
1.526000000000000000e+03 3.415993881225585938e+01 2.835016250610351562e+01 1.124015927314758301e+00 8.281494140625000000e+00 2.821653127670288086e+00 -5.764625668525695801e-01
1.527000000000000000e+03 5.626470184326171875e+01 1.529646682739257812e+01 1.323343873023986816e+00 6.599407672882080078e+00 2.376825571060180664e+00 1.546183526515960693e-01
1.528000000000000000e+03 4.492939376831054688e+01 3.319388961791992188e+01 -6.308804154396057129e-01 3.781044006347656250e+00 9.450491070747375488e-01 -1.080147385597229004e+00
1.529000000000000000e+03 5.628589630126953125e+01 -2.636512565612792969e+01 -2.135565996170043945e+00 7.534255504608154297e+00 1.619606733322143555e+00 2.492159128189086914e+00
1.530000000000000000e+03 4.780746459960937500e+01 2.033375358581542969e+01 -1.372606158256530762e+00 3.466058969497680664e+00 6.280358433723449707e-01 2.496091365814208984e+00
1.531000000000000000e+03 4.559794235229492188e+01 1.889659118652343750e+01 -1.734868288040161133e+00 7.375077724456787109e+00 1.692062735557556152e+00 2.420094728469848633e+00
1.532000000000000000e+03 5.638285064697265625e+01 1.356653118133544922e+01 1.612312197685241699e+00 7.822508811950683594e+00 2.830446243286132812e+00 8.262502551078796387e-01
1.533000000000000000e+03 5.183736801147460938e+01 1.701326179504394531e+01 -7.965309917926788330e-02 1.409797549247741699e+00 3.990433216094970703e-01 -8.990737795829772949e-01
1.534000000000000000e+03 6.769508361816406250e+01 -4.152389144897460938e+01 -1.571812510490417480e+00 4.807335853576660156e+00 9.706569910049438477e-01 -2.091198787093162537e-02
1.535000000000000000e+03 5.040039443969726562e+01 -3.065970802307128906e+01 3.437408685684204102e+00 6.644663333892822266e+00 3.024621725082397461e+00 -1.470402479171752930e+00
1.536000000000000000e+03 5.474737167358398438e+01 -3.198214340209960938e+01 2.494356632232666016e+00 8.570403099060058594e+00 3.319427967071533203e+00 6.527285277843475342e-02
1.537000000000000000e+03 6.740350341796875000e+01 -3.243289566040039062e+01 1.727095007896423340e+00 7.524064540863037109e+00 2.775347948074340820e+00 -1.947977066040039062e+00
1.538000000000000000e+03 6.806208038330078125e+01 -2.972257232666015625e+01 2.471778154373168945e+00 4.992592811584472656e+00 2.239311218261718750e+00 -1.991662263870239258e+00
1.539000000000000000e+03 6.266026306152343750e+01 -7.645805358886718750e+00 1.938655495643615723e+00 8.918019294738769531e+00 3.257002353668212891e+00 3.155493438243865967e-01
1.540000000000000000e+03 6.450662994384765625e+01 -7.368221282958984375e+00 1.586117744445800781e+00 1.058900451660156250e+01 3.652536630630493164e+00 -6.755650043487548828e-01
1.541000000000000000e+03 4.096593093872070312e+01 1.105417728424072266e+01 -2.447310090065002441e-01 7.842867374420166016e+00 2.279440879821777344e+00 9.008052349090576172e-01
1.542000000000000000e+03 3.423251724243164062e+01 3.345016098022460938e+01 -7.635722756385803223e-01 4.767671108245849609e+00 1.201229691505432129e+00 -1.959810107946395874e-01
1.543000000000000000e+03 2.938920211791992188e+01 3.244133758544921875e+01 2.421383112668991089e-01 2.635699987411499023e+00 8.633515238761901855e-01 -1.197640061378479004e+00
1.544000000000000000e+03 1.338210487365722656e+01 -1.333855628967285156e+01 8.892098814249038696e-02 2.132441401481628418e-01 9.064953774213790894e-02 -1.907768696546554565e-01
1.545000000000000000e+03 1.541392993927001953e+01 -1.447795486450195312e+01 1.428458541631698608e-01 5.711001753807067871e-01 2.141838073730468750e-01 -2.837060391902923584e-01
1.546000000000000000e+03 7.821343231201171875e+01 -3.040383815765380859e+00 -1.840589791536331177e-01 8.747956275939941406e+00 2.569169282913208008e+00 7.371161580085754395e-01
1.547000000000000000e+03 4.342043304443359375e+01 1.411239242553710938e+01 1.823306798934936523e+00 9.648442268371582031e+00 3.441524744033813477e+00 1.011440396308898926e+00
1.548000000000000000e+03 3.813179397583007812e+01 1.058191394805908203e+01 -4.221330583095550537e-02 3.490521669387817383e+00 1.034492492675781250e+00 -9.114578962326049805e-01
1.549000000000000000e+03 6.643561553955078125e+01 -5.241305232048034668e-01 5.071107149124145508e-01 4.390733718872070312e+00 1.469353318214416504e+00 1.968086481094360352e+00
1.550000000000000000e+03 6.200667190551757812e+01 -2.870937824249267578e+00 1.919686555862426758e+00 8.410437583923339844e+00 3.099037408828735352e+00 -1.043205499649047852e+00
1.551000000000000000e+03 3.519014739990234375e+01 2.812446975708007812e+01 4.046892523765563965e-01 1.118366718292236328e+01 3.476506948471069336e+00 7.152681797742843628e-02
1.552000000000000000e+03 5.534232330322265625e+01 -3.749212646484375000e+01 -1.794230103492736816e+00 7.911340236663818359e+00 1.835133075714111328e+00 -8.987366408109664917e-02
1.553000000000000000e+03 5.565615081787109375e+01 -2.881666755676269531e+01 1.435154080390930176e-01 7.060810565948486328e+00 2.161297798156738281e+00 1.496433258056640625e+00
1.554000000000000000e+03 7.809848785400390625e+01 -7.878011226654052734e+00 6.496795415878295898e-01 8.831608772277832031e+00 2.844386577606201172e+00 -4.513343274593353271e-01
1.555000000000000000e+03 7.421535491943359375e+01 -1.507024645805358887e+00 -1.128537654876708984e+00 5.793597221374511719e+00 1.399517774581909180e+00 -8.753337264060974121e-01
1.556000000000000000e+03 7.345173645019531250e+01 -2.362261533737182617e+00 3.379783928394317627e-01 3.741135120391845703e+00 1.223734021186828613e+00 -1.194878339767456055e+00
1.557000000000000000e+03 6.785614013671875000e+01 -3.357316970825195312e+01 1.290192604064941406e+00 6.398238658905029297e+00 2.306529283523559570e+00 -1.533408284187316895e+00
1.558000000000000000e+03 7.093689727783203125e+01 -2.872114753723144531e+01 9.173620939254760742e-01 2.697283267974853516e+00 1.084393620491027832e+00 1.020489811897277832e+00
1.559000000000000000e+03 3.508269500732421875e+01 2.216593933105468750e+01 4.763942956924438477e-02 5.596612453460693359e+00 1.693275570869445801e+00 -1.284416437149047852e+00
1.560000000000000000e+03 3.600942230224609375e+01 2.276924324035644531e+01 5.962269380688667297e-03 4.986992359161376953e+00 1.497886300086975098e+00 -1.659889101982116699e+00
1.561000000000000000e+03 4.584879684448242188e+01 3.242665100097656250e+01 -5.081309676170349121e-01 4.841761112213134766e+00 1.300089120864868164e+00 -6.485072374343872070e-01
1.562000000000000000e+03 6.739283752441406250e+01 -1.170588588714599609e+01 3.949836790561676025e-01 2.416738033294677734e+00 8.435164690017700195e-01 -1.105017900466918945e+00
1.563000000000000000e+03 7.089436340332031250e+01 -1.352929592132568359e+01 -2.005872279405593872e-01 3.994871675968170166e-01 5.966998264193534851e-02 -1.142568349838256836e+00
1.564000000000000000e+03 4.362176132202148438e+01 1.564138126373291016e+01 1.824224591255187988e+00 8.882302284240722656e+00 3.211958169937133789e+00 1.202519297599792480e+00
1.565000000000000000e+03 5.150809860229492188e+01 1.893750953674316406e+01 -2.242610216140747070e+00 2.597850322723388672e+00 1.065720543265342712e-01 -1.433052062988281250e+00
1.566000000000000000e+03 5.264659500122070312e+01 1.788716697692871094e+01 -7.338154911994934082e-01 3.169817924499511719e+00 7.308006882667541504e-01 -1.406797409057617188e+00
1.567000000000000000e+03 5.366721343994140625e+01 1.675733566284179688e+01 1.672681421041488647e-01 3.841023683547973633e+00 1.202487587928771973e+00 -1.619948983192443848e+00
1.568000000000000000e+03 3.957260131835937500e+01 1.576406121253967285e+00 1.022111177444458008e+00 7.631081581115722656e+00 2.595957756042480469e+00 1.412496566772460938e+00
1.569000000000000000e+03 5.829827117919921875e+01 1.121028709411621094e+01 1.277695178985595703e+00 8.358756065368652344e+00 2.890935182571411133e+00 1.186865210533142090e+00
1.570000000000000000e+03 5.584384155273437500e+01 1.011874580383300781e+01 1.402263045310974121e+00 1.044915771484375000e+01 3.555426359176635742e+00 1.762992501258850098e+00
1.571000000000000000e+03 3.396951675415039062e+01 2.751322984695434570e-01 1.168335437774658203e+00 2.902003526687622070e-01 4.375607371330261230e-01 1.219213366508483887e+00
1.572000000000000000e+03 3.019411849975585938e+01 1.099846076965332031e+01 1.618126153945922852e+00 5.313959121704101562e+00 2.079625606536865234e+00 2.267057895660400391e+00
1.573000000000000000e+03 5.155473232269287109e+00 -1.765097999572753906e+01 -1.043892726302146912e-01 -1.028812527656555176e-01 -6.218115985393524170e-02 -1.091447919607162476e-01
1.574000000000000000e+03 3.509495162963867188e+01 1.282882881164550781e+01 -3.865867614746093750e+00 -2.643588781356811523e-01 -1.239067912101745605e+00 -3.462878465652465820e-01
1.575000000000000000e+03 1.893273925781250000e+01 -1.180991935729980469e+01 -5.117627382278442383e-01 -2.199107110500335693e-01 -2.195020318031311035e-01 3.655965626239776611e-01
1.576000000000000000e+03 1.555770587921142578e+01 -1.565207672119140625e+01 2.596969902515411377e-01 6.677741408348083496e-01 2.782413363456726074e-01 -3.853284418582916260e-01
1.577000000000000000e+03 4.005162048339843750e+01 3.447197198867797852e+00 3.536071538925170898e+00 1.076920986175537109e+01 4.291584491729736328e+00 2.169705152511596680e+00
1.578000000000000000e+03 4.114650249481201172e+00 -2.015859985351562500e+01 2.528549730777740479e-01 1.952196061611175537e-01 1.344223618507385254e-01 -2.574507594108581543e-01
1.579000000000000000e+03 3.885464096069335938e+01 1.184971237182617188e+01 -9.391576051712036133e-01 5.086234569549560547e+00 1.244123101234436035e+00 -5.294433832168579102e-01
1.580000000000000000e+03 4.075254058837890625e+01 9.918519020080566406e+00 -3.799300491809844971e-01 8.999429702758789062e+00 2.585849761962890625e+00 1.109603524208068848e+00
1.581000000000000000e+03 4.726000595092773438e+01 -1.784003067016601562e+01 1.246037244796752930e+00 7.346520423889160156e+00 2.577767372131347656e+00 2.819530487060546875e+00
1.582000000000000000e+03 4.474322509765625000e+01 -1.556657886505126953e+01 -1.016111612319946289e+00 3.924417972564697266e+00 8.724919557571411133e-01 1.660049796104431152e+00
1.583000000000000000e+03 2.806444168090820312e+01 8.280948638916015625e+00 2.133131265640258789e+00 7.104207992553710938e+00 2.771201848983764648e+00 -1.225185871124267578e+00
1.584000000000000000e+03 2.910771751403808594e+01 1.372541332244873047e+01 -2.380798816680908203e+00 1.937154293060302734e+00 -1.330933570861816406e-01 1.256931662559509277e+00
1.585000000000000000e+03 2.926678085327148438e+01 1.217212581634521484e+01 -1.807609796524047852e+00 3.758456468582153320e+00 5.852540135383605957e-01 3.513679504394531250e-01
1.586000000000000000e+03 1.732195854187011719e+01 -1.789624786376953125e+01 4.220551848411560059e-01 2.579680979251861572e-01 2.040069848299026489e-01 -1.609458029270172119e-01
1.587000000000000000e+03 1.710596847534179688e+01 -1.686746215820312500e+01 2.941502332687377930e-01 2.586417496204376221e-01 1.658375859260559082e-01 -3.571842312812805176e-01
1.588000000000000000e+03 3.056694030761718750e+01 8.399007320404052734e-01 -1.676630258560180664e+00 9.595781326293945312e+00 2.375745534896850586e+00 -4.038803577423095703e+00
1.589000000000000000e+03 1.779432678222656250e+01 -1.074440765380859375e+01 -3.709684014320373535e-01 -9.464359283447265625e-02 -1.396836042404174805e-01 2.325803488492965698e-01
1.590000000000000000e+03 5.582587814331054688e+01 -1.693159103393554688e+01 1.936383247375488281e-01 6.995711326599121094e+00 2.156805038452148438e+00 -9.043367505073547363e-01
1.591000000000000000e+03 9.330313682556152344e+00 -2.778488731384277344e+01 5.083745121955871582e-01 4.890574812889099121e-01 2.992295920848846436e-01 8.001483976840972900e-02
1.592000000000000000e+03 5.193845748901367188e+01 -2.524520874023437500e+01 -5.427437782287597656e+00 -1.173994597047567368e-02 -1.631753325462341309e+00 -1.917902678251266479e-01
1.593000000000000000e+03 5.290945434570312500e+01 -1.461887931823730469e+01 -1.239702463150024414e+00 3.069980382919311523e+00 5.490833520889282227e-01 -3.425974130630493164e+00
1.594000000000000000e+03 1.604087638854980469e+01 -2.201950073242187500e+01 4.648259282112121582e-01 4.587163031101226807e-01 2.770626842975616455e-01 6.157773137092590332e-01
1.595000000000000000e+03 1.382614135742187500e+01 -2.665831947326660156e+01 8.367270827293395996e-01 1.152615904808044434e+00 5.968028903007507324e-01 6.635951995849609375e-01
1.596000000000000000e+03 6.310442686080932617e-01 -2.613139915466308594e+01 1.454231794923543930e-02 -9.200522899627685547e-01 -2.716529965400695801e-01 4.071425180882215500e-03
1.597000000000000000e+03 6.487873554229736328e+00 -2.317502021789550781e+01 2.093959301710128784e-01 3.660256564617156982e-01 1.726264655590057373e-01 -2.777888178825378418e-01
1.598000000000000000e+03 1.398847579956054688e+01 -2.400624847412109375e+01 3.172934055328369141e-01 7.663765549659729004e-01 3.251009881496429443e-01 6.415463089942932129e-01
1.599000000000000000e+03 1.291991233825683594e+01 -2.332151031494140625e+01 7.515315711498260498e-02 4.165412485599517822e-01 1.475083231925964355e-01 3.431677520275115967e-01
1.600000000000000000e+03 6.174114346504211426e-01 -1.627512741088867188e+01 -2.137129008769989014e-02 -2.227695137262344360e-01 -7.324223965406417847e-02 -7.800412923097610474e-02
1.601000000000000000e+03 1.781479072570800781e+01 -1.883122825622558594e+01 6.477178931236267090e-01 1.545948535203933716e-01 2.406938225030899048e-01 6.375908851623535156e-02
1.602000000000000000e+03 4.078863525390625000e+01 -2.084566307067871094e+01 1.956458330154418945e+00 6.575856208801269531e+00 2.559694290161132812e+00 -9.553281664848327637e-01
1.603000000000000000e+03 4.660127639770507812e+01 -2.731227684020996094e+01 -1.405274748802185059e+00 4.456565380096435547e+00 9.153872728347778320e-01 -3.225517988204956055e+00
1.604000000000000000e+03 5.609976196289062500e+01 -1.953972053527832031e+01 1.673714518547058105e+00 9.379422187805175781e+00 3.315941095352172852e+00 -9.231978654861450195e-01
1.605000000000000000e+03 5.536713790893554688e+01 -2.200416755676269531e+01 1.229927062988281250e+00 1.271786689758300781e+01 4.184338092803955078e+00 1.974973082542419434e+00
1.606000000000000000e+03 5.480028152465820312e+01 -2.772323989868164062e+01 -9.806219339370727539e-01 6.793921470642089844e+00 1.743989944458007812e+00 1.863758921623229980e+00
1.607000000000000000e+03 1.553640007972717285e+00 -4.009006500244140625e+01 2.044814079999923706e-02 1.709477305412292480e-01 5.741875991225242615e-02 1.164396926760673523e-01
1.608000000000000000e+03 6.634197235107421875e-01 2.756456947326660156e+01 1.150619052350521088e-02 -1.289036750793457031e+00 -3.832591772079467773e-01 -1.388324946165084839e-01
1.609000000000000000e+03 6.189531087875366211e-01 2.616153144836425781e+01 4.789801687002182007e-02 -1.537598848342895508e+00 -4.469102621078491211e-01 -7.783498615026473999e-02
1.610000000000000000e+03 6.346287131309509277e-01 3.466246795654296875e+01 9.111754596233367920e-03 2.315725982189178467e-01 7.220530509948730469e-02 -5.729595199227333069e-02
1.611000000000000000e+03 7.282410264015197754e-01 3.743796157836914062e+01 -5.474104546010494232e-03 3.405488133430480957e-01 1.005224138498306274e-01 6.036663893610239029e-03
1.612000000000000000e+03 8.536977767944335938e-01 -3.588921356201171875e+01 -2.485543861985206604e-02 -2.860722541809082031e-01 -9.327831119298934937e-02 9.371206909418106079e-02
1.613000000000000000e+03 2.057033061981201172e+00 -3.274955749511718750e+01 6.287093460559844971e-02 -3.897355198860168457e-01 -9.805937856435775757e-02 1.831147074699401855e-01
1.614000000000000000e+03 5.790622234344482422e-01 2.336941337585449219e+01 2.542458847165107727e-02 -1.617220997810363770e+00 -4.775389134883880615e-01 3.116334043443202972e-02
1.615000000000000000e+03 1.979657292366027832e+00 2.733066940307617188e+01 1.323448866605758667e-01 -7.094793915748596191e-01 -1.731403470039367676e-01 -3.177537024021148682e-01
1.616000000000000000e+03 2.640853881835937500e+00 3.257494735717773438e+01 -1.295557469129562378e-01 3.361063450574874878e-02 -2.878353558480739594e-02 -3.992057740688323975e-01
1.617000000000000000e+03 4.261732101440429688e+00 3.504669189453125000e+01 -2.732564210891723633e-01 6.685932725667953491e-02 -6.191912665963172913e-02 -2.034592628479003906e-01
1.618000000000000000e+03 1.951706767082214355e+00 3.448851013183593750e+01 -1.036968007683753967e-01 1.089030429720878601e-01 1.561873010359704494e-03 -1.961097866296768188e-01
1.619000000000000000e+03 2.302438974380493164e+00 3.844573593139648438e+01 -4.499845951795578003e-02 2.116554528474807739e-01 4.999709874391555786e-02 4.157317802309989929e-02
1.620000000000000000e+03 3.326832056045532227e+00 -2.840193557739257812e+01 8.400835841894149780e-02 -3.099297881126403809e-01 -6.777643412351608276e-02 5.371290445327758789e-02
1.621000000000000000e+03 5.264210224151611328e+00 -2.370097732543945312e+01 5.801188573241233826e-02 2.057228535413742065e-01 7.912041991949081421e-02 -1.594150066375732422e-01
1.622000000000000000e+03 2.865486860275268555e+00 -3.658187103271484375e+01 -3.437457233667373657e-02 -3.006952116265892982e-03 -1.121445745229721069e-02 2.757107317447662354e-01
1.623000000000000000e+03 1.776943445205688477e+00 2.193046379089355469e+01 1.533347088843584061e-02 -9.701847434043884277e-01 -2.864553630352020264e-01 1.155106350779533386e-01
1.624000000000000000e+03 6.083844304084777832e-01 2.056355476379394531e+01 4.451386630535125732e-04 -1.365123629570007324e+00 -4.094035625457763672e-01 5.543882399797439575e-02
1.625000000000000000e+03 5.733501315116882324e-01 1.348685264587402344e+01 2.752045635133981705e-03 -7.952479124069213867e-01 -2.377487719058990479e-01 4.295995458960533142e-02
1.626000000000000000e+03 1.876790881156921387e+00 1.766363525390625000e+01 -8.636704878881573677e-04 -7.748745679855346680e-01 -2.327214628458023071e-01 1.280799359083175659e-01
1.627000000000000000e+03 1.658563137054443359e+00 1.067930126190185547e+01 1.276058610528707504e-03 -4.448612630367279053e-01 -1.330755501985549927e-01 1.267503648996353149e-01
1.628000000000000000e+03 6.034365296363830566e-01 7.865828037261962891e+00 4.112393071409314871e-04 -3.289751708507537842e-01 -9.856918454170227051e-02 4.686443880200386047e-02
1.629000000000000000e+03 6.516807675361633301e-01 -2.328885459899902344e+01 1.249994151294231415e-02 -9.098298549652099609e-01 -2.691989839076995850e-01 -2.955942647531628609e-03
1.630000000000000000e+03 6.426090598106384277e-01 -1.768802070617675781e+01 7.454445119947195053e-03 -4.131517410278320312e-01 -1.217091903090476990e-01 -9.085776656866073608e-02
1.631000000000000000e+03 1.741885423660278320e+00 -9.164880752563476562e+00 -1.217172946780920029e-02 2.816971950232982635e-02 4.799397196620702744e-03 5.636987742036581039e-03
1.632000000000000000e+03 4.236577987670898438e+00 -3.919175338745117188e+01 -1.727416962385177612e-01 2.561434805393218994e-01 2.502053976058959961e-02 2.449592649936676025e-01
1.633000000000000000e+03 3.918260335922241211e+00 -3.464823150634765625e+01 2.817830629646778107e-02 -1.216227374970912933e-02 4.804810043424367905e-03 3.340374231338500977e-01
1.634000000000000000e+03 2.218623161315917969e+00 -3.405267333984375000e+01 -2.671390247996896505e-04 -2.769294977188110352e-01 -8.315899223089218140e-02 2.058893889188766479e-01
1.635000000000000000e+03 1.977815508842468262e+00 -3.140796089172363281e+01 1.442170143127441406e-02 -4.943420588970184326e-01 -1.439761072397232056e-01 1.129696592688560486e-01
1.636000000000000000e+03 4.230422019958496094e+00 -2.529130363464355469e+01 1.943311467766761780e-02 -1.033929139375686646e-01 -2.518793940544128418e-02 -6.444831192493438721e-02
1.637000000000000000e+03 1.856242060661315918e+00 -2.450409698486328125e+01 1.468116138130426407e-02 -6.047357320785522461e-01 -1.770163774490356445e-01 -7.812096271663904190e-03
1.638000000000000000e+03 2.055987596511840820e+00 -2.158382034301757812e+01 9.213896095752716064e-02 -4.579128921031951904e-01 -1.097321808338165283e-01 -9.733472764492034912e-02
1.639000000000000000e+03 6.319969892501831055e-01 -1.909350776672363281e+01 -1.182933244854211807e-02 -6.204203367233276367e-01 -1.896748989820480347e-01 -9.771228581666946411e-02
1.640000000000000000e+03 1.667636394500732422e+00 -1.334076499938964844e+01 -2.365801297128200531e-02 -3.060306049883365631e-02 -1.627832278609275818e-02 -6.372068822383880615e-02
1.641000000000000000e+03 5.524528026580810547e+00 -1.137516975402832031e+01 -1.102852672338485718e-01 -1.273454427719116211e-01 -7.128921151161193848e-02 -6.232567876577377319e-02
1.642000000000000000e+03 5.586296319961547852e-01 -1.205579566955566406e+01 4.512076266109943390e-03 7.669792324304580688e-02 2.436299994587898254e-02 -7.858710363507270813e-03
1.643000000000000000e+03 2.731886625289916992e+00 -1.323805141448974609e+01 -7.653237134218215942e-02 -5.823229998350143433e-02 -4.042940214276313782e-02 -9.173206239938735962e-02
1.644000000000000000e+03 5.251023769378662109e+00 -3.686792373657226562e+00 5.636010784655809402e-03 -2.523296885192394257e-02 -5.879087373614311218e-03 1.219209632836282253e-03
1.645000000000000000e+03 4.672590255737304688e+00 -8.329171180725097656e+00 -1.694037206470966339e-02 -6.808007508516311646e-02 -2.550613507628440857e-02 -2.726045669987797737e-03
1.646000000000000000e+03 1.654793381690979004e+00 -6.324260234832763672e+00 -4.266109783202409744e-03 2.442913129925727844e-02 6.048906594514846802e-03 1.497768796980381012e-02
1.647000000000000000e+03 1.304002523422241211e+00 -3.166991949081420898e+00 8.389334543608129025e-04 1.136483065783977509e-02 3.661129157990217209e-03 1.062916219234466553e-02
1.648000000000000000e+03 5.792553424835205078e-01 4.944933414459228516e+00 -8.290452882647514343e-03 -1.355987787246704102e-01 -4.316677153110504150e-02 3.519178554415702820e-02
1.649000000000000000e+03 1.609270811080932617e+00 4.545846939086914062e+00 -1.639427803456783295e-02 -1.099800914525985718e-01 -3.791231289505958557e-02 8.165598660707473755e-02
1.650000000000000000e+03 5.553261041641235352e-01 1.067568588256835938e+01 1.248075976036489010e-03 -5.594314336776733398e-01 -1.674550175666809082e-01 4.527227208018302917e-02
1.651000000000000000e+03 1.699585437774658203e+00 1.341492938995361328e+01 7.904445752501487732e-03 -6.023312807083129883e-01 -1.783280521631240845e-01 1.226992383599281311e-01
1.652000000000000000e+03 1.871654748916625977e+00 1.910324478149414062e+01 -4.956252407282590866e-03 -8.471794724464416504e-01 -2.556407153606414795e-01 1.330565214157104492e-01
1.653000000000000000e+03 1.764153957366943359e+00 2.463607788085937500e+01 1.186910346150398254e-01 -9.887818694114685059e-01 -2.610272467136383057e-01 -3.209488093852996826e-02
1.654000000000000000e+03 4.514673995971679688e+01 -1.963306617736816406e+01 2.765703201293945312e+00 6.134744167327880859e+00 2.670134305953979492e+00 4.943858385086059570e-01
1.655000000000000000e+03 5.680469131469726562e+01 -2.114356613159179688e+01 2.335320949554443359e+00 8.072142601013183594e+00 3.122239112854003906e+00 5.366528630256652832e-01
1.656000000000000000e+03 5.730452346801757812e+01 -2.006141853332519531e+01 2.166100263595581055e+00 7.257877349853515625e+00 2.827193260192871094e+00 1.336342990398406982e-01
1.657000000000000000e+03 4.713030242919921875e+01 -2.374606704711914062e+01 1.008442878723144531e+00 6.161981105804443359e+00 2.151127099990844727e+00 -2.708864212036132812e+00
1.658000000000000000e+03 4.199867630004882812e+01 7.599392890930175781e+00 4.016892611980438232e-01 8.870532035827636719e+00 2.781666517257690430e+00 1.712036252021789551e+00
1.659000000000000000e+03 4.214842605590820312e+01 8.771029472351074219e+00 -4.226737469434738159e-02 8.794495582580566406e+00 2.625668525695800781e+00 1.419488430023193359e+00
1.660000000000000000e+03 6.553591156005859375e+01 -3.766254043579101562e+01 -1.988061308860778809e+00 4.731290340423583984e+00 8.229686617851257324e-01 2.095686942338943481e-01
1.661000000000000000e+03 6.677839660644531250e+01 -3.564402389526367188e+01 2.983073890209197998e-01 6.422458648681640625e+00 2.016229867935180664e+00 -5.129062533378601074e-01
1.662000000000000000e+03 5.991973495483398438e+01 6.762024164199829102e-01 -1.170233845710754395e+00 5.180527687072753906e+00 1.203088164329528809e+00 -2.266397237777709961e+00
1.663000000000000000e+03 5.928792572021484375e+01 1.743205189704895020e+00 -9.139430522918701172e-01 4.418234348297119141e+00 1.051287412643432617e+00 -2.432607412338256836e+00
1.664000000000000000e+03 4.055392837524414062e+01 1.741419601440429688e+01 1.097329974174499512e+00 3.492454051971435547e+00 1.376935243606567383e+00 -1.416241645812988281e+00
1.665000000000000000e+03 2.641246795654296875e+01 1.482453250885009766e+01 -3.600858211517333984e+00 2.627868652343750000e-01 -1.001421332359313965e+00 -5.323222875595092773e-01
1.666000000000000000e+03 2.320473098754882812e+01 1.601149368286132812e+01 -9.261123538017272949e-01 3.668139219284057617e+00 8.226080536842346191e-01 -8.369339704513549805e-01
1.667000000000000000e+03 5.999359512329101562e+01 1.661956596374511719e+01 2.300922870635986328e+00 9.441726684570312500e+00 3.522794723510742188e+00 2.255496263504028320e+00
1.668000000000000000e+03 6.681764984130859375e+01 2.654575157165527344e+01 2.094036340713500977e+00 4.325506210327148438e+00 1.925862669944763184e+00 8.842024207115173340e-01
1.669000000000000000e+03 6.769069671630859375e+01 2.073910140991210938e+01 -3.708126068115234375e+00 1.983187049627304077e-01 -1.052942156791687012e+00 -2.750777453184127808e-02
1.670000000000000000e+03 1.988339042663574219e+01 -4.594379961490631104e-01 2.975432202219963074e-02 6.679114699363708496e-02 2.896364033222198486e-02 -7.664401549845933914e-03
1.671000000000000000e+03 2.037991333007812500e+01 -8.832157850265502930e-01 2.265192121267318726e-01 1.150184273719787598e-01 1.024612933397293091e-01 6.798144429922103882e-02
1.672000000000000000e+03 1.971282577514648438e+01 -5.850858092308044434e-01 4.534828476607799530e-03 1.727859117090702057e-02 6.544026080518960953e-03 2.688082680106163025e-02
1.673000000000000000e+03 2.714281845092773438e+01 1.057911276817321777e+00 -7.755072116851806641e-01 2.349989652633666992e+00 4.723446965217590332e-01 -1.594262480735778809e+00
1.674000000000000000e+03 3.043921470642089844e+01 1.514676362276077271e-01 -2.353571802377700806e-01 1.183507633209228516e+01 3.479915857315063477e+00 -5.089702606201171875e+00
1.675000000000000000e+03 1.972475814819335938e+01 2.901801586151123047e+00 -8.591778278350830078e-01 -3.830924928188323975e-01 -3.726810812950134277e-01 4.335375428199768066e-01
1.676000000000000000e+03 2.049673461914062500e+01 2.774309635162353516e+00 -8.655573129653930664e-01 -3.756553232669830322e-01 -3.723637759685516357e-01 5.142714381217956543e-01
1.677000000000000000e+03 2.772365379333496094e+01 1.051824450492858887e+00 -4.003300368785858154e-01 3.131857633590698242e+00 8.194583058357238770e-01 -2.578565359115600586e+00
1.678000000000000000e+03 2.739119529724121094e+01 1.292714476585388184e+00 -5.038987994194030762e-01 2.954489946365356445e+00 7.351773381233215332e-01 -2.132253170013427734e+00
1.679000000000000000e+03 2.904727745056152344e+01 5.593435168266296387e-01 5.405366793274879456e-02 5.430564880371093750e+00 1.645385622978210449e+00 -4.564988613128662109e+00
1.680000000000000000e+03 2.881510162353515625e+01 9.318020939826965332e-01 -1.884489059448242188e-01 5.347888946533203125e+00 1.547832012176513672e+00 -4.441821098327636719e+00
1.681000000000000000e+03 3.001821708679199219e+01 1.126638770103454590e+00 -1.608747720718383789e+00 8.365152359008789062e+00 2.026921272277832031e+00 -4.484877586364746094e+00
1.682000000000000000e+03 2.964697074890136719e+01 2.483903884887695312e+00 -1.478126525878906250e+00 7.437597274780273438e+00 1.787841200828552246e+00 -3.503045558929443359e+00
1.683000000000000000e+03 3.052260398864746094e+01 1.466681241989135742e+00 -2.652327299118041992e+00 8.961866378784179688e+00 1.892861723899841309e+00 -3.697728395462036133e+00
1.684000000000000000e+03 2.696367835998535156e+01 1.476336121559143066e+00 -5.257650613784790039e-01 2.464931488037109375e+00 5.817499160766601562e-01 -1.628272652626037598e+00
1.685000000000000000e+03 2.578872871398925781e+01 1.748745918273925781e+00 -6.496410965919494629e-01 1.297990083694458008e+00 1.945046782493591309e-01 -4.647369980812072754e-01
1.686000000000000000e+03 2.406769180297851562e+01 1.931762099266052246e+00 -9.973892569541931152e-01 8.525389432907104492e-02 -2.736406028270721436e-01 4.426272213459014893e-01
1.687000000000000000e+03 2.361447334289550781e+01 1.912213325500488281e+00 -1.117661356925964355e+00 -1.434760726988315582e-02 -3.396026790142059326e-01 5.487342476844787598e-01
1.688000000000000000e+03 2.554041099548339844e+01 1.457866549491882324e+00 -1.050962567329406738e+00 8.573846220970153809e-01 -5.807336792349815369e-02 -1.844834685325622559e-01
1.689000000000000000e+03 2.829727363586425781e+01 5.507099628448486328e+00 3.136789798736572266e+00 7.066428661346435547e+00 3.060965538024902344e+00 -1.505548000335693359e+00
1.690000000000000000e+03 2.637116432189941406e+01 1.272266745567321777e+00 -9.325025677680969238e-01 1.500389099121093750e+00 1.703659594058990479e-01 -8.535861372947692871e-01
1.691000000000000000e+03 2.414543151855468750e+01 1.738335251808166504e+00 -1.199062347412109375e+00 1.236978769302368164e-01 -3.226093351840972900e-01 4.482744336128234863e-01
1.692000000000000000e+03 1.986001205444335938e+01 3.052149295806884766e+00 -7.272268533706665039e-01 -4.240792989730834961e-01 -3.453918397426605225e-01 4.423665404319763184e-01
1.693000000000000000e+03 2.028148460388183594e+01 2.806910991668701172e+00 -9.087553620338439941e-01 -3.845377564430236816e-01 -3.879879415035247803e-01 4.960359334945678711e-01
1.694000000000000000e+03 2.932511138916015625e+01 -3.444047212600708008e+00 -2.493482083082199097e-01 2.982597112655639648e+00 8.199746608734130859e-01 7.517766356468200684e-01
1.695000000000000000e+03 1.815402221679687500e+01 -1.032723999023437500e+01 -3.364712595939636230e-01 -2.335746586322784424e-01 -1.710137873888015747e-01 2.884123921394348145e-01
1.696000000000000000e+03 1.865103340148925781e+01 -1.155067062377929688e+01 -4.734674096107482910e-01 -1.950508803129196167e-01 -2.005554884672164917e-01 3.248775005340576172e-01
1.697000000000000000e+03 3.035185241699218750e+01 -7.162933826446533203e+00 5.984013080596923828e-01 8.786446571350097656e+00 2.815454244613647461e+00 1.351985692977905273e+00
1.698000000000000000e+03 2.732309532165527344e+01 -1.240745449066162109e+01 1.377429246902465820e+00 4.552868366241455078e+00 1.779089212417602539e+00 3.074040412902832031e+00
1.699000000000000000e+03 2.401414108276367188e+01 -1.338629341125488281e+01 -2.479551315307617188e+00 -7.223287224769592285e-02 -7.655352354049682617e-01 -4.425620436668395996e-01
1.700000000000000000e+03 2.554533195495605469e+01 -1.281997299194335938e+01 -3.992983698844909668e-01 5.285227894783020020e-01 3.876733407378196716e-02 3.901322185993194580e-01
1.701000000000000000e+03 1.783308982849121094e+01 -1.003222846984863281e+01 -2.857338190078735352e-01 -1.880459785461425781e-01 -1.421339511871337891e-01 2.345020025968551636e-01
1.702000000000000000e+03 3.086658477783203125e+01 -4.777402877807617188e+00 -4.389640986919403076e-01 8.645563125610351562e+00 2.461979627609252930e+00 5.901766419410705566e-01
1.703000000000000000e+03 1.919769096374511719e+01 -1.208384895324707031e+01 -5.974246263504028320e-01 -2.481000274419784546e-01 -2.536574006080627441e-01 3.861836791038513184e-01
1.704000000000000000e+03 1.676570510864257812e+01 -7.181914806365966797e+00 -1.032109279185533524e-02 1.425802856683731079e-01 3.967776149511337280e-02 2.035687863826751709e-02
1.705000000000000000e+03 2.947809410095214844e+01 -8.877422332763671875e+00 1.699843168258666992e+00 1.461878776550292969e+01 4.895589351654052734e+00 2.947703123092651367e+00
1.706000000000000000e+03 3.004114532470703125e+01 -8.584557533264160156e+00 2.150090694427490234e+00 1.050702953338623047e+01 3.797136068344116211e+00 3.026993274688720703e+00
1.707000000000000000e+03 1.835952186584472656e+01 -1.145424842834472656e+00 1.611835323274135590e-02 4.732515290379524231e-02 1.903305202722549438e-02 -7.093211170285940170e-03
1.708000000000000000e+03 1.757175254821777344e+01 -9.666338920593261719e+00 -2.190725356340408325e-01 -1.415804475545883179e-01 -1.081958934664726257e-01 1.766660064458847046e-01
1.709000000000000000e+03 1.772617340087890625e+01 -1.141422843933105469e+01 -4.216803312301635742e-01 4.799152258783578873e-03 -1.250643581151962280e-01 2.053128033876419067e-01
1.710000000000000000e+03 2.873200798034667969e+01 -1.035220718383789062e+01 5.076276779174804688e+00 9.310332298278808594e+00 4.315982341766357422e+00 6.472818851470947266e+00
1.711000000000000000e+03 2.790258407592773438e+01 -1.804129981994628906e+01 1.244469523429870605e+00 7.289153575897216797e+00 2.560086965560913086e+00 1.385133862495422363e+00
1.712000000000000000e+03 2.702311706542968750e+01 -1.634092903137207031e+01 -3.121251165866851807e-01 5.467728614807128906e+00 1.546681046485900879e+00 1.493964433670043945e+00
1.713000000000000000e+03 2.688373184204101562e+01 -1.326965999603271484e+01 -1.616145223379135132e-01 4.096909523010253906e+00 1.180588483810424805e+00 2.483123302459716797e+00
1.714000000000000000e+03 2.545479965209960938e+01 -1.342620658874511719e+01 -7.371326684951782227e-01 1.284482479095458984e+00 1.642049551010131836e-01 9.772177934646606445e-01
1.715000000000000000e+03 2.382826805114746094e+01 -1.398242378234863281e+01 -1.772282242774963379e+00 1.269252002239227295e-01 -4.936071038246154785e-01 9.586489200592041016e-02
1.716000000000000000e+03 2.649760055541992188e+01 -1.347075653076171875e+01 -3.286330103874206543e-01 3.418470621109008789e+00 9.269512891769409180e-01 2.119664430618286133e+00
1.717000000000000000e+03 1.628669357299804688e+01 -7.109546661376953125e+00 -6.068614311516284943e-03 1.146399527788162231e-01 3.257140144705772400e-02 2.577968686819076538e-02
1.718000000000000000e+03 1.685154151916503906e+01 -6.775947570800781250e+00 7.877266034483909607e-03 1.563842743635177612e-01 4.927846416831016541e-02 1.508436910808086395e-02
1.719000000000000000e+03 3.159410667419433594e+01 -1.423908615112304688e+01 -2.629761934280395508e+00 4.754000663757324219e+00 6.372716426849365234e-01 2.654083251953125000e+00
1.720000000000000000e+03 1.648047637939453125e+01 -5.231902122497558594e+00 1.235508173704147339e-02 1.235373467206954956e-01 4.076772928237915039e-02 9.644714184105396271e-03
1.721000000000000000e+03 1.475162029266357422e+01 -2.044100046157836914e+00 -2.638254687190055847e-02 -6.089002359658479691e-03 -9.741464629769325256e-03 -4.743171855807304382e-02
1.722000000000000000e+03 2.981929588317871094e+01 -5.351437091827392578e+00 -7.550001144409179688e-02 6.970247745513916016e+00 2.068424463272094727e+00 4.573281109333038330e-01
1.723000000000000000e+03 1.689837646484375000e+01 -4.209735393524169922e+00 3.242255374789237976e-02 1.217007413506507874e-01 4.623698815703392029e-02 1.995526440441608429e-02
1.724000000000000000e+03 2.905212402343750000e+01 -1.526966953277587891e+01 -1.602798700332641602e+00 7.466041564941406250e+00 1.758972764015197754e+00 2.228876829147338867e+00
1.725000000000000000e+03 2.697183036804199219e+01 -1.202161788940429688e+01 2.893702268600463867e+00 2.783586025238037109e+00 1.703186511993408203e+00 2.831391334533691406e+00
1.726000000000000000e+03 1.782138252258300781e+01 -3.543075799942016602e+00 2.466577664017677307e-02 1.594391316175460815e-01 5.523147433996200562e-02 6.543260067701339722e-02
1.727000000000000000e+03 3.010194206237792969e+01 -1.182545757293701172e+01 1.028809309005737305e+00 7.354263305664062500e+00 2.514921665191650391e+00 2.807406902313232422e+00
1.728000000000000000e+03 2.276887512207031250e+01 -1.369002819061279297e+01 -3.222026348114013672e+00 -2.668424844741821289e-01 -1.046660661697387695e+00 -1.408764272928237915e-01
1.729000000000000000e+03 2.329487419128417969e+01 -1.472426223754882812e+01 -8.103127479553222656e-01 6.327192485332489014e-02 -2.241122424602508545e-01 2.188039869070053101e-01
1.730000000000000000e+03 2.969647216796875000e+01 -4.991195201873779297e+00 -1.161556392908096313e-01 6.372130393981933594e+00 1.876792430877685547e+00 5.075028538703918457e-01
1.731000000000000000e+03 3.089966011047363281e+01 -6.602552890777587891e+00 5.906344056129455566e-01 8.391338348388671875e+00 2.694591999053955078e+00 1.174750804901123047e+00
1.732000000000000000e+03 3.026371002197265625e+01 -6.017383098602294922e+00 3.319951891899108887e-01 7.921250820159912109e+00 2.475973844528198242e+00 7.564969062805175781e-01
1.733000000000000000e+03 3.032079696655273438e+01 -4.672712802886962891e+00 -5.965679287910461426e-01 7.592455387115478516e+00 2.098766326904296875e+00 8.427342176437377930e-01
1.734000000000000000e+03 2.956055450439453125e+01 -4.701683044433593750e+00 -4.071826636791229248e-01 5.360977172851562500e+00 1.486138463020324707e+00 5.032545328140258789e-01
1.735000000000000000e+03 1.748725318908691406e+01 -2.918787240982055664e+00 2.533322758972644806e-02 1.003738492727279663e-01 3.771212324500083923e-02 3.807287663221359253e-02
1.736000000000000000e+03 2.000229644775390625e+01 -1.302627277374267578e+01 -9.974824190139770508e-01 -2.229439020156860352e-01 -3.661278784275054932e-01 3.790945708751678467e-01
1.737000000000000000e+03 2.899782752990722656e+01 -1.003413486480712891e+01 4.968045234680175781e+00 1.145382595062255859e+01 4.926561355590820312e+00 6.726532936096191406e+00
1.738000000000000000e+03 1.579007053375244141e+01 -3.258410930633544922e+00 4.837802145630121231e-03 4.043910279870033264e-02 1.358307152986526489e-02 -1.973610930144786835e-02
1.739000000000000000e+03 1.822446632385253906e+01 -2.805363893508911133e+00 4.729758203029632568e-02 1.339744180440902710e-01 5.438159778714179993e-02 8.639616519212722778e-02
1.740000000000000000e+03 1.674372100830078125e+01 -1.068966627120971680e+00 -4.749267175793647766e-02 1.332100201398134232e-02 -1.025150064378976822e-02 -2.932199090719223022e-02
1.741000000000000000e+03 2.074189949035644531e+01 -1.370574378967285156e+01 -1.409486055374145508e+00 -1.982051134109497070e-01 -4.823073446750640869e-01 1.528688073158264160e-01
1.742000000000000000e+03 1.783387565612792969e+01 -1.411913633346557617e+00 -1.470485329627990723e-02 4.183892533183097839e-02 8.140221238136291504e-03 6.158096715807914734e-03
1.743000000000000000e+03 1.798004150390625000e+01 -2.152212142944335938e+00 2.930208295583724976e-02 7.639333605766296387e-02 3.170862793922424316e-02 4.251173511147499084e-02
1.744000000000000000e+03 1.773222160339355469e+01 -2.531764030456542969e+00 5.076069012284278870e-02 9.125121682882308960e-02 4.260357469320297241e-02 2.681631222367286682e-02
1.745000000000000000e+03 3.028086662292480469e+01 -7.669950962066650391e+00 8.735615015029907227e-01 9.343192100524902344e+00 3.065026044845581055e+00 1.835190176963806152e+00
1.746000000000000000e+03 2.364888381958007812e+01 -1.458163166046142578e+01 -9.520505666732788086e-01 1.927341371774673462e-01 -2.277949303388595581e-01 3.846550881862640381e-01
1.747000000000000000e+03 1.722116088867187500e+01 -1.095195484161376953e+01 -3.802350759506225586e-01 7.800514996051788330e-02 -9.066897630691528320e-02 1.657224148511886597e-01
1.748000000000000000e+03 2.985303115844726562e+01 -9.505576133728027344e+00 4.023011684417724609e+00 1.051477909088134766e+01 4.361337184906005859e+00 3.489775419235229492e+00
1.749000000000000000e+03 2.970005607604980469e+01 -9.971484184265136719e+00 3.816035509109497070e+00 1.030478382110595703e+01 4.236246109008789062e+00 3.666429996490478516e+00
1.750000000000000000e+03 2.340907096862792969e+01 -1.410490417480468750e+01 -1.923779606819152832e+00 -4.035768657922744751e-02 -5.892411470413208008e-01 9.638500213623046875e-02
1.751000000000000000e+03 1.683826065063476562e+01 -1.089351749420166016e+01 -3.768138885498046875e-01 1.267286688089370728e-01 -7.502556592226028442e-02 1.381732076406478882e-01
1.752000000000000000e+03 3.013806724548339844e+01 -8.137671470642089844e+00 1.219554185867309570e+00 1.002046775817871094e+01 3.372006654739379883e+00 2.412297010421752930e+00
1.753000000000000000e+03 2.169881439208984375e+01 -1.408359813690185547e+01 -1.848658084869384766e+00 -3.763993382453918457e-01 -6.675172448158264160e-01 -8.434847742319107056e-02
1.754000000000000000e+03 2.196277236938476562e+01 -1.482799053192138672e+01 -7.184127569198608398e-01 -3.167072236537933350e-01 -3.105359971523284912e-01 -1.830763816833496094e-01
1.755000000000000000e+03 1.593606662750244141e+01 -7.998314380645751953e+00 -5.756774172186851501e-02 9.659361094236373901e-02 1.170776132494211197e-02 6.458500772714614868e-02
1.756000000000000000e+03 1.670025062561035156e+01 -8.976380348205566406e+00 -1.321596950292587280e-01 7.173826545476913452e-02 -1.812642998993396759e-02 1.277171075344085693e-01
1.757000000000000000e+03 1.864905166625976562e+01 -6.480425000190734863e-01 -3.357733413577079773e-02 3.985857963562011719e-02 1.884373719803988934e-03 -1.232984475791454315e-02
1.758000000000000000e+03 1.076212978363037109e+01 4.989824771881103516e+00 -1.304570138454437256e-01 2.437178231775760651e-02 -3.182556852698326111e-02 1.568720340728759766e-01
1.759000000000000000e+03 3.112991333007812500e+01 4.157224595546722412e-01 -9.948139786720275879e-01 9.661043167114257812e+00 2.599868774414062500e+00 -3.019861936569213867e+00
1.760000000000000000e+03 3.291044235229492188e+01 8.829725384712219238e-01 -1.600915551185607910e+00 3.019780635833740234e+00 4.256594777107238770e-01 -4.751238226890563965e-01
1.761000000000000000e+03 1.597334194183349609e+01 -1.167078495025634766e+00 -5.513456091284751892e-02 1.255385577678680420e-02 -1.277421135455369949e-02 -4.596767947077751160e-02
1.762000000000000000e+03 1.725210380554199219e+01 -3.315154314041137695e+00 4.649643599987030029e-02 1.071735993027687073e-01 4.610101133584976196e-02 2.641665190458297729e-02
1.763000000000000000e+03 1.131789112091064453e+01 2.779412508010864258e+00 -3.659124970436096191e-01 2.840616181492805481e-02 -1.012519001960754395e-01 1.202286854386329651e-01
1.764000000000000000e+03 9.058953285217285156e+00 5.826058864593505859e+00 -1.000194847583770752e-01 4.737272858619689941e-02 -1.579402759671211243e-02 1.539506763219833374e-01
1.765000000000000000e+03 1.068939781188964844e+01 4.188106060028076172e+00 -2.256629317998886108e-01 2.716964483261108398e-02 -5.954798683524131775e-02 1.689981371164321899e-01
1.766000000000000000e+03 1.895540618896484375e+01 4.260653495788574219e+00 -7.378664612770080566e-02 -4.613814353942871094e-01 -1.605504304170608521e-01 2.458363920450210571e-01
1.767000000000000000e+03 1.633114814758300781e+01 -4.813322544097900391e+00 1.999162510037422180e-02 1.014899685978889465e-01 3.644447773694992065e-02 8.728029206395149231e-03
1.768000000000000000e+03 1.310208892822265625e+01 -1.824483156204223633e+00 -3.531419858336448669e-02 -1.432152092456817627e-02 -1.489071547985076904e-02 -5.687564611434936523e-02
1.769000000000000000e+03 1.654941368103027344e+01 -5.615533351898193359e+00 1.625495217740535736e-02 1.331484615802764893e-01 4.482102394104003906e-02 1.228983420878648758e-02
1.770000000000000000e+03 1.176788425445556641e+01 3.893907785415649414e+00 -2.716992199420928955e-01 1.647619903087615967e-02 -7.656690478324890137e-02 1.776224523782730103e-01
1.771000000000000000e+03 1.589309597015380859e+01 -6.053631782531738281e+00 2.238785673398524523e-04 9.576838463544845581e-02 2.879767864942550659e-02 8.335984311997890472e-03
1.772000000000000000e+03 1.369434261322021484e+01 3.655581712722778320e+00 -3.737405240535736084e-01 5.534054338932037354e-02 -9.551999717950820923e-02 1.933229714632034302e-01
1.773000000000000000e+03 1.441737651824951172e+01 3.739493608474731445e+00 -3.901906311511993408e-01 4.076530411839485168e-02 -1.048276051878929138e-01 1.706344336271286011e-01
1.774000000000000000e+03 1.523122406005859375e+01 4.007962226867675781e+00 -3.587041199207305908e-01 4.138877615332603455e-03 -1.063695773482322693e-01 1.755486428737640381e-01
1.775000000000000000e+03 1.274212360382080078e+01 5.879999637603759766e+00 8.092431724071502686e-02 -2.372666262090206146e-02 1.715929806232452393e-02 1.776570528745651245e-01
1.776000000000000000e+03 7.689554214477539062e+00 -3.388808488845825195e+00 -4.561667446978390217e-05 -2.642721869051456451e-02 -7.941850461065769196e-03 -2.356801554560661316e-02
1.777000000000000000e+03 3.549696207046508789e+00 -2.880707025527954102e+00 9.170744568109512329e-03 -2.487773541361093521e-03 2.004891401156783104e-03 1.600513607263565063e-02
1.778000000000000000e+03 2.906018257141113281e+00 -7.646245479583740234e+00 -1.151563599705696106e-02 -1.301506720483303070e-02 -7.359210867434740067e-03 9.861914440989494324e-03
1.779000000000000000e+03 9.277740478515625000e+00 -3.202383756637573242e+00 -7.126921322196722031e-03 -2.576486393809318542e-02 -9.867534972727298737e-03 -4.214316979050636292e-02
1.780000000000000000e+03 6.074040412902832031e+00 -3.584070682525634766e+00 4.556425381451845169e-03 -2.275777980685234070e-02 -5.460406653583049774e-03 -2.649734728038311005e-03
1.781000000000000000e+03 5.970424175262451172e+00 -2.746715784072875977e+00 8.493404835462570190e-03 -2.011072263121604919e-02 -3.485195338726043701e-03 -4.242965951561927795e-03
1.782000000000000000e+03 6.886468887329101562e+00 -3.481493711471557617e+00 3.985210321843624115e-03 -3.332551196217536926e-02 -8.802089840173721313e-03 -1.689875870943069458e-02
1.783000000000000000e+03 2.758474349975585938e+00 -2.901393175125122070e+00 3.007735125720500946e-03 1.337726833298802376e-03 1.303638564422726631e-03 1.356146484613418579e-02
1.784000000000000000e+03 1.633270263671875000e+00 -4.928095340728759766e+00 4.410258494317531586e-03 1.834344677627086639e-02 6.826112046837806702e-03 1.673096232116222382e-02
1.785000000000000000e+03 1.154555416107177734e+01 -2.150375366210937500e+00 -2.366138622164726257e-02 -1.859631389379501343e-02 -1.267731003463268280e-02 -5.456984788179397583e-02
1.786000000000000000e+03 1.167383289337158203e+01 -2.761096477508544922e+00 -1.495558302849531174e-02 -2.965272031724452972e-02 -1.338249072432518005e-02 -5.688679218292236328e-02
1.787000000000000000e+03 1.087636375427246094e+01 -2.926342964172363281e+00 -1.435218751430511475e-02 -2.344504930078983307e-02 -1.133917178958654404e-02 -5.384968966245651245e-02
1.788000000000000000e+03 1.402864742279052734e+01 -2.248987197875976562e+00 -2.326956391334533691e-02 -6.811222061514854431e-03 -9.024235419929027557e-03 -5.398590862751007080e-02
1.789000000000000000e+03 2.992181062698364258e+00 2.896885633468627930e+00 -5.304681882262229919e-02 -4.104701057076454163e-02 -2.822814881801605225e-02 8.761394768953323364e-02
1.790000000000000000e+03 5.361395835876464844e+00 3.825100898742675781e+00 -1.080482155084609985e-01 -1.935819350183010101e-02 -3.822192177176475525e-02 1.496759504079818726e-01
1.791000000000000000e+03 3.789212942123413086e+00 3.595608711242675781e+00 -7.090378552675247192e-02 -4.251010343432426453e-02 -3.402416780591011047e-02 1.228850930929183960e-01
1.792000000000000000e+03 3.770006418228149414e+00 2.809467554092407227e+00 -7.512151449918746948e-02 -3.147883340716362000e-02 -3.198010474443435669e-02 9.954750537872314453e-02
1.793000000000000000e+03 4.514765143394470215e-01 3.546482086181640625e+00 -3.404828486964106560e-03 -5.536434426903724670e-02 -1.763075217604637146e-02 1.695114746689796448e-02
1.794000000000000000e+03 6.281131267547607422e+00 3.813811540603637695e+00 -1.368765383958816528e-01 -3.495512530207633972e-03 -4.211161658167839050e-02 1.562674790620803833e-01
1.795000000000000000e+03 8.554976463317871094e+00 3.572497606277465820e+00 -2.044996619224548340e-01 3.367855027318000793e-02 -5.124633386731147766e-02 1.384725570678710938e-01
1.796000000000000000e+03 7.402250289916992188e+00 4.486958980560302734e+00 -1.486803293228149414e-01 1.820403523743152618e-02 -3.914288803935050964e-02 1.720565706491470337e-01
1.797000000000000000e+03 1.831376266479492188e+01 4.146797180175781250e+00 -2.410312443971633911e-01 -3.639415204524993896e-01 -1.814918220043182373e-01 2.232387065887451172e-01
1.798000000000000000e+03 1.707783126831054688e+01 6.001658916473388672e+00 3.231350183486938477e-01 -1.942974925041198730e-01 3.865125775337219238e-02 1.673614047467708588e-02
1.799000000000000000e+03 1.829259681701660156e+01 -1.808063745498657227e+00 5.734159052371978760e-02 7.829866558313369751e-02 4.069207608699798584e-02 2.804428525269031525e-02
1.800000000000000000e+03 1.752440643310546875e+01 -9.141448140144348145e-01 -4.293311014771461487e-02 3.292594105005264282e-02 -3.002150449901819229e-03 -2.941614203155040741e-02
1.801000000000000000e+03 3.052601432800292969e+01 -8.744596481323242188e+00 2.864057779312133789e+00 8.878217697143554688e+00 3.522682666778564453e+00 2.995622158050537109e+00
1.802000000000000000e+03 3.382115936279296875e+01 -1.412747192382812500e+01 -2.224281072616577148e+00 1.845259666442871094e-01 -6.119264960289001465e-01 3.728896081447601318e-01
1.803000000000000000e+03 1.495565128326416016e+01 4.979182243347167969e+00 -6.677206605672836304e-02 2.638858929276466370e-02 -1.211504265666007996e-02 2.070637643337249756e-01
1.804000000000000000e+03 1.007301712036132812e+01 -3.078180551528930664e+00 -8.178879506886005402e-03 -3.316310420632362366e-02 -1.240259502083063126e-02 -5.070612207055091858e-02
1.805000000000000000e+03 4.202267837524414062e+01 1.084342288970947266e+01 1.273779477924108505e-02 9.048323631286621094e+00 2.718318462371826172e+00 1.755263805389404297e+00
1.806000000000000000e+03 4.072475433349609375e+01 8.771069526672363281e+00 4.871107637882232666e-02 9.529237747192382812e+00 2.873384714126586914e+00 1.575208425521850586e+00
1.807000000000000000e+03 3.912581253051757812e+01 -2.854695320129394531e+01 -2.576422691345214844e+00 8.508711814880371094e+00 1.779686570167541504e+00 1.836839795112609863e+00
1.808000000000000000e+03 4.420135116577148438e+01 1.708524513244628906e+01 1.050078392028808594e+00 7.842329978942871094e+00 2.667722463607788086e+00 1.445739746093750000e+00
1.809000000000000000e+03 3.253331375122070312e+01 -2.964954853057861328e+00 2.726296901702880859e+00 8.231245994567871094e+00 3.287262916564941406e+00 -2.707897663116455078e+00
1.810000000000000000e+03 3.327583694458007812e+01 -1.350089788436889648e+00 4.910994052886962891e+00 4.011510372161865234e+00 2.676751136779785156e+00 -7.801286578178405762e-01
1.811000000000000000e+03 3.598519515991210938e+01 -6.148830413818359375e+00 2.505086898803710938e+00 7.277145385742187500e+00 2.934669733047485352e+00 6.094434261322021484e-01
1.812000000000000000e+03 3.437665557861328125e+01 2.135148429870605469e+01 2.619715929031372070e-01 5.714816570281982422e+00 1.793036341667175293e+00 -7.997001409530639648e-01
1.813000000000000000e+03 3.263964843750000000e+01 -1.438319301605224609e+01 -3.032989978790283203e+00 2.029211997985839844e+00 -3.011334240436553955e-01 2.242955923080444336e+00
1.814000000000000000e+03 3.280238723754882812e+01 2.646974563598632812e+01 1.140669465065002441e+00 6.417666912078857422e+00 2.267500877380371094e+00 -4.850840270519256592e-01
1.815000000000000000e+03 1.208392620086669922e+01 -2.595052719116210938e+01 5.161507725715637207e-01 7.315492033958435059e-01 3.743099868297576904e-01 3.311602473258972168e-01
1.816000000000000000e+03 1.186580753326416016e+01 -3.178224945068359375e+01 6.618460416793823242e-01 1.700116157531738281e+00 7.085886597633361816e-01 5.815762877464294434e-01
1.817000000000000000e+03 4.473188400268554688e+01 7.873248100280761719e+00 -7.903140783309936523e-01 6.012403964996337891e+00 1.566626906394958496e+00 -4.756415635347366333e-02
1.818000000000000000e+03 4.764957046508789062e+01 2.778249740600585938e+01 1.716172456741333008e+00 7.656714916229248047e+00 2.811866283416748047e+00 9.305599331855773926e-01
1.819000000000000000e+03 5.212890625000000000e+01 3.060340118408203125e+01 1.606297731399536133e+00 7.169545173645019531e+00 2.632752895355224609e+00 1.220881819725036621e+00
1.820000000000000000e+03 3.290803909301757812e+01 1.951175498962402344e+01 4.203884005546569824e-01 6.627615928649902344e+00 2.114401340484619141e+00 3.495303913950920105e-02
1.821000000000000000e+03 3.928007507324218750e+01 1.892472267150878906e+01 5.752102732658386230e-01 2.083064079284667969e+00 7.974823117256164551e-01 -2.057721376419067383e+00
1.822000000000000000e+03 3.338546752929687500e+01 1.450087165832519531e+01 -1.186931967735290527e+00 2.044080972671508789e+00 2.571447193622589111e-01 1.875380240380764008e-02
1.823000000000000000e+03 3.064219474792480469e+01 1.369608497619628906e+01 -2.217510461807250977e+00 3.790822744369506836e+00 4.719937145709991455e-01 3.218086481094360352e+00
1.824000000000000000e+03 5.241887664794921875e+01 2.852918434143066406e+01 1.254037022590637207e+00 7.615377426147460938e+00 2.660824298858642578e+00 1.324539929628372192e-01
1.825000000000000000e+03 4.102827453613281250e+01 -2.199959754943847656e+01 1.984337806701660156e+00 7.725942611694335938e+00 2.913084030151367188e+00 4.097354114055633545e-01
1.826000000000000000e+03 4.134022140502929688e+01 -2.307905387878417969e+01 2.243810415267944336e+00 6.214246273040771484e+00 2.537416934967041016e+00 1.914854884147644043e+00
1.827000000000000000e+03 3.800651550292968750e+01 -1.219214534759521484e+01 6.496558338403701782e-02 6.777832031250000000e+00 2.052839279174804688e+00 -2.891909837722778320e+00
1.828000000000000000e+03 3.724738693237304688e+01 -1.169111919403076172e+01 7.606758475303649902e-01 6.059504032135009766e+00 2.046053886413574219e+00 -2.316986799240112305e+00
1.829000000000000000e+03 2.895632171630859375e+01 -2.928553581237792969e+01 -1.493240356445312500e+00 4.270927906036376953e+00 8.333062529563903809e-01 -2.325350046157836914e-01
1.830000000000000000e+03 3.946884918212890625e+01 -1.629635047912597656e+01 -6.684884428977966309e-01 5.277305126190185547e+00 1.382645010948181152e+00 -2.126844167709350586e+00
1.831000000000000000e+03 3.316262054443359375e+01 1.850749588012695312e+01 1.012582778930664062e+00 5.006860256195068359e+00 1.805832862854003906e+00 6.058013439178466797e-02
1.832000000000000000e+03 3.597136688232421875e+01 -8.180335998535156250e+00 3.101381301879882812e+00 7.682942390441894531e+00 3.235297203063964844e+00 -1.028489828109741211e+00
1.833000000000000000e+03 6.815765380859375000e+01 4.900533199310302734e+00 2.429264038801193237e-01 1.728986501693725586e+00 5.915738940238952637e-01 2.138006687164306641e+00
1.834000000000000000e+03 6.726840972900390625e+01 6.750753521919250488e-01 5.312569737434387207e-01 3.371166706085205078e+00 1.170727133750915527e+00 2.139540910720825195e+00
1.835000000000000000e+03 4.262176132202148438e+01 -2.706146240234375000e+01 -4.594199657440185547e+00 -1.880577802658081055e-01 -1.434677243232727051e+00 9.537382982671260834e-03
1.836000000000000000e+03 4.468244934082031250e+01 -2.581815910339355469e+01 -6.377960443496704102e-01 2.071693181991577148e+00 4.301691353321075439e-01 -2.260766029357910156e+00
1.837000000000000000e+03 7.165442657470703125e+01 1.617334485054016113e-01 -5.886929854750633240e-02 8.863873481750488281e-01 2.482554167509078979e-01 1.114610582590103149e-01
1.838000000000000000e+03 7.074217987060546875e+01 4.566720962524414062e+00 -6.252079457044601440e-02 3.908340215682983398e+00 1.153745770454406738e+00 1.647010684013366699e+00
1.839000000000000000e+03 3.758979797363281250e+01 -1.337103176116943359e+01 -1.930935025215148926e+00 6.265647411346435547e+00 1.300413727760314941e+00 -2.709336996078491211e+00
1.840000000000000000e+03 6.598325347900390625e+01 3.034457778930664062e+01 1.004110574722290039e+00 5.837556838989257812e+00 2.052500247955322266e+00 1.039312243461608887e+00
1.841000000000000000e+03 2.258817100524902344e+01 1.514802837371826172e+01 -8.385332226753234863e-01 3.782738924026489258e+00 8.832617402076721191e-01 -1.102929592132568359e+00
1.842000000000000000e+03 7.828897953033447266e+00 -6.197488307952880859e+00 -9.432639926671981812e-03 -7.217282056808471680e-02 -2.448163926601409912e-02 -3.560777008533477783e-02
1.843000000000000000e+03 1.060291576385498047e+01 -1.140531063079833984e+01 -1.831282675266265869e-01 -6.264702975749969482e-02 -7.373258471488952637e-02 -1.830123364925384521e-01
1.844000000000000000e+03 4.493490600585937500e+01 -6.504494547843933105e-01 1.364873170852661133e+00 3.323359966278076172e+00 1.406469941139221191e+00 -2.239916086196899414e+00
1.845000000000000000e+03 6.423188018798828125e+01 2.718273735046386719e+01 2.391239881515502930e+00 7.598709583282470703e+00 2.996984958648681641e+00 2.647010087966918945e+00
1.846000000000000000e+03 6.657428741455078125e+01 2.843465232849121094e+01 1.855424046516418457e+00 5.397748470306396484e+00 2.175951719284057617e+00 1.427037596702575684e+00
1.847000000000000000e+03 6.045297241210937500e+01 2.346400022506713867e+00 -1.173678755760192871e+00 4.985441684722900391e+00 1.143528938293457031e+00 -2.081634044647216797e+00
1.848000000000000000e+03 6.266521835327148438e+01 6.956438064575195312e+00 -1.127226710319519043e+00 3.294531822204589844e+00 6.501915454864501953e-01 -1.379789471626281738e+00
1.849000000000000000e+03 5.216413116455078125e+01 2.625776672363281250e+01 1.787817001342773438e+00 6.111868858337402344e+00 2.369905710220336914e+00 -3.749633133411407471e-01
1.850000000000000000e+03 5.110803985595703125e+01 2.398225593566894531e+01 6.145881414413452148e-01 5.008521080017089844e+00 1.686932802200317383e+00 -4.669383168220520020e-01
1.851000000000000000e+03 4.176725006103515625e+01 -2.411091232299804688e+01 2.564227104187011719e+00 4.594683647155761719e+00 2.147673130035400391e+00 1.524715065956115723e+00
1.852000000000000000e+03 1.542799758911132812e+01 -4.073711013793945312e+01 -1.377858757972717285e+00 -1.295948177576065063e-01 -4.522360861301422119e-01 2.543605268001556396e-01
1.853000000000000000e+03 6.272778701782226562e+01 -5.678926944732666016e+00 1.605486869812011719e+00 9.833305358886718750e+00 3.431637763977050781e+00 5.141035914421081543e-01
1.854000000000000000e+03 1.089119243621826172e+01 7.308228015899658203e+00 -1.594023033976554871e-02 4.801468923687934875e-02 9.622338227927684784e-03 1.725014485418796539e-02
1.855000000000000000e+03 5.580812072753906250e+01 7.787847042083740234e+00 2.135143041610717773e+00 8.331539154052734375e+00 3.140004873275756836e+00 8.980827927589416504e-01
1.856000000000000000e+03 6.633592224121093750e+01 -1.345735073089599609e+01 -8.325543999671936035e-01 3.517592430114746094e+00 8.055113554000854492e-01 -2.189154177904129028e-01
1.857000000000000000e+03 5.698390960693359375e+01 1.078444480895996094e+01 1.478691816329956055e+00 9.079413414001464844e+00 3.167431592941284180e+00 1.772713065147399902e+00
1.858000000000000000e+03 4.743585586547851562e+01 -2.787700653076171875e+01 -9.412749409675598145e-01 4.737452507019042969e+00 1.138853192329406738e+00 -3.386282205581665039e+00
1.859000000000000000e+03 4.758013153076171875e+01 -2.700167274475097656e+01 -1.087922811508178711e+00 5.144435405731201172e+00 1.216953754425048828e+00 -3.724768161773681641e+00
1.860000000000000000e+03 6.965933990478515625e+01 6.192773818969726562e+00 -1.123509630560874939e-01 3.469694614410400391e+00 1.007203102111816406e+00 2.259788990020751953e+00
1.861000000000000000e+03 5.033109664916992188e+01 1.970518112182617188e+01 -1.971939802169799805e+00 2.024941682815551758e+00 1.590059883892536163e-02 -1.156746625900268555e+00
1.862000000000000000e+03 6.430891418457031250e+01 3.692168045043945312e+01 -1.092750787734985352e+00 4.292994022369384766e+00 9.600729942321777344e-01 -3.065131902694702148e-01
1.863000000000000000e+03 6.519310760498046875e+01 3.877279663085937500e+01 -7.725595831871032715e-01 4.187658309936523438e+00 1.024529576301574707e+00 -1.331672519445419312e-01
1.864000000000000000e+03 6.285227966308593750e+01 -2.580930519104003906e+01 -9.755606651306152344e-01 4.154174327850341797e+00 9.535840749740600586e-01 -2.723816633224487305e+00
1.865000000000000000e+03 6.334388732910156250e+01 -2.161151695251464844e+01 3.019506692886352539e+00 7.403482437133789062e+00 3.126896858215332031e+00 -2.452947854995727539e+00
1.866000000000000000e+03 1.738767242431640625e+01 -2.545362472534179688e+01 5.120096802711486816e-01 7.816479206085205078e-01 3.880972862243652344e-01 1.455517888069152832e+00
1.867000000000000000e+03 3.068507766723632812e+01 2.815832138061523438e+00 -1.765877246856689453e+00 7.405918598175048828e+00 1.692012310028076172e+00 -3.308278322219848633e+00
1.868000000000000000e+03 2.989788436889648438e+01 3.353366374969482422e+00 -1.457799196243286133e+00 8.014345169067382812e+00 1.966963887214660645e+00 -2.777831554412841797e+00
1.869000000000000000e+03 2.040869140625000000e+01 1.433968734741210938e+01 4.003048241138458252e-01 5.645954132080078125e+00 1.813877701759338379e+00 -9.190250039100646973e-01
1.870000000000000000e+03 2.290035820007324219e+01 1.337091827392578125e+01 -4.016678631305694580e-01 2.929923772811889648e+00 7.584767341613769531e-01 -2.068877696990966797e+00
1.871000000000000000e+03 7.552195739746093750e+01 2.238133192062377930e+00 -4.080115854740142822e-01 6.697907924652099609e+00 1.886968851089477539e+00 -7.648448348045349121e-01
1.872000000000000000e+03 4.788211822509765625e+01 5.433974266052246094e+00 -8.325227499008178711e-01 1.013155937194824219e+00 5.418995767831802368e-02 -5.711398720741271973e-01
1.873000000000000000e+03 2.028495979309082031e+01 8.349252700805664062e+00 2.708592116832733154e-01 5.591678619384765625e-02 9.803280234336853027e-02 -2.008470445871353149e-01
1.874000000000000000e+03 6.062156295776367188e+01 -4.026576578617095947e-01 -3.910041451454162598e-01 6.234985351562500000e+00 1.753194451332092285e+00 -1.788171887397766113e+00
1.875000000000000000e+03 1.896431732177734375e+01 7.720319271087646484e+00 2.339903861284255981e-01 -5.279349684715270996e-01 -8.818338066339492798e-02 -1.809491813182830811e-01
1.876000000000000000e+03 1.810741996765136719e+01 6.464411735534667969e+00 5.412527322769165039e-01 -4.196051955223083496e-01 3.649426624178886414e-02 -5.814792960882186890e-02
1.877000000000000000e+03 7.373059082031250000e+01 -2.583779525756835938e+01 -1.496859312057495117e+00 8.486360549926757812e+00 2.096850395202636719e+00 7.922297716140747070e-01
1.878000000000000000e+03 7.803576660156250000e+01 1.938520812988281250e+01 -2.057925015687942505e-01 7.683596611022949219e+00 2.243341207504272461e+00 5.192373991012573242e-01
1.879000000000000000e+03 7.329781341552734375e+01 1.768750190734863281e+01 -9.990593791007995605e-01 7.888430595397949219e+00 2.066811323165893555e+00 2.817726135253906250e-01
1.880000000000000000e+03 7.323416137695312500e+01 -3.415923690795898438e+01 7.619258165359497070e-01 5.769868373870849609e+00 1.959538221359252930e+00 -5.700464248657226562e-01
1.881000000000000000e+03 7.597303009033203125e+01 -3.590464019775390625e+01 8.209404349327087402e-02 6.826549053192138672e+00 2.072592973709106445e+00 -3.692689239978790283e-01
1.882000000000000000e+03 7.752478790283203125e+01 3.490165328979492188e+01 5.439279135316610336e-03 7.290067672729492188e+00 2.188652038574218750e+00 1.650688648223876953e-01
1.883000000000000000e+03 7.614442443847656250e+01 3.330743026733398438e+01 9.304843842983245850e-02 6.898911476135253906e+00 2.097588062286376953e+00 1.885846853256225586e-01
1.884000000000000000e+03 7.686078643798828125e+01 -2.496255874633789062e+01 1.825900226831436157e-01 7.773252010345458984e+00 2.386752605438232422e+00 -5.465273261070251465e-01
1.885000000000000000e+03 7.824436950683593750e+01 -2.911619567871093750e+01 -1.033850014209747314e-01 7.356396198272705078e+00 2.175903320312500000e+00 -5.315076187252998352e-02
1.886000000000000000e+03 7.573926544189453125e+01 -3.095702171325683594e+01 3.973075747489929199e-02 6.612831115722656250e+00 1.995768666267395020e+00 2.829039692878723145e-01
1.887000000000000000e+03 7.446280670166015625e+01 -2.496568870544433594e+01 3.519434332847595215e-01 8.686238288879394531e+00 2.711454391479492188e+00 -2.592130303382873535e-01
1.888000000000000000e+03 7.814897155761718750e+01 -2.190954017639160156e+01 3.488214910030364990e-01 7.306202888488769531e+00 2.296507358551025391e+00 3.932069838047027588e-01
1.889000000000000000e+03 7.620436096191406250e+01 -2.372044944763183594e+01 9.907427430152893066e-01 8.564362525939941406e+00 2.866531610488891602e+00 -1.359029114246368408e-01
1.890000000000000000e+03 7.766071319580078125e+01 -3.461283111572265625e+01 7.431986927986145020e-02 7.154458999633789062e+00 2.168633699417114258e+00 -1.140449345111846924e-01
1.891000000000000000e+03 7.404869079589843750e+01 -3.735943603515625000e+01 -1.068058013916015625e-01 6.494036197662353516e+00 1.916169166564941406e+00 -6.673701405525207520e-01
1.892000000000000000e+03 7.609711456298828125e+01 -3.452257919311523438e+01 2.079363763332366943e-01 6.701783180236816406e+00 2.072915792465209961e+00 -2.285599112510681152e-01
1.893000000000000000e+03 7.203553771972656250e+01 -3.054064750671386719e+01 1.283564805984497070e+00 4.275706291198730469e+00 1.667781352996826172e+00 5.123502612113952637e-01
1.894000000000000000e+03 7.589473724365234375e+01 -3.194641685485839844e+01 1.997631043195724487e-01 6.613231658935546875e+00 2.043898344039916992e+00 1.459982842206954956e-01
1.895000000000000000e+03 7.526657104492187500e+01 -4.072438430786132812e+01 -2.264919131994247437e-01 7.244332790374755859e+00 2.105352401733398438e+00 -2.704223692417144775e-01
1.896000000000000000e+03 7.797729492187500000e+01 2.228967094421386719e+01 -1.715774089097976685e-01 7.824629306793212891e+00 2.295915603637695312e+00 3.269636258482933044e-02
1.897000000000000000e+03 7.658702087402343750e+01 2.080117797851562500e+01 -5.098956227302551270e-01 7.618006706237792969e+00 2.132433414459228516e+00 2.612299323081970215e-01
1.898000000000000000e+03 7.530044555664062500e+01 2.398621559143066406e+01 -3.165752887725830078e-01 6.848593235015869141e+00 1.959605455398559570e+00 -4.551484286785125732e-01
1.899000000000000000e+03 7.660890197753906250e+01 2.234427261352539062e+01 -4.376016855239868164e-01 7.471197128295898438e+00 2.110078811645507812e+00 -1.206682547926902771e-01
1.900000000000000000e+03 7.697283172607421875e+01 1.511410331726074219e+01 2.669769227504730225e-01 7.322719097137451172e+00 2.276908874511718750e+00 8.997040390968322754e-01
1.901000000000000000e+03 7.825608062744140625e+01 1.386251926422119141e+01 1.562467515468597412e-01 6.402382850646972656e+00 1.967588782310485840e+00 4.743410944938659668e-01
1.902000000000000000e+03 7.476229095458984375e+01 1.326978397369384766e+01 1.221776366233825684e+00 8.861713409423828125e+00 3.025046825408935547e+00 5.564501881599426270e-01
1.903000000000000000e+03 7.681559753417968750e+01 8.819803237915039062e+00 3.481289744377136230e-01 7.287274360656738281e+00 2.290621042251586914e+00 -8.558479547500610352e-01
1.904000000000000000e+03 7.801222991943359375e+01 2.652082061767578125e+01 -8.430245332419872284e-03 7.513749599456787109e+00 2.251595735549926758e+00 -2.365074306726455688e-01
1.905000000000000000e+03 7.793644714355468750e+01 3.059660339355468750e+01 1.020593345165252686e-01 7.271325111389160156e+00 2.212015390396118164e+00 -3.470363095402717590e-02
1.906000000000000000e+03 7.671117401123046875e+01 2.923778533935546875e+01 2.016096264123916626e-01 6.948216438293457031e+00 2.144947767257690430e+00 -1.645163148641586304e-01
1.907000000000000000e+03 7.790282440185546875e+01 -1.527851700782775879e+00 -4.123733639717102051e-01 8.748233795166015625e+00 2.500757932662963867e+00 3.416076600551605225e-01
1.908000000000000000e+03 7.830931854248046875e+01 -6.524558067321777344e+00 3.261425793170928955e-01 8.692999839782714844e+00 2.705742597579956055e+00 1.050944402813911438e-01
1.909000000000000000e+03 7.800636291503906250e+01 -1.208174991607666016e+01 -5.127464532852172852e-01 9.185844421386718750e+00 2.601929187774658203e+00 -3.831839859485626221e-01
1.910000000000000000e+03 7.785168457031250000e+01 -1.645215034484863281e+01 -2.153863012790679932e-01 8.494465827941894531e+00 2.483723640441894531e+00 9.838680028915405273e-01
1.911000000000000000e+03 7.587242889404296875e+01 -1.955536270141601562e+01 5.389977097511291504e-01 8.644562721252441406e+00 2.755068063735961914e+00 9.821083545684814453e-01
1.912000000000000000e+03 7.748983764648437500e+01 3.643888473510742188e+01 -4.271771386265754700e-02 7.385697841644287109e+00 2.202893972396850586e+00 1.822218298912048340e-01
1.913000000000000000e+03 7.444929504394531250e+01 4.192910671234130859e+00 -2.923977375030517578e-01 6.235415458679199219e+00 1.782905340194702148e+00 -6.446833014488220215e-01
1.914000000000000000e+03 7.547029113769531250e+01 2.935725593566894531e+01 2.684143483638763428e-01 6.579581737518310547e+00 2.054398775100708008e+00 -1.246035769581794739e-01
1.915000000000000000e+03 7.811531829833984375e+01 7.257819175720214844e+00 4.209803789854049683e-02 7.102346420288085938e+00 2.143333196640014648e+00 -8.368652462959289551e-01
1.916000000000000000e+03 7.679244995117187500e+01 6.075597286224365234e+00 -7.446202635765075684e-02 7.333169460296630859e+00 2.177612066268920898e+00 -1.035215973854064941e+00
1.917000000000000000e+03 7.561222076416015625e+01 -2.122519683837890625e+01 1.233616352081298828e+00 8.699762344360351562e+00 2.980013608932495117e+00 6.131824851036071777e-01
1.918000000000000000e+03 7.764464569091796875e+01 -1.336086940765380859e+01 -6.239065527915954590e-01 8.951665878295898438e+00 2.498327732086181641e+00 2.284172177314758301e-02
1.919000000000000000e+03 7.607151794433593750e+01 -1.498824596405029297e+01 -8.420817255973815918e-01 7.603002071380615234e+00 2.028276205062866211e+00 8.154445886611938477e-01
1.920000000000000000e+03 7.586412811279296875e+01 3.485593414306640625e+01 5.472238361835479736e-02 6.921422481536865234e+00 2.092843532562255859e+00 2.253388315439224243e-01
1.921000000000000000e+03 7.514538574218750000e+01 3.166003799438476562e+01 2.345266938209533691e-01 6.572811603546142578e+00 2.042201519012451172e+00 1.210154145956039429e-01
1.922000000000000000e+03 7.642941284179687500e+01 3.188805961608886719e+01 1.878487914800643921e-01 6.918117046356201172e+00 2.131789684295654297e+00 8.475220948457717896e-02
1.923000000000000000e+03 7.515977478027343750e+01 2.094402885437011719e+01 -9.626740217208862305e-01 7.385480880737304688e+00 1.926842093467712402e+00 -5.984832346439361572e-02
1.924000000000000000e+03 7.692432403564453125e+01 1.017668628692626953e+01 4.913367033004760742e-01 7.139916419982910156e+00 2.289375782012939453e+00 -6.433173418045043945e-01
1.925000000000000000e+03 7.690074157714843750e+01 7.440196514129638672e+00 1.169708818197250366e-01 7.274847030639648438e+00 2.217545509338378906e+00 -1.040660142898559570e+00
1.926000000000000000e+03 7.478580474853515625e+01 -4.853994250297546387e-01 -1.132798075675964355e+00 6.563477993011474609e+00 1.629204034805297852e+00 -9.006530642509460449e-01
1.927000000000000000e+03 7.348432159423828125e+01 3.826899051666259766e+00 -2.120753526687622070e-01 5.475354194641113281e+00 1.578983664512634277e+00 -9.094605594873428345e-02
1.928000000000000000e+03 7.680923461914062500e+01 3.197623014450073242e+00 -2.435780167579650879e-01 7.434780120849609375e+00 2.157360553741455078e+00 -7.886838316917419434e-01
1.929000000000000000e+03 7.673973083496093750e+01 4.639225959777832031e+00 -1.814585179090499878e-01 7.392813682556152344e+00 2.163406610488891602e+00 -9.656805396080017090e-01
1.930000000000000000e+03 7.596243286132812500e+01 -1.026980400085449219e+01 -3.532825112342834473e-01 9.681128501892089844e+00 2.798353910446166992e+00 -6.088042855262756348e-01
1.931000000000000000e+03 7.521189880371093750e+01 -1.359503936767578125e+01 -1.356571674346923828e+00 7.120527267456054688e+00 1.729186654090881348e+00 7.436821460723876953e-01
1.932000000000000000e+03 7.646143341064453125e+01 -2.068783569335937500e+01 6.766602993011474609e-01 8.442081451416015625e+00 2.735622406005859375e+00 9.200225472450256348e-01
1.933000000000000000e+03 7.646765899658203125e+01 -1.952249169349670410e+00 -6.842273473739624023e-01 8.316814422607421875e+00 2.289776325225830078e+00 1.308747380971908569e-01
1.934000000000000000e+03 4.599199295043945312e+01 -1.545265769958496094e+01 -2.168580532073974609e+00 5.547284126281738281e+00 1.013611078262329102e+00 2.487100124359130859e+00
1.935000000000000000e+03 2.151705741882324219e+01 2.421825981140136719e+01 -9.406583011150360107e-02 5.475522518157958984e+00 1.614436984062194824e+00 6.646221131086349487e-02
1.936000000000000000e+03 2.178896522521972656e+01 2.539807510375976562e+01 -3.394331634044647217e-01 4.912003993988037109e+00 1.371771335601806641e+00 -2.804492413997650146e-01
1.937000000000000000e+03 6.537534332275390625e+01 -2.521641731262207031e+01 -5.730187892913818359e-01 8.396837234497070312e+00 2.347145557403564453e+00 -3.068094968795776367e+00
1.938000000000000000e+03 2.930373573303222656e+01 4.798509597778320312e+00 2.628679513931274414e+00 1.098287105560302734e+01 4.083465099334716797e+00 -3.779707670211791992e+00
1.939000000000000000e+03 2.788475227355957031e+01 6.190499305725097656e+00 3.729652404785156250e+00 7.319589614868164062e+00 3.314772605895996094e+00 -2.244615554809570312e+00
1.940000000000000000e+03 4.389346694946289062e+01 3.409827423095703125e+01 -9.640715718269348145e-01 2.423376083374023438e+00 4.377913177013397217e-01 -9.816769361495971680e-01
1.941000000000000000e+03 2.777636337280273438e+01 1.031606674194335938e+01 7.888104915618896484e-01 4.976664543151855469e+00 1.729642510414123535e+00 -1.003674030303955078e+00
1.942000000000000000e+03 1.568814373016357422e+01 -1.343464946746826172e+01 -1.208719983696937561e-01 4.118330776691436768e-01 8.728832751512527466e-02 -7.912140339612960815e-02
1.943000000000000000e+03 1.736000442504882812e+01 -1.593745994567871094e+01 1.710854172706604004e-01 1.815131306648254395e-01 1.057795658707618713e-01 -3.577619194984436035e-01
1.944000000000000000e+03 6.635974884033203125e+01 -2.829556083679199219e+01 6.806973218917846680e-01 7.610892295837402344e+00 2.487476825714111328e+00 -2.576607704162597656e+00
1.945000000000000000e+03 3.807094573974609375e+01 -1.568111515045166016e+01 -1.975360155105590820e+00 5.595707416534423828e+00 1.086104273796081543e+00 -2.133343935012817383e+00
1.946000000000000000e+03 2.845004272460937500e+01 -2.750801658630371094e+01 -1.770139813423156738e+00 5.107089996337890625e+00 1.001085042953491211e+00 2.291159331798553467e-01
1.947000000000000000e+03 1.683934211730957031e+00 3.207264709472656250e+01 -6.241875886917114258e-02 -1.586964577436447144e-01 -6.633456051349639893e-02 -3.355222642421722412e-01
1.948000000000000000e+03 3.719938755035400391e+00 3.322649002075195312e+01 -2.283530533313751221e-01 8.882589638233184814e-02 -4.185814782977104187e-02 -3.612419664859771729e-01
1.949000000000000000e+03 1.734798669815063477e+00 2.328962326049804688e+01 4.553143680095672607e-02 -1.010931134223937988e+00 -2.896199226379394531e-01 9.263776242733001709e-02
1.950000000000000000e+03 3.963250398635864258e+00 2.429369735717773438e+01 2.897416949272155762e-01 5.056670308113098145e-02 1.020925194025039673e-01 -1.013428047299385071e-01
1.951000000000000000e+03 3.527649879455566406e+00 3.046558570861816406e+01 -9.304151684045791626e-02 1.356343775987625122e-01 1.277785655111074448e-02 -4.975720345973968506e-01
1.952000000000000000e+03 1.997040629386901855e+00 3.086192703247070312e+01 -2.946155332028865814e-02 -2.291819453239440918e-01 -7.759305089712142944e-02 -4.257500767707824707e-01
1.953000000000000000e+03 2.012454032897949219e+00 3.587837600708007812e+01 -6.555017828941345215e-02 1.815097182989120483e-01 3.478786349296569824e-02 -7.688187062740325928e-02
1.954000000000000000e+03 4.932878017425537109e+00 3.381495285034179688e+01 -3.522751629352569580e-01 6.004657223820686340e-02 -8.766857534646987915e-02 -2.903467416763305664e-01
1.955000000000000000e+03 2.896617889404296875e+00 3.950317001342773438e+01 -1.433200296014547348e-02 2.403285354375839233e-01 6.779896467924118042e-02 1.631833799183368683e-02
1.956000000000000000e+03 4.406454086303710938e+00 -3.574776077270507812e+01 3.856594860553741455e-02 1.498357206583023071e-01 5.652050301432609558e-02 4.087886810302734375e-01
1.957000000000000000e+03 1.972807645797729492e+00 -2.866306877136230469e+01 6.546884775161743164e-03 -5.955356955528259277e-01 -1.766966581344604492e-01 3.217400982975959778e-02
1.958000000000000000e+03 6.204825401306152344e+00 -2.739000511169433594e+01 1.897668391466140747e-01 1.159072518348693848e-01 9.170223027467727661e-02 -4.767087846994400024e-02
1.959000000000000000e+03 5.203671932220458984e+00 -3.394698715209960938e+01 1.374419778585433960e-01 1.553630381822586060e-01 8.784150332212448120e-02 4.082966148853302002e-01
1.960000000000000000e+03 3.247637987136840820e+00 -2.979774856567382812e+01 6.163400784134864807e-02 -3.199552595615386963e-01 -7.749637216329574585e-02 9.357531368732452393e-02
1.961000000000000000e+03 1.964856266975402832e+00 -3.004248237609863281e+01 5.637907609343528748e-02 -5.487636327743530273e-01 -1.477153748273849487e-01 8.875496685504913330e-02
1.962000000000000000e+03 7.130270481109619141e+00 2.264359283447265625e+01 4.186737537384033203e-01 6.997075080871582031e-01 3.355143964290618896e-01 -3.480890393257141113e-01
1.963000000000000000e+03 1.844931483268737793e+00 2.053473472595214844e+01 -8.063395507633686066e-03 -9.207473993301391602e-01 -2.786432504653930664e-01 1.349697262048721313e-01
1.964000000000000000e+03 1.817017316818237305e+00 7.923754215240478516e+00 -3.878364572301506996e-03 -2.742556333541870117e-01 -8.344019949436187744e-02 1.261080205440521240e-01
1.965000000000000000e+03 4.776067256927490234e+00 1.154515171051025391e+01 1.157781668007373810e-02 -1.122128441929817200e-01 -3.019050881266593933e-02 2.438577711582183838e-01
1.966000000000000000e+03 1.946970462799072266e+00 -2.022765731811523438e+01 8.720761537551879883e-02 -4.237768054008483887e-01 -1.009707599878311157e-01 -1.702698022127151489e-01
1.967000000000000000e+03 3.709368705749511719e+00 -1.829894828796386719e+01 1.602647081017494202e-02 -6.844559218734502792e-03 2.754573710262775421e-03 -3.668662011623382568e-01
1.968000000000000000e+03 2.819747447967529297e+00 -1.452798080444335938e+01 -8.747623860836029053e-02 -8.538298308849334717e-02 -5.185776576399803162e-02 -1.478030383586883545e-01
1.969000000000000000e+03 6.096282958984375000e+00 -1.391142177581787109e+01 -1.870197951793670654e-01 -1.748005300760269165e-01 -1.085460931062698364e-01 -1.618340611457824707e-01
1.970000000000000000e+03 3.003548145294189453e+00 -2.431291198730468750e+01 8.997979457490146160e-04 -3.399544656276702881e-01 -1.017163991928100586e-01 -3.898428007960319519e-02
1.971000000000000000e+03 4.969512462615966797e+00 -2.261978530883789062e+01 1.059667393565177917e-01 2.503519356250762939e-01 1.068956032395362854e-01 -1.360981613397598267e-01
1.972000000000000000e+03 3.065059185028076172e+00 -1.587467193603515625e+01 -1.113480702042579651e-01 -9.646551311016082764e-02 -6.234407424926757812e-02 -2.289040237665176392e-01
1.973000000000000000e+03 4.235184669494628906e+00 -1.541743659973144531e+01 -1.622853726148605347e-01 -7.694934308528900146e-02 -7.177041471004486084e-02 -1.932439804077148438e-01
1.974000000000000000e+03 2.937393665313720703e+00 -9.132384300231933594e+00 -7.924736477434635162e-03 -1.985088363289833069e-02 -8.332686498761177063e-03 8.177156560122966766e-03
1.975000000000000000e+03 3.069572925567626953e+00 8.016246795654296875e+00 -1.595903187990188599e-02 -1.934955716133117676e-01 -6.283637881278991699e-02 1.884971261024475098e-01
1.976000000000000000e+03 1.829936861991882324e+00 1.481899738311767578e+01 1.294728950597345829e-03 -6.665621399879455566e-01 -1.995802223682403564e-01 1.250545978546142578e-01
1.977000000000000000e+03 3.095623493194580078e+00 1.467111301422119141e+01 1.091045048087835312e-02 -4.161064922809600830e-01 -1.215588152408599854e-01 1.737508326768875122e-01
1.978000000000000000e+03 4.512464523315429688e+00 -4.774734973907470703e+00 2.556122606620192528e-03 -2.774571813642978668e-02 -7.556878495961427689e-03 6.647801958024501801e-03
1.979000000000000000e+03 2.705110549926757812e+00 -3.888496637344360352e+00 7.383916061371564865e-03 2.342847641557455063e-03 2.918029204010963440e-03 1.902499794960021973e-02
1.980000000000000000e+03 2.967734098434448242e+00 9.433026313781738281e+00 -3.589850617572665215e-03 -2.588055729866027832e-01 -7.871862500905990601e-02 1.928525120019912720e-01
1.981000000000000000e+03 3.825364351272583008e+00 -1.199524116516113281e+01 -9.353107959032058716e-02 -7.101024687290191650e-02 -4.936239868402481079e-02 -6.510701030492782593e-02
1.982000000000000000e+03 2.475002050399780273e+00 -3.531956481933593750e+01 4.983823001384735107e-02 -1.250019669532775879e-01 -2.254912070930004120e-02 2.747450768947601318e-01
1.983000000000000000e+03 2.863211154937744141e+00 2.324378967285156250e+01 1.103027462959289551e-01 -4.891462922096252441e-01 -1.136530637741088867e-01 4.835143685340881348e-02
1.984000000000000000e+03 3.577489137649536133e+00 -3.352721405029296875e+01 1.004854738712310791e-01 -9.906909614801406860e-02 4.249133344274014235e-04 3.098766207695007324e-01
1.985000000000000000e+03 6.422835826873779297e+00 -3.325183868408203125e+01 2.063272744417190552e-01 2.693224251270294189e-01 1.426949054002761841e-01 4.213675856590270996e-01
1.986000000000000000e+03 1.873893141746520996e+00 -2.590127944946289062e+01 -5.596764385700225830e-03 -6.221498250961303711e-01 -1.883239746093750000e-01 -8.144499734044075012e-03
1.987000000000000000e+03 5.423260211944580078e+00 -2.614189338684082031e+01 6.791026890277862549e-02 7.976496964693069458e-02 4.430257156491279602e-02 -9.619481861591339111e-02
1.988000000000000000e+03 1.884649395942687988e+00 -1.896680068969726562e+01 1.111975498497486115e-02 -3.575639426708221436e-01 -1.039332598447799683e-01 -2.373494803905487061e-01
1.989000000000000000e+03 2.731706380844116211e+00 1.077352237701416016e+01 -2.028087510552722961e-05 -3.383538424968719482e-01 -1.015122383832931519e-01 1.833322644233703613e-01
1.990000000000000000e+03 5.156187534332275391e+00 1.053015136718750000e+01 4.131960216909646988e-03 -6.697125732898712158e-02 -1.885178871452808380e-02 2.455026805400848389e-01
1.991000000000000000e+03 2.638802766799926758e+00 1.202535533905029297e+01 8.117943070828914642e-03 -4.034535884857177734e-01 -1.186006888747215271e-01 1.746996641159057617e-01
1.992000000000000000e+03 2.761665105819702148e+00 1.329725456237792969e+01 9.427336975932121277e-03 -4.326435625553131104e-01 -1.269648671150207520e-01 1.726529151201248169e-01
1.993000000000000000e+03 3.218779802322387695e+00 1.615352439880371094e+01 2.734796609729528427e-03 -4.265560805797576904e-01 -1.271463781595230103e-01 1.662701964378356934e-01
1.994000000000000000e+03 3.138155698776245117e+00 1.906735610961914062e+01 -4.822197370231151581e-03 -4.582827687263488770e-01 -1.389314830303192139e-01 1.602501422166824341e-01
1.995000000000000000e+03 3.092612981796264648e+00 1.762062644958496094e+01 -8.230739273130893707e-03 -4.694896936416625977e-01 -1.433161348104476929e-01 1.565491259098052979e-01
1.996000000000000000e+03 2.678871345520019531e+01 2.999530220031738281e+01 2.959972918033599854e-01 6.042165160179138184e-01 2.700641453266143799e-01 -4.730473458766937256e-01
1.997000000000000000e+03 7.231103515625000000e+01 1.935735893249511719e+01 -1.948661446571350098e+00 7.059154510498046875e+00 1.533147931098937988e+00 -4.053188562393188477e-01
1.998000000000000000e+03 5.645336151123046875e+01 -2.805958557128906250e+01 -7.324990034103393555e-01 7.518497943878173828e+00 2.035799503326416016e+00 1.961398959159851074e+00
1.999000000000000000e+03 5.723090362548828125e+01 -2.712732887268066406e+01 -2.098378419876098633e+00 6.583938598632812500e+00 1.345667958259582520e+00 1.792381882667541504e+00
2.000000000000000000e+03 5.343734359741210938e+01 -3.826676177978515625e+01 -2.034964561462402344e+00 7.472187519073486328e+00 1.631166934967041016e+00 -1.543555110692977905e-01
2.001000000000000000e+03 5.768351745605468750e+01 -4.125215911865234375e+01 -2.441218137741088867e+00 4.015971183776855469e+00 4.724259674549102783e-01 -6.220844984054565430e-01
2.002000000000000000e+03 5.892641067504882812e+01 3.863941955566406250e+01 -3.576342761516571045e-01 1.191003918647766113e+00 2.500109076499938965e-01 6.336784958839416504e-01
2.003000000000000000e+03 2.194181442260742188e+01 2.638417434692382812e+01 -2.221464216709136963e-01 4.768403530120849609e+00 1.363877177238464355e+00 -3.548936247825622559e-01
2.004000000000000000e+03 4.152154541015625000e+01 8.752349019050598145e-01 1.381645321846008301e+00 5.460212230682373047e+00 2.052557229995727539e+00 -4.726189002394676208e-02
2.005000000000000000e+03 4.352018356323242188e+01 -3.035649061203002930e+00 1.275453865528106689e-01 1.477952480316162109e+00 4.816493690013885498e-01 -1.641130685806274414e+00
2.006000000000000000e+03 2.810041427612304688e+01 1.319933891296386719e+00 -6.573203802108764648e-01 4.431434631347656250e+00 1.132234215736389160e+00 -3.134474039077758789e+00
2.007000000000000000e+03 5.455667114257812500e+01 1.757744026184082031e+01 2.662624046206474304e-02 4.658982276916503906e+00 1.405682563781738281e+00 -1.453563928604125977e+00
2.008000000000000000e+03 5.168389511108398438e+01 -4.131372833251953125e+01 -3.216721296310424805e+00 6.660624027252197266e+00 1.033170819282531738e+00 -4.452220350503921509e-02
2.009000000000000000e+03 5.336421585083007812e+01 -3.675983428955078125e+01 -8.427243232727050781e-01 7.530840396881103516e+00 2.006434917449951172e+00 -1.984865963459014893e-01
2.010000000000000000e+03 2.714829635620117188e+01 8.401923179626464844e+00 2.078184127807617188e+00 5.178417205810546875e+00 2.176980257034301758e+00 -1.625456571578979492e+00
2.011000000000000000e+03 3.684912109375000000e+01 1.321815776824951172e+01 -1.158067107200622559e+00 1.636483907699584961e+00 1.435250639915466309e-01 -1.793279290199279785e+00
2.012000000000000000e+03 3.529364013671875000e+01 1.719655990600585938e+01 7.960458993911743164e-01 2.563991546630859375e+00 1.008011221885681152e+00 -1.729837059974670410e+00
2.013000000000000000e+03 4.895175933837890625e+01 -1.013402366638183594e+01 2.817165374755859375e+00 8.146842956542968750e+00 3.289202451705932617e+00 7.629604339599609375e-01
2.014000000000000000e+03 4.962005996704101562e+01 -1.149758148193359375e+01 1.503006696701049805e+00 6.017537593841552734e+00 2.256163358688354492e+00 -2.716710567474365234e-01
2.015000000000000000e+03 2.416573524475097656e+01 -2.808699989318847656e+01 -1.686059594154357910e+00 3.114311218261718750e+00 4.284754693508148193e-01 2.462102621793746948e-01
2.016000000000000000e+03 2.421547508239746094e+01 -2.344073104858398438e+01 1.278965473175048828e+00 2.630219459533691406e+00 1.172755479812622070e+00 7.823342084884643555e-01
2.017000000000000000e+03 7.485876464843750000e+01 -2.173233604431152344e+01 1.311659693717956543e+00 1.047590637207031250e+01 3.536269903182983398e+00 3.291408419609069824e-01
2.018000000000000000e+03 7.539575195312500000e+01 -2.270368576049804688e+01 1.278211832046508789e+00 9.362826347351074219e+00 3.192311525344848633e+00 3.007177710533142090e-01
2.019000000000000000e+03 4.198012924194335938e+01 1.577569866180419922e+01 1.453088402748107910e+00 5.867636680603027344e+00 2.196217536926269531e+00 -3.192304074764251709e-01
2.020000000000000000e+03 5.482866668701171875e+01 2.257077980041503906e+01 -1.395210027694702148e+00 4.315368175506591797e+00 8.760473728179931641e-01 -2.560454607009887695e+00
2.021000000000000000e+03 5.363098144531250000e+01 2.458590888977050781e+01 -1.157935708761215210e-01 5.787506580352783203e+00 1.701514005661010742e+00 -1.189398527145385742e+00
2.022000000000000000e+03 4.573294830322265625e+01 -2.792217731475830078e+00 7.274866104125976562e-01 3.427463769912719727e+00 1.246485114097595215e+00 -2.168027877807617188e+00
2.023000000000000000e+03 4.344594955444335938e+00 1.246642017364501953e+01 2.510130405426025391e-02 -1.952257156372070312e-01 -5.103732272982597351e-02 2.292511761188507080e-01
2.024000000000000000e+03 8.532993316650390625e+00 1.212749290466308594e+01 7.190664857625961304e-02 4.575088322162628174e-01 1.588246524333953857e-01 1.671009212732315063e-01
2.025000000000000000e+03 5.715145874023437500e+01 1.255850124359130859e+01 1.363033294677734375e+00 8.590639114379882812e+00 2.986101627349853516e+00 1.282961845397949219e+00
2.026000000000000000e+03 4.806129837036132812e+01 -4.795940518379211426e-01 1.033312678337097168e+00 4.213068962097167969e+00 1.573914408683776855e+00 -1.662699818611145020e+00
2.027000000000000000e+03 4.710234069824218750e+01 -4.784885406494140625e+00 1.070598244667053223e+00 5.596683502197265625e+00 2.000184535980224609e+00 -1.999197483062744141e+00
2.028000000000000000e+03 5.211068725585937500e+01 2.014631080627441406e+01 -1.435509204864501953e+00 3.785049438476562500e+00 7.048620581626892090e-01 -2.079315662384033203e+00
2.029000000000000000e+03 4.706698894500732422e+00 2.956033325195312500e+01 -2.451620809733867645e-02 4.611831903457641602e-01 1.310001015663146973e-01 -4.386207759380340576e-01
2.030000000000000000e+03 4.633455753326416016e+00 3.076099586486816406e+01 -1.626369506120681763e-01 2.899853885173797607e-01 3.820453211665153503e-02 -4.780557751655578613e-01
2.031000000000000000e+03 6.326552200317382812e+01 -1.411360073089599609e+01 -1.483989119529724121e+00 6.378131389617919922e+00 1.468242764472961426e+00 8.093761205673217773e-01
2.032000000000000000e+03 6.526844787597656250e+01 -1.358246994018554688e+01 -1.112274050712585449e+00 4.984375953674316406e+00 1.161630511283874512e+00 2.219864726066589355e-01
2.033000000000000000e+03 4.587714767456054688e+01 3.441697692871093750e+01 -1.056462407112121582e+00 4.166788101196289062e+00 9.330976605415344238e-01 -8.564942479133605957e-01
2.034000000000000000e+03 4.763562679290771484e+00 2.374173927307128906e+01 3.171348273754119873e-01 2.723315060138702393e-01 1.768399029970169067e-01 -1.049467548727989197e-01
2.035000000000000000e+03 4.730450820922851562e+01 -3.151714324951171875e+00 9.706298708915710449e-01 4.980675697326660156e+00 1.785391688346862793e+00 -1.959614634513854980e+00
2.036000000000000000e+03 4.512033462524414062e+01 -3.368503332138061523e+00 6.113247871398925781e-01 2.732533931732177734e+00 1.003157615661621094e+00 -1.968557953834533691e+00
2.037000000000000000e+03 4.902127075195312500e+01 2.921501159667968750e+01 1.519124984741210938e+00 6.868169784545898438e+00 2.516188383102416992e+00 1.009707570075988770e+00
2.038000000000000000e+03 1.552013492584228516e+01 2.182500457763671875e+01 8.218055367469787598e-01 -3.754640221595764160e-01 1.339024603366851807e-01 -2.293078154325485229e-01
2.039000000000000000e+03 1.525513648986816406e+01 2.061394882202148438e+01 9.812319278717041016e-01 -1.749100387096405029e-01 2.418965697288513184e-01 6.460950523614883423e-02
2.040000000000000000e+03 7.299948120117187500e+01 1.532094764709472656e+01 9.444598555564880371e-01 9.572682380676269531e+00 3.155142545700073242e+00 -1.533417962491512299e-02
2.041000000000000000e+03 7.572103881835937500e+01 1.767750740051269531e+01 -3.757326304912567139e-01 7.852535724639892578e+00 2.243040800094604492e+00 9.174575805664062500e-01
2.042000000000000000e+03 1.020840644836425781e+01 -2.449934196472167969e+01 2.702991962432861328e-01 1.852844953536987305e-01 1.366751044988632202e-01 -4.078426957130432129e-02
2.043000000000000000e+03 2.961848068237304688e+01 -1.649332046508789062e+01 -5.681501626968383789e-01 7.434482574462890625e+00 2.059899806976318359e+00 2.241286754608154297e+00
2.044000000000000000e+03 1.114532566070556641e+01 -3.740238189697265625e+01 -3.787159621715545654e-01 9.016954898834228516e-01 1.568938642740249634e-01 6.269724965095520020e-01
2.045000000000000000e+03 1.088092231750488281e+01 -3.438932800292968750e+01 2.984116077423095703e-01 1.206092238426208496e+00 4.513511657714843750e-01 5.332707762718200684e-01
2.046000000000000000e+03 2.688152694702148438e+01 -1.819810867309570312e+01 1.261888742446899414e+00 5.562552452087402344e+00 2.047332286834716797e+00 1.022134661674499512e+00
2.047000000000000000e+03 3.217131805419921875e+01 2.573138046264648438e+01 8.193718791007995605e-01 6.250546932220458984e+00 2.120975732803344727e+00 -4.727352559566497803e-01
2.048000000000000000e+03 8.996242523193359375e+00 8.328055381774902344e+00 -7.291079312562942505e-02 1.371629834175109863e-01 1.927565596997737885e-02 1.208841279149055481e-01
2.049000000000000000e+03 4.662941741943359375e+01 3.356702423095703125e+01 -5.040009617805480957e-01 4.941046714782714844e+00 1.331113696098327637e+00 -6.036279201507568359e-01
2.050000000000000000e+03 5.983481216430664062e+01 -1.887883377075195312e+01 1.997158765792846680e+00 5.757143020629882812e+00 2.326290607452392578e+00 -4.539240896701812744e-01
2.051000000000000000e+03 6.208998870849609375e+01 -2.021639060974121094e+01 2.396026134490966797e+00 5.822469234466552734e+00 2.465548753738403320e+00 -1.596990227699279785e+00
2.052000000000000000e+03 9.269089698791503906e+00 2.094353103637695312e+01 3.984896838665008545e-01 4.857533574104309082e-01 2.652729153633117676e-01 -2.884294092655181885e-01
2.053000000000000000e+03 3.837131881713867188e+01 -2.596947908401489258e+00 8.696879148483276367e-01 4.809462547302246094e+00 1.703745126724243164e+00 3.261694431304931641e+00
2.054000000000000000e+03 1.465638732910156250e+01 -2.323024940490722656e+01 2.301697880029678345e-01 7.470968365669250488e-01 2.931799888610839844e-01 6.901296377182006836e-01
2.055000000000000000e+03 7.266532135009765625e+01 -1.621598243713378906e+01 -3.209531009197235107e-01 4.069958209991455078e+00 1.124701499938964844e+00 -5.554870367050170898e-01
2.056000000000000000e+03 4.137218475341796875e+01 -1.585534286499023438e+01 -7.466706037521362305e-01 2.723230600357055664e+00 5.929679870605468750e-01 -1.739211559295654297e+00
2.057000000000000000e+03 6.773267364501953125e+01 -3.737223052978515625e+01 -1.037545442581176758e+00 5.486391544342041016e+00 1.334653854370117188e+00 -9.428007602691650391e-01
2.058000000000000000e+03 4.970747375488281250e+01 2.544765281677246094e+01 1.873880505561828613e+00 5.531365871429443359e+00 2.221574068069458008e+00 6.587901711463928223e-01
2.059000000000000000e+03 5.210306930541992188e+01 2.770503807067871094e+01 1.567707538604736328e+00 6.991252422332763672e+00 2.567687988281250000e+00 4.477423056960105896e-02
2.060000000000000000e+03 1.068931102752685547e+01 -3.109206581115722656e+01 6.405969262123107910e-01 1.089832544326782227e+00 5.191288590431213379e-01 4.783142209053039551e-01
2.061000000000000000e+03 4.340587234497070312e+01 1.273651218414306641e+01 1.313415169715881348e+00 9.643534660339355469e+00 3.287085056304931641e+00 1.168159365653991699e+00
2.062000000000000000e+03 2.677352142333984375e+01 -2.586646652221679688e+01 -9.197719693183898926e-01 5.504232883453369141e+00 1.375338196754455566e+00 7.775871753692626953e-01
2.063000000000000000e+03 5.580695724487304688e+01 8.951838493347167969e+00 2.394657135009765625e+00 9.364698410034179688e+00 3.527806758880615234e+00 2.048679113388061523e+00
2.064000000000000000e+03 5.966772460937500000e+01 9.372026443481445312e+00 5.709840655326843262e-01 6.997252941131591797e+00 2.270471096038818359e+00 -1.788409948348999023e-01
2.065000000000000000e+03 2.218181800842285156e+01 -1.429138755798339844e+01 -1.541396021842956543e+00 -4.940265417098999023e-01 -6.106267571449279785e-01 -1.317181140184402466e-01
2.066000000000000000e+03 1.834723091125488281e+01 -1.756450653076171875e+01 5.931791067123413086e-01 5.898202955722808838e-02 1.956483423709869385e-01 -2.326266765594482422e-01
2.067000000000000000e+03 5.134037780761718750e+01 -3.283960723876953125e+01 3.013586044311523438e+00 7.517542362213134766e+00 3.159338474273681641e+00 -5.393187999725341797e-01
2.068000000000000000e+03 4.325096893310546875e+01 -1.482936668395996094e+01 -1.398897409439086914e+00 1.159078121185302734e+00 -7.194578647613525391e-02 1.707031130790710449e-01
2.069000000000000000e+03 2.629868888854980469e+01 -2.088893508911132812e+01 2.251461982727050781e+00 4.837810039520263672e+00 2.126781463623046875e+00 8.899360895156860352e-01
2.070000000000000000e+03 2.703740119934082031e+01 -1.903466415405273438e+01 1.615041732788085938e+00 5.895714282989501953e+00 2.253226757049560547e+00 1.020271420478820801e+00
2.071000000000000000e+03 5.543603897094726562e+01 1.455876827239990234e+01 1.032049417495727539e+00 6.766422748565673828e+00 2.339541673660278320e+00 -1.635758727788925171e-01
2.072000000000000000e+03 6.100464248657226562e+01 1.881087684631347656e+01 1.559234023094177246e+00 8.032810211181640625e+00 2.877613306045532227e+00 2.578872919082641602e+00
2.073000000000000000e+03 4.716678237915039062e+01 -2.606389427185058594e+01 -1.394809961318969727e+00 5.334962368011474609e+00 1.182045817375183105e+00 -3.233681440353393555e+00
2.074000000000000000e+03 4.768226242065429688e+01 -1.295274639129638672e+01 -1.069141864776611328e+00 7.138884067535400391e+00 1.820922613143920898e+00 1.703463792800903320e+00
2.075000000000000000e+03 7.590026855468750000e+01 -4.096525669097900391e+00 1.718681305646896362e-01 9.336822509765625000e+00 2.852607250213623047e+00 1.274372786283493042e-01
2.076000000000000000e+03 7.591846466064453125e+01 -6.345461010932922363e-01 -1.068161010742187500e+00 7.685590267181396484e+00 1.985228776931762695e+00 -4.252118170261383057e-01
2.077000000000000000e+03 3.740697479248046875e+01 -3.133043861389160156e+01 2.013016462326049805e+00 3.867740154266357422e+00 1.764227032661437988e+00 1.719848990440368652e+00
2.078000000000000000e+03 7.218962097167968750e+01 1.727170944213867188e+01 -8.408238887786865234e-01 8.168354988098144531e+00 2.198259353637695312e+00 -2.837040722370147705e-01
2.079000000000000000e+03 7.144658660888671875e+01 2.022693824768066406e+01 -1.854714035987854004e+00 5.888779163360595703e+00 1.210219621658325195e+00 -1.317685961723327637e+00
2.080000000000000000e+03 2.589104461669921875e+01 1.394108200073242188e+01 -1.698453307151794434e+00 1.336389183998107910e+00 -1.086192578077316284e-01 -1.863084554672241211e+00
2.081000000000000000e+03 2.402228736877441406e+01 1.538798046112060547e+01 -1.597922563552856445e+00 3.029976606369018555e+00 4.296162426471710205e-01 -1.394018530845642090e+00
2.082000000000000000e+03 3.869446945190429688e+01 1.361747837066650391e+01 -3.531983196735382080e-01 4.031004428863525391e+00 1.103341817855834961e+00 -1.507639050483703613e+00
2.083000000000000000e+03 6.812925720214843750e+01 -1.265136432647705078e+01 -3.547163009643554688e-01 1.799761056900024414e+00 4.335134029388427734e-01 -9.329506158828735352e-01
2.084000000000000000e+03 6.612368774414062500e+01 -1.225433540344238281e+01 -3.793785572052001953e-01 4.168262004852294922e+00 1.136664986610412598e+00 -5.700729489326477051e-01
2.085000000000000000e+03 3.525141525268554688e+01 -6.719951152801513672e+00 2.460268020629882812e+00 7.368580341339111328e+00 2.948654413223266602e+00 9.736788272857666016e-02
2.086000000000000000e+03 5.457352447509765625e+01 -3.283628845214843750e+01 2.710956096649169922e+00 8.293916702270507812e+00 3.301461935043334961e+00 -1.479549258947372437e-01
2.087000000000000000e+03 1.859272956848144531e+01 3.510024261474609375e+01 -5.591993331909179688e-01 2.168894052505493164e+00 4.829083979129791260e-01 -5.791397690773010254e-01
2.088000000000000000e+03 1.597985267639160156e+01 5.513459205627441406e+00 9.438234567642211914e-02 3.060575760900974274e-02 3.749643266201019287e-02 1.330172121524810791e-01
2.089000000000000000e+03 1.908878135681152344e+01 1.891393852233886719e+01 8.194194436073303223e-01 2.038842201232910156e+00 8.574784994125366211e-01 -2.184841930866241455e-01
2.090000000000000000e+03 5.937667083740234375e+01 -2.245343780517578125e+01 2.586153507232666016e+00 4.119452953338623047e+00 2.011682033538818359e+00 1.037060320377349854e-01
2.091000000000000000e+03 2.611377906799316406e+01 -2.953470230102539062e+01 -1.327644109725952148e+00 4.494379520416259766e+00 9.500206112861633301e-01 5.062350034713745117e-01
2.092000000000000000e+03 2.575964927673339844e+01 -2.795952033996582031e+01 -1.666778206825256348e+00 4.452664375305175781e+00 8.357658386230468750e-01 4.465433657169342041e-01
2.093000000000000000e+03 6.373952484130859375e+01 -3.472678661346435547e+00 1.820416927337646484e+00 8.172555923461914062e+00 2.997891902923583984e+00 3.462155759334564209e-01
2.094000000000000000e+03 6.248223876953125000e+01 -4.252042770385742188e+00 1.716470718383789062e+00 9.545750617980957031e+00 3.378666400909423828e+00 -7.798554301261901855e-01
2.095000000000000000e+03 2.759354972839355469e+01 1.433617115020751953e+01 -2.457451581954956055e+00 2.784445285797119141e-01 -6.537021398544311523e-01 -4.204154014587402344e-01
2.096000000000000000e+03 3.550725555419921875e+01 2.383136367797851562e+01 3.247525691986083984e-01 6.257586479187011719e+00 1.974701762199401855e+00 -1.424770832061767578e+00
2.097000000000000000e+03 4.308732986450195312e+00 3.196392822265625000e+01 -2.200554758310317993e-01 1.949328929185867310e-01 -7.536773569881916046e-03 -4.047322273254394531e-01
2.098000000000000000e+03 1.923244094848632812e+01 2.135390663146972656e+01 1.093682527542114258e+00 2.562023878097534180e+00 1.096711874008178711e+00 1.028965190052986145e-01
2.099000000000000000e+03 6.616466045379638672e+00 2.111579132080078125e+01 2.268791347742080688e-01 4.996805489063262939e-01 2.179678976535797119e-01 -1.532048881053924561e-01
2.100000000000000000e+03 5.953839111328125000e+01 -2.404067039489746094e+01 1.319794058799743652e+00 3.164200067520141602e+00 1.345198273658752441e+00 6.371104121208190918e-01
2.101000000000000000e+03 5.785258865356445312e+01 -2.144514083862304688e+01 2.571909904479980469e+00 6.101722240447998047e+00 2.602089643478393555e+00 3.933507204055786133e-01
2.102000000000000000e+03 6.538814544677734375e+01 2.514511585235595703e+00 1.663860678672790527e-02 3.415470123291015625e+00 1.029632568359375000e+00 8.664047718048095703e-01
2.103000000000000000e+03 2.047317504882812500e+01 2.277370071411132812e+01 5.943666100502014160e-01 4.085687637329101562e+00 1.404016256332397461e+00 -1.292347311973571777e-01
2.104000000000000000e+03 1.908967971801757812e+01 2.344944381713867188e+01 1.095401048660278320e-01 2.237761974334716797e+00 7.041906118392944336e-01 7.719372957944869995e-02
2.105000000000000000e+03 4.465724182128906250e+01 -2.286161613464355469e+01 3.000645637512207031e+00 4.533544540405273438e+00 2.260257244110107422e+00 -2.768660485744476318e-01
2.106000000000000000e+03 5.119985961914062500e+01 -3.423625230789184570e+00 1.621994018554687500e+00 7.830096244812011719e+00 2.835627079010009766e+00 1.429200917482376099e-01
2.107000000000000000e+03 5.174998474121093750e+01 -2.532685756683349609e+00 1.381540060043334961e+00 8.044896125793457031e+00 2.827930927276611328e+00 7.164935469627380371e-01
2.108000000000000000e+03 6.878333282470703125e+01 5.751746177673339844e+00 6.313990801572799683e-02 1.966228842735290527e+00 6.088106632232666016e-01 2.461235523223876953e+00
2.109000000000000000e+03 5.395874023437500000e+01 -2.836994743347167969e+01 1.314923614263534546e-01 6.096692562103271484e+00 1.868455529212951660e+00 1.597848653793334961e+00
2.110000000000000000e+03 3.464715576171875000e+01 -3.069176864624023438e+01 1.691006720066070557e-01 2.280241698026657104e-01 1.191374510526657104e-01 -8.864596486091613770e-02
2.111000000000000000e+03 3.189094161987304688e+01 -2.939803886413574219e+01 -1.714984893798828125e+00 1.953113675117492676e+00 7.143861800432205200e-02 -1.230234146118164062e+00
2.112000000000000000e+03 3.685048294067382812e+01 4.068587112426757812e+01 -7.750921249389648438e-01 2.265897035598754883e+00 4.472415149211883545e-01 1.692811548709869385e-01
2.113000000000000000e+03 4.866306304931640625e+01 -2.850270271301269531e+01 7.657465338706970215e-01 5.711317062377929688e+00 1.943119049072265625e+00 -3.130410194396972656e+00
2.114000000000000000e+03 5.268844604492187500e+01 4.592636227607727051e-01 -3.709389269351959229e-01 6.009529113769531250e+00 1.691577076911926270e+00 1.749097466468811035e+00
2.115000000000000000e+03 5.063204574584960938e+01 -9.191680550575256348e-01 7.076677083969116211e-01 5.841953277587890625e+00 1.964886307716369629e+00 -9.439100325107574463e-02
2.116000000000000000e+03 6.552593994140625000e+01 4.869102478027343750e+00 7.754379510879516602e-02 1.283989906311035156e+00 4.084601104259490967e-01 3.305673301219940186e-01
2.117000000000000000e+03 6.801169586181640625e+01 1.898399233818054199e+00 3.300884664058685303e-01 2.336854219436645508e+00 8.000828027725219727e-01 2.293889045715332031e+00
2.118000000000000000e+03 8.944416046142578125e+00 -2.460622787475585938e+01 2.284659594297409058e-01 1.920633912086486816e-01 1.261588037014007568e-01 -2.597524523735046387e-01
2.119000000000000000e+03 1.184997367858886719e+01 -2.730010986328125000e+01 6.395734548568725586e-01 8.559712767601013184e-01 4.486634135246276855e-01 3.077108263969421387e-01
2.120000000000000000e+03 5.856026840209960938e+01 2.210932540893554688e+01 -1.436732292175292969e+00 9.614081978797912598e-01 -1.425972282886505127e-01 1.768046617507934570e-01
2.121000000000000000e+03 2.389101409912109375e+01 3.182158279418945312e+01 3.844573795795440674e-01 2.086802005767822266e+00 7.413778305053710938e-01 3.592657744884490967e-01
2.122000000000000000e+03 2.191038894653320312e+01 3.000358772277832031e+01 3.861917555332183838e-01 3.237717866897583008e+00 1.087172865867614746e+00 3.426436185836791992e-01
2.123000000000000000e+03 4.199952697753906250e+01 1.733971023559570312e+01 9.985422492027282715e-01 4.837331295013427734e+00 1.750762104988098145e+00 -3.585464656352996826e-01
2.124000000000000000e+03 3.736989974975585938e+01 -1.474373435974121094e+01 -2.688336372375488281e+00 5.673622608184814453e+00 8.955858349800109863e-01 -2.941305875778198242e+00
2.125000000000000000e+03 4.221883392333984375e+01 -1.527515125274658203e+01 -1.252186775207519531e+00 1.575891971588134766e+00 9.711157530546188354e-02 -1.135428786277770996e+00
2.126000000000000000e+03 2.126327133178710938e+01 1.861885643005371094e+01 3.967059850692749023e-01 5.056962490081787109e+00 1.636100649833679199e+00 -1.688406765460968018e-01
2.127000000000000000e+03 3.316876220703125000e+01 2.488697624206542969e+01 9.106321930885314941e-01 6.800090789794921875e+00 2.313216924667358398e+00 -1.646420061588287354e-01
2.128000000000000000e+03 4.334153747558593750e+01 1.153181457519531250e+01 5.335457324981689453e-01 9.609702110290527344e+00 3.042974472045898438e+00 1.678195714950561523e+00
2.129000000000000000e+03 5.062380599975585938e+01 3.294812011718750000e+01 5.698037743568420410e-01 6.357944011688232422e+00 2.078324317932128906e+00 3.734884262084960938e-01
2.130000000000000000e+03 2.716420745849609375e+01 -1.371961307525634766e+01 -6.214028596878051758e-01 4.963442802429199219e+00 1.302612066268920898e+00 2.521226167678833008e+00
2.131000000000000000e+03 5.907870101928710938e+01 -1.649904251098632812e+01 4.911285638809204102e-01 5.954764842987060547e+00 1.933768033981323242e+00 -3.444574773311614990e-02
2.132000000000000000e+03 5.804010772705078125e+01 -1.902879142761230469e+01 2.045395135879516602e+00 6.575495243072509766e+00 2.586266994476318359e+00 -1.293184608221054077e-01
2.133000000000000000e+03 2.828813743591308594e+01 1.426006889343261719e+01 -2.741839885711669922e+00 8.111491799354553223e-01 -5.792071819305419922e-01 5.602149367332458496e-01
2.134000000000000000e+03 2.673428153991699219e+01 1.347404289245605469e+01 -1.766296625137329102e+00 1.104457378387451172e+00 -1.985517591238021851e-01 -1.176614165306091309e+00
2.135000000000000000e+03 6.347684478759765625e+01 2.392325973510742188e+01 3.008952736854553223e-02 6.766128063201904297e+00 2.038865327835083008e+00 2.760953903198242188e+00
2.136000000000000000e+03 6.360196304321289062e+01 2.130924606323242188e+01 -2.662384748458862305e+00 5.380465984344482422e+00 8.154243230819702148e-01 3.970000267028808594e+00
2.137000000000000000e+03 6.400316619873046875e+01 -2.377957344055175781e+01 1.924236893653869629e+00 7.583355903625488281e+00 2.852277755737304688e+00 -2.250355958938598633e+00
2.138000000000000000e+03 6.407038879394531250e+01 -2.630554580688476562e+01 -1.747450590133666992e+00 7.474879264831542969e+00 1.718228578567504883e+00 -2.936233758926391602e+00
2.139000000000000000e+03 5.427658081054687500e+01 2.110001945495605469e+01 -1.290347576141357422e+00 4.350533962249755859e+00 9.180559515953063965e-01 -2.655555963516235352e+00
2.140000000000000000e+03 6.116314697265625000e+01 7.976009368896484375e+00 -2.917555868625640869e-01 4.669020175933837891e+00 1.313179373741149902e+00 -1.060935258865356445e+00
2.141000000000000000e+03 1.665830993652343750e+01 -1.532955646514892578e+01 1.169334203004837036e-01 2.820248901844024658e-01 1.196874901652336121e-01 -2.634492516517639160e-01
2.142000000000000000e+03 5.223288726806640625e+01 2.223583984375000000e+01 -7.437714338302612305e-01 4.400284290313720703e+00 1.096953868865966797e+00 -1.756935954093933105e+00
2.143000000000000000e+03 3.414419174194335938e+01 3.630550003051757812e+01 -1.332459926605224609e+00 3.491925477981567383e+00 6.478396058082580566e-01 -2.031436376273632050e-02
2.144000000000000000e+03 1.264564704895019531e+01 -2.677539253234863281e+01 6.401847004890441895e-01 9.812963604927062988e-01 4.864443242549896240e-01 4.369887709617614746e-01
2.145000000000000000e+03 1.520761775970458984e+01 -2.646981430053710938e+01 8.301054835319519043e-01 1.335483312606811523e+00 6.496766209602355957e-01 7.914429903030395508e-01
2.146000000000000000e+03 5.866580200195312500e+01 -2.321861457824707031e+01 1.679861903190612793e+00 4.962843418121337891e+00 1.992811679840087891e+00 7.675640583038330078e-01
2.147000000000000000e+03 9.959067344665527344e+00 -3.689244079589843750e+01 -2.198197245597839355e-01 9.990316629409790039e-01 2.337635755538940430e-01 5.021869540214538574e-01
2.148000000000000000e+03 3.987891769409179688e+01 1.137421131134033203e+01 -5.675250887870788574e-01 6.410893917083740234e+00 1.753010749816894531e+00 3.078599572181701660e-01
2.149000000000000000e+03 1.602216720581054688e+01 3.778964996337890625e+01 -3.400236368179321289e-01 9.672186374664306641e-01 1.881584972143173218e-01 -2.947784066200256348e-01
2.150000000000000000e+03 7.140011596679687500e+01 -1.607770919799804688e+01 -1.217539235949516296e-01 1.638523578643798828e+00 4.550308883190155029e-01 -1.263154625892639160e+00
2.151000000000000000e+03 1.018292617797851562e+01 1.745329284667968750e+01 2.611361742019653320e-01 4.825488924980163574e-01 2.231055200099945068e-01 1.482472717761993408e-01
2.152000000000000000e+03 5.694388389587402344e+00 1.898438453674316406e+01 2.573714219033718109e-02 1.435304135084152222e-01 5.078026652336120605e-02 8.005596697330474854e-02
2.153000000000000000e+03 3.396689605712890625e+01 1.983010864257812500e+01 6.155683398246765137e-01 5.185405254364013672e+00 1.740292072296142578e+00 -5.513315796852111816e-01
2.154000000000000000e+03 3.787038803100585938e+01 2.036421012878417969e+01 -4.341963231563568115e-01 2.576259374618530273e+00 6.426189541816711426e-01 -2.171656131744384766e+00
2.155000000000000000e+03 4.637572097778320312e+01 -2.278005218505859375e+01 2.696218490600585938e+00 6.463342666625976562e+00 2.747868299484252930e+00 -1.542904853820800781e+00
2.156000000000000000e+03 4.028954696655273438e+01 -2.658054924011230469e+01 -1.139692664146423340e+00 7.350944519042968750e+00 1.863375663757324219e+00 8.015024065971374512e-01
2.157000000000000000e+03 4.193170928955078125e+01 1.412045764923095703e+01 1.470847606658935547e+00 6.923985004425048828e+00 2.518449783325195312e+00 2.460445016622543335e-01
2.158000000000000000e+03 4.756151199340820312e+01 2.388298225402832031e+01 1.349121451377868652e+00 6.721718788146972656e+00 2.421252012252807617e+00 1.117535471916198730e+00
2.159000000000000000e+03 4.435977935791015625e+01 1.832625389099121094e+01 -3.093098402023315430e-01 7.502089023590087891e+00 2.157833814620971680e+00 1.572474002838134766e+00
2.160000000000000000e+03 4.491994476318359375e+01 2.010201072692871094e+01 -2.217817544937133789e+00 6.681977272033691406e+00 1.339247941970825195e+00 2.756539821624755859e+00
2.161000000000000000e+03 2.091869354248046875e+01 -2.551148605346679688e+01 2.214798480272293091e-01 -6.395907998085021973e-01 -1.254332810640335083e-01 9.597411155700683594e-01
2.162000000000000000e+03 6.730552673339843750e+01 2.213287925720214844e+01 -7.387671470642089844e-01 1.388973832130432129e+00 1.950619965791702271e-01 -4.198035597801208496e-01
2.163000000000000000e+03 1.913131332397460938e+01 2.024306297302246094e+01 1.337172389030456543e+00 2.073710680007934570e+00 1.023264884948730469e+00 6.644208915531635284e-04
2.164000000000000000e+03 7.474002838134765625e+01 -1.959486389160156250e+01 6.563495397567749023e-01 8.867494583129882812e+00 2.857153415679931641e+00 6.493957638740539551e-01
2.165000000000000000e+03 7.673491668701171875e+01 -1.930079650878906250e+01 3.499699831008911133e-01 8.236924171447753906e+00 2.576068162918090820e+00 1.263412714004516602e+00
2.166000000000000000e+03 5.377047348022460938e+01 -3.217458724975585938e+01 2.764611244201660156e+00 6.930677890777587891e+00 2.908586740493774414e+00 -4.747194424271583557e-02
2.167000000000000000e+03 6.646386718750000000e+01 3.339439773559570312e+01 -1.502373814582824707e-01 5.349510192871093750e+00 1.559781789779663086e+00 8.874977231025695801e-01
2.168000000000000000e+03 9.593693733215332031e+00 1.986734008789062500e+01 3.642171323299407959e-01 4.753766953945159912e-01 2.518781423568725586e-01 -2.277068346738815308e-01
2.169000000000000000e+03 4.614139175415039062e+01 5.305785179138183594e+00 3.901907056570053101e-02 3.143384218215942383e+00 9.547209739685058594e-01 -1.274102449417114258e+00
2.170000000000000000e+03 4.422912216186523438e+01 2.127633857727050781e+01 -2.222728490829467773e+00 5.845691204071044922e+00 1.086888790130615234e+00 2.862588167190551758e+00
2.171000000000000000e+03 3.375547790527343750e+01 -3.172071456909179688e+01 5.657787322998046875e-01 6.602384448051452637e-01 3.678051531314849854e-01 -1.751692146062850952e-01
2.172000000000000000e+03 7.513500976562500000e+01 -2.780411529541015625e+01 -7.081896662712097168e-01 7.378599166870117188e+00 2.001122951507568359e+00 4.999501407146453857e-01
2.173000000000000000e+03 7.306575012207031250e+01 -2.676845741271972656e+01 -1.320021748542785645e+00 6.738376140594482422e+00 1.625506281852722168e+00 2.303617000579833984e+00
2.174000000000000000e+03 6.135894393920898438e+01 -1.585933089256286621e+00 1.044531226158142090e+00 7.711780071258544922e+00 2.626893281936645508e+00 -1.277837634086608887e+00
2.175000000000000000e+03 4.869956207275390625e+01 2.088976287841796875e+01 -9.996258020401000977e-01 2.242977142333984375e+00 3.730053603649139404e-01 1.107770800590515137e+00
2.176000000000000000e+03 4.868304443359375000e+01 -1.215716838836669922e+01 5.296299457550048828e-01 7.241969585418701172e+00 2.331479787826538086e+00 2.878475785255432129e-01
2.177000000000000000e+03 3.465137863159179688e+01 3.227814102172851562e+01 -5.016565918922424316e-01 5.206932067871093750e+00 1.411582708358764648e+00 -1.964021623134613037e-01
2.178000000000000000e+03 4.985321521759033203e+00 3.708618927001953125e+01 -1.867170184850692749e-01 1.484002079814672470e-02 -5.156310275197029114e-02 -3.398684039711952209e-02
2.179000000000000000e+03 5.275706768035888672e+00 3.579254913330078125e+01 -3.522286415100097656e-01 2.903396077454090118e-02 -9.695840626955032349e-02 -1.010663956403732300e-01
2.180000000000000000e+03 6.228941345214843750e+01 2.256115150451660156e+01 -2.428150653839111328e+00 6.269073963165283203e+00 1.152276992797851562e+00 3.583573102951049805e+00
2.181000000000000000e+03 6.360109329223632812e+01 -8.207825660705566406e+00 1.742349863052368164e+00 8.608325958251953125e+00 3.105202674865722656e+00 2.547023296356201172e-01
2.182000000000000000e+03 1.390472030639648438e+01 3.804703140258789062e+01 -1.729763448238372803e-01 2.405160814523696899e-01 2.026191912591457367e-02 -2.268710583448410034e-01
2.183000000000000000e+03 5.726433944702148438e+01 1.158056735992431641e+01 1.538189649581909180e+00 8.665513038635253906e+00 3.061110734939575195e+00 1.554737806320190430e+00
2.184000000000000000e+03 5.845765304565429688e+01 1.552757453918457031e+01 1.867599964141845703e+00 7.879885673522949219e+00 2.924245595932006836e+00 1.339316010475158691e+00
2.185000000000000000e+03 7.316233825683593750e+01 9.850153923034667969e+00 1.451477289199829102e+00 8.993042945861816406e+00 3.133356094360351562e+00 1.876596920192241669e-02
2.186000000000000000e+03 6.294464111328125000e+01 -2.297946739196777344e+01 3.210223913192749023e+00 5.878183841705322266e+00 2.726522445678710938e+00 -2.029124975204467773e+00
2.187000000000000000e+03 7.413952636718750000e+01 -1.244204616546630859e+01 -1.235374927520751953e+00 4.882662296295166016e+00 1.094186186790466309e+00 1.313345789909362793e+00
2.188000000000000000e+03 4.629951000213623047e+00 2.678491401672363281e+01 5.182560086250305176e-01 6.158382892608642578e-01 3.402282893657684326e-01 -4.751756191253662109e-01
2.189000000000000000e+03 3.711702346801757812e+01 -3.519574356079101562e+01 1.546960026025772095e-01 4.559313297271728516e+00 1.414202809333801270e+00 1.705056190490722656e+00
2.190000000000000000e+03 3.829146194458007812e+01 -3.458254241943359375e+01 7.143881916999816895e-01 5.237455844879150391e+00 1.785553216934204102e+00 1.745812177658081055e+00
2.191000000000000000e+03 1.498482036590576172e+01 1.951041030883789062e+01 1.120659232139587402e+00 -2.907792665064334869e-02 3.274743854999542236e-01 1.003825739026069641e-01
2.192000000000000000e+03 5.195827865600585938e+01 3.373241424560546875e+01 1.837216913700103760e-01 6.229586601257324219e+00 1.923992395401000977e+00 4.242661595344543457e-01
2.193000000000000000e+03 4.917819213867187500e+01 3.226348876953125000e+01 3.477083146572113037e-01 6.172107219696044922e+00 1.955944657325744629e+00 2.437199056148529053e-01
2.194000000000000000e+03 7.499581909179687500e+01 7.295932292938232422e+00 1.404716819524765015e-01 7.471432209014892578e+00 2.283571243286132812e+00 -8.685299158096313477e-01
2.195000000000000000e+03 5.512466049194335938e+01 1.647296547889709473e+00 -1.023070096969604492e+00 3.574566125869750977e+00 7.654487490653991699e-01 2.301857948303222656e+00
2.196000000000000000e+03 5.631467056274414062e+01 1.891360521316528320e+00 -2.076218277215957642e-01 2.529596567153930664e+00 6.965924501419067383e-01 8.790468573570251465e-01
2.197000000000000000e+03 6.981958007812500000e+01 -2.831149101257324219e+01 1.772961616516113281e+00 2.069599390029907227e+00 1.152768254280090332e+00 -2.597839832305908203e-01
2.198000000000000000e+03 7.342313385009765625e+01 1.884431266784667969e+01 -1.236753821372985840e+00 7.560467243194580078e+00 1.897114038467407227e+00 2.558698952198028564e-01
2.199000000000000000e+03 2.698069572448730469e+01 -2.324279594421386719e+01 1.399510264396667480e+00 6.369559764862060547e+00 2.330721139907836914e+00 8.052952289581298828e-01
2.200000000000000000e+03 4.648966312408447266e+00 -2.837893486022949219e+01 1.149311959743499756e-01 -1.063217446208000183e-01 2.582836663350462914e-03 3.580807894468307495e-02
2.201000000000000000e+03 1.408586120605468750e+01 -1.258469009399414062e+01 -1.643411666154861450e-01 4.250630140304565430e-01 7.821655273437500000e-02 -1.571985185146331787e-01
2.202000000000000000e+03 4.377719116210937500e+01 1.948782348632812500e+01 -1.573718667030334473e+00 6.262206554412841797e+00 1.406546354293823242e+00 1.813111424446105957e+00
2.203000000000000000e+03 8.228868484497070312e+00 1.569188404083251953e+01 1.127046346664428711e-01 4.133121371269226074e-01 1.578050255775451660e-01 1.201530322432518005e-01
2.204000000000000000e+03 2.649966812133789062e+01 -3.234969329833984375e+01 6.566217541694641113e-02 4.299090385437011719e+00 1.309425711631774902e+00 -2.171769365668296814e-02
2.205000000000000000e+03 6.593160247802734375e+01 2.743407058715820312e+01 2.232858896255493164e+00 5.321592330932617188e+00 2.266335487365722656e+00 1.460123896598815918e+00
2.206000000000000000e+03 6.381932449340820312e+01 2.622122383117675781e+01 3.253761529922485352e+00 7.778462886810302734e+00 3.309667348861694336e+00 2.452437639236450195e+00
2.207000000000000000e+03 3.601447677612304688e+01 -9.056267738342285156e+00 3.474267482757568359e+00 6.762502193450927734e+00 3.071030855178833008e+00 -8.604976534843444824e-01
2.208000000000000000e+03 3.478705215454101562e+01 -1.164597892761230469e+01 1.791201353073120117e+00 3.680953502655029297e+00 1.641646504402160645e+00 -1.081686839461326599e-02
2.209000000000000000e+03 8.446006774902343750e+00 1.101209926605224609e+01 3.021302632987499237e-02 3.274976909160614014e-01 1.073132082819938660e-01 1.584910899400711060e-01
2.210000000000000000e+03 2.511967277526855469e+01 6.886823177337646484e+00 2.353472232818603516e+00 2.392044305801391602e+00 1.423654913902282715e+00 -1.458314180374145508e+00
2.211000000000000000e+03 6.917131805419921875e+01 -2.926555061340332031e+01 2.029036998748779297e+00 3.223541498184204102e+00 1.575773477554321289e+00 -2.778732776641845703e-01
2.212000000000000000e+03 2.156134414672851562e+01 1.465512371063232422e+01 1.765020424500107765e-03 3.667973995208740234e+00 1.100921630859375000e+00 -1.021390318870544434e+00
2.213000000000000000e+03 4.927553939819335938e+01 -7.776557922363281250e+00 2.315420627593994141e+00 8.096274375915527344e+00 3.123508691787719727e+00 1.438602805137634277e-01
2.214000000000000000e+03 4.981265258789062500e+01 -6.325275897979736328e+00 1.704036116600036621e+00 7.770071506500244141e+00 2.842232227325439453e+00 1.568480283021926880e-01
2.215000000000000000e+03 5.394571685791015625e+01 -3.561441802978515625e+01 1.272532463073730469e+00 7.195246219635009766e+00 2.540333509445190430e+00 -7.669897377490997314e-02
2.216000000000000000e+03 5.199851226806640625e+01 -3.623476791381835938e+01 -1.636287868022918701e-01 7.262628555297851562e+00 2.129699945449829102e+00 6.053255870938301086e-02
2.217000000000000000e+03 5.220862388610839844e+00 -1.471792888641357422e+01 -1.959904879331588745e-01 -1.513636857271194458e-01 -1.042062491178512573e-01 -1.569350510835647583e-01
2.218000000000000000e+03 6.962379932403564453e+00 -1.305738735198974609e+01 -2.482666969299316406e-01 -1.957826316356658936e-01 -1.332148015499114990e-01 -1.639441847801208496e-01
2.219000000000000000e+03 4.298821640014648438e+01 1.043935775756835938e+01 -8.906839787960052490e-02 9.193458557128906250e+00 2.731317281723022461e+00 1.655013561248779297e+00
2.220000000000000000e+03 6.552787017822265625e+01 -1.818997621536254883e+00 1.239406228065490723e+00 6.106808185577392578e+00 2.203864336013793945e+00 1.560159087181091309e+00
2.221000000000000000e+03 3.543204498291015625e+01 -3.534898281097412109e+00 2.447314500808715820e+00 5.232920169830322266e+00 2.304070472717285156e+00 5.439168214797973633e-01
2.222000000000000000e+03 7.738225460052490234e+00 -1.220137691497802734e+01 -2.455655932426452637e-01 -1.540634036064147949e-01 -1.198887005448341370e-01 -1.122598573565483093e-01
2.223000000000000000e+03 6.323987579345703125e+01 -1.231289482116699219e+01 -1.191935420036315918e+00 6.677682876586914062e+00 1.645724177360534668e+00 7.374297380447387695e-01
2.224000000000000000e+03 6.091621780395507812e+01 -1.080803680419921875e+01 -1.224822521209716797e+00 6.748806476593017578e+00 1.657195091247558594e+00 1.608788013458251953e+00
2.225000000000000000e+03 3.286764907836914062e+01 3.455326843261718750e+01 -7.783749699592590332e-01 4.112917423248291016e+00 1.000362634658813477e+00 -5.512835979461669922e-01
2.226000000000000000e+03 5.371311950683593750e+01 4.765387535095214844e+00 -1.033476233482360840e+00 6.039742469787597656e+00 1.501879930496215820e+00 2.522184610366821289e+00
2.227000000000000000e+03 6.338277053833007812e+01 -4.134176254272460938e+01 -1.053384184837341309e+00 1.048346161842346191e+00 -1.511396258138120174e-03 1.873498857021331787e-01
2.228000000000000000e+03 7.011497497558593750e+01 2.215222167968750000e+01 -1.160032749176025391e+00 4.037153720855712891e+00 8.631362318992614746e-01 -1.341633081436157227e+00
2.229000000000000000e+03 5.102716445922851562e+01 -3.534497070312500000e+01 6.608034968376159668e-01 7.728525161743164062e+00 2.516798734664916992e+00 -3.753774464130401611e-01
2.230000000000000000e+03 5.286688613891601562e+01 -3.415334320068359375e+01 2.228254079818725586e+00 7.579798698425292969e+00 2.942415714263916016e+00 -2.679301798343658447e-01
2.231000000000000000e+03 5.168050003051757812e+01 -2.635423660278320312e+01 -5.407428741455078125e-01 1.822716951370239258e+00 3.845922350883483887e-01 1.098662242293357849e-01
2.232000000000000000e+03 5.398503494262695312e+01 -2.670125198364257812e+01 -1.292465567588806152e+00 5.623858928680419922e+00 1.299418091773986816e+00 2.582300424575805664e+00
2.233000000000000000e+03 1.674718093872070312e+01 -2.109757041931152344e+01 7.314918637275695801e-01 1.996886730194091797e-01 2.793541550636291504e-01 5.566963553428649902e-01
2.234000000000000000e+03 1.884515380859375000e+01 -1.831503295898437500e+01 8.442641496658325195e-01 2.709506638348102570e-02 2.614077627658843994e-01 -7.280299067497253418e-02
2.235000000000000000e+03 7.255824279785156250e+01 -1.480273723602294922e+01 -3.855060935020446777e-01 2.801225900650024414e+00 7.247159481048583984e-01 -3.663361668586730957e-01
2.236000000000000000e+03 4.823031234741210938e+01 -1.931765556335449219e+00 1.117394924163818359e+00 5.103327274322509766e+00 1.866216778755187988e+00 -1.606064796447753906e+00
2.237000000000000000e+03 5.068410491943359375e+01 -2.253868103027343750e+00 1.392097711563110352e+00 6.461699008941650391e+00 2.356138944625854492e+00 -9.833055734634399414e-02
2.238000000000000000e+03 7.110678863525390625e+01 2.273895072937011719e+01 -6.467310786247253418e-01 4.867367744445800781e+00 1.266191005706787109e+00 -1.306717514991760254e+00
2.239000000000000000e+03 4.835607528686523438e+01 -1.437542152404785156e+01 -1.825359702110290527e+00 5.433345317840576172e+00 1.082395672798156738e+00 1.744213819503784180e+00
2.240000000000000000e+03 5.153295516967773438e+01 -7.899200439453125000e+00 1.761619210243225098e+00 7.432665824890136719e+00 2.758285522460937500e+00 -2.275793552398681641e-01
2.241000000000000000e+03 5.081614303588867188e+01 -5.965722560882568359e+00 2.186866283416748047e+00 7.929796695709228516e+00 3.034998893737792969e+00 -4.092684388160705566e-02
2.242000000000000000e+03 5.970701980590820312e+01 1.514435672760009766e+01 1.866766571998596191e+00 9.812045097351074219e+00 3.503643512725830078e+00 2.142024993896484375e+00
2.243000000000000000e+03 7.475018310546875000e+01 -2.074082946777343750e+01 1.150944113731384277e+00 1.011497688293457031e+01 3.379776239395141602e+00 2.954325079917907715e-01
2.244000000000000000e+03 1.642959594726562500e+01 -2.597381782531738281e+01 4.595807790756225586e-01 1.254653096199035645e+00 5.142701864242553711e-01 1.096317768096923828e+00
2.245000000000000000e+03 5.626871871948242188e+01 -1.306094932556152344e+01 -1.317622065544128418e-01 3.953992843627929688e+00 1.146669149398803711e+00 -1.717574834823608398e+00
2.246000000000000000e+03 5.181208419799804688e+01 4.117876052856445312e+01 -1.736581563949584961e+00 4.600686073303222656e+00 8.592313528060913086e-01 9.160535782575607300e-02
2.247000000000000000e+03 5.315176010131835938e+01 3.772782135009765625e+01 -1.707531452178955078e+00 5.357482433319091797e+00 1.094985246658325195e+00 6.503272056579589844e-01
2.248000000000000000e+03 4.678357315063476562e+01 1.968044090270996094e+01 -2.301687479019165039e+00 5.962220668792724609e+00 1.098160028457641602e+00 3.470613002777099609e+00
2.249000000000000000e+03 1.770518112182617188e+01 -2.187123680114746094e+01 8.375940322875976562e-01 2.242407947778701782e-01 3.185504376888275146e-01 8.518230319023132324e-01
2.250000000000000000e+03 6.568973541259765625e+01 3.227791595458984375e+01 6.902551651000976562e-01 5.294640064239501953e+00 1.795468568801879883e+00 8.202676773071289062e-01
2.251000000000000000e+03 6.590188598632812500e+01 3.593482208251953125e+01 -8.317562341690063477e-01 4.826764106750488281e+00 1.198502302169799805e+00 3.329965472221374512e-01
2.252000000000000000e+03 5.523055648803710938e+01 -1.303596496582031250e+01 -1.328431367874145508e-01 3.781815528869628906e+00 1.094691753387451172e+00 -2.514255046844482422e+00
2.253000000000000000e+03 5.866105651855468750e+01 -1.261350822448730469e+01 -2.911200821399688721e-01 4.036718368530273438e+00 1.123679399490356445e+00 7.782953381538391113e-01
2.254000000000000000e+03 5.098635482788085938e+01 -3.145997810363769531e+01 3.713041305541992188e+00 7.404960155487060547e+00 3.335400342941284180e+00 -1.469130158424377441e+00
2.255000000000000000e+03 5.226925659179687500e+01 -2.813444328308105469e+01 6.602887511253356934e-01 4.361107826232910156e+00 1.506418943405151367e+00 2.887741029262542725e-01
2.256000000000000000e+03 3.094191360473632812e+01 2.969508552551269531e+01 6.258558630943298340e-01 3.640398263931274414e+00 1.279876232147216797e+00 -1.566062092781066895e+00
2.257000000000000000e+03 3.426562118530273438e+01 2.973959350585937500e+01 7.552924156188964844e-01 7.373425006866455078e+00 2.438615322113037109e+00 -1.179002374410629272e-01
2.258000000000000000e+03 4.888766098022460938e+01 4.612945079803466797e+00 -1.148683279752731323e-01 5.127505064010620117e-01 1.193646416068077087e-01 -3.249490261077880859e-01
2.259000000000000000e+03 6.315499496459960938e+01 -9.678545951843261719e+00 4.300166666507720947e-01 8.197799682617187500e+00 2.588344812393188477e+00 5.164100527763366699e-01
2.260000000000000000e+03 8.057536125183105469e+00 2.040373420715332031e+01 2.669151127338409424e-01 5.677119493484497070e-01 2.503881156444549561e-01 -2.061416357755661011e-01
2.261000000000000000e+03 2.097974205017089844e+01 3.054628562927246094e+01 6.774318218231201172e-01 3.636314392089843750e+00 1.294123888015747070e+00 1.625652760267257690e-01
2.262000000000000000e+03 2.368544769287109375e+01 2.972719192504882812e+01 1.107293143868446350e-01 2.105036735534667969e+00 6.647297739982604980e-01 5.846534371376037598e-01
2.263000000000000000e+03 3.590172958374023438e+01 -2.612494468688964844e+00 2.317599058151245117e+00 4.141016006469726562e+00 1.937584519386291504e+00 1.668031811714172363e+00
2.264000000000000000e+03 8.027078628540039062e+00 8.638640403747558594e+00 -5.866887047886848450e-02 1.564632803201675415e-01 2.933832257986068726e-02 1.756031066179275513e-01
2.265000000000000000e+03 4.592360305786132812e+01 -1.764417648315429688e+01 2.276815772056579590e-01 6.312731266021728516e+00 1.962123870849609375e+00 8.011317253112792969e-01
2.266000000000000000e+03 4.605270004272460938e+01 -1.658528327941894531e+01 -8.914937973022460938e-01 6.323458194732666016e+00 1.629589438438415527e+00 1.664911985397338867e+00
2.267000000000000000e+03 5.588774871826171875e+01 6.678275108337402344e+00 1.091540575027465820e+00 8.169110298156738281e+00 2.778195381164550781e+00 7.179347872734069824e-01
2.268000000000000000e+03 5.688536834716796875e+01 9.980127334594726562e+00 1.812351465225219727e+00 8.380224227905273438e+00 3.057772636413574219e+00 1.595161199569702148e+00
2.269000000000000000e+03 5.528683662414550781e+00 2.464246559143066406e+01 4.703679680824279785e-01 8.778454065322875977e-01 4.044640362262725830e-01 -3.405887484550476074e-01
2.270000000000000000e+03 5.868896102905273438e+01 -2.500245285034179688e+01 -1.755193918943405151e-01 4.592951297760009766e+00 1.325229644775390625e+00 1.510215640068054199e+00
2.271000000000000000e+03 5.658000946044921875e+01 -2.431045722961425781e+01 -4.055110514163970947e-01 7.840681552886962891e+00 2.230551242828369141e+00 1.022734880447387695e+00
2.272000000000000000e+03 3.304695510864257812e+01 1.623707389831542969e+01 3.591347038745880127e-01 3.191044807434082031e+00 1.065053939819335938e+00 -5.408385992050170898e-01
2.273000000000000000e+03 3.424573516845703125e+01 1.330385494232177734e+01 -2.085375070571899414e+00 3.624195158481597900e-01 -5.168866515159606934e-01 -5.444077402353286743e-02
2.274000000000000000e+03 6.522350311279296875e+01 -1.593954086303710938e+01 -1.933335781097412109e+00 4.903965950012207031e+00 8.911890387535095215e-01 6.946448087692260742e-01
2.275000000000000000e+03 6.249026107788085938e+01 -1.846214485168457031e+01 7.170866131782531738e-01 6.753497600555419922e+00 2.241175413131713867e+00 -8.506036996841430664e-01
2.276000000000000000e+03 4.028258895874023438e+01 -4.002415084838867188e+01 -2.064155340194702148e+00 1.802089214324951172e+00 -7.861983776092529297e-02 -3.340415954589843750e-01
2.277000000000000000e+03 5.107374954223632812e+01 -2.878538894653320312e+01 1.536831974983215332e+00 4.995662689208984375e+00 1.959748387336730957e+00 -1.045750856399536133e+00
2.278000000000000000e+03 3.459986877441406250e+01 1.438516998291015625e+01 -1.077518224716186523e+00 1.133230447769165039e+00 1.671364717185497284e-02 -6.034924983978271484e-01
2.279000000000000000e+03 6.739753723144531250e+01 -2.769886970520019531e+01 6.108382344245910645e-02 5.373529434204101562e+00 1.630383968353271484e+00 -2.235437631607055664e+00
2.280000000000000000e+03 3.073734474182128906e+01 -3.042935943603515625e+01 -9.536703228950500488e-01 2.724471807479858398e+00 5.312404632568359375e-01 -7.716656923294067383e-01
2.281000000000000000e+03 3.604883193969726562e+01 -3.383257675170898438e+01 1.517159461975097656e+00 3.366758346557617188e+00 1.465175271034240723e+00 1.926373124122619629e+00
2.282000000000000000e+03 2.586743927001953125e+01 3.140937423706054688e+01 6.643040776252746582e-01 1.285532355308532715e+00 5.849509239196777344e-01 -8.502117544412612915e-02
2.283000000000000000e+03 6.568953037261962891e+00 -2.474733543395996094e+01 6.185325235128402710e-02 2.567110061645507812e-01 9.556928277015686035e-02 -2.000635415315628052e-01
2.284000000000000000e+03 5.563029098510742188e+01 -2.554078102111816406e+01 -2.612422943115234375e+00 7.367657184600830078e+00 1.426570296287536621e+00 1.466799855232238770e+00
2.285000000000000000e+03 5.409986495971679688e+01 -1.456034564971923828e+01 -1.141158938407897949e+00 4.243869304656982422e+00 9.308131933212280273e-01 -2.796074151992797852e+00
2.286000000000000000e+03 5.548512268066406250e+01 -1.573150730133056641e+01 -3.386276662349700928e-01 6.137853622436523438e+00 1.739767789840698242e+00 -1.846572518348693848e+00
2.287000000000000000e+03 5.628313827514648438e+01 -2.320560455322265625e+01 1.107019901275634766e+00 7.884000301361083984e+00 2.697306156158447266e+00 6.859979033470153809e-01
2.288000000000000000e+03 5.510841369628906250e+00 -4.066630935668945312e+01 -2.630233466625213623e-01 4.928644299507141113e-01 6.895232200622558594e-02 1.673891097307205200e-01
2.289000000000000000e+03 7.631156444549560547e+00 -3.904405975341796875e+01 -4.824380278587341309e-01 7.236922383308410645e-01 7.237625867128372192e-02 3.833644986152648926e-01
2.290000000000000000e+03 3.753906726837158203e+00 -1.320300388336181641e+01 -9.928567707538604736e-02 -8.740253001451492310e-02 -5.600646138191223145e-02 -1.072636693716049194e-01
2.291000000000000000e+03 4.157414245605468750e+01 3.838210105895996094e+00 2.328724145889282227e+00 7.536364078521728516e+00 2.959526538848876953e+00 -1.625038534402847290e-01
2.292000000000000000e+03 3.200930023193359375e+01 -3.910324478149414062e+01 -8.684675693511962891e-01 3.569096088409423828e+00 8.101885914802551270e-01 1.583099514245986938e-01
2.293000000000000000e+03 5.959401321411132812e+01 1.368153285980224609e+01 1.142823696136474609e+00 9.786035537719726562e+00 3.278657913208007812e+00 1.347222685813903809e+00
2.294000000000000000e+03 6.309975433349609375e+01 2.691488027572631836e+00 -5.537764430046081543e-01 4.444050788879394531e+00 1.167082309722900391e+00 -8.184833526611328125e-01
2.295000000000000000e+03 1.581155300140380859e+01 -2.314148330688476562e+01 3.647759854793548584e-01 6.945747733116149902e-01 3.178052306175231934e-01 7.830478549003601074e-01
2.296000000000000000e+03 5.872723770141601562e+01 2.092040443420410156e+01 -3.337750732898712158e-01 3.387454509735107422e+00 9.161037802696228027e-01 2.796846032142639160e-01
2.297000000000000000e+03 5.895287704467773438e+01 1.846897315979003906e+01 1.487900257110595703e+00 6.145691394805908203e+00 2.290077447891235352e+00 6.526093482971191406e-01
2.298000000000000000e+03 5.625978469848632812e+01 2.170149803161621094e+01 -2.041160345077514648e+00 3.053333044052124023e+00 3.036518394947052002e-01 -2.623535633087158203e+00
2.299000000000000000e+03 7.507320404052734375e+01 -1.148677635192871094e+01 -1.891838550567626953e+00 7.879379749298095703e+00 1.796262383460998535e+00 7.500720620155334473e-01
2.300000000000000000e+03 7.620919036865234375e+01 -1.253548526763916016e+01 -1.200798630714416504e+00 8.354786872863769531e+00 2.146196365356445312e+00 2.511619031429290771e-01
2.301000000000000000e+03 2.149310111999511719e+01 2.880543231964111328e+00 -6.221938729286193848e-01 -3.299534916877746582e-01 -2.856442034244537354e-01 5.283184647560119629e-01
2.302000000000000000e+03 2.076708793640136719e+01 3.234946966171264648e+00 -4.781335592269897461e-01 -4.003577828407287598e-01 -2.635473906993865967e-01 4.794453978538513184e-01
2.303000000000000000e+03 2.336183929443359375e+01 2.321806907653808594e+00 -7.179225087165832520e-01 -4.539532959461212158e-02 -2.289953529834747314e-01 5.223264694213867188e-01
2.304000000000000000e+03 2.423915290832519531e+01 2.020085096359252930e+00 -8.760002255439758301e-01 2.741307318210601807e-01 -1.805608421564102173e-01 3.289273679256439209e-01
2.305000000000000000e+03 2.274879264831542969e+01 2.556658029556274414e+00 -6.167475581169128418e-01 -1.579393148422241211e-01 -2.324060499668121338e-01 5.339370369911193848e-01
2.306000000000000000e+03 2.438803100585937500e+01 2.172685146331787109e+00 -6.392282247543334961e-01 3.819062709808349609e-01 -7.719658315181732178e-02 2.801458537578582764e-01
2.307000000000000000e+03 2.045415687561035156e+01 6.670247077941894531e+00 7.788262963294982910e-01 -3.076592981815338135e-01 1.413501054048538208e-01 -9.991107881069183350e-02
2.308000000000000000e+03 2.216833496093750000e+01 3.002837896347045898e+00 -3.675533533096313477e-01 -2.468274235725402832e-01 -1.843142360448837280e-01 4.920107424259185791e-01
2.309000000000000000e+03 2.734269714355468750e+01 6.683831691741943359e+00 3.041695594787597656e+00 6.481430053710937500e+00 2.856937646865844727e+00 -1.767605781555175781e+00
2.310000000000000000e+03 2.625855064392089844e+01 2.253483772277832031e+00 -2.435346543788909912e-01 2.219094753265380859e+00 5.926679968833923340e-01 -7.936295270919799805e-01
2.311000000000000000e+03 1.952756690979003906e+01 3.468604803085327148e+00 -4.979398846626281738e-01 -4.457117021083831787e-01 -2.830954790115356445e-01 4.104653894901275635e-01
2.312000000000000000e+03 2.944951820373535156e+01 4.834720492362976074e-01 3.095064125955104828e-02 6.669486999511718750e+00 2.010131359100341797e+00 -5.088125228881835938e+00
2.313000000000000000e+03 2.995596694946289062e+01 -9.040627479553222656e+00 3.283206224441528320e+00 1.066125965118408203e+01 4.183339595794677734e+00 3.525031089782714844e+00
2.314000000000000000e+03 3.065458869934082031e+01 -8.318413734436035156e+00 2.215952634811401367e+00 8.848419189453125000e+00 3.319311618804931641e+00 2.641964673995971680e+00
2.315000000000000000e+03 2.774418830871582031e+01 1.372053980827331543e+00 -6.849135756492614746e-01 3.623132228851318359e+00 8.814656138420104980e-01 -2.513602972030639648e+00
2.316000000000000000e+03 2.860830497741699219e+01 1.847002267837524414e+00 -1.025516867637634277e+00 6.191294670104980469e+00 1.549733281135559082e+00 -3.517595052719116211e+00
2.317000000000000000e+03 2.731629562377929688e+01 1.665693998336791992e+00 -6.036115884780883789e-01 3.246920824050903320e+00 7.929927706718444824e-01 -1.898192048072814941e+00
2.318000000000000000e+03 1.808924674987792969e+01 -1.101711559295654297e+01 -4.072046875953674316e-01 -1.303899288177490234e-01 -1.612783819437026978e-01 2.644383013248443604e-01
2.319000000000000000e+03 1.799444770812988281e+01 -1.169882965087890625e+01 -4.611027538776397705e-01 -1.433308329433202744e-02 -1.426307559013366699e-01 2.289491891860961914e-01
2.320000000000000000e+03 1.653286743164062500e+01 -6.357508182525634766e+00 1.012349594384431839e-02 1.357519626617431641e-01 4.376263543963432312e-02 1.432606019079685211e-02
2.321000000000000000e+03 1.606350135803222656e+01 -7.520195007324218750e+00 -3.994800150394439697e-02 1.013419553637504578e-01 1.841818727552890778e-02 4.516160115599632263e-02
2.322000000000000000e+03 1.744290351867675781e+01 -1.049561786651611328e+01 -3.486126661300659180e-01 -2.063172124326229095e-02 -1.107733175158500671e-01 1.838075220584869385e-01
2.323000000000000000e+03 3.302587509155273438e+01 -3.428394794464111328e+00 2.435302972793579102e+00 7.406300544738769531e+00 2.952481031417846680e+00 -1.744588494300842285e+00
2.324000000000000000e+03 1.319025039672851562e+01 -1.106707572937011719e+01 -2.183069437742233276e-01 2.077669948339462280e-01 -3.161985427141189575e-03 -1.049724966287612915e-01
2.325000000000000000e+03 1.923610115051269531e+01 3.759377479553222656e+00 -3.392536044120788574e-01 -4.321762025356292725e-01 -2.314289361238479614e-01 3.067833483219146729e-01
2.326000000000000000e+03 1.944585037231445312e+01 -1.237767124176025391e+01 -6.902925968170166016e-01 -2.454175651073455811e-01 -2.807130515575408936e-01 4.126185476779937744e-01
2.327000000000000000e+03 2.507022285461425781e+01 -1.360086536407470703e+01 -1.030088543891906738e+00 9.015842080116271973e-01 -3.855129703879356384e-02 6.805334091186523438e-01
2.328000000000000000e+03 1.608402824401855469e+01 -6.641441345214843750e+00 -9.729775483720004559e-04 1.096993237733840942e-01 3.261790424585342407e-02 1.773511245846748352e-02
2.329000000000000000e+03 2.620721054077148438e+01 -1.304991149902343750e+01 3.886957839131355286e-02 2.243697881698608398e+00 6.847702264785766602e-01 1.725538611412048340e+00
2.330000000000000000e+03 2.936346054077148438e+01 -1.188731288909912109e+01 1.143050074577331543e+00 7.785012722015380859e+00 2.678418874740600586e+00 3.249182939529418945e+00
2.331000000000000000e+03 2.695456123352050781e+01 -1.263415908813476562e+01 9.128226637840270996e-01 3.675996065139770508e+00 1.376645565032958984e+00 2.641841650009155273e+00
2.332000000000000000e+03 2.767172241210937500e+01 -1.215771770477294922e+01 1.833107829093933105e+00 5.298031330108642578e+00 2.139341831207275391e+00 3.484934329986572266e+00
2.333000000000000000e+03 2.658131790161132812e+01 -1.284729480743408203e+01 4.774801433086395264e-01 2.936865568161010742e+00 1.024303793907165527e+00 2.151350259780883789e+00
2.334000000000000000e+03 1.606511497497558594e+01 -5.361054897308349609e+00 1.669515669345855713e-02 9.527976810932159424e-02 3.359247744083404541e-02 4.325747955590486526e-03
2.335000000000000000e+03 2.727869987487792969e+01 -1.306328582763671875e+01 3.501584008336067200e-02 4.878505706787109375e+00 1.474056482315063477e+00 2.782384395599365234e+00
2.336000000000000000e+03 1.340698337554931641e+01 -3.697205543518066406e+00 -1.917192945256829262e-03 -8.453809656202793121e-03 -3.111300757154822350e-03 -4.928569868206977844e-02
2.337000000000000000e+03 2.298692703247070312e+01 -1.427495098114013672e+01 -1.626071572303771973e+00 -2.886160314083099365e-01 -5.744062662124633789e-01 1.314879953861236572e-01
2.338000000000000000e+03 2.625131797790527344e+01 -1.998184776306152344e+01 2.331969022750854492e+00 5.002536296844482422e+00 2.200351715087890625e+00 6.332767009735107422e-01
2.339000000000000000e+03 1.705726432800292969e+01 -3.743551969528198242e+00 1.873382739722728729e-02 1.138553619384765625e-01 3.977675735950469971e-02 2.722095698118209839e-02
2.340000000000000000e+03 1.422048377990722656e+01 -2.853083133697509766e+00 -9.000369347631931305e-03 -6.352187134325504303e-03 -4.605766851454973221e-03 -4.702653363347053528e-02
2.341000000000000000e+03 1.716636085510253906e+01 -1.134951210021972656e+01 -3.927375972270965576e-01 1.195413619279861450e-01 -8.195887506008148193e-02 1.451884210109710693e-01
2.342000000000000000e+03 1.497856426239013672e+01 -2.616996288299560547e+00 -7.365024182945489883e-03 1.050375681370496750e-02 9.416195680387318134e-04 -4.331030324101448059e-02
2.343000000000000000e+03 2.848189163208007812e+01 -1.314111423492431641e+01 -4.991326332092285156e-01 6.829164981842041016e+00 1.899009704589843750e+00 3.039465427398681641e+00
2.344000000000000000e+03 2.867447662353515625e+01 -1.189447689056396484e+01 1.582969665527343750e+00 7.302932262420654297e+00 2.665770530700683594e+00 3.729992151260375977e+00
2.345000000000000000e+03 2.959391212463378906e+01 -1.155170822143554688e+01 1.513095259666442871e+00 7.964801311492919922e+00 2.843369007110595703e+00 3.184181928634643555e+00
2.346000000000000000e+03 2.973133087158203125e+01 -1.075902748107910156e+01 2.818452358245849609e+00 8.863175392150878906e+00 3.504488468170166016e+00 3.317862987518310547e+00
2.347000000000000000e+03 3.027013397216796875e+01 -5.254413127899169922e+00 -1.514678150415420532e-01 7.609386444091796875e+00 2.237375497817993164e+00 7.446506023406982422e-01
2.348000000000000000e+03 1.954670524597167969e+01 -1.338193702697753906e+01 -8.713294267654418945e-01 -6.301523000001907349e-02 -2.803033888339996338e-01 1.435297727584838867e-01
2.349000000000000000e+03 1.667115592956542969e+01 -3.029830217361450195e+00 1.189378090202808380e-02 6.852451711893081665e-02 2.412548847496509552e-02 4.216323141008615494e-03
2.350000000000000000e+03 3.076332473754882812e+01 -5.349655628204345703e+00 -1.147278994321823120e-01 8.153763771057128906e+00 2.411710739135742188e+00 8.079981207847595215e-01
2.351000000000000000e+03 1.608658218383789062e+01 -1.719557046890258789e+00 -2.276238240301609039e-02 1.274140365421772003e-02 -3.006293671205639839e-03 -3.370892256498336792e-02
2.352000000000000000e+03 1.982236671447753906e+01 -1.381164550781250000e+01 -9.250500202178955078e-01 -4.222358390688896179e-02 -2.901820838451385498e-01 6.566624157130718231e-03
2.353000000000000000e+03 2.032309341430664062e+01 -1.340781879425048828e+01 -1.185842514038085938e+00 -2.006160169839859009e-01 -4.159375727176666260e-01 2.567072510719299316e-01
2.354000000000000000e+03 1.688871002197265625e+01 -9.421724319458007812e+00 -2.045963406562805176e-01 4.977962002158164978e-02 -4.644501581788063049e-02 1.609469354152679443e-01
2.355000000000000000e+03 2.502156448364257812e+01 -1.838850784301757812e+01 1.532243371009826660e+00 3.093007326126098633e+00 1.387575268745422363e+00 6.365458369255065918e-01
2.356000000000000000e+03 1.675236892700195312e+01 -2.217994689941406250e+00 1.230258494615554810e-02 4.210160672664642334e-02 1.632125861942768097e-02 -7.760980632156133652e-03
2.357000000000000000e+03 1.697625732421875000e+01 -1.038439941406250000e+01 -3.319664299488067627e-01 7.093203812837600708e-02 -7.831031829118728638e-02 1.567932367324829102e-01
2.358000000000000000e+03 1.550059032440185547e+01 -1.147973632812500000e+01 -3.398717641830444336e-01 3.002336323261260986e-01 -1.189144607633352280e-02 3.710158541798591614e-02
2.359000000000000000e+03 1.744049263000488281e+01 -1.821101784706115723e+00 2.017220482230186462e-02 5.241527408361434937e-02 2.177624404430389404e-02 -6.088314577937126160e-03
2.360000000000000000e+03 1.993145561218261719e+01 -1.438551425933837891e+01 -7.042177915573120117e-01 -3.518699854612350464e-02 -2.218214273452758789e-01 -2.042180895805358887e-01
2.361000000000000000e+03 2.122873687744140625e+01 -1.389396762847900391e+01 -1.660571217536926270e+00 -2.883739769458770752e-01 -5.846835374832153320e-01 8.316519856452941895e-02
2.362000000000000000e+03 2.104658317565917969e+01 -1.442000484466552734e+01 -1.108664035797119141e+00 -2.227201908826828003e-01 -3.994152843952178955e-01 -2.411313802003860474e-01
2.363000000000000000e+03 3.037765884399414062e+01 -9.692653656005859375e+00 3.767743587493896484e+00 8.573116302490234375e+00 3.702257871627807617e+00 2.956924438476562500e+00
2.364000000000000000e+03 1.482517719268798828e+01 -1.311084175109863281e+01 -1.770096570253372192e-01 4.456430673599243164e-01 8.059002459049224854e-02 -9.943687915802001953e-02
2.365000000000000000e+03 1.659181976318359375e+01 -8.498482704162597656e+00 -6.875134259462356567e-02 8.470557630062103271e-02 4.786270204931497574e-03 8.983174711465835571e-02
2.366000000000000000e+03 3.110485267639160156e+01 -1.307394313812255859e+01 -1.001198887825012207e+00 5.906410694122314453e+00 1.471563458442687988e+00 2.826583385467529297e+00
2.367000000000000000e+03 3.027117729187011719e+01 -1.020166206359863281e+01 3.522051572799682617e+00 8.407878875732421875e+00 3.578979015350341797e+00 2.819165468215942383e+00
2.368000000000000000e+03 2.053031349182128906e+01 -1.429502677917480469e+01 -9.672960042953491211e-01 -1.568266004323959351e-01 -3.372367918491363525e-01 -1.637723445892333984e-01
2.369000000000000000e+03 2.151481437683105469e+01 -1.460130691528320312e+01 -9.389054775238037109e-01 -3.795587420463562012e-01 -3.955392539501190186e-01 -2.705169022083282471e-01
2.370000000000000000e+03 3.104149055480957031e+01 9.039794206619262695e-01 -2.305633544921875000e+00 9.856533050537109375e+00 2.265269756317138672e+00 -3.050419330596923828e+00
2.371000000000000000e+03 2.264593696594238281e+01 -1.462324523925781250e+01 -1.049355268478393555e+00 -2.959670126438140869e-01 -4.035966992378234863e-01 -2.199047431349754333e-02
2.372000000000000000e+03 3.089791107177734375e+01 -1.035342502593994141e+01 3.120946407318115234e+00 6.953900814056396484e+00 3.022454023361206055e+00 2.416875362396240234e+00
2.373000000000000000e+03 1.644684410095214844e+01 -9.596637725830078125e+00 -2.397481799125671387e-01 1.176620796322822571e-01 -3.662582859396934509e-02 1.381876021623611450e-01
2.374000000000000000e+03 3.095499801635742188e+01 -4.166838169097900391e+00 -6.906064748764038086e-01 9.192572593688964844e+00 2.550590038299560547e+00 3.533347249031066895e-01
2.375000000000000000e+03 1.643715667724609375e+01 -3.512696743011474609e+00 3.333202004432678223e-02 7.315098494291305542e-02 3.194490447640419006e-02 -9.133194107562303543e-04
2.376000000000000000e+03 9.444591522216796875e+00 4.497290611267089844e+00 -1.775990277528762817e-01 3.693536669015884399e-02 -4.219910129904747009e-02 1.557022035121917725e-01
2.377000000000000000e+03 9.963193893432617188e+00 3.905675888061523438e+00 -2.130641639232635498e-01 3.877051174640655518e-02 -5.228809639811515808e-02 1.468364447355270386e-01
2.378000000000000000e+03 1.097337150573730469e+01 3.403153181076049805e+00 -2.847191691398620605e-01 4.470111429691314697e-02 -7.200541347265243530e-02 1.315793544054031372e-01
2.379000000000000000e+03 1.623701667785644531e+01 -4.008010864257812500e+00 1.376802753657102585e-02 7.742465287446975708e-02 2.735780365765094757e-02 1.714570098556578159e-03
2.380000000000000000e+03 1.137423706054687500e+01 4.545393466949462891e+00 -1.698618829250335693e-01 2.139942720532417297e-02 -4.453873634338378906e-02 1.651073694229125977e-01
2.381000000000000000e+03 1.325809860229492188e+01 -2.438823938369750977e+00 -2.015406638383865356e-02 -2.104290947318077087e-02 -1.235909294337034225e-02 -5.456807091832160950e-02
2.382000000000000000e+03 1.593502044677734375e+01 -5.042997837066650391e+00 1.332793757319450378e-02 8.663398027420043945e-02 2.998857572674751282e-02 -1.961750211194157600e-03
2.383000000000000000e+03 1.246436882019042969e+01 -2.599935293197631836e+00 -2.006847038865089417e-02 -1.763508655130863190e-02 -1.131106726825237274e-02 -5.740158259868621826e-02
2.384000000000000000e+03 1.579298496246337891e+01 -5.797907352447509766e+00 5.943163763731718063e-03 8.772217482328414917e-02 2.809960022568702698e-02 4.475204739719629288e-03
2.385000000000000000e+03 1.126842308044433594e+01 5.798181533813476562e+00 -3.735801950097084045e-02 2.815850311890244484e-03 -1.036265119910240173e-02 1.425338089466094971e-01
2.386000000000000000e+03 7.953445911407470703e+00 -4.861690521240234375e+00 -5.126274190843105316e-03 -4.766159877181053162e-02 -1.583636179566383362e-02 -3.329035267233848572e-02
2.387000000000000000e+03 7.027484893798828125e+00 -4.259264469146728516e+00 -4.250454949215054512e-04 -3.610150888562202454e-02 -1.095796655863523483e-02 -1.724873110651969910e-02
2.388000000000000000e+03 7.822236537933349609e+00 -4.133979797363281250e+00 -6.316250655800104141e-04 -4.463777318596839905e-02 -1.358081959187984467e-02 -3.149280324578285217e-02
2.389000000000000000e+03 6.219411373138427734e+00 -4.419065952301025391e+00 2.824163064360618591e-03 -4.231986030936241150e-02 -1.184870861470699310e-02 -1.070313993841409683e-02
2.390000000000000000e+03 4.413015365600585938e+00 -3.783939599990844727e+00 6.540104281157255173e-03 -1.253551431000232697e-02 -1.798622892238199711e-03 1.369445212185382843e-02
2.391000000000000000e+03 5.385376930236816406e+00 -4.596305370330810547e+00 2.463886514306068420e-03 -2.864324301481246948e-02 -7.853806950151920319e-03 4.153670277446508408e-03
2.392000000000000000e+03 3.738450288772583008e+00 -6.070870876312255859e+00 -2.056833589449524879e-03 -2.466572262346744537e-02 -8.016766980290412903e-03 1.061368640512228012e-02
2.393000000000000000e+03 2.651843786239624023e+00 -4.991761684417724609e+00 -1.733864424750208855e-03 1.457400154322385788e-03 -8.293928840430453420e-05 1.548437494784593582e-02
2.394000000000000000e+03 1.678676605224609375e+01 -1.662090539932250977e+00 -2.302807755768299103e-02 3.210389986634254456e-02 2.722747158259153366e-03 -2.674017287790775299e-02
2.395000000000000000e+03 1.948048400878906250e+01 5.669650554656982422e+00 4.868777990341186523e-01 -4.804695546627044678e-01 1.922472612932324409e-03 8.767615258693695068e-02
2.396000000000000000e+03 1.346160888671875000e+01 5.110780715942382812e+00 -8.945349603891372681e-02 1.203392259776592255e-02 -2.322587184607982635e-02 2.247334718704223633e-01
2.397000000000000000e+03 1.589365863800048828e+01 -6.288295745849609375e+00 -9.450017241761088371e-04 1.007173210382461548e-01 2.993169613182544708e-02 1.424911059439182281e-02
2.398000000000000000e+03 1.177984428405761719e+01 -3.373295783996582031e+00 -1.395543105900287628e-02 -2.222419157624244690e-02 -1.085388753563165665e-02 -5.688350275158882141e-02
2.399000000000000000e+03 7.884064197540283203e+00 3.497652053833007812e+00 -1.888909339904785156e-01 1.638570241630077362e-02 -5.175156891345977783e-02 1.433230191469192505e-01
2.400000000000000000e+03 7.669231414794921875e+00 7.578166484832763672e+00 -8.354018628597259521e-02 7.888664305210113525e-02 -1.396061619743704796e-03 1.835704892873764038e-01
2.401000000000000000e+03 8.161463737487792969e+00 4.160473823547363281e+00 -1.794359385967254639e-01 3.145967796444892883e-02 -4.439287632703781128e-02 1.571035385131835938e-01
2.402000000000000000e+03 4.505837917327880859e+00 3.700375795364379883e+00 -8.810429275035858154e-02 -3.431014716625213623e-02 -3.672433272004127502e-02 1.343645155429840088e-01
2.403000000000000000e+03 3.545223712921142578e+00 4.289628982543945312e+00 -5.764875188469886780e-02 -6.560786068439483643e-02 -3.697698190808296204e-02 1.336934268474578857e-01
2.404000000000000000e+03 4.084204196929931641e+00 5.555639743804931641e+00 -5.674827843904495239e-02 -7.815463840961456299e-02 -4.047087579965591431e-02 1.751527041196823120e-01
2.405000000000000000e+03 2.233073472976684570e+00 5.405185222625732422e+00 -2.305458858609199524e-02 -1.328691542148590088e-01 -4.677712544798851013e-02 1.154323592782020569e-01
2.406000000000000000e+03 8.625076293945312500e+00 4.903716087341308594e+00 -1.476556509733200073e-01 3.033431060612201691e-02 -3.519640117883682251e-02 1.705339252948760986e-01
2.407000000000000000e+03 6.931191444396972656e+00 5.702639102935791016e+00 -1.105002686381340027e-01 1.879533752799034119e-02 -2.751147933304309845e-02 1.899649053812026978e-01
2.408000000000000000e+03 1.898770141601562500e+01 6.792726516723632812e+00 6.663473248481750488e-01 -5.279094576835632324e-01 4.153136163949966431e-02 -2.457265183329582214e-02
2.409000000000000000e+03 2.780177688598632812e+01 7.405424118041992188e+00 2.587052345275878906e+00 7.109876632690429688e+00 2.909078836441040039e+00 -1.338800430297851562e+00
2.410000000000000000e+03 2.197716140747070312e+01 3.030647993087768555e+00 -4.216103553771972656e-01 -2.698867619037628174e-01 -2.074491381645202637e-01 5.257305502891540527e-01
2.411000000000000000e+03 2.103227233886718750e+01 7.929816246032714844e+00 5.450872778892517090e-01 4.562014639377593994e-01 3.003866076469421387e-01 -5.675548315048217773e-01
2.412000000000000000e+03 2.463047981262207031e+01 1.126485347747802734e+01 3.889861106872558594e-01 2.564782142639160156e+00 8.861304521560668945e-01 -2.502357959747314453e+00
2.413000000000000000e+03 2.521818923950195312e+01 1.053884220123291016e+01 7.766332626342773438e-01 2.786169767379760742e+00 1.068840861320495605e+00 -2.451675653457641602e+00
2.414000000000000000e+03 8.612007141113281250e+00 -4.030619621276855469e+00 -5.180039908736944199e-03 -3.554123267531394958e-02 -1.221638265997171402e-02 -3.802467137575149536e-02
2.415000000000000000e+03 9.404748916625976562e+00 -3.909373760223388672e+00 -5.638464353978633881e-03 -4.012230411171913147e-02 -1.372823026031255722e-02 -4.861751571297645569e-02
2.416000000000000000e+03 3.311060333251953125e+01 -2.427691936492919922e+00 3.918534755706787109e+00 6.200324535369873047e+00 3.035657882690429688e+00 -2.047224044799804688e+00
2.417000000000000000e+03 3.435496139526367188e+01 -4.161529064178466797e+00 2.314760684967041016e+00 6.307325839996337891e+00 2.586625814437866211e+00 -5.098895430564880371e-01
2.418000000000000000e+03 1.020306015014648438e+01 -3.750558376312255859e+00 -1.067007798701524734e-02 -3.012249618768692017e-02 -1.223777234554290771e-02 -5.197074264287948608e-02
2.419000000000000000e+03 1.664841842651367188e+01 -1.354920005798339844e+01 -1.875446587800979614e-01 3.342963159084320068e-01 4.402549937367439270e-02 -8.016873151063919067e-02
2.420000000000000000e+03 3.364722061157226562e+01 -3.555484533309936523e+00 2.525233507156372070e+00 6.506437778472900391e+00 2.709501504898071289e+00 -1.406186580657958984e+00
2.421000000000000000e+03 3.455452346801757812e+01 -1.290064525604248047e+01 1.080230325460433960e-01 2.074135780334472656e+00 6.546476483345031738e-01 -2.687242925167083740e-01
2.422000000000000000e+03 2.657137107849121094e+01 1.858612537384033203e+00 -5.436691045761108398e-01 2.307760000228881836e+00 5.292272567749023438e-01 -1.133977651596069336e+00
2.423000000000000000e+03 1.185680961608886719e+01 6.608968257904052734e+00 1.004688739776611328e-01 -3.437259048223495483e-02 1.982888579368591309e-02 6.166822463274002075e-02
2.424000000000000000e+03 5.172838592529296875e+01 -1.319719886779785156e+01 2.479047328233718872e-02 3.674247980117797852e+00 1.109711527824401855e+00 -2.152631521224975586e+00
2.425000000000000000e+03 6.672812652587890625e+01 -2.910317230224609375e+01 1.982769608497619629e+00 7.972888946533203125e+00 2.986697673797607422e+00 -2.501101016998291016e+00
2.426000000000000000e+03 6.320754241943359375e+01 -2.122649431228637695e+00 1.195105075836181641e+00 7.540989398956298828e+00 2.620828390121459961e+00 -2.739520370960235596e-02
2.427000000000000000e+03 4.174909210205078125e+01 -2.063186454772949219e+01 2.615797519683837891e+00 5.835855007171630859e+00 2.535495758056640625e+00 2.471584454178810120e-02
2.428000000000000000e+03 4.262522888183593750e+01 -2.259745407104492188e+01 3.194701910018920898e+00 4.701766967773437500e+00 2.368940591812133789e+00 3.888904154300689697e-01
2.429000000000000000e+03 4.089833068847656250e+01 -8.401833772659301758e-01 8.936820626258850098e-01 3.895467519760131836e+00 1.436744809150695801e+00 1.005925178527832031e+00
2.430000000000000000e+03 4.237927246093750000e+01 -2.444058656692504883e+00 6.473238468170166016e-01 1.302829146385192871e+00 5.850459337234497070e-01 -5.439799427986145020e-01
2.431000000000000000e+03 5.060081863403320312e+01 2.776351547241210938e+01 1.952049493789672852e+00 6.294164180755615234e+00 2.473864078521728516e+00 7.774613499641418457e-01
2.432000000000000000e+03 4.063305282592773438e+01 -1.503669643402099609e+01 -1.347499132156372070e+00 3.311794757843017578e+00 5.892887115478515625e-01 -2.534097194671630859e+00
2.433000000000000000e+03 4.571388244628906250e+01 -2.551371765136718750e+01 -5.110608339309692383e-01 3.496378660202026367e+00 8.955953717231750488e-01 -2.433783531188964844e+00
2.434000000000000000e+03 4.248338317871093750e+01 -2.585414886474609375e+01 9.964595437049865723e-01 2.193444728851318359e+00 9.569712877273559570e-01 1.289944887161254883e+00
2.435000000000000000e+03 4.746778106689453125e+01 2.504319000244140625e+01 2.300512313842773438e+00 6.670241355895996094e+00 2.691226243972778320e+00 1.352156162261962891e+00
2.436000000000000000e+03 4.964671325683593750e+01 2.114501380920410156e+01 -7.411583662033081055e-01 3.208750724792480469e+00 7.402777075767517090e-01 -5.674927234649658203e-01
2.437000000000000000e+03 2.914802551269531250e+01 3.554998397827148438e+00 -4.717192053794860840e-01 7.359589099884033203e+00 2.066360950469970703e+00 -2.458835363388061523e+00
2.438000000000000000e+03 5.701456832885742188e+01 3.450078010559082031e+00 -4.025032222270965576e-01 4.367296218872070312e+00 1.189437866210937500e+00 -1.525308378040790558e-02
2.439000000000000000e+03 4.206057739257812500e+01 9.885437965393066406e+00 -2.343844920396804810e-01 8.963318824768066406e+00 2.618680238723754883e+00 1.776238679885864258e+00
2.440000000000000000e+03 4.227499771118164062e+01 1.178385829925537109e+01 4.640237390995025635e-01 8.675567626953125000e+00 2.741877317428588867e+00 1.403698444366455078e+00
2.441000000000000000e+03 5.958601760864257812e+01 1.223793888092041016e+01 1.228716135025024414e+00 8.633238792419433594e+00 2.958586454391479492e+00 7.267379164695739746e-01
2.442000000000000000e+03 1.153094482421875000e+01 -1.150870418548583984e+01 -2.636494338512420654e-01 6.331405788660049438e-02 -6.010061129927635193e-02 -1.709887236356735229e-01
2.443000000000000000e+03 2.990374946594238281e+01 -1.542184352874755859e+01 -1.758660197257995605e+00 6.922941207885742188e+00 1.549284338951110840e+00 2.250445604324340820e+00
2.444000000000000000e+03 3.081872558593750000e+01 -1.374073791503906250e+01 -1.514354825019836426e+00 6.419761180877685547e+00 1.471621990203857422e+00 2.691418170928955078e+00
2.445000000000000000e+03 2.812310409545898438e+01 -1.559432697296142578e+01 -1.050937891006469727e+00 6.591188907623291016e+00 1.662075281143188477e+00 1.965460181236267090e+00
2.446000000000000000e+03 2.819538307189941406e+01 -1.668948745727539062e+01 -4.685745835304260254e-01 6.786285400390625000e+00 1.895313262939453125e+00 1.505722403526306152e+00
2.447000000000000000e+03 2.767646408081054688e+01 -1.602747535705566406e+01 -6.261745691299438477e-01 6.210992336273193359e+00 1.675445318222045898e+00 1.762539744377136230e+00
2.448000000000000000e+03 2.447601318359375000e+01 -1.436453151702880859e+01 -9.159422516822814941e-01 8.375633358955383301e-01 -2.351366914808750153e-02 7.046507000923156738e-01
2.449000000000000000e+03 1.812876319885253906e+01 -2.483469963073730469e+01 6.048517823219299316e-01 2.200245559215545654e-01 2.474628984928131104e-01 1.432132959365844727e+00
2.450000000000000000e+03 1.979096221923828125e+01 -2.475364112854003906e+01 4.860846102237701416e-01 -4.907813072204589844e-01 -1.409010146744549274e-03 1.360367059707641602e+00
2.451000000000000000e+03 3.550672149658203125e+01 -1.224307823181152344e+01 4.557406902313232422e-01 3.752031087875366211e+00 1.262331485748291016e+00 -1.169310092926025391e+00
2.452000000000000000e+03 2.174691581726074219e+01 -1.533895206451416016e+01 -1.937553733587265015e-01 -2.612311840057373047e-01 -1.364959627389907837e-01 -2.592839002609252930e-01
2.453000000000000000e+03 1.652836418151855469e+01 -1.445673274993896484e+01 -2.116231992840766907e-02 3.675675690174102783e-01 1.039215773344039917e-01 -1.522721499204635620e-01
2.454000000000000000e+03 2.741131401062011719e+01 1.344660568237304688e+01 -1.427821993827819824e+00 1.363915681838989258e+00 -1.917187869548797607e-02 -5.516581535339355469e-01
2.455000000000000000e+03 2.832238960266113281e+01 1.170745849609375000e+01 -1.464265733957290649e-01 3.403084754943847656e+00 9.769974350929260254e-01 -4.829882681369781494e-01
2.456000000000000000e+03 4.203981018066406250e+01 1.975248146057128906e+01 -6.278178095817565918e-01 2.546134710311889648e+00 5.754950642585754395e-01 3.922857046127319336e-01
2.457000000000000000e+03 3.899890518188476562e+01 1.642192459106445312e+01 9.537463188171386719e-01 2.989602088928222656e+00 1.183004498481750488e+00 -2.070092916488647461e+00
2.458000000000000000e+03 2.730381202697753906e+01 -1.985031318664550781e+01 2.143739223480224609e+00 7.259326934814453125e+00 2.820919752120971680e+00 1.072690486907958984e+00
2.459000000000000000e+03 2.743939590454101562e+01 -1.711953163146972656e+01 3.019250333309173584e-01 6.172054767608642578e+00 1.942193865776062012e+00 1.239961147308349609e+00
2.460000000000000000e+03 4.353881072998046875e+01 8.497945785522460938e+00 -3.599472641944885254e-01 7.371861457824707031e+00 2.103574275970458984e+00 1.326558113098144531e+00
2.461000000000000000e+03 2.294891929626464844e+01 1.244098758697509766e+01 2.060242369771003723e-02 2.786099672317504883e+00 8.420106768608093262e-01 -2.357229232788085938e+00
2.462000000000000000e+03 3.267895507812500000e+01 -1.342889118194580078e+01 -6.591044068336486816e-01 2.913804054260253906e+00 6.764099001884460449e-01 1.852346062660217285e+00
2.463000000000000000e+03 7.671861267089843750e+01 1.926289939880371094e+01 -4.907038807868957520e-01 7.693322181701660156e+00 2.160785436630249023e+00 5.894984006881713867e-01
2.464000000000000000e+03 3.581569290161132812e+01 -9.972788810729980469e+00 2.963006734848022461e+00 6.172626018524169922e+00 2.740689754486083984e+00 -7.498459815979003906e-01
2.465000000000000000e+03 4.180615997314453125e+01 1.864427185058593750e+01 4.444279968738555908e-01 3.190691232681274414e+00 1.090535759925842285e+00 -2.520683705806732178e-01
2.466000000000000000e+03 1.353863811492919922e+01 -1.188626670837402344e+01 -1.853696852922439575e-01 3.003541231155395508e-01 3.449532762169837952e-02 -1.507246792316436768e-01
2.467000000000000000e+03 8.588236808776855469e+00 7.224617481231689453e+00 -7.694690674543380737e-02 9.675098210573196411e-02 5.941221490502357483e-03 1.490509808063507080e-01
2.468000000000000000e+03 2.474914360046386719e+01 -2.250977706909179688e+01 1.797230482101440430e+00 3.088065385818481445e+00 1.465588688850402832e+00 8.388568162918090820e-01
2.469000000000000000e+03 2.644079208374023438e+01 7.777274131774902344e+00 2.418977975845336914e+00 4.108586788177490234e+00 1.958269357681274414e+00 -1.767481446266174316e+00
2.470000000000000000e+03 2.174884986877441406e+01 9.822796821594238281e+00 1.415646225214004517e-01 1.439370512962341309e+00 4.742805361747741699e-01 -1.435872197151184082e+00
2.471000000000000000e+03 2.941637229919433594e+01 -2.821252441406250000e+01 -2.305198431015014648e+00 4.788199424743652344e+00 7.449003458023071289e-01 -3.918194472789764404e-01
2.472000000000000000e+03 2.778863525390625000e+01 -2.874556350708007812e+01 -1.798104524612426758e+00 4.920760154724121094e+00 9.367966651916503906e-01 1.629693508148193359e-01
2.473000000000000000e+03 3.578771591186523438e+01 1.394842529296875000e+01 -7.548400759696960449e-01 7.224125266075134277e-01 -9.728255681693553925e-03 -1.481624484062194824e+00
2.474000000000000000e+03 3.731854629516601562e+01 -4.511027336120605469e+00 1.430971622467041016e+00 6.151842117309570312e+00 2.274844169616699219e+00 1.697251319885253906e+00
2.475000000000000000e+03 3.731373977661132812e+01 -2.205075502395629883e+00 1.154175281524658203e+00 4.516955375671386719e+00 1.701339244842529297e+00 2.919533729553222656e+00
2.476000000000000000e+03 7.167151641845703125e+01 3.879005432128906250e+00 2.559344656765460968e-02 4.320555210113525391e+00 1.303844690322875977e+00 8.643987774848937988e-01
2.477000000000000000e+03 4.285700607299804688e+01 4.215577602386474609e+00 2.042442321777343750e+00 6.139404296875000000e+00 2.454553842544555664e+00 -4.666100442409515381e-01
2.478000000000000000e+03 4.515551757812500000e+01 6.078276634216308594e+00 -1.360733360052108765e-01 4.326152324676513672e+00 1.257023572921752930e+00 -7.094923257827758789e-01
2.479000000000000000e+03 6.242256546020507812e+01 -9.259640574455261230e-01 3.312758505344390869e-01 6.773344993591308594e+00 2.131386280059814453e+00 -4.203799068927764893e-01
2.480000000000000000e+03 3.972708129882812500e+01 -1.116548895835876465e+00 5.954180955886840820e-01 4.126229286193847656e+00 1.416494250297546387e+00 2.416821479797363281e+00
2.481000000000000000e+03 5.011611557006835938e+01 2.382388496398925781e+01 9.478104114532470703e-01 4.894225120544433594e+00 1.752610683441162109e+00 -1.682643741369247437e-01
2.482000000000000000e+03 4.730649566650390625e+01 -1.544789791107177734e+01 -2.874635457992553711e+00 5.758362770080566406e+00 8.651182651519775391e-01 2.542108297348022461e+00
2.483000000000000000e+03 7.724783325195312500e+01 1.137690067291259766e+01 6.319399476051330566e-01 6.849990367889404297e+00 2.244579076766967773e+00 -2.080193161964416504e-01
2.484000000000000000e+03 7.636129760742187500e+01 1.188734054565429688e+01 9.214097261428833008e-01 7.582534790039062500e+00 2.551183462142944336e+00 4.664741456508636475e-02
2.485000000000000000e+03 7.652668762207031250e+01 -1.838187599182128906e+01 9.790855646133422852e-02 8.342665672302246094e+00 2.532172441482543945e+00 1.184382319450378418e+00
2.486000000000000000e+03 7.748013305664062500e+01 -1.919134330749511719e+01 1.776569932699203491e-01 8.001748085021972656e+00 2.453821420669555664e+00 1.029816985130310059e+00
2.487000000000000000e+03 7.726144409179687500e+01 -2.010254478454589844e+01 4.251248538494110107e-01 7.868667602539062500e+00 2.488137722015380859e+00 9.812467098236083984e-01
2.488000000000000000e+03 7.568419647216796875e+01 6.501277923583984375e+00 -6.885420531034469604e-02 7.325322628021240234e+00 2.176940679550170898e+00 -1.015183091163635254e+00
2.489000000000000000e+03 7.460655212402343750e+01 1.386889457702636719e+00 -6.119011044502258301e-01 5.898770332336425781e+00 1.586060762405395508e+00 -7.572402954101562500e-01
2.490000000000000000e+03 7.666957092285156250e+01 1.791781067848205566e+00 -4.141531884670257568e-01 7.472274780273437500e+00 2.117436408996582031e+00 -7.178313136100769043e-01
2.491000000000000000e+03 7.702146911621093750e+01 1.373778247833251953e+01 5.071333050727844238e-01 7.136717319488525391e+00 2.293155193328857422e+00 6.026254892349243164e-01
2.492000000000000000e+03 7.453900146484375000e+01 8.268481254577636719e+00 5.135431289672851562e-01 8.005036354064941406e+00 2.555573940277099609e+00 -7.474752068519592285e-01
2.493000000000000000e+03 7.568739318847656250e+01 -1.746990203857421875e+01 -1.779091507196426392e-01 8.183577537536621094e+00 2.401700496673583984e+00 1.063068985939025879e+00
2.494000000000000000e+03 7.331026458740234375e+01 6.368071079254150391e+00 -2.292189449071884155e-01 7.031360149383544922e+00 2.040642499923706055e+00 -6.568140536546707153e-02
2.495000000000000000e+03 7.493154144287109375e+01 5.767641544342041016e+00 -1.895347088575363159e-01 7.043756961822509766e+00 2.056266784667968750e+00 -8.331109881401062012e-01
2.496000000000000000e+03 7.488649749755859375e+01 9.848549842834472656e+00 9.079096317291259766e-01 8.212913513183593750e+00 2.736246824264526367e+00 -6.067067384719848633e-01
2.497000000000000000e+03 7.476747131347656250e+01 -1.561150550842285156e+01 -7.986599802970886230e-01 6.457784175872802734e+00 1.697737216949462891e+00 5.990382432937622070e-01
2.498000000000000000e+03 7.548446655273437500e+01 -1.660144996643066406e+01 -6.478539109230041504e-01 7.513432502746582031e+00 2.059673547744750977e+00 8.521215915679931641e-01
2.499000000000000000e+03 7.385610961914062500e+01 1.989874839782714844e+01 -1.423128843307495117e+00 7.371812343597412109e+00 1.784605026245117188e+00 -1.386688202619552612e-01
2.500000000000000000e+03 7.694725036621093750e+01 1.646691131591796875e+01 4.713790863752365112e-02 7.449773311614990234e+00 2.249073505401611328e+00 9.798887372016906738e-01
2.501000000000000000e+03 7.434472656250000000e+01 1.513246250152587891e+01 6.257436275482177734e-01 8.824023246765136719e+00 2.834929943084716797e+00 8.615282773971557617e-01
2.502000000000000000e+03 7.651617431640625000e+01 3.671884238719940186e-01 -7.630087733268737793e-01 7.677353382110595703e+00 2.074303388595581055e+00 -4.771251082420349121e-01
2.503000000000000000e+03 7.453948211669921875e+01 1.761368751525878906e+01 -6.867691874504089355e-01 8.106536865234375000e+00 2.225930213928222656e+00 8.243391513824462891e-01
2.504000000000000000e+03 7.689585876464843750e+01 1.782912445068359375e+01 -2.542075514793395996e-01 7.640475273132324219e+00 2.215880393981933594e+00 9.447060823440551758e-01
2.505000000000000000e+03 7.618559265136718750e+01 -2.215559005737304688e+01 1.055084228515625000e+00 8.837912559509277344e+00 2.967899084091186523e+00 4.122365415096282959e-01
2.506000000000000000e+03 7.419976043701171875e+01 3.458465957641601562e+01 5.834105238318443298e-02 6.529597759246826172e+00 1.976381659507751465e+00 3.357165753841400146e-01
2.507000000000000000e+03 7.704538726806640625e+01 -2.638523864746093750e+01 -3.258934020996093750e-01 7.686039924621582031e+00 2.208044052124023438e+00 -3.666608333587646484e-01
2.508000000000000000e+03 7.589745330810546875e+01 -2.526156234741210938e+01 -9.315026551485061646e-02 8.468972206115722656e+00 2.512746572494506836e+00 -5.592169165611267090e-01
2.509000000000000000e+03 7.663898468017578125e+01 2.381897163391113281e+01 -1.700104475021362305e-01 7.289142131805419922e+00 2.135739564895629883e+00 -2.792034447193145752e-01
2.510000000000000000e+03 7.520920562744140625e+01 2.249519729614257812e+01 -5.087686181068420410e-01 7.034452915191650391e+00 1.957705259323120117e+00 -3.277734816074371338e-01
2.511000000000000000e+03 7.665330505371093750e+01 2.523768424987792969e+01 -8.457922190427780151e-02 7.165895462036132812e+00 2.124394893646240234e+00 -3.560633063316345215e-01
2.512000000000000000e+03 7.667771911621093750e+01 2.795749473571777344e+01 9.748339653015136719e-02 7.008882999420166016e+00 2.131909847259521484e+00 -2.547519207000732422e-01
2.513000000000000000e+03 7.529184722900390625e+01 2.815299987792968750e+01 3.054784238338470459e-01 6.520759105682373047e+00 2.047871351242065430e+00 -2.826375663280487061e-01
2.514000000000000000e+03 7.613703155517578125e+01 -3.314335250854492188e+01 2.397243678569793701e-01 6.627463817596435547e+00 2.060156345367431641e+00 -2.377617359161376953e-02
2.515000000000000000e+03 7.700620269775390625e+01 -3.018683242797851562e+01 -9.549549221992492676e-02 7.103159427642822266e+00 2.102299213409423828e+00 8.519528061151504517e-02
2.516000000000000000e+03 7.589263153076171875e+01 -3.726922225952148438e+01 -7.352189719676971436e-02 7.024352550506591797e+00 2.085249185562133789e+00 -3.956643640995025635e-01
2.517000000000000000e+03 7.664553070068359375e+01 3.053114509582519531e+01 1.489238142967224121e-01 6.934855461120605469e+00 2.125133752822875977e+00 -1.472643949091434479e-02
2.518000000000000000e+03 7.603060150146484375e+01 -2.890758895874023438e+01 -3.753568232059478760e-01 7.153495311737060547e+00 2.033441543579101562e+00 1.904289275407791138e-01
2.519000000000000000e+03 7.471916198730468750e+01 -2.974109268188476562e+01 -1.638443470001220703e-01 6.451625347137451172e+00 1.886334300041198730e+00 6.059848070144653320e-01
2.520000000000000000e+03 7.549970245361328125e+01 3.043937492370605469e+01 3.165760040283203125e-01 6.621857166290283203e+00 2.081529855728149414e+00 -1.178192719817161560e-02
2.521000000000000000e+03 2.379862976074218750e+01 1.284298229217529297e+01 -4.686956405639648438e-01 2.546205997467041016e+00 6.232531070709228516e-01 -2.340853214263916016e+00
2.522000000000000000e+03 2.775481796264648438e+01 1.268990039825439453e+01 -1.524224162101745605e+00 2.669257879257202148e+00 3.435100913047790527e-01 -4.140389263629913330e-01
2.523000000000000000e+03 4.627514648437500000e+01 -2.423186492919921875e+01 5.835608839988708496e-01 5.277483463287353516e+00 1.758313417434692383e+00 -2.170639753341674805e+00
2.524000000000000000e+03 2.279185676574707031e+01 3.103553771972656250e+01 4.480854272842407227e-01 2.572858572006225586e+00 9.062831997871398926e-01 4.340580403804779053e-01
2.525000000000000000e+03 4.340806198120117188e+01 -1.820286369323730469e+01 1.946166992187500000e+00 4.043618679046630859e+00 1.796935677528381348e+00 2.249144576489925385e-02
2.526000000000000000e+03 4.213159084320068359e+00 2.217027091979980469e+01 1.102311834692955017e-01 -3.330602496862411499e-02 2.307754941284656525e-02 4.052614793181419373e-02
2.527000000000000000e+03 3.143996000289916992e+00 2.055425453186035156e+01 9.739694651216268539e-04 -4.540077447891235352e-01 -1.359101235866546631e-01 1.491284668445587158e-01
2.528000000000000000e+03 3.108255147933959961e+00 2.574332809448242188e+01 3.038233816623687744e-01 -2.881606221199035645e-01 4.698835313320159912e-03 -2.237169593572616577e-01
2.529000000000000000e+03 3.905852317810058594e+00 2.329538536071777344e+01 1.578900516033172607e-01 -7.155655324459075928e-02 2.590005286037921906e-02 3.090979531407356262e-02
2.530000000000000000e+03 4.361447811126708984e+00 -2.194315338134765625e+01 1.753653585910797119e-01 8.729401975870132446e-02 7.879781723022460938e-02 -1.115277186036109924e-01
2.531000000000000000e+03 5.373622417449951172e+00 2.277350997924804688e+01 2.127833962440490723e-01 4.393734931945800781e-01 1.956470608711242676e-01 -4.499450698494911194e-02
2.532000000000000000e+03 4.216510295867919922e+00 -1.732717514038085938e+01 -1.456454098224639893e-01 1.118125244975090027e-01 -1.014986541122198105e-02 -2.562569379806518555e-01
2.533000000000000000e+03 7.125794887542724609e+00 1.488883590698242188e+01 9.409037977457046509e-02 2.674138247966766357e-01 1.084512621164321899e-01 1.502877324819564819e-01
2.534000000000000000e+03 4.882937908172607422e+00 1.965012550354003906e+01 5.371272098273038864e-03 -1.502041239291429520e-02 -2.894742181524634361e-03 1.060395613312721252e-01
2.535000000000000000e+03 5.095527172088623047e+00 1.811712455749511719e+01 1.621280051767826080e-02 3.122535720467567444e-02 1.423144713044166565e-02 1.139966696500778198e-01
2.536000000000000000e+03 4.583999156951904297e+00 -1.369528198242187500e+01 -1.427909284830093384e-01 -9.535145759582519531e-02 -7.144271582365036011e-02 -1.302253901958465576e-01
2.537000000000000000e+03 3.807592868804931641e+00 -1.427478599548339844e+01 -1.347306668758392334e-01 -9.593519568443298340e-02 -6.919975578784942627e-02 -1.498567312955856323e-01
2.538000000000000000e+03 3.071125507354736328e+00 -2.563221740722656250e+01 2.939279749989509583e-02 -3.403561413288116455e-01 -9.328900277614593506e-02 -1.250578369945287704e-02
2.539000000000000000e+03 3.251325607299804688e+00 -2.698336219787597656e+01 2.332741580903530121e-02 -3.318089544773101807e-01 -9.254445880651473999e-02 -4.890957381576299667e-03
2.540000000000000000e+03 6.497373104095458984e+00 -2.614994621276855469e+01 1.469464302062988281e-01 1.919346004724502563e-01 1.016643121838569641e-01 -1.517685055732727051e-01
2.541000000000000000e+03 6.384397983551025391e+00 1.594025039672851562e+01 4.834764450788497925e-02 1.508145034313201904e-01 5.974864214658737183e-02 1.357747763395309448e-01
2.542000000000000000e+03 4.261394977569580078e+00 1.414025974273681641e+01 1.835517026484012604e-02 -2.244219928979873657e-01 -6.182004883885383606e-02 2.016188800334930420e-01
2.543000000000000000e+03 4.820260047912597656e+00 8.898816108703613281e+00 -2.112904936075210571e-02 -8.866657316684722900e-02 -3.293868526816368103e-02 2.384129166603088379e-01
2.544000000000000000e+03 4.091173171997070312e+00 -9.388335227966308594e+00 -3.991194069385528564e-02 -4.938342049717903137e-02 -2.678860910236835480e-02 -1.010615285485982895e-02
2.545000000000000000e+03 2.802428722381591797e+00 -1.058018398284912109e+01 -4.016419500112533569e-02 -2.423407323658466339e-02 -1.931948028504848480e-02 -1.818522997200489044e-02
2.546000000000000000e+03 3.231379508972167969e+00 3.449139022827148438e+01 -1.861855685710906982e-01 1.024990007281303406e-01 -2.510597184300422668e-02 -2.428296208381652832e-01
2.547000000000000000e+03 3.237812995910644531e+00 -3.110339546203613281e+01 1.115566790103912354e-01 -2.760713100433349609e-01 -4.935438930988311768e-02 1.786075532436370850e-01
2.548000000000000000e+03 4.471118450164794922e+00 -2.967517280578613281e+01 1.608953028917312622e-01 -1.189473792910575867e-01 1.258437708020210266e-02 1.322219520807266235e-01
2.549000000000000000e+03 6.211124897003173828e+00 9.144999504089355469e+00 -3.501475974917411804e-02 3.643217682838439941e-02 4.252255312167108059e-04 2.360659688711166382e-01
2.550000000000000000e+03 4.703657627105712891e+00 -5.795552730560302734e+00 -1.187062589451670647e-03 -3.251014649868011475e-02 -1.010916288942098618e-02 1.031087618321180344e-02
2.551000000000000000e+03 2.746460676193237305e+00 -1.194310283660888672e+01 -3.765880689024925232e-02 -4.032108932733535767e-02 -2.339396812021732330e-02 -4.572159051895141602e-02
2.552000000000000000e+03 7.817102909088134766e+00 -3.406127166748046875e+01 2.072663307189941406e-01 5.159054398536682129e-01 2.169515341520309448e-01 5.606662631034851074e-01
2.553000000000000000e+03 4.535736560821533203e+00 -3.194932174682617188e+01 1.766792833805084229e-01 -3.671031072735786438e-02 4.199069365859031677e-02 2.784577906131744385e-01
2.554000000000000000e+03 3.345512628555297852e+00 -3.234721755981445312e+01 6.427992135286331177e-02 -2.142983376979827881e-01 -4.500552639365196228e-02 2.213386148214340210e-01
2.555000000000000000e+03 3.044914960861206055e+00 6.702154159545898438e+00 -2.692347578704357147e-02 -1.482089161872863770e-01 -5.253971740603446960e-02 1.718547940254211426e-01
2.556000000000000000e+03 4.127010822296142578e+00 9.871219635009765625e+00 -4.815821070224046707e-03 -1.664350926876068115e-01 -5.137527361512184143e-02 2.327341735363006592e-01
2.557000000000000000e+03 3.601307630538940430e+00 -4.923922061920166016e+00 4.751308821141719818e-03 -9.956783615052700043e-03 -1.561642391607165337e-03 1.941148191690444946e-02
2.558000000000000000e+03 2.719340801239013672e+00 -6.247559547424316406e+00 3.992858342826366425e-03 6.453421083278954029e-04 1.391460187733173370e-03 2.146741747856140137e-02
2.559000000000000000e+03 3.133096933364868164e+00 5.609578609466552734e+00 -3.919890895485877991e-02 -1.152594462037086487e-01 -4.633750766515731812e-02 1.528547257184982300e-01
2.560000000000000000e+03 4.117973327636718750e+00 6.637149333953857422e+00 -4.535976424813270569e-02 -1.006045863032341003e-01 -4.378930479288101196e-02 1.974174231290817261e-01
2.561000000000000000e+03 5.125533580780029297e+00 -3.684366989135742188e+01 -6.296600401401519775e-02 2.413054406642913818e-01 5.350182950496673584e-02 3.918523490428924561e-01
2.562000000000000000e+03 6.792562007904052734e+00 -3.416413116455078125e+01 1.906304061412811279e-01 4.253713488578796387e-01 1.848005354404449463e-01 4.968583285808563232e-01
2.563000000000000000e+03 5.077740669250488281e+00 3.873841094970703125e+01 -2.828786708414554596e-02 -5.791745334863662720e-02 -2.586159668862819672e-02 1.054104138165712357e-02
2.564000000000000000e+03 3.559177398681640625e+00 3.702744674682617188e+01 -1.133393794298171997e-01 8.371848613023757935e-02 -8.886267431080341339e-03 -3.676563873887062073e-02
2.565000000000000000e+03 1.392741012573242188e+01 2.083263969421386719e+01 8.287968039512634277e-01 -1.580775976181030273e-01 2.012157589197158813e-01 -2.125055193901062012e-01
2.566000000000000000e+03 7.550915527343750000e+01 1.256012535095214844e+01 1.074560999870300293e+00 8.009572982788085938e+00 2.725240230560302734e+00 2.920643687248229980e-01
2.567000000000000000e+03 6.354954719543457031e+00 -3.581590270996093750e+01 -3.320057410746812820e-03 4.212550520896911621e-01 1.253805011510848999e-01 4.854828119277954102e-01
2.568000000000000000e+03 6.573729705810546875e+01 2.628627204895019531e+01 2.325179100036621094e+00 4.933060169219970703e+00 2.177471637725830078e+00 1.292947649955749512e+00
2.569000000000000000e+03 1.340578460693359375e+01 1.962800979614257812e+01 8.993576169013977051e-01 5.941612273454666138e-02 2.876321077346801758e-01 -1.304020583629608154e-01
2.570000000000000000e+03 4.853916168212890625e+01 -1.119794654846191406e+01 2.049006938934326172e+00 8.033926010131835938e+00 3.024879932403564453e+00 5.256013274192810059e-01
2.571000000000000000e+03 1.118483257293701172e+01 1.851081657409667969e+01 5.807167291641235352e-01 2.774005234241485596e-01 2.574351727962493896e-01 3.821774944663047791e-02
2.572000000000000000e+03 2.353572082519531250e+01 -2.439659500122070312e+01 6.595712900161743164e-01 1.881497025489807129e+00 7.623205184936523438e-01 6.285163760185241699e-01
2.573000000000000000e+03 2.469099998474121094e+01 -2.507037353515625000e+01 5.928795784711837769e-02 3.365009784698486328e+00 1.027289271354675293e+00 8.025079369544982910e-01
2.574000000000000000e+03 1.854059791564941406e+01 -1.971749877929687500e+01 9.462280273437500000e-01 4.449255764484405518e-02 2.972161769866943359e-01 3.148858249187469482e-01
2.575000000000000000e+03 1.759578514099121094e+01 -2.036655426025390625e+01 8.636885881423950195e-01 1.637015640735626221e-01 3.082170486450195312e-01 5.027377009391784668e-01
2.576000000000000000e+03 2.841791915893554688e+01 -2.558506774902343750e+01 -8.379785418510437012e-01 6.196607589721679688e+00 1.607588768005371094e+00 3.821049332618713379e-01
2.577000000000000000e+03 2.279255676269531250e+01 -2.536202239990234375e+01 1.773746907711029053e-01 1.058493137359619141e+00 3.707603514194488525e-01 5.907880663871765137e-01
2.578000000000000000e+03 2.162196350097656250e+01 -2.450885963439941406e+01 7.519607543945312500e-01 1.030910760164260864e-01 2.565155625343322754e-01 8.112314343452453613e-01
2.579000000000000000e+03 5.990547943115234375e+01 2.106367683410644531e+01 -8.719893097877502441e-01 4.583695888519287109e+00 1.113512039184570312e+00 1.864926576614379883e+00
2.580000000000000000e+03 5.257950973510742188e+01 1.721588492393493652e+00 -5.950824022293090820e-01 5.010382175445556641e+00 1.324589848518371582e+00 2.275652170181274414e+00
2.581000000000000000e+03 2.021491432189941406e+01 2.077596855163574219e+01 1.138162493705749512e+00 3.853194475173950195e+00 1.497407078742980957e+00 -1.512698233127593994e-01
2.582000000000000000e+03 6.433261871337890625e+01 3.638305425643920898e+00 -2.345773130655288696e-01 2.808103799819946289e+00 7.720579504966735840e-01 -1.990983486175537109e-01
2.583000000000000000e+03 6.655173492431640625e+01 4.486578941345214844e+00 -9.570958465337753296e-02 1.329547047615051270e+00 3.701512515544891357e-01 1.373205423355102539e+00
2.584000000000000000e+03 4.113238906860351562e+01 -1.987812995910644531e+01 2.246649026870727539e+00 5.554750919342041016e+00 2.340420007705688477e+00 -1.211349129676818848e+00
2.585000000000000000e+03 6.613420104980468750e+01 1.536376476287841797e+00 1.311522871255874634e-01 3.532106399536132812e+00 1.098977565765380859e+00 1.372256040573120117e+00
2.586000000000000000e+03 4.563751602172851562e+01 -2.190667724609375000e+01 3.292805194854736328e+00 5.985409259796142578e+00 2.783464431762695312e+00 -7.696626186370849609e-01
2.587000000000000000e+03 4.496846389770507812e+01 -2.111483764648437500e+01 3.449172973632812500e+00 5.783514022827148438e+00 2.769806146621704102e+00 -5.760172605514526367e-01
2.588000000000000000e+03 6.693325042724609375e+01 2.340343666076660156e+01 6.353576779365539551e-01 2.305674314498901367e+00 8.823095560073852539e-01 2.638721466064453125e-01
2.589000000000000000e+03 6.609856414794921875e+01 2.174863815307617188e+01 -6.679150462150573730e-01 6.678701043128967285e-01 -1.348879868601216003e-05 9.909289479255676270e-01
2.590000000000000000e+03 3.647933959960937500e+01 -1.804407835006713867e+00 1.797079324722290039e+00 4.091692924499511719e+00 1.766631603240966797e+00 3.015979528427124023e+00
2.591000000000000000e+03 3.648848724365234375e+01 -3.617277741432189941e-01 1.326419353485107422e+00 3.291296243667602539e+00 1.385314702987670898e+00 3.966074228286743164e+00
2.592000000000000000e+03 6.057633972167968750e+01 -2.474705696105957031e+01 7.284509539604187012e-01 2.206524133682250977e+00 8.804925084114074707e-01 1.968191415071487427e-01
2.593000000000000000e+03 4.283101654052734375e+01 -2.365862464904785156e+01 2.517034292221069336e+00 4.182452678680419922e+00 2.009846210479736328e+00 8.377327322959899902e-01
2.594000000000000000e+03 5.543346405029296875e+01 4.153161048889160156e+00 -6.720950007438659668e-01 5.726718425750732422e+00 1.516386985778808594e+00 1.408136487007141113e+00
2.595000000000000000e+03 6.436746978759765625e+01 -1.016774415969848633e+00 5.138140320777893066e-01 6.382961750030517578e+00 2.069032669067382812e+00 7.519034743309020996e-01
2.596000000000000000e+03 7.466836547851562500e+01 -1.835462570190429688e+01 5.772961303591728210e-02 8.379302024841308594e+00 2.531109571456909180e+00 5.574340224266052246e-01
2.597000000000000000e+03 7.361927032470703125e+01 7.833926677703857422e+00 3.151660859584808350e-01 8.014801979064941406e+00 2.498990297317504883e+00 -1.978038549423217773e-01
2.598000000000000000e+03 8.306835174560546875e+00 9.811252593994140625e+00 -2.153573557734489441e-02 2.542433142662048340e-01 6.981227546930313110e-02 1.735740751028060913e-01
2.599000000000000000e+03 7.329344272613525391e+00 1.115059280395507812e+01 3.047451749444007874e-02 2.086658477783203125e-01 7.174210995435714722e-02 2.210587859153747559e-01
2.600000000000000000e+03 6.464161682128906250e+01 2.510924530029296875e+01 1.820016503334045410e+00 5.710649490356445312e+00 2.259199619293212891e+00 1.662711977958679199e+00
2.601000000000000000e+03 3.118668174743652344e+01 3.159272384643554688e+01 2.065924555063247681e-01 3.672176122665405273e+00 1.163630604743957520e+00 -1.463343262672424316e+00
2.602000000000000000e+03 7.415229034423828125e+01 -2.737230300903320312e+01 -8.687039017677307129e-01 7.165394306182861328e+00 1.889007091522216797e+00 8.934835791587829590e-01
2.603000000000000000e+03 3.486445617675781250e+01 -3.274659729003906250e+01 1.716280698776245117e+00 1.594041347503662109e+00 9.930965900421142578e-01 9.451687932014465332e-01
2.604000000000000000e+03 3.547226715087890625e+01 -3.000020980834960938e+01 1.968277543783187866e-01 -9.794723242521286011e-02 2.966415695846080780e-02 5.471251606941223145e-01
2.605000000000000000e+03 7.196591949462890625e+01 -3.206932067871093750e+01 1.428851246833801270e+00 4.834987640380859375e+00 1.879151701927185059e+00 -3.441315889358520508e-01
2.606000000000000000e+03 1.072991847991943359e+01 -1.053955745697021484e+01 -1.799720078706741333e-01 -2.640687674283981323e-02 -6.191366538405418396e-02 -1.315992921590805054e-01
2.607000000000000000e+03 8.358998298645019531e+00 -1.136362648010253906e+01 -1.788018196821212769e-01 -1.759994626045227051e-01 -1.064403876662254333e-01 -8.791618794202804565e-02
2.608000000000000000e+03 5.388942337036132812e+01 1.612129449844360352e+00 -1.374254941940307617e+00 4.795069217681884766e+00 1.026244401931762695e+00 2.456278085708618164e+00
2.609000000000000000e+03 5.387125778198242188e+01 2.823694467544555664e+00 -6.688011884689331055e-01 4.739183425903320312e+00 1.221114635467529297e+00 2.596479415893554688e+00
2.610000000000000000e+03 5.197242736816406250e+01 -3.203840637207031250e+01 3.046212911605834961e+00 6.939023971557617188e+00 2.995571136474609375e+00 -7.041072845458984375e-01
2.611000000000000000e+03 5.201035690307617188e+01 -2.974836921691894531e+01 2.306262731552124023e+00 5.863236427307128906e+00 2.450849771499633789e+00 -3.020481765270233154e-01
2.612000000000000000e+03 1.257496929168701172e+01 -2.777100563049316406e+01 8.088899254798889160e-01 1.142483949661254883e+00 5.854122042655944824e-01 5.135762691497802734e-01
2.613000000000000000e+03 6.350282287597656250e+01 2.263654518127441406e+01 -1.253949999809265137e+00 5.566672325134277344e+00 1.293816685676574707e+00 3.355770111083984375e+00
2.614000000000000000e+03 6.459998321533203125e+01 2.397446632385253906e+01 6.363291144371032715e-01 5.021889686584472656e+00 1.697465538978576660e+00 1.812884688377380371e+00
2.615000000000000000e+03 3.504037475585937500e+01 2.019253921508789062e+01 2.569634914398193359e-01 4.758919239044189453e+00 1.504764914512634277e+00 -1.491288185119628906e+00
2.616000000000000000e+03 3.421696472167968750e+01 1.888470077514648438e+01 5.603346824645996094e-01 4.790568828582763672e+00 1.605271100997924805e+00 -1.095589756965637207e+00
2.617000000000000000e+03 5.976067733764648438e+01 -1.300195980072021484e+01 -4.935151338577270508e-01 5.224577903747558594e+00 1.419318795204162598e+00 1.160089373588562012e+00
2.618000000000000000e+03 6.017424392700195312e+01 -1.179545307159423828e+01 -8.410517573356628418e-01 5.835001468658447266e+00 1.498184919357299805e+00 1.837949395179748535e+00
2.619000000000000000e+03 5.257222747802734375e+01 4.287486076354980469e+00 -1.942785829305648804e-01 4.383999347686767578e+00 1.256916284561157227e+00 3.658951044082641602e+00
2.620000000000000000e+03 5.139408111572265625e+01 -6.962617874145507812e+00 1.991279363632202148e+00 7.711360454559326172e+00 2.910791873931884766e+00 -2.323693362995982170e-03
2.621000000000000000e+03 7.073110961914062500e+01 2.114868736267089844e+01 -1.507312178611755371e+00 4.586261749267578125e+00 9.236847758293151855e-01 -1.260742425918579102e+00
2.622000000000000000e+03 7.168808746337890625e+01 2.182433700561523438e+01 -1.309192299842834473e+00 5.691603660583496094e+00 1.314723491668701172e+00 -1.258445024490356445e+00
2.623000000000000000e+03 1.045674228668212891e+01 -2.707834243774414062e+01 5.425202250480651855e-01 6.244229078292846680e-01 3.500829339027404785e-01 1.280171871185302734e-01
2.624000000000000000e+03 1.202043247222900391e+01 -2.876705360412597656e+01 7.640121579170227051e-01 1.181059122085571289e+00 5.835213661193847656e-01 4.954491853713989258e-01
2.625000000000000000e+03 5.711730575561523438e+01 1.447732830047607422e+01 1.572895288467407227e+00 7.591946125030517578e+00 2.749452352523803711e+00 1.034967660903930664e+00
2.626000000000000000e+03 2.771113014221191406e+01 -3.246786880493164062e+01 -4.645441100001335144e-02 4.108440399169921875e+00 1.218595743179321289e+00 -1.331150680780410767e-01
2.627000000000000000e+03 3.046029281616210938e+01 -3.278295135498046875e+01 1.983295679092407227e-01 2.615715026855468750e+00 8.442134261131286621e-01 -4.161157310009002686e-01
2.628000000000000000e+03 5.490472793579101562e+01 5.273675441741943359e+00 -5.504113808274269104e-02 6.606178760528564453e+00 1.965341329574584961e+00 1.288185596466064453e+00
2.629000000000000000e+03 1.872634315490722656e+01 2.431524276733398438e+01 -5.287233591079711914e-01 1.802399754524230957e+00 3.821029365062713623e-01 3.035203218460083008e-01
2.630000000000000000e+03 5.697198104858398438e+01 -1.651791572570800781e+01 4.408883154392242432e-01 6.168718814849853516e+00 1.982882142066955566e+00 -6.356495618820190430e-01
2.631000000000000000e+03 5.758979034423828125e+01 -1.218741416931152344e+01 4.429170191287994385e-01 2.763878345489501953e+00 9.620385766029357910e-01 -2.388235330581665039e-01
2.632000000000000000e+03 5.250505065917968750e+01 -2.668241691589355469e+01 -1.040724158287048340e+00 2.577639579772949219e+00 4.610746204853057861e-01 1.211587071418762207e+00
2.633000000000000000e+03 4.886025238037109375e+01 2.611722564697265625e+01 2.167549371719360352e+00 6.279105186462402344e+00 2.533996343612670898e+00 9.496685266494750977e-01
2.634000000000000000e+03 3.609740829467773438e+01 -1.304454326629638672e+01 -8.966189026832580566e-01 3.657301425933837891e+00 8.282048106193542480e-01 -2.147460699081420898e+00
2.635000000000000000e+03 4.972660446166992188e+01 1.991741776466369629e+00 6.978119611740112305e-01 3.143987894058227539e+00 1.152539968490600586e+00 5.921354144811630249e-02
2.636000000000000000e+03 4.981899642944335938e+01 3.760545253753662109e+00 3.654128909111022949e-01 1.271984577178955078e+00 4.912192523479461670e-01 7.773149013519287109e-01
2.637000000000000000e+03 6.426861572265625000e+01 -9.093255043029785156e+00 8.733731508255004883e-01 8.126306533813476562e+00 2.699903964996337891e+00 -3.491497039794921875e-02
2.638000000000000000e+03 6.347793960571289062e+01 -1.530742740631103516e+01 -1.499173045158386230e+00 6.322093009948730469e+00 1.446876049041748047e+00 5.466532111167907715e-01
2.639000000000000000e+03 5.151872634887695312e+00 -9.903367996215820312e+00 -4.620737582445144653e-02 -9.887480735778808594e-02 -4.352465271949768066e-02 -2.018742449581623077e-02
2.640000000000000000e+03 5.791911697387695312e+01 -2.605111503601074219e+01 -1.791974782943725586e+00 6.221629142761230469e+00 1.328896403312683105e+00 1.940349936485290527e+00
2.641000000000000000e+03 1.488086891174316406e+01 -2.421441459655761719e+01 3.568134307861328125e-01 8.425915241241455078e-01 3.598214685916900635e-01 7.126792073249816895e-01
2.642000000000000000e+03 1.666487884521484375e+01 -2.461870574951171875e+01 4.214027822017669678e-01 8.124645948410034180e-01 3.701602220535278320e-01 1.112964630126953125e+00
2.643000000000000000e+03 4.955218887329101562e+01 -2.641037750244140625e+01 -1.816822648048400879e+00 3.885200738906860352e+00 6.205134391784667969e-01 -2.915821313858032227e+00
2.644000000000000000e+03 7.174832916259765625e+01 7.025617599487304688e+00 -8.398779481649398804e-02 6.671639919281005859e+00 1.976295709609985352e+00 1.007124304771423340e+00
2.645000000000000000e+03 6.863480377197265625e+01 3.075106382369995117e+00 3.548255264759063721e-01 2.232539653778076172e+00 7.762095332145690918e-01 2.269794940948486328e+00
2.646000000000000000e+03 5.359909820556640625e+01 2.053835868835449219e+01 -1.393365979194641113e+00 4.313391208648681641e+00 8.760074973106384277e-01 -2.548391580581665039e+00
2.647000000000000000e+03 6.118318939208984375e+01 -1.242987346649169922e+01 -1.101683259010314941e+00 6.447153568267822266e+00 1.603641152381896973e+00 1.256860494613647461e+00
2.648000000000000000e+03 1.375276470184326172e+01 -2.524330329895019531e+01 3.770940601825714111e-01 9.056828618049621582e-01 3.848330676555633545e-01 5.495416522026062012e-01
2.649000000000000000e+03 4.030101776123046875e+01 3.867940902709960938e-01 8.155820369720458984e-01 5.464675903320312500e+00 1.884077310562133789e+00 1.285449862480163574e+00
2.650000000000000000e+03 7.389662170410156250e+01 2.286581420898437500e+01 -7.158198952674865723e-01 6.548840999603271484e+00 1.749906420707702637e+00 -5.835692882537841797e-01
2.651000000000000000e+03 5.293491744995117188e+01 -1.168370056152343750e+01 6.168631315231323242e-01 4.157630443572998047e+00 1.432348012924194336e+00 -2.543274402618408203e+00
2.652000000000000000e+03 5.320429229736328125e+01 -2.744833374023437500e+01 -3.216789364814758301e-01 3.944831848144531250e+00 1.086945891380310059e+00 1.449300765991210938e+00
2.653000000000000000e+03 6.441601562500000000e+01 4.917708396911621094e+00 -6.509332656860351562e-01 1.955071210861206055e+00 3.912413716316223145e-01 -7.789617180824279785e-01
2.654000000000000000e+03 6.165608596801757812e+01 5.582551956176757812e+00 -9.355263113975524902e-01 4.243771553039550781e+00 9.924735426902770996e-01 -1.658058762550354004e+00
2.655000000000000000e+03 5.671472930908203125e+01 -2.545981788635253906e+01 -1.564892649650573730e+00 7.292274951934814453e+00 1.718214750289916992e+00 1.657207846641540527e+00
2.656000000000000000e+03 2.686971664428710938e+01 3.552714538574218750e+01 -1.308519691228866577e-01 2.445488691329956055e+00 6.943910121917724609e-01 -3.494115471839904785e-01
2.657000000000000000e+03 4.997195053100585938e+01 2.870555686950683594e+01 1.823195815086364746e+00 6.434675693511962891e+00 2.477361440658569336e+00 7.327316999435424805e-01
2.658000000000000000e+03 4.933112335205078125e+01 3.064426422119140625e+01 1.182057976722717285e+00 6.239206314086914062e+00 2.226379156112670898e+00 6.755449175834655762e-01
2.659000000000000000e+03 4.374003219604492188e+01 3.630607604980468750e+01 -1.218777537345886230e+00 2.452944755554199219e+00 3.702501952648162842e-01 -1.150721788406372070e+00
2.660000000000000000e+03 4.247957611083984375e+01 3.779149627685546875e+01 -7.167215943336486816e-01 1.881259441375732422e+00 3.493613600730895996e-01 -6.320331692695617676e-01
2.661000000000000000e+03 7.726537704467773438e+00 -2.466820716857910156e+01 1.064231619238853455e-01 2.823539078235626221e-01 1.166331171989440918e-01 -2.775424718856811523e-01
2.662000000000000000e+03 5.397727012634277344e+00 -2.496165084838867188e+01 7.142059504985809326e-02 1.620892137289047241e-01 7.005294412374496460e-02 -1.295375376939773560e-01
2.663000000000000000e+03 9.490348815917968750e+00 6.814573764801025391e+00 -7.484827935695648193e-02 5.964255705475807190e-02 -4.561715293675661087e-03 1.180326491594314575e-01
2.664000000000000000e+03 6.759372711181640625e+01 -1.370577621459960938e+01 -3.934621214866638184e-01 1.519067764282226562e+00 3.376816809177398682e-01 -7.194298505783081055e-01
2.665000000000000000e+03 7.274591827392578125e+01 4.107142257690429688e+01 -3.130304813385009766e-01 6.344401836395263672e+00 1.809411406517028809e+00 9.730026125907897949e-02
2.666000000000000000e+03 6.952458190917968750e+01 -3.042162132263183594e+01 2.084831476211547852e+00 4.043889999389648438e+00 1.838616371154785156e+00 -9.776446819305419922e-01
2.667000000000000000e+03 3.292699432373046875e+01 2.860313606262207031e+01 1.047086954116821289e+00 5.896740436553955078e+00 2.083148241043090820e+00 -9.492053389549255371e-01
2.668000000000000000e+03 5.918057250976562500e+01 4.636381626129150391e+00 -4.402886033058166504e-01 4.957436084747314453e+00 1.355144262313842773e+00 -1.719109416007995605e+00
2.669000000000000000e+03 3.153443145751953125e+01 2.052855253219604492e+00 -2.964005947113037109e+00 5.906969070434570312e+00 8.828890323638916016e-01 -1.737411737442016602e+00
2.670000000000000000e+03 5.716318511962890625e+01 7.833794593811035156e+00 1.361379742622375488e+00 7.464373111724853516e+00 2.647725820541381836e+00 5.758736729621887207e-01
2.671000000000000000e+03 5.983746337890625000e+01 7.942668437957763672e+00 1.903865188360214233e-01 5.729198455810546875e+00 1.775875449180603027e+00 -7.908156514167785645e-01
2.672000000000000000e+03 4.470904541015625000e+01 5.099670886993408203e-01 1.339689731597900391e+00 3.538297414779663086e+00 1.463396191596984863e+00 -2.100215911865234375e+00
2.673000000000000000e+03 2.229724884033203125e+01 3.392488098144531250e+01 -2.241552434861660004e-02 2.703555345535278320e+00 8.043419122695922852e-01 2.174993753433227539e-01
2.674000000000000000e+03 5.082259368896484375e+01 3.057230949401855469e+01 1.262590169906616211e+00 6.940860271453857422e+00 2.461035013198852539e+00 7.640552520751953125e-01
2.675000000000000000e+03 5.117966461181640625e+01 3.535914611816406250e+01 -1.002251386642456055e+00 5.971576213836669922e+00 1.490797519683837891e+00 5.083679780364036560e-02
2.676000000000000000e+03 7.237551116943359375e+01 2.102473449707031250e+01 -1.549616098403930664e+00 6.352256774902343750e+00 1.440792202949523926e+00 -7.083208560943603516e-01
2.677000000000000000e+03 5.554263305664062500e+01 1.645580863952636719e+01 5.752846598625183105e-01 5.558302402496337891e+00 1.840076088905334473e+00 -6.856116652488708496e-01
2.678000000000000000e+03 3.340438461303710938e+01 1.542602920532226562e+01 -9.106578230857849121e-01 2.923178672790527344e+00 6.037561893463134766e-01 1.025978177785873413e-01
2.679000000000000000e+03 4.710263824462890625e+01 -1.937990188598632812e+00 9.209610223770141602e-01 4.364278316497802734e+00 1.585571765899658203e+00 -2.064581871032714844e+00
2.680000000000000000e+03 2.496751022338867188e+01 -2.709678077697753906e+01 -1.443217754364013672e+00 3.826311349868774414e+00 7.149280905723571777e-01 6.468337178230285645e-01
2.681000000000000000e+03 4.879471969604492188e+01 -4.716451644897460938e+00 1.416717648506164551e+00 6.795313358306884766e+00 2.463609218597412109e+00 -5.356829166412353516e-01
2.682000000000000000e+03 4.931435775756835938e+01 -3.525238752365112305e+00 1.416936397552490234e+00 6.484588623046875000e+00 2.370457410812377930e+00 -8.564139604568481445e-01
2.683000000000000000e+03 6.742877960205078125e+01 3.773363876342773438e+01 -6.496176123619079590e-01 5.112697124481201172e+00 1.338923811912536621e+00 2.515690028667449951e-01
2.684000000000000000e+03 6.234579467773437500e+01 4.135688018798828125e+01 -2.295388430356979370e-01 2.402478456497192383e+00 6.518818736076354980e-01 -1.902561336755752563e-01
2.685000000000000000e+03 3.585513687133789062e+01 -3.611497497558593750e+01 -7.847727835178375244e-02 3.481808900833129883e+00 1.020999431610107422e+00 1.470656275749206543e+00
2.686000000000000000e+03 3.717084121704101562e+01 -3.768829345703125000e+01 -1.452097654342651367e+00 3.998432874679565430e+00 7.639005780220031738e-01 8.803568482398986816e-01
2.687000000000000000e+03 3.788793182373046875e+01 1.899641990661621094e+01 4.828862845897674561e-01 2.323538780212402344e+00 8.419275283813476562e-01 -2.549588918685913086e+00
2.688000000000000000e+03 3.636143112182617188e+01 2.036249160766601562e+01 1.679030209779739380e-01 3.496672630310058594e+00 1.099372744560241699e+00 -1.908724069595336914e+00
2.689000000000000000e+03 6.689526367187500000e+01 -3.010137176513671875e+01 2.624314785003662109e+00 6.770226001739501953e+00 2.818362236022949219e+00 -2.189965963363647461e+00
2.690000000000000000e+03 6.437713623046875000e+01 -1.171087074279785156e+01 -9.672928452491760254e-01 6.709965705871582031e+00 1.722801804542541504e+00 3.568755686283111572e-01
2.691000000000000000e+03 5.365101814270019531e+00 -1.292613601684570312e+01 -1.734665036201477051e-01 -1.269171833992004395e-01 -9.011510759592056274e-02 -1.131711006164550781e-01
2.692000000000000000e+03 4.811129093170166016e+00 -1.190067672729492188e+01 -9.911906719207763672e-02 -9.371946007013320923e-02 -5.785155668854713440e-02 -6.355442106723785400e-02
2.693000000000000000e+03 4.105139923095703125e+01 -1.721915435791015625e+01 9.737537503242492676e-01 3.957787036895751953e+00 1.479462265968322754e+00 -1.498496532440185547e+00
2.694000000000000000e+03 4.150483322143554688e+01 -1.823034477233886719e+01 1.769289255142211914e+00 4.172121524810791016e+00 1.782423257827758789e+00 -1.224509000778198242e+00
2.695000000000000000e+03 1.791541671752929688e+01 2.032489776611328125e+01 1.368014574050903320e+00 7.799134254455566406e-01 6.443784236907958984e-01 8.302503079175949097e-02
2.696000000000000000e+03 6.073632717132568359e+00 2.192067909240722656e+01 2.115768939256668091e-01 5.292419791221618652e-01 2.222456634044647217e-01 -1.493665277957916260e-01
2.697000000000000000e+03 2.131073760986328125e+01 3.701806259155273438e+01 -5.808753967285156250e-01 2.410122156143188477e+00 5.487740039825439453e-01 -8.886176347732543945e-02
2.698000000000000000e+03 1.825322341918945312e+01 4.090022277832031250e+01 -4.301255941390991211e-01 1.492794275283813477e+00 3.188005983829498291e-01 -1.309011727571487427e-01
2.699000000000000000e+03 2.754265213012695312e+01 -2.668019294738769531e+01 -1.432050585746765137e+00 5.501126289367675781e+00 1.220722675323486328e+00 2.420058399438858032e-01
2.700000000000000000e+03 4.388601684570312500e+01 4.574548244476318359e+00 1.378996491432189941e+00 5.156764507293701172e+00 1.960728287696838379e+00 -9.003598690032958984e-01
2.701000000000000000e+03 7.903469085693359375e+00 -3.137549972534179688e+01 4.413205683231353760e-01 4.880990386009216309e-01 2.788258790969848633e-01 3.520798087120056152e-01
2.702000000000000000e+03 8.753129959106445312e+00 -3.464141464233398438e+01 1.413609832525253296e-01 7.611394524574279785e-01 2.707501351833343506e-01 5.379880070686340332e-01
2.703000000000000000e+03 6.043405914306640625e+01 -2.093294143676757812e+01 2.867794513702392578e+00 4.638996124267578125e+00 2.252037048339843750e+00 -7.303450703620910645e-01
2.704000000000000000e+03 1.016806888580322266e+01 -2.585107803344726562e+01 4.434177279472351074e-01 4.179449379444122314e-01 2.584087848663330078e-01 -1.174989622086286545e-02
2.705000000000000000e+03 3.767494201660156250e+01 1.428091430664062500e+01 -8.742790669202804565e-02 2.619059324264526367e+00 7.594894170761108398e-01 -1.967458844184875488e+00
2.706000000000000000e+03 5.320528030395507812e+01 1.960254478454589844e+01 -1.461280822753906250e+00 3.875892877578735352e+00 7.243835926055908203e-01 -2.312548398971557617e+00
2.707000000000000000e+03 4.368542861938476562e+01 5.561268806457519531e+00 1.084723472595214844e+00 5.688791751861572266e+00 2.032054662704467773e+00 -2.915209531784057617e-01
2.708000000000000000e+03 6.712146759033203125e+01 -3.123417854309082031e+01 2.796861410140991211e+00 7.319829463958740234e+00 3.035007238388061523e+00 -2.709233999252319336e+00
2.709000000000000000e+03 6.854890441894531250e+01 -3.190574455261230469e+01 2.518974304199218750e+00 5.190033435821533203e+00 2.312702178955078125e+00 -1.864435195922851562e+00
2.710000000000000000e+03 5.265229797363281250e+01 2.383748054504394531e+01 -7.583372294902801514e-02 5.195953369140625000e+00 1.536035895347595215e+00 -1.153273820877075195e+00
2.711000000000000000e+03 4.898106002807617188e+01 2.803060150146484375e+01 1.985265254974365234e+00 6.481334209442138672e+00 2.539979934692382812e+00 1.222401380538940430e+00
2.712000000000000000e+03 2.657735443115234375e+01 -2.737010574340820312e+01 -1.646825313568115234e+00 4.866347789764404297e+00 9.658567905426025391e-01 6.282564997673034668e-01
2.713000000000000000e+03 4.716546249389648438e+01 2.131467819213867188e+01 -1.559115171432495117e+00 5.779344558715820312e+00 1.266068816184997559e+00 2.607833147048950195e+00
2.714000000000000000e+03 4.034716415405273438e+01 1.599106693267822266e+01 1.123455047607421875e+00 4.143572807312011719e+00 1.580108404159545898e+00 -1.395085930824279785e+00
2.715000000000000000e+03 4.325491714477539062e+01 1.778477096557617188e+01 3.751911818981170654e-01 6.237941741943359375e+00 1.983939766883850098e+00 7.962520718574523926e-01
2.716000000000000000e+03 2.506997489929199219e+01 -2.161137008666992188e+01 2.062843084335327148e+00 3.294469594955444336e+00 1.607193827629089355e+00 7.497053742408752441e-01
2.717000000000000000e+03 1.133439254760742188e+01 -2.986214447021484375e+01 7.957472205162048340e-01 1.191044330596923828e+00 5.960374474525451660e-01 4.766550958156585693e-01
2.718000000000000000e+03 5.953764438629150391e+00 -3.237553405761718750e+01 2.370098233222961426e-01 1.872701644897460938e-01 1.272839903831481934e-01 3.581081628799438477e-01
2.719000000000000000e+03 5.527102661132812500e+01 -1.440529918670654297e+01 -4.858743250370025635e-01 4.958754062652587891e+00 1.341863989830017090e+00 -2.258032798767089844e+00
2.720000000000000000e+03 7.606534957885742188e+00 1.229450321197509766e+01 7.704252749681472778e-02 2.294117063283920288e-01 9.193626791238784790e-02 1.935751885175704956e-01
2.721000000000000000e+03 5.216092586517333984e+00 1.514613723754882812e+01 4.072827845811843872e-02 -5.508261173963546753e-02 -4.306300077587366104e-03 1.787662804126739502e-01
2.722000000000000000e+03 5.830822753906250000e+01 -2.054501152038574219e+01 2.610659599304199219e+00 6.104656219482421875e+00 2.614594697952270508e+00 1.801998913288116455e-01
2.723000000000000000e+03 5.977688980102539062e+01 -2.032869529724121094e+01 2.700636625289916992e+00 5.194486618041992188e+00 2.368536949157714844e+00 -4.401558041572570801e-01
2.724000000000000000e+03 4.448212432861328125e+01 -2.467685699462890625e+01 1.729065179824829102e+00 2.911685943603515625e+00 1.392225384712219238e+00 -9.412142038345336914e-01
2.725000000000000000e+03 3.955159759521484375e+01 1.296368885040283203e+01 -3.589520454406738281e-01 4.965174674987792969e+00 1.381866812705993652e+00 -8.825514912605285645e-01
2.726000000000000000e+03 6.981571197509765625e+01 -3.618803787231445312e+01 6.797009706497192383e-02 5.926039695739746094e+00 1.798202991485595703e+00 -1.272521495819091797e+00
2.727000000000000000e+03 5.675414276123046875e+01 -1.532774639129638672e+01 -5.823318287730216980e-02 5.668984889984130859e+00 1.683225512504577637e+00 -8.188766241073608398e-01
2.728000000000000000e+03 4.268330764770507812e+01 3.509248352050781250e+01 -1.429131984710693359e+00 1.723535656929016113e+00 8.832111954689025879e-02 -8.063074946403503418e-01
2.729000000000000000e+03 5.380551528930664062e+01 -2.994843673706054688e+01 2.056319236755371094e+00 6.725948333740234375e+00 2.634680271148681641e+00 8.800535202026367188e-01
2.730000000000000000e+03 5.169255828857421875e+01 -7.319575548171997070e-01 5.192307829856872559e-01 6.510066509246826172e+00 2.108789205551147461e+00 7.708371281623840332e-01
2.731000000000000000e+03 1.594432544708251953e+01 -2.507787704467773438e+01 4.771475791931152344e-01 1.055759787559509277e+00 4.598722159862518311e-01 1.001119732856750488e+00
2.732000000000000000e+03 1.692700576782226562e+01 -2.329277420043945312e+01 5.363135933876037598e-01 5.263918638229370117e-01 3.188116252422332764e-01 9.730282425880432129e-01
2.733000000000000000e+03 5.017376708984375000e+01 -1.051948928833007812e+01 1.976587057113647461e+00 6.222182273864746094e+00 2.459630966186523438e+00 -5.602461695671081543e-01
2.734000000000000000e+03 5.157975006103515625e+01 -9.549937248229980469e+00 1.792552828788757324e+00 6.068728923797607422e+00 2.358384370803833008e+00 -8.992124199867248535e-01
2.735000000000000000e+03 3.489453887939453125e+01 2.489505767822265625e+01 1.035544395446777344e+00 7.416885375976562500e+00 2.535728931427001953e+00 -8.515888452529907227e-01
2.736000000000000000e+03 5.471520614624023438e+01 -4.020846939086914062e+01 -3.016168117523193359e+00 7.002039432525634766e+00 1.195761322975158691e+00 4.964432492852210999e-02
2.737000000000000000e+03 5.087350845336914062e+01 -3.690301132202148438e+01 -1.016101956367492676e+00 6.667830944061279297e+00 1.695518732070922852e+00 9.131611138582229614e-02
2.738000000000000000e+03 7.457424926757812500e+01 1.870491600036621094e+01 -1.040000915527343750e+00 7.876498222351074219e+00 2.050949096679687500e+00 4.604069590568542480e-01
2.739000000000000000e+03 4.060480117797851562e+01 1.877989768981933594e+01 4.701257050037384033e-01 2.809032440185546875e+00 9.837474226951599121e-01 -1.308963775634765625e+00
2.740000000000000000e+03 5.133557891845703125e+01 1.568364143371582031e+00 8.118309080600738525e-02 4.383983612060546875e+00 1.339550018310546875e+00 1.352728247642517090e+00
2.741000000000000000e+03 5.057686996459960938e+01 2.151008993387222290e-01 6.268439888954162598e-01 4.881594181060791016e+00 1.652531385421752930e+00 2.753358483314514160e-01
2.742000000000000000e+03 3.081832122802734375e+01 -3.443915557861328125e+01 4.035921096801757812e-01 2.568775415420532227e+00 8.917102217674255371e-01 -1.268592327833175659e-01
2.743000000000000000e+03 4.847262573242187500e+01 3.383392715454101562e+01 -4.643217623233795166e-01 5.545650482177734375e+00 1.524398684501647949e+00 -3.200720548629760742e-01
2.744000000000000000e+03 6.268099594116210938e+01 -1.124494743347167969e+01 -1.051967859268188477e+00 7.412137985229492188e+00 1.908051013946533203e+00 1.104595661163330078e+00
2.745000000000000000e+03 4.272463607788085938e+01 -1.619552230834960938e+01 1.128190681338310242e-01 2.719662666320800781e+00 8.497444987297058105e-01 -2.694204449653625488e-01
2.746000000000000000e+03 1.501686763763427734e+01 3.996253967285156250e+01 -2.148198336362838745e-01 6.770551800727844238e-01 1.386706084012985229e-01 -1.624541133642196655e-01
2.747000000000000000e+03 6.001473617553710938e+01 1.865445899963378906e+01 1.326710939407348633e+00 7.384548664093017578e+00 2.613377809524536133e+00 1.638309836387634277e+00
2.748000000000000000e+03 5.994805145263671875e+01 1.985620689392089844e+01 3.732087016105651855e-01 5.802453517913818359e+00 1.852698564529418945e+00 1.431591629981994629e+00
2.749000000000000000e+03 4.045272445678710938e+01 1.256523036956787109e+01 1.794991344213485718e-01 6.414231777191162109e+00 1.978119254112243652e+00 1.474027633666992188e-01
2.750000000000000000e+03 3.786806488037109375e+01 1.671531105041503906e+01 8.144248127937316895e-01 2.626999855041503906e+00 1.032427430152893066e+00 -2.356497049331665039e+00
2.751000000000000000e+03 5.737078189849853516e+00 1.709007263183593750e+01 3.044623136520385742e-02 1.056997999548912048e-01 4.084381088614463806e-02 1.211821660399436951e-01
2.752000000000000000e+03 8.449965476989746094e+00 1.747643852233886719e+01 1.405488103628158569e-01 4.350236356258392334e-01 1.726717352867126465e-01 5.005411803722381592e-02
2.753000000000000000e+03 3.563299179077148438e+01 -3.174848175048828125e+01 1.453208565711975098e+00 1.496875286102294922e+00 8.850251436233520508e-01 9.805479049682617188e-01
2.754000000000000000e+03 3.915464401245117188e+01 -1.277613490819931030e-01 4.093744754791259766e-01 5.406176567077636719e+00 1.744665265083312988e+00 2.587859392166137695e+00
2.755000000000000000e+03 3.812622451782226562e+01 -7.613936066627502441e-01 5.238541364669799805e-01 5.140810966491699219e+00 1.699399590492248535e+00 3.822906017303466797e+00
2.756000000000000000e+03 3.220150375366210938e+01 4.084701156616210938e+01 -1.067984104156494141e+00 3.007551193237304688e+00 5.818701386451721191e-01 2.116340398788452148e-02
2.757000000000000000e+03 1.021535491943359375e+01 -2.903468322753906250e+01 6.181653738021850586e-01 7.571207284927368164e-01 4.125858545303344727e-01 2.587304711341857910e-01
2.758000000000000000e+03 9.472333908081054688e+00 -3.035017585754394531e+01 6.183185577392578125e-01 7.182210683822631836e-01 4.009618759155273438e-01 3.243318796157836914e-01
2.759000000000000000e+03 7.705430984497070312e+00 1.840689277648925781e+01 1.251553893089294434e-01 4.178312420845031738e-01 1.628959923982620239e-01 -2.288121730089187622e-02
2.760000000000000000e+03 8.713989257812500000e+00 -3.680342102050781250e+01 -2.370189577341079712e-01 7.290698885917663574e-01 1.476152837276458740e-01 5.756369233131408691e-01
2.761000000000000000e+03 9.066587448120117188e+00 -3.558277130126953125e+01 1.095883995294570923e-01 8.052392601966857910e-01 2.744483053684234619e-01 5.897204875946044922e-01
2.762000000000000000e+03 2.554720878601074219e+01 2.220048666000366211e+00 -2.617338597774505615e-01 1.229953408241271973e+00 2.904658913612365723e-01 -3.317900896072387695e-01
2.763000000000000000e+03 2.158081436157226562e+01 8.552567481994628906e+00 5.459115505218505859e-01 8.042164444923400879e-01 4.050383865833282471e-01 -9.348376393318176270e-01
2.764000000000000000e+03 2.253142738342285156e+01 2.585443973541259766e+00 -6.619400382041931152e-01 -1.887402683496475220e-01 -2.552040815353393555e-01 5.646645426750183105e-01
2.765000000000000000e+03 2.490157508850097656e+01 2.069682836532592773e+00 -6.234576106071472168e-01 7.165836691856384277e-01 2.793782763183116913e-02 -4.202737938612699509e-03
2.766000000000000000e+03 1.914594268798828125e+01 6.115610599517822266e+00 5.809827446937561035e-01 -4.951840043067932129e-01 2.573962509632110596e-02 -4.872367903590202332e-02
2.767000000000000000e+03 1.996615791320800781e+01 3.412461519241333008e+00 -4.738995432853698730e-01 -4.474910497665405273e-01 -2.764171659946441650e-01 4.537295103073120117e-01
2.768000000000000000e+03 2.472696685791015625e+01 2.253085613250732422e+00 -4.136745631694793701e-01 5.975864529609680176e-01 5.517357215285301208e-02 1.063442602753639221e-01
2.769000000000000000e+03 2.421772956848144531e+01 2.648748397827148438e+00 -1.835307329893112183e-01 4.768525660037994385e-01 8.799654245376586914e-02 1.976306587457656860e-01
2.770000000000000000e+03 2.355456924438476562e+01 2.552943706512451172e+00 -4.267535507678985596e-01 1.539637744426727295e-01 -8.183693140745162964e-02 3.629797101020812988e-01
2.771000000000000000e+03 2.308537864685058594e+01 2.808557748794555664e+00 -2.908317744731903076e-01 -1.918002031743526459e-02 -9.300354123115539551e-02 4.078148603439331055e-01
2.772000000000000000e+03 2.510894775390625000e+01 2.726080417633056641e+00 7.121670991182327271e-02 1.125721216201782227e+00 3.590813875198364258e-01 -1.699430644512176514e-01
2.773000000000000000e+03 2.658885383605957031e+01 1.547003388404846191e+00 -5.570589303970336914e-01 1.795066595077514648e+00 3.714023232460021973e-01 -1.134934544563293457e+00
2.774000000000000000e+03 2.723230171203613281e+01 5.637878417968750000e+00 2.538961887359619141e+00 5.249104499816894531e+00 2.336419820785522461e+00 -9.630889892578125000e-01
2.775000000000000000e+03 2.978293800354003906e+01 1.556624889373779297e+00 -1.713076233863830566e+00 8.214264869689941406e+00 1.950356721878051758e+00 -4.580821037292480469e+00
2.776000000000000000e+03 2.866873741149902344e+01 1.312264561653137207e+00 -9.421388506889343262e-01 5.490458011627197266e+00 1.364495754241943359e+00 -3.779553174972534180e+00
2.777000000000000000e+03 3.131130599975585938e+01 -8.123395919799804688e+00 2.493391752243041992e+00 7.836898326873779297e+00 3.099086999893188477e+00 2.346892356872558594e+00
2.778000000000000000e+03 3.126453781127929688e+01 -7.624137878417968750e+00 1.715871930122375488e+00 8.111924171447753906e+00 2.948338747024536133e+00 1.976800441741943359e+00
2.779000000000000000e+03 3.104834365844726562e+01 -7.097935199737548828e+00 1.186549782752990723e+00 8.323200225830078125e+00 2.852924823760986328e+00 1.614024996757507324e+00
2.780000000000000000e+03 2.037466430664062500e+01 3.801595687866210938e+00 -1.683104187250137329e-01 -4.401572942733764648e-01 -1.825403124094009399e-01 4.045966565608978271e-01
2.781000000000000000e+03 2.904838752746582031e+01 2.618041515350341797e+00 -1.175945639610290527e+00 7.433063983917236328e+00 1.877135515213012695e+00 -3.360421657562255859e+00
2.782000000000000000e+03 2.600449180603027344e+01 1.779550909996032715e+00 -6.084557175636291504e-01 1.488018870353698730e+00 2.638689577579498291e-01 -5.799658894538879395e-01
2.783000000000000000e+03 1.620831108093261719e+01 -6.007523059844970703e+00 9.578174911439418793e-03 1.136179491877555847e-01 3.695883601903915405e-02 1.088255364447832108e-02
2.784000000000000000e+03 1.580430126190185547e+01 -6.528569698333740234e+00 -6.675846409052610397e-03 9.035161882638931274e-02 2.510273270308971405e-02 1.764119602739810944e-02
2.785000000000000000e+03 3.079198646545410156e+01 -6.132513046264648438e+00 3.921182155609130859e-01 8.195529937744140625e+00 2.576294422149658203e+00 9.392220973968505859e-01
2.786000000000000000e+03 2.493139648437500000e+01 -1.425797367095947266e+01 -8.043456673622131348e-01 1.337166547775268555e+00 1.598462462425231934e-01 9.793545007705688477e-01
2.787000000000000000e+03 1.563975906372070312e+01 -5.500982761383056641e+00 4.130367189645767212e-03 7.742974162101745605e-02 2.446803264319896698e-02 -4.390088375657796860e-03
2.788000000000000000e+03 3.044121742248535156e+01 -9.200337409973144531e+00 3.593647956848144531e+00 8.689330101013183594e+00 3.684893608093261719e+00 2.993216037750244141e+00
2.789000000000000000e+03 3.115322685241699219e+01 -8.551588058471679688e+00 2.773680925369262695e+00 7.832375526428222656e+00 3.181816816329956055e+00 2.543747663497924805e+00
2.790000000000000000e+03 2.612018966674804688e+01 -1.366934871673583984e+01 -4.825258553028106689e-01 2.727333068847656250e+00 6.734421849250793457e-01 1.818765878677368164e+00
2.791000000000000000e+03 2.677183151245117188e+01 -1.390297889709472656e+01 -6.225727796554565430e-01 4.277966022491455078e+00 1.096618056297302246e+00 2.300384044647216797e+00
2.792000000000000000e+03 1.562408638000488281e+01 -6.725629329681396484e+00 -1.966273412108421326e-02 9.069827198982238770e-02 2.131066098809242249e-02 2.107001282274723053e-02
2.793000000000000000e+03 2.840035057067871094e+01 -1.504735374450683594e+01 -1.375781297683715820e+00 6.923162937164306641e+00 1.664214491844177246e+00 2.131589651107788086e+00
2.794000000000000000e+03 3.038391876220703125e+01 -1.431288242340087891e+01 -2.111024379730224609e+00 6.747511863708496094e+00 1.390946269035339355e+00 2.668092727661132812e+00
2.795000000000000000e+03 2.574506568908691406e+01 -1.386045074462890625e+01 -5.905954837799072266e-01 2.272408008575439453e+00 5.045437216758728027e-01 1.532795786857604980e+00
2.796000000000000000e+03 2.975612640380859375e+01 -1.117941951751708984e+01 2.032888412475585938e+00 8.117935180664062500e+00 3.045247077941894531e+00 3.095275878906250000e+00
2.797000000000000000e+03 1.554247379302978516e+01 -5.160199642181396484e+00 1.467801909893751144e-02 6.645283102989196777e-02 2.433925494551658630e-02 -7.544423919171094894e-03
2.798000000000000000e+03 1.792258644104003906e+01 -1.523999786376953125e+01 -6.591780483722686768e-02 1.652415394783020020e-01 2.979712188243865967e-02 -2.911762297153472900e-01
2.799000000000000000e+03 1.925191879272460938e+01 -1.303566169738769531e+01 -7.567708492279052734e-01 -6.768447160720825195e-02 -2.473365962505340576e-01 2.294903099536895752e-01
2.800000000000000000e+03 1.340013980865478516e+01 -3.067644119262695312e+00 -1.250071078538894653e-02 -9.805921465158462524e-03 -6.691989488899707794e-03 -5.310925841331481934e-02
2.801000000000000000e+03 3.131553459167480469e+01 -5.499035358428955078e+00 2.250610589981079102e-01 8.553041458129882812e+00 2.633430719375610352e+00 6.179631948471069336e-01
2.802000000000000000e+03 2.809544944763183594e+01 -1.259513092041015625e+01 5.025013685226440430e-01 6.331418991088867188e+00 2.050176143646240234e+00 3.226112127304077148e+00
2.803000000000000000e+03 2.708906555175781250e+01 -1.474900150299072266e+01 -8.669269680976867676e-01 5.188632011413574219e+00 1.296511530876159668e+00 2.131708860397338867e+00
2.804000000000000000e+03 1.595257663726806641e+01 -4.452680587768554688e+00 2.454973012208938599e-02 7.591962069272994995e-02 3.014080598950386047e-02 -6.859628017991781235e-03
2.805000000000000000e+03 1.415041351318359375e+01 -3.823130846023559570e+00 -3.355357330292463303e-03 3.313777269795536995e-03 -1.247397267434280366e-05 -3.932573273777961731e-02
2.806000000000000000e+03 1.292765903472900391e+01 -1.022583961486816406e+01 -2.137381285429000854e-01 1.674854308366775513e-01 -1.387580856680870056e-02 -9.583242982625961304e-02
2.807000000000000000e+03 2.842128181457519531e+01 -1.226058959960937500e+01 8.791968822479248047e-01 6.837268352508544922e+00 2.314939498901367188e+00 3.479084014892578125e+00
2.808000000000000000e+03 2.826832580566406250e+01 -1.157028579711914062e+01 2.831850051879882812e+00 6.660319328308105469e+00 2.847650766372680664e+00 4.245985984802246094e+00
2.809000000000000000e+03 1.699129867553710938e+01 -2.636603593826293945e+00 3.334029763936996460e-02 6.462490558624267578e-02 2.938956208527088165e-02 -3.084642579779028893e-03
2.810000000000000000e+03 1.561214351654052734e+01 -2.393897294998168945e+00 -9.423908777534961700e-03 1.342844869941473007e-02 1.201362116262316704e-03 -3.494566306471824646e-02
2.811000000000000000e+03 3.056870460510253906e+01 -5.787001132965087891e+00 1.842999607324600220e-01 8.046836853027343750e+00 2.469340801239013672e+00 8.292768597602844238e-01
2.812000000000000000e+03 2.528833580017089844e+01 -1.532392597198486328e+01 -2.005421221256256104e-01 2.526025533676147461e+00 6.976450085639953613e-01 1.210733771324157715e+00
2.813000000000000000e+03 3.342103958129882812e+01 -1.249273204803466797e+01 9.107702374458312988e-01 3.108648061752319336e+00 1.205825448036193848e+00 1.081255197525024414e+00
2.814000000000000000e+03 3.023616027832031250e+01 -1.074864864349365234e+01 2.707166910171508789e+00 7.907020092010498047e+00 3.184256076812744141e+00 2.870306491851806641e+00
2.815000000000000000e+03 1.672647666931152344e+01 -1.196129226684570312e+01 -3.895088732242584229e-01 2.262996882200241089e-01 -4.896276071667671204e-02 7.932708412408828735e-02
2.816000000000000000e+03 1.725291633605957031e+01 -2.276494979858398438e+00 8.124920539557933807e-03 6.192157790064811707e-02 2.101394906640052795e-02 1.196969300508499146e-02
2.817000000000000000e+03 3.167133522033691406e+01 -8.882927894592285156e+00 3.237987518310546875e+00 6.841494083404541016e+00 3.023844480514526367e+00 2.175153017044067383e+00
2.818000000000000000e+03 2.009674453735351562e+01 -1.564569377899169922e+01 1.627426780760288239e-02 -4.996168613433837891e-02 -1.010622456669807434e-02 -3.957922458648681641e-01
2.819000000000000000e+03 2.356892395019531250e+01 -1.562222099304199219e+01 8.975679427385330200e-02 6.736534237861633301e-01 2.290230691432952881e-01 4.204570353031158447e-01
2.820000000000000000e+03 1.651541137695312500e+01 -9.952175140380859375e+00 -2.810074985027313232e-01 1.318072378635406494e-01 -4.476007819175720215e-02 1.398468315601348877e-01
2.821000000000000000e+03 3.160481452941894531e+01 -9.772647857666015625e+00 3.329945325851440430e+00 6.399837017059326172e+00 2.918934583663940430e+00 2.122563838958740234e+00
2.822000000000000000e+03 1.639028739929199219e+01 -1.085855770111083984e+01 -3.468161225318908691e-01 1.709962785243988037e-01 -5.274594947695732117e-02 1.177240386605262756e-01
2.823000000000000000e+03 1.857485008239746094e+01 -1.564976406097412109e+01 4.355336725711822510e-02 7.349797338247299194e-02 3.511540219187736511e-02 -3.691690564155578613e-01
2.824000000000000000e+03 2.132623100280761719e+01 -1.510065269470214844e+01 -4.121745526790618896e-01 -2.429700493812561035e-01 -1.965433806180953979e-01 -3.035418093204498291e-01
2.825000000000000000e+03 2.323145294189453125e+01 -1.583497333526611328e+01 2.664424777030944824e-01 4.696774184703826904e-01 2.208359688520431519e-01 2.811086773872375488e-01
2.826000000000000000e+03 2.306133270263671875e+01 -1.501659297943115234e+01 -4.956174194812774658e-01 4.275129735469818115e-02 -1.358598470687866211e-01 1.745781153440475464e-01
2.827000000000000000e+03 3.507688140869140625e+01 -8.353108406066894531e+00 3.297540187835693359e+00 6.399439811706542969e+00 2.909094095230102539e+00 -4.638971015810966492e-02
2.828000000000000000e+03 1.485793399810791016e+01 -1.124376678466796875e+01 -2.857831418514251709e-01 3.106765151023864746e-01 7.468014024198055267e-03 -1.147497445344924927e-02
2.829000000000000000e+03 1.560777187347412109e+01 -3.767255306243896484e+00 2.331317402422428131e-02 4.272975772619247437e-02 1.981288008391857147e-02 -1.888042688369750977e-02
2.830000000000000000e+03 3.098172569274902344e+01 -9.834184646606445312e+00 3.584964752197265625e+00 7.135518550872802734e+00 3.216145038604736328e+00 2.430537700653076172e+00
2.831000000000000000e+03 3.081802940368652344e+01 -1.084361839294433594e+01 2.722023010253906250e+00 6.884346485137939453e+00 2.881910800933837891e+00 2.321778297424316406e+00
2.832000000000000000e+03 1.610187911987304688e+01 -1.183413600921630859e+01 -3.495973348617553711e-01 2.857235074043273926e-01 -1.916214823722839355e-02 5.568728595972061157e-02
2.833000000000000000e+03 1.643965530395507812e+01 -1.039114189147949219e+01 -3.343596458435058594e-01 1.561694145202636719e-01 -5.345706641674041748e-02 1.301218420267105103e-01
2.834000000000000000e+03 2.002490997314453125e+01 -1.492597007751464844e+01 -4.381690025329589844e-01 -6.200230494141578674e-02 -1.500514000654220581e-01 -3.283876776695251465e-01
2.835000000000000000e+03 2.090163993835449219e+01 -1.491367626190185547e+01 -5.214924812316894531e-01 -2.560325562953948975e-01 -2.332575023174285889e-01 -3.345171809196472168e-01
2.836000000000000000e+03 3.203984832763671875e+01 1.181907653808593750e+00 -2.912016868591308594e+00 5.715237617492675781e+00 8.409661650657653809e-01 -1.365971446037292480e+00
2.837000000000000000e+03 1.604705238342285156e+01 -2.762430906295776367e+00 2.168484404683113098e-02 3.468565642833709717e-02 1.691114902496337891e-02 -2.021523378789424896e-02
2.838000000000000000e+03 9.929772377014160156e+00 5.368116855621337891e+00 -1.183118000626564026e-01 2.678631059825420380e-02 -2.745764702558517456e-02 1.605902016162872314e-01
2.839000000000000000e+03 1.973661422729492188e+01 6.134945869445800781e+00 7.151960730552673340e-01 -5.082450509071350098e-01 6.208530440926551819e-02 -1.676604524254798889e-02
2.840000000000000000e+03 1.853916931152343750e+01 5.733364582061767578e+00 3.841669559478759766e-01 -4.516580402851104736e-01 -2.024731971323490143e-02 5.469597876071929932e-02
2.841000000000000000e+03 3.256788253784179688e+01 -3.955302715301513672e+00 1.368679761886596680e+00 8.525086402893066406e+00 2.968129873275756836e+00 -1.594948649406433105e+00
2.842000000000000000e+03 5.602392196655273438e+00 -5.502728462219238281e+00 -1.689752098172903061e-04 -5.120346695184707642e-02 -1.541173271834850311e-02 -5.522299092262983322e-03
2.843000000000000000e+03 9.257145881652832031e+00 3.704915046691894531e+00 -2.229665219783782959e-01 2.676374651491641998e-02 -5.886083468794822693e-02 1.528412252664566040e-01
2.844000000000000000e+03 1.828813362121582031e+01 -1.195343780517578125e+01 -4.880218803882598877e-01 -5.345099791884422302e-02 -1.624418646097183228e-01 2.582764625549316406e-01
2.845000000000000000e+03 1.759550476074218750e+01 -1.213155078887939453e+01 -4.249533712863922119e-01 1.271158903837203979e-01 -8.935124427080154419e-02 1.460941582918167114e-01
2.846000000000000000e+03 1.256372737884521484e+01 -3.204687595367431641e+00 -1.049399469047784805e-02 -2.318259701132774353e-02 -1.010297704488039017e-02 -5.649873241782188416e-02
2.847000000000000000e+03 1.548320579528808594e+01 -5.981842517852783203e+00 -3.213125746697187424e-03 7.697222381830215454e-02 2.212772890925407410e-02 5.948055535554885864e-03
2.848000000000000000e+03 6.427063465118408203e+00 -5.231424808502197266e+00 -3.581363707780838013e-03 -4.437415674328804016e-02 -1.438665576279163361e-02 -1.147353556007146835e-02
2.849000000000000000e+03 7.197228908538818359e+00 -5.002485275268554688e+00 -1.339766080491244793e-03 -5.629343166947364807e-02 -1.728995889425277710e-02 -2.430560812354087830e-02
2.850000000000000000e+03 3.378360748291015625e+01 -1.871968388557434082e+00 4.250553607940673828e+00 4.260732650756835938e+00 2.553385972976684570e+00 -7.513597607612609863e-01
2.851000000000000000e+03 1.745207023620605469e+01 -1.267623519897460938e+01 -4.092923402786254883e-01 1.854502558708190918e-01 -6.715262681245803833e-02 7.880780845880508423e-02
2.852000000000000000e+03 1.060225677490234375e+01 -9.005770683288574219e+00 -1.074813455343246460e-01 -3.261520341038703918e-02 -4.202896356582641602e-02 -9.721414744853973389e-02
2.853000000000000000e+03 1.100014591217041016e+01 -3.563611745834350586e+00 -9.439548477530479431e-03 -3.303645551204681396e-02 -1.274280156940221786e-02 -5.712396278977394104e-02
2.854000000000000000e+03 1.261556243896484375e+01 -3.791783332824707031e+00 -1.125671621412038803e-02 -1.661325059831142426e-02 -8.360990323126316071e-03 -5.434146150946617126e-02
2.855000000000000000e+03 6.537724494934082031e+00 4.783637523651123047e+00 -1.195907890796661377e-01 5.069029051810503006e-03 -3.435653075575828552e-02 1.768722534179687500e-01
2.856000000000000000e+03 4.984489917755126953e+00 5.514614582061767578e+00 -7.397736608982086182e-02 -4.541819170117378235e-02 -3.581866621971130371e-02 1.899194568395614624e-01
2.857000000000000000e+03 1.517388057708740234e+01 -6.469375133514404297e+00 -2.276579663157463074e-02 7.060994952917098999e-02 1.435324549674987793e-02 7.510085124522447586e-03
2.858000000000000000e+03 4.270719051361083984e+00 4.585789680480957031e+00 -7.110822200775146484e-02 -5.475768074393272400e-02 -3.775976970791816711e-02 1.543624252080917358e-01
2.859000000000000000e+03 5.742375850677490234e+00 5.204799652099609375e+00 -9.927416592836380005e-02 -1.741611212491989136e-02 -3.500708192586898804e-02 1.863799840211868286e-01
2.860000000000000000e+03 1.034233093261718750e+01 -4.442446231842041016e+00 -9.279806166887283325e-03 -3.952911496162414551e-02 -1.464267633855342865e-02 -5.671354010701179504e-02
2.861000000000000000e+03 1.219723701477050781e+01 -1.044850635528564453e+01 -2.097228020429611206e-01 9.510466456413269043e-02 -3.438544273376464844e-02 -1.426054090261459351e-01
2.862000000000000000e+03 3.150940704345703125e+01 -4.339662075042724609e+00 -2.062896192073822021e-01 9.748818397521972656e+00 2.862758636474609375e+00 -4.384653568267822266e-01
2.863000000000000000e+03 7.298910140991210938e+00 6.617538928985595703e+00 -8.923317492008209229e-02 4.827307909727096558e-02 -1.228802930563688278e-02 1.908960491418838501e-01
2.864000000000000000e+03 1.039292621612548828e+01 6.341371059417724609e+00 -3.312580659985542297e-02 3.300966322422027588e-02 -3.484249828034080565e-05 1.121200472116470337e-01
2.865000000000000000e+03 2.570120429992675781e+01 -1.446743202209472656e+01 -5.890170931816101074e-01 2.577182054519653320e+00 5.964494347572326660e-01 1.557529091835021973e+00
2.866000000000000000e+03 1.499393844604492188e+01 -7.530875205993652344e+00 -6.892207264900207520e-02 9.105829894542694092e-02 6.640867330133914948e-03 3.259843960404396057e-02
2.867000000000000000e+03 3.360458755493164062e+01 -1.328033733367919922e+01 -7.635543942451477051e-01 2.069871664047241211e+00 3.918951451778411865e-01 1.040370345115661621e+00
2.868000000000000000e+03 3.538101959228515625e+01 -1.086651229858398438e+01 2.748752355575561523e+00 4.950613498687744141e+00 2.309809684753417969e+00 -7.188236117362976074e-01
2.869000000000000000e+03 2.706198120117187500e+01 7.672657966613769531e+00 2.520179986953735352e+00 5.372081279754638672e+00 2.367678403854370117e+00 -1.800448298454284668e+00
2.870000000000000000e+03 2.703541564941406250e+01 9.205927848815917969e+00 1.641980409622192383e+00 4.614148139953613281e+00 1.876838564872741699e+00 -1.759645223617553711e+00
2.871000000000000000e+03 1.187606334686279297e+01 -3.977000236511230469e+00 -9.209383279085159302e-03 -2.583895809948444366e-02 -1.051450241357088089e-02 -5.681209638714790344e-02
2.872000000000000000e+03 3.360531234741210938e+01 -6.230573654174804688e+00 2.149426698684692383e+00 7.212779045104980469e+00 2.808661699295043945e+00 1.141837909817695618e-01
2.873000000000000000e+03 2.876494979858398438e+01 -1.603804397583007812e+01 -1.090000748634338379e+00 7.427591323852539062e+00 1.901277184486389160e+00 1.825316667556762695e+00
2.874000000000000000e+03 2.066188049316406250e+01 7.304180622100830078e+00 6.185513734817504883e-01 1.999867521226406097e-02 1.915650069713592529e-01 -1.764247119426727295e-01
2.875000000000000000e+03 1.931888198852539062e+01 4.957213878631591797e+00 2.418589591979980469e-01 -4.997546374797821045e-01 -7.736870646476745605e-02 1.786375045776367188e-01
2.876000000000000000e+03 3.021570396423339844e+01 2.086654186248779297e+00 -2.568547248840332031e+00 7.864219188690185547e+00 1.588701605796813965e+00 -3.207818031311035156e+00
2.877000000000000000e+03 5.703699111938476562e+01 1.922211456298828125e+01 1.549995392560958862e-01 4.327395439147949219e+00 1.344718456268310547e+00 -1.224654793739318848e+00
2.878000000000000000e+03 2.180877304077148438e+01 -2.137857437133789062e+01 1.758148908615112305e+00 4.469416141510009766e-01 6.615271568298339844e-01 6.005784869194030762e-01
2.879000000000000000e+03 2.717275619506835938e+01 1.146794700622558594e+01 1.636042594909667969e-01 3.286157846450805664e+00 1.034928679466247559e+00 -1.355432271957397461e+00
2.880000000000000000e+03 2.478320312500000000e+01 8.269618988037109375e+00 1.687480211257934570e+00 2.395401477813720703e+00 1.224864482879638672e+00 -1.874125599861145020e+00
2.881000000000000000e+03 8.729297637939453125e+00 -4.780425548553466797e+00 -6.834892556071281433e-03 -4.999144747853279114e-02 -1.704790256917476654e-02 -4.545901343226432800e-02
2.882000000000000000e+03 9.530827522277832031e+00 -4.645843505859375000e+00 -1.082243956625461578e-02 -3.986436501145362854e-02 -1.520604081451892853e-02 -4.924453422427177429e-02
2.883000000000000000e+03 1.135991764068603516e+01 -2.656377601623535156e+01 5.892003178596496582e-01 7.345244288444519043e-01 3.971174359321594238e-01 2.011382430791854858e-01
2.884000000000000000e+03 1.803961944580078125e+01 -2.271083259582519531e+01 8.454861640930175781e-01 1.536754965782165527e-01 2.997484803199768066e-01 1.016028046607971191e+00
2.885000000000000000e+03 3.584527587890625000e+01 -4.835718154907226562e+00 2.123701810836791992e+00 6.388131141662597656e+00 2.553550004959106445e+00 4.544084370136260986e-01
2.886000000000000000e+03 3.686879730224609375e+01 -3.111084938049316406e+00 1.520595550537109375e+00 5.240009307861328125e+00 2.028181552886962891e+00 2.212899923324584961e+00
2.887000000000000000e+03 3.072327232360839844e+01 -1.209833526611328125e+01 5.592910051345825195e-01 6.595073223114013672e+00 2.146309375762939453e+00 2.646481037139892578e+00
2.888000000000000000e+03 3.183471488952636719e+01 -1.335994911193847656e+01 -1.012979149818420410e+00 4.048154830932617188e+00 9.105527400970458984e-01 2.723759651184082031e+00
2.889000000000000000e+03 2.406465721130371094e+01 -2.135287666320800781e+01 1.989638566970825195e+00 2.366585731506347656e+00 1.306867241859436035e+00 6.551510691642761230e-01
2.890000000000000000e+03 4.939330291748046875e+01 -9.200467109680175781e+00 2.301293849945068359e+00 8.304883003234863281e+00 3.181853055953979492e+00 6.410716176033020020e-01
2.891000000000000000e+03 5.025917434692382812e+01 -7.270720481872558594e+00 1.979309439659118652e+00 7.715365409851074219e+00 2.908402442932128906e+00 3.137547969818115234e-01
2.892000000000000000e+03 4.263054275512695312e+01 -2.006560707092285156e+01 2.839372158050537109e+00 4.910631179809570312e+00 2.325001001358032227e+00 -2.447836399078369141e-01
2.893000000000000000e+03 4.450137329101562500e+01 -1.845168113708496094e+01 1.619754791259765625e+00 5.156478404998779297e+00 2.032869815826416016e+00 2.886308431625366211e-01
2.894000000000000000e+03 4.364299011230468750e+01 -1.579962539672851562e+01 -5.534405112266540527e-01 2.478090763092041016e+00 5.773950815200805664e-01 6.333261728286743164e-01
2.895000000000000000e+03 3.468520736694335938e+01 1.810565948486328125e+01 8.971539139747619629e-01 3.759989738464355469e+00 1.397143125534057617e+00 -1.263088226318359375e+00
2.896000000000000000e+03 6.907398986816406250e+01 2.443307113647460938e+01 7.143203616142272949e-01 3.274489164352416992e+00 1.196642875671386719e+00 -7.722536921501159668e-01
2.897000000000000000e+03 6.648021697998046875e+01 2.455022430419921875e+01 1.510297417640686035e+00 3.643725395202636719e+00 1.546206831932067871e+00 7.459250688552856445e-01
2.898000000000000000e+03 6.847378540039062500e+01 2.267742729187011719e+01 -5.588963627815246582e-01 2.095726013183593750e+00 4.610488712787628174e-01 -1.021519541740417480e+00
2.899000000000000000e+03 6.920113372802734375e+01 2.979045104980468750e+01 1.174481272697448730e+00 5.035288810729980469e+00 1.862931013107299805e+00 6.563006639480590820e-01
2.900000000000000000e+03 6.768299102783203125e+01 2.752007293701171875e+01 1.872463107109069824e+00 4.328719615936279297e+00 1.860354781150817871e+00 6.560664176940917969e-01
2.901000000000000000e+03 5.142767715454101562e+01 -3.063183403015136719e+01 2.900634050369262695e+00 6.336361885070800781e+00 2.771098852157592773e+00 -5.166175961494445801e-01
2.902000000000000000e+03 5.176092529296875000e+01 -2.726709747314453125e+01 8.418105542659759521e-03 3.406757593154907227e+00 1.024552702903747559e+00 -5.341960787773132324e-01
2.903000000000000000e+03 5.864579391479492188e+01 -2.181964302062988281e+01 2.407433986663818359e+00 5.331007480621337891e+00 2.321532487869262695e+00 2.361921072006225586e-01
2.904000000000000000e+03 1.711334037780761719e+01 -2.247140502929687500e+01 6.361865997314453125e-01 4.083890318870544434e-01 3.133727014064788818e-01 9.478617310523986816e-01
2.905000000000000000e+03 1.728878784179687500e+01 -2.408520126342773438e+01 5.290663242340087891e-01 6.018289327621459961e-01 3.392685651779174805e-01 1.240251302719116211e+00
2.906000000000000000e+03 3.223819351196289062e+01 1.468044281005859375e+01 -2.370923519134521484e+00 3.699048042297363281e+00 3.984373807907104492e-01 1.184562206268310547e+00
2.907000000000000000e+03 6.997637176513671875e+01 -3.350655746459960938e+01 1.423053741455078125e+00 5.363866329193115234e+00 2.036076068878173828e+00 -1.372354149818420410e+00
2.908000000000000000e+03 5.776555252075195312e+01 -2.393149566650390625e+01 5.548201799392700195e-01 6.055149555206298828e+00 1.982990980148315430e+00 1.055489420890808105e+00
2.909000000000000000e+03 5.410848236083984375e+01 -1.305543804168701172e+01 -5.266872420907020569e-02 3.715587377548217773e+00 1.098875641822814941e+00 -3.196716308593750000e+00
2.910000000000000000e+03 6.108590316772460938e+01 1.279826641082763672e+00 -9.096807241439819336e-01 5.583531379699707031e+00 1.402155160903930664e+00 -1.875040650367736816e+00
2.911000000000000000e+03 6.211603546142578125e+01 -2.141361045837402344e+01 3.055716991424560547e+00 5.380421638488769531e+00 2.530841588973999023e+00 -1.576950073242187500e+00
2.912000000000000000e+03 6.114636993408203125e+01 -2.128104019165039062e+01 2.814591169357299805e+00 4.839884281158447266e+00 2.296342611312866211e+00 -1.233884453773498535e+00
2.913000000000000000e+03 3.508738327026367188e+01 -1.922428131103515625e+00 3.050632238388061523e+00 3.313916206359863281e+00 1.909364581108093262e+00 1.233332276344299316e+00
2.914000000000000000e+03 4.051150894165039062e+01 1.375909614562988281e+01 5.467272400856018066e-01 5.645630359649658203e+00 1.857707262039184570e+00 -5.422086715698242188e-01
2.915000000000000000e+03 1.111228656768798828e+01 -2.806509208679199219e+01 6.668346524238586426e-01 8.614652156829833984e-01 4.584899544715881348e-01 2.633294165134429932e-01
2.916000000000000000e+03 6.584483337402343750e+01 2.300484848022460938e+01 2.145037651062011719e-01 2.912773132324218750e+00 9.381830692291259766e-01 1.401469945907592773e+00
2.917000000000000000e+03 6.171776962280273438e+01 2.043218165636062622e-01 -6.057311296463012695e-01 6.389247417449951172e+00 1.735054969787597656e+00 -1.199686884880065918e+00
2.918000000000000000e+03 2.849651718139648438e+01 4.612075328826904297e+00 1.590394616127014160e+00 8.275350570678710938e+00 2.959723472595214844e+00 -1.387682795524597168e+00
2.919000000000000000e+03 2.776169967651367188e+01 1.874529242515563965e+00 -5.070419311523437500e-01 4.387565612792968750e+00 1.164157032966613770e+00 -2.579345464706420898e+00
2.920000000000000000e+03 5.592005157470703125e+01 3.067466735839843750e+00 -6.529121994972229004e-01 4.299897670745849609e+00 1.094095706939697266e+00 9.690905213356018066e-01
2.921000000000000000e+03 5.440510177612304688e+01 3.687552213668823242e+00 -6.538171172142028809e-01 5.237938404083251953e+00 1.375236392021179199e+00 2.322237730026245117e+00
2.922000000000000000e+03 6.203570556640625000e+01 4.471575260162353516e+00 -8.990823030471801758e-01 4.369623184204101562e+00 1.041162252426147461e+00 -1.857411146163940430e+00
2.923000000000000000e+03 5.612256240844726562e+01 5.581532955169677734e+00 5.084975361824035645e-01 6.848270416259765625e+00 2.207030296325683594e+00 5.906482934951782227e-01
2.924000000000000000e+03 2.244837760925292969e+01 -2.361181068420410156e+01 1.286289691925048828e+00 8.474928140640258789e-01 6.401347517967224121e-01 7.332567572593688965e-01
2.925000000000000000e+03 3.770067691802978516e+00 1.104627990722656250e+01 7.177593186497688293e-03 -2.444773912429809570e-01 -7.118993997573852539e-02 2.185362726449966431e-01
2.926000000000000000e+03 3.790261840820312500e+01 1.776510047912597656e+01 8.562671542167663574e-01 2.383222818374633789e+00 9.718469977378845215e-01 -2.435441970825195312e+00
2.927000000000000000e+03 6.320936203002929688e+01 4.775194644927978516e+00 -9.929799437522888184e-01 2.967170476913452148e+00 5.922572016716003418e-01 -1.268910884857177734e+00
2.928000000000000000e+03 7.491946411132812500e+01 -2.871874618530273438e+01 -4.017626941204071045e-01 6.913976192474365234e+00 1.953664064407348633e+00 6.501131057739257812e-01
2.929000000000000000e+03 5.998638153076171875e+01 6.560415267944335938e+00 -2.482626140117645264e-01 5.213997364044189453e+00 1.489720463752746582e+00 -1.320337414741516113e+00
2.930000000000000000e+03 5.872388458251953125e+01 1.704901885986328125e+01 2.103466987609863281e+00 7.095585346221923828e+00 2.759715795516967773e+00 1.223151087760925293e+00
2.931000000000000000e+03 5.292005538940429688e+01 -3.048368644714355469e+01 2.566100835800170898e+00 6.097317695617675781e+00 2.599025487899780273e+00 1.643704622983932495e-01
2.932000000000000000e+03 5.300533294677734375e+01 -2.901985168457031250e+01 1.370022058486938477e+00 5.130167484283447266e+00 1.950056791305541992e+00 5.710551142692565918e-01
2.933000000000000000e+03 2.522028541564941406e+01 -2.076852226257324219e+01 2.170893907546997070e+00 3.721405506134033203e+00 1.767689824104309082e+00 6.913268566131591797e-01
2.934000000000000000e+03 2.526931381225585938e+01 -1.996699523925781250e+01 2.092954158782958984e+00 3.418547868728637695e+00 1.653450608253479004e+00 7.315749526023864746e-01
2.935000000000000000e+03 7.376890563964843750e+01 -2.834909820556640625e+01 -6.670787334442138672e-01 6.414474487304687500e+00 1.724218726158142090e+00 1.211770176887512207e+00
2.936000000000000000e+03 7.222315216064453125e+01 -2.910698699951171875e+01 3.899600505828857422e-01 4.019997119903564453e+00 1.322987198829650879e+00 1.321331024169921875e+00
2.937000000000000000e+03 5.850823974609375000e+01 7.888391017913818359e+00 6.720714569091796875e-01 6.615556240081787109e+00 2.186288356781005859e+00 -2.659776806831359863e-01
2.938000000000000000e+03 1.805854415893554688e+01 -1.686097335815429688e+01 3.687998950481414795e-01 1.000235006213188171e-01 1.406470239162445068e-01 -2.893293797969818115e-01
2.939000000000000000e+03 1.876827812194824219e+01 -1.339275264739990234e+01 -6.253054141998291016e-01 6.311189383268356323e-02 -1.686580479145050049e-01 4.111885651946067810e-02
2.940000000000000000e+03 4.937083816528320312e+01 -2.747560882568359375e+01 -5.685563087463378906e-01 4.917010307312011719e+00 1.304536223411560059e+00 -2.994739294052124023e+00
2.941000000000000000e+03 3.490160751342773438e+01 -7.716772079467773438e+00 3.163259029388427734e+00 6.644564151763916016e+00 2.942347049713134766e+00 -1.800784766674041748e-01
2.942000000000000000e+03 3.132817840576171875e+01 -9.220296859741210938e+00 3.462751626968383789e+00 7.036775588989257812e+00 3.149858236312866211e+00 2.450632095336914062e+00
2.943000000000000000e+03 1.854415321350097656e+01 -2.129069137573242188e+01 1.085955023765563965e+00 -9.792738594114780426e-03 3.228486776351928711e-01 7.087897062301635742e-01
2.944000000000000000e+03 1.937620735168457031e+01 -2.056784057617187500e+01 1.331992387771606445e+00 -1.825556531548500061e-02 3.941210508346557617e-01 5.010526776313781738e-01
2.945000000000000000e+03 3.409891510009765625e+01 -3.379162597656250000e+01 1.302656412124633789e+00 1.891510963439941406e+00 9.582502245903015137e-01 9.215795397758483887e-01
2.946000000000000000e+03 4.970735549926757812e+01 -1.507443714141845703e+01 -1.838544964790344238e+00 2.508733272552490234e+00 2.010564804077148438e-01 1.325026512145996094e+00
2.947000000000000000e+03 3.304661560058593750e+01 2.735316467285156250e+01 1.141445755958557129e+00 6.443898200988769531e+00 2.275603055953979492e+00 -6.399638056755065918e-01
2.948000000000000000e+03 6.174707794189453125e+01 -1.174121665954589844e+01 -9.285122752189636230e-01 6.698091506958007812e+00 1.730873703956604004e+00 1.342839598655700684e+00
2.949000000000000000e+03 2.557332038879394531e+01 1.290761184692382812e+01 -7.951303124427795410e-01 2.109941005706787109e+00 3.944432139396667480e-01 -2.237124919891357422e+00
2.950000000000000000e+03 2.485310935974121094e+01 9.295513153076171875e+00 1.266610503196716309e+00 2.555553436279296875e+00 1.146649122238159180e+00 -2.186642169952392578e+00
2.951000000000000000e+03 1.730857276916503906e+01 -1.471318244934082031e+01 -8.927907794713973999e-02 2.152794748544692993e-01 3.780012205243110657e-02 -2.529651820659637451e-01
2.952000000000000000e+03 1.761666107177734375e+01 -1.338662910461425781e+01 -3.580794334411621094e-01 2.039685994386672974e-01 -4.623325541615486145e-02 -2.059857733547687531e-02
2.953000000000000000e+03 6.525780487060546875e+01 3.347657024860382080e-01 1.841963380575180054e-01 4.877146244049072266e+00 1.518402814865112305e+00 1.117802739143371582e+00
2.954000000000000000e+03 4.003879165649414062e+01 -1.576385116577148438e+01 -1.258323550224304199e+00 4.970775127410888672e+00 1.113735437393188477e+00 -2.457281827926635742e+00
2.955000000000000000e+03 4.390207672119140625e+01 -2.385292625427246094e+01 2.518042802810668945e+00 3.701710224151611328e+00 1.865925908088684082e+00 -1.613878160715103149e-01
2.956000000000000000e+03 2.374412727355957031e+01 1.080029773712158203e+01 4.368898868560791016e-01 2.350509881973266602e+00 8.362199068069458008e-01 -2.410776376724243164e+00
2.957000000000000000e+03 4.497207260131835938e+01 -2.265218973159790039e+00 8.147417902946472168e-01 2.773869276046752930e+00 1.076583266258239746e+00 -2.241204500198364258e+00
2.958000000000000000e+03 6.065783977508544922e+00 6.077018737792968750e+00 -8.847300708293914795e-02 9.148400276899337769e-04 -2.626745030283927917e-02 2.020101696252822876e-01
2.959000000000000000e+03 1.196625709533691406e+01 -9.622564315795898438e+00 -1.519118547439575195e-01 6.151978299021720886e-02 -2.711762301623821259e-02 -1.005103662610054016e-01
2.960000000000000000e+03 4.434072494506835938e+01 -2.032319641113281250e+01 2.954626321792602539e+00 5.377642631530761719e+00 2.499680757522583008e+00 9.986300766468048096e-02
2.961000000000000000e+03 4.218306732177734375e+01 -2.156675529479980469e+01 2.962946176528930664e+00 5.010847568511962891e+00 2.392138242721557617e+00 5.128356814384460449e-01
2.962000000000000000e+03 2.615604209899902344e+01 -2.186315917968750000e+01 2.114596366882324219e+00 5.090003490447998047e+00 2.161379814147949219e+00 9.298498034477233887e-01
2.963000000000000000e+03 2.640337944030761719e+01 -2.436893272399902344e+01 6.113072037696838379e-01 5.371545314788818359e+00 1.794855833053588867e+00 8.164216876029968262e-01
2.964000000000000000e+03 5.754862594604492188e+01 4.882515430450439453e+00 -8.167722076177597046e-02 5.510022163391113281e+00 1.628503441810607910e+00 -6.721025705337524414e-01
2.965000000000000000e+03 1.586493587493896484e+01 -1.037924289703369141e+01 -3.048298060894012451e-01 2.184713780879974365e-01 -2.590753324329853058e-02 9.195392578840255737e-02
2.966000000000000000e+03 1.581581687927246094e+01 -9.091513633728027344e+00 -1.832216829061508179e-01 1.405632197856903076e-01 -1.279754005372524261e-02 1.095844432711601257e-01
2.967000000000000000e+03 3.507931518554687500e+01 -9.045340538024902344e+00 3.192327499389648438e+00 6.148637294769287109e+00 2.802289485931396484e+00 -2.004148960113525391e-01
2.968000000000000000e+03 3.746295547485351562e+01 1.585793113708496094e+01 7.502036094665527344e-01 2.403401613235473633e+00 9.460815787315368652e-01 -2.301349639892578125e+00
2.969000000000000000e+03 3.713628005981445312e+01 -1.257918548583984375e+01 -6.368105411529541016e-01 5.376060485839843750e+00 1.421774983406066895e+00 -2.248237371444702148e+00
2.970000000000000000e+03 4.539127731323242188e+01 -2.446746826171875000e+01 1.133675932884216309e+00 3.791590452194213867e+00 1.477579951286315918e+00 -1.790447950363159180e+00
2.971000000000000000e+03 4.559645462036132812e+01 -2.352589988708496094e+01 2.182070970535278320e+00 4.542480468750000000e+00 2.017365455627441406e+00 -1.208941459655761719e+00
2.972000000000000000e+03 3.430160903930664062e+01 -2.557071208953857422e+00 3.343180179595947266e+00 4.489150524139404297e+00 2.349699258804321289e+00 -4.899068474769592285e-01
2.973000000000000000e+03 7.092772674560546875e+01 1.825912356376647949e+00 4.121090769767761230e-01 2.178709268569946289e+00 7.772454619407653809e-01 1.213012814521789551e+00
2.974000000000000000e+03 7.227255249023437500e+01 1.275257825851440430e+00 -6.643419712781906128e-02 3.012624025344848633e+00 8.838569521903991699e-01 -3.651504218578338623e-02
2.975000000000000000e+03 4.673035049438476562e+01 -2.514451408386230469e+01 -3.835823237895965576e-01 5.308186531066894531e+00 1.477381229400634766e+00 -3.070093154907226562e+00
2.976000000000000000e+03 2.667258644104003906e+01 -2.839168548583984375e+01 -1.866601347923278809e+00 5.022582054138183594e+00 9.467941522598266602e-01 5.260854363441467285e-01
2.977000000000000000e+03 7.469093322753906250e+01 3.302958297729492188e+01 2.428696602582931519e-01 6.537688255310058594e+00 2.034167289733886719e+00 2.380544841289520264e-01
2.978000000000000000e+03 7.388860321044921875e+01 2.828493309020996094e+01 4.290746450424194336e-01 6.037838459014892578e+00 1.940073966979980469e+00 -2.393724322319030762e-01
2.979000000000000000e+03 7.572029113769531250e+01 1.639085006713867188e+01 2.233477495610713959e-02 7.938235759735107422e+00 2.388171195983886719e+00 1.103661894798278809e+00
2.980000000000000000e+03 7.446588897705078125e+01 1.641543197631835938e+01 3.488888591527938843e-02 8.353080749511718750e+00 2.516390800476074219e+00 9.102796912193298340e-01
2.981000000000000000e+03 2.275282669067382812e+01 1.034956073760986328e+01 2.839343845844268799e-01 2.076298236846923828e+00 7.080698013305664062e-01 -2.000880002975463867e+00
2.982000000000000000e+03 2.212540435791015625e+01 8.009846687316894531e+00 9.054007530212402344e-01 9.175691604614257812e-01 5.468909740447998047e-01 -9.906855821609497070e-01
2.983000000000000000e+03 2.330272293090820312e+01 1.160725879669189453e+01 4.252162575721740723e-02 2.498182296752929688e+00 7.622112035751342773e-01 -2.423535585403442383e+00
2.984000000000000000e+03 7.589257049560546875e+01 -2.995476913452148438e+01 -1.157939061522483826e-01 6.871383190155029297e+00 2.026676893234252930e+00 3.121690154075622559e-01
2.985000000000000000e+03 7.460124206542968750e+01 -3.084221839904785156e+01 2.066136151552200317e-01 6.216185569763183594e+00 1.926839828491210938e+00 4.893313646316528320e-01
2.986000000000000000e+03 7.557110595703125000e+01 -2.707331275939941406e+01 -7.118398547172546387e-01 7.726839542388916016e+00 2.104499816894531250e+00 7.791382819414138794e-02
2.987000000000000000e+03 4.251951980590820312e+01 5.421205520629882812e+00 1.426412940025329590e+00 7.366921901702880859e+00 2.638000488281250000e+00 1.108146011829376221e-01
2.988000000000000000e+03 4.344342041015625000e+01 3.046515703201293945e+00 1.826242446899414062e+00 4.869625091552734375e+00 2.008760213851928711e+00 -1.241682648658752441e+00
2.989000000000000000e+03 7.283983612060546875e+01 2.324970245361328125e+01 -5.264432430267333984e-01 5.982994079589843750e+00 1.636965155601501465e+00 -9.543649554252624512e-01
2.990000000000000000e+03 7.529228973388671875e+01 2.677054595947265625e+01 1.174450218677520752e-01 6.577227592468261719e+00 2.008401870727539062e+00 -4.009999930858612061e-01
2.991000000000000000e+03 7.015634918212890625e+01 2.495768737792968750e+01 6.570279002189636230e-01 4.253730773925781250e+00 1.473227500915527344e+00 -8.164660334587097168e-01
2.992000000000000000e+03 7.305158996582031250e+01 2.029801177978515625e+01 -1.410632491111755371e+00 6.859831333160400391e+00 1.634759783744812012e+00 -5.499861240386962891e-01
2.993000000000000000e+03 7.387407684326171875e+01 1.072173881530761719e+01 1.874218821525573730e+00 9.098278999328613281e+00 3.291749238967895508e+00 2.139516621828079224e-01
2.994000000000000000e+03 7.471586608886718750e+01 1.160497760772705078e+01 1.568421363830566406e+00 8.948916435241699219e+00 3.155201435089111328e+00 1.310237795114517212e-01
2.995000000000000000e+03 7.301258087158203125e+01 4.900875568389892578e+00 -2.868067324161529541e-01 5.881356716156005859e+00 1.678364992141723633e+00 1.728616952896118164e-01
2.996000000000000000e+03 7.255841064453125000e+01 3.626348018646240234e+00 -1.444948315620422363e-01 4.887821197509765625e+00 1.422997951507568359e+00 2.894123196601867676e-01
2.997000000000000000e+03 7.551525878906250000e+01 4.555795192718505859e+00 -2.735462784767150879e-01 6.979257106781005859e+00 2.011713266372680664e+00 -8.814652562141418457e-01
2.998000000000000000e+03 7.384389495849609375e+01 2.597550868988037109e+00 -2.972608804702758789e-01 5.241349697113037109e+00 1.483226656913757324e+00 -5.934793949127197266e-01
2.999000000000000000e+03 7.573812103271484375e+01 3.304208278656005859e+00 -3.374453186988830566e-01 6.977962970733642578e+00 1.992155313491821289e+00 -8.480529189109802246e-01
3.000000000000000000e+03 7.489511108398437500e+01 1.968906974792480469e+01 -9.146093726158142090e-01 7.584543228149414062e+00 2.000980138778686523e+00 3.197089433670043945e-01
3.001000000000000000e+03 7.557464599609375000e+01 1.892313194274902344e+01 -7.792975902557373047e-01 7.790088176727294922e+00 2.103237152099609375e+00 6.549378037452697754e-01
3.002000000000000000e+03 7.557040405273437500e+01 8.713215827941894531e+00 5.347262024879455566e-01 7.553342819213867188e+00 2.426420688629150391e+00 -8.714857101440429688e-01
3.003000000000000000e+03 7.419570159912109375e+01 6.816683292388916016e+00 -2.207574201747775078e-03 7.411194801330566406e+00 2.222696304321289062e+00 -5.632709860801696777e-01
3.004000000000000000e+03 7.361853027343750000e+01 4.734221100807189941e-01 -6.554116606712341309e-01 4.368140697479248047e+00 1.113818645477294922e+00 -1.023926258087158203e+00
3.005000000000000000e+03 7.401255035400390625e+01 1.396023654937744141e+01 1.418019294738769531e+00 8.998501777648925781e+00 3.124956369400024414e+00 4.113794267177581787e-01
3.006000000000000000e+03 6.697277832031250000e+01 2.646742105484008789e+00 2.986395359039306641e-01 2.465059757232666016e+00 8.291097879409790039e-01 1.770218729972839355e+00
3.007000000000000000e+03 7.459468078613281250e+01 3.004888153076171875e+01 3.833552896976470947e-01 6.299854755401611328e+00 2.004963159561157227e+00 -6.409282982349395752e-02
3.008000000000000000e+03 7.392290496826171875e+01 2.090624618530273438e+01 -1.119845032691955566e+00 6.996132850646972656e+00 1.762886285781860352e+00 -2.603752017021179199e-01
3.009000000000000000e+03 7.462895965576171875e+01 -3.198645782470703125e+01 4.340957701206207275e-01 6.035290718078613281e+00 1.940815925598144531e+00 2.187994122505187988e-01
3.010000000000000000e+03 7.333442687988281250e+01 3.251262664794921875e+01 2.921280860900878906e-01 6.183524608612060547e+00 1.942695856094360352e+00 3.296302556991577148e-01
3.011000000000000000e+03 7.601851654052734375e+01 -2.625992965698242188e+01 -4.755744040012359619e-01 7.944892406463623047e+00 2.240795373916625977e+00 -1.686223298311233521e-01
3.012000000000000000e+03 7.258889770507812500e+01 -3.544187927246093750e+01 4.859664142131805420e-01 5.923429965972900391e+00 1.922818899154663086e+00 -8.562440276145935059e-01
3.013000000000000000e+03 7.469675445556640625e+01 -3.316812515258789062e+01 5.393809080123901367e-01 6.067816257476806641e+00 1.982159137725830078e+00 -6.655942648649215698e-02
3.014000000000000000e+03 7.401082611083984375e+01 3.123523330688476562e+01 4.597345292568206787e-01 6.200999259948730469e+00 1.998220086097717285e+00 1.724042445421218872e-01
3.015000000000000000e+03 4.311129760742187500e+01 -1.920366287231445312e+01 2.489995956420898438e+00 4.496391296386718750e+00 2.095916271209716797e+00 -1.911249607801437378e-01
3.016000000000000000e+03 4.418912506103515625e+01 -1.941473197937011719e+01 2.846835851669311523e+00 4.853756904602050781e+00 2.310177803039550781e+00 1.302965432405471802e-01
3.017000000000000000e+03 4.413589477539062500e+00 -3.085776710510253906e+01 1.312086135149002075e-01 -1.076965406537055969e-01 7.053622044622898102e-03 1.810603588819503784e-01
3.018000000000000000e+03 5.652223110198974609e+00 -2.969365692138671875e+01 1.927676200866699219e-01 5.114618316292762756e-02 7.317414134740829468e-02 1.346699297428131104e-01
3.019000000000000000e+03 5.091288566589355469e+00 -2.719283103942871094e+01 1.302498579025268555e-01 -2.711984328925609589e-02 3.093900159001350403e-02 -4.053772613406181335e-02
3.020000000000000000e+03 3.847950220108032227e+00 -1.068818473815917969e+01 -4.155195131897926331e-02 -6.334140151739120483e-02 -3.146800771355628967e-02 -2.449668198823928833e-02
3.021000000000000000e+03 7.399720001220703125e+01 9.206589698791503906e+00 9.233762025833129883e-01 8.420071601867675781e+00 2.803034305572509766e+00 -2.973394095897674561e-01
3.022000000000000000e+03 7.270890045166015625e+01 7.431060791015625000e+00 2.749901711940765381e-01 7.494398117065429688e+00 2.330816507339477539e+00 3.704773783683776855e-01
3.023000000000000000e+03 5.725136184692382812e+01 -1.755421066284179688e+01 9.342546463012695312e-01 6.681857585906982422e+00 2.284833669662475586e+00 -3.269193172454833984e-01
3.024000000000000000e+03 5.805796051025390625e+01 -1.631235504150390625e+01 3.457987606525421143e-01 6.049838066101074219e+00 1.918691158294677734e+00 -1.829782575368881226e-01
3.025000000000000000e+03 3.060769557952880859e+00 -2.297902679443359375e+01 6.236994266510009766e-02 -2.726956009864807129e-01 -6.309769302606582642e-02 -6.592814624309539795e-02
3.026000000000000000e+03 4.053655624389648438e+00 -2.295678138732910156e+01 6.119871139526367188e-02 -6.287568062543869019e-02 -5.030909669585525990e-04 -9.097810089588165283e-02
3.027000000000000000e+03 6.974045562744140625e+01 2.410934209823608398e+00 3.329188227653503418e-01 2.298985958099365234e+00 7.895714640617370605e-01 2.075869560241699219e+00
3.028000000000000000e+03 5.786344051361083984e+00 1.995016860961914062e+01 4.776157438755035400e-02 2.373333573341369629e-01 8.552847802639007568e-02 3.266904875636100769e-02
3.029000000000000000e+03 3.690543889999389648e+00 1.305311679840087891e+01 2.168296836316585541e-02 -2.992646098136901855e-01 -8.327449113130569458e-02 2.005562037229537964e-01
3.030000000000000000e+03 3.551406145095825195e+00 1.208386993408203125e+01 8.593743667006492615e-03 -2.918258011341094971e-01 -8.496961742639541626e-02 2.094131708145141602e-01
3.031000000000000000e+03 6.826826095581054688e+00 1.770226097106933594e+01 5.079657956957817078e-02 2.613596320152282715e-01 9.364686161279678345e-02 8.040750771760940552e-02
3.032000000000000000e+03 5.625302314758300781e+00 2.098888015747070312e+01 7.716007530689239502e-02 3.406783938407897949e-01 1.253515481948852539e-01 2.671844139695167542e-02
3.033000000000000000e+03 4.414613246917724609e+00 -2.648793029785156250e+01 6.447559595108032227e-02 -8.114551007747650146e-02 -5.000974517315626144e-03 -3.536074608564376831e-02
3.034000000000000000e+03 8.365557670593261719e+00 -3.299745559692382812e+01 3.716792166233062744e-01 5.995004177093505859e-01 2.913539111614227295e-01 4.786909818649291992e-01
3.035000000000000000e+03 6.068922996520996094e+00 1.405504989624023438e+01 5.539114400744438171e-02 5.561662837862968445e-02 3.330233320593833923e-02 1.943076699972152710e-01
3.036000000000000000e+03 5.673223495483398438e+00 -3.490214157104492188e+01 6.372084468603134155e-02 2.156802862882614136e-01 8.382033556699752808e-02 4.385381340980529785e-01
3.037000000000000000e+03 6.212396144866943359e+00 1.104417037963867188e+01 2.278131060302257538e-02 5.253054201602935791e-02 2.259355597198009491e-02 2.459131777286529541e-01
3.038000000000000000e+03 6.359430789947509766e+00 9.986638069152832031e+00 -4.377796314656734467e-03 6.898457556962966919e-02 1.938203349709510803e-02 2.439275532960891724e-01
3.039000000000000000e+03 4.036636829376220703e+00 -7.305279254913330078e+00 -9.170264936983585358e-03 -3.059800900518894196e-02 -1.193048246204853058e-02 1.320134196430444717e-02
3.040000000000000000e+03 7.260484313964843750e+01 3.400878143310546875e+01 2.087685912847518921e-01 6.179618358612060547e+00 1.916516065597534180e+00 4.344039559364318848e-01
3.041000000000000000e+03 7.111967468261718750e+01 3.314415740966796875e+01 3.072255551815032959e-01 5.791593074798583984e+00 1.829645633697509766e+00 5.786367654800415039e-01
3.042000000000000000e+03 4.289898872375488281e+00 7.823093414306640625e+00 -2.918172255158424377e-02 -1.122365146875381470e-01 -4.242547228932380676e-02 2.206569910049438477e-01
3.043000000000000000e+03 5.779334545135498047e+00 8.317548751831054688e+00 -3.995298594236373901e-02 -2.245839685201644897e-03 -1.265964750200510025e-02 2.360422164201736450e-01
3.044000000000000000e+03 5.132879257202148438e+00 6.411158084869384766e+00 -6.698813289403915405e-02 -4.568596184253692627e-02 -3.380222991108894348e-02 2.070041745901107788e-01
3.045000000000000000e+03 5.199852752685546875e+01 2.469110488891601562e+01 6.706641912460327148e-01 5.529380798339843750e+00 1.860013484954833984e+00 -5.836554169654846191e-01
3.046000000000000000e+03 5.031852245330810547e+00 -6.788470268249511719e+00 -7.705175783485174179e-03 -6.018012389540672302e-02 -2.036559022963047028e-02 -9.610268170945346355e-04
3.047000000000000000e+03 4.823859405517578125e+01 -3.129594326019287109e+00 1.058629631996154785e+00 5.665935516357421875e+00 2.017369508743286133e+00 -1.283451676368713379e+00
3.048000000000000000e+03 4.787765884399414062e+01 -4.024208068847656250e+00 9.720077514648437500e-01 6.063395500183105469e+00 2.110620975494384766e+00 -1.463031411170959473e+00
3.049000000000000000e+03 5.929152011871337891e+00 -6.368289470672607422e+00 -9.032549336552619934e-03 -5.526942014694213867e-02 -1.929059065878391266e-02 -8.174561895430088043e-03
3.050000000000000000e+03 5.726424407958984375e+01 5.749858379364013672e+00 3.221949934959411621e-01 6.349731922149658203e+00 2.001578092575073242e+00 -4.182680249214172363e-01
3.051000000000000000e+03 4.250529479980468750e+01 -1.760242843627929688e+01 1.340433716773986816e+00 3.810233116149902344e+00 1.545199990272521973e+00 -4.474471211433410645e-01
3.052000000000000000e+03 4.710075759887695312e+01 4.460054874420166016e+00 3.578225970268249512e-01 1.924660444259643555e+00 6.847448945045471191e-01 -1.265995502471923828e+00
3.053000000000000000e+03 3.457444000244140625e+01 1.557316875457763672e+01 -2.276600524783134460e-02 1.863657832145690918e+00 5.522675514221191406e-01 -1.230083703994750977e+00
3.054000000000000000e+03 3.660383224487304688e+01 1.501548480987548828e+01 3.096010908484458923e-02 1.766156554222106934e+00 5.391349792480468750e-01 -2.138097524642944336e+00
3.055000000000000000e+03 4.934291458129882812e+01 2.024946403503417969e+01 -1.337309837341308594e+00 1.595285654067993164e+00 7.739273458719253540e-02 4.036378581076860428e-03
3.056000000000000000e+03 5.083595657348632812e+01 2.088323211669921875e+01 -9.684625267982482910e-01 3.105904340744018555e+00 6.412324905395507812e-01 -1.313978195190429688e+00
3.057000000000000000e+03 6.205830574035644531e+00 -1.219196319580078125e+01 -1.642635166645050049e-01 -1.286161690950393677e-01 -8.786390721797943115e-02 -8.286365866661071777e-02
3.058000000000000000e+03 6.903749942779541016e+00 -1.140844917297363281e+01 -1.442629545927047729e-01 -1.675206422805786133e-01 -9.353508055210113525e-02 -7.927829772233963013e-02
3.059000000000000000e+03 6.468690490722656250e+01 -1.493511962890625000e+01 -1.617204308509826660e+00 5.142677783966064453e+00 1.057642102241516113e+00 6.471654772758483887e-01
3.060000000000000000e+03 6.489620208740234375e+01 -1.266450214385986328e+01 -1.183470964431762695e+00 5.810647010803222656e+00 1.388152837753295898e+00 4.834724590182304382e-02
3.061000000000000000e+03 3.009300994873046875e+01 3.096602058410644531e+01 5.105682015419006348e-01 2.946759462356567383e+00 1.037198305130004883e+00 -1.358000993728637695e+00
3.062000000000000000e+03 2.803561210632324219e+01 3.131008148193359375e+01 6.159942150115966797e-01 1.732138872146606445e+00 7.044399380683898926e-01 -9.303510189056396484e-01
3.063000000000000000e+03 6.123092269897460938e+01 -2.364176177978515625e+01 2.574948787689208984e+00 3.229434728622436523e+00 1.741315126419067383e+00 -9.530942440032958984e-01
3.064000000000000000e+03 6.024331665039062500e+01 -2.308410263061523438e+01 2.471724510192871094e+00 3.621253728866577148e+00 1.827893495559692383e+00 -2.870425879955291748e-01
3.065000000000000000e+03 5.324673461914062500e+01 2.291861343383789062e+01 -8.359686136245727539e-01 4.973697185516357422e+00 1.241318583488464355e+00 -1.887026786804199219e+00
3.066000000000000000e+03 4.658063125610351562e+01 1.457919120788574219e+00 1.362563133239746094e+00 3.350745439529418945e+00 1.413992524147033691e+00 -1.978696465492248535e+00
3.067000000000000000e+03 5.760198211669921875e+01 2.070291328430175781e+01 -3.708137571811676025e-01 3.051428079605102539e+00 8.041843175888061523e-01 -9.834603071212768555e-01
3.068000000000000000e+03 5.521860885620117188e+01 2.140693092346191406e+01 -1.495131134986877441e+00 3.969902515411376953e+00 7.424314022064208984e-01 -2.689214944839477539e+00
3.069000000000000000e+03 4.216743850708007812e+01 2.593889236450195312e+00 2.444079160690307617e+00 6.282494544982910156e+00 2.617972135543823242e+00 -7.100786566734313965e-01
3.070000000000000000e+03 6.287135314941406250e+01 -1.692032432556152344e+01 -5.433086752891540527e-01 6.678342342376708984e+00 1.840510129928588867e+00 -1.928356140851974487e-01
3.071000000000000000e+03 6.079167556762695312e+01 -1.815624809265136719e+01 1.136224031448364258e+00 6.002591609954833984e+00 2.141644716262817383e+00 -4.626335799694061279e-01
3.072000000000000000e+03 6.529029083251953125e+01 3.614910125732421875e+00 -4.161201715469360352e-01 2.749174594879150391e+00 6.999163031578063965e-01 2.756362855434417725e-01
3.073000000000000000e+03 3.088826370239257812e+01 3.306665039062500000e+01 2.617449127137660980e-02 3.524296045303344727e+00 1.065141201019287109e+00 -1.176311373710632324e+00
3.074000000000000000e+03 2.710392570495605469e+01 3.269408035278320312e+01 4.842872917652130127e-01 1.667623043060302734e+00 6.455730795860290527e-01 -5.731419920921325684e-01
3.075000000000000000e+03 4.389812088012695312e+01 -1.663605880737304688e+01 4.204918444156646729e-01 3.697289943695068359e+00 1.235334515571594238e+00 6.710471510887145996e-01
3.076000000000000000e+03 4.192021560668945312e+01 -1.673087120056152344e+01 6.290973424911499023e-01 2.962719678878784180e+00 1.077545046806335449e+00 -1.039559721946716309e+00
3.077000000000000000e+03 5.049619674682617188e+01 2.623039627075195312e+01 1.979596495628356934e+00 5.756678104400634766e+00 2.320882320404052734e+00 5.009649395942687988e-01
3.078000000000000000e+03 4.804812622070312500e+01 3.637978076934814453e+00 6.381281018257141113e-01 1.834854960441589355e+00 7.418949007987976074e-01 -8.775795102119445801e-01
3.079000000000000000e+03 5.033265686035156250e+01 1.120537757873535156e+00 4.734911620616912842e-01 3.862889528274536133e+00 1.300914168357849121e+00 2.657393217086791992e-01
3.080000000000000000e+03 5.296299743652343750e+01 -3.275460052490234375e+01 2.974911928176879883e+00 7.157190322875976562e+00 3.039630651473999023e+00 -3.282902538776397705e-01
3.081000000000000000e+03 5.983008193969726562e+01 3.467509746551513672e+00 -8.523612022399902344e-01 4.855453968048095703e+00 1.200927734375000000e+00 -2.246518611907958984e+00
3.082000000000000000e+03 6.861690998077392578e+00 2.002149963378906250e+01 1.024347171187400818e-01 4.383254051208496094e-01 1.622280329465866089e-01 -5.925413593649864197e-02
3.083000000000000000e+03 6.226668548583984375e+01 -1.581492710113525391e+01 -1.045261979103088379e+00 6.546533107757568359e+00 1.650381207466125488e+00 2.760542333126068115e-01
3.084000000000000000e+03 6.971342468261718750e+01 5.131687164306640625e+00 1.003766953945159912e-01 3.355275392532348633e+00 1.036695599555969238e+00 2.147227525711059570e+00
3.085000000000000000e+03 7.238211059570312500e+01 5.924541950225830078e+00 -2.805821001529693604e-01 6.231993198394775391e+00 1.785423398017883301e+00 6.908529996871948242e-01
3.086000000000000000e+03 3.644265747070312500e+01 1.895228385925292969e+01 5.025082826614379883e-01 3.078979969024658203e+00 1.074446439743041992e+00 -2.165635108947753906e+00
3.087000000000000000e+03 2.285698699951171875e+01 -1.544816112518310547e+01 -8.461153507232666016e-02 8.965366333723068237e-02 1.512638642452657223e-03 8.981385827064514160e-02
3.088000000000000000e+03 2.610449409484863281e+01 -1.913139915466308594e+01 1.769104957580566406e+00 4.775624752044677734e+00 1.963418960571289062e+00 7.180299758911132812e-01
3.089000000000000000e+03 3.383493041992187500e+01 -3.507968521118164062e+01 6.852973699569702148e-01 2.455980300903320312e+00 9.423832893371582031e-01 8.329606652259826660e-01
3.090000000000000000e+03 6.902606964111328125e+01 -3.275566864013671875e+01 1.860151886940002441e+00 5.523860931396484375e+00 2.215203762054443359e+00 -1.730946540832519531e+00
3.091000000000000000e+03 1.006771850585937500e+01 -1.020949649810791016e+01 -1.505072712898254395e-01 -7.752723991870880127e-02 -6.841035187244415283e-02 -1.355442255735397339e-01
3.092000000000000000e+03 6.758205890655517578e+00 -9.894970893859863281e+00 -7.302460074424743652e-02 -1.381274014711380005e-01 -6.334559619426727295e-02 -4.604130610823631287e-02
3.093000000000000000e+03 5.645149612426757812e+01 1.822483253479003906e+01 3.853351473808288574e-01 4.936379909515380859e+00 1.596514463424682617e+00 -1.035719752311706543e+00
3.094000000000000000e+03 2.852627754211425781e+01 -3.048713111877441406e+01 -1.044505000114440918e+00 4.138496875762939453e+00 9.281975626945495605e-01 -1.410391330718994141e-01
3.095000000000000000e+03 2.815370559692382812e+01 -3.507318496704101562e+01 4.202880859375000000e-01 3.506423234939575195e+00 1.178013443946838379e+00 -3.366996943950653076e-01
3.096000000000000000e+03 1.020095634460449219e+01 1.911652565002441406e+01 3.753952682018280029e-01 3.860818147659301758e-01 2.284431308507919312e-01 -1.401297450065612793e-01
3.097000000000000000e+03 1.059311103820800781e+01 2.004998016357421875e+01 4.869185686111450195e-01 3.249356448650360107e-01 2.435562610626220703e-01 -2.372630983591079712e-01
3.098000000000000000e+03 4.721490859985351562e+01 3.481158828735351562e+01 -1.038411378860473633e+00 4.960623741149902344e+00 1.176663756370544434e+00 -7.393314838409423828e-01
3.099000000000000000e+03 3.420827102661132812e+01 -3.676695251464843750e+01 -1.788933873176574707e-01 3.222158908843994141e+00 9.129796624183654785e-01 9.199410080909729004e-01
3.100000000000000000e+03 3.525009918212890625e+01 -3.876121520996093750e+01 -1.194481849670410156e+00 3.629467964172363281e+00 7.304958105087280273e-01 6.699600815773010254e-01
3.101000000000000000e+03 4.988206481933593750e+01 -1.366787815093994141e+01 -6.877602934837341309e-01 4.097858905792236328e+00 1.023029565811157227e+00 5.524129867553710938e-01
3.102000000000000000e+03 5.162844848632812500e+01 -1.459338092803955078e+01 -4.855599105358123779e-01 1.525779843330383301e+00 3.120659887790679932e-01 -2.200193881988525391e+00
3.103000000000000000e+03 4.596797943115234375e+01 -7.124288678169250488e-01 1.183122515678405762e+00 3.627016544342041016e+00 1.443041682243347168e+00 -2.258454799652099609e+00
3.104000000000000000e+03 4.604507064819335938e+01 -1.830185890197753906e+00 1.020502924919128418e+00 3.712025642395019531e+00 1.419758558273315430e+00 -2.385300397872924805e+00
3.105000000000000000e+03 4.748119354248046875e+01 3.672259521484375000e+01 -1.379812359809875488e+00 4.603866577148437500e+00 9.672161936759948730e-01 -6.583153605461120605e-01
3.106000000000000000e+03 5.128568267822265625e+01 2.547122001647949219e+01 1.441482901573181152e+00 5.678848266601562500e+00 2.136099338531494141e+00 1.419507861137390137e-01
3.107000000000000000e+03 5.001775741577148438e+01 2.273647880554199219e+01 4.958131909370422363e-01 4.028154850006103516e+00 1.357190489768981934e+00 -4.564595818519592285e-01
3.108000000000000000e+03 7.115631866455078125e+01 -3.452749252319335938e+01 9.477254748344421387e-01 5.541007041931152344e+00 1.946619749069213867e+00 -1.064171791076660156e+00
3.109000000000000000e+03 4.382798385620117188e+01 -1.738190460205078125e+01 8.355563282966613770e-01 4.094050407409667969e+00 1.478881955146789551e+00 3.208248317241668701e-01
3.110000000000000000e+03 4.206688690185546875e+01 -1.924185562133789062e+01 2.409686088562011719e+00 4.926129341125488281e+00 2.200744628906250000e+00 -4.737311303615570068e-01
3.111000000000000000e+03 7.370874023437500000e+01 3.639522552490234375e+01 -5.640012398362159729e-02 6.559798240661621094e+00 1.951019406318664551e+00 3.125985860824584961e-01
3.112000000000000000e+03 2.584010696411132812e+01 -2.545539283752441406e+01 -4.172548055648803711e-01 4.456980705261230469e+00 1.211917757987976074e+00 7.446931004524230957e-01
3.113000000000000000e+03 6.771801757812500000e+01 3.255573272705078125e+01 4.793520867824554443e-01 5.285277366638183594e+00 1.729388833045959473e+00 9.461420178413391113e-01
3.114000000000000000e+03 8.977358818054199219e+00 -3.176447105407714844e+01 4.620364308357238770e-01 6.388885974884033203e-01 3.302775025367736816e-01 4.356040358543395996e-01
3.115000000000000000e+03 4.875278854370117188e+01 2.505379295349121094e+01 1.827775955200195312e+00 6.041832447052001953e+00 2.360882520675659180e+00 8.868327140808105469e-01
3.116000000000000000e+03 4.890729141235351562e+01 2.397801208496093750e+01 1.525754690170288086e+00 5.120376586914062500e+00 1.993839383125305176e+00 7.508988976478576660e-01
3.117000000000000000e+03 6.469495391845703125e+01 2.276851463317871094e+01 -5.272307991981506348e-01 4.138173580169677734e+00 1.083282828330993652e+00 2.365581989288330078e+00
3.118000000000000000e+03 3.520672225952148438e+01 1.898444175720214844e+01 6.706013083457946777e-01 3.531491994857788086e+00 1.260627985000610352e+00 -1.514740228652954102e+00
3.119000000000000000e+03 6.568241119384765625e+01 2.511464118957519531e+01 1.743861317634582520e+00 4.375041007995605469e+00 1.835670709609985352e+00 1.091290354728698730e+00
3.120000000000000000e+03 2.579540443420410156e+01 2.506040096282958984e+00 1.426937524229288101e-02 1.921950101852416992e+00 5.808658599853515625e-01 -6.458762288093566895e-01
3.121000000000000000e+03 2.285461425781250000e+01 2.853663444519042969e+00 -3.733243048191070557e-01 -6.952136754989624023e-02 -1.328537017107009888e-01 4.558312594890594482e-01
3.122000000000000000e+03 2.592387390136718750e+01 6.891063690185546875e+00 2.683652162551879883e+00 3.359289407730102539e+00 1.812882542610168457e+00 -1.582200646400451660e+00
3.123000000000000000e+03 2.335033416748046875e+01 2.746117830276489258e+00 -3.307434022426605225e-01 8.390548080205917358e-02 -7.405138015747070312e-02 4.112259149551391602e-01
3.124000000000000000e+03 2.392171669006347656e+01 2.302664279937744141e+00 -6.628066897392272949e-01 2.190884351730346680e-01 -1.331154704093933105e-01 3.476119935512542725e-01
3.125000000000000000e+03 2.317940521240234375e+01 2.419193744659423828e+00 -6.863771080970764160e-01 -7.325776666402816772e-02 -2.278904616832733154e-01 4.945673644542694092e-01
3.126000000000000000e+03 1.980373954772949219e+01 3.695641040802001953e+00 -3.084689676761627197e-01 -4.374017417430877686e-01 -2.237612158060073853e-01 3.407349884510040283e-01
3.127000000000000000e+03 2.924977302551269531e+01 1.369121909141540527e+00 -8.804638385772705078e-01 6.778959751129150391e+00 1.769548773765563965e+00 -4.549511432647705078e+00
3.128000000000000000e+03 2.947011566162109375e+01 1.123560667037963867e+00 -1.253781199455261230e+00 7.236616134643554688e+00 1.794850587844848633e+00 -4.434702873229980469e+00
3.129000000000000000e+03 3.192536926269531250e+01 -7.630387306213378906e+00 2.241468191146850586e+00 7.422958850860595703e+00 2.899328231811523438e+00 1.681964874267578125e+00
3.130000000000000000e+03 2.716596603393554688e+01 2.064681768417358398e+00 -2.563610374927520752e-01 3.269088506698608398e+00 9.038181900978088379e-01 -1.771246433258056641e+00
3.131000000000000000e+03 3.172142982482910156e+01 -6.353111743927001953e+00 1.034412741661071777e+00 8.054580688476562500e+00 2.726698160171508789e+00 9.320371747016906738e-01
3.132000000000000000e+03 2.085664558410644531e+01 3.934403657913208008e+00 3.356903046369552612e-02 -4.016295373439788818e-01 -1.104181557893753052e-01 3.687806129455566406e-01
3.133000000000000000e+03 2.191687393188476562e+01 4.313895225524902344e+00 4.481916725635528564e-01 -1.220178306102752686e-01 9.785214811563491821e-02 1.891331821680068970e-01
3.134000000000000000e+03 3.092015266418457031e+01 -9.310742378234863281e+00 3.475076675415039062e+00 7.624072074890136719e+00 3.329744577407836914e+00 2.679104328155517578e+00
3.135000000000000000e+03 3.191117858886718750e+01 -8.318703651428222656e+00 2.763318538665771484e+00 7.039803028106689453e+00 2.940936565399169922e+00 2.021628379821777344e+00
3.136000000000000000e+03 1.556210803985595703e+01 -7.267091274261474609e+00 -4.064146056771278381e-02 9.438654035329818726e-02 1.612352393567562103e-02 3.379581496119499207e-02
3.137000000000000000e+03 2.536194229125976562e+01 -1.407824420928955078e+01 -7.088743448257446289e-01 1.781714200973510742e+00 3.218519687652587891e-01 1.256305813789367676e+00
3.138000000000000000e+03 2.627297782897949219e+01 -1.659654617309570312e+01 2.167458385229110718e-01 4.386555671691894531e+00 1.380990386009216309e+00 1.197852849960327148e+00
3.139000000000000000e+03 2.511908149719238281e+01 -1.479787635803222656e+01 -4.740474820137023926e-01 1.923469543457031250e+00 4.348266422748565674e-01 1.216328501701354980e+00
3.140000000000000000e+03 2.739838600158691406e+01 -1.420965480804443359e+01 -9.364758729934692383e-01 5.464804172515869141e+00 1.358498454093933105e+00 2.442662954330444336e+00
3.141000000000000000e+03 1.565302085876464844e+01 -4.810047149658203125e+00 7.647591177374124527e-03 6.813408434391021729e-02 2.273450233042240143e-02 -6.527352612465620041e-03
3.142000000000000000e+03 1.330460453033447266e+01 -4.268863201141357422e+00 -9.001928381621837616e-03 -3.335375804454088211e-03 -3.701191162690520287e-03 -4.653556644916534424e-02
3.143000000000000000e+03 2.467891120910644531e+01 -1.488972759246826172e+01 -4.525124728679656982e-01 1.374202013015747070e+00 2.765068709850311279e-01 9.459635019302368164e-01
3.144000000000000000e+03 2.757758903503417969e+01 -1.354088973999023438e+01 -6.439226269721984863e-01 5.605888843536376953e+00 1.488589882850646973e+00 2.731947183609008789e+00
3.145000000000000000e+03 2.768517303466796875e+01 -1.284409141540527344e+01 2.229652106761932373e-01 5.589906692504882812e+00 1.743861556053161621e+00 3.042599916458129883e+00
3.146000000000000000e+03 1.505906772613525391e+01 -5.112051010131835938e+00 -8.210134110413491726e-04 5.137900263071060181e-02 1.516739651560783386e-02 -1.163658313453197479e-02
3.147000000000000000e+03 2.896956062316894531e+01 -1.300136756896972656e+01 -4.368480145931243896e-01 7.205682277679443359e+00 2.030650377273559570e+00 3.015124320983886719e+00
3.148000000000000000e+03 3.042145729064941406e+01 -1.269837379455566406e+01 -3.235635459423065186e-01 6.818503379821777344e+00 1.948481917381286621e+00 2.763487339019775391e+00
3.149000000000000000e+03 1.458692073822021484e+01 -4.539495468139648438e+00 -7.697034561715554446e-06 2.587833814322948456e-02 7.761192508041858673e-03 -2.652680873870849609e-02
3.150000000000000000e+03 2.640041732788085938e+01 -1.412029361724853516e+01 -6.244319677352905273e-01 3.685378789901733398e+00 9.182840585708618164e-01 2.012521982192993164e+00
3.151000000000000000e+03 1.501791667938232422e+01 -3.604670763015747070e+00 3.345217555761337280e-03 2.516835369169712067e-02 8.554071187973022461e-03 -3.135840967297554016e-02
3.152000000000000000e+03 1.918989181518554688e+01 -1.604862022399902344e+01 1.998618692159652710e-01 4.974788986146450043e-03 6.145099923014640808e-02 -3.649022579193115234e-01
3.153000000000000000e+03 1.930755996704101562e+01 -1.402892303466796875e+01 -6.640760898590087891e-01 2.884176373481750488e-02 -1.905703097581863403e-01 -1.124129146337509155e-01
3.154000000000000000e+03 1.512363910675048828e+01 -3.146924972534179688e+00 8.424291387200355530e-03 1.536991354078054428e-02 7.138261571526527405e-03 -3.147769346833229065e-02
3.155000000000000000e+03 2.425879478454589844e+01 -1.498157882690429688e+01 -3.900196850299835205e-01 9.390729665756225586e-01 1.647159904241561890e-01 7.564886808395385742e-01
3.156000000000000000e+03 2.345652961730957031e+01 -1.514957523345947266e+01 -3.109307587146759033e-01 3.707201182842254639e-01 1.793681085109710693e-02 3.402712047100067139e-01
3.157000000000000000e+03 1.617895698547363281e+01 -2.264482498168945312e+00 -6.684781983494758606e-03 3.257543593645095825e-02 7.767196279019117355e-03 -2.720152027904987335e-02
3.158000000000000000e+03 3.221170043945312500e+01 -4.936211585998535156e+00 6.853560209274291992e-01 8.738821029663085938e+00 2.827253103256225586e+00 -4.014428853988647461e-01
3.159000000000000000e+03 3.147969818115234375e+01 -4.928791999816894531e+00 -6.348087638616561890e-02 8.884940147399902344e+00 2.646437644958496094e+00 2.530291378498077393e-01
3.160000000000000000e+03 2.820162010192871094e+01 1.865055561065673828e+00 -7.172514200210571289e-01 4.993673324584960938e+00 1.282926559448242188e+00 -2.876093864440917969e+00
3.161000000000000000e+03 2.892325210571289062e+01 -1.252619361877441406e+01 1.202890500426292419e-01 7.217806339263916016e+00 2.201428651809692383e+00 3.180220603942871094e+00
3.162000000000000000e+03 3.097431755065917969e+01 -8.916686058044433594e+00 3.245358467102050781e+00 7.804379940032958984e+00 3.314921617507934570e+00 2.606442213058471680e+00
3.163000000000000000e+03 1.536054325103759766e+01 -8.556748390197753906e+00 -1.344005763530731201e-01 1.251978874206542969e-01 -2.760804723948240280e-03 7.584562152624130249e-02
3.164000000000000000e+03 1.593839836120605469e+01 -8.532036781311035156e+00 -1.224208623170852661e-01 1.093926280736923218e-01 -3.908471670001745224e-03 8.986489474773406982e-02
3.165000000000000000e+03 3.413302230834960938e+01 -1.224100303649902344e+01 9.824958443641662598e-01 3.093869447708129883e+00 1.222909569740295410e+00 3.949060142040252686e-01
3.166000000000000000e+03 1.835535812377929688e+01 -1.256797409057617188e+01 -5.316512584686279297e-01 3.791114315390586853e-02 -1.481220275163650513e-01 1.746231019496917725e-01
3.167000000000000000e+03 1.933553314208984375e+01 -1.448523235321044922e+01 -4.666389226913452148e-01 8.393467403948307037e-03 -1.374736279249191284e-01 -2.271702289581298828e-01
3.168000000000000000e+03 3.284738922119140625e+01 -7.974296092987060547e+00 2.782246828079223633e+00 6.615327358245849609e+00 2.819272279739379883e+00 1.327617526054382324e+00
3.169000000000000000e+03 2.217310523986816406e+01 -1.561063098907470703e+01 4.503403976559638977e-02 -6.941596418619155884e-02 -7.314577233046293259e-03 -1.247617080807685852e-01
3.170000000000000000e+03 2.115893173217773438e+01 -1.630677413940429688e+01 4.701737463474273682e-01 -1.043685823678970337e-01 1.097415462136268616e-01 -2.922365069389343262e-01
3.171000000000000000e+03 1.915847206115722656e+01 -1.711658096313476562e+01 5.577159523963928223e-01 -8.786709979176521301e-03 1.646787673234939575e-01 -2.809856832027435303e-01
3.172000000000000000e+03 3.192978477478027344e+01 -1.264249515533447266e+01 2.912215292453765869e-01 4.464438438415527344e+00 1.426697969436645508e+00 2.138168334960937500e+00
3.173000000000000000e+03 3.197025871276855469e+01 -1.049093055725097656e+01 2.983639001846313477e+00 5.587104320526123047e+00 2.571223020553588867e+00 1.877493500709533691e+00
3.174000000000000000e+03 1.612881469726562500e+01 -9.874960899353027344e+00 -2.708769142627716064e-01 1.570857465267181396e-01 -3.413735702633857727e-02 1.219118908047676086e-01
3.175000000000000000e+03 2.111093330383300781e+01 -1.557235908508300781e+01 2.466140082105994225e-03 -2.234782278537750244e-01 -6.630362570285797119e-02 -3.717478811740875244e-01
3.176000000000000000e+03 1.975879287719726562e+01 -1.774243164062500000e+01 8.898257017135620117e-01 -2.700821124017238617e-02 2.588452398777008057e-01 -1.863904148340225220e-01
3.177000000000000000e+03 2.240505218505859375e+01 -1.511299991607666016e+01 -4.381338655948638916e-01 -2.755491137504577637e-01 -2.141048908233642578e-01 -6.432458013296127319e-02
3.178000000000000000e+03 3.433673095703125000e+01 -8.985965728759765625e+00 3.420321702957153320e+00 5.635243892669677734e+00 2.716669797897338867e+00 3.137322962284088135e-01
3.179000000000000000e+03 1.903883171081542969e+01 5.337444782257080078e+00 3.722998499870300293e-01 -5.038931369781494141e-01 -3.947799280285835266e-02 1.124978289008140564e-01
3.180000000000000000e+03 1.963441467285156250e+01 4.036543846130371094e+00 -6.222791597247123718e-02 -4.792571365833282471e-01 -1.624455153942108154e-01 3.047175705432891846e-01
3.181000000000000000e+03 1.497007656097412109e+01 -9.537199974060058594e+00 -2.273650616407394409e-01 1.995744407176971436e-01 -8.337188512086868286e-03 5.866842716932296753e-02
3.182000000000000000e+03 1.471450519561767578e+01 -1.048916530609130859e+01 -2.925066947937011719e-01 2.688466012477874756e-01 -7.098021917045116425e-03 1.749312691390514374e-02
3.183000000000000000e+03 1.538330554962158203e+01 -4.225400447845458984e+00 7.688943762332201004e-03 4.693951085209846497e-02 1.638853736221790314e-02 -1.748065277934074402e-02
3.184000000000000000e+03 3.489305114746093750e+01 -9.772114753723144531e+00 3.361658096313476562e+00 5.340012550354003906e+00 2.610501289367675781e+00 -1.614022552967071533e-01
3.185000000000000000e+03 2.555436134338378906e+01 -1.481378459930419922e+01 -4.938226938247680664e-01 2.556941747665405273e+00 6.189357638359069824e-01 1.448156714439392090e+00
3.186000000000000000e+03 2.975669097900390625e+01 -1.451303672790527344e+01 -2.189194679260253906e+00 7.056004524230957031e+00 1.460042953491210938e+00 2.599521398544311523e+00
3.187000000000000000e+03 2.258144378662109375e+01 7.551597118377685547e+00 1.145642399787902832e+00 8.977211713790893555e-01 6.130090951919555664e-01 -9.994410872459411621e-01
3.188000000000000000e+03 3.366715621948242188e+01 -4.215075492858886719e+00 2.160035848617553711e+00 6.974135875701904297e+00 2.740251541137695312e+00 -8.717032074928283691e-01
3.189000000000000000e+03 1.517694854736328125e+01 -4.663830757141113281e+00 1.770766451954841614e-02 4.815276712179183960e-02 1.975812949240207672e-02 -1.713759265840053558e-02
3.190000000000000000e+03 3.449416351318359375e+01 -3.389605760574340820e+00 2.830695390701293945e+00 5.433304786682128906e+00 2.479200124740600586e+00 -2.593533396720886230e-01
3.191000000000000000e+03 1.795542526245117188e+01 -1.240535736083984375e+01 -4.798906147480010986e-01 8.973288536071777344e-02 -1.170473173260688782e-01 1.551750302314758301e-01
3.192000000000000000e+03 6.733229160308837891e+00 -6.003523349761962891e+00 -4.899377003312110901e-03 -6.646303087472915649e-02 -2.140872366726398468e-02 -2.025078050792217255e-02
3.193000000000000000e+03 8.035586357116699219e+00 -5.556430816650390625e+00 -8.788899518549442291e-03 -6.450379639863967896e-02 -2.198780886828899384e-02 -3.959213197231292725e-02
3.194000000000000000e+03 5.388599395751953125e+00 7.385537147521972656e+00 -5.611058697104454041e-02 -2.610803581774234772e-02 -2.466558665037155151e-02 2.262461185455322266e-01
3.195000000000000000e+03 3.227448272705078125e+01 -5.693366050720214844e+00 9.713226556777954102e-01 8.159155845642089844e+00 2.739143610000610352e+00 2.183682024478912354e-01
3.196000000000000000e+03 1.051202869415283203e+01 -5.148132324218750000e+00 -1.938126236200332642e-02 -3.377926349639892578e-02 -1.594815775752067566e-02 -5.725586786866188049e-02
3.197000000000000000e+03 1.474160194396972656e+01 -6.010231018066406250e+00 -2.193358726799488068e-02 5.399799346923828125e-02 9.619321674108505249e-03 -7.014290429651737213e-03
3.198000000000000000e+03 7.783527374267578125e+00 5.331522941589355469e+00 -1.198706179857254028e-01 3.189605474472045898e-02 -2.639237046241760254e-02 1.742852479219436646e-01
3.199000000000000000e+03 1.113025569915771484e+01 -4.209605216979980469e+00 -1.370482426136732101e-02 -2.730590291321277618e-02 -1.230321824550628662e-02 -5.698865279555320740e-02
3.200000000000000000e+03 1.520833206176757812e+01 -1.228246307373046875e+01 -2.481032311916351318e-01 3.763180375099182129e-01 3.846443817019462585e-02 -5.576943606138229370e-02
3.201000000000000000e+03 1.591315841674804688e+01 -1.256543064117431641e+01 -3.080421984195709229e-01 3.591650724411010742e-01 1.533686276525259018e-02 -2.090147510170936584e-02
3.202000000000000000e+03 2.677934074401855469e+01 7.040381431579589844e+00 2.875031948089599609e+00 4.749775409698486328e+00 2.287442207336425781e+00 -1.671943306922912598e+00
3.203000000000000000e+03 8.185840606689453125e+00 6.237841129302978516e+00 -1.066841185092926025e-01 4.689277708530426025e-02 -1.793740317225456238e-02 1.703157126903533936e-01
3.204000000000000000e+03 2.756510925292968750e+01 5.069461345672607422e+00 2.070348978042602539e+00 6.376763343811035156e+00 2.534133672714233398e+00 -1.447176098823547363e+00
3.205000000000000000e+03 2.631875228881835938e+01 5.654297351837158203e+00 2.296018123626708984e+00 3.818032026290893555e+00 1.834215044975280762e+00 -9.648812413215637207e-01
3.206000000000000000e+03 9.663410186767578125e+00 -5.434528827667236328e+00 -1.425032131373882294e-02 -5.117021873593330383e-02 -1.962616108357906342e-02 -5.699275806546211243e-02
3.207000000000000000e+03 1.270783233642578125e+01 -4.830386638641357422e+00 -1.405164785683155060e-02 -7.047028280794620514e-03 -6.329603027552366257e-03 -5.001838505268096924e-02
3.208000000000000000e+03 1.949033355712890625e+01 -1.909746551513671875e+01 1.137638807296752930e+00 1.656516455113887787e-02 3.462612032890319824e-01 1.082104742527008057e-01
3.209000000000000000e+03 2.580838966369628906e+01 -2.288462448120117188e+01 1.595378398895263672e+00 4.516580104827880859e+00 1.833587527275085449e+00 8.780781626701354980e-01
3.210000000000000000e+03 2.848290252685546875e+01 2.404309511184692383e+00 -1.109102845191955566e+00 6.255465507507324219e+00 1.543908834457397461e+00 -2.888461351394653320e+00
3.211000000000000000e+03 2.845192146301269531e+01 3.645050525665283203e+00 4.237054586410522461e-01 7.726437091827392578e+00 2.445042610168457031e+00 -2.191341638565063477e+00
3.212000000000000000e+03 2.675489044189453125e+01 1.257626438140869141e+01 -6.711907386779785156e-01 2.012089967727661133e+00 4.022697806358337402e-01 -1.641881704330444336e+00
3.213000000000000000e+03 2.984135627746582031e+01 -1.386495208740234375e+01 -1.432656645774841309e+00 6.984306335449218750e+00 1.665494918823242188e+00 2.711416244506835938e+00
3.214000000000000000e+03 1.729004287719726562e+01 -1.178889751434326172e+01 -4.232759177684783936e-01 1.376354992389678955e-01 -8.569212257862091064e-02 1.366446912288665771e-01
3.215000000000000000e+03 1.674928855895996094e+01 -1.138754367828369141e+01 -3.797034323215484619e-01 1.747750937938690186e-01 -6.147849932312965393e-02 1.235980987548828125e-01
3.216000000000000000e+03 3.134184074401855469e+01 -1.074184989929199219e+01 2.709397315979003906e+00 6.263706207275390625e+00 2.691931009292602539e+00 2.133094787597656250e+00
3.217000000000000000e+03 2.071944618225097656e+01 -1.536140251159667969e+01 -1.481644511222839355e-01 -1.692768037319183350e-01 -9.523237496614456177e-02 -3.659670948982238770e-01
3.218000000000000000e+03 3.013931655883789062e+01 -1.329542827606201172e+01 -1.116034984588623047e+00 6.971651077270507812e+00 1.756684899330139160e+00 2.748409748077392578e+00
3.219000000000000000e+03 3.458285903930664062e+01 -7.148125171661376953e+00 2.781170845031738281e+00 6.980214118957519531e+00 2.928415536880493164e+00 -3.977606073021888733e-02
3.220000000000000000e+03 3.527710342407226562e+01 -5.564369201660156250e+00 2.337555885314941406e+00 6.782813072204589844e+00 2.736110687255859375e+00 4.210611805319786072e-02
3.221000000000000000e+03 1.430332756042480469e+01 -7.597843170166015625e+00 -9.764453768730163574e-02 8.728946745395660400e-02 -3.106521908193826675e-03 9.294345974922180176e-03
3.222000000000000000e+03 7.599174022674560547e+00 -7.472228050231933594e+00 -2.198808640241622925e-02 -9.809421747922897339e-02 -3.602468967437744141e-02 -3.834816068410873413e-02
3.223000000000000000e+03 1.135745143890380859e+01 -9.791825294494628906e+00 -1.660051047801971436e-01 2.119335718452930450e-02 -4.344352334737777710e-02 -1.197870597243309021e-01
3.224000000000000000e+03 1.199264335632324219e+01 -4.560381412506103516e+00 -1.446427404880523682e-02 -1.912872679531574249e-02 -1.007790025323629379e-02 -5.577348172664642334e-02
3.225000000000000000e+03 2.612516784667968750e+01 1.109289264678955078e+01 4.607278406620025635e-01 2.858154773712158203e+00 9.956647753715515137e-01 -2.141584157943725586e+00
3.226000000000000000e+03 6.151535797119140625e+01 2.920141458511352539e+00 -9.301992654800415039e-01 4.882077217102050781e+00 1.185563445091247559e+00 -1.956762433052062988e+00
3.227000000000000000e+03 3.506786727905273438e+01 -4.410382747650146484e+00 2.326138973236083984e+00 6.183200359344482422e+00 2.552801609039306641e+00 -1.000858936458826065e-02
3.228000000000000000e+03 5.292696762084960938e+01 -1.311591720581054688e+01 2.075906991958618164e-01 3.330550670623779297e+00 1.061442375183105469e+00 -2.743525266647338867e+00
3.229000000000000000e+03 6.333498764038085938e+01 3.682366609573364258e+00 -5.899558067321777344e-01 3.628367662429809570e+00 9.115235209465026855e-01 -1.039036512374877930e+00
3.230000000000000000e+03 6.282579803466796875e+01 8.469240069389343262e-01 -3.776734471321105957e-01 5.560613155364990234e+00 1.554881930351257324e+00 -7.050765156745910645e-01
3.231000000000000000e+03 2.659039497375488281e+01 -1.737394142150878906e+01 8.442836403846740723e-01 5.025700569152832031e+00 1.760995268821716309e+00 1.043379902839660645e+00
3.232000000000000000e+03 1.844760513305664062e+01 -1.467463111877441406e+01 -2.488292008638381958e-01 1.203542575240135193e-01 -3.854248300194740295e-02 -2.617160379886627197e-01
3.233000000000000000e+03 4.891066741943359375e+01 1.195616245269775391e+00 8.625047206878662109e-01 3.457010507583618164e+00 1.295854568481445312e+00 -9.466507434844970703e-01
3.234000000000000000e+03 2.569306755065917969e+01 8.116988182067871094e+00 2.055695295333862305e+00 3.171830177307128906e+00 1.568257689476013184e+00 -1.868020772933959961e+00
3.235000000000000000e+03 2.613322830200195312e+01 9.015898704528808594e+00 1.696933388710021973e+00 3.605435609817504883e+00 1.590710759162902832e+00 -1.992235779762268066e+00
3.236000000000000000e+03 4.539078521728515625e+01 4.369602203369140625e+00 8.311581611633300781e-01 3.604989767074584961e+00 1.330844402313232422e+00 -1.374244689941406250e+00
3.237000000000000000e+03 4.821936035156250000e+01 1.952362298965454102e+00 1.086323976516723633e+00 2.845556735992431641e+00 1.179564237594604492e+00 -1.123761296272277832e+00
3.238000000000000000e+03 1.264542388916015625e+01 -9.385293006896972656e+00 -1.804789453744888306e-01 9.836969524621963501e-02 -2.463277801871299744e-02 -8.806258440017700195e-02
3.239000000000000000e+03 7.520993804931640625e+01 -2.574771308898925781e+01 -6.634864211082458496e-01 8.518535614013671875e+00 2.356514692306518555e+00 5.998094007372856140e-02
3.240000000000000000e+03 2.519108772277832031e+01 -1.917316246032714844e+01 1.993236422538757324e+00 3.253104686737060547e+00 1.573902368545532227e+00 5.716846585273742676e-01
3.241000000000000000e+03 5.052486419677734375e+01 -1.431344699859619141e+01 -5.752144455909729004e-01 1.873780250549316406e+00 3.895697593688964844e-01 -3.291336894035339355e-01
3.242000000000000000e+03 7.076452636718750000e+01 -3.035017204284667969e+01 1.978697419166564941e+00 3.660393238067626953e+00 1.691727161407470703e+00 -1.493786573410034180e-01
3.243000000000000000e+03 7.064742279052734375e+01 -3.199533653259277344e+01 1.775647044181823730e+00 4.706718921661376953e+00 1.944709777832031250e+00 -7.886810898780822754e-01
3.244000000000000000e+03 6.933420181274414062e+00 -3.165985107421875000e+01 3.478386700153350830e-01 2.536826431751251221e-01 1.804563999176025391e-01 3.343448936939239502e-01
3.245000000000000000e+03 4.339065933227539062e+01 1.568356305360794067e-01 1.514118313789367676e+00 3.795169115066528320e+00 1.592786192893981934e+00 -1.555679440498352051e+00
3.246000000000000000e+03 4.282451248168945312e+01 1.352947115898132324e+00 1.565534114837646484e+00 4.539778709411621094e+00 1.831593871116638184e+00 -1.263644695281982422e+00
3.247000000000000000e+03 1.959549522399902344e+01 -2.214162063598632812e+01 1.309156775474548340e+00 -8.496508747339248657e-02 3.672575056552886963e-01 8.665532469749450684e-01
3.248000000000000000e+03 5.651930618286132812e+01 4.518279075622558594e+00 -3.409332633018493652e-01 5.603828430175781250e+00 1.578868508338928223e+00 4.232702404260635376e-02
3.249000000000000000e+03 7.247354125976562500e+01 2.245418548583984375e+01 -8.832736611366271973e-01 5.917225837707519531e+00 1.510185599327087402e+00 -8.966392278671264648e-01
3.250000000000000000e+03 2.424869728088378906e+01 1.202019977569580078e+01 -1.266862750053405762e-01 2.459139347076416016e+00 6.997359395027160645e-01 -2.594333410263061523e+00
3.251000000000000000e+03 3.921374130249023438e+01 1.763025093078613281e+01 9.291038513183593750e-01 2.784765005111694336e+00 1.114160656929016113e+00 -2.100446224212646484e+00
3.252000000000000000e+03 5.735331726074218750e+01 2.193404006958007812e+01 -1.459950804710388184e+00 1.816344380378723145e+00 1.069180741906166077e-01 -2.083208799362182617e+00
3.253000000000000000e+03 2.418472099304199219e+01 -2.056420135498046875e+01 2.105816841125488281e+00 2.185412645339965820e+00 1.287368893623352051e+00 5.958712100982666016e-01
3.254000000000000000e+03 2.670692443847656250e+01 -1.453195667266845703e+01 -7.261452078819274902e-01 4.368854522705078125e+00 1.092812776565551758e+00 2.086620330810546875e+00
3.255000000000000000e+03 2.754096412658691406e+01 -1.540104007720947266e+01 -9.633467793464660645e-01 5.973788261413574219e+00 1.503132462501525879e+00 1.953947901725769043e+00
3.256000000000000000e+03 3.352575302124023438e+01 -2.950777530670166016e+00 3.193507671356201172e+00 6.333427429199218750e+00 2.858080625534057617e+00 -1.657653093338012695e+00
3.257000000000000000e+03 6.086426258087158203e+00 -1.057960605621337891e+01 -1.084312573075294495e-01 -1.065128371119499207e-01 -6.448322534561157227e-02 -4.720264673233032227e-02
3.258000000000000000e+03 7.333615875244140625e+01 -3.069633293151855469e+01 5.699218511581420898e-01 5.292188167572021484e+00 1.758632898330688477e+00 6.448546051979064941e-01
3.259000000000000000e+03 6.179052352905273438e+01 -2.255457496643066406e+01 2.902286291122436523e+00 4.668430805206298828e+00 2.271215200424194336e+00 -1.503966331481933594e+00
3.260000000000000000e+03 4.420184326171875000e+01 1.800937056541442871e+00 1.846200346946716309e+00 4.158140659332275391e+00 1.801302313804626465e+00 -1.906197786331176758e+00
3.261000000000000000e+03 7.348885345458984375e+01 -2.946215248107910156e+01 9.123373031616210938e-02 5.724847793579101562e+00 1.744824528694152832e+00 1.148489356040954590e+00
3.262000000000000000e+03 6.403294372558593750e+01 9.790335297584533691e-01 -2.217051237821578979e-01 5.121302604675292969e+00 1.469879150390625000e+00 2.192402929067611694e-01
3.263000000000000000e+03 7.259204101562500000e+01 2.499740123748779297e+00 -1.842043548822402954e-02 4.112875461578369141e+00 1.228336572647094727e+00 4.787253960967063904e-02
3.264000000000000000e+03 7.228375244140625000e+01 -3.341112899780273438e+01 1.089484691619873047e+00 5.353435039520263672e+00 1.932875871658325195e+00 -6.221315860748291016e-01
3.265000000000000000e+03 7.332781219482421875e+01 -3.195441818237304688e+01 8.540211319923400879e-01 5.388693809509277344e+00 1.872814416885375977e+00 1.783783584833145142e-01
3.266000000000000000e+03 2.528577423095703125e+01 -2.394085121154785156e+01 9.971185922622680664e-01 3.851085662841796875e+00 1.454461216926574707e+00 8.651984930038452148e-01
3.267000000000000000e+03 7.400347900390625000e+01 2.421306419372558594e+01 -1.847000569105148315e-01 6.337842941284179688e+00 1.845942854881286621e+00 -6.671032905578613281e-01
3.268000000000000000e+03 2.232676315307617188e+01 9.108548164367675781e+00 6.036684513092041016e-01 1.411418914794921875e+00 6.045262217521667480e-01 -1.399535655975341797e+00
3.269000000000000000e+03 7.396363067626953125e+01 2.557446861267089844e+01 3.362337499856948853e-02 6.164311885833740234e+00 1.859380602836608887e+00 -5.770450234413146973e-01
3.270000000000000000e+03 7.393787384033203125e+01 2.692510032653808594e+01 3.486388623714447021e-01 6.053125381469726562e+00 1.920529246330261230e+00 -4.667586386203765869e-01
3.271000000000000000e+03 7.258052825927734375e+01 2.572440147399902344e+01 3.336022496223449707e-01 5.528216838836669922e+00 1.758545756340026855e+00 -6.905329227447509766e-01
3.272000000000000000e+03 7.393758392333984375e+01 5.306684970855712891e+00 -2.597523629665374756e-01 6.547599315643310547e+00 1.886353969573974609e+00 -3.123536705970764160e-01
3.273000000000000000e+03 5.543139648437500000e+01 2.010993576049804688e+01 -8.518218994140625000e-01 4.025504589080810547e+00 9.521048665046691895e-01 -2.420996904373168945e+00
3.274000000000000000e+03 5.170120620727539062e+01 2.314888000488281250e+01 4.989090189337730408e-02 4.828699111938476562e+00 1.463577032089233398e+00 -1.064668893814086914e+00
3.275000000000000000e+03 5.898151397705078125e+01 -1.809477996826171875e+01 1.486548066139221191e+00 5.983246326446533203e+00 2.240938425064086914e+00 -1.764528751373291016e-01
3.276000000000000000e+03 6.430769348144531250e+01 -1.400014305114746094e+01 -1.506003022193908691e+00 5.761362075805664062e+00 1.276607751846313477e+00 4.868222475051879883e-01
3.277000000000000000e+03 5.871459484100341797e+00 -2.854739379882812500e+01 2.560632824897766113e-01 8.694173395633697510e-02 1.029015034437179565e-01 6.169702485203742981e-02
3.278000000000000000e+03 6.032258510589599609e+00 -8.331046104431152344e+00 -2.580003626644611359e-02 -9.286063909530639648e-02 -3.559820353984832764e-02 -2.189677022397518158e-02
3.279000000000000000e+03 6.750226974487304688e+00 1.881383895874023438e+01 8.164326846599578857e-02 3.302133977413177490e-01 1.235570013523101807e-01 2.041573636233806610e-02
3.280000000000000000e+03 5.789310073852539062e+01 1.866058540344238281e+01 1.017100691795349121e+00 5.506961345672607422e+00 1.957218647003173828e+00 5.763452872633934021e-02
3.281000000000000000e+03 5.788151550292968750e+01 1.962615966796875000e+01 4.673137068748474121e-01 4.402293682098388672e+00 1.460882186889648438e+00 -6.045932173728942871e-01
3.282000000000000000e+03 7.388570404052734375e+01 1.238769340515136719e+01 1.498905658721923828e+00 9.792317390441894531e+00 3.387366771697998047e+00 2.135143727064132690e-01
3.283000000000000000e+03 7.473704338073730469e+00 1.669262313842773438e+01 7.414043694734573364e-02 3.446071147918701172e-01 1.256242543458938599e-01 8.437328785657882690e-02
3.284000000000000000e+03 4.894777679443359375e+01 2.847193717956542969e+00 6.222228407859802246e-01 2.205326080322265625e+00 8.482646346092224121e-01 -5.161250233650207520e-01
3.285000000000000000e+03 3.580029296875000000e+01 1.601920318603515625e+01 6.143118739128112793e-01 1.978713154792785645e+00 7.779074907302856445e-01 -1.956545829772949219e+00
3.286000000000000000e+03 6.035138702392578125e+01 5.232226848602294922e+00 -5.766711235046386719e-01 4.938362598419189453e+00 1.308507442474365234e+00 -1.878026604652404785e+00
3.287000000000000000e+03 4.439444351196289062e+01 -1.728788971900939941e+00 9.988163709640502930e-01 2.750323772430419922e+00 1.124742031097412109e+00 -1.932902336120605469e+00
3.288000000000000000e+03 6.893671417236328125e+01 3.630823516845703125e+01 -4.443583190441131592e-01 5.570393562316894531e+00 1.537810564041137695e+00 5.341019034385681152e-01
3.289000000000000000e+03 2.430854034423828125e+01 8.715247154235839844e+00 1.383753418922424316e+00 2.158744573593139648e+00 1.062749385833740234e+00 -1.911324501037597656e+00
3.290000000000000000e+03 7.208942413330078125e+01 3.168248939514160156e+01 5.670362710952758789e-01 5.819258213043212891e+00 1.915888428688049316e+00 4.165644943714141846e-01
3.291000000000000000e+03 4.962300872802734375e+01 2.703667259216308594e+01 2.240954399108886719e+00 6.105471134185791016e+00 2.503927707672119141e+00 8.820852637290954590e-01
3.292000000000000000e+03 7.075088500976562500e+00 8.890067100524902344e+00 -3.895818442106246948e-02 9.779538214206695557e-02 1.765115931630134583e-02 2.218686640262603760e-01
3.293000000000000000e+03 5.574048995971679688e+00 9.649788856506347656e+00 -7.045868784189224243e-03 -2.462889067828655243e-02 -9.502428583800792694e-03 2.539093196392059326e-01
3.294000000000000000e+03 7.145764923095703125e+01 5.399281501770019531e+00 -2.028736919164657593e-01 5.117334842681884766e+00 1.474338412284851074e+00 1.197644233703613281e+00
3.295000000000000000e+03 7.024411010742187500e+01 3.503511905670166016e+00 2.806568443775177002e-01 2.932564020156860352e+00 9.639663100242614746e-01 1.797379732131958008e+00
3.296000000000000000e+03 6.732977390289306641e+00 7.914893627166748047e+00 -6.547646224498748779e-02 5.789469555020332336e-02 -2.274530474096536636e-03 2.172364145517349243e-01
3.297000000000000000e+03 5.532989501953125000e+00 -8.981115341186523438e+00 -5.175734683871269226e-02 -8.519148081541061401e-02 -4.108464717864990234e-02 -2.259049750864505768e-02
3.298000000000000000e+03 5.508969783782958984e+00 -7.648612976074218750e+00 -1.993171311914920807e-02 -6.629515439271926880e-02 -2.586806006729602814e-02 -6.989632267504930496e-03
3.299000000000000000e+03 2.172732162475585938e+01 -2.274129295349121094e+01 1.505383133888244629e+00 2.992236912250518799e-01 5.413820743560791016e-01 7.344208359718322754e-01
3.300000000000000000e+03 2.150202560424804688e+01 -1.583633708953857422e+01 1.979327946901321411e-01 -1.173240467905998230e-01 2.418262697756290436e-02 -2.675103247165679932e-01
3.301000000000000000e+03 6.352590084075927734e+00 -7.157050132751464844e+00 -1.466442272067070007e-02 -8.007007837295532227e-02 -2.842034958302974701e-02 -1.830621808767318726e-02
3.302000000000000000e+03 7.330179595947265625e+01 2.180591392517089844e+01 -1.040312170982360840e+00 6.603806018829345703e+00 1.669048190116882324e+00 -7.464337944984436035e-01
3.303000000000000000e+03 5.826218032836914062e+01 -1.389453887939453125e+01 6.635388731956481934e-02 4.726388931274414062e+00 1.437822937965393066e+00 9.840943850576877594e-03
3.304000000000000000e+03 8.094835281372070312e+00 -9.953330039978027344e+00 -9.132164716720581055e-02 -1.399278640747070312e-01 -6.937485188245773315e-02 -6.181997060775756836e-02
3.305000000000000000e+03 9.355117797851562500e+00 -9.685495376586914062e+00 -8.646662533283233643e-02 -1.118694767355918884e-01 -5.950083211064338684e-02 -1.043620556592941284e-01
3.306000000000000000e+03 6.860212707519531250e+01 2.565111923217773438e+01 1.463984966278076172e+00 3.748940944671630859e+00 1.563877701759338379e+00 -1.240077838301658630e-01
3.307000000000000000e+03 4.963407897949218750e+01 4.317004978656768799e-01 8.103201985359191895e-01 4.298093795776367188e+00 1.532524228096008301e+00 -5.262948870658874512e-01
3.308000000000000000e+03 2.791310310363769531e+01 -3.151055526733398438e+01 -4.422644078731536865e-01 3.993764877319335938e+00 1.065450191497802734e+00 -1.832619607448577881e-01
3.309000000000000000e+03 5.993842697143554688e+01 -2.165881538391113281e+01 2.757598876953125000e+00 4.555114269256591797e+00 2.193814039230346680e+00 -4.441626965999603271e-01
3.310000000000000000e+03 7.524974346160888672e+00 -1.066821956634521484e+01 -1.467164903879165649e-01 -1.398299783468246460e-01 -8.596394211053848267e-02 -7.177314907312393188e-02
3.311000000000000000e+03 3.846931076049804688e+01 1.531839752197265625e+01 5.290449857711791992e-01 3.076449871063232422e+00 1.081648468971252441e+00 -2.141897439956665039e+00
3.312000000000000000e+03 3.964947128295898438e+01 1.471025562286376953e+01 7.495574355125427246e-01 4.309484481811523438e+00 1.517712593078613281e+00 -1.317313551902770996e+00
3.313000000000000000e+03 4.459061813354492188e+01 5.157737731933593750e+00 7.220249772071838379e-01 4.837543010711669922e+00 1.667870402336120605e+00 -8.804479241371154785e-01
3.314000000000000000e+03 7.197845458984375000e+01 2.318908500671386719e+01 -6.602605581283569336e-01 5.466733932495117188e+00 1.441941976547241211e+00 -1.095178008079528809e+00
3.315000000000000000e+03 6.561497497558593750e+01 2.410264587402343750e+01 1.064921736717224121e+00 3.841221094131469727e+00 1.471842885017395020e+00 1.297456860542297363e+00
3.316000000000000000e+03 2.788136482238769531e+01 -3.362480545043945312e+01 2.180025577545166016e-01 3.837125062942504883e+00 1.216538310050964355e+00 -9.295840561389923096e-02
3.317000000000000000e+03 2.862054061889648438e+01 -3.684097290039062500e+01 -3.663624450564384460e-02 3.584442853927612305e+00 1.064342021942138672e+00 -3.807904124259948730e-01
3.318000000000000000e+03 2.593163490295410156e+01 -1.831572914123535156e+01 1.423503518104553223e+00 4.205276012420654297e+00 1.688633918762207031e+00 8.293180465698242188e-01
3.319000000000000000e+03 2.858006095886230469e+01 3.424185180664062500e+01 -3.437280654907226562e-02 2.634443998336791992e+00 7.800213694572448730e-01 -7.382632493972778320e-01
3.320000000000000000e+03 3.358573532104492188e+01 3.252284622192382812e+01 -3.889970183372497559e-01 5.016507625579833984e+00 1.388253211975097656e+00 -6.224938035011291504e-01
3.321000000000000000e+03 3.237276458740234375e+01 3.299767684936523438e+01 -3.379044532775878906e-01 4.303553581237792969e+00 1.189694762229919434e+00 -9.768391251564025879e-01
3.322000000000000000e+03 2.599915695190429688e+01 3.382648086547851562e+01 3.875151276588439941e-01 2.036945819854736328e+00 7.273382544517517090e-01 -2.436770498752593994e-01
3.323000000000000000e+03 5.946747970581054688e+01 -1.418425655364990234e+01 -4.213535487651824951e-01 5.553533077239990234e+00 1.539653778076171875e+00 7.084341049194335938e-01
3.324000000000000000e+03 5.859558868408203125e+01 6.599141120910644531e+00 2.557364106178283691e-01 5.964106559753417969e+00 1.865952968597412109e+00 -8.986443281173706055e-01
3.325000000000000000e+03 5.832199096679687500e+01 5.514659404754638672e+00 1.369433701038360596e-01 5.412862300872802734e+00 1.664941787719726562e+00 -1.079338669776916504e+00
3.326000000000000000e+03 6.876821899414062500e+01 3.164536857604980469e+01 7.441843748092651367e-01 5.298136234283447266e+00 1.812696218490600586e+00 8.883690834045410156e-01
3.327000000000000000e+03 6.843848419189453125e+01 2.866292762756347656e+01 1.595974922180175781e+00 4.777320384979248047e+00 1.911988615989685059e+00 7.567528486251831055e-01
3.328000000000000000e+03 6.382608413696289062e+01 -1.320334720611572266e+01 -1.343646168708801270e+00 6.381951808929443359e+00 1.511491656303405762e+00 6.865151524543762207e-01
3.329000000000000000e+03 6.087864685058593750e+01 -1.341188144683837891e+01 -9.567280411720275879e-01 6.317540645599365234e+00 1.608243823051452637e+00 1.241715550422668457e+00
3.330000000000000000e+03 6.953942108154296875e+01 -3.173324584960937500e+01 2.270318984985351562e+00 4.625187873840332031e+00 2.068652153015136719e+00 -1.091052174568176270e+00
3.331000000000000000e+03 2.073647308349609375e+01 -2.277410888671875000e+01 1.411310434341430664e+00 3.215992450714111328e-02 4.330410957336425781e-01 8.750028610229492188e-01
3.332000000000000000e+03 2.038622093200683594e+01 -2.374639511108398438e+01 1.152234673500061035e+00 -2.486033439636230469e-01 2.710894048213958740e-01 1.004031896591186523e+00
3.333000000000000000e+03 6.158350372314453125e+01 -1.911818504333496094e+01 1.720425605773925781e+00 6.172996997833251953e+00 2.368026733398437500e+00 -1.145350575447082520e+00
3.334000000000000000e+03 5.998700332641601562e+01 -1.722042274475097656e+01 7.138739824295043945e-01 6.019824028015136719e+00 2.020109415054321289e+00 -1.407757550477981567e-01
3.335000000000000000e+03 7.280735492706298828e+00 9.958499908447265625e+00 -1.528476085513830185e-02 1.414796411991119385e-01 3.785846382379531860e-02 2.184388488531112671e-01
3.336000000000000000e+03 7.694491863250732422e+00 -2.626658058166503906e+01 2.484553307294845581e-01 2.543584704399108887e-01 1.508441418409347534e-01 -1.361095309257507324e-01
3.337000000000000000e+03 7.003591537475585938e+00 -2.869110298156738281e+01 3.141489923000335693e-01 2.215872257947921753e-01 1.607208698987960815e-01 8.934048563241958618e-02
3.338000000000000000e+03 4.529011154174804688e+01 3.685208129882812500e+01 -1.247175335884094238e+00 3.587905645370483398e+00 7.022190690040588379e-01 -1.009433031082153320e+00
3.339000000000000000e+03 4.463914871215820312e+01 3.883823394775390625e+01 -1.141294598579406738e+00 3.136195898056030273e+00 5.984703898429870605e-01 -6.803109049797058105e-01
3.340000000000000000e+03 5.666923141479492188e+01 1.695254898071289062e+01 1.144721865653991699e+00 5.749573230743408203e+00 2.068288564682006836e+00 -3.151787221431732178e-01
3.341000000000000000e+03 5.722311782836914062e+01 1.567857170104980469e+01 1.583965063095092773e+00 6.808701515197753906e+00 2.517799854278564453e+00 8.097648024559020996e-01
3.342000000000000000e+03 7.177500152587890625e+01 -3.719565200805664062e+01 -1.001940891146659851e-01 6.059808731079101562e+00 1.787884354591369629e+00 -9.226200580596923828e-01
3.343000000000000000e+03 5.812014389038085938e+01 3.948215961456298828e+00 -2.358280122280120850e-01 4.533922195434570312e+00 1.289428234100341797e+00 -1.272413730621337891e+00
3.344000000000000000e+03 2.492482757568359375e+01 3.497774124145507812e+01 -8.539208769798278809e-02 2.416816949844360352e+00 6.994274258613586426e-01 -2.057681977748870850e-02
3.345000000000000000e+03 2.384632110595703125e+01 3.332103347778320312e+01 2.660943865776062012e-01 2.325727224349975586e+00 7.775464653968811035e-01 2.749212384223937988e-01
3.346000000000000000e+03 6.243904876708984375e+01 3.453019857406616211e+00 -9.563446640968322754e-01 4.328523635864257812e+00 1.011653661727905273e+00 -1.585665345191955566e+00
3.347000000000000000e+03 6.152817535400390625e+01 -1.487569427490234375e+01 -9.484434127807617188e-01 6.453623294830322266e+00 1.651553988456726074e+00 6.982109546661376953e-01
3.348000000000000000e+03 5.487438583374023438e+01 3.989965820312500000e+01 -1.298599004745483398e+00 3.653830289840698242e+00 7.065693736076354980e-01 6.598829030990600586e-01
3.349000000000000000e+03 5.065939331054687500e+01 3.862409591674804688e+01 -1.735559463500976562e+00 5.012148857116699219e+00 9.829769134521484375e-01 8.955903351306915283e-02
3.350000000000000000e+03 6.224562454223632812e+01 1.899762630462646484e+00 -8.944793939590454102e-01 5.281013488769531250e+00 1.315960168838500977e+00 -1.239335775375366211e+00
3.351000000000000000e+03 4.691907882690429688e+01 -6.166353225708007812e-01 1.248073339462280273e+00 3.841529130935668945e+00 1.526880741119384766e+00 -2.130918741226196289e+00
3.352000000000000000e+03 5.112385177612304688e+01 2.218414115905761719e+01 -3.272241353988647461e-01 4.278105735778808594e+00 1.185264468193054199e+00 -1.259580850601196289e+00
3.353000000000000000e+03 2.102701568603515625e+01 6.508026123046875000e+00 7.476642131805419922e-01 -4.672718420624732971e-02 2.102811187505722046e-01 -1.373578757047653198e-01
3.354000000000000000e+03 2.259931945800781250e+01 3.242549419403076172e+00 -7.765926420688629150e-02 -1.292416304349899292e-01 -6.207026913762092590e-02 4.052882492542266846e-01
3.355000000000000000e+03 2.466970062255859375e+01 2.724785566329956055e+00 -4.900811705738306046e-03 7.699637413024902344e-01 2.295188754796981812e-01 8.428703993558883667e-03
3.356000000000000000e+03 2.682015800476074219e+01 6.111996650695800781e+00 3.208849430084228516e+00 4.605252265930175781e+00 2.344230413436889648e+00 -1.436123013496398926e+00
3.357000000000000000e+03 2.262647247314453125e+01 5.724894523620605469e+00 1.167535066604614258e+00 4.018540084362030029e-01 4.708167314529418945e-01 -3.443979918956756592e-01
3.358000000000000000e+03 2.100790405273437500e+01 4.760816574096679688e+00 5.025572776794433594e-01 -3.468695282936096191e-01 4.670631512999534607e-02 1.819478273391723633e-01
3.359000000000000000e+03 2.596228218078613281e+01 2.170629501342773438e+00 -1.902357786893844604e-01 1.703138351440429688e+00 4.538707435131072998e-01 -6.983288526535034180e-01
3.360000000000000000e+03 2.115357780456542969e+01 3.621553659439086914e+00 -1.021634787321090698e-01 -3.480588793754577637e-01 -1.350667029619216919e-01 3.834414780139923096e-01
3.361000000000000000e+03 2.686147880554199219e+01 3.309537410736083984e+00 6.748961210250854492e-01 4.005540847778320312e+00 1.404131054878234863e+00 -1.150388002395629883e+00
3.362000000000000000e+03 3.323273086547851562e+01 -7.524875164031982422e+00 2.623412847518920898e+00 6.784161090850830078e+00 2.822272300720214844e+00 7.783563733100891113e-01
3.363000000000000000e+03 2.557494544982910156e+01 2.804918766021728516e+00 2.897791862487792969e-01 1.652872562408447266e+00 5.827955603599548340e-01 -4.421449303627014160e-01
3.364000000000000000e+03 2.603386116027832031e+01 2.801007270812988281e+00 1.729560345411300659e-01 2.205590963363647461e+00 7.135640978813171387e-01 -6.885075569152832031e-01
3.365000000000000000e+03 3.198986816406250000e+01 -7.001475811004638672e+00 1.621539950370788574e+00 7.739232063293457031e+00 2.808231592178344727e+00 1.308991432189941406e+00
3.366000000000000000e+03 1.343275928497314453e+01 -9.225321769714355469e+00 -1.812098175287246704e-01 1.424718052148818970e-01 -1.162140257656574249e-02 -3.683020174503326416e-02
3.367000000000000000e+03 1.564950275421142578e+01 -6.197266101837158203e+00 -5.703692790120840073e-03 8.115652203559875488e-02 2.263584919273853302e-02 7.983420975506305695e-03
3.368000000000000000e+03 2.602610588073730469e+01 -1.428286266326904297e+01 -6.290945410728454590e-01 3.046453475952148438e+00 7.252076864242553711e-01 1.778541207313537598e+00
3.369000000000000000e+03 2.697020912170410156e+01 -1.525797271728515625e+01 -7.393392920494079590e-01 5.068600177764892578e+00 1.298778295516967773e+00 1.929747462272644043e+00
3.370000000000000000e+03 1.889296150207519531e+01 -1.426500415802001953e+01 -4.191956520080566406e-01 8.607824891805648804e-02 -9.993521869182586670e-02 -1.674013733863830566e-01
3.371000000000000000e+03 2.608181381225585938e+01 -1.467342758178710938e+01 -5.430752635002136230e-01 3.404730558395385742e+00 8.584966063499450684e-01 1.822685003280639648e+00
3.372000000000000000e+03 1.516292190551757812e+01 -6.077614784240722656e+00 -7.856791839003562927e-03 6.689133495092391968e-02 1.771036349236965179e-02 -2.077866156469099224e-05
3.373000000000000000e+03 1.479295349121093750e+01 -7.002061843872070312e+00 -5.044569075107574463e-02 7.438547909259796143e-02 7.181936874985694885e-03 8.654898032546043396e-03
3.374000000000000000e+03 3.133106422424316406e+01 -6.433657169342041016e+00 7.742057442665100098e-01 8.344805717468261719e+00 2.735703468322753906e+00 1.177200675010681152e+00
3.375000000000000000e+03 1.529179573059082031e+01 -5.733058929443359375e+00 -4.734821151942014694e-03 6.374049186706542969e-02 1.770170219242572784e-02 -1.938530476763844490e-03
3.376000000000000000e+03 3.339384460449218750e+01 -8.564219474792480469e+00 3.149785757064819336e+00 5.962204456329345703e+00 2.733597040176391602e+00 9.474883079528808594e-01
3.377000000000000000e+03 1.451734447479248047e+01 -5.028011798858642578e+00 5.080102011561393738e-03 2.928925491869449615e-02 1.031080726534128189e-02 -2.334470860660076141e-02
3.378000000000000000e+03 2.700957107543945312e+01 -1.432449626922607422e+01 -8.366474509239196777e-01 4.924121856689453125e+00 1.226242303848266602e+00 2.267282009124755859e+00
3.379000000000000000e+03 2.983365058898925781e+01 -1.227747535705566406e+01 2.157838344573974609e-01 7.356748580932617188e+00 2.271759748458862305e+00 2.895116567611694336e+00
3.380000000000000000e+03 1.395219898223876953e+01 -4.378084182739257812e+00 5.170245654881000519e-03 7.137729786336421967e-03 3.692392492666840553e-03 -3.966676071286201477e-02
3.381000000000000000e+03 1.478490638732910156e+01 -4.052182197570800781e+00 1.481281872838735580e-02 2.501185983419418335e-02 1.194740366190671921e-02 -2.927950769662857056e-02
3.382000000000000000e+03 1.946612930297851562e+01 4.476585865020751953e+00 9.629662334918975830e-02 -4.881951510906219482e-01 -1.175695508718490601e-01 2.490244209766387939e-01
3.383000000000000000e+03 2.005051612854003906e+01 4.180599212646484375e+00 3.030584566295146942e-02 -4.618473351001739502e-01 -1.294624507427215576e-01 2.944259941577911377e-01
3.384000000000000000e+03 2.400373840332031250e+01 -1.559704971313476562e+01 9.327172487974166870e-02 1.014151692390441895e+00 3.322270214557647705e-01 6.239548325538635254e-01
3.385000000000000000e+03 2.489387512207031250e+01 -1.545604419708251953e+01 -6.763146072626113892e-02 1.953100919723510742e+00 5.656408071517944336e-01 1.085266470909118652e+00
3.386000000000000000e+03 2.830076599121093750e+01 -1.391965770721435547e+01 -1.258667707443237305e+00 6.723541736602783203e+00 1.639462232589721680e+00 2.679203510284423828e+00
3.387000000000000000e+03 2.848149299621582031e+01 -1.450558853149414062e+01 -1.519422173500061035e+00 7.066920280456542969e+00 1.664249420166015625e+00 2.405662536621093750e+00
3.388000000000000000e+03 2.170125198364257812e+01 3.661275148391723633e+00 3.386593237519264221e-02 -2.520204782485961914e-01 -6.544636189937591553e-02 3.473201990127563477e-01
3.389000000000000000e+03 1.361198234558105469e+01 -7.103009223937988281e+00 -7.292798906564712524e-02 5.372557416558265686e-02 -5.760723724961280823e-03 -2.012474834918975830e-02
3.390000000000000000e+03 1.521086692810058594e+01 -8.071409225463867188e+00 -1.063165888190269470e-01 1.107190325856208801e-01 1.320734038017690182e-03 5.190404132008552551e-02
3.391000000000000000e+03 2.035326385498046875e+01 6.008581161499023438e+00 6.505028009414672852e-01 -3.713919818401336670e-01 8.373325318098068237e-02 9.133012965321540833e-03
3.392000000000000000e+03 2.033340072631835938e+01 -1.520005321502685547e+01 -2.536010444164276123e-01 -1.273909509181976318e-01 -1.142975986003875732e-01 -3.737188875675201416e-01
3.393000000000000000e+03 1.903494644165039062e+01 -1.505446052551269531e+01 -2.277829796075820923e-01 6.653997302055358887e-02 -4.837290197610855103e-02 -3.100093007087707520e-01
3.394000000000000000e+03 2.928978919982910156e+01 -1.349852943420410156e+01 -1.282008171081542969e+00 7.189172744750976562e+00 1.772149324417114258e+00 2.860759973526000977e+00
3.395000000000000000e+03 2.761805343627929688e+01 2.372856378555297852e+00 -5.718057155609130859e-01 4.802860736846923828e+00 1.269316434860229492e+00 -2.171161651611328125e+00
3.396000000000000000e+03 2.698865318298339844e+01 2.430522680282592773e+00 -2.990239560604095459e-01 3.591908216476440430e+00 9.878653287887573242e-01 -1.583559632301330566e+00
3.397000000000000000e+03 3.023971366882324219e+01 -1.131180858612060547e+01 1.793711543083190918e+00 7.520317554473876953e+00 2.794208765029907227e+00 2.786461353302001953e+00
3.398000000000000000e+03 1.884639167785644531e+01 4.876367092132568359e+00 1.557883769273757935e-01 -4.883321523666381836e-01 -9.976313263177871704e-02 1.679467111825942993e-01
3.399000000000000000e+03 3.254880905151367188e+01 -8.529253005981445312e+00 3.126348018646240234e+00 6.366157054901123047e+00 2.847751617431640625e+00 1.609732151031494141e+00
3.400000000000000000e+03 1.442288494110107422e+01 -9.808879852294921875e+00 -2.332856804132461548e-01 2.110967189073562622e-01 -6.656688638031482697e-03 1.165299862623214722e-02
3.401000000000000000e+03 1.530235195159912109e+01 -9.037247657775878906e+00 -1.952911019325256348e-01 1.561948657035827637e-01 -1.172886975109577179e-02 7.468745112419128418e-02
3.402000000000000000e+03 2.037781524658203125e+01 5.345359325408935547e+00 6.168020963668823242e-01 -4.357042610645294189e-01 5.432934314012527466e-02 9.833899140357971191e-02
3.403000000000000000e+03 1.794694709777832031e+01 -1.410975456237792969e+01 -2.982537746429443359e-01 1.651883721351623535e-01 -3.991961851716041565e-02 -1.403613835573196411e-01
3.404000000000000000e+03 3.241324615478515625e+01 -1.185606956481933594e+01 1.682327747344970703e+00 4.281229972839355469e+00 1.789067268371582031e+00 1.794147610664367676e+00
3.405000000000000000e+03 1.669631576538085938e+01 -1.268949317932128906e+01 -3.540833592414855957e-01 2.882153987884521484e-01 -1.976039074361324310e-02 3.828172758221626282e-02
3.406000000000000000e+03 2.193108177185058594e+01 -1.613144302368164062e+01 4.528832435607910156e-01 -4.677135497331619263e-02 1.218335703015327454e-01 -1.705625802278518677e-01
3.407000000000000000e+03 2.951261520385742188e+01 -1.303612613677978516e+01 -6.365452408790588379e-01 7.292387962341308594e+00 1.996752858161926270e+00 2.912367343902587891e+00
3.408000000000000000e+03 2.126856803894042969e+01 6.972878456115722656e+00 8.565508723258972168e-01 2.067095190286636353e-01 3.189781010150909424e-01 -4.176996648311614990e-01
3.409000000000000000e+03 3.263671112060546875e+01 -1.014625072479248047e+01 3.058987379074096680e+00 5.233209609985351562e+00 2.487659215927124023e+00 1.472342252731323242e+00
3.410000000000000000e+03 2.227918624877929688e+01 -1.699336242675781250e+01 9.737905263900756836e-01 2.510387599468231201e-01 3.674487769603729248e-01 1.512552797794342041e-02
3.411000000000000000e+03 2.259850311279296875e+01 -1.588220977783203125e+01 2.575910985469818115e-01 4.499683156609535217e-02 9.077638387680053711e-02 2.168997935950756073e-02
3.412000000000000000e+03 2.810986900329589844e+01 2.858378410339355469e+00 -5.596700906753540039e-01 5.884773254394531250e+00 1.597530961036682129e+00 -2.256011962890625000e+00
3.413000000000000000e+03 3.221043777465820312e+01 -1.121533203125000000e+01 2.173518657684326172e+00 5.033970355987548828e+00 2.162246704101562500e+00 1.753317832946777344e+00
3.414000000000000000e+03 3.351483535766601562e+01 -9.254082679748535156e+00 3.291213989257812500e+00 5.537612438201904297e+00 2.648647785186767578e+00 8.914953470230102539e-01
3.415000000000000000e+03 2.040625190734863281e+01 -1.848721694946289062e+01 1.222645401954650879e+00 4.764108732342720032e-02 3.810859322547912598e-01 3.444432979449629784e-03
3.416000000000000000e+03 7.186532497406005859e+00 -6.721856117248535156e+00 -1.679124869406223297e-02 -7.327258586883544922e-02 -2.701915055513381958e-02 -2.855366840958595276e-02
3.417000000000000000e+03 1.394531154632568359e+01 -1.074523925781250000e+01 -2.522207200527191162e-01 2.748381793498992920e-01 6.785235367715358734e-03 -6.673371791839599609e-02
3.418000000000000000e+03 1.535764122009277344e+01 -1.004550933837890625e+01 -2.753390371799468994e-01 2.110163569450378418e-01 -1.929680816829204559e-02 7.516098022460937500e-02
3.419000000000000000e+03 6.380385875701904297e+00 6.989096164703369141e+00 -7.897697389125823975e-02 1.807578653097152710e-02 -1.827035658061504364e-02 2.089122384786605835e-01
3.420000000000000000e+03 1.322661781311035156e+01 -4.739861965179443359e+00 -2.976163988932967186e-03 -2.824897179380059242e-03 -1.740318257361650467e-03 -4.369413107633590698e-02
3.421000000000000000e+03 1.492930316925048828e+01 -5.563699722290039062e+00 2.893785713240504265e-03 5.074952542781829834e-02 1.609299331903457642e-02 -1.233553886413574219e-02
3.422000000000000000e+03 7.406746864318847656e+00 -5.677442073822021484e+00 -9.026710875332355499e-03 -5.757139250636100769e-02 -1.997943036258220673e-02 -2.756562456488609314e-02
3.423000000000000000e+03 3.296686172485351562e+01 -4.602973461151123047e+00 1.548330187797546387e+00 7.753457546234130859e+00 2.790536165237426758e+00 -9.246866106986999512e-01
3.424000000000000000e+03 8.620708465576171875e+00 -6.481842994689941406e+00 -2.204757556319236755e-02 -7.197017222642898560e-02 -2.820532396435737610e-02 -5.366263911128044128e-02
3.425000000000000000e+03 8.802636146545410156e+00 -5.598678588867187500e+00 -1.234372425824403763e-02 -5.434891954064369202e-02 -2.000779286026954651e-02 -4.684644564986228943e-02
3.426000000000000000e+03 2.906573677062988281e+01 -1.449137783050537109e+01 -1.775972247123718262e+00 7.175516128540039062e+00 1.619863271713256836e+00 2.557698726654052734e+00
3.427000000000000000e+03 1.468283176422119141e+01 -6.490637779235839844e+00 -2.639665827155113220e-02 6.052480265498161316e-02 1.023844350129365921e-02 -1.267075131181627512e-04
3.428000000000000000e+03 9.482276916503906250e+00 -6.783298492431640625e+00 -2.844355627894401550e-02 -6.068719550967216492e-02 -2.673922479152679443e-02 -6.231392920017242432e-02
3.429000000000000000e+03 1.129992103576660156e+01 -4.865720748901367188e+00 -1.284245960414409637e-02 -2.955071628093719482e-02 -1.271795295178890228e-02 -5.677120760083198547e-02
3.430000000000000000e+03 1.348943901062011719e+01 -5.213571548461914062e+00 -8.082778193056583405e-03 8.872520178556442261e-03 2.369225694565102458e-04 -4.076783731579780579e-02
3.431000000000000000e+03 3.176727294921875000e+01 -1.203967857360839844e+01 8.548631072044372559e-01 5.147423744201660156e+00 1.800686001777648926e+00 2.189915895462036133e+00
3.432000000000000000e+03 3.356772232055664062e+01 -1.180128860473632812e+01 1.617887020111083984e+00 3.749142408370971680e+00 1.610108852386474609e+00 1.085081696510314941e+00
3.433000000000000000e+03 2.628352737426757812e+01 7.307387351989746094e+00 2.579781055450439453e+00 4.019437789916992188e+00 1.979765653610229492e+00 -1.706387162208557129e+00
3.434000000000000000e+03 2.536501884460449219e+01 8.682367324829101562e+00 1.822387576103210449e+00 2.787255287170410156e+00 1.382892847061157227e+00 -2.093756914138793945e+00
3.435000000000000000e+03 2.524239540100097656e+01 1.192762660980224609e+01 -2.959124743938446045e-02 2.442577362060546875e+00 7.238958477973937988e-01 -2.471524477005004883e+00
3.436000000000000000e+03 2.778649139404296875e+01 4.400875568389892578e+00 1.705523729324340820e+00 5.911741733551025391e+00 2.285179615020751953e+00 -1.624810814857482910e+00
3.437000000000000000e+03 2.667344665527343750e+01 5.196080684661865234e+00 2.306954383850097656e+00 4.407286167144775391e+00 2.014272212982177734e+00 -1.295564770698547363e+00
3.438000000000000000e+03 3.401781845092773438e+01 -7.490750312805175781e+00 2.910546302795410156e+00 6.570557117462158203e+00 2.844331026077270508e+00 3.283638954162597656e-01
3.439000000000000000e+03 3.401113128662109375e+01 -4.717297077178955078e+00 2.054474592208862305e+00 6.950710773468017578e+00 2.701555490493774414e+00 -5.866291522979736328e-01
3.440000000000000000e+03 3.468690490722656250e+01 -6.158086776733398438e+00 2.451484680175781250e+00 7.036647319793701172e+00 2.846439599990844727e+00 3.114897385239601135e-02
3.441000000000000000e+03 2.764793777465820312e+01 3.177337169647216797e+00 3.780649006366729736e-01 5.567194938659667969e+00 1.783578038215637207e+00 -1.543108940124511719e+00
3.442000000000000000e+03 1.420611476898193359e+01 -1.143768596649169922e+01 -2.663388550281524658e-01 3.323746919631958008e-01 1.981075108051300049e-02 -5.410854145884513855e-02
3.443000000000000000e+03 1.304294204711914062e+01 -5.403524398803710938e+00 -1.623024418950080872e-02 2.655311254784464836e-03 -4.072479903697967529e-03 -4.497826099395751953e-02
3.444000000000000000e+03 7.080731391906738281e+00 -8.701478958129882812e+00 -4.196455702185630798e-02 -1.246331632137298584e-01 -4.997931793332099915e-02 -4.398088529706001282e-02
3.445000000000000000e+03 1.061665916442871094e+01 -5.835742950439453125e+00 -2.320346049964427948e-02 -3.581068664789199829e-02 -1.770424284040927887e-02 -6.268751621246337891e-02
3.446000000000000000e+03 2.396575355529785156e+01 -1.764246749877929688e+01 1.303070783615112305e+00 1.673382759094238281e+00 8.929360508918762207e-01 4.786200225353240967e-01
3.447000000000000000e+03 1.869956779479980469e+01 -1.657887840270996094e+01 3.635513484477996826e-01 3.107822872698307037e-02 1.183888688683509827e-01 -3.483851552009582520e-01
3.448000000000000000e+03 1.975321769714355469e+01 -1.654978561401367188e+01 4.382858872413635254e-01 -6.681281328201293945e-02 1.114419251680374146e-01 -3.604156970977783203e-01
3.449000000000000000e+03 2.408592796325683594e+01 -1.847067260742187500e+01 1.701382040977478027e+00 1.921906232833862305e+00 1.086986541748046875e+00 4.331036210060119629e-01
3.450000000000000000e+03 2.440768432617187500e+01 -1.986561965942382812e+01 2.059088468551635742e+00 2.557285785675048828e+00 1.384912252426147461e+00 5.199268460273742676e-01
3.451000000000000000e+03 5.934804153442382812e+01 -1.539555072784423828e+01 1.586683839559555054e-02 5.793839454650878906e+00 1.742911934852600098e+00 2.292068153619766235e-01
3.452000000000000000e+03 2.756193733215332031e+01 -1.477575492858886719e+01 -1.051095843315124512e+00 5.853164672851562500e+00 1.440620660781860352e+00 2.255679368972778320e+00
3.453000000000000000e+03 2.802544784545898438e+01 -1.463320255279541016e+01 -1.232466340065002441e+00 6.373794078826904297e+00 1.542398214340209961e+00 2.281401157379150391e+00
3.454000000000000000e+03 3.426003265380859375e+01 -7.941504955291748047e+00 3.093738794326782227e+00 6.395185947418212891e+00 2.846677541732788086e+00 3.461194336414337158e-01
3.455000000000000000e+03 6.216577911376953125e+01 -1.266636848449707031e+01 -1.318616867065429688e+00 6.848176479339599609e+00 1.658867955207824707e+00 1.205780506134033203e+00
3.456000000000000000e+03 1.629051971435546875e+01 -1.129494094848632812e+01 -3.807244002819061279e-01 2.323485016822814941e-01 -4.451277479529380798e-02 8.639363199472427368e-02
3.457000000000000000e+03 1.241780185699462891e+01 -7.407602310180664062e+00 -8.401013910770416260e-02 2.721322327852249146e-02 -1.703907549381256104e-02 -5.636057630181312561e-02
3.458000000000000000e+03 2.178896331787109375e+01 -2.001224517822265625e+01 1.753935694694519043e+00 4.727665483951568604e-01 6.680106520652770996e-01 3.920329213142395020e-01
3.459000000000000000e+03 1.369842815399169922e+01 -9.974433898925781250e+00 -2.341590821743011475e-01 1.964807212352752686e-01 -1.130350679159164429e-02 -4.353486374020576477e-02
3.460000000000000000e+03 1.452283477783203125e+01 -9.242958068847656250e+00 -2.021065801382064819e-01 1.696183085441589355e-01 -9.746481664478778839e-03 1.895451731979846954e-02
3.461000000000000000e+03 6.799542236328125000e+01 2.392415046691894531e+01 8.677696585655212402e-01 2.746516704559326172e+00 1.084285855293273926e+00 -4.010891020298004150e-01
3.462000000000000000e+03 6.957512664794921875e+01 2.326006507873535156e+01 -1.238900572061538696e-01 3.649520158767700195e+00 1.057689070701599121e+00 -1.272191166877746582e+00
3.463000000000000000e+03 3.453759384155273438e+01 -1.049424457550048828e+01 2.891431570053100586e+00 4.627536296844482422e+00 2.255690336227416992e+00 2.613308429718017578e-01
3.464000000000000000e+03 3.437191390991210938e+01 -8.447373390197753906e+00 3.196418046951293945e+00 6.118916988372802734e+00 2.794600486755371094e+00 1.976865977048873901e-01
3.465000000000000000e+03 6.055976867675781250e+01 -1.542025089263916016e+01 -4.201014041900634766e-01 6.169263839721679688e+00 1.724748730659484863e+00 3.910421133041381836e-01
3.466000000000000000e+03 2.326550102233886719e+01 9.545813560485839844e+00 7.413882017135620117e-01 1.907587885856628418e+00 7.946928143501281738e-01 -1.916729807853698730e+00
3.467000000000000000e+03 2.225299453735351562e+01 7.057429790496826172e+00 1.161213159561157227e+00 6.042713522911071777e-01 5.296453833580017090e-01 -7.277587056159973145e-01
3.468000000000000000e+03 7.341900825500488281e+00 -2.760844039916992188e+01 3.468462228775024414e-01 2.599996030330657959e-01 1.820537447929382324e-01 -2.482104115188121796e-02
3.469000000000000000e+03 2.572897911071777344e+01 -1.753363609313964844e+01 1.041238665580749512e+00 3.799740314483642578e+00 1.452293753623962402e+00 9.058272838592529297e-01
3.470000000000000000e+03 1.064588737487792969e+01 -9.801659584045410156e+00 -1.160427927970886230e-01 -3.847064822912216187e-02 -4.635403305292129517e-02 -1.362075209617614746e-01
3.471000000000000000e+03 1.143741607666015625e+01 -9.131106376647949219e+00 -1.213873475790023804e-01 1.428329944610595703e-02 -3.213121369481086731e-02 -1.119040027260780334e-01
3.472000000000000000e+03 1.815772438049316406e+01 -1.623308372497558594e+01 2.111658304929733276e-01 1.273748576641082764e-01 1.015622019767761230e-01 -3.457409739494323730e-01
3.473000000000000000e+03 3.405658721923828125e+01 -1.116857910156250000e+01 2.529831647872924805e+00 4.110675334930419922e+00 1.992152094841003418e+00 5.020100474357604980e-01
3.474000000000000000e+03 2.326168441772460938e+01 -2.283428955078125000e+01 1.585538625717163086e+00 1.581278324127197266e+00 9.500451087951660156e-01 7.280453443527221680e-01
3.475000000000000000e+03 2.384100723266601562e+01 -2.210376930236816406e+01 1.799882292747497559e+00 2.136199474334716797e+00 1.180824518203735352e+00 6.732735037803649902e-01
3.476000000000000000e+03 4.451907730102539062e+01 3.604760169982910156e+00 1.541746497154235840e+00 4.504052639007568359e+00 1.813739776611328125e+00 -1.458135128021240234e+00
3.477000000000000000e+03 5.720045089721679688e+01 -1.341424083709716797e+01 -7.246261835098266602e-02 4.383529663085937500e+00 1.293320178985595703e+00 -8.902909159660339355e-01
3.478000000000000000e+03 5.805597686767578125e+01 -1.518426513671875000e+01 8.018257468938827515e-02 5.532081604003906250e+00 1.683679223060607910e+00 -3.061385154724121094e-01
3.479000000000000000e+03 6.336392879486083984e+00 -9.056253433227539062e+00 -5.338902398943901062e-02 -9.251721948385238647e-02 -4.377187415957450867e-02 -1.885956525802612305e-02
3.480000000000000000e+03 9.734534263610839844e+00 -8.798084259033203125e+00 -8.573648333549499512e-02 -7.586097717285156250e-02 -4.847924038767814636e-02 -1.008659526705741882e-01
3.481000000000000000e+03 5.723457336425781250e+01 6.733193874359130859e+00 1.003517150878906250e+00 6.651294708251953125e+00 2.296443462371826172e+00 -3.342906013131141663e-02
3.482000000000000000e+03 6.874737548828125000e+01 2.679767799377441406e+01 1.611618280410766602e+00 4.165669441223144531e+00 1.733186364173889160e+00 1.971938610076904297e-01
3.483000000000000000e+03 7.118648529052734375e+01 3.035987472534179688e+01 8.131604790687561035e-01 5.414561748504638672e+00 1.868316650390625000e+00 3.437006771564483643e-01
3.484000000000000000e+03 2.050077056884765625e+01 -1.577410125732421875e+01 1.102679371833801270e-01 -1.548085212707519531e-01 -1.336217671632766724e-02 -3.975906670093536377e-01
3.485000000000000000e+03 5.067224884033203125e+01 -1.330726432800292969e+01 2.431786954402923584e-01 3.265836000442504883e+00 1.052704453468322754e+00 -1.286366701126098633e+00
3.486000000000000000e+03 3.285507583618164062e+01 -3.303419494628906250e+01 9.616594314575195312e-01 1.604412794113159180e+00 7.698216438293457031e-01 -2.781858667731285095e-02
3.487000000000000000e+03 7.134469604492187500e+01 2.916312932968139648e+00 1.358339339494705200e-01 3.306732416152954102e+00 1.032769918441772461e+00 1.067179441452026367e+00
3.488000000000000000e+03 7.365034484863281250e+01 2.957772827148437500e+01 5.527324080467224121e-01 6.032682895660400391e+00 1.975624680519104004e+00 -4.004498943686485291e-02
3.489000000000000000e+03 6.422549438476562500e+01 2.322156190872192383e+00 -3.739660978317260742e-01 4.199062347412109375e+00 1.147528886795043945e+00 -9.669990837574005127e-02
3.490000000000000000e+03 5.653049087524414062e+01 2.032946777343750000e+01 -2.796289324760437012e-01 3.595292329788208008e+00 9.946990609169006348e-01 -1.992493391036987305e+00
3.491000000000000000e+03 7.278501129150390625e+01 2.436323165893554688e+01 -2.228310257196426392e-01 5.726377964019775391e+00 1.651064157485961914e+00 -8.292633295059204102e-01
3.492000000000000000e+03 5.475058078765869141e+00 -3.071529579162597656e+01 2.436346262693405151e-01 4.832072556018829346e-02 8.758660405874252319e-02 2.130773961544036865e-01
3.493000000000000000e+03 5.574369907379150391e+00 -3.155844116210937500e+01 2.143638432025909424e-01 7.881688326597213745e-02 8.795421570539474487e-02 2.789333760738372803e-01
3.494000000000000000e+03 7.062837219238281250e+01 2.380400466918945312e+01 -1.218122094869613647e-01 4.374710559844970703e+00 1.275869488716125488e+00 -1.117556810379028320e+00
3.495000000000000000e+03 2.250803756713867188e+01 -2.212387084960937500e+01 1.735532999038696289e+00 9.493047595024108887e-01 8.054513335227966309e-01 6.168418526649475098e-01
3.496000000000000000e+03 7.220101165771484375e+01 4.506161212921142578e+00 -2.249239981174468994e-01 5.137536525726318359e+00 1.473783850669860840e+00 7.137694954872131348e-01
3.497000000000000000e+03 5.897951889038085938e+01 -1.968103599548339844e+01 2.400838613510131836e+00 5.624870777130126953e+00 2.407712697982788086e+00 -1.466532945632934570e-01
3.498000000000000000e+03 6.057970428466796875e+01 -1.967239952087402344e+01 2.374124050140380859e+00 5.329555511474609375e+00 2.311103820800781250e+00 -7.800995707511901855e-01
3.499000000000000000e+03 6.745665740966796875e+01 2.525560760498046875e+01 1.562518358230590820e+00 3.441868305206298828e+00 1.501315951347351074e+00 2.487528622150421143e-01
3.500000000000000000e+03 6.959849548339843750e+01 2.605628013610839844e+01 1.127093672752380371e+00 4.010565757751464844e+00 1.541297793388366699e+00 -4.186599552631378174e-01
3.501000000000000000e+03 6.207425689697265625e+01 -1.381985664367675781e+01 -1.267977714538574219e+00 6.571729660034179688e+00 1.591125607490539551e+00 8.655263781547546387e-01
3.502000000000000000e+03 6.178796005249023438e+01 -1.749238967895507812e+01 3.856161832809448242e-01 6.402788162231445312e+00 2.036521434783935547e+00 -4.764467179775238037e-01
3.503000000000000000e+03 6.107159805297851562e+01 -1.646859931945800781e+01 -1.430709660053253174e-02 6.269454002380371094e+00 1.876544117927551270e+00 1.191782020032405853e-02
3.504000000000000000e+03 5.045840072631835938e+01 2.473183059692382812e+01 1.416746497154235840e+00 5.235695838928222656e+00 1.995732665061950684e+00 1.087224930524826050e-01
3.505000000000000000e+03 7.259600830078125000e+01 2.706592178344726562e+01 5.356400609016418457e-01 5.472907543182373047e+00 1.802564263343811035e+00 -4.466180801391601562e-01
3.506000000000000000e+03 5.829670715332031250e+01 -1.725756835937500000e+01 9.725162982940673828e-01 6.153079032897949219e+00 2.137678623199462891e+00 -1.425530612468719482e-01
3.507000000000000000e+03 7.428861236572265625e+01 -3.581297683715820312e+01 2.131624519824981689e-01 6.331513881683349609e+00 1.963402867317199707e+00 -6.081212162971496582e-01
3.508000000000000000e+03 3.503052902221679688e+01 -3.472538757324218750e+01 8.190953135490417480e-01 2.830199480056762695e+00 1.094788432121276855e+00 1.431387901306152344e+00
3.509000000000000000e+03 6.876576995849609375e+01 3.368857955932617188e+01 9.960485249757766724e-02 5.516796112060546875e+00 1.684920310974121094e+00 8.074700832366943359e-01
3.510000000000000000e+03 3.025844573974609375e+01 -3.603968048095703125e+01 1.229849979281425476e-01 3.006748199462890625e+00 9.389199614524841309e-01 -8.575029671192169189e-02
3.511000000000000000e+03 3.448121261596679688e+01 3.107130813598632812e+01 3.576414585113525391e-01 6.023409366607666016e+00 1.914315223693847656e+00 -1.441379338502883911e-01
3.512000000000000000e+03 3.068864250183105469e+01 3.506092834472656250e+01 -5.729005932807922363e-01 3.355434894561767578e+00 8.347603082656860352e-01 -8.295940756797790527e-01
3.513000000000000000e+03 7.056689453125000000e+01 2.681251907348632812e+01 1.049545884132385254e+00 4.653430938720703125e+00 1.710893034934997559e+00 -3.217489123344421387e-01
3.514000000000000000e+03 8.125810623168945312e+00 -2.847976684570312500e+01 4.226046204566955566e-01 3.971655070781707764e-01 2.459310293197631836e-01 7.607111334800720215e-02
3.515000000000000000e+03 4.607709121704101562e+01 3.374270796775817871e-01 1.332432866096496582e+00 3.573332548141479492e+00 1.471729636192321777e+00 -2.244561672210693359e+00
3.516000000000000000e+03 4.755051422119140625e+01 4.137922668457031250e+01 -1.620361208915710449e+00 4.287260055541992188e+00 8.000696897506713867e-01 -1.714101135730743408e-01
3.517000000000000000e+03 5.525277709960937500e+01 1.870887756347656250e+01 -2.984310388565063477e-01 4.411134719848632812e+00 1.233811140060424805e+00 -1.842928290367126465e+00
3.518000000000000000e+03 4.726234054565429688e+01 2.604919433593750000e+00 1.020385146141052246e+00 2.665707111358642578e+00 1.105827689170837402e+00 -1.542659878730773926e+00
3.519000000000000000e+03 2.154453468322753906e+01 3.270672798156738281e+00 -3.352555930614471436e-01 -3.113009333610534668e-01 -1.939669549465179443e-01 4.931374788284301758e-01
3.520000000000000000e+03 2.177956008911132812e+01 3.141212463378906250e+00 -3.362126052379608154e-01 -2.642176151275634766e-01 -1.801290661096572876e-01 4.659896194934844971e-01
3.521000000000000000e+03 2.658456039428710938e+01 2.708227157592773438e+00 1.684616506099700928e-01 3.185115337371826172e+00 1.006073117256164551e+00 -1.023332834243774414e+00
3.522000000000000000e+03 2.618560981750488281e+01 3.170241832733154297e+00 7.235816121101379395e-01 2.789112091064453125e+00 1.053808093070983887e+00 -9.814848899841308594e-01
3.523000000000000000e+03 2.227411842346191406e+01 3.360830307006835938e+00 -8.451217412948608398e-02 -1.970505267381668091e-01 -8.446881175041198730e-02 4.240043759346008301e-01
3.524000000000000000e+03 2.313307380676269531e+01 3.127315044403076172e+00 -7.655059546232223511e-02 1.032424718141555786e-01 8.007563650608062744e-03 3.295856118202209473e-01
3.525000000000000000e+03 2.439425849914550781e+01 2.998076915740966797e+00 2.344163358211517334e-01 7.418648004531860352e-01 2.928843200206756592e-01 -3.958005458116531372e-02
3.526000000000000000e+03 2.343208694458007812e+01 3.133521795272827148e+00 8.324952423572540283e-02 1.490995585918426514e-01 6.970472633838653564e-02 2.452693581581115723e-01
3.527000000000000000e+03 2.148850059509277344e+01 5.351625919342041016e+00 8.223685622215270996e-01 -1.340576708316802979e-01 2.064932733774185181e-01 -2.224511653184890747e-02
3.528000000000000000e+03 1.409113597869873047e+01 -8.888035774230957031e+00 -1.745166331529617310e-01 1.465625017881393433e-01 -8.386239409446716309e-03 -1.688748248852789402e-03
3.529000000000000000e+03 2.660505104064941406e+01 2.296104192733764648e+00 -9.063440561294555664e-02 2.831227302551269531e+00 8.221778273582458496e-01 -1.235833406448364258e+00
3.530000000000000000e+03 2.735185623168945312e+01 3.575274705886840820e+00 8.694741725921630859e-01 4.786221027374267578e+00 1.696708679199218750e+00 -1.458979487419128418e+00
3.531000000000000000e+03 3.321453475952148438e+01 -6.763270854949951172e+00 2.192815542221069336e+00 7.225908279418945312e+00 2.825617074966430664e+00 4.898998141288757324e-01
3.532000000000000000e+03 3.271351623535156250e+01 -6.515967369079589844e+00 1.712010502815246582e+00 7.582349777221679688e+00 2.788308143615722656e+00 7.119755148887634277e-01
3.533000000000000000e+03 3.407979965209960938e+01 -5.682856082916259766e+00 2.130784034729003906e+00 7.101178169250488281e+00 2.769588708877563477e+00 -1.628971248865127563e-01
3.534000000000000000e+03 2.445455932617187500e+01 -1.554786396026611328e+01 -6.007634219713509083e-04 1.497245550155639648e+00 4.489934146404266357e-01 8.335194587707519531e-01
3.535000000000000000e+03 1.411621475219726562e+01 -6.527915954589843750e+00 -4.265893995761871338e-02 4.983334988355636597e-02 2.152323257178068161e-03 -1.305156853049993515e-02
3.536000000000000000e+03 2.550219917297363281e+01 -1.676510810852050781e+01 6.195201873779296875e-01 3.342421293258666992e+00 1.188582420349121094e+00 9.766556620597839355e-01
3.537000000000000000e+03 2.559516525268554688e+01 -1.581059551239013672e+01 -1.423960179090499878e-02 3.168712139129638672e+00 9.463418126106262207e-01 1.256548643112182617e+00
3.538000000000000000e+03 1.302065563201904297e+01 -7.198626041412353516e+00 -6.935612112283706665e-02 4.117037355899810791e-02 -8.455724455416202545e-03 -3.529550135135650635e-02
3.539000000000000000e+03 2.882834625244140625e+01 -1.377517127990722656e+01 -1.383273005485534668e+00 7.105850696563720703e+00 1.716773390769958496e+00 2.778255701065063477e+00
3.540000000000000000e+03 1.451400852203369141e+01 -5.460647106170654297e+00 -1.135063730180263519e-02 4.024520516395568848e-02 8.668370544910430908e-03 -1.738929003477096558e-02
3.541000000000000000e+03 1.404752445220947266e+01 -5.140161037445068359e+00 -5.564102437347173691e-03 2.047386951744556427e-02 4.472930449992418289e-03 -3.252842649817466736e-02
3.542000000000000000e+03 2.590935707092285156e+01 -1.499865055084228516e+01 -4.527044892311096191e-01 3.385965108871459961e+00 8.799781799316406250e-01 1.724655508995056152e+00
3.543000000000000000e+03 2.618757247924804688e+01 3.627989292144775391e+00 8.662496805191040039e-01 3.113108873367309570e+00 1.193807601928710938e+00 -8.151744008064270020e-01
3.544000000000000000e+03 1.372399520874023438e+01 -4.846929550170898438e+00 -1.035677175968885422e-02 1.098704338073730469e-02 1.890813728095963597e-04 -3.411696478724479675e-02
3.545000000000000000e+03 2.782722854614257812e+01 -1.406834030151367188e+01 -1.052281856536865234e+00 6.130280494689941406e+00 1.523399591445922852e+00 2.544598102569580078e+00
3.546000000000000000e+03 1.980812263488769531e+01 5.201150417327880859e+00 4.073094725608825684e-01 -4.730286598205566406e-01 -1.971575990319252014e-02 1.204531490802764893e-01
3.547000000000000000e+03 2.731762313842773438e+01 2.740696191787719727e+00 -1.254625767469406128e-01 4.354691505432128906e+00 1.268768787384033203e+00 -1.606551527976989746e+00
3.548000000000000000e+03 2.785470962524414062e+01 3.723138093948364258e+00 8.509567379951477051e-01 6.010852813720703125e+00 2.058542966842651367e+00 -1.396759986877441406e+00
3.549000000000000000e+03 3.249859237670898438e+01 -7.570303916931152344e+00 2.401067256927490234e+00 7.055282592773437500e+00 2.836905002593994141e+00 1.354652047157287598e+00
3.550000000000000000e+03 2.359633445739746094e+01 -1.611057472229003906e+01 4.975466728210449219e-01 9.070527553558349609e-01 4.213798344135284424e-01 4.350437819957733154e-01
3.551000000000000000e+03 2.405070686340332031e+01 -1.686687278747558594e+01 9.185631871223449707e-01 1.569277524948120117e+00 7.463521957397460938e-01 5.413524508476257324e-01
3.552000000000000000e+03 3.383045196533203125e+01 -8.481042861938476562e+00 3.243255376815795898e+00 5.966968059539794922e+00 2.763067007064819336e+00 6.345174908638000488e-01
3.553000000000000000e+03 1.960703277587890625e+01 -1.541656494140625000e+01 -1.049896180629730225e-01 -4.966818913817405701e-02 -4.639733955264091492e-02 -3.949611783027648926e-01
3.554000000000000000e+03 2.040581321716308594e+01 -1.704919242858886719e+01 7.435970306396484375e-01 -3.183482959866523743e-02 2.135286629199981689e-01 -2.478127926588058472e-01
3.555000000000000000e+03 2.019490623474121094e+01 -1.611201095581054688e+01 2.794451415538787842e-01 -7.146944850683212280e-02 6.239270791411399841e-02 -3.667722940444946289e-01
3.556000000000000000e+03 3.298944854736328125e+01 -5.854065895080566406e+00 1.606745243072509766e+00 7.707884788513183594e+00 2.794389009475708008e+00 3.149705380201339722e-02
3.557000000000000000e+03 2.166254425048828125e+01 7.458858966827392578e+00 8.744931221008300781e-01 4.403275251388549805e-01 3.944461941719055176e-01 -6.084415912628173828e-01
3.558000000000000000e+03 2.154084014892578125e+01 6.488249301910400391e+00 9.687381982803344727e-01 1.380589157342910767e-01 3.320391476154327393e-01 -3.412397801876068115e-01
3.559000000000000000e+03 2.636696624755859375e+01 6.516430377960205078e+00 2.835025072097778320e+00 4.128417491912841797e+00 2.089032888412475586e+00 -1.487232446670532227e+00
3.560000000000000000e+03 2.354137039184570312e+01 8.775369644165039062e+00 1.148103356361389160e+00 1.766280651092529297e+00 8.743152022361755371e-01 -1.774769067764282227e+00
3.561000000000000000e+03 2.048288726806640625e+01 4.174927234649658203e+00 1.494398415088653564e-01 -4.286568164825439453e-01 -8.376508951187133789e-02 2.890594005584716797e-01
3.562000000000000000e+03 1.862473487854003906e+01 -1.383217144012451172e+01 -4.991187155246734619e-01 1.023807674646377563e-01 -1.190213859081268311e-01 -9.280493855476379395e-02
3.563000000000000000e+03 2.293082427978515625e+01 -1.625925254821777344e+01 5.646469593048095703e-01 4.671910703182220459e-01 3.095514178276062012e-01 1.585948616266250610e-01
3.564000000000000000e+03 2.246112632751464844e+01 -1.637877655029296875e+01 6.448392868041992188e-01 2.475826740264892578e-01 2.677266001701354980e-01 -1.964513584971427917e-02
3.565000000000000000e+03 3.332671737670898438e+01 -8.150970458984375000e+00 3.109447956085205078e+00 6.218567848205566406e+00 2.798404693603515625e+00 1.009090185165405273e+00
3.566000000000000000e+03 3.152716636657714844e+01 -1.140585517883300781e+01 2.022610187530517578e+00 5.691491603851318359e+00 2.314230442047119141e+00 2.101637601852416992e+00
3.567000000000000000e+03 3.133869171142578125e+01 -1.243387126922607422e+01 4.266473352909088135e-01 5.377871990203857422e+00 1.741355776786804199e+00 2.541182518005371094e+00
3.568000000000000000e+03 3.460416412353515625e+01 -5.105231761932373047e+00 2.149461269378662109e+00 6.849926948547363281e+00 2.699816465377807617e+00 -1.967523992061614990e-01
3.569000000000000000e+03 3.344558334350585938e+01 -5.219812393188476562e+00 1.726181149482727051e+00 7.486375331878662109e+00 2.763767004013061523e+00 -3.579079508781433105e-01
3.570000000000000000e+03 2.696301841735839844e+01 4.686150074005126953e+00 1.928190946578979492e+00 4.275293827056884766e+00 1.861045479774475098e+00 -1.028290748596191406e+00
3.571000000000000000e+03 3.214431762695312500e+01 -9.445750236511230469e+00 3.341696262359619141e+00 6.052818298339843750e+00 2.818354368209838867e+00 1.927612066268920898e+00
3.572000000000000000e+03 3.313975143432617188e+01 -9.691761970520019531e+00 3.247794151306152344e+00 5.260572910308837891e+00 2.552510023117065430e+00 1.224910736083984375e+00
3.573000000000000000e+03 2.282916259765625000e+01 3.366986274719238281e+00 2.497191913425922394e-02 4.835072904825210571e-02 2.199679426848888397e-02 2.993338406085968018e-01
3.574000000000000000e+03 2.158696365356445312e+01 -1.668013191223144531e+01 6.935609579086303711e-01 2.093708328902721405e-02 2.143494188785552979e-01 -1.622804701328277588e-01
3.575000000000000000e+03 2.096247291564941406e+01 5.947502613067626953e+00 8.225376009941101074e-01 -2.166921198368072510e-01 1.817536503076553345e-01 -6.871962547302246094e-02
3.576000000000000000e+03 3.330200958251953125e+01 -1.072713661193847656e+01 2.747649192810058594e+00 4.577423095703125000e+00 2.197521686553955078e+00 1.166032075881958008e+00
3.577000000000000000e+03 6.804167270660400391e+00 -7.917728424072265625e+00 -3.085445985198020935e-02 -8.688841015100479126e-02 -3.532285988330841064e-02 -2.489165775477886200e-02
3.578000000000000000e+03 1.282771205902099609e+01 -5.192199707031250000e+00 -1.453778613358736038e-02 -4.384457599371671677e-03 -5.676672793924808502e-03 -4.313289746642112732e-02
3.579000000000000000e+03 2.463446426391601562e+01 -1.618227958679199219e+01 4.457475543022155762e-01 1.999857783317565918e+00 7.336816191673278809e-01 8.246375918388366699e-01
3.580000000000000000e+03 3.413780975341796875e+01 -6.656431674957275391e+00 2.470135450363159180e+00 7.027541160583496094e+00 2.849303007125854492e+00 1.173450201749801636e-01
3.581000000000000000e+03 3.378520584106445312e+01 -1.013194561004638672e+01 3.163272619247436523e+00 4.930510997772216797e+00 2.428135156631469727e+00 7.021098732948303223e-01
3.582000000000000000e+03 3.264172363281250000e+01 -9.144384384155273438e+00 3.190607070922851562e+00 5.935123920440673828e+00 2.737719297409057617e+00 1.574804425239562988e+00
3.583000000000000000e+03 1.218171596527099609e+01 -5.114441394805908203e+00 -1.532947458326816559e-02 -1.596057042479515076e-02 -9.387013502418994904e-03 -5.034881085157394409e-02
3.584000000000000000e+03 1.400197601318359375e+01 -6.042852878570556641e+00 -2.386255376040935516e-02 3.730758652091026306e-02 4.033509641885757446e-03 -1.683375798165798187e-02
3.585000000000000000e+03 8.389718055725097656e+00 -7.333093166351318359e+00 -2.621747180819511414e-02 -8.376005291938781738e-02 -3.299325704574584961e-02 -5.404524877667427063e-02
3.586000000000000000e+03 2.426511192321777344e+01 1.000543880462646484e+01 8.471827507019042969e-01 2.373396158218383789e+00 9.661736488342285156e-01 -2.263868570327758789e+00
3.587000000000000000e+03 2.574329948425292969e+01 9.756187438964843750e+00 1.247789978981018066e+00 3.038217306137084961e+00 1.285802245140075684e+00 -2.253452777862548828e+00
3.588000000000000000e+03 2.669961357116699219e+01 1.009799385070800781e+01 1.122771143913269043e+00 3.874453783035278320e+00 1.499167561531066895e+00 -1.851166844367980957e+00
3.589000000000000000e+03 2.589988327026367188e+01 -1.555684471130371094e+01 -2.640988230705261230e-01 3.555143594741821289e+00 9.873134493827819824e-01 1.524079084396362305e+00
3.590000000000000000e+03 1.160131072998046875e+01 -5.445322036743164062e+00 -2.466328255832195282e-02 -1.904351636767387390e-02 -1.311203930526971817e-02 -5.805873125791549683e-02
3.591000000000000000e+03 1.359853076934814453e+01 -5.679741859436035156e+00 -1.430920418351888657e-02 1.771674677729606628e-02 1.022262847982347012e-03 -3.327251225709915161e-02
3.592000000000000000e+03 1.110366058349609375e+01 -6.639465808868408203e+00 -4.231097921729087830e-02 -2.418252266943454742e-02 -1.994805037975311279e-02 -6.822905689477920532e-02
3.593000000000000000e+03 9.957036972045898438e+00 -6.114180088043212891e+00 -2.758852578699588776e-02 -4.781989008188247681e-02 -2.262252382934093475e-02 -6.143181398510932922e-02
3.594000000000000000e+03 1.323172187805175781e+01 -8.590627670288085938e+00 -1.498600989580154419e-01 9.785915911197662354e-02 -1.560028083622455597e-02 -4.501777142286300659e-02
3.595000000000000000e+03 7.428786277770996094e+00 -9.377402305603027344e+00 -8.173645287752151489e-02 -1.220317557454109192e-01 -6.113046407699584961e-02 -5.391567945480346680e-02
3.596000000000000000e+03 7.811127662658691406e+00 -8.753848075866699219e+00 -5.182195454835891724e-02 -1.103819757699966431e-01 -4.866117984056472778e-02 -4.874926805496215820e-02
3.597000000000000000e+03 3.413591766357421875e+01 -9.550542831420898438e+00 3.229135513305664062e+00 5.265895843505859375e+00 2.548509359359741211e+00 5.708994865417480469e-01
3.598000000000000000e+03 1.251189517974853516e+01 -8.552793502807617188e+00 -1.190154552459716797e-01 6.014411896467208862e-02 -1.766140013933181763e-02 -6.586372107267379761e-02
3.599000000000000000e+03 1.123069381713867188e+01 -5.934278488159179688e+00 -2.931874990463256836e-02 -2.586142346262931824e-02 -1.655405201017856598e-02 -5.658137053251266479e-02
3.600000000000000000e+03 2.307329177856445312e+01 -1.738936614990234375e+01 1.225570917129516602e+00 9.079323410987854004e-01 6.400509476661682129e-01 2.172316014766693115e-01
3.601000000000000000e+03 2.437180137634277344e+01 -1.921550178527832031e+01 1.865682601928710938e+00 2.407977342605590820e+00 1.282097935676574707e+00 5.700807571411132812e-01
3.602000000000000000e+03 1.022343826293945312e+01 -7.148916721343994141e+00 -4.748573154211044312e-02 -4.672192037105560303e-02 -2.826229482889175415e-02 -7.602468132972717285e-02
3.603000000000000000e+03 1.096120357513427734e+01 -7.384582042694091797e+00 -6.451779603958129883e-02 -2.311917953193187714e-02 -2.629109285771846771e-02 -7.122130692005157471e-02
3.604000000000000000e+03 4.946652221679687500e+01 -2.169229745864868164e+00 1.154942274093627930e+00 5.900868415832519531e+00 2.116743326187133789e+00 -8.051172494888305664e-01
3.605000000000000000e+03 2.022793006896972656e+01 -1.988718032836914062e+01 1.414593219757080078e+00 7.334195077419281006e-02 4.463805556297302246e-01 3.160669803619384766e-01
3.606000000000000000e+03 2.112741470336914062e+01 -2.200309181213378906e+01 1.633772134780883789e+00 2.592839896678924561e-01 5.679168105125427246e-01 7.378609776496887207e-01
3.607000000000000000e+03 2.325674247741699219e+01 -2.009940719604492188e+01 1.944706678390502930e+00 1.463122367858886719e+00 1.022348642349243164e+00 5.293570756912231445e-01
3.608000000000000000e+03 2.375413894653320312e+01 -1.949984359741210938e+01 2.000765562057495117e+00 1.722131490707397461e+00 1.116869091987609863e+00 4.447624683380126953e-01
3.609000000000000000e+03 8.918205261230468750e+00 -8.426746368408203125e+00 -5.102223157882690430e-02 -9.810352325439453125e-02 -4.473772644996643066e-02 -7.491951435804367065e-02
3.610000000000000000e+03 3.223346328735351562e+01 3.165471076965332031e+01 1.418906897306442261e-01 4.626114845275878906e+00 1.430401563644409180e+00 -1.261282801628112793e+00
3.611000000000000000e+03 8.133969306945800781e+00 -8.058213233947753906e+00 -4.527806490659713745e-02 -1.065605282783508301e-01 -4.555157572031021118e-02 -5.712259188294410706e-02
3.612000000000000000e+03 2.305125427246093750e+01 7.919404983520507812e+00 1.273359537124633789e+00 1.268346428871154785e+00 7.625117897987365723e-01 -1.296043872833251953e+00
3.613000000000000000e+03 4.390160369873046875e+01 -9.020514488220214844e-01 1.105607986450195312e+00 3.022131204605102539e+00 1.238321781158447266e+00 -1.833536863327026367e+00
3.614000000000000000e+03 2.188625717163085938e+01 -1.761606025695800781e+01 1.215698599815368652e+00 3.019873499870300293e-01 4.553057849407196045e-01 2.116797864437103271e-02
3.615000000000000000e+03 6.954139709472656250e+01 2.783354949951171875e+01 1.420754909515380859e+00 4.502320766448974609e+00 1.776922702789306641e+00 1.831184327602386475e-01
3.616000000000000000e+03 4.627642822265625000e+01 3.459365367889404297e+00 1.013685226440429688e+00 3.109351873397827148e+00 1.236911177635192871e+00 -1.689993143081665039e+00
3.617000000000000000e+03 4.537814712524414062e+01 2.489342451095581055e+00 1.373845458030700684e+00 3.511620044708251953e+00 1.465639591217041016e+00 -1.908468246459960938e+00
3.618000000000000000e+03 6.988639068603515625e+01 3.104779815673828125e+01 8.437699079513549805e-01 5.330114841461181641e+00 1.852165460586547852e+00 6.695795059204101562e-01
3.619000000000000000e+03 4.791896820068359375e+01 9.025976061820983887e-01 1.159209728240966797e+00 3.475473165512084961e+00 1.390404820442199707e+00 -1.559556603431701660e+00
3.620000000000000000e+03 2.026533317565917969e+01 -2.134706115722656250e+01 1.492341518402099609e+00 5.589435249567031860e-02 4.644707739353179932e-01 6.272358894348144531e-01
3.621000000000000000e+03 7.304364776611328125e+01 3.062290763854980469e+01 5.488598942756652832e-01 5.903039455413818359e+00 1.935569882392883301e+00 1.565752923488616943e-01
3.622000000000000000e+03 7.148534393310546875e+01 2.780005836486816406e+01 8.664979338645935059e-01 5.091624259948730469e+00 1.787436723709106445e+00 -1.959617882966995239e-01
3.623000000000000000e+03 7.250681877136230469e+00 -3.493048095703125000e+01 5.271041020750999451e-02 5.249119400978088379e-01 1.732867062091827393e-01 5.176626443862915039e-01
3.624000000000000000e+03 7.167420196533203125e+01 2.422564506530761719e+01 -4.182864725589752197e-02 5.174027919769287109e+00 1.539659857749938965e+00 -1.039305329322814941e+00
3.625000000000000000e+03 7.128289794921875000e+01 2.551458549499511719e+01 4.567603468894958496e-01 4.824777126312255859e+00 1.584461212158203125e+00 -7.349880337715148926e-01
3.626000000000000000e+03 6.739437103271484375e+01 3.480956268310546875e+01 -2.704687118530273438e-01 5.328667640686035156e+00 1.517459750175476074e+00 6.620512008666992188e-01
3.627000000000000000e+03 5.811265468597412109e+00 1.218206501007080078e+01 4.102146998047828674e-02 1.683749631047248840e-02 1.735769025981426239e-02 2.268006950616836548e-01
3.628000000000000000e+03 7.085015869140625000e+01 3.767856216430664062e+01 -2.618131041526794434e-01 6.040373325347900391e+00 1.733568072319030762e+00 3.565371930599212646e-01
3.629000000000000000e+03 3.232151412963867188e+01 -3.475901412963867188e+01 6.078407764434814453e-01 2.381764888763427734e+00 8.968816995620727539e-01 2.962470948696136475e-01
3.630000000000000000e+03 7.438044071197509766e+00 -3.243315124511718750e+01 3.191635906696319580e-01 4.333394169807434082e-01 2.257509082555770874e-01 4.258503615856170654e-01
3.631000000000000000e+03 7.458432769775390625e+01 -3.442461776733398438e+01 4.809859097003936768e-01 6.170854091644287109e+00 1.995552062988281250e+00 -3.933441638946533203e-01
3.632000000000000000e+03 6.057334899902343750e+01 -1.441791534423828125e+01 -6.839102506637573242e-01 6.054264545440673828e+00 1.611106276512145996e+00 8.301305174827575684e-01
3.633000000000000000e+03 2.271747016906738281e+01 3.664306402206420898e+00 2.891697883605957031e-01 -3.253144025802612305e-02 7.699150592088699341e-02 2.788316905498504639e-01
3.634000000000000000e+03 2.192301940917968750e+01 3.419536590576171875e+00 -1.229888424277305603e-01 -2.525171041488647461e-01 -1.126517802476882935e-01 4.449807405471801758e-01
3.635000000000000000e+03 2.129148292541503906e+01 3.300336122512817383e+00 -2.989497780799865723e-01 -3.508561253547668457e-01 -1.949417740106582642e-01 4.702116847038269043e-01
3.636000000000000000e+03 2.507247352600097656e+01 3.197073459625244141e+00 4.806596636772155762e-01 1.342210173606872559e+00 5.468609929084777832e-01 -2.590599358081817627e-01
3.637000000000000000e+03 2.543515586853027344e+01 3.444571971893310547e+00 6.790155172348022461e-01 1.927023053169250488e+00 7.818115949630737305e-01 -4.514056742191314697e-01
3.638000000000000000e+03 2.577888870239257812e+01 3.495965719223022461e+00 9.175367951393127441e-01 2.154730558395385742e+00 9.216802120208740234e-01 -7.027024626731872559e-01
3.639000000000000000e+03 2.570419883728027344e+01 3.944197654724121094e+00 1.104548573493957520e+00 2.570309877395629883e+00 1.102457523345947266e+00 -6.914810538291931152e-01
3.640000000000000000e+03 2.296765136718750000e+01 3.771074056625366211e+00 3.743784725666046143e-01 1.796039044857025146e-01 1.661947220563888550e-01 1.549827605485916138e-01
3.641000000000000000e+03 2.509432411193847656e+01 3.812063694000244141e+00 9.151125550270080566e-01 1.715717077255249023e+00 7.892488837242126465e-01 -4.301347732543945312e-01
3.642000000000000000e+03 2.379349708557128906e+01 3.195758104324340820e+00 1.809278428554534912e-01 4.561848640441894531e-01 1.911338120698928833e-01 1.267851442098617554e-01
3.643000000000000000e+03 2.465889930725097656e+01 3.240325212478637695e+00 4.786762595176696777e-01 9.565887451171875000e-01 4.305795133113861084e-01 -1.258561313152313232e-01
3.644000000000000000e+03 1.351947402954101562e+01 -6.574224472045898438e+00 -4.274268820881843567e-02 3.604202345013618469e-02 -2.010199008509516716e-03 -2.481091022491455078e-02
3.645000000000000000e+03 2.666421127319335938e+01 3.833353519439697266e+00 1.220714926719665527e+00 3.612891197204589844e+00 1.450081825256347656e+00 -1.059048295021057129e+00
3.646000000000000000e+03 1.418008422851562500e+01 -5.508356094360351562e+00 -1.336221490055322647e-02 3.246664628386497498e-02 5.731329787522554398e-03 -2.189343608915805817e-02
3.647000000000000000e+03 1.388777637481689453e+01 -5.660983562469482422e+00 -1.642285659909248352e-02 2.367088384926319122e-02 2.174408175051212311e-03 -2.949992381036281586e-02
3.648000000000000000e+03 2.115338325500488281e+01 4.248615741729736328e+00 2.469180524349212646e-01 -3.091388642787933350e-01 -1.866624504327774048e-02 2.571235299110412598e-01
3.649000000000000000e+03 2.048795890808105469e+01 4.710660457611083984e+00 3.118979632854461670e-01 -4.037560522556304932e-01 -2.755743265151977539e-02 2.172558009624481201e-01
3.650000000000000000e+03 2.694864654541015625e+01 2.839364051818847656e+00 2.115953862667083740e-01 3.947080373764038086e+00 1.247602701187133789e+00 -1.242226004600524902e+00
3.651000000000000000e+03 2.718532180786132812e+01 4.131236076354980469e+00 1.251835465431213379e+00 5.012848377227783203e+00 1.879405260086059570e+00 -1.145483374595642090e+00
3.652000000000000000e+03 2.095497322082519531e+01 5.358788013458251953e+00 6.552159190177917480e-01 -2.685984373092651367e-01 1.159852519631385803e-01 6.045357137918472290e-02
3.653000000000000000e+03 2.280903434753417969e+01 6.819491863250732422e+00 1.371087551116943359e+00 7.881711721420288086e-01 6.477776169776916504e-01 -8.247085213661193848e-01
3.654000000000000000e+03 2.592260932922363281e+01 6.074221134185791016e+00 2.729430675506591797e+00 3.183811426162719727e+00 1.773972630500793457e+00 -1.206908106803894043e+00
3.655000000000000000e+03 1.996574592590332031e+01 4.646631240844726562e+00 2.611722946166992188e-01 -4.772407114505767822e-01 -6.482052803039550781e-02 2.357184439897537231e-01
3.656000000000000000e+03 1.272897052764892578e+01 -7.931921005249023438e+00 -1.049724146723747253e-01 4.968767985701560974e-02 -1.658542081713676453e-02 -4.786032065749168396e-02
3.657000000000000000e+03 1.420827388763427734e+01 -7.063475608825683594e+00 -5.480797961354255676e-02 6.390295177698135376e-02 2.728492254391312599e-03 -7.048536208458244801e-04
3.658000000000000000e+03 3.304294586181640625e+01 -8.845505714416503906e+00 3.162027120590209961e+00 5.857666969299316406e+00 2.705908298492431641e+00 1.191862940788269043e+00
3.659000000000000000e+03 3.376427078247070312e+01 -8.854966163635253906e+00 3.194028377532958984e+00 5.745584011077880859e+00 2.681883811950683594e+00 7.718948721885681152e-01
3.660000000000000000e+03 2.152096557617187500e+01 5.908310413360595703e+00 8.908647298812866211e-01 1.821107417345046997e-02 2.727227210998535156e-01 -1.518610715866088867e-01
3.661000000000000000e+03 2.621269226074218750e+01 4.835452556610107422e+00 1.852584600448608398e+00 3.265828847885131836e+00 1.535524010658264160e+00 -7.574254870414733887e-01
3.662000000000000000e+03 2.513271141052246094e+01 7.749570846557617188e+00 2.073579072952270508e+00 2.520776271820068359e+00 1.378306627273559570e+00 -1.785729527473449707e+00
3.663000000000000000e+03 2.594731330871582031e+01 7.639329910278320312e+00 2.366388559341430664e+00 3.408522844314575195e+00 1.732473373413085938e+00 -1.849914431571960449e+00
3.664000000000000000e+03 1.352265930175781250e+01 -6.074698925018310547e+00 -3.634219244122505188e-02 2.680501528084278107e-02 -2.861152868717908859e-03 -2.908693999052047729e-02
3.665000000000000000e+03 2.564369201660156250e+01 -1.519758033752441406e+01 -3.671652376651763916e-01 2.967448472976684570e+00 7.800849676132202148e-01 1.484342455863952637e+00
3.666000000000000000e+03 2.662831687927246094e+01 -1.572793865203857422e+01 -3.997115492820739746e-01 4.739671230316162109e+00 1.301987886428833008e+00 1.675131797790527344e+00
3.667000000000000000e+03 2.648950386047363281e+01 -1.491363525390625000e+01 -6.058621406555175781e-01 4.169948577880859375e+00 1.069225907325744629e+00 1.886456489562988281e+00
3.668000000000000000e+03 2.322856521606445312e+01 -1.881516075134277344e+01 1.702832221984863281e+00 1.293675780296325684e+00 8.989524245262145996e-01 3.715406060218811035e-01
3.669000000000000000e+03 1.177252006530761719e+01 -6.027997970581054688e+00 -2.871736697852611542e-02 -1.491160318255424500e-02 -1.308869104832410812e-02 -5.666527152061462402e-02
3.670000000000000000e+03 3.365628051757812500e+01 -7.100557804107666016e+00 2.607533454895019531e+00 6.874047279357910156e+00 2.844474315643310547e+00 3.960760831832885742e-01
3.671000000000000000e+03 2.118632316589355469e+01 -1.733101272583007812e+01 9.560355544090270996e-01 1.742228120565414429e-02 2.920373380184173584e-01 -1.590118259191513062e-01
3.672000000000000000e+03 2.067365264892578125e+01 -1.642436599731445312e+01 4.960338771343231201e-01 -1.158332526683807373e-01 1.140601858496665955e-01 -3.160968720912933350e-01
3.673000000000000000e+03 9.982671737670898438e+00 -7.928925037384033203e+00 -5.805008858442306519e-02 -5.607642233371734619e-02 -3.423795476555824280e-02 -7.835021615028381348e-02
3.674000000000000000e+03 1.172516345977783203e+01 -6.728483676910400391e+00 -5.473790690302848816e-02 -4.747919272631406784e-03 -1.784574799239635468e-02 -5.772678926587104797e-02
3.675000000000000000e+03 1.166169452667236328e+01 -8.373165130615234375e+00 -1.140311211347579956e-01 1.880575716495513916e-02 -2.856760844588279724e-02 -8.061457425355911255e-02
3.676000000000000000e+03 1.231409168243408203e+01 -6.053383350372314453e+00 -3.913691639900207520e-02 -1.240359706571325660e-04 -1.177828572690486908e-02 -4.882642254233360291e-02
3.677000000000000000e+03 1.048697280883789062e+01 -6.472904205322265625e+00 -3.543511778116226196e-02 -4.001275077462196350e-02 -2.263436093926429749e-02 -6.338892132043838501e-02
3.678000000000000000e+03 2.211283493041992188e+01 6.461677551269531250e+00 1.084605932235717773e+00 3.571836948394775391e-01 4.325368702411651611e-01 -4.481641352176666260e-01
3.679000000000000000e+03 2.487418174743652344e+01 -1.762440872192382812e+01 1.238527059555053711e+00 2.743262052536010742e+00 1.194536685943603516e+00 6.733638644218444824e-01
3.680000000000000000e+03 2.105851173400878906e+01 -1.927612113952636719e+01 1.534315705299377441e+00 2.231033891439437866e-01 5.272257328033447266e-01 1.970282793045043945e-01
3.681000000000000000e+03 2.102093124389648438e+01 -2.064500236511230469e+01 1.687446355819702148e+00 2.592359185218811035e-01 5.840047001838684082e-01 4.886266589164733887e-01
3.682000000000000000e+03 1.079187679290771484e+01 -8.170531272888183594e+00 -7.685834914445877075e-02 -3.135098889470100403e-02 -3.246280178427696228e-02 -9.391300380229949951e-02
3.683000000000000000e+03 8.559982299804687500e+00 -9.208261489868164062e+00 -7.840577512979507446e-02 -1.324715465307235718e-01 -6.326319277286529541e-02 -7.552658766508102417e-02
3.684000000000000000e+03 6.801028442382812500e+01 3.057411003112792969e+01 1.072945237159729004e+00 5.223480224609375000e+00 1.888927578926086426e+00 9.423800110816955566e-01
3.685000000000000000e+03 7.042214202880859375e+01 2.894220924377441406e+01 1.180368185043334961e+00 4.975545406341552734e+00 1.846774101257324219e+00 2.729755938053131104e-01
3.686000000000000000e+03 4.939594268798828125e+01 -7.211632132530212402e-01 1.030802488327026367e+00 4.809432506561279297e+00 1.752070426940917969e+00 -8.324082493782043457e-01
3.687000000000000000e+03 3.125448417663574219e+01 3.770076370239257812e+01 -1.002789497375488281e+00 3.303959846496582031e+00 6.903510689735412598e-01 -2.778200209140777588e-01
3.688000000000000000e+03 2.235567855834960938e+01 3.737860441207885742e+00 2.079969048500061035e-01 -1.293002814054489136e-01 2.360898815095424652e-02 3.365654051303863525e-01
3.689000000000000000e+03 2.539297103881835938e+01 3.857355117797851562e+00 1.214959383010864258e+00 1.842926740646362305e+00 9.173658490180969238e-01 -5.594848990440368652e-01
3.690000000000000000e+03 2.152859878540039062e+01 4.319603919982910156e+00 4.334985315799713135e-01 -2.676586508750915527e-01 4.975196719169616699e-02 2.141703963279724121e-01
3.691000000000000000e+03 2.398914146423339844e+01 3.879369020462036133e+00 7.607832551002502441e-01 7.550003528594970703e-01 4.547350704669952393e-01 -1.296294927597045898e-01
3.692000000000000000e+03 2.448354911804199219e+01 3.598240852355957031e+00 6.568418741226196289e-01 1.069151520729064941e+00 5.177980065345764160e-01 -1.850799620151519775e-01
3.693000000000000000e+03 2.297204971313476562e+01 4.082795143127441406e+00 6.836702823638916016e-01 1.776501387357711792e-01 2.583961188793182373e-01 5.104449763894081116e-02
3.694000000000000000e+03 2.365686988830566406e+01 3.680005073547363281e+00 5.917662382125854492e-01 4.163117408752441406e-01 3.024233877658843994e-01 6.634723395109176636e-02
3.695000000000000000e+03 2.549525833129882812e+01 5.673818588256835938e+00 2.129458427429199219e+00 2.655619382858276367e+00 1.435523390769958496e+00 -9.020618796348571777e-01
3.696000000000000000e+03 2.335698318481445312e+01 3.542044878005981445e+00 3.575235307216644287e-01 3.274234831333160400e-01 2.054841071367263794e-01 1.322253346443176270e-01
3.697000000000000000e+03 2.141805648803710938e+01 3.917526960372924805e+00 7.836074382066726685e-02 -2.982220947742462158e-01 -6.595840305089950562e-02 3.634279370307922363e-01
3.698000000000000000e+03 2.198462104797363281e+01 3.905967712402343750e+00 2.698631882667541504e-01 -2.052213549613952637e-01 1.939255371689796448e-02 3.171592354774475098e-01
3.699000000000000000e+03 2.551896858215332031e+01 6.480455398559570312e+00 2.460772037506103516e+00 2.821177959442138672e+00 1.584584951400756836e+00 -1.302001833915710449e+00
3.700000000000000000e+03 2.345315361022949219e+01 4.103445529937744141e+00 7.999565601348876953e-01 4.875486195087432861e-01 3.862515389919281006e-01 -6.961812824010848999e-02
3.701000000000000000e+03 2.552307701110839844e+01 7.294016838073730469e+00 2.320913553237915039e+00 2.929576158523559570e+00 1.575146913528442383e+00 -1.614356040954589844e+00
3.702000000000000000e+03 2.647074890136718750e+01 4.357170581817626953e+00 1.488078713417053223e+00 3.889692306518554688e+00 1.613331317901611328e+00 -1.028680682182312012e+00
3.703000000000000000e+03 2.587873840332031250e+01 5.269855022430419922e+00 2.273431539535522461e+00 3.032199382781982422e+00 1.591689348220825195e+00 -1.049315333366394043e+00
3.704000000000000000e+03 2.337660026550292969e+01 -1.666457176208496094e+01 8.247455358505249023e-01 8.560376167297363281e-01 5.042349100112915039e-01 3.548136055469512939e-01
3.705000000000000000e+03 2.296416091918945312e+01 7.237342357635498047e+00 1.395550727844238281e+00 1.009097695350646973e+00 7.213945388793945312e-01 -1.006476640701293945e+00
3.706000000000000000e+03 2.193710708618164062e+01 4.799148082733154297e+00 7.628640532493591309e-01 -8.912449330091476440e-02 2.021218687295913696e-01 5.115590244531631470e-02
3.707000000000000000e+03 2.424426078796386719e+01 8.103932380676269531e+00 1.584725856781005859e+00 1.933655738830566406e+00 1.055514454841613770e+00 -1.690226435661315918e+00
3.708000000000000000e+03 2.206588363647460938e+01 5.853193759918212891e+00 1.084550380706787109e+00 1.743681281805038452e-01 3.776755332946777344e-01 -2.805883288383483887e-01
3.709000000000000000e+03 2.258564567565917969e+01 -2.075558662414550781e+01 1.915936231613159180e+00 9.669693112373352051e-01 8.648716807365417480e-01 4.676830172538757324e-01
3.710000000000000000e+03 3.288422012329101562e+01 -7.237661361694335938e+00 2.411679983139038086e+00 6.985795497894287109e+00 2.819242477416992188e+00 9.403570890426635742e-01
3.711000000000000000e+03 2.408274841308593750e+01 -1.619184303283691406e+01 4.881040155887603760e-01 1.338666200637817383e+00 5.480310320854187012e-01 6.207593083381652832e-01
3.712000000000000000e+03 2.363489532470703125e+01 8.107012748718261719e+00 1.433061957359313965e+00 1.572779536247253418e+00 9.017524719238281250e-01 -1.503473043441772461e+00
3.713000000000000000e+03 2.326543617248535156e+01 7.492536544799804688e+00 1.404488205909729004e+00 1.233674407005310059e+00 7.914487719535827637e-01 -1.188151478767395020e+00
3.714000000000000000e+03 2.125983238220214844e+01 -1.804556274414062500e+01 1.264529824256896973e+00 1.519437879323959351e-01 4.249420762062072754e-01 -3.145435452461242676e-02
3.715000000000000000e+03 2.184344291687011719e+01 -1.872228813171386719e+01 1.549314856529235840e+00 4.381308257579803467e-01 5.962337255477905273e-01 1.820734143257141113e-01
3.716000000000000000e+03 1.172119235992431641e+01 -7.510627746582031250e+00 -6.934218108654022217e-02 3.488254034891724586e-03 -1.975617744028568268e-02 -6.947681307792663574e-02
3.717000000000000000e+03 2.251159667968750000e+01 -1.940632820129394531e+01 1.795768380165100098e+00 7.351767420768737793e-01 7.592835426330566406e-01 2.745206952095031738e-01
3.718000000000000000e+03 1.232355785369873047e+01 -6.713653564453125000e+00 -4.820320010185241699e-02 6.153095513582229614e-03 -1.261503156274557114e-02 -5.282037705183029175e-02
3.719000000000000000e+03 2.321741867065429688e+01 -2.151518058776855469e+01 1.936165571212768555e+00 1.379867553710937500e+00 9.948099255561828613e-01 6.708979606628417969e-01
3.720000000000000000e+03 6.661283111572265625e+01 4.117462921142578125e+01 -6.424202322959899902e-01 4.677882671356201172e+00 1.210638642311096191e+00 -2.690942399203777313e-02
3.721000000000000000e+03 2.480725669860839844e+01 4.890790462493896484e+00 1.552100896835327148e+00 1.675020456314086914e+00 9.681364297866821289e-01 -5.430552959442138672e-01
3.722000000000000000e+03 2.435318565368652344e+01 4.039821147918701172e+00 1.032348275184631348e+00 9.241338372230529785e-01 5.869446396827697754e-01 -2.316610068082809448e-01
3.723000000000000000e+03 2.265386581420898438e+01 4.212716579437255859e+00 5.876547694206237793e-01 1.041910946369171143e-01 2.075537592172622681e-01 1.449323147535324097e-01
3.724000000000000000e+03 2.276305007934570312e+01 4.600728511810302734e+00 9.294773340225219727e-01 2.108106464147567749e-01 3.420864045619964600e-01 -5.731135979294776917e-02
3.725000000000000000e+03 2.400277709960937500e+01 4.617197036743164062e+00 1.305721402168273926e+00 8.925663828849792480e-01 6.594863533973693848e-01 -3.325665295124053955e-01
3.726000000000000000e+03 2.470750617980957031e+01 7.286601543426513672e+00 1.983235478401184082e+00 2.108703374862670898e+00 1.227581620216369629e+00 -1.493283033370971680e+00
3.727000000000000000e+03 2.499335861206054688e+01 4.573014736175537109e+00 1.487036108970642090e+00 1.927524447441101074e+00 1.024368166923522949e+00 -5.609995722770690918e-01
3.728000000000000000e+03 2.605651092529296875e+01 4.109025001525878906e+00 1.436400413513183594e+00 2.782712221145629883e+00 1.265733718872070312e+00 -7.785923480987548828e-01
3.729000000000000000e+03 1.291385650634765625e+01 -6.632705211639404297e+00 -5.662779882550239563e-02 2.482178993523120880e-02 -9.541803039610385895e-03 -4.112153127789497375e-02
3.730000000000000000e+03 2.337226295471191406e+01 6.247236251831054688e+00 1.581696033477783203e+00 9.389673471450805664e-01 7.561990618705749512e-01 -7.660710215568542480e-01
3.731000000000000000e+03 2.510378837585449219e+01 6.073106288909912109e+00 2.339390993118286133e+00 2.198894739151000977e+00 1.361485719680786133e+00 -1.082747936248779297e+00
3.732000000000000000e+03 2.510339736938476562e+01 5.275049209594726562e+00 2.039068460464477539e+00 2.043459177017211914e+00 1.224758267402648926e+00 -8.298605680465698242e-01
3.733000000000000000e+03 2.199064254760742188e+01 5.306470394134521484e+00 8.888836503028869629e-01 5.870810151100158691e-02 2.842775285243988037e-01 -8.062250167131423950e-02
3.734000000000000000e+03 1.316954517364501953e+01 -7.665935516357421875e+00 -9.486623853445053101e-02 5.567114800214767456e-02 -1.175852771848440170e-02 -3.735921531915664673e-02
3.735000000000000000e+03 2.422106933593750000e+01 7.540278911590576172e+00 1.791693329811096191e+00 1.772168755531311035e+00 1.069158673286437988e+00 -1.486984133720397949e+00
3.736000000000000000e+03 2.342664718627929688e+01 5.284637451171875000e+00 1.361755132675170898e+00 7.193151712417602539e-01 6.243211030960083008e-01 -4.046421349048614502e-01
3.737000000000000000e+03 2.257520484924316406e+01 -1.813085365295410156e+01 1.476942539215087891e+00 6.675119400024414062e-01 6.433363556861877441e-01 1.667069196701049805e-01
3.738000000000000000e+03 2.332176399230957031e+01 7.135376930236816406e+00 1.542544841766357422e+00 1.122692823410034180e+00 7.995712757110595703e-01 -1.116176724433898926e+00
3.739000000000000000e+03 2.370780944824218750e+01 7.582065105438232422e+00 1.534560561180114746e+00 1.448640346527099609e+00 8.949602842330932617e-01 -1.370579600334167480e+00
3.740000000000000000e+03 2.229901885986328125e+01 4.314001083374023438e+00 6.299414634704589844e-01 -4.709975048899650574e-02 1.748525202274322510e-01 1.303205788135528564e-01
3.741000000000000000e+03 2.149118041992187500e+01 4.815451145172119141e+00 5.992681980133056641e-01 -1.771476566791534424e-01 1.266361624002456665e-01 1.258861124515533447e-01
3.742000000000000000e+03 2.469870758056640625e+01 5.670062541961669922e+00 1.879202723503112793e+00 1.734016418457031250e+00 1.083965778350830078e+00 -7.693918347358703613e-01
3.743000000000000000e+03 2.376744461059570312e+01 4.315258026123046875e+00 1.012824416160583496e+00 6.518512964248657227e-01 4.994027018547058105e-01 -1.011007204651832581e-01
3.744000000000000000e+03 2.551601219177246094e+01 4.918378829956054688e+00 1.716937780380249023e+00 2.456261634826660156e+00 1.251959800720214844e+00 -6.600477099418640137e-01
3.745000000000000000e+03 2.444738006591796875e+01 4.977972984313964844e+00 1.672019362449645996e+00 1.346692562103271484e+00 9.056136012077331543e-01 -5.104298591613769531e-01
3.746000000000000000e+03 2.274124908447265625e+01 6.293353080749511719e+00 1.381186246871948242e+00 5.798211097717285156e-01 5.883021950721740723e-01 -6.025525331497192383e-01
3.747000000000000000e+03 2.403482437133789062e+01 7.082500457763671875e+00 1.798553586006164551e+00 1.520372867584228516e+00 9.956779479980468750e-01 -1.258061647415161133e+00
3.748000000000000000e+03 2.346248626708984375e+01 5.732995033264160156e+00 1.555318474769592285e+00 7.862130403518676758e-01 7.024594545364379883e-01 -5.577340126037597656e-01
3.749000000000000000e+03 2.471673965454101562e+01 6.460735797882080078e+00 2.099134445190429688e+00 1.915390610694885254e+00 1.204357504844665527e+00 -1.132488727569580078e+00
3.750000000000000000e+03 2.435856819152832031e+01 6.814992427825927734e+00 2.026388883590698242e+00 1.685919642448425293e+00 1.113692522048950195e+00 -1.244028687477111816e+00
3.751000000000000000e+03 2.434472084045410156e+01 4.521082401275634766e+00 1.232851266860961914e+00 1.204936265945434570e+00 7.313362956047058105e-01 -3.468640148639678955e-01
3.752000000000000000e+03 2.367474365234375000e+01 4.726607322692871094e+00 1.158292531967163086e+00 7.050377726554870605e-01 5.589990615844726562e-01 -2.792593836784362793e-01
3.753000000000000000e+03 2.412220382690429688e+01 5.030659675598144531e+00 1.426253437995910645e+00 1.104127168655395508e+00 7.591142058372497559e-01 -4.187131524085998535e-01
3.754000000000000000e+03 2.428174209594726562e+01 6.050994873046875000e+00 1.980097532272338867e+00 1.428837299346923828e+00 1.022680401802062988e+00 -9.079908728599548340e-01
3.755000000000000000e+03 2.531246757507324219e+01 4.218276023864746094e+00 1.199944853782653809e+00 2.115306615829467773e+00 9.945754408836364746e-01 -5.899435281753540039e-01
3.756000000000000000e+03 2.246497726440429688e+01 5.199341773986816406e+00 1.061759471893310547e+00 1.796814501285552979e-01 3.724322617053985596e-01 -1.695708185434341431e-01
3.757000000000000000e+03 2.307528495788574219e+01 5.485802173614501953e+00 1.348532438278198242e+00 6.072029471397399902e-01 5.867206454277038574e-01 -4.212380349636077881e-01
3.758000000000000000e+03 2.393358802795410156e+01 6.442440509796142578e+00 1.791538119316101074e+00 1.275960206985473633e+00 9.202494621276855469e-01 -9.419693350791931152e-01
3.759000000000000000e+03 2.434319877624511719e+01 5.347051620483398438e+00 1.807743191719055176e+00 1.384643793106079102e+00 9.577161073684692383e-01 -7.138117551803588867e-01
3.760000000000000000e+03 2.396064186096191406e+01 5.625737190246582031e+00 1.609216928482055664e+00 1.171140074729919434e+00 8.341071009635925293e-01 -6.411203145980834961e-01
3.761000000000000000e+03 2.329820060729980469e+01 4.831075191497802734e+00 1.171669602394104004e+00 5.502506494522094727e-01 5.165760517120361328e-01 -2.392534464597702026e-01
3.762000000000000000e+03 2.289471626281738281e+01 5.027669429779052734e+00 1.038077831268310547e+00 3.578058481216430664e-01 4.187650978565216064e-01 -1.480864137411117554e-01
3.763000000000000000e+03 2.379441261291503906e+01 5.175210475921630859e+00 1.486085057258605957e+00 8.108400702476501465e-01 6.890775561332702637e-01 -4.372652173042297363e-01
3.764000000000000000e+03 3.675254821777343750e+01 -4.115997695922851562e+01 -1.769588947296142578e+00 3.430870532989501953e+00 4.983844757080078125e-01 1.515450775623321533e-01
3.765000000000000000e+03 7.646434307098388672e+00 4.109848403930664062e+01 5.358459800481796265e-02 -1.791738271713256836e-01 -3.767677024006843567e-02 2.549492008984088898e-02
3.766000000000000000e+03 2.803499984741210938e+01 -4.132724380493164062e+01 -1.399495720863342285e+00 3.946907997131347656e+00 7.642236948013305664e-01 -1.847122609615325928e-01
3.767000000000000000e+03 1.141154193878173828e+01 3.817316055297851562e+01 -1.786273419857025146e-01 -7.415648549795150757e-02 -7.583515346050262451e-02 -1.388135701417922974e-01
3.768000000000000000e+03 5.271003723144531250e+01 -3.516884231567382812e+01 1.360234141349792480e+00 7.599319458007812500e+00 2.687865972518920898e+00 -4.000955820083618164e-01
3.769000000000000000e+03 5.386176681518554688e+01 -3.365578079223632812e+01 2.369992017745971680e+00 7.498768806457519531e+00 2.960628271102905273e+00 -2.477654069662094116e-01
3.770000000000000000e+03 7.239795684814453125e+00 3.858720397949218750e+01 -9.090383350849151611e-02 -1.335883438587188721e-01 -6.734765321016311646e-02 2.073843218386173248e-02
3.771000000000000000e+03 3.234858703613281250e+01 -4.140840148925781250e+01 -1.181930184364318848e+00 3.874272584915161133e+00 8.077026605606079102e-01 1.041728034615516663e-01
3.772000000000000000e+03 2.661057472229003906e+01 -3.673608016967773438e+01 2.190072983503341675e-01 3.969932794570922852e+00 1.256682038307189941e+00 -2.787575125694274902e-01
3.773000000000000000e+03 8.324362754821777344e+00 -4.165248107910156250e+01 -6.600778102874755859e-01 7.639474868774414062e-01 3.116091340780258179e-02 8.997105807065963745e-02
3.774000000000000000e+03 9.758637428283691406e+00 -4.000824356079101562e+01 -6.949495077133178711e-01 8.076319694519042969e-01 3.380475193262100220e-02 3.773030936717987061e-01
3.775000000000000000e+03 3.169232749938964844e+01 -3.184534263610839844e+01 5.796306766569614410e-03 1.960631966590881348e+00 5.899285078048706055e-01 -6.288213729858398438e-01
3.776000000000000000e+03 6.271636962890625000e+00 3.678785705566406250e+01 -2.850277423858642578e-01 -1.184525713324546814e-01 -1.210440918803215027e-01 -1.628905162215232849e-02
3.777000000000000000e+03 7.148794555664062500e+01 -3.929999160766601562e+01 -7.085823416709899902e-01 6.183248996734619141e+00 1.642400026321411133e+00 -7.297687530517578125e-01
3.778000000000000000e+03 7.206637573242187500e+01 -4.145781326293945312e+01 -8.609252572059631348e-01 6.507573127746582031e+00 1.693994283676147461e+00 -2.501296699047088623e-01
3.779000000000000000e+03 2.730376625061035156e+01 3.810213851928710938e+01 -6.122808456420898438e-01 2.773423910140991211e+00 6.483429074287414551e-01 -2.596383392810821533e-01
3.780000000000000000e+03 7.404255390167236328e+00 -3.659256744384765625e+01 -1.069807782769203186e-01 6.042611598968505859e-01 1.491841077804565430e-01 5.202362537384033203e-01
3.781000000000000000e+03 6.949307250976562500e+01 3.983606719970703125e+01 -5.229755043983459473e-01 5.604209423065185547e+00 1.524370193481445312e+00 1.756932586431503296e-01
3.782000000000000000e+03 3.202726364135742188e+01 -3.682104873657226562e+01 -5.466791614890098572e-02 3.052446126937866211e+00 8.993334770202636719e-01 2.497089356184005737e-01
3.783000000000000000e+03 4.332652664184570312e+01 4.120392990112304688e+01 -8.150969147682189941e-01 2.581573009490966797e+00 5.299428105354309082e-01 -1.851465106010437012e-01
3.784000000000000000e+03 1.188661670684814453e+01 4.098734664916992188e+01 -3.007169067859649658e-02 1.337594389915466309e-01 3.110632300376892090e-02 -6.742026656866073608e-02
3.785000000000000000e+03 5.071708297729492188e+01 -3.450976943969726562e+01 1.285329818725585938e+00 7.502998352050781250e+00 2.636498451232910156e+00 -8.884441852569580078e-01
3.786000000000000000e+03 5.164808273315429688e+01 -3.476654434204101562e+01 1.464980006217956543e+00 7.055315971374511719e+00 2.556088685989379883e+00 -2.195421755313873291e-01
3.787000000000000000e+03 2.850992584228515625e+01 -2.650219202041625977e+00 2.267172932624816895e-01 -8.001312613487243652e-01 -1.720241904258728027e-01 1.465547829866409302e-01
3.788000000000000000e+03 2.006473159790039062e+01 -5.047991871833801270e-01 4.919348657131195068e-02 1.914793252944946289e-02 2.050242573022842407e-02 3.508292138576507568e-02
3.789000000000000000e+03 2.011807441711425781e+01 -6.739360690116882324e-01 3.592026978731155396e-02 2.261682040989398956e-02 1.756112650036811829e-02 5.884122848510742188e-02
3.790000000000000000e+03 1.983898735046386719e+01 -8.246007561683654785e-01 1.211852505803108215e-01 6.028611212968826294e-02 5.444141104817390442e-02 2.092329971492290497e-02
3.791000000000000000e+03 1.948116302490234375e+01 -5.242031216621398926e-01 -4.096358269453048706e-02 2.328367158770561218e-02 -5.303972866386175156e-03 5.787654779851436615e-03
3.792000000000000000e+03 1.919094657897949219e+01 -3.303184807300567627e-01 -8.012605458498001099e-02 1.744279637932777405e-02 -1.880497671663761139e-02 -1.281460933387279510e-02
3.793000000000000000e+03 1.872828674316406250e+01 -2.771548628807067871e-01 -8.349429816007614136e-02 2.225093357264995575e-02 -1.837300881743431091e-02 -1.881499588489532471e-02
3.794000000000000000e+03 3.961861133575439453e-01 -2.165737152099609375e+00 -6.878047715872526169e-04 7.575582712888717651e-03 2.066333312541246414e-03 2.002317458391189575e-03
3.795000000000000000e+03 1.989175033569335938e+01 2.852991580963134766e+00 -9.028752446174621582e-01 -4.065026640892028809e-01 -3.928133547306060791e-01 4.581733047962188721e-01
3.796000000000000000e+03 2.029463577270507812e+01 3.122409105300903320e+00 -6.188535690307617188e-01 -4.184707701206207275e-01 -3.111973106861114502e-01 4.440997838973999023e-01
3.797000000000000000e+03 2.086787223815917969e+01 2.630220890045166016e+00 -9.487348198890686035e-01 -3.598841726779937744e-01 -3.925856947898864746e-01 5.838547348976135254e-01
3.798000000000000000e+03 2.084280204772949219e+01 2.892651796340942383e+00 -7.607291936874389648e-01 -3.502429723739624023e-01 -3.332916498184204102e-01 5.151633620262145996e-01
3.799000000000000000e+03 2.127863311767578125e+01 2.918339967727661133e+00 -6.727737188339233398e-01 -3.219663202762603760e-01 -2.984220087528228760e-01 5.384225845336914062e-01
3.800000000000000000e+03 2.106089591979980469e+01 2.929284095764160156e+00 -6.610969305038452148e-01 -3.660989105701446533e-01 -3.081587553024291992e-01 5.333343744277954102e-01
3.801000000000000000e+03 2.170515632629394531e+01 2.815127849578857422e+00 -6.726747751235961914e-01 -2.978789806365966797e-01 -2.911661267280578613e-01 5.709897279739379883e-01
3.802000000000000000e+03 2.205258560180664062e+01 2.364221096038818359e+00 -9.916385412216186523e-01 -2.734485268592834473e-01 -3.795261085033416748e-01 6.261060237884521484e-01
3.803000000000000000e+03 2.233707237243652344e+01 2.634934902191162109e+00 -6.535023450851440430e-01 -2.242306917905807495e-01 -2.633199095726013184e-01 5.496720075607299805e-01
3.804000000000000000e+03 2.213589859008789062e+01 2.702921628952026367e+00 -6.654912829399108887e-01 -2.476293295621871948e-01 -2.739361822605133057e-01 5.748124122619628906e-01
3.805000000000000000e+03 2.304424476623535156e+01 2.099777698516845703e+00 -1.041341543197631836e+00 -1.464779078960418701e-01 -3.563458323478698730e-01 6.266970038414001465e-01
3.806000000000000000e+03 2.297012710571289062e+01 2.491030931472778320e+00 -6.775044202804565430e-01 -8.488535135984420776e-02 -2.287169396877288818e-01 5.468515157699584961e-01
3.807000000000000000e+03 2.379952049255371094e+01 1.844629287719726562e+00 -1.188890218734741211e+00 1.340378727763891220e-02 -3.526459336280822754e-01 5.346160531044006348e-01
3.808000000000000000e+03 2.389810562133789062e+01 2.054066658020019531e+00 -8.498634099960327148e-01 9.555558860301971436e-02 -2.262923419475555420e-01 4.339318871498107910e-01
3.809000000000000000e+03 2.459816551208496094e+01 1.997261643409729004e+00 -7.676239013671875000e-01 4.619647264480590820e-01 -9.169774502515792847e-02 1.432354897260665894e-01
3.810000000000000000e+03 2.534428215026855469e+01 1.510406851768493652e+00 -1.092365145683288574e+00 6.442964076995849609e-01 -1.344206333160400391e-01 -9.523886255919933319e-03
3.811000000000000000e+03 2.540503501892089844e+01 1.877176880836486816e+00 -6.347180604934692383e-01 9.986789822578430176e-01 1.091882809996604919e-01 -2.559856474399566650e-01
3.812000000000000000e+03 2.560341644287109375e+01 1.781497597694396973e+00 -6.615319252014160156e-01 1.046379923820495605e+00 1.154544204473495483e-01 -2.775263786315917969e-01
3.813000000000000000e+03 2.626130676269531250e+01 1.803067088127136230e+00 -4.748091995716094971e-01 1.867569208145141602e+00 4.178279936313629150e-01 -9.041500687599182129e-01
3.814000000000000000e+03 2.670729637145996094e+01 1.348406791687011719e+00 -8.519874811172485352e-01 1.886295080184936523e+00 3.102923035621643066e-01 -1.093762278556823730e+00
3.815000000000000000e+03 2.752480125427246094e+01 9.116653800010681152e-01 -5.328404307365417480e-01 2.593209981918334961e+00 6.181108355522155762e-01 -2.142023801803588867e+00
3.816000000000000000e+03 2.786308670043945312e+01 7.886229157447814941e-01 -4.354407787322998047e-01 2.854699850082397461e+00 7.257776856422424316e-01 -2.588194608688354492e+00
3.817000000000000000e+03 2.425006103515625000e+01 -1.387139129638671875e+01 -1.552964210510253906e+00 3.529581427574157715e-01 -3.600018024444580078e-01 2.255187630653381348e-01
3.818000000000000000e+03 2.466837882995605469e+01 -1.375034999847412109e+01 -1.290897965431213379e+00 5.735909938812255859e-01 -2.151920944452285767e-01 4.467112421989440918e-01
3.819000000000000000e+03 2.730192184448242188e+01 -1.178381919860839844e+01 3.664382457733154297e+00 3.780378580093383789e+00 2.233428239822387695e+00 3.585692644119262695e+00
3.820000000000000000e+03 2.845835876464843750e+01 -1.065731143951416016e+01 4.947027683258056641e+00 7.805545330047607422e+00 3.825771808624267578e+00 5.994945526123046875e+00
3.821000000000000000e+03 2.990356445312500000e+01 -6.170937538146972656e+00 1.436410099267959595e-01 7.934462547302246094e+00 2.423430919647216797e+00 4.629584550857543945e-01
3.822000000000000000e+03 2.948429298400878906e+01 -6.330723762512207031e+00 1.258209347724914551e-01 7.840795040130615234e+00 2.389984607696533203e+00 1.790739297866821289e-01
3.823000000000000000e+03 2.941624450683593750e+01 -5.528819084167480469e+00 1.513679176568984985e-01 6.843664646148681641e+00 2.098509788513183594e+00 -1.744428426027297974e-01
3.824000000000000000e+03 2.935073852539062500e+01 -5.148781299591064453e+00 1.032010093331336975e-02 5.915621757507324219e+00 1.777782678604125977e+00 -3.447374105453491211e-01
3.825000000000000000e+03 2.947253227233886719e+01 -4.410685062408447266e+00 -3.501706123352050781e-01 4.899437904357910156e+00 1.364780187606811523e+00 5.711739659309387207e-01
3.826000000000000000e+03 2.929319763183593750e+01 -4.187550544738769531e+00 -3.950817286968231201e-01 3.031038045883178711e+00 7.907868623733520508e-01 1.984058320522308350e-01
3.827000000000000000e+03 2.945961761474609375e+01 -3.733576536178588867e+00 -7.627775669097900391e-01 3.771049976348876953e+00 9.024817347526550293e-01 9.284418225288391113e-01
3.828000000000000000e+03 2.939806747436523438e+01 -2.984493970870971680e+00 4.138396084308624268e-01 2.579304456710815430e+00 8.979432582855224609e-01 8.101795911788940430e-01
3.829000000000000000e+03 2.998171997070312500e+01 -3.230733633041381836e+00 -3.386816382408142090e-01 6.606978893280029297e+00 1.880489110946655273e+00 1.691954851150512695e+00
3.830000000000000000e+03 2.976914978027343750e+01 -3.092793703079223633e+00 6.066643074154853821e-02 5.136266708374023438e+00 1.559080004692077637e+00 1.276216864585876465e+00
3.831000000000000000e+03 2.922683334350585938e+01 -3.174987792968750000e+00 2.034255303442478180e-02 1.710735201835632324e+00 5.193232893943786621e-01 6.642809510231018066e-01
3.832000000000000000e+03 2.850748825073242188e+01 -2.753544330596923828e+00 4.914293885231018066e-01 -1.237797379493713379e+00 -2.239104062318801880e-01 3.414213657379150391e-01
3.833000000000000000e+03 7.922113037109375000e+01 3.761070632934570312e+01 1.742716133594512939e-02 7.855966567993164062e+00 2.362018108367919922e+00 2.296664193272590637e-02
3.834000000000000000e+03 3.296355438232421875e+01 -7.240825891494750977e-01 3.782147645950317383e+00 4.213325500488281250e+00 2.398641824722290039e+00 -1.819556355476379395e-01
3.835000000000000000e+03 3.201136398315429688e+01 4.212226569652557373e-01 -2.209493368864059448e-01 6.567398071289062500e+00 1.903934717178344727e+00 -1.469465374946594238e+00
3.836000000000000000e+03 5.514635848999023438e+01 -2.442009162902832031e+01 -4.681872129440307617e-01 7.778861522674560547e+00 2.193202257156372070e+00 2.165818929672241211e+00
3.837000000000000000e+03 1.050951862335205078e+01 2.121236038208007812e+01 5.284567475318908691e-01 4.080150723457336426e-01 2.809415459632873535e-01 -3.682813346385955811e-01
3.838000000000000000e+03 3.842736816406250000e+01 9.433168172836303711e-01 3.040310740470886230e-01 6.873533725738525391e+00 2.153269529342651367e+00 3.677962064743041992e+00
3.839000000000000000e+03 6.863204956054687500e+01 -2.705335807800292969e+01 -1.717005968093872070e+00 1.618733406066894531e+00 -2.948175556957721710e-02 -1.053500652313232422e+00
3.840000000000000000e+03 5.230478286743164062e+01 2.952603912353515625e+01 1.166627526283264160e+00 8.359588623046875000e+00 2.857864618301391602e+00 8.380619287490844727e-01
3.841000000000000000e+03 5.308433151245117188e+01 2.720361709594726562e+01 1.504285216331481934e+00 8.082951545715332031e+00 2.876171112060546875e+00 -7.542895078659057617e-01
3.842000000000000000e+03 5.134603881835937500e+01 2.697095489501953125e+01 1.927548646926879883e+00 6.509161949157714844e+00 2.531013250350952148e+00 2.900097966194152832e-01
3.843000000000000000e+03 6.501303100585937500e+01 3.334014129638671875e+01 -1.420125365257263184e-01 5.025104045867919922e+00 1.464927434921264648e+00 7.492911815643310547e-01
3.844000000000000000e+03 6.056426239013671875e+01 1.782703590393066406e+01 2.867945671081542969e+00 8.654513359069824219e+00 3.456737756729125977e+00 2.703140974044799805e+00
3.845000000000000000e+03 6.443592834472656250e+01 6.278162956237792969e+00 -1.920973181724548340e+00 8.123793601989746094e-01 -3.325781524181365967e-01 -3.315787613391876221e-01
3.846000000000000000e+03 3.283019256591796875e+01 2.142127799987792969e+01 1.914285123348236084e-01 7.112233161926269531e+00 2.191098451614379883e+00 -5.310821533203125000e-01
3.847000000000000000e+03 1.662601661682128906e+01 -4.185668945312500000e+01 -1.748323917388916016e+00 -4.513495564460754395e-01 -6.599020361900329590e-01 7.378265261650085449e-02
3.848000000000000000e+03 1.251263236999511719e+01 -4.190790176391601562e+01 -1.182409882545471191e+00 7.702247500419616699e-01 -1.236555576324462891e-01 4.099651798605918884e-02
3.849000000000000000e+03 5.477512741088867188e+01 -3.639235687255859375e+01 -1.927529871463775635e-01 7.507880210876464844e+00 2.194538116455078125e+00 2.129331082105636597e-01
3.850000000000000000e+03 2.497223281860351562e+01 1.852265119552612305e+00 -7.852362394332885742e-01 6.050064563751220703e-01 -5.406893417239189148e-02 2.323623932898044586e-02
3.851000000000000000e+03 4.884642410278320312e+01 -3.831268692016601562e+01 -2.170785427093505859e+00 4.688345432281494141e+00 7.552679777145385742e-01 1.251012086868286133e+00
3.852000000000000000e+03 1.327907466888427734e+01 -3.927312088012695312e+01 -7.707644701004028320e-01 5.958344936370849609e-01 -5.247900635004043579e-02 3.002713024616241455e-01
3.853000000000000000e+03 1.054064941406250000e+01 -3.857707977294921875e+01 -6.183816790580749512e-01 9.676737785339355469e-01 1.047876328229904175e-01 3.483178913593292236e-01
3.854000000000000000e+03 5.137372589111328125e+01 -3.826303482055664062e+01 -2.129615306854248047e+00 6.532846927642822266e+00 1.320969462394714355e+00 1.478571444749832153e-01
3.855000000000000000e+03 6.328421401977539062e+01 -2.470278358459472656e+01 8.528131246566772461e-01 5.454585075378417969e+00 1.892219424247741699e+00 -2.499969482421875000e+00
3.856000000000000000e+03 3.620382785797119141e+00 2.950965309143066406e+01 -3.072496876120567322e-02 1.578014492988586426e-01 3.812294453382492065e-02 -5.798252820968627930e-01
3.857000000000000000e+03 6.134789657592773438e+01 6.739673137664794922e+00 -6.260494589805603027e-01 4.418531417846679688e+00 1.137744545936584473e+00 -1.504729747772216797e+00
3.858000000000000000e+03 2.494854927062988281e+01 1.465074253082275391e+01 -1.777935504913330078e+00 2.050895690917968750e+00 8.188804239034652710e-02 -1.830449104309082031e+00
3.859000000000000000e+03 4.384568023681640625e+01 -2.253361225128173828e+00 8.135932683944702148e-01 1.987263083457946777e+00 8.402569293975830078e-01 -1.907428622245788574e+00
3.860000000000000000e+03 3.986423492431640625e+01 -2.073199033737182617e+00 3.846670091152191162e-01 3.596649646759033203e+00 1.194394946098327637e+00 2.444599866867065430e+00
3.861000000000000000e+03 3.888972473144531250e+01 -1.658824086189270020e+00 3.870898187160491943e-01 4.211649894714355469e+00 1.379621863365173340e+00 2.884612083435058594e+00
3.862000000000000000e+03 6.265333938598632812e+01 -8.679699897766113281e+00 1.037806391716003418e+00 8.740040779113769531e+00 2.933354139328002930e+00 5.863137841224670410e-01
3.863000000000000000e+03 5.151026535034179688e+01 -8.694304466247558594e+00 1.974855661392211914e+00 6.450080394744873047e+00 2.527480840682983398e+00 -6.813535094261169434e-01
3.864000000000000000e+03 3.356183242797851562e+01 2.077502059936523438e+01 2.926028966903686523e-01 6.167484283447265625e+00 1.938026189804077148e+00 -5.887837409973144531e-01
3.865000000000000000e+03 1.805426597595214844e+01 2.151771163940429688e+01 1.044699788093566895e+00 7.403208613395690918e-01 5.355061888694763184e-01 5.075649544596672058e-02
3.866000000000000000e+03 2.702775192260742188e+01 1.405033016204833984e+01 -2.630528926849365234e+00 6.445314884185791016e-01 -5.957992672920227051e-01 -1.104696869850158691e+00
3.867000000000000000e+03 2.796071434020996094e+01 1.373007869720458984e+01 -2.298867702484130859e+00 1.577845692634582520e+00 -2.163065969944000244e-01 -1.648051589727401733e-01
3.868000000000000000e+03 8.868892669677734375e+00 -1.053044509887695312e+01 -1.570148617029190063e-01 -1.742422431707382202e-01 -9.937712550163269043e-02 -9.710884094238281250e-02
3.869000000000000000e+03 1.858456611633300781e+01 -1.216609001159667969e+01 -5.320410132408142090e-01 -8.123223483562469482e-02 -1.839819848537445068e-01 2.743301093578338623e-01
3.870000000000000000e+03 1.899178314208984375e+01 -1.271947956085205078e+01 -7.013155817985534668e-01 -7.754215598106384277e-02 -2.336573302745819092e-01 2.523669004440307617e-01
3.871000000000000000e+03 2.405014038085937500e+01 -1.446869087219238281e+01 -1.017723083496093750e+00 5.238828659057617188e-01 -1.481520682573318481e-01 5.108950138092041016e-01
3.872000000000000000e+03 2.583242988586425781e+01 -1.324204158782958984e+01 -3.610099554061889648e-01 1.744778394699096680e+00 4.151305556297302246e-01 1.322589159011840820e+00
3.873000000000000000e+03 4.221782684326171875e+01 1.278653144836425781e+01 7.155681252479553223e-01 8.182068824768066406e+00 2.669291257858276367e+00 9.135699272155761719e-01
3.874000000000000000e+03 9.363547325134277344e+00 1.830351257324218750e+01 2.918367981910705566e-01 4.267833232879638672e-01 2.155860364437103271e-01 -3.172234818339347839e-02
3.875000000000000000e+03 1.370263099670410156e+01 3.626177597045898438e+01 -2.809990048408508301e-01 9.082893282175064087e-02 -5.705102533102035522e-02 -8.494807779788970947e-02
3.876000000000000000e+03 4.489412689208984375e+01 3.532541275024414062e+01 -1.290410041809082031e+00 3.595137596130371094e+00 6.914182901382446289e-01 -1.061157464981079102e+00
3.877000000000000000e+03 5.379125213623046875e+01 2.198248863220214844e+01 -1.337754607200622559e+00 4.750754833221435547e+00 1.023900032043457031e+00 -2.397150039672851562e+00
3.878000000000000000e+03 5.443496322631835938e+01 -3.097651672363281250e+01 2.072710990905761719e+00 7.668953895568847656e+00 2.922499418258666992e+00 5.306767225265502930e-01
3.879000000000000000e+03 6.802269744873046875e+01 -3.943776702880859375e+01 -1.398880720138549805e+00 5.344419479370117188e+00 1.183661699295043945e+00 -3.491699993610382080e-01
3.880000000000000000e+03 3.007195854187011719e+01 -2.916459465026855469e+01 -1.636285543441772461e+00 3.737236738204956055e+00 6.302853822708129883e-01 -8.587495684623718262e-01
3.881000000000000000e+03 7.856159210205078125e+01 -5.346501350402832031e+00 3.208361268043518066e-01 8.425594329833984375e+00 2.623929023742675781e+00 4.804394245147705078e-01
3.882000000000000000e+03 3.366268920898437500e+01 -6.607838273048400879e-01 3.003689050674438477e+00 2.807732582092285156e+00 1.743426561355590820e+00 3.012176156044006348e-01
3.883000000000000000e+03 2.357056236267089844e+01 3.824205780029296875e+01 -5.363652110099792480e-01 2.487973451614379883e+00 5.854824781417846680e-01 -7.842583209276199341e-02
3.884000000000000000e+03 1.561281776428222656e+01 3.586185455322265625e+01 -2.041687965393066406e-01 6.868209242820739746e-01 1.447956413030624390e-01 -4.356456100940704346e-01
3.885000000000000000e+03 2.479275703430175781e+01 1.882265806198120117e+00 -8.412527441978454590e-01 4.782623648643493652e-01 -1.088971123099327087e-01 1.676515638828277588e-01
3.886000000000000000e+03 3.022599411010742188e+01 -5.695892810821533203e+00 4.468238726258277893e-02 7.723985671997070312e+00 2.330600261688232422e+00 6.671079993247985840e-01
3.887000000000000000e+03 2.573000717163085938e+01 2.012409210205078125e+00 -4.626829922199249268e-01 1.436175942420959473e+00 2.920478880405426025e-01 -4.500010907649993896e-01
3.888000000000000000e+03 2.450226783752441406e+01 2.453459262847900391e+00 -2.386725693941116333e-01 6.212771534919738770e-01 1.147813647985458374e-01 6.003084406256675720e-02
3.889000000000000000e+03 2.416641044616699219e+01 2.292893171310424805e+00 -5.195088982582092285e-01 2.673219144344329834e-01 -7.565609365701675415e-02 2.736336290836334229e-01
3.890000000000000000e+03 2.977169609069824219e+01 -4.274203777313232422e+00 -6.661072373390197754e-01 6.097562313079833984e+00 1.629436492919921875e+00 8.587946295738220215e-01
3.891000000000000000e+03 2.354980850219726562e+01 2.256918430328369141e+00 -6.983826160430908203e-01 6.971710175275802612e-02 -1.885996609926223755e-01 4.694116413593292236e-01
3.892000000000000000e+03 2.249319648742675781e+01 2.848095417022705078e+00 -4.289226233959197998e-01 -2.036741226911544800e-01 -1.897790282964706421e-01 5.124711990356445312e-01
3.893000000000000000e+03 2.191768836975097656e+01 2.747370958328247070e+00 -6.555762887001037598e-01 -2.649902701377868652e-01 -2.761699557304382324e-01 5.412523746490478516e-01
3.894000000000000000e+03 1.926495361328125000e+01 -6.623744964599609375e-01 2.345784939825534821e-02 4.536535963416099548e-02 2.064696326851844788e-02 -1.155674085021018982e-02
3.895000000000000000e+03 1.878031349182128906e+01 -9.406352043151855469e-01 -2.953903004527091980e-02 3.636407479643821716e-02 2.047513378784060478e-03 2.085365913808345795e-02
3.896000000000000000e+03 1.819156646728515625e+01 -7.368831038475036621e-01 -5.310580879449844360e-02 2.748405188322067261e-02 -7.686526514589786530e-03 -8.673942647874355316e-03
3.897000000000000000e+03 5.156344604492187500e+01 3.778822124004364014e-01 4.195006936788558960e-02 5.539517402648925781e+00 1.674440264701843262e+00 8.810158967971801758e-01
3.898000000000000000e+03 2.039555549621582031e+01 3.370679378509521484e+00 -4.750433564186096191e-01 -4.389035403728485107e-01 -2.741840779781341553e-01 4.740270674228668213e-01
3.899000000000000000e+03 1.972702407836914062e+01 3.246944189071655273e+00 -6.088041663169860840e-01 -4.160022139549255371e-01 -3.074419200420379639e-01 4.079965651035308838e-01
3.900000000000000000e+03 6.771396636962890625e+01 -1.487881851196289062e+01 -6.158269047737121582e-01 7.387140989303588867e-01 3.686614707112312317e-02 -6.552641391754150391e-01
3.901000000000000000e+03 5.058877182006835938e+01 -8.033654212951660156e+00 2.220378637313842773e+00 7.434018135070800781e+00 2.896319150924682617e+00 1.518720090389251709e-01
3.902000000000000000e+03 4.328833389282226562e+01 -2.093494224548339844e+01 3.382856369018554688e+00 4.895303726196289062e+00 2.483448028564453125e+00 2.199595607817173004e-02
3.903000000000000000e+03 5.556890487670898438e+01 -2.706652259826660156e+01 -1.729249238967895508e+00 6.840130805969238281e+00 1.533264517784118652e+00 1.665793180465698242e+00
3.904000000000000000e+03 5.718754577636718750e+01 -2.285108566284179688e+01 1.484886050224304199e+00 7.114774227142333984e+00 2.579898118972778320e+00 5.859645605087280273e-01
3.905000000000000000e+03 4.935359954833984375e+01 -1.291345787048339844e+01 -2.479653358459472656e-01 5.487338542938232422e+00 1.571811914443969727e+00 3.371840417385101318e-01
3.906000000000000000e+03 4.919113540649414062e+01 -1.419331645965576172e+01 -1.357985734939575195e+00 4.813660621643066406e+00 1.036702513694763184e+00 1.040721893310546875e+00
3.907000000000000000e+03 7.302291107177734375e+01 1.408784580230712891e+01 1.185660481452941895e+00 1.120762348175048828e+01 3.717985153198242188e+00 -5.940834432840347290e-02
3.908000000000000000e+03 2.905527687072753906e+01 1.089593768119812012e+00 -1.020923018455505371e+00 6.201748847961425781e+00 1.554247736930847168e+00 -4.210898399353027344e+00
3.909000000000000000e+03 2.898525428771972656e+01 1.430874466896057129e+00 -9.747964739799499512e-01 6.530560970306396484e+00 1.666729331016540527e+00 -4.297146320343017578e+00
3.910000000000000000e+03 2.386836051940917969e+01 2.691825866699218750e+00 -1.751228719949722290e-01 2.619106769561767578e-01 2.603634446859359741e-02 2.665428221225738525e-01
3.911000000000000000e+03 2.372949218750000000e+01 2.167420387268066406e+00 -7.872670292854309082e-01 6.701008975505828857e-02 -2.160770744085311890e-01 4.667255282402038574e-01
3.912000000000000000e+03 1.846070647239685059e+00 -3.790393352508544922e+00 -1.713528217806015164e-05 1.311472244560718536e-02 3.929276019334793091e-03 1.510323770344257355e-02
3.913000000000000000e+03 4.786017990112304688e+01 3.185245323181152344e+01 2.605558335781097412e-01 5.856299400329589844e+00 1.835056543350219727e+00 1.320325955748558044e-02
3.914000000000000000e+03 4.360968017578125000e+01 -2.483274078369140625e+01 1.647535800933837891e+00 2.445932865142822266e+00 1.228040575981140137e+00 1.631212383508682251e-01
3.915000000000000000e+03 5.700774765014648438e+01 -1.851992797851562500e+01 1.887547969818115234e+00 6.787938117980957031e+00 2.602645874023437500e+00 -4.218530952930450439e-01
3.916000000000000000e+03 2.795258331298828125e+01 9.974095821380615234e-01 -3.131867945194244385e-01 3.266234874725341797e+00 8.859143853187561035e-01 -2.830973148345947266e+00
3.917000000000000000e+03 7.759780883789062500e+01 -3.599498748779296875e+01 5.180910695344209671e-03 7.269230365753173828e+00 2.182323455810546875e+00 -1.630862802267074585e-01
3.918000000000000000e+03 7.702369689941406250e+01 -2.181442451477050781e+01 7.338569164276123047e-01 7.854451179504394531e+00 2.576492547988891602e+00 4.148521721363067627e-01
3.919000000000000000e+03 6.832738494873046875e+01 -3.081519317626953125e+01 2.569251537322998047e+00 5.090383052825927734e+00 2.297890186309814453e+00 -1.410430908203125000e+00
3.920000000000000000e+03 2.683429718017578125e+01 1.777242064476013184e+00 -5.732381343841552734e-01 2.787234306335449219e+00 6.641988754272460938e-01 -1.470865726470947266e+00
3.921000000000000000e+03 2.532839202880859375e+01 2.464235544204711914e+00 -1.115136966109275818e-01 1.307575702667236328e+00 3.588186204433441162e-01 -3.230675458908081055e-01
3.922000000000000000e+03 2.490230941772460938e+01 2.481153249740600586e+00 -1.232899501919746399e-01 9.488146901130676270e-01 2.476574182510375977e-01 -1.288248598575592041e-01
3.923000000000000000e+03 6.578105926513671875e+01 -1.439004707336425781e+01 -1.312900185585021973e+00 3.745804309844970703e+00 7.298712730407714844e-01 1.798373907804489136e-01
3.924000000000000000e+03 5.915613174438476562e+01 -2.108049201965332031e+01 2.780116081237792969e+00 4.866472721099853516e+00 2.293976545333862305e+00 -8.702264726161956787e-02
3.925000000000000000e+03 3.215571975708007812e+01 2.725902748107910156e+01 9.370439648628234863e-01 5.422683715820312500e+00 1.907918334007263184e+00 -8.570314645767211914e-01
3.926000000000000000e+03 6.977265930175781250e+01 3.240632247924804688e+01 5.539383888244628906e-01 5.506849288940429688e+00 1.818236351013183594e+00 7.224162817001342773e-01
3.927000000000000000e+03 1.618763542175292969e+01 -6.325067996978759766e+00 -1.221826067194342613e-03 1.123294979333877563e-01 3.333229944109916687e-02 1.445063482969999313e-02
3.928000000000000000e+03 1.643988800048828125e+01 -6.730123519897460938e+00 -5.164604634046554565e-03 1.269984841346740723e-01 3.655016422271728516e-02 1.931967958807945251e-02
3.929000000000000000e+03 2.020868873596191406e+01 3.568074941635131836e+00 -3.555685579776763916e-01 -4.166320860385894775e-01 -2.316602021455764771e-01 3.697401583194732666e-01
3.930000000000000000e+03 1.749751853942871094e+01 -1.112617969512939453e+01 -3.993912935256958008e-01 3.268676251173019409e-02 -1.100113615393638611e-01 1.815923154354095459e-01
3.931000000000000000e+03 1.910090255737304688e+01 -1.366485214233398438e+01 -7.170893549919128418e-01 5.115294456481933594e-02 -1.997809261083602905e-01 -7.140193134546279907e-03
3.932000000000000000e+03 2.047762107849121094e+01 -1.480440807342529297e+01 -5.840527415275573730e-01 -1.326215267181396484e-01 -2.150022834539413452e-01 -3.342825174331665039e-01
3.933000000000000000e+03 2.909790611267089844e+01 -1.217992115020751953e+01 7.131759524345397949e-01 7.479421615600585938e+00 2.457779407501220703e+00 3.300462484359741211e+00
3.934000000000000000e+03 2.385139274597167969e+01 -1.506756305694580078e+01 -3.690672516822814941e-01 6.689891219139099121e-01 8.997657150030136108e-02 5.287392735481262207e-01
3.935000000000000000e+03 2.802046775817871094e+01 -1.335098266601562500e+01 -6.040349006652832031e-01 6.296583652496337891e+00 1.707764625549316406e+00 2.910943508148193359e+00
3.936000000000000000e+03 3.917468261718750000e+01 -1.542251586914062500e+01 -1.955328822135925293e+00 5.508347034454345703e+00 1.065905451774597168e+00 -2.421324253082275391e+00
3.937000000000000000e+03 4.016763687133789062e+01 -1.705650329589843750e+01 4.280994534492492676e-01 5.036061286926269531e+00 1.639248132705688477e+00 -1.959639549255371094e+00
3.938000000000000000e+03 1.622566986083984375e+01 -9.250998497009277344e+00 -1.934077739715576172e-01 1.118805557489395142e-01 -2.445816248655319214e-02 1.322783678770065308e-01
3.939000000000000000e+03 1.582847881317138672e+01 -9.574785232543945312e+00 -2.473674714565277100e-01 1.687862128019332886e-01 -2.357438020408153534e-02 1.075766012072563171e-01
3.940000000000000000e+03 7.658084869384765625e+01 -1.751931571960449219e+01 -1.103266105055809021e-01 8.174488067626953125e+00 2.419248342514038086e+00 1.168116331100463867e+00
3.941000000000000000e+03 5.228462982177734375e+01 -3.338913726806640625e+01 2.537681102752685547e+00 7.036795139312744141e+00 2.872342824935913086e+00 -7.465629577636718750e-01
3.942000000000000000e+03 1.146656417846679688e+01 -1.056710815429687500e+01 -1.548265367746353149e-01 2.100329473614692688e-02 -4.014697298407554626e-02 -1.460552513599395752e-01
3.943000000000000000e+03 7.722294616699218750e+01 1.248424720764160156e+01 6.036348342895507812e-01 6.954662322998046875e+00 2.267489194869995117e+00 2.242459207773208618e-01
3.944000000000000000e+03 1.120281791687011719e+01 -2.567611885070800781e+01 4.703556597232818604e-01 5.217639803886413574e-01 2.976358830928802490e-01 1.582972109317779541e-01
3.945000000000000000e+03 8.965677261352539062e+00 -2.617737770080566406e+01 3.395213186740875244e-01 3.467993140220642090e-01 2.058961987495422363e-01 -8.503361791372299194e-02
3.946000000000000000e+03 1.460452938079833984e+01 -1.193691062927246094e+01 -2.737848460674285889e-01 3.548331558704376221e-01 2.431449480354785919e-02 -4.424936324357986450e-02
3.947000000000000000e+03 4.215550613403320312e+01 -3.905084729194641113e-01 1.160524249076843262e+00 3.442837953567504883e+00 1.381008625030517578e+00 -4.592905640602111816e-01
3.948000000000000000e+03 5.642176437377929688e+01 -1.416047859191894531e+01 -1.328852921724319458e-01 4.884232044219970703e+00 1.425403952598571777e+00 -1.417801618576049805e+00
3.949000000000000000e+03 5.339304733276367188e+01 -3.129570579528808594e+01 2.893096685409545898e+00 6.936468601226806641e+00 2.948869466781616211e+00 1.253306865692138672e-01
3.950000000000000000e+03 4.932596206665039062e+01 2.207214355468750000e+01 8.571168035268783569e-02 3.669044494628906250e+00 1.126426815986633301e+00 -7.025497034192085266e-03
3.951000000000000000e+03 5.829855346679687500e+01 1.256457138061523438e+01 1.424338459968566895e+00 8.495715141296386719e+00 2.976016283035278320e+00 1.423363327980041504e+00
3.952000000000000000e+03 4.978659820556640625e+01 3.641141510009765625e+01 -1.297572374343872070e+00 5.524709701538085938e+00 1.268141150474548340e+00 -2.320522367954254150e-01
3.953000000000000000e+03 5.415297698974609375e+01 1.925715255737304688e+01 -1.057930827140808105e+00 4.373988628387451172e+00 9.948173761367797852e-01 -2.404240608215332031e+00
3.954000000000000000e+03 5.832588958740234375e+01 1.401265430450439453e+01 1.696541786193847656e+00 8.375105857849121094e+00 3.021494388580322266e+00 1.600721478462219238e+00
3.955000000000000000e+03 3.202686309814453125e+01 -4.299933910369873047e+00 5.565539598464965820e-01 9.083797454833984375e+00 2.892105340957641602e+00 -1.067733764648437500e+00
3.956000000000000000e+03 5.830192947387695312e+01 9.204406738281250000e+00 1.202256679534912109e+00 7.287533760070800781e+00 2.546937227249145508e+00 7.301040291786193848e-01
3.957000000000000000e+03 9.087982177734375000e+00 -3.786912918090820312e+01 -3.307830393314361572e-01 7.465840578079223633e-01 1.247403025627136230e-01 5.724143385887145996e-01
3.958000000000000000e+03 2.942773246765136719e+01 1.835939645767211914e+00 -2.054321765899658203e+00 7.635785102844238281e+00 1.674439072608947754e+00 -3.944967031478881836e+00
3.959000000000000000e+03 1.779592895507812500e+01 -2.351829910278320312e+01 7.467328906059265137e-01 2.656471729278564453e-01 3.037140071392059326e-01 1.263671755790710449e+00
3.960000000000000000e+03 2.869118309020996094e+01 -3.217550277709960938e+01 -1.397856473922729492e-01 3.598761796951293945e+00 1.037692785263061523e+00 -1.517560184001922607e-01
3.961000000000000000e+03 3.264117050170898438e+01 -1.257354164123535156e+01 2.729820907115936279e-01 3.761647939682006836e+00 1.210389018058776855e+00 1.827531576156616211e+00
3.962000000000000000e+03 7.606109619140625000e+01 -2.785376548767089844e+01 -4.503693580627441406e-01 7.485858917236328125e+00 2.110646724700927734e+00 1.141576394438743591e-01
3.963000000000000000e+03 5.780410003662109375e+01 1.026343154907226562e+01 1.496538281440734863e+00 7.807382583618164062e+00 2.791176319122314453e+00 9.738982915878295898e-01
3.964000000000000000e+03 5.798504638671875000e+01 -2.234672164916992188e+01 2.045979022979736328e+00 5.849936485290527344e+00 2.368774652481079102e+00 4.140839576721191406e-01
3.965000000000000000e+03 2.916449356079101562e+01 -3.331060028076171875e+01 1.156105101108551025e-01 3.301596879959106445e+00 1.025162220001220703e+00 -3.087120354175567627e-01
3.966000000000000000e+03 2.952705192565917969e+01 -3.468872451782226562e+01 2.423512339591979980e-01 3.177633285522460938e+00 1.025995373725891113e+00 -3.324325382709503174e-01
3.967000000000000000e+03 5.234456253051757812e+01 -8.310003280639648438e+00 1.446042418479919434e+00 7.020783424377441406e+00 2.540047645568847656e+00 -1.135411262512207031e+00
3.968000000000000000e+03 2.062186622619628906e+01 3.591527938842773438e+00 -2.441445589065551758e-01 -3.932518064975738525e-01 -1.912189126014709473e-01 3.759632110595703125e-01
3.969000000000000000e+03 2.103707695007324219e+01 3.293800830841064453e+00 -4.091606736183166504e-01 -3.473111987113952637e-01 -2.269415557384490967e-01 4.726858437061309814e-01
3.970000000000000000e+03 4.824659824371337891e+00 -3.297316741943359375e+01 1.259340941905975342e-01 2.911530248820781708e-02 4.651481658220291138e-02 3.253783285617828369e-01
3.971000000000000000e+03 2.487726783752441406e+01 2.962625026702880859e+00 3.120486736297607422e-01 1.130573272705078125e+00 4.327865839004516602e-01 -2.177695780992507935e-01
3.972000000000000000e+03 2.415773773193359375e+01 3.387196779251098633e+00 4.706824719905853271e-01 6.147735714912414551e-01 3.256368041038513184e-01 9.727006778120994568e-03
3.973000000000000000e+03 2.269696617126464844e+01 2.995293378829956055e+00 -2.780229449272155762e-01 -7.107327878475189209e-02 -1.047288626432418823e-01 4.188866317272186279e-01
3.974000000000000000e+03 2.237853240966796875e+01 3.094829320907592773e+00 -2.780510783195495605e-01 -1.506530493497848511e-01 -1.286112368106842041e-01 4.423675239086151123e-01
3.975000000000000000e+03 2.208904838562011719e+01 3.225541114807128906e+00 -2.017913907766342163e-01 -2.038137316703796387e-01 -1.216815337538719177e-01 4.172662794589996338e-01
3.976000000000000000e+03 4.303400802612304688e+01 7.269132614135742188e+00 3.363351225852966309e-01 7.315649509429931641e+00 2.295595407485961914e+00 5.324746966361999512e-01
3.977000000000000000e+03 3.122936248779296875e+01 -5.982204914093017578e+00 3.868654370307922363e-01 8.296158790588378906e+00 2.604907274246215820e+00 9.990069866180419922e-01
3.978000000000000000e+03 5.281246948242187500e+01 2.125049781799316406e+01 -1.134613156318664551e+00 4.251697540283203125e+00 9.351254105567932129e-01 -2.214699029922485352e+00
3.979000000000000000e+03 3.187104988098144531e+01 3.055751228332519531e+01 5.086742639541625977e-01 4.443783283233642578e+00 1.485737204551696777e+00 -1.370856881141662598e+00
3.980000000000000000e+03 4.467839717864990234e+00 2.082287025451660156e+01 5.468542128801345825e-02 -5.007283017039299011e-02 1.383777707815170288e-03 1.041730120778083801e-01
3.981000000000000000e+03 1.588810729980468750e+01 -6.948825359344482422e+00 -1.860630512237548828e-02 9.562708437442779541e-02 2.310623414814472198e-02 2.893690392374992371e-02
3.982000000000000000e+03 3.288897323608398438e+01 -1.139413928985595703e+01 2.174088001251220703e+00 4.382796287536621094e+00 1.967065334320068359e+00 1.326358675956726074e+00
3.983000000000000000e+03 4.511838150024414062e+01 -1.589080810546875000e+00 9.326134920120239258e-01 3.093733787536621094e+00 1.207904219627380371e+00 -2.203718662261962891e+00
3.984000000000000000e+03 1.491718673706054688e+01 -8.795263290405273438e+00 -1.662420034408569336e-01 1.519145667552947998e-01 -4.298231564462184906e-03 4.806229844689369202e-02
3.985000000000000000e+03 3.656534957885742188e+01 1.766264533996582031e+01 8.440846800804138184e-01 2.523405551910400391e+00 1.010247111320495605e+00 -2.262033462524414062e+00
3.986000000000000000e+03 2.532847023010253906e+01 3.043616294860839844e+00 4.669758677482604980e-01 1.603464722633361816e+00 6.211321949958801270e-01 -4.588852226734161377e-01
3.987000000000000000e+03 2.585735702514648438e+01 3.079449892044067383e+00 4.936124980449676514e-01 2.307256937026977539e+00 8.402608036994934082e-01 -6.131110787391662598e-01
3.988000000000000000e+03 7.584184265136718750e+01 7.531583309173583984e+00 1.750177145004272461e-01 7.485356330871582031e+00 2.298112154006958008e+00 -1.029732108116149902e+00
3.989000000000000000e+03 5.752678298950195312e+01 1.761360931396484375e+01 1.280158877372741699e+00 5.733610153198242188e+00 2.104130744934082031e+00 4.855630919337272644e-03
3.990000000000000000e+03 2.490193557739257812e+01 3.413377761840820312e+00 6.113773584365844727e-01 1.353686332702636719e+00 5.895190834999084473e-01 -2.977744042873382568e-01
3.991000000000000000e+03 2.274761390686035156e+01 8.470565795898437500e+00 9.403005242347717285e-01 1.298139095306396484e+00 6.715319156646728516e-01 -1.370383143424987793e+00
3.992000000000000000e+03 7.725043487548828125e+01 -1.814223861694335938e+01 3.856348246335983276e-02 8.153783798217773438e+00 2.457704067230224609e+00 1.275768280029296875e+00
3.993000000000000000e+03 7.342916870117187500e+01 -3.310729598999023438e+01 8.950252532958984375e-01 5.551650524139404297e+00 1.934002757072448730e+00 -2.276248931884765625e-01
3.994000000000000000e+03 9.197654724121093750e+00 -7.617285251617431641e+00 -4.596279188990592957e-02 -7.770033180713653564e-02 -3.709893673658370972e-02 -7.220777869224548340e-02
3.995000000000000000e+03 2.636029624938964844e+01 8.350532531738281250e+00 2.139781236648559570e+00 3.952574253082275391e+00 1.827706575393676758e+00 -2.001089334487915039e+00
3.996000000000000000e+03 3.357224273681640625e+01 -7.794829368591308594e+00 2.893512725830078125e+00 6.512030601501464844e+00 2.821662902832031250e+00 7.559454441070556641e-01
3.997000000000000000e+03 3.154009056091308594e+01 -6.802676200866699219e+00 1.332986831665039062e+00 8.016520500183105469e+00 2.804852247238159180e+00 1.326828718185424805e+00
3.998000000000000000e+03 3.249657821655273438e+01 -7.070318698883056641e+00 2.103235960006713867e+00 7.382197856903076172e+00 2.845630168914794922e+00 1.143427014350891113e+00
3.999000000000000000e+03 2.289436912536621094e+01 3.102642536163330078e+00 -7.246600836515426636e-02 -6.450386345386505127e-02 -4.109096154570579529e-02 3.733277022838592529e-01
4.000000000000000000e+03 2.308041381835937500e+01 3.452841043472290039e+00 2.397940158843994141e-01 4.365416243672370911e-02 8.503445237874984741e-02 2.656370699405670166e-01
4.001000000000000000e+03 2.248864555358886719e+01 3.501448392868041992e+00 3.990842029452323914e-02 -6.204781681299209595e-02 -6.641818676143884659e-03 3.054028749465942383e-01
4.002000000000000000e+03 2.514564323425292969e+01 3.474925041198730469e+00 8.034533262252807617e-01 1.468596458435058594e+00 6.816149353981018066e-01 -4.248813986778259277e-01
4.003000000000000000e+03 6.109152221679687500e+01 -2.046493148803710938e+01 2.679206371307373047e+00 5.278934478759765625e+00 2.387442350387573242e+00 -1.074513196945190430e+00
4.004000000000000000e+03 3.218546295166015625e+01 -6.392979145050048828e+00 1.428781986236572266e+00 7.859060287475585938e+00 2.786352634429931641e+00 8.058674335479736328e-01
4.005000000000000000e+03 2.213296127319335938e+01 3.611939668655395508e+00 4.956685751676559448e-02 -1.445953547954559326e-01 -2.850854583084583282e-02 3.180190026760101318e-01
4.006000000000000000e+03 3.167517471313476562e+01 -5.832675457000732422e+00 5.828278660774230957e-01 8.494372367858886719e+00 2.723160028457641602e+00 6.127675175666809082e-01
4.007000000000000000e+03 7.672190856933593750e+01 -3.131744194030761719e+01 3.113920427858829498e-02 6.915025711059570312e+00 2.083849430084228516e+00 1.232025399804115295e-01
4.008000000000000000e+03 1.460323429107666016e+01 -8.414334297180175781e+00 -1.388155072927474976e-01 1.232353150844573975e-01 -4.674059338867664337e-03 3.041755221784114838e-02
4.009000000000000000e+03 5.140697956085205078e+00 1.321199035644531250e+01 4.071008041501045227e-02 -5.208209902048110962e-02 -3.411605488508939743e-03 2.187192738056182861e-01
4.010000000000000000e+03 7.483585357666015625e+01 3.087123870849609375e+00 -4.099081456661224365e-01 6.286657333374023438e+00 1.763024806976318359e+00 -7.587481737136840820e-01
4.011000000000000000e+03 4.317728805541992188e+01 -1.695676612854003906e+01 8.753266930580139160e-01 3.055568456649780273e+00 1.179268598556518555e+00 6.131698563694953918e-02
4.012000000000000000e+03 4.255813598632812500e+00 1.879167556762695312e+01 -6.137370131909847260e-03 -1.698161661624908447e-01 -5.278605967760086060e-02 1.442180126905441284e-01
4.013000000000000000e+03 6.845527172088623047e+00 -2.987608718872070312e+01 3.193030357360839844e-01 2.433073818683624268e-01 1.687831133604049683e-01 1.732084453105926514e-01
4.014000000000000000e+03 4.279309463500976562e+01 1.889766693115234375e+01 -1.357442587614059448e-01 4.553384780883789062e+00 1.325292229652404785e+00 8.774933815002441406e-01
4.015000000000000000e+03 2.479290771484375000e+01 3.735408782958984375e+00 8.985544443130493164e-01 1.222921609878540039e+00 6.364428400993347168e-01 -2.983412146568298340e-01
4.016000000000000000e+03 2.470886039733886719e+01 4.118078231811523438e+00 1.100375533103942871e+00 1.451506376266479492e+00 7.655645608901977539e-01 -3.434235751628875732e-01
4.017000000000000000e+03 1.553722667694091797e+01 -6.456603527069091797e+00 -1.316589210182428360e-02 8.765573799610137939e-02 2.234695293009281158e-02 1.306784339249134064e-02
4.018000000000000000e+03 1.528575897216796875e+01 -6.878687858581542969e+00 -3.385368362069129944e-02 8.259850740432739258e-02 1.462344639003276825e-02 1.990752480924129486e-02
4.019000000000000000e+03 2.085770416259765625e+01 -1.599040985107421875e+01 2.118316590785980225e-01 -1.563914418220520020e-01 1.663206517696380615e-02 -3.527030050754547119e-01
4.020000000000000000e+03 2.009822654724121094e+01 3.826449871063232422e+00 -1.298620849847793579e-01 -4.575465917587280273e-01 -1.762226074934005737e-01 3.702031373977661133e-01
4.021000000000000000e+03 3.376347732543945312e+01 -8.104041099548339844e+00 3.105686187744140625e+00 6.159059047698974609e+00 2.779423713684082031e+00 5.449030399322509766e-01
4.022000000000000000e+03 4.781405448913574219e+00 -1.088609504699707031e+01 -8.794681727886199951e-02 -7.925269007682800293e-02 -5.015985295176506042e-02 -4.188355430960655212e-02
4.023000000000000000e+03 2.628898620605468750e+01 2.669543266296386719e+00 2.687895596027374268e-01 2.503136396408081055e+00 8.315777778625488281e-01 -1.034346342086791992e+00
4.024000000000000000e+03 2.647264862060546875e+01 3.029815435409545898e+00 4.679560363292694092e-01 2.956007957458496094e+00 1.027189254760742188e+00 -8.899617195129394531e-01
4.025000000000000000e+03 2.320922851562500000e+01 3.881265878677368164e+00 5.920218229293823242e-01 2.240632474422454834e-01 2.448255270719528198e-01 1.203657463192939758e-01
4.026000000000000000e+03 2.253614234924316406e+01 3.907673358917236328e+00 4.321900010108947754e-01 4.192779306322336197e-03 1.309148371219635010e-01 1.636579632759094238e-01
4.027000000000000000e+03 8.150843620300292969e+00 -2.999907112121582031e+01 4.639447629451751709e-01 4.081901907920837402e-01 2.616404891014099121e-01 2.210538983345031738e-01
4.028000000000000000e+03 1.452733230590820312e+01 -3.348334312438964844e+00 4.287725780159235001e-03 7.174447178840637207e-03 3.438652027398347855e-03 -4.310866445302963257e-02
4.029000000000000000e+03 1.371461200714111328e+01 -8.032179832458496094e+00 -1.189681440591812134e-01 8.654890954494476318e-02 -9.725770913064479828e-03 -2.346108667552471161e-02
4.030000000000000000e+03 1.419987201690673828e+01 -8.095932960510253906e+00 -1.198289319872856140e-01 1.103297099471092224e-01 -2.849767217412590981e-03 6.615933962166309357e-03
4.031000000000000000e+03 1.380738067626953125e+01 -8.440736770629882812e+00 -1.465356051921844482e-01 1.175172254443168640e-01 -8.705517277121543884e-03 -9.650577791035175323e-03
4.032000000000000000e+03 4.191572189331054688e+00 1.767044067382812500e+01 1.061344752088189125e-03 -2.378232330083847046e-01 -7.102856785058975220e-02 1.680576503276824951e-01
4.033000000000000000e+03 2.228212356567382812e+01 3.981171846389770508e+00 3.553527593612670898e-01 -4.050131142139434814e-02 9.445543587207794189e-02 2.265952676534652710e-01
4.034000000000000000e+03 3.085777854919433594e+01 -1.144892120361328125e+01 1.688696026802062988e+00 6.525397777557373047e+00 2.464228153228759766e+00 2.539092063903808594e+00
4.035000000000000000e+03 2.468661117553710938e+01 4.515415191650390625e+00 1.440081954002380371e+00 1.322314262390136719e+00 8.287188410758972168e-01 -4.957502186298370361e-01
4.036000000000000000e+03 2.502668190002441406e+01 4.179962158203125000e+00 1.331737518310546875e+00 1.604694724082946777e+00 8.809296488761901855e-01 -4.836035072803497314e-01
4.037000000000000000e+03 2.942867088317871094e+01 -1.254034519195556641e+01 -9.805180132389068604e-02 7.426196575164794922e+00 2.198443412780761719e+00 2.955299854278564453e+00
4.038000000000000000e+03 2.556585502624511719e+01 4.322097301483154297e+00 1.506039142608642578e+00 2.258482217788696289e+00 1.129356384277343750e+00 -5.822933912277221680e-01
4.039000000000000000e+03 6.378473281860351562e+00 -3.093307876586914062e+01 2.969230413436889648e-01 1.962042450904846191e-01 1.479381918907165527e-01 2.439287006855010986e-01
4.040000000000000000e+03 2.369326400756835938e+01 7.166473865509033203e+00 1.675729870796203613e+00 1.338676452636718750e+00 9.043219089508056641e-01 -1.175206303596496582e+00
4.041000000000000000e+03 7.253567504882812500e+01 2.832731056213378906e+01 7.463843822479248047e-01 5.549580097198486328e+00 1.888789296150207520e+00 -1.289677321910858154e-01
4.042000000000000000e+03 1.374577808380126953e+01 -5.393916606903076172e+00 -1.690454594790935516e-02 1.721962168812751770e-02 9.452280937694013119e-05 -2.919438667595386505e-02
4.043000000000000000e+03 2.519797706604003906e+01 -1.606543540954589844e+01 2.115486115217208862e-01 2.732741832733154297e+00 8.832871317863464355e-01 1.052881717681884766e+00
4.044000000000000000e+03 2.608296585083007812e+01 -1.597819328308105469e+01 -9.644073992967605591e-02 3.953518867492675781e+00 1.157123446464538574e+00 1.417348265647888184e+00
4.045000000000000000e+03 2.623931312561035156e+01 -1.530570602416992188e+01 -4.956134557723999023e-01 3.841966867446899414e+00 1.003906011581420898e+00 1.708779811859130859e+00
4.046000000000000000e+03 1.369865417480468750e+01 -7.589461803436279297e+00 -8.840472996234893799e-02 7.178525626659393311e-02 -4.985841456800699234e-03 -1.888575963675975800e-02
4.047000000000000000e+03 1.436590480804443359e+01 -5.822869777679443359e+00 -1.324302237480878830e-02 4.196969792246818542e-02 8.618002757430076599e-03 -1.706648059189319611e-02
4.048000000000000000e+03 1.321963977813720703e+01 -8.083535194396972656e+00 -1.099287644028663635e-01 7.285711914300918579e-02 -1.112149190157651901e-02 -3.467646241188049316e-02
4.049000000000000000e+03 2.236214065551757812e+01 4.730813026428222656e+00 7.672920823097229004e-01 7.631397992372512817e-02 2.530818283557891846e-01 2.168751694262027740e-02
4.050000000000000000e+03 2.584478378295898438e+01 4.545184612274169922e+00 1.672719836235046387e+00 2.951519489288330078e+00 1.387271881103515625e+00 -9.098562002182006836e-01
4.051000000000000000e+03 1.264525032043457031e+01 -4.345764636993408203e+00 -6.582668516784906387e-03 -1.462798938155174255e-02 -6.363197229802608490e-03 -5.071991682052612305e-02
4.052000000000000000e+03 2.373800849914550781e+01 6.820898532867431641e+00 1.759315013885498047e+00 1.245620846748352051e+00 9.014807343482971191e-01 -1.079454898834228516e+00
4.053000000000000000e+03 2.476873588562011719e+01 -1.688303184509277344e+01 8.156728744506835938e-01 2.366440773010253906e+00 9.546340703964233398e-01 7.604182362556457520e-01
4.054000000000000000e+03 2.330729293823242188e+01 6.739559173583984375e+00 1.582134723663330078e+00 1.032093882560729980e+00 7.842685580253601074e-01 -9.160898327827453613e-01
4.055000000000000000e+03 2.531318473815917969e+01 4.566404819488525391e+00 1.718861460685729980e+00 2.070998668670654297e+00 1.136958122253417969e+00 -7.252541780471801758e-01
4.056000000000000000e+03 2.314159011840820312e+01 4.412343502044677734e+00 8.495574593544006348e-01 3.575437664985656738e-01 3.621303737163543701e-01 -1.830748096108436584e-02
4.057000000000000000e+03 1.285153865814208984e+01 -5.713015079498291016e+00 -3.116026893258094788e-02 6.720433477312326431e-03 -7.331950590014457703e-03 -4.361379891633987427e-02
4.058000000000000000e+03 1.316746997833251953e+01 -5.107368469238281250e+00 -1.774792931973934174e-02 5.793949589133262634e-03 -3.586194012314081192e-03 -4.161749407649040222e-02
4.059000000000000000e+03 1.281673622131347656e+01 -6.108833312988281250e+00 -3.122603148221969604e-02 9.200670756399631500e-03 -6.607608404010534286e-03 -4.063979536294937134e-02
4.060000000000000000e+03 1.249285888671875000e+01 -5.516574382781982422e+00 -2.005227282643318176e-02 -6.368407513946294785e-03 -7.926204241812229156e-03 -5.189855396747589111e-02
4.061000000000000000e+03 1.332012367248535156e+01 -5.553064823150634766e+00 -2.550528757274150848e-02 1.434227358549833298e-02 -3.348903963342308998e-03 -3.466866910457611084e-02
4.062000000000000000e+03 1.315016365051269531e+01 -5.914036273956298828e+00 -2.878196537494659424e-02 1.588139124214649200e-02 -3.870171960443258286e-03 -4.029214754700660706e-02
4.063000000000000000e+03 1.338139057159423828e+01 3.142086565494537354e-01 -1.251779049634933472e-01 -3.013911191374063492e-03 -3.845754265785217285e-02 -3.994389995932579041e-02
4.064000000000000000e+03 1.410687160491943359e+01 4.760258793830871582e-01 -1.456678956747055054e-01 -1.876777224242687225e-02 -4.933070018887519836e-02 -4.057310149073600769e-02
4.065000000000000000e+03 1.353089809417724609e+01 -4.106113612651824951e-01 -8.936221897602081299e-02 -2.196361869573593140e-02 -3.339775279164314270e-02 -4.731989651918411255e-02
4.066000000000000000e+03 1.483218193054199219e+01 6.374483108520507812e-01 -1.621443480253219604e-01 -2.138176234439015388e-03 -4.928475618362426758e-02 -4.546642303466796875e-02
4.067000000000000000e+03 1.495638942718505859e+01 -9.297639876604080200e-02 -1.158055514097213745e-01 -1.408142037689685822e-02 -3.896609321236610413e-02 -4.538628831505775452e-02
4.068000000000000000e+03 1.566942024230957031e+01 6.387124955654144287e-02 -1.330570280551910400e-01 6.613570731133222580e-03 -3.793303668498992920e-02 -4.748180136084556580e-02
4.069000000000000000e+03 1.555786418914794922e+01 7.970982789993286133e-01 -1.727403849363327026e-01 -1.082310359925031662e-02 -5.506904423236846924e-02 -3.818864375352859497e-02
4.070000000000000000e+03 1.424372863769531250e+01 -2.515964508056640625e-01 -1.023591980338096619e-01 -7.357119582593441010e-03 -3.291489556431770325e-02 -5.030363053083419800e-02
4.071000000000000000e+03 1.894162368774414062e+01 1.314208507537841797e+00 -2.229638397693634033e-01 2.752792835235595703e-02 -5.863077193498611450e-02 2.223037369549274445e-02
4.072000000000000000e+03 1.970324897766113281e+01 1.059473633766174316e+00 -3.783074915409088135e-01 -7.144899573177099228e-03 -1.156357154250144958e-01 6.550588458776473999e-02
4.073000000000000000e+03 1.946771812438964844e+01 5.800713896751403809e-01 -3.100572824478149414e-01 3.490552306175231934e-02 -8.254552632570266724e-02 -2.116909064352512360e-02
4.074000000000000000e+03 2.066806983947753906e+01 -4.063732922077178955e-01 1.361213326454162598e-01 -2.834784239530563354e-02 3.233204782009124756e-02 6.554022431373596191e-02
4.075000000000000000e+03 2.109395027160644531e+01 -6.366141885519027710e-02 -1.939099980518221855e-03 -7.458162307739257812e-02 -2.295621670782566071e-02 1.055733636021614075e-01
4.076000000000000000e+03 2.192148780822753906e+01 -2.566876709461212158e-01 2.326674610376358032e-01 2.180759981274604797e-02 7.634251564741134644e-02 -1.956664770841598511e-01
4.077000000000000000e+03 2.198527145385742188e+01 2.706003189086914062e-01 -3.946862518787384033e-01 -2.664186060428619385e-01 -1.983314603567123413e-01 8.247654139995574951e-02
4.078000000000000000e+03 2.313366508483886719e+01 -2.047823369503021240e-02 -1.071772098541259766e+00 1.987381651997566223e-02 -3.155694603919982910e-01 1.698612421751022339e-01
4.079000000000000000e+03 2.395604324340820312e+01 7.437885552644729614e-02 -5.611337184906005859e+00 1.133583188056945801e-01 -1.649393677711486816e+00 1.243190884590148926e+00
4.080000000000000000e+03 2.460185623168945312e+01 -9.383740276098251343e-02 -5.353646278381347656e+00 6.578683257102966309e-01 -1.408733367919921875e+00 9.232861995697021484e-01
4.081000000000000000e+03 2.494188690185546875e+01 -1.608929485082626343e-01 -1.200213074684143066e+00 1.430134773254394531e+00 6.897651404142379761e-02 -4.279411733150482178e-01
4.082000000000000000e+03 2.507108497619628906e+01 -2.407705932855606079e-01 -6.114634513854980469e+00 -1.740752309560775757e-01 -1.886613011360168457e+00 2.296716213226318359e+00
4.083000000000000000e+03 2.601786422729492188e+01 -5.032118558883666992e-01 1.350262880325317383e+00 2.942197024822235107e-01 4.933447539806365967e-01 2.223337411880493164e+00
4.084000000000000000e+03 2.722000312805175781e+01 -8.611875176429748535e-01 -1.100331902503967285e+00 1.030271768569946289e+00 -2.101802639663219452e-02 2.872601449489593506e-01
4.085000000000000000e+03 2.836066627502441406e+01 -2.379185676574707031e+00 2.813594937324523926e-01 -7.017818093299865723e-01 -1.261266916990280151e-01 9.116947650909423828e-02
4.086000000000000000e+03 2.815903472900390625e+01 -2.321145296096801758e+00 -1.540459245443344116e-01 -2.678728997707366943e-01 -1.265756487846374512e-01 2.342095524072647095e-01
4.087000000000000000e+03 3.096552467346191406e+01 -2.511887788772583008e+00 1.166661262512207031e+00 1.478234195709228516e+01 4.784700870513916016e+00 -2.556503772735595703e+00
4.088000000000000000e+03 3.169018554687500000e+01 -1.621104955673217773e+00 7.950706958770751953e+00 9.995303153991699219e+00 5.383803367614746094e+00 -3.290690660476684570e+00
4.089000000000000000e+03 3.153553962707519531e+01 -1.545692205429077148e+00 9.300753593444824219e+00 1.047503471374511719e+01 5.932736873626708984e+00 -3.629220008850097656e+00
4.090000000000000000e+03 3.138813018798828125e+01 -9.343577027320861816e-01 6.976011753082275391e+00 1.243711566925048828e+01 5.823938369750976562e+00 -6.793544292449951172e-01
4.091000000000000000e+03 2.887816810607910156e+01 -1.010801196098327637e+00 2.727719545364379883e+00 4.486596286296844482e-01 9.529137015342712402e-01 -1.216369032859802246e+00
4.092000000000000000e+03 2.866635131835937500e+01 -7.590265274047851562e-01 1.975048065185546875e+00 9.282314777374267578e-01 8.709838986396789551e-01 -1.803543448448181152e+00
4.093000000000000000e+03 3.000568580627441406e+01 -5.218425393104553223e-01 3.463515996932983398e+00 9.401006698608398438e+00 3.859356880187988281e+00 -7.171742916107177734e+00
4.094000000000000000e+03 2.917382812500000000e+01 1.993846744298934937e-01 8.575527667999267578e-01 5.316939830780029297e+00 1.852347731590270996e+00 -4.900180339813232422e+00
4.095000000000000000e+03 2.749861526489257812e+01 -5.994853973388671875e-01 -1.353978753089904785e+00 7.607774436473846436e-02 -3.833702802658081055e-01 -1.820410415530204773e-02
4.096000000000000000e+03 2.820040321350097656e+01 4.525754153728485107e-01 8.196443319320678711e-03 2.867793798446655273e+00 8.627970218658447266e-01 -3.004168033599853516e+00
4.097000000000000000e+03 2.725382232666015625e+01 3.692931830883026123e-01 -9.582668542861938477e-01 1.325972199440002441e+00 1.103115975856781006e-01 -1.297107934951782227e+00
4.098000000000000000e+03 2.528169059753417969e+01 1.197104334831237793e+00 -1.440395593643188477e+00 4.695057570934295654e-01 -2.912669479846954346e-01 8.450527489185333252e-02
4.099000000000000000e+03 2.411532020568847656e+01 1.493592500686645508e+00 -1.474343299865722656e+00 -4.589167365338653326e-04 -4.424406588077545166e-01 5.201219916343688965e-01
4.100000000000000000e+03 2.204384231567382812e+01 1.807271957397460938e+00 -1.583677530288696289e+00 -3.028933703899383545e-01 -5.659712553024291992e-01 7.517933249473571777e-01
4.101000000000000000e+03 2.094941139221191406e+01 2.016587257385253906e+00 -1.524059057235717773e+00 -2.935464382171630859e-01 -5.452816486358642578e-01 6.634841561317443848e-01
4.102000000000000000e+03 2.022786712646484375e+01 2.306340456008911133e+00 -1.322613239288330078e+00 -3.118005096912384033e-01 -4.903241395950317383e-01 5.213642120361328125e-01
4.103000000000000000e+03 2.015216255187988281e+01 1.285513401031494141e+00 -2.252782821655273438e+00 -1.771084368228912354e-01 -7.289673686027526855e-01 6.305520534515380859e-01
4.104000000000000000e+03 2.344102478027343750e+01 4.403639435768127441e-01 -3.408514022827148438e+00 -2.893034219741821289e-01 -1.109345197677612305e+00 9.467388391494750977e-01
4.105000000000000000e+03 2.450474548339843750e+01 1.395581483840942383e+00 -1.514139533042907715e+00 1.119572222232818604e-01 -4.206546843051910400e-01 4.179325997829437256e-01
4.106000000000000000e+03 2.459954452514648438e+01 1.124745905399322510e-01 -3.650016069412231445e+00 -2.881782948970794678e-01 -1.181458353996276855e+00 9.703091382980346680e-01
4.107000000000000000e+03 2.557544708251953125e+01 -1.369666457176208496e-01 -3.503774881362915039e+00 -2.195372879505157471e-01 -1.116993665695190430e+00 8.594987988471984863e-01
4.108000000000000000e+03 3.069030761718750000e+01 -2.003561407327651978e-01 5.712012648582458496e-01 1.255876064300537109e+01 3.938988447189331055e+00 -4.569252967834472656e+00
4.109000000000000000e+03 3.099570083618164062e+01 -5.235031247138977051e-01 2.525673389434814453e+00 1.392490100860595703e+01 4.935172557830810547e+00 -2.304136753082275391e+00
4.110000000000000000e+03 3.058682060241699219e+01 -2.722461462020874023e+00 -1.450262218713760376e-01 1.203603839874267578e+01 3.567303657531738281e+00 6.498748660087585449e-01
4.111000000000000000e+03 2.916249275207519531e+01 -1.342139244079589844e+00 -1.907020092010498047e+00 1.593628674745559692e-01 -5.242971777915954590e-01 3.111684620380401611e-01
4.112000000000000000e+03 1.882013320922851562e+01 3.438051789999008179e-02 -1.499443352222442627e-01 4.625128954648971558e-02 -3.110791556537151337e-02 -3.094528615474700928e-02
4.113000000000000000e+03 1.905631256103515625e+01 4.371497035026550293e-01 -2.069479674100875854e-01 2.680559642612934113e-02 -5.404271185398101807e-02 -7.601527031511068344e-03
4.114000000000000000e+03 1.913087081909179688e+01 1.268832802772521973e+00 -2.694790661334991455e-01 -1.087886188179254532e-02 -8.410737663507461548e-02 5.197460949420928955e-02
4.115000000000000000e+03 1.931950187683105469e+01 1.217209219932556152e+00 -2.979404628276824951e-01 -8.190684020519256592e-03 -9.183934330940246582e-02 6.127204746007919312e-02
4.116000000000000000e+03 2.086717605590820312e+01 -9.314213693141937256e-02 -3.662759065628051758e-02 8.986797928810119629e-02 1.597211509943008423e-02 -6.785172224044799805e-02
4.117000000000000000e+03 1.975478935241699219e+01 -1.882032603025436401e-01 -4.337592422962188721e-02 1.805461011826992035e-02 -7.596394047141075134e-03 -3.600138425827026367e-02
4.118000000000000000e+03 1.956918907165527344e+01 -1.364403963088989258e-01 -9.026434272527694702e-02 3.116788901388645172e-02 -1.772893592715263367e-02 -1.516583934426307678e-02
4.119000000000000000e+03 2.216798591613769531e+01 2.073802351951599121e-01 -6.634524464607238770e-01 9.520414471626281738e-02 -1.704744845628738403e-01 2.470689453184604645e-02
4.120000000000000000e+03 2.339075660705566406e+01 -1.350038945674896240e-01 -1.013133287429809570e+00 -6.264902949333190918e-01 -4.918870925903320312e-01 3.509910404682159424e-01
4.121000000000000000e+03 2.534283638000488281e+01 -2.704643011093139648e-01 2.098102569580078125e-01 6.146100163459777832e-01 2.473260760307312012e-01 -2.272805720567703247e-01
4.122000000000000000e+03 2.620811080932617188e+01 -6.122254133224487305e-01 -1.622261762619018555e+00 -1.064039230346679688e+00 -8.058903217315673828e-01 -6.609403491020202637e-01
4.123000000000000000e+03 2.678326416015625000e+01 -1.061065435409545898e+00 -5.062524601817131042e-02 -5.099552273750305176e-01 -1.681741327047348022e-01 -7.771011590957641602e-01
4.124000000000000000e+03 2.704773330688476562e+01 -8.062987923622131348e-01 -9.231284260749816895e-01 -1.528998136520385742e+00 -7.356379628181457520e-01 -2.199737578630447388e-01
4.125000000000000000e+03 3.003577232360839844e+01 -2.863281250000000000e+00 8.425999879837036133e-01 6.628124713897705078e+00 2.241217374801635742e+00 1.656547904014587402e+00
4.126000000000000000e+03 2.964200401306152344e+01 -2.773368358612060547e+00 1.083815693855285645e+00 3.565877914428710938e+00 1.394908070564270020e+00 1.374490976333618164e+00
4.127000000000000000e+03 1.909321594238281250e+01 2.859536409378051758e+00 -9.031957387924194336e-01 -3.395785987377166748e-01 -3.728322982788085938e-01 3.322884738445281982e-01
4.128000000000000000e+03 1.966014862060546875e+01 2.735344886779785156e+00 -9.584738016128540039e-01 -3.968524336814880371e-01 -4.065978825092315674e-01 4.239680469036102295e-01
4.129000000000000000e+03 1.965524864196777344e+01 2.596328496932983398e+00 -1.075702667236328125e+00 -3.763930499553680420e-01 -4.356287121772766113e-01 4.311532378196716309e-01
4.130000000000000000e+03 1.999839019775390625e+01 2.572923183441162109e+00 -1.128848910331726074e+00 -3.631106317043304443e-01 -4.475878477096557617e-01 4.893854856491088867e-01
4.131000000000000000e+03 2.080518913269042969e+01 2.346714019775390625e+00 -1.223986625671386719e+00 -3.288983106613159180e-01 -4.658654928207397461e-01 6.069259643554687500e-01
4.132000000000000000e+03 2.115095901489257812e+01 2.019628047943115234e+00 -1.485015749931335449e+00 -3.220932781696319580e-01 -5.421326756477355957e-01 6.843102574348449707e-01
4.133000000000000000e+03 2.158695411682128906e+01 2.161332130432128906e+00 -1.310670971870422363e+00 -3.058390915393829346e-01 -4.849530160427093506e-01 7.081113457679748535e-01
4.134000000000000000e+03 2.178753852844238281e+01 2.091466903686523438e+00 -1.314464330673217773e+00 -3.073121607303619385e-01 -4.865329265594482422e-01 6.835102438926696777e-01
4.135000000000000000e+03 2.209495925903320312e+01 7.595907449722290039e-01 -2.949834346771240234e+00 -2.129675149917602539e-01 -9.488406181335449219e-01 8.391925096511840820e-01
4.136000000000000000e+03 2.235200500488281250e+01 1.704497814178466797e+00 -1.675189256668090820e+00 -2.720018029212951660e-01 -5.841573476791381836e-01 7.689992189407348633e-01
4.137000000000000000e+03 2.314248275756835938e+01 1.743176937103271484e+00 -1.487121224403381348e+00 -1.759250313043594360e-01 -4.989138543605804443e-01 7.089609503746032715e-01
4.138000000000000000e+03 2.346832847595214844e+01 1.373364448547363281e+00 -1.838930130004882812e+00 -1.873953789472579956e-01 -6.078976392745971680e-01 7.069793939590454102e-01
4.139000000000000000e+03 2.385190582275390625e+01 1.260227918624877930e+00 -1.914212107658386230e+00 -1.362519711256027222e-01 -6.151391863822937012e-01 6.721357107162475586e-01
4.140000000000000000e+03 2.365759086608886719e+01 1.315240621566772461e+00 -1.895625114440917969e+00 -1.508018374443054199e-01 -6.139280796051025391e-01 7.184963226318359375e-01
4.141000000000000000e+03 2.424617004394531250e+01 1.158046007156372070e+00 -1.928953886032104492e+00 -7.011076807975769043e-02 -5.997194051742553711e-01 5.958722829818725586e-01
4.142000000000000000e+03 2.489415550231933594e+01 1.299887299537658691e+00 -1.476078629493713379e+00 2.743071019649505615e-01 -3.605314493179321289e-01 2.707902491092681885e-01
4.143000000000000000e+03 2.547382354736328125e+01 1.147303104400634766e+00 -1.437730193138122559e+00 5.092805027961730957e-01 -2.785348892211914062e-01 5.760529637336730957e-02
4.144000000000000000e+03 2.566695976257324219e+01 1.099010229110717773e+00 -1.392249464988708496e+00 6.766501665115356445e-01 -2.146797776222229004e-01 -1.112041473388671875e-01
4.145000000000000000e+03 2.624569129943847656e+01 9.421741366386413574e-01 -1.300535321235656738e+00 8.971590995788574219e-01 -1.210128590464591980e-01 -4.738980233669281006e-01
4.146000000000000000e+03 2.663227462768554688e+01 8.187490105628967285e-01 -1.119556307792663574e+00 1.193152189254760742e+00 2.207875251770019531e-02 -8.807808160781860352e-01
4.147000000000000000e+03 2.703980445861816406e+01 6.919455528259277344e-01 -9.404361844062805176e-01 1.447069764137268066e+00 1.519900709390640259e-01 -1.237593770027160645e+00
4.148000000000000000e+03 2.724489784240722656e+01 6.741026043891906738e-01 -7.622469663619995117e-01 1.926658868789672852e+00 3.493235707283020020e-01 -1.563434600830078125e+00
4.149000000000000000e+03 2.762514495849609375e+01 6.174072623252868652e-01 -5.371626019477844238e-01 2.354776382446289062e+00 5.452841520309448242e-01 -2.160471916198730469e+00
4.150000000000000000e+03 2.775139999389648438e+01 3.610695004463195801e-01 -3.828880786895751953e-01 2.070677280426025391e+00 5.063367486000061035e-01 -2.139190912246704102e+00
4.151000000000000000e+03 2.800531768798828125e+01 4.951649904251098633e-01 -1.735258698463439941e-01 2.764213085174560547e+00 7.772061228752136230e-01 -2.707923173904418945e+00
4.152000000000000000e+03 2.823949241638183594e+01 2.395152300596237183e-01 2.870799601078033447e-01 2.701933622360229492e+00 8.967040777206420898e-01 -2.977541208267211914e+00
4.153000000000000000e+03 2.838283348083496094e+01 4.019640684127807617e-01 1.916267424821853638e-01 3.328764677047729492e+00 1.056117415428161621e+00 -3.283084630966186523e+00
4.154000000000000000e+03 2.897739028930664062e+01 2.468657195568084717e-01 8.775516748428344727e-01 4.561219692230224609e+00 1.631631493568420410e+00 -4.646231174468994141e+00
4.155000000000000000e+03 2.956947708129882812e+01 9.889181703329086304e-02 1.137089967727661133e+00 6.871855735778808594e+00 2.402683734893798828e+00 -5.672859668731689453e+00
4.156000000000000000e+03 2.996364402770996094e+01 -9.262243402190506458e-04 8.434043526649475098e-01 9.061340332031250000e+00 2.971423387527465820e+00 -5.898162364959716797e+00
4.157000000000000000e+03 3.043891334533691406e+01 -4.276929497718811035e-01 1.680964708328247070e+00 1.334050559997558594e+01 4.506441116333007812e+00 -5.759976387023925781e+00
4.158000000000000000e+03 1.909345626831054688e+01 2.666965723037719727e+00 -1.120610356330871582e+00 -3.208739161491394043e-01 -4.324452877044677734e-01 3.821500539779663086e-01
4.159000000000000000e+03 1.975941848754882812e+01 1.385413050651550293e+00 -2.186355352401733398e+00 -1.654500067234039307e-01 -7.055416107177734375e-01 5.988994240760803223e-01
4.160000000000000000e+03 1.931340026855468750e+01 1.738312125205993652e+00 -2.058003425598144531e+00 -1.962566971778869629e-01 -6.762779951095581055e-01 4.485967159271240234e-01
4.161000000000000000e+03 1.955620574951171875e+01 1.450387835502624512e+00 -2.175550222396850586e+00 -1.736444383859634399e-01 -7.047584056854248047e-01 5.759952068328857422e-01
4.162000000000000000e+03 2.073420333862304688e+01 1.140885472297668457e+00 -2.404351234436035156e+00 -2.159050554037094116e-01 -7.860769033432006836e-01 6.803572773933410645e-01
4.163000000000000000e+03 2.152901649475097656e+01 9.415214061737060547e-01 -2.664034366607666016e+00 -2.433929294347763062e-01 -8.722282052040100098e-01 7.706382870674133301e-01
4.164000000000000000e+03 2.182170295715332031e+01 1.071571707725524902e+00 -2.536398887634277344e+00 -2.498389035463333130e-01 -8.358713388442993164e-01 7.919488549232482910e-01
4.165000000000000000e+03 2.236013412475585938e+01 9.303894639015197754e-01 -2.697967290878295898e+00 -2.523972690105438232e-01 -8.851093649864196777e-01 8.676626682281494141e-01
4.166000000000000000e+03 2.285075569152832031e+01 5.700474977493286133e-01 -3.234185457229614258e+00 -2.458976209163665771e-01 -1.044024944305419922e+00 9.040060639381408691e-01
4.167000000000000000e+03 2.440833091735839844e+01 1.664944291114807129e-01 -3.637966156005859375e+00 -2.322733402252197266e-01 -1.161071777343750000e+00 9.901989102363586426e-01
4.168000000000000000e+03 2.615422248840332031e+01 -3.045055866241455078e-01 -3.180661439895629883e+00 -1.293269544839859009e-01 -9.929965138435363770e-01 7.893993854522705078e-01
4.169000000000000000e+03 2.710138893127441406e+01 -5.456283092498779297e-01 -2.064973115921020508e+00 -6.133012846112251282e-02 -6.378909349441528320e-01 3.464947640895843506e-01
4.170000000000000000e+03 2.943467521667480469e+01 -1.170750498771667480e+00 5.752177715301513672e+00 8.712372779846191406e-01 1.987024426460266113e+00 -2.422141313552856445e+00
4.171000000000000000e+03 3.176692199707031250e+01 -1.394773125648498535e+00 7.776963710784912109e+00 9.213269233703613281e+00 5.097069740295410156e+00 -2.298783302307128906e+00
4.172000000000000000e+03 3.062788581848144531e+01 -4.473575055599212646e-01 1.849388241767883301e+00 1.494916534423828125e+01 5.039566040039062500e+00 -4.674175739288330078e+00
4.173000000000000000e+03 2.918243026733398438e+01 -9.477700591087341309e-01 4.291697025299072266e+00 1.349540114402770996e+00 1.692371129989624023e+00 -2.671169042587280273e+00
4.174000000000000000e+03 2.937179374694824219e+01 -1.397782087326049805e+00 -2.664343357086181641e+00 -3.562337756156921387e-01 -9.061731100082397461e-01 5.920996423810720444e-03
4.175000000000000000e+03 3.009965705871582031e+01 -2.616660594940185547e+00 7.696924209594726562e-01 8.515950202941894531e+00 2.785692691802978516e+00 1.973905205726623535e+00
4.176000000000000000e+03 3.031659317016601562e+01 -2.659335851669311523e+00 1.114346235990524292e-01 1.072659301757812500e+01 3.251408338546752930e+00 2.504041194915771484e+00
4.177000000000000000e+03 3.082643318176269531e+01 -2.673216104507446289e+00 1.221326068043708801e-01 1.347546386718750000e+01 4.079278945922851562e+00 -8.928855657577514648e-01
4.178000000000000000e+03 3.124041938781738281e+01 -2.271988391876220703e+00 3.379627704620361328e+00 1.465249633789062500e+01 5.409636974334716797e+00 -4.637228488922119141e+00
4.179000000000000000e+03 2.934810829162597656e+01 -1.620720744132995605e+00 -1.475518465042114258e+00 4.157101511955261230e-01 -3.179425001144409180e-01 -5.562615990638732910e-01
4.180000000000000000e+03 2.844219970703125000e+01 -1.158768057823181152e+00 -7.791707515716552734e-01 4.987348020076751709e-01 -8.413079380989074707e-02 6.622275710105895996e-02
4.181000000000000000e+03 2.739388084411621094e+01 -9.506345987319946289e-01 -1.223822832107543945e+00 -2.470473498106002808e-01 -4.412610530853271484e-01 2.147802263498306274e-01
4.182000000000000000e+03 2.645503616333007812e+01 -6.684528589248657227e-01 -2.051376342773437500e+00 1.182991504669189453e+00 -2.605154514312744141e-01 3.349378108978271484e-01
4.183000000000000000e+03 2.653103637695312500e+01 -8.902750611305236816e-01 1.828752636909484863e+00 1.086287975311279297e+00 8.745121955871582031e-01 3.410144746303558350e-01
4.184000000000000000e+03 2.586923599243164062e+01 -4.255324900150299072e-01 -4.039549350738525391e+00 -1.147234559059143066e+00 -1.556035161018371582e+00 3.637332618236541748e-01
4.185000000000000000e+03 2.570035362243652344e+01 -3.613641560077667236e-01 -2.712126255035400391e+00 5.704913139343261719e-01 -6.424905061721801758e-01 2.288180828094482422e+00
4.186000000000000000e+03 2.553695869445800781e+01 -3.156520426273345947e-01 -2.507254362106323242e+00 -6.180072426795959473e-01 -9.375784993171691895e-01 -5.437394976615905762e-01
4.187000000000000000e+03 2.474997901916503906e+01 -1.088159456849098206e-01 -2.176016330718994141e+00 -2.692232370376586914e+00 -1.460474610328674316e+00 1.699382781982421875e+00
4.188000000000000000e+03 2.457118606567382812e+01 -5.117693170905113220e-02 -5.023084163665771484e+00 2.180923700332641602e+00 -8.526480793952941895e-01 1.366450190544128418e-01
4.189000000000000000e+03 2.350112915039062500e+01 3.231971338391304016e-02 8.783479332923889160e-01 1.729592978954315186e-01 3.153921663761138916e-01 -4.540445208549499512e-01
4.190000000000000000e+03 2.356714820861816406e+01 1.583091169595718384e-01 -2.672884702682495117e+00 4.311463236808776855e-01 -6.725214719772338867e-01 3.990099132061004639e-01
4.191000000000000000e+03 2.318341445922851562e+01 2.148912698030471802e-01 -8.718352913856506348e-01 2.271617762744426727e-02 -2.547357380390167236e-01 1.748334914445877075e-01
4.192000000000000000e+03 2.298929023742675781e+01 2.635202705860137939e-01 -8.642826676368713379e-01 -3.395763337612152100e-01 -3.611577153205871582e-01 2.654917836189270020e-01
4.193000000000000000e+03 2.148810005187988281e+01 3.455809354782104492e-01 -3.749783039093017578e-01 1.859804242849349976e-01 -5.669936165213584900e-02 7.266118377447128296e-02
4.194000000000000000e+03 2.083589935302734375e+01 6.235961318016052246e-01 -5.674782395362854004e-01 -3.601004928350448608e-02 -1.810464859008789062e-01 1.323081701993942261e-01
4.195000000000000000e+03 1.991509437561035156e+01 1.010851144790649414e+00 -4.094688296318054199e-01 -6.715639028698205948e-03 -1.248553395271301270e-01 7.843668758869171143e-02
4.196000000000000000e+03 1.896414756774902344e+01 1.552724599838256836e+00 -2.663213014602661133e+00 -2.239658236503601074e-01 -8.661535978317260742e-01 4.296345114707946777e-01
4.197000000000000000e+03 1.930859947204589844e+01 2.366910219192504883e+00 -1.348641037940979004e+00 -3.407420814037322998e-01 -5.068149566650390625e-01 4.056599736213684082e-01
4.198000000000000000e+03 1.928801536560058594e+01 2.819967985153198242e+00 -9.874235987663269043e-01 -3.903051018714904785e-01 -4.133186042308807373e-01 3.925522863864898682e-01
4.199000000000000000e+03 1.907881927490234375e+01 2.472041130065917969e+00 -1.218905687332153320e+00 -3.463568687438964844e-01 -4.695787727832794189e-01 3.833531141281127930e-01
4.200000000000000000e+03 1.940303993225097656e+01 2.511414051055908203e+00 -1.195181012153625488e+00 -3.387442529201507568e-01 -4.601775705814361572e-01 3.845216929912567139e-01
4.201000000000000000e+03 1.899333572387695312e+01 1.924754381179809570e+00 -1.843042731285095215e+00 -2.746247649192810059e-01 -6.353002786636352539e-01 3.660342693328857422e-01
4.202000000000000000e+03 2.028980445861816406e+01 2.656766474246978760e-01 -1.647365540266036987e-01 6.118084117770195007e-02 -3.106671385467052460e-02 -6.320367008447647095e-02
4.203000000000000000e+03 2.015973663330078125e+01 -7.674349099397659302e-02 -7.544324547052383423e-02 1.542038656771183014e-02 -1.800685934722423553e-02 -5.104320123791694641e-03
4.204000000000000000e+03 2.016836738586425781e+01 8.213286399841308594e-01 -4.492358863353729248e-01 -3.400517627596855164e-02 -1.449723243713378906e-01 4.555420204997062683e-02
4.205000000000000000e+03 2.048273468017578125e+01 -3.813471794128417969e-01 6.103638187050819397e-02 5.566449463367462158e-02 3.501026332378387451e-02 1.540949475020170212e-02
4.206000000000000000e+03 1.922180938720703125e+01 1.792823821306228638e-01 -1.563710421323776245e-01 1.567459292709827423e-02 -4.220893606543540955e-02 -1.613974012434482574e-02
4.207000000000000000e+03 3.039894485473632812e+01 -2.892191171646118164e+00 -2.580723166465759277e-01 1.080441284179687500e+01 3.163902282714843750e+00 1.234044790267944336e+00
4.208000000000000000e+03 2.911373138427734375e+01 -2.630895376205444336e+00 1.006638884544372559e+00 3.336285352706909180e-01 4.020802378654479980e-01 6.595373898744583130e-02
4.209000000000000000e+03 2.983374786376953125e+01 -2.799394607543945312e+00 7.969288825988769531e-01 5.460727691650390625e+00 1.877297043800354004e+00 1.739895343780517578e+00
4.210000000000000000e+03 2.956368637084960938e+01 -2.241959095001220703e+00 1.981103181838989258e+00 1.193340539932250977e+00 9.523330926895141602e-01 4.600577950477600098e-01
4.211000000000000000e+03 2.883489608764648438e+01 -2.317907094955444336e+00 7.582510709762573242e-01 -3.215234875679016113e-01 1.310182660818099976e-01 -2.499555796384811401e-01
4.212000000000000000e+03 2.892496490478515625e+01 -2.586621761322021484e+00 1.005413174629211426e+00 -1.366621404886245728e-01 2.606253325939178467e-01 9.019608050584793091e-02
4.213000000000000000e+03 2.990284347534179688e+01 -2.534564256668090820e+00 1.784469723701477051e+00 5.040524959564208984e+00 2.047498464584350586e+00 2.086072444915771484e+00
4.214000000000000000e+03 2.908933258056640625e+01 -1.691485643386840820e+00 -5.985382795333862305e-01 -2.303260415792465210e-01 -2.486592978239059448e-01 -5.825893282890319824e-01
4.215000000000000000e+03 3.157471466064453125e+01 -2.304774045944213867e+00 4.470749855041503906e+00 1.119956970214843750e+01 4.701096057891845703e+00 -4.562189579010009766e+00
4.216000000000000000e+03 2.938439369201660156e+01 -1.835342526435852051e+00 -3.305592015385627747e-02 -8.381921052932739258e-02 -3.506254032254219055e-02 -8.213382363319396973e-01
4.217000000000000000e+03 2.920371055603027344e+01 -2.144107818603515625e+00 1.013991117477416992e+00 5.346922576427459717e-02 3.202381134033203125e-01 -4.993103444576263428e-01
4.218000000000000000e+03 3.050154495239257812e+01 -1.611795127391815186e-01 5.583450794219970703e-01 1.283741855621337891e+01 4.018729209899902344e+00 -5.276754856109619141e+00
4.219000000000000000e+03 3.022366333007812500e+01 -4.554282724857330322e-01 2.562477827072143555e+00 1.197602272033691406e+01 4.361550331115722656e+00 -6.979866027832031250e+00
4.220000000000000000e+03 2.976751136779785156e+01 4.386145621538162231e-02 1.125905752182006836e+00 8.177190780639648438e+00 2.790929079055786133e+00 -6.192889690399169922e+00
4.221000000000000000e+03 3.149433517456054688e+01 -1.191504955291748047e+00 8.663730621337890625e+00 1.051128387451171875e+01 5.752504348754882812e+00 -1.608314275741577148e+00
4.222000000000000000e+03 3.152130889892578125e+01 -1.384428501129150391e+00 8.352223396301269531e+00 1.016635036468505859e+01 5.555572032928466797e+00 -1.642975449562072754e+00
4.223000000000000000e+03 3.015076446533203125e+01 -2.891672588884830475e-02 7.372282743453979492e-01 1.021089744567871094e+01 3.284437894821166992e+00 -5.854371070861816406e+00
4.224000000000000000e+03 3.155753707885742188e+01 -1.983164310455322266e+00 6.212645053863525391e+00 1.121118354797363281e+01 5.227148532867431641e+00 -4.626332283020019531e+00
4.225000000000000000e+03 2.823970603942871094e+01 -1.114989280700683594e+00 -7.045396566390991211e-01 -8.027262091636657715e-01 -4.521797597408294678e-01 2.115215659141540527e-01
4.226000000000000000e+03 2.685263824462890625e+01 -7.688041925430297852e-01 -8.460131883621215820e-01 3.824703022837638855e-02 -2.423298507928848267e-01 1.052765846252441406e+00
4.227000000000000000e+03 2.718366050720214844e+01 -1.302105545997619629e+00 7.720680236816406250e-01 7.757158279418945312e-01 4.643351435661315918e-01 4.449498951435089111e-01
4.228000000000000000e+03 2.262881851196289062e+01 3.623855710029602051e-01 -1.072834491729736328e+00 -1.402025520801544189e-01 -3.639111220836639404e-01 1.402911096811294556e-01
4.229000000000000000e+03 2.230843544006347656e+01 -1.045290380716323853e-01 -1.902811080217361450e-01 8.246489614248275757e-02 -3.234486281871795654e-02 -1.584946513175964355e-01
4.230000000000000000e+03 2.010933876037597656e+01 1.012014746665954590e+00 -4.270515441894531250e-01 4.002886358648538589e-03 -1.269145905971527100e-01 1.112233549356460571e-01
4.231000000000000000e+03 2.378628540039062500e+01 -1.619970798492431641e-02 4.094934463500976562e+00 6.804824471473693848e-01 1.432625055313110352e+00 2.931799292564392090e-01
4.232000000000000000e+03 1.888245964050292969e+01 6.820466518402099609e-01 -2.336450219154357910e-01 2.404062077403068542e-02 -6.288132071495056152e-02 -7.285608444362878799e-04
4.233000000000000000e+03 2.901820564270019531e+01 -1.508582234382629395e+00 -1.459709525108337402e+00 1.097416728734970093e-01 -4.049903452396392822e-01 -5.631038546562194824e-01
4.234000000000000000e+03 2.760365676879882812e+01 -1.015794157981872559e+00 -8.507612347602844238e-01 3.385295569896697998e-01 -1.536695063114166260e-01 6.369559764862060547e-01
4.235000000000000000e+03 2.066314125061035156e+01 8.307487368583679199e-01 -5.742881298065185547e-01 -4.503021389245986938e-02 -1.857955008745193481e-01 1.116428151726722717e-01
4.236000000000000000e+03 2.032419967651367188e+01 6.525046229362487793e-01 -3.044605851173400879e-01 9.502028115093708038e-03 -8.848756551742553711e-02 2.458693273365497589e-02
4.237000000000000000e+03 1.891878700256347656e+01 1.104691028594970703e+00 -2.764250636100769043e-01 1.537529099732637405e-02 -7.831493765115737915e-02 2.222081460058689117e-02
4.238000000000000000e+03 1.908564949035644531e+01 8.646532893180847168e-01 -2.717339396476745605e-01 1.473451778292655945e-02 -7.709982246160507202e-02 1.780752837657928467e-02
4.239000000000000000e+03 2.238320350646972656e+01 1.357007175683975220e-01 -3.694975674152374268e-01 -7.798697799444198608e-02 -1.342453658580780029e-01 2.932753860950469971e-01
4.240000000000000000e+03 2.243087196350097656e+01 3.872292041778564453e-01 -9.049060344696044922e-01 3.988872095942497253e-02 -2.595051825046539307e-01 1.477455794811248779e-01
4.241000000000000000e+03 2.097775650024414062e+01 5.635973811149597168e-01 -6.361373662948608398e-01 -2.481956779956817627e-02 -1.982870697975158691e-01 5.462102964520454407e-02
4.242000000000000000e+03 2.863300895690917969e+01 -1.179928541183471680e+00 -9.367782473564147949e-01 -5.166760683059692383e-01 -4.360362887382507324e-01 1.796766668558120728e-01
4.243000000000000000e+03 2.782744598388671875e+01 -1.055476188659667969e+00 -7.997047901153564453e-01 -8.921357393264770508e-01 -5.075521469116210938e-01 1.346835792064666748e-01
4.244000000000000000e+03 2.779867744445800781e+01 -1.384129524230957031e+00 -2.958521544933319092e-01 1.599454134702682495e-01 -4.077202081680297852e-02 8.038039505481719971e-02
4.245000000000000000e+03 2.752155303955078125e+01 -1.724200367927551270e+00 -6.347146630287170410e-01 -3.299839049577713013e-02 -2.003139108419418335e-01 -3.234044313430786133e-01
4.246000000000000000e+03 2.905737304687500000e+01 -1.090157508850097656e+00 3.509804487228393555e+00 4.892646968364715576e-01 1.199720740318298340e+00 -1.409038543701171875e+00
4.247000000000000000e+03 2.837415695190429688e+01 -5.994045138359069824e-01 1.073050141334533691e+00 9.287910461425781250e-01 6.005523800849914551e-01 -1.532187461853027344e+00
4.248000000000000000e+03 2.770726203918457031e+01 -6.609926819801330566e-01 -9.793923497200012207e-01 2.033073902130126953e-01 -2.328254878520965576e-01 -1.169541254639625549e-01
4.249000000000000000e+03 2.324524879455566406e+01 4.899214804172515869e-01 -3.353625774383544922e+00 -2.381838113069534302e-01 -1.077542901039123535e+00 9.448001384735107422e-01
4.250000000000000000e+03 1.995626449584960938e+01 1.333657026290893555e+00 -2.213704824447631836e+00 -1.769864112138748169e-01 -7.172073721885681152e-01 6.110133528709411621e-01
4.251000000000000000e+03 1.915057945251464844e+01 1.709816336631774902e+00 -2.222389698028564453e+00 -2.095441520214080811e-01 -7.295801639556884766e-01 3.669944703578948975e-01
4.252000000000000000e+03 2.499199104309082031e+01 2.979002334177494049e-02 -3.649911403656005859e+00 -2.610402107238769531e-01 -1.173285484313964844e+00 9.596209526062011719e-01
4.253000000000000000e+03 2.691358947753906250e+01 -5.040875673294067383e-01 -2.360079765319824219e+00 -1.931268908083438873e-02 -7.138177752494812012e-01 4.702144265174865723e-01
4.254000000000000000e+03 2.729218292236328125e+01 -5.724417567253112793e-01 -1.735363483428955078e+00 1.946820765733718872e-01 -4.622043967247009277e-01 1.795117855072021484e-01
4.255000000000000000e+03 1.937739372253417969e+01 2.069145917892456055e+00 -1.670287489891052246e+00 -2.887727916240692139e-01 -5.877181291580200195e-01 4.221789538860321045e-01
4.256000000000000000e+03 2.287910079956054688e+01 8.298386335372924805e-01 -2.800131559371948242e+00 -2.899269759654998779e-01 -9.270175695419311523e-01 8.846265673637390137e-01
4.257000000000000000e+03 2.654869651794433594e+01 -9.706170856952667236e-02 -2.286965131759643555e+00 3.232441842555999756e-02 -6.763921976089477539e-01 2.379753142595291138e-01
4.258000000000000000e+03 2.363718414306640625e+01 3.888155519962310791e-01 -3.462162494659423828e+00 -2.468093633651733398e-01 -1.112691521644592285e+00 9.744765162467956543e-01
4.259000000000000000e+03 2.402756500244140625e+01 2.836644947528839111e-01 -3.563629150390625000e+00 -2.507058680057525635e-01 -1.144300580024719238e+00 9.952120780944824219e-01
4.260000000000000000e+03 2.634047698974609375e+01 -3.480322360992431641e-01 -3.043960332870483398e+00 -1.648812443017959595e-01 -9.626524448394775391e-01 6.921324133872985840e-01
4.261000000000000000e+03 2.790324974060058594e+01 -7.437672019004821777e-01 -4.888733625411987305e-01 6.799037754535675049e-02 -1.262648999691009521e-01 -2.746506929397583008e-01
4.262000000000000000e+03 2.817433738708496094e+01 -5.787079930305480957e-01 3.332047462463378906e-01 6.297271251678466797e-01 2.888795733451843262e-01 -1.155601620674133301e+00
4.263000000000000000e+03 2.236046218872070312e+01 2.005799770355224609e+00 -1.348533987998962402e+00 -2.554585337638854980e-01 -4.811977446079254150e-01 7.217941284179687500e-01
4.264000000000000000e+03 2.132846069335937500e+01 1.003302931785583496e+00 -2.597749471664428711e+00 -2.125489562749862671e-01 -8.430895209312438965e-01 7.527759671211242676e-01
4.265000000000000000e+03 2.479528808593750000e+01 7.189070433378219604e-02 -3.651092052459716797e+00 -2.344674170017242432e-01 -1.165667891502380371e+00 9.860391020774841309e-01
4.266000000000000000e+03 2.034713363647460938e+01 1.237926602363586426e+00 -2.297195434570312500e+00 -1.920365393161773682e-01 -7.467696070671081543e-01 6.470678448677062988e-01
4.267000000000000000e+03 2.092715644836425781e+01 1.091150403022766113e+00 -2.466557025909423828e+00 -1.846317052841186523e-01 -7.953566312789916992e-01 7.110503911972045898e-01
4.268000000000000000e+03 2.171692466735839844e+01 8.635964393615722656e-01 -2.759135723114013672e+00 -2.082731872797012329e-01 -8.902226686477661133e-01 8.122227191925048828e-01
4.269000000000000000e+03 2.223428344726562500e+01 1.879422903060913086e+00 -1.468768835067749023e+00 -2.534984946250915527e-01 -5.166801810264587402e-01 7.138550877571105957e-01
4.270000000000000000e+03 2.481544303894042969e+01 5.900362730026245117e-01 -2.598611354827880859e+00 -7.748699933290481567e-02 -8.028295040130615234e-01 6.696389317512512207e-01
4.271000000000000000e+03 2.001567077636718750e+01 1.585108995437622070e+00 -2.018786430358886719e+00 -1.992958784103393555e-01 -6.654246449470520020e-01 6.018226742744445801e-01
4.272000000000000000e+03 2.682985496520996094e+01 -2.030879408121109009e-01 -2.006501436233520508e+00 2.077021449804306030e-01 -5.396398305892944336e-01 4.107957705855369568e-02
4.273000000000000000e+03 2.672841644287109375e+01 -4.316437840461730957e-01 -2.647976398468017578e+00 -1.623022854328155518e-01 -8.430836200714111328e-01 5.082371830940246582e-01
4.274000000000000000e+03 2.390744972229003906e+01 6.296620965003967285e-01 -2.927455663681030273e+00 -2.236268669366836548e-01 -9.453247785568237305e-01 8.866198062896728516e-01
4.275000000000000000e+03 2.605401992797851562e+01 9.968080520629882812e-01 -1.353862285614013672e+00 9.019924402236938477e-01 -1.355609744787216187e-01 -4.194038808345794678e-01
4.276000000000000000e+03 2.683073234558105469e+01 7.410699725151062012e-01 -1.044501185417175293e+00 1.420298814773559570e+00 1.127392798662185669e-01 -1.075149178504943848e+00
4.277000000000000000e+03 2.021462440490722656e+01 2.524363279342651367e+00 -1.117950201034545898e+00 -3.554884493350982666e-01 -4.420315921306610107e-01 5.295251607894897461e-01
4.278000000000000000e+03 2.643831825256347656e+01 8.838185667991638184e-01 -1.240625143051147461e+00 1.241555809974670410e+00 2.792147570289671421e-04 -7.120233774185180664e-01
4.279000000000000000e+03 1.929308891296386719e+01 2.652900218963623047e+00 -1.065792918205261230e+00 -3.811812996864318848e-01 -4.340922534465789795e-01 3.801608085632324219e-01
4.280000000000000000e+03 1.962228202819824219e+01 2.425020694732666016e+00 -1.293235540390014648e+00 -3.420456051826477051e-01 -4.905843436717987061e-01 4.493084251880645752e-01
4.281000000000000000e+03 2.040283775329589844e+01 2.465624809265136719e+00 -1.210493206977844238e+00 -3.515055179595947266e-01 -4.685996174812316895e-01 5.713582038879394531e-01
4.282000000000000000e+03 2.059472274780273438e+01 2.390942096710205078e+00 -1.199162364006042480e+00 -3.335566222667694092e-01 -4.598157107830047607e-01 5.749700665473937988e-01
4.283000000000000000e+03 2.292614555358886719e+01 1.771227598190307617e+00 -1.475299715995788574e+00 -2.212717682123184204e-01 -5.089714527130126953e-01 7.138840556144714355e-01
4.284000000000000000e+03 2.353404235839843750e+01 1.648735880851745605e+00 -1.501878738403320312e+00 -1.076357290148735046e-01 -4.828543365001678467e-01 6.580859422683715820e-01
4.285000000000000000e+03 2.392059326171875000e+01 1.544580221176147461e+00 -1.490604877471923828e+00 -3.417418152093887329e-02 -4.574337303638458252e-01 5.813017487525939941e-01
4.286000000000000000e+03 2.508888626098632812e+01 1.248834848403930664e+00 -1.491197466850280762e+00 3.430196642875671387e-01 -3.444533348083496094e-01 2.254675030708312988e-01
4.287000000000000000e+03 2.483450698852539062e+01 1.037304162979125977e+00 -1.918297410011291504e+00 1.082011833786964417e-01 -5.430288910865783691e-01 4.634576439857482910e-01
4.288000000000000000e+03 2.759223175048828125e+01 4.155367016792297363e-01 -4.990693032741546631e-01 1.858058929443359375e+00 4.076968729496002197e-01 -1.914814829826354980e+00
4.289000000000000000e+03 2.728355407714843750e+01 -2.693655788898468018e-01 -1.419117927551269531e+00 3.373005688190460205e-01 -3.245452046394348145e-01 -3.400588929653167725e-01
4.290000000000000000e+03 2.781327247619628906e+01 5.653605461120605469e-01 -3.088590800762176514e-01 2.363790512084960938e+00 6.164794564247131348e-01 -2.435716390609741211e+00
4.291000000000000000e+03 2.878024101257324219e+01 2.934048771858215332e-01 5.311133265495300293e-01 4.213165283203125000e+00 1.423283457756042480e+00 -4.121615409851074219e+00
4.292000000000000000e+03 2.857469177246093750e+01 3.349430561065673828e-01 4.370168745517730713e-01 3.531785726547241211e+00 1.190640807151794434e+00 -3.719484329223632812e+00
4.293000000000000000e+03 2.918748092651367188e+01 -6.306006908416748047e-01 3.519694328308105469e+00 2.807301998138427734e+00 1.898098945617675781e+00 -4.016256809234619141e+00
4.294000000000000000e+03 3.031924819946289062e+01 -9.030656516551971436e-02 5.408324599266052246e-01 1.128753566741943359e+01 3.548510551452636719e+00 -5.578741550445556641e+00
4.295000000000000000e+03 2.252635574340820312e+01 1.919378042221069336e+00 -1.382884502410888672e+00 -2.414751946926116943e-01 -4.873079061508178711e-01 6.943401694297790527e-01
4.296000000000000000e+03 2.271317672729492188e+01 1.826531052589416504e+00 -1.468219757080078125e+00 -2.283346652984619141e-01 -5.089663267135620117e-01 7.273349165916442871e-01
4.297000000000000000e+03 2.334108543395996094e+01 1.699427485466003418e+00 -1.448790669441223145e+00 -1.469778269529342651e-01 -4.787305295467376709e-01 6.576256752014160156e-01
4.298000000000000000e+03 2.120137023925781250e+01 2.268687725067138672e+00 -1.263948798179626465e+00 -3.152442574501037598e-01 -4.737579226493835449e-01 6.542800068855285645e-01
4.299000000000000000e+03 2.230686187744140625e+01 1.274672865867614746e+00 -2.230172634124755859e+00 -2.775323987007141113e-01 -7.523115277290344238e-01 8.389391899108886719e-01
4.300000000000000000e+03 1.900740814208984375e+01 -1.005466468632221222e-02 -1.294429898262023926e-01 1.789905689656734467e-02 -3.346318006515502930e-02 -1.400053314864635468e-02
4.301000000000000000e+03 1.886353111267089844e+01 4.673722982406616211e-01 -2.127157896757125854e-01 3.143174946308135986e-02 -5.438521131873130798e-02 -2.786256745457649231e-02
4.302000000000000000e+03 1.919377326965332031e+01 -5.332201346755027771e-02 -1.148369312286376953e-01 3.677802905440330505e-02 -2.341767214238643646e-02 -3.006645478308200836e-02
4.303000000000000000e+03 1.942312812805175781e+01 9.380970597267150879e-01 -3.276162743568420410e-01 -1.227511465549468994e-02 -1.019674167037010193e-01 2.185626886785030365e-02
4.304000000000000000e+03 2.748378181457519531e+01 -1.392309069633483887e+00 4.242412149906158447e-01 -3.938041329383850098e-01 9.131123311817646027e-03 -2.896575033664703369e-01
4.305000000000000000e+03 2.318108558654785156e+01 -3.188584446907043457e-01 6.779118180274963379e-01 2.192081511020660400e-01 2.691359817981719971e-01 -1.217015683650970459e-01
4.306000000000000000e+03 2.223886299133300781e+01 -3.382740616798400879e-01 4.745822846889495850e-01 -1.232713237404823303e-01 1.053932830691337585e-01 -5.240634828805923462e-02
4.307000000000000000e+03 2.256583786010742188e+01 -4.262333810329437256e-01 2.538107335567474365e-01 1.800265312194824219e-01 1.301511824131011963e-01 -4.266399145126342773e-02
4.308000000000000000e+03 2.817680549621582031e+01 -1.972282290458679199e+00 2.211135774850845337e-01 -5.471314191818237305e-01 -9.780535101890563965e-02 -4.586727321147918701e-01
4.309000000000000000e+03 1.993853569030761719e+01 -2.488400042057037354e-01 -5.438786372542381287e-02 1.435596868395805359e-02 -1.200956851243972778e-02 9.303564205765724182e-03
4.310000000000000000e+03 2.228108024597167969e+01 7.052229642868041992e-01 -3.024017095565795898e+00 -2.520013451576232910e-01 -9.828054904937744141e-01 8.396362662315368652e-01
4.311000000000000000e+03 1.917505264282226562e+01 1.874556422233581543e+00 -1.767659187316894531e+00 -3.027227222919464111e-01 -6.211145520210266113e-01 3.617563247680664062e-01
4.312000000000000000e+03 1.901438331604003906e+01 2.105556488037109375e+00 -1.540685772895812988e+00 -3.331395685672760010e-01 -5.621476173400878906e-01 3.349538445472717285e-01
4.313000000000000000e+03 2.030029487609863281e+01 -3.442421257495880127e-01 3.371843695640563965e-02 5.132061894983053207e-03 1.165514998137950897e-02 3.057369962334632874e-02
4.314000000000000000e+03 2.929920768737792969e+01 -2.683121442794799805e+00 1.031628727912902832e+00 1.384598970413208008e+00 7.248682975769042969e-01 4.932701289653778076e-01
4.315000000000000000e+03 2.899414825439453125e+01 -2.379179477691650391e+00 9.185821413993835449e-01 -2.828303575515747070e-01 1.907255351543426514e-01 -3.762501180171966553e-01
4.316000000000000000e+03 2.867404174804687500e+01 -2.178863763809204102e+00 4.112890064716339111e-01 -7.269347906112670898e-01 -9.469374269247055054e-02 -4.170058667659759521e-01
4.317000000000000000e+03 2.882389259338378906e+01 -1.557619929313659668e+00 -9.431992769241333008e-01 -2.191539704799652100e-01 -3.487059772014617920e-01 -4.877707362174987793e-01
4.318000000000000000e+03 2.874067878723144531e+01 -2.529328346252441406e+00 6.277605295181274414e-01 -7.080134153366088867e-01 -2.407586015760898590e-02 -1.637653857469558716e-01
4.319000000000000000e+03 2.981649398803710938e+01 -6.357861757278442383e-01 4.795181274414062500e+00 6.967415809631347656e+00 3.528779029846191406e+00 -7.023204326629638672e+00
4.320000000000000000e+03 2.291506385803222656e+01 4.267098754644393921e-02 -8.736075758934020996e-01 -1.965908855199813843e-01 -3.210595548152923584e-01 -4.120234772562980652e-02
4.321000000000000000e+03 2.271948623657226562e+01 1.877051740884780884e-01 -3.919762372970581055e-01 1.734888106584548950e-01 -6.554622948169708252e-02 2.874684631824493408e-01
4.322000000000000000e+03 2.067760848999023438e+01 5.784305334091186523e-01 -3.226743340492248535e-01 9.036657959222793579e-02 -6.969232857227325439e-02 -2.915367297828197479e-02
4.323000000000000000e+03 2.161776542663574219e+01 5.763223767280578613e-01 -7.852826714515686035e-01 -7.082627713680267334e-02 -2.568326890468597412e-01 1.956181526184082031e-01
4.324000000000000000e+03 1.995075607299804688e+01 3.141614794731140137e-01 -1.694056689739227295e-01 3.867166489362716675e-02 -3.922019898891448975e-02 -4.882837459444999695e-02
4.325000000000000000e+03 2.202650642395019531e+01 4.951690137386322021e-01 -8.723714351654052734e-01 1.636039614677429199e-01 -2.126302421092987061e-01 2.862244248390197754e-01
4.326000000000000000e+03 2.897865295410156250e+01 -1.264143943786621094e+00 -1.515637397766113281e+00 -3.072177469730377197e-01 -5.468565225601196289e-01 1.030220314860343933e-01
4.327000000000000000e+03 2.049171447753906250e+01 4.392758607864379883e-01 -4.158705472946166992e-01 -4.487156495451927185e-02 -1.382226347923278809e-01 4.008818045258522034e-02
4.328000000000000000e+03 2.046039962768554688e+01 8.819689750671386719e-01 -5.337752699851989746e-01 1.529412996023893356e-02 -1.555443406105041504e-01 1.089523434638977051e-01
4.329000000000000000e+03 2.182118606567382812e+01 5.242401361465454102e-01 -8.808300495147705078e-01 -1.192140951752662659e-01 -3.000132441520690918e-01 1.185806617140769958e-01
4.330000000000000000e+03 2.142552185058593750e+01 6.509864330291748047e-01 -7.821882963180541992e-01 2.467374131083488464e-02 -2.272543758153915405e-01 1.917745471000671387e-01
4.331000000000000000e+03 2.252408599853515625e+01 8.536425232887268066e-01 -2.800671339035034180e+00 -2.605907618999481201e-01 -9.183785915374755859e-01 8.530864119529724121e-01
4.332000000000000000e+03 2.383278846740722656e+01 3.368275165557861328e-01 -3.516036033630371094e+00 -2.895307838916778564e-01 -1.141669988632202148e+00 9.723652601242065430e-01
4.333000000000000000e+03 2.006138038635253906e+01 1.819502949714660645e+00 -1.794695854187011719e+00 -2.383534014225006104e-01 -6.099147796630859375e-01 5.744240283966064453e-01
4.334000000000000000e+03 2.421952819824218750e+01 2.274746000766754150e-01 -3.608440399169921875e+00 -2.801473736763000488e-01 -1.166576266288757324e+00 9.857103824615478516e-01
4.335000000000000000e+03 2.849368858337402344e+01 -9.111929535865783691e-01 1.226598262786865234e+00 3.964461088180541992e-01 4.869133234024047852e-01 -7.694435119628906250e-01
4.336000000000000000e+03 2.577490806579589844e+01 -1.762203574180603027e-01 -3.391307115554809570e+00 -1.836749762296676636e-01 -1.072494626045227051e+00 8.298925161361694336e-01
4.337000000000000000e+03 2.588317489624023438e+01 4.703388810157775879e-01 -2.104138851165771484e+00 3.334883749485015869e-01 -5.311951637268066406e-01 1.016632020473480225e-01
4.338000000000000000e+03 2.710479354858398438e+01 -3.005428314208984375e-01 -1.767988443374633789e+00 4.414742290973663330e-01 -3.979542851448059082e-01 -1.581294238567352295e-01
4.339000000000000000e+03 2.448472595214843750e+01 4.162643849849700928e-01 -3.099906444549560547e+00 -2.251479923725128174e-01 -9.975163340568542480e-01 8.583248257637023926e-01
4.340000000000000000e+03 2.559834861755371094e+01 8.356833457946777344e-01 -1.816886425018310547e+00 3.740391731262207031e-01 -4.328541755676269531e-01 1.049456819891929626e-01
4.341000000000000000e+03 2.370827674865722656e+01 6.839143037796020508e-01 -2.889641284942626953e+00 -2.677059471607208252e-01 -9.472041726112365723e-01 8.751158118247985840e-01
4.342000000000000000e+03 2.699658203125000000e+01 -1.485936194658279419e-01 -1.639386296272277832e+00 4.610864222049713135e-01 -3.534899652004241943e-01 -3.112590610980987549e-01
4.343000000000000000e+03 2.582393646240234375e+01 9.135790914297103882e-02 -2.816721916198730469e+00 -6.707142293453216553e-02 -8.651380538940429688e-01 5.327147245407104492e-01
4.344000000000000000e+03 2.867782211303710938e+01 -9.640516042709350586e-01 2.077130556106567383e+00 4.002755880355834961e-01 7.432218194007873535e-01 -1.074768662452697754e+00
4.345000000000000000e+03 2.838137054443359375e+01 -3.860800564289093018e-01 9.526646137237548828e-01 1.410735249519348145e+00 7.090199589729309082e-01 -2.241001129150390625e+00
4.346000000000000000e+03 1.981725502014160156e+01 1.630883336067199707e+00 -2.007643699645996094e+00 -1.912325620651245117e-01 -6.596629023551940918e-01 5.660490393638610840e-01
4.347000000000000000e+03 2.262730789184570312e+01 1.014406919479370117e+00 -2.531805753707885742e+00 -2.780213952064514160e-01 -8.429481387138366699e-01 8.714631199836730957e-01
4.348000000000000000e+03 2.747092056274414062e+01 3.202396258711814880e-02 -7.737447023391723633e-01 9.945203661918640137e-01 6.623270362615585327e-02 -1.189860701560974121e+00
4.349000000000000000e+03 2.199901580810546875e+01 2.054549455642700195e+00 -1.340044379234313965e+00 -2.752966880798339844e-01 -4.846023023128509521e-01 7.161836028099060059e-01
4.350000000000000000e+03 2.832999801635742188e+01 3.179038316011428833e-02 4.397116303443908691e-01 2.348177194595336914e+00 8.363666534423828125e-01 -2.823531150817871094e+00
4.351000000000000000e+03 2.743451881408691406e+01 4.043476283550262451e-01 -6.778344511985778809e-01 1.714694142341613770e+00 3.110579252243041992e-01 -1.644292950630187988e+00
4.352000000000000000e+03 2.799768638610839844e+01 -5.124820470809936523e-01 -9.427674859762191772e-02 7.258254289627075195e-01 1.894645988941192627e-01 -9.725247621536254883e-01
4.353000000000000000e+03 2.705159187316894531e+01 7.330736517906188965e-02 -1.389914393424987793e+00 6.379246115684509277e-01 -2.255969494581222534e-01 -6.173294782638549805e-01
4.354000000000000000e+03 2.653580474853515625e+01 5.202515721321105957e-01 -1.506071567535400391e+00 9.098238348960876465e-01 -1.788743138313293457e-01 -5.221402049064636230e-01
4.355000000000000000e+03 2.418094253540039062e+01 8.659446239471435547e-01 -2.434612274169921875e+00 -1.404879391193389893e-01 -7.725300788879394531e-01 7.552138566970825195e-01
4.356000000000000000e+03 2.634885978698730469e+01 6.041191220283508301e-01 -1.545915246009826660e+00 6.696742773056030273e-01 -2.628722786903381348e-01 -3.860058784484863281e-01
4.357000000000000000e+03 2.338413429260253906e+01 1.095317721366882324e+00 -2.312310457229614258e+00 -2.163461595773696899e-01 -7.585969567298889160e-01 8.219497203826904297e-01
4.358000000000000000e+03 2.463820648193359375e+01 1.074642181396484375e+00 -1.911925196647644043e+00 5.122035369277000427e-02 -5.582114458084106445e-01 4.867858588695526123e-01
4.359000000000000000e+03 2.952617454528808594e+01 -9.693453907966613770e-01 6.165409564971923828e+00 2.394719123840332031e+00 2.568038702011108398e+00 -4.223455429077148438e+00
4.360000000000000000e+03 2.571925735473632812e+01 5.574032664299011230e-01 -2.060721158981323242e+00 2.428767681121826172e-01 -5.453532934188842773e-01 1.880233585834503174e-01
4.361000000000000000e+03 1.910108184814453125e+01 1.067635536193847656e+00 -2.765635848045349121e-01 3.323933854699134827e-02 -7.299727201461791992e-02 6.911389529705047607e-03
4.362000000000000000e+03 2.944750022888183594e+01 -2.050704002380371094e+00 1.106344819068908691e+00 5.789200663566589355e-01 5.055794715881347656e-01 -2.345862984657287598e-01
4.363000000000000000e+03 2.914025688171386719e+01 -1.914334177970886230e+00 9.480030089616775513e-02 1.119204089045524597e-01 6.201621145009994507e-02 -7.012662291526794434e-01
4.364000000000000000e+03 2.966228866577148438e+01 -7.974896430969238281e-01 5.640486240386962891e+00 4.512984275817871094e+00 3.046041250228881836e+00 -5.871056079864501953e+00
4.365000000000000000e+03 2.280551338195800781e+01 3.316293060779571533e-01 -9.945349097251892090e-01 1.808485686779022217e-01 -2.441058903932571411e-01 4.006771743297576904e-01
4.366000000000000000e+03 2.803921890258789062e+01 -1.085290193557739258e+00 -7.690277695655822754e-01 7.220037579536437988e-01 -1.410720869898796082e-02 2.714834809303283691e-01
4.367000000000000000e+03 2.462396812438964844e+01 5.540905594825744629e-01 -2.801626682281494141e+00 -1.569365859031677246e-01 -8.875689506530761719e-01 7.561909556388854980e-01
4.368000000000000000e+03 2.579024314880371094e+01 7.911871075630187988e-01 -1.750509858131408691e+00 5.130925774574279785e-01 -3.712252080440521240e-01 -3.972333297133445740e-02
4.369000000000000000e+03 2.538162803649902344e+01 -7.918450981378555298e-02 -3.590307712554931641e+00 -1.963504999876022339e-01 -1.135997533798217773e+00 9.052795767784118652e-01
4.370000000000000000e+03 1.966777801513671875e+01 1.900923013687133789e+00 -1.729687809944152832e+00 -2.615048885345458984e-01 -5.973578095436096191e-01 4.864515662193298340e-01
4.371000000000000000e+03 2.042572212219238281e+01 6.078073009848594666e-02 -1.389787793159484863e-01 -4.713450372219085693e-02 -5.583398416638374329e-02 -1.650641299784183502e-02
4.372000000000000000e+03 2.919569396972656250e+01 -2.390141963958740234e+00 1.342480540275573730e+00 4.467918276786804199e-01 5.367817282676696777e-01 7.442605495452880859e-02
4.373000000000000000e+03 2.112314987182617188e+01 1.043298006057739258e+00 -2.532525539398193359e+00 -2.227713763713836670e-01 -8.265891075134277344e-01 7.189674973487854004e-01
4.374000000000000000e+03 2.084340858459472656e+01 2.252918481826782227e-01 -2.577439546585083008e-01 -4.936589673161506653e-02 -9.213295578956604004e-02 5.698712915182113647e-02
4.375000000000000000e+03 2.013606452941894531e+01 4.840729832649230957e-01 -3.818475008010864258e-01 2.377129567321389914e-04 -1.144829317927360535e-01 1.696667633950710297e-02
4.376000000000000000e+03 2.130213165283203125e+01 2.395108044147491455e-01 -4.861150383949279785e-01 -2.680486999452114105e-02 -1.538759768009185791e-01 7.008963823318481445e-02
4.377000000000000000e+03 2.114179229736328125e+01 4.832419455051422119e-01 -4.878329336643218994e-01 -2.540412126109004021e-03 -1.471120119094848633e-01 1.513870060443878174e-01
4.378000000000000000e+03 2.862024307250976562e+01 -1.491563916206359863e+00 -4.235495924949645996e-01 2.107917219400405884e-01 -6.382735818624496460e-02 -2.537968754768371582e-01
4.379000000000000000e+03 2.123604965209960938e+01 7.078025937080383301e-01 -7.330664396286010742e-01 -4.267012327909469604e-02 -2.327209711074829102e-01 1.112716123461723328e-01
4.380000000000000000e+03 2.397987174987792969e+01 9.195893406867980957e-01 -2.407220363616943359e+00 -1.898611485958099365e-01 -7.791244387626647949e-01 7.539129257202148438e-01
4.381000000000000000e+03 2.309217071533203125e+01 8.206809759140014648e-01 -2.787059783935546875e+00 -2.501652538776397705e-01 -9.111675024032592773e-01 8.849843740463256836e-01
4.382000000000000000e+03 2.502683067321777344e+01 9.837656617164611816e-01 -1.860596895217895508e+00 1.729418188333511353e-01 -5.062965154647827148e-01 3.565626740455627441e-01
4.383000000000000000e+03 2.308341407775878906e+01 1.060511112213134766e+00 -2.437201261520385742e+00 -2.861523926258087158e-01 -8.170061111450195312e-01 8.768041133880615234e-01
4.384000000000000000e+03 2.798701477050781250e+01 -2.147388458251953125e-01 2.106153964996337891e-02 1.258230566978454590e+00 3.837876319885253906e-01 -1.651869058609008789e+00
4.385000000000000000e+03 2.853263092041015625e+01 7.023455202579498291e-02 7.013607621192932129e-01 2.968593597412109375e+00 1.100986242294311523e+00 -3.322957992553710938e+00
4.386000000000000000e+03 2.054116058349609375e+01 1.189872264862060547e+00 -2.350925445556640625e+00 -1.774628162384033203e-01 -7.585164904594421387e-01 6.669163703918457031e-01
4.387000000000000000e+03 1.985142898559570312e+01 2.340776443481445312e+00 -1.295812845230102539e+00 -3.279093801975250244e-01 -4.871166944503784180e-01 4.759066402912139893e-01
4.388000000000000000e+03 2.041441917419433594e+01 1.510511755943298340e+00 -2.056602001190185547e+00 -2.135899066925048828e-01 -6.810575723648071289e-01 6.529478430747985840e-01
4.389000000000000000e+03 2.902120971679687500e+01 -8.075065612792968750e-01 3.306560277938842773e+00 1.492003798484802246e+00 1.439569234848022461e+00 -2.751652240753173828e+00
4.390000000000000000e+03 2.937119483947753906e+01 1.512523293495178223e-01 1.163312077522277832e+00 5.974739074707031250e+00 2.141415357589721680e+00 -5.538355827331542969e+00
4.391000000000000000e+03 2.892676925659179688e+01 8.834153413772583008e-04 1.232550263404846191e+00 3.975694656372070312e+00 1.562473416328430176e+00 -4.269339561462402344e+00
4.392000000000000000e+03 2.288274383544921875e+01 1.472882509231567383e+00 -1.873622179031372070e+00 -2.113669812679290771e-01 -6.254967451095581055e-01 7.571254372596740723e-01
4.393000000000000000e+03 2.185931968688964844e+01 1.675545096397399902e+00 -1.780985355377197266e+00 -2.795959711074829102e-01 -6.181743741035461426e-01 7.574875950813293457e-01
4.394000000000000000e+03 2.358220481872558594e+01 1.031147718429565430e+00 -2.351490974426269531e+00 -2.298143804073333740e-01 -7.743915915489196777e-01 7.914375066757202148e-01
4.395000000000000000e+03 2.625283050537109375e+01 3.500697910785675049e-01 -1.955795884132385254e+00 4.683102071285247803e-01 -4.462457001209259033e-01 -8.158140629529953003e-02
4.396000000000000000e+03 2.430779266357421875e+01 5.113112330436706543e-01 -3.006636619567871094e+00 -1.942875236272811890e-01 -9.602771997451782227e-01 8.650317192077636719e-01
4.397000000000000000e+03 2.778962135314941406e+01 1.053963303565979004e-01 -3.311429619789123535e-01 1.514255762100219727e+00 3.549338579177856445e-01 -1.773665785789489746e+00
4.398000000000000000e+03 2.554603195190429688e+01 5.762355923652648926e-01 -2.171472311019897461e+00 1.916723400354385376e-01 -5.939400196075439453e-01 2.944839298725128174e-01
4.399000000000000000e+03 2.067815589904785156e+01 1.756144642829895020e+00 -1.808905482292175293e+00 -2.552436292171478271e-01 -6.192446947097778320e-01 6.663757562637329102e-01
4.400000000000000000e+03 2.047284126281738281e+01 1.788057327270507812e+00 -1.792581200599670410e+00 -2.672568261623382568e-01 -6.179514527320861816e-01 6.429352164268493652e-01
4.401000000000000000e+03 2.028859138488769531e+01 2.073487758636474609e+00 -1.543343424797058105e+00 -2.992389500141143799e-01 -5.527747273445129395e-01 5.883343219757080078e-01
4.402000000000000000e+03 1.986442375183105469e+01 1.851773142814636230e+00 -1.808290123939514160e+00 -2.352257072925567627e-01 -6.130547523498535156e-01 5.314406752586364746e-01
4.403000000000000000e+03 2.964774322509765625e+01 -4.507934153079986572e-01 3.519741296768188477e+00 6.400650978088378906e+00 2.976117610931396484e+00 -6.334694385528564453e+00
4.404000000000000000e+03 2.198997688293457031e+01 1.032771468162536621e+00 -2.563627481460571289e+00 -2.347498238086700439e-01 -8.395131826400756836e-01 8.277050852775573730e-01
4.405000000000000000e+03 2.672434806823730469e+01 -5.402698647230863571e-03 -1.907393336296081543e+00 3.901332616806030273e-01 -4.551780223846435547e-01 -1.669150739908218384e-01
4.406000000000000000e+03 2.560251617431640625e+01 3.877439498901367188e-01 -2.477288007736206055e+00 1.037292405962944031e-01 -7.120676040649414062e-01 3.670018911361694336e-01
4.407000000000000000e+03 2.596928215026855469e+01 -2.329578399658203125e-01 -3.298376083374023438e+00 -2.379861176013946533e-01 -1.060908675193786621e+00 8.036803603172302246e-01
4.408000000000000000e+03 2.606573104858398438e+01 4.025908708572387695e-01 -2.076891422271728516e+00 2.851895987987518311e-01 -5.375105738639831543e-01 5.576979368925094604e-02
4.409000000000000000e+03 2.534507751464843750e+01 5.823574662208557129e-01 -2.335249185562133789e+00 7.925623655319213867e-02 -6.767978668212890625e-01 4.382747411727905273e-01
4.410000000000000000e+03 2.088540840148925781e+01 1.716541051864624023e+00 -1.814535856246948242e+00 -2.815296053886413574e-01 -6.288196444511413574e-01 6.966076493263244629e-01
4.411000000000000000e+03 2.469899940490722656e+01 1.348251223564147949e+00 -1.503647685050964355e+00 1.978295594453811646e-01 -3.917454183101654053e-01 4.017301201820373535e-01
4.412000000000000000e+03 2.928760719299316406e+01 -3.012114465236663818e-01 2.669439792633056641e+00 4.345282554626464844e+00 2.104416847229003906e+00 -5.039357662200927734e+00
4.413000000000000000e+03 2.099518775939941406e+01 1.370070934295654297e+00 -2.179153919219970703e+00 -2.520494163036346436e-01 -7.293609976768493652e-01 7.129516601562500000e-01
4.414000000000000000e+03 2.513472557067871094e+01 6.374125480651855469e-01 -2.359196186065673828e+00 3.921394795179367065e-02 -6.959946751594543457e-01 4.850647151470184326e-01
4.415000000000000000e+03 1.907518768310546875e+01 6.558204293251037598e-01 -2.442042827606201172e-01 3.991084545850753784e-02 -6.128803268074989319e-02 -2.586873993277549744e-02
4.416000000000000000e+03 1.942218971252441406e+01 3.804745376110076904e-01 -1.747249960899353027e-01 -4.060037434101104736e-03 -5.363551154732704163e-02 -1.719744876027107239e-02
4.417000000000000000e+03 2.082904815673828125e+01 4.650513231754302979e-01 -3.492338955402374268e-01 5.114249512553215027e-02 -8.942741900682449341e-02 -1.391097009181976318e-01
4.418000000000000000e+03 2.108581733703613281e+01 2.281708717346191406e-01 -2.392760068178176880e-01 9.685505181550979614e-02 -4.272628575563430786e-02 -1.511754989624023438e-01
4.419000000000000000e+03 2.853935241699218750e+01 -1.736386060714721680e+00 -4.203216433525085449e-01 -5.749517083168029785e-01 -2.985819876194000244e-01 -3.680790066719055176e-01
4.420000000000000000e+03 2.011172103881835938e+01 1.278851330280303955e-01 -1.747847348451614380e-01 -2.562453225255012512e-02 -6.012278050184249878e-02 -4.643162246793508530e-03
4.421000000000000000e+03 2.791386604309082031e+01 2.699892520904541016e-01 -1.072971299290657043e-01 2.075552701950073242e+00 5.904766321182250977e-01 -2.378139734268188477e+00
4.422000000000000000e+03 2.350816535949707031e+01 7.390400767326354980e-01 -2.843351602554321289e+00 -2.387592643499374390e-01 -9.246332645416259766e-01 8.985793590545654297e-01
4.423000000000000000e+03 2.080548667907714844e+01 1.423626303672790527e+00 -2.142938613891601562e+00 -2.188374251127243042e-01 -7.085328102111816406e-01 7.037999629974365234e-01
4.424000000000000000e+03 2.860451889038085938e+01 -5.452255606651306152e-01 1.655566930770874023e+00 1.407325625419616699e+00 9.188677668571472168e-01 -2.335553407669067383e+00
4.425000000000000000e+03 2.290663719177246094e+01 1.056194663047790527e+00 -2.480854034423828125e+00 -2.643507122993469238e-01 -8.235614299774169922e-01 8.620275855064392090e-01
4.426000000000000000e+03 2.642627143859863281e+01 2.534554898738861084e-01 -1.843688964843750000e+00 3.887415528297424316e-01 -4.364842176437377930e-01 -1.413300186395645142e-01
4.427000000000000000e+03 2.883083724975585938e+01 -4.753529131412506104e-01 2.048468589782714844e+00 2.261165857315063477e+00 1.292890310287475586e+00 -3.170609235763549805e+00
4.428000000000000000e+03 2.527210617065429688e+01 2.769705653190612793e-01 -2.880931138992309570e+00 -8.493013679981231689e-02 -8.897583484649658203e-01 6.522139906883239746e-01
4.429000000000000000e+03 2.852777290344238281e+01 -1.567686945199966431e-01 8.948505520820617676e-01 2.306670904159545898e+00 9.604564309120178223e-01 -2.959578514099121094e+00
4.430000000000000000e+03 2.172208404541015625e+01 1.485800981521606445e+00 -2.019752264022827148e+00 -2.855391204357147217e-01 -6.915873885154724121e-01 7.867033481597900391e-01
4.431000000000000000e+03 2.140573883056640625e+01 1.550396084785461426e+00 -1.943426728248596191e+00 -2.616399228572845459e-01 -6.615200042724609375e-01 7.552737593650817871e-01
4.432000000000000000e+03 2.167499160766601562e+01 1.178311467170715332e+00 -2.405179262161254883e+00 -2.482706755399703979e-01 -7.960349917411804199e-01 7.987372279167175293e-01
4.433000000000000000e+03 2.597630310058593750e+01 7.323052287101745605e-01 -1.650197863578796387e+00 5.147399902343750000e-01 -3.406373560428619385e-01 -1.254427731037139893e-01
4.434000000000000000e+03 1.959759521484375000e+01 4.058306217193603516e-01 -2.068072259426116943e-01 5.613805353641510010e-02 -4.520075395703315735e-02 -3.468185290694236755e-02
4.435000000000000000e+03 2.811876296997070312e+01 -1.662441611289978027e+00 -7.325355708599090576e-02 -4.208359420299530029e-01 -1.482268571853637695e-01 1.753743439912796021e-01
4.436000000000000000e+03 2.157486724853515625e+01 1.345593452453613281e+00 -2.197987079620361328e+00 -2.547249197959899902e-01 -7.358135581016540527e-01 7.724802494049072266e-01
4.437000000000000000e+03 2.198427391052246094e+01 1.502727746963500977e+00 -1.972187876701354980e+00 -2.822448313236236572e-01 -6.763297915458679199e-01 7.947707176208496094e-01
4.438000000000000000e+03 2.873176193237304688e+01 4.327570647001266479e-02 1.121845483779907227e+00 3.283782958984375000e+00 1.321688532829284668e+00 -3.896174430847167969e+00
4.439000000000000000e+03 2.247956085205078125e+01 1.151946425437927246e+00 -2.360254526138305664e+00 -2.606252431869506836e-01 -7.862639427185058594e-01 8.372521996498107910e-01
4.440000000000000000e+03 1.981861114501953125e+01 7.868703454732894897e-02 -1.647251844406127930e-01 1.517200563102960587e-02 -4.486595094203948975e-02 -2.769417827948927879e-03
4.441000000000000000e+03 2.804395484924316406e+01 -1.377701163291931152e+00 -4.267149865627288818e-01 -4.477031230926513672e-01 -2.623254358768463135e-01 1.828280091285705566e-01
4.442000000000000000e+03 2.726782417297363281e+01 4.985125735402107239e-02 -1.023091316223144531e+00 9.368965029716491699e-01 -2.585845068097114563e-02 -9.372464418411254883e-01
4.443000000000000000e+03 2.180425834655761719e+01 2.665197849273681641e-01 -3.384956717491149902e-01 3.016369342803955078e-01 -1.105762179940938950e-02 2.138622552156448364e-01
4.444000000000000000e+03 1.946167564392089844e+01 2.638983964920043945e+00 -1.108320832252502441e+00 -3.656379878520965576e-01 -4.421876370906829834e-01 4.368541538715362549e-01
4.445000000000000000e+03 1.947648620605468750e+01 2.779199600219726562e+00 -9.381476640701293945e-01 -3.660592734813690186e-01 -3.912620842456817627e-01 3.707078099250793457e-01
4.446000000000000000e+03 1.904114532470703125e+01 2.287976503372192383e+00 -1.419202804565429688e+00 -3.474918603897094727e-01 -5.300084352493286133e-01 3.973969817161560059e-01
4.447000000000000000e+03 1.923183441162109375e+01 2.207842826843261719e+00 -1.434589505195617676e+00 -3.312664926052093506e-01 -5.297567844390869141e-01 3.844881951808929443e-01
4.448000000000000000e+03 1.981845664978027344e+01 2.665282964706420898e+00 -1.028266072273254395e+00 -3.624428808689117432e-01 -4.172126948833465576e-01 4.417306780815124512e-01
4.449000000000000000e+03 2.002216529846191406e+01 2.210707426071166992e+00 -1.470449686050415039e+00 -3.129450380802154541e-01 -5.350184440612792969e-01 5.451376438140869141e-01
4.450000000000000000e+03 1.889971923828125000e+01 8.939599394798278809e-01 -2.561388313770294189e-01 4.463820159435272217e-02 -6.345018744468688965e-02 -6.495871581137180328e-03
4.451000000000000000e+03 1.884277343750000000e+01 2.509988546371459961e-01 -1.605062484741210938e-01 3.131140395998954773e-02 -3.875845298171043396e-02 -1.895333826541900635e-02
4.452000000000000000e+03 1.927386665344238281e+01 1.029494643211364746e+00 -3.135777413845062256e-01 1.173933874815702438e-02 -9.055151790380477905e-02 4.007537290453910828e-02
4.453000000000000000e+03 1.903384399414062500e+01 2.137535512447357178e-01 -1.663124263286590576e-01 3.445556759834289551e-02 -3.955705836415290833e-02 -3.704189509153366089e-02
4.454000000000000000e+03 1.950598526000976562e+01 1.149458289146423340e+00 -3.391663432121276855e-01 -2.186024561524391174e-02 -1.083079800009727478e-01 6.049191951751708984e-02
4.455000000000000000e+03 1.927354240417480469e+01 8.484784960746765137e-01 -2.570831179618835449e-01 3.428855910897254944e-02 -6.683836877346038818e-02 -2.349676378071308136e-02
4.456000000000000000e+03 2.027903938293457031e+01 9.708735346794128418e-01 -4.859456717967987061e-01 -6.894281506538391113e-02 -1.664665490388870239e-01 8.162667602300643921e-02
4.457000000000000000e+03 2.086470603942871094e+01 8.107915520668029785e-01 -6.032399535179138184e-01 6.178430747240781784e-03 -1.791184544563293457e-01 1.432965546846389771e-01
4.458000000000000000e+03 2.105261802673339844e+01 7.643527388572692871e-01 -6.396437287330627441e-01 -6.491535902023315430e-02 -2.113677263259887695e-01 1.438963860273361206e-01
4.459000000000000000e+03 1.938144111633300781e+01 -9.474340081214904785e-02 -1.101952046155929565e-01 1.781402155756950378e-02 -2.771435491740703583e-02 -2.587010897696018219e-02
4.460000000000000000e+03 2.222348022460937500e+01 4.449766874313354492e-01 -8.439748287200927734e-01 -2.789441049098968506e-01 -3.368756771087646484e-01 2.183325737714767456e-01
4.461000000000000000e+03 1.920183944702148438e+01 2.042334556579589844e+00 -1.721965074539184570e+00 -2.876100242137908936e-01 -6.028725504875183105e-01 3.841209113597869873e-01
4.462000000000000000e+03 1.897630310058593750e+01 1.742176055908203125e+00 -1.991554975509643555e+00 -2.600781023502349854e-01 -6.754899024963378906e-01 2.971492409706115723e-01
4.463000000000000000e+03 1.915519332885742188e+01 1.512752413749694824e+00 -2.305348873138427734e+00 -1.276833862066268921e-01 -7.299096584320068359e-01 5.287061333656311035e-01
4.464000000000000000e+03 1.935156822204589844e+01 1.491734743118286133e+00 -2.203778266906738281e+00 -1.760528981685638428e-01 -7.139493227005004883e-01 5.445913076400756836e-01
4.465000000000000000e+03 1.947945213317871094e+01 1.852710366249084473e+00 -1.847876548767089844e+00 -2.188272923231124878e-01 -6.200111508369445801e-01 4.555792808532714844e-01
4.466000000000000000e+03 1.962211608886718750e+01 1.693120002746582031e+00 -2.042344570159912109e+00 -1.970451474189758301e-01 -6.718169450759887695e-01 5.043827891349792480e-01
4.467000000000000000e+03 1.961561393737792969e+01 1.388325840234756470e-01 -1.522319316864013672e-01 5.061680916696786880e-03 -4.415107518434524536e-02 -3.230648115277290344e-02
4.468000000000000000e+03 1.999468421936035156e+01 -3.018947131931781769e-02 -9.048556536436080933e-02 3.111997805535793304e-02 -1.780967600643634796e-02 -4.829535260796546936e-02
4.469000000000000000e+03 2.011999511718750000e+01 -3.003636598587036133e-01 -1.654420397244393826e-03 2.692020684480667114e-02 7.579735945910215378e-03 -1.282988674938678741e-02
4.470000000000000000e+03 2.032784271240234375e+01 -1.137054860591888428e-01 -3.672155365347862244e-02 3.246836736798286438e-02 -1.275955815799534321e-03 -4.318327456712722778e-02
4.471000000000000000e+03 2.066936683654785156e+01 -1.163989752531051636e-01 9.280603379011154175e-03 1.736425235867500305e-02 7.993456907570362091e-03 -3.736806660890579224e-02
4.472000000000000000e+03 2.085670280456542969e+01 -4.266064167022705078e-01 3.138089776039123535e-01 1.055603027343750000e-01 1.258107721805572510e-01 7.861783355474472046e-02
4.473000000000000000e+03 2.110385131835937500e+01 -3.796333074569702148e-01 2.734420001506805420e-01 8.876889944076538086e-02 1.086632683873176575e-01 5.617091804742813110e-02
4.474000000000000000e+03 2.141841888427734375e+01 -2.727465331554412842e-01 2.479647994041442871e-01 -7.217266410589218140e-02 5.273763835430145264e-02 1.442638188600540161e-01
4.475000000000000000e+03 2.170072555541992188e+01 -1.055427566170692444e-01 4.865856468677520752e-01 3.572712838649749756e-01 2.531570792198181152e-01 2.257012389600276947e-02
4.476000000000000000e+03 2.134818649291992188e+01 5.114978179335594177e-03 1.236102208495140076e-01 1.154107004404067993e-01 7.170627266168594360e-02 -1.072425842285156250e-01
4.477000000000000000e+03 2.073704147338867188e+01 2.049826860427856445e+00 -1.508628487586975098e+00 -3.055408596992492676e-01 -5.442507863044738770e-01 6.428356766700744629e-01
4.478000000000000000e+03 2.100521850585937500e+01 2.305421590805053711e+00 -1.214658021926879883e+00 -3.389660120010375977e-01 -4.660871922969818115e-01 6.378570199012756348e-01
4.479000000000000000e+03 2.132504081726074219e+01 2.001322507858276367e+00 -1.486070990562438965e+00 -2.988134920597076416e-01 -5.354653596878051758e-01 7.106384038925170898e-01
4.480000000000000000e+03 2.139508438110351562e+01 2.223289966583251953e+00 -1.262201905250549316e+00 -3.217783868312835693e-01 -4.751940965652465820e-01 6.595733165740966797e-01
4.481000000000000000e+03 2.219441986083984375e+01 2.049742937088012695e+00 -1.302141070365905762e+00 -2.694323658943176270e-01 -4.714720249176025391e-01 6.996955871582031250e-01
4.482000000000000000e+03 2.251343917846679688e+01 1.538390278816223145e+00 -1.835138916969299316e+00 -2.618694901466369629e-01 -6.291025280952453613e-01 7.739583849906921387e-01
4.483000000000000000e+03 2.291260528564453125e+01 1.246371388435363770e+00 -2.158285856246948242e+00 -2.714188992977142334e-01 -7.289114594459533691e-01 8.363122344017028809e-01
4.484000000000000000e+03 2.309448051452636719e+01 1.474645256996154785e+00 -1.794933438301086426e+00 -2.266792058944702148e-01 -6.064837574958801270e-01 7.514239549636840820e-01
4.485000000000000000e+03 2.328407096862792969e+01 1.433036088943481445e+00 -1.842209458351135254e+00 -1.984876394271850586e-01 -6.122091412544250488e-01 7.563175559043884277e-01
4.486000000000000000e+03 2.372674179077148438e+01 1.596503376960754395e+00 -1.479301691055297852e+00 -8.092141151428222656e-02 -4.680669307708740234e-01 5.899243950843811035e-01
4.487000000000000000e+03 2.431027984619140625e+01 1.443847417831420898e+00 -1.505452513694763184e+00 7.385468482971191406e-02 -4.294793605804443359e-01 5.046204328536987305e-01
4.488000000000000000e+03 2.404856109619140625e+01 1.207884430885314941e+00 -1.941951274871826172e+00 -8.227268606424331665e-02 -6.072672009468078613e-01 6.668602824211120605e-01
4.489000000000000000e+03 2.444255447387695312e+01 1.112349987030029297e+00 -1.910364985466003418e+00 5.494507495313882828e-03 -5.714611411094665527e-01 5.702732801437377930e-01
4.490000000000000000e+03 2.459496879577636719e+01 7.925720214843750000e-01 -2.366790771484375000e+00 -6.538943201303482056e-02 -7.296540737152099609e-01 6.629177331924438477e-01
4.491000000000000000e+03 2.061141014099121094e+01 1.469633698463439941e+00 -2.085341215133666992e+00 -2.382655590772628784e-01 -6.970820426940917969e-01 6.822036504745483398e-01
4.492000000000000000e+03 2.138324165344238281e+01 1.296120405197143555e+00 -2.255269289016723633e+00 -2.808502614498138428e-01 -7.608358860015869141e-01 7.710459232330322266e-01
4.493000000000000000e+03 2.118548774719238281e+01 1.319419026374816895e+00 -2.230890274047851562e+00 -2.344527989625930786e-01 -7.396029233932495117e-01 7.540158033370971680e-01
4.494000000000000000e+03 2.190606307983398438e+01 8.078272342681884766e-01 -2.870192766189575195e+00 -2.420489341020584106e-01 -9.336725473403930664e-01 8.117619752883911133e-01
4.495000000000000000e+03 2.218025207519531250e+01 1.004784464836120605e+00 -2.600026845932006836e+00 -2.707730233669281006e-01 -8.612399697303771973e-01 8.317618966102600098e-01
4.496000000000000000e+03 2.246807861328125000e+01 6.499348282814025879e-01 -3.094505786895751953e+00 -2.317063510417938232e-01 -9.978636503219604492e-01 8.733183741569519043e-01
4.497000000000000000e+03 2.265745925903320312e+01 6.058770418167114258e-01 -3.170942544937133789e+00 -2.526937127113342285e-01 -1.027090907096862793e+00 8.817068934440612793e-01
4.498000000000000000e+03 2.268877983093261719e+01 8.305505514144897461e-01 -2.818342208862304688e+00 -2.474603205919265747e-01 -9.197407364845275879e-01 8.773026466369628906e-01
4.499000000000000000e+03 2.521538543701171875e+01 9.231656193733215332e-01 -1.850815653800964355e+00 2.268229722976684570e-01 -4.871978163719177246e-01 3.152775466442108154e-01
4.500000000000000000e+03 2.540556907653808594e+01 8.738530874252319336e-01 -1.809159040451049805e+00 3.396534323692321777e-01 -4.408516883850097656e-01 1.692370176315307617e-01
4.501000000000000000e+03 2.586105537414550781e+01 1.049330949783325195e+00 -1.383608698844909668e+00 7.188476324081420898e-01 -1.994283199310302734e-01 -2.200071215629577637e-01
4.502000000000000000e+03 2.616095924377441406e+01 6.712065339088439941e-01 -1.587055683135986328e+00 7.079474925994873047e-01 -2.637324333190917969e-01 -3.054705560207366943e-01
4.503000000000000000e+03 2.672226905822753906e+01 4.121212661266326904e-01 -1.401734232902526855e+00 7.914539575576782227e-01 -1.830841004848480225e-01 -6.309748888015747070e-01
4.504000000000000000e+03 2.705204582214355469e+01 3.622903823852539062e-01 -1.050808548927307129e+00 1.204058170318603516e+00 4.597488045692443848e-02 -1.092318773269653320e+00
4.505000000000000000e+03 2.743667030334472656e+01 6.508296132087707520e-01 -7.126190066337585449e-01 1.989074587821960449e+00 3.829366862773895264e-01 -1.847846388816833496e+00
4.506000000000000000e+03 2.304820442199707031e+01 5.327067375183105469e-01 -3.292227029800415039e+00 -2.774995565414428711e-01 -1.070917963981628418e+00 9.225633144378662109e-01
4.507000000000000000e+03 2.330475807189941406e+01 7.962406277656555176e-01 -2.782963752746582031e+00 -2.819949686527252197e-01 -9.194876551628112793e-01 8.841084241867065430e-01
4.508000000000000000e+03 2.337689208984375000e+01 1.870577931404113770e-01 -1.692340254783630371e+00 -2.879417836666107178e-01 -5.940846204757690430e-01 -1.808617413043975830e-01
4.509000000000000000e+03 2.410676956176757812e+01 5.735834240913391113e-01 -2.957464456558227539e+00 -2.355363816022872925e-01 -9.579002261161804199e-01 8.549410700798034668e-01
4.510000000000000000e+03 2.484382820129394531e+01 3.521343171596527100e-01 -3.050143957138061523e+00 -1.771834194660186768e-01 -9.681982398033142090e-01 7.763479351997375488e-01
4.511000000000000000e+03 2.505778884887695312e+01 3.324926793575286865e-01 -2.940540790557861328e+00 -1.134660169482231140e-01 -9.162020683288574219e-01 7.301965951919555664e-01
4.512000000000000000e+03 2.518788337707519531e+01 -2.082415670156478882e-02 -3.629319667816162109e+00 -2.232102900743484497e-01 -1.155758976936340332e+00 9.537546634674072266e-01
4.513000000000000000e+03 2.547062301635742188e+01 1.916866600513458252e-01 -2.900462388992309570e+00 -1.093417853116989136e-01 -9.029412865638732910e-01 6.729823946952819824e-01
4.514000000000000000e+03 2.564487075805664062e+01 9.936722368001937866e-02 -3.005390644073486328e+00 -9.206834435462951660e-02 -9.292377233505249023e-01 6.616214513778686523e-01
4.515000000000000000e+03 2.631257057189941406e+01 5.821590870618820190e-02 -2.345354557037353516e+00 1.956122964620590210e-01 -6.449226737022399902e-01 1.791231334209442139e-01
4.516000000000000000e+03 2.607849121093750000e+01 -2.330332249402999878e-02 -2.878413915634155273e+00 3.579901531338691711e-02 -8.527844548225402832e-01 4.635413885116577148e-01
4.517000000000000000e+03 2.622201728820800781e+01 -9.928338229656219482e-02 -2.816427946090698242e+00 -4.253326728940010071e-02 -8.576883673667907715e-01 4.853388965129852295e-01
4.518000000000000000e+03 2.653633689880371094e+01 -3.757444024085998535e-01 -2.849404096603393555e+00 -2.937352657318115234e-02 -8.636332750320434570e-01 6.046384572982788086e-01
4.519000000000000000e+03 2.749703025817871094e+01 -2.676171064376831055e-01 -9.307274222373962402e-01 6.969044804573059082e-01 -7.014688104391098022e-02 -7.323215603828430176e-01
4.520000000000000000e+03 2.809795761108398438e+01 -8.033339381217956543e-01 7.156930863857269287e-02 3.618241846561431885e-01 1.300180405378341675e-01 -3.692445456981658936e-01
4.521000000000000000e+03 2.830489540100097656e+01 -8.458117842674255371e-01 6.241205334663391113e-01 2.469485700130462646e-01 2.613207399845123291e-01 -6.720767021179199219e-01
4.522000000000000000e+03 2.923531913757324219e+01 -1.127178311347961426e+00 4.716571807861328125e+00 9.541602730751037598e-01 1.701219677925109863e+00 -1.930263996124267578e+00
4.523000000000000000e+03 2.950186538696289062e+01 -6.348044276237487793e-01 4.613379001617431641e+00 4.217308998107910156e+00 2.649206399917602539e+00 -5.425202369689941406e+00
4.524000000000000000e+03 2.934814453125000000e+01 -8.067440390586853027e-01 4.618904113769531250e+00 2.577162504196166992e+00 2.158819913864135742e+00 -4.053182125091552734e+00
4.525000000000000000e+03 3.016967201232910156e+01 -2.222986966371536255e-01 1.373996734619140625e+00 1.101545810699462891e+01 3.716836452484130859e+00 -6.336944103240966797e+00
4.526000000000000000e+03 3.079585266113281250e+01 -4.231468141078948975e-01 1.602519869804382324e+00 1.396399021148681641e+01 4.669952869415283203e+00 -3.436924457550048828e+00
4.527000000000000000e+03 3.161039924621582031e+01 -8.602089285850524902e-01 6.047314167022705078e+00 9.527460098266601562e+00 4.672432422637939453e+00 -5.306746363639831543e-01
4.528000000000000000e+03 2.973558998107910156e+01 -2.159928977489471436e-01 2.337803602218627930e+00 7.379197597503662109e+00 2.915100336074829102e+00 -6.246136665344238281e+00
4.529000000000000000e+03 2.932723999023437500e+01 -8.036036044359207153e-02 1.762884140014648438e+00 5.244084358215332031e+00 2.102090597152709961e+00 -5.192149162292480469e+00
4.530000000000000000e+03 2.952815818786621094e+01 -1.346790939569473267e-01 2.135653972625732422e+00 6.247336387634277344e+00 2.514897108078002930e+00 -5.911980152130126953e+00
4.531000000000000000e+03 2.912623023986816406e+01 -4.079141095280647278e-02 1.646526932716369629e+00 4.456145763397216797e+00 1.830801844596862793e+00 -4.850584983825683594e+00
4.532000000000000000e+03 2.880389404296875000e+01 -1.203138232231140137e+00 -1.043453216552734375e+00 3.633055984973907471e-01 -2.040442824363708496e-01 2.407455891370773315e-01
4.533000000000000000e+03 2.957462501525878906e+01 -2.585038185119628906e+00 1.605492115020751953e+00 2.652605533599853516e+00 1.277429342269897461e+00 1.054831743240356445e+00
4.534000000000000000e+03 2.972386741638183594e+01 -2.405278682708740234e+00 1.936440348625183105e+00 3.245443105697631836e+00 1.554565072059631348e+00 1.484766006469726562e+00
4.535000000000000000e+03 2.947078895568847656e+01 -2.747014284133911133e+00 9.412348270416259766e-01 2.224630594253540039e+00 9.497596621513366699e-01 8.104202151298522949e-01
4.536000000000000000e+03 2.824118614196777344e+01 -1.360312938690185547e+00 -6.871156096458435059e-01 3.485193848609924316e-01 -1.015788689255714417e-01 -1.099664717912673950e-02
4.537000000000000000e+03 2.842322921752929688e+01 -1.392099261283874512e+00 -7.384176254272460938e-01 -5.580109357833862305e-01 -3.889285624027252197e-01 1.394378542900085449e-01
4.538000000000000000e+03 2.364965438842773438e+01 1.466404180973768234e-02 -8.434434533119201660e-01 -3.878943994641304016e-02 -2.646698653697967529e-01 -1.469904303550720215e+00
4.539000000000000000e+03 2.375592422485351562e+01 1.219889894127845764e-01 -4.577343940734863281e+00 -3.587402403354644775e-01 -1.480825304985046387e+00 4.676963090896606445e-01
4.540000000000000000e+03 2.703701591491699219e+01 -1.066490650177001953e+00 -9.514880776405334473e-01 -5.274587869644165039e-01 -4.436840415000915527e-01 -2.750943601131439209e-01
4.541000000000000000e+03 2.665996932983398438e+01 -6.991124749183654785e-01 -1.854038476943969727e+00 -4.133334755897521973e-01 -6.802116036415100098e-01 8.125943541526794434e-01
4.542000000000000000e+03 2.578500938415527344e+01 -5.083258748054504395e-01 6.059643030166625977e-01 9.768416881561279297e-01 4.748418033123016357e-01 -2.803758978843688965e-01
4.543000000000000000e+03 2.559446716308593750e+01 -3.958659768104553223e-01 -6.257793307304382324e-01 1.242308378219604492e+00 1.849587112665176392e-01 -8.504204154014587402e-01
4.544000000000000000e+03 2.536496543884277344e+01 -3.477866649627685547e-01 -4.196871280670166016e+00 -1.720942258834838867e+00 -1.775344014167785645e+00 1.781922817230224609e+00
4.545000000000000000e+03 2.514023017883300781e+01 -2.093344777822494507e-01 3.675833642482757568e-01 -1.066187858581542969e+00 -2.095813602209091187e-01 4.086738824844360352e-01
4.546000000000000000e+03 3.119385528564453125e+01 -2.683044195175170898e+00 8.292297720909118652e-01 1.308646583557128906e+01 4.174708843231201172e+00 -2.569849014282226562e+00
4.547000000000000000e+03 3.116172790527343750e+01 -2.496903896331787109e+00 1.919614434242248535e+00 1.461041831970214844e+01 4.959009647369384766e+00 -3.369791030883789062e+00
4.548000000000000000e+03 3.109905433654785156e+01 -2.401186704635620117e+00 2.186874866485595703e+00 1.527346897125244141e+01 5.238103389739990234e+00 -3.814552783966064453e+00
4.549000000000000000e+03 3.134786033630371094e+01 -2.321307897567749023e+00 3.714489459991455078e+00 1.344612121582031250e+01 5.148183345794677734e+00 -4.277226448059082031e+00
4.550000000000000000e+03 2.940074348449707031e+01 -2.454807281494140625e+00 1.479435801506042480e+00 1.257625460624694824e+00 8.211183547973632812e-01 3.883216083049774170e-01
4.551000000000000000e+03 2.855640029907226562e+01 -2.454155921936035156e+00 5.459867119789123535e-01 -7.907974720001220703e-01 -7.344322651624679565e-02 -1.213658377528190613e-01
4.552000000000000000e+03 2.793899536132812500e+01 -2.210473775863647461e+00 -2.321190237998962402e-01 -4.687644541263580322e-01 -2.102650403976440430e-01 -4.645810425281524658e-01
4.553000000000000000e+03 2.771846580505371094e+01 -1.992217779159545898e+00 7.994984984397888184e-01 6.788160204887390137e-01 4.434943497180938721e-01 1.674438863992691040e-01
4.554000000000000000e+03 2.784475517272949219e+01 -1.678198933601379395e+00 1.594593971967697144e-01 2.509461343288421631e-01 1.231216564774513245e-01 -1.270595788955688477e-01
4.555000000000000000e+03 2.354829406738281250e+01 -1.324071139097213745e-01 9.117222428321838379e-01 4.782359302043914795e-01 4.169874489307403564e-01 1.235082387924194336e+00
4.556000000000000000e+03 3.136733055114746094e+01 -2.144302368164062500e+00 4.680917263031005859e+00 1.288679313659667969e+01 5.270312786102294922e+00 -4.637070178985595703e+00
4.557000000000000000e+03 3.161584472656250000e+01 -1.758180499076843262e+00 7.715020656585693359e+00 1.045874881744384766e+01 5.452130794525146484e+00 -3.633169412612915039e+00
4.558000000000000000e+03 2.441923522949218750e+01 -1.816220209002494812e-02 -1.896830797195434570e+00 -1.147858262062072754e+00 -9.134067296981811523e-01 -5.304448008537292480e-01
4.559000000000000000e+03 2.420937728881835938e+01 1.894903182983398438e-02 -3.798339605331420898e+00 -4.107593894004821777e-01 -1.262729763984680176e+00 1.065540313720703125e+00
4.560000000000000000e+03 2.288853073120117188e+01 -4.331224560737609863e-01 1.677300930023193359e-01 -2.058441191911697388e-01 -1.143420767039060593e-02 4.507425427436828613e-02
4.561000000000000000e+03 2.256007766723632812e+01 -1.674935817718505859e-01 2.425217181444168091e-01 -2.913186550140380859e-01 -1.463908515870571136e-02 1.459979414939880371e-01
4.562000000000000000e+03 2.207168579101562500e+01 -1.835565641522407532e-02 1.235863715410232544e-01 -1.180222108960151672e-01 1.669247983954846859e-03 1.970601528882980347e-01
4.563000000000000000e+03 3.123100662231445312e+01 -4.688556492328643799e-01 2.702832221984863281e+00 1.275301170349121094e+01 4.636753082275390625e+00 -1.755879402160644531e+00
4.564000000000000000e+03 3.121101570129394531e+01 -7.334002256393432617e-01 5.049749374389648438e+00 1.323510360717773438e+01 5.485455989837646484e+00 -6.623398661613464355e-01
4.565000000000000000e+03 2.333995819091796875e+01 1.878251321613788605e-02 -7.687718421220779419e-02 -3.587664663791656494e-01 -1.306930929422378540e-01 2.911352217197418213e-01
4.566000000000000000e+03 2.792816352844238281e+01 -1.951703429222106934e+00 2.906732559204101562e-01 -3.203765153884887695e-01 -8.910983800888061523e-03 2.489289641380310059e-01
4.567000000000000000e+03 1.959711647033691406e+01 7.866930365562438965e-01 -2.686288356781005859e-01 1.569711975753307343e-02 -7.587951421737670898e-02 2.698762714862823486e-02
4.568000000000000000e+03 1.978149604797363281e+01 5.583624243736267090e-01 -3.146276473999023438e-01 -8.089877665042877197e-03 -9.681525081396102905e-02 3.684206865727901459e-03
4.569000000000000000e+03 2.814595413208007812e+01 -7.329405844211578369e-02 3.892223238945007324e-01 1.840458512306213379e+00 6.689042448997497559e-01 -2.383952617645263672e+00
4.570000000000000000e+03 2.277594566345214844e+01 -1.322696059942245483e-01 3.153796195983886719e-01 2.310020029544830322e-01 1.639144867658615112e-01 -4.649705067276954651e-02
4.571000000000000000e+03 2.260337066650390625e+01 3.787817806005477905e-02 -8.131293654441833496e-01 -6.420523673295974731e-02 -2.632003724575042725e-01 -1.426929533481597900e-01
4.572000000000000000e+03 2.898414039611816406e+01 -2.195598840713500977e+00 6.628640890121459961e-01 -1.317911148071289062e-01 1.593218892812728882e-01 -4.353242516517639160e-01
4.573000000000000000e+03 2.888377189636230469e+01 -1.407872796058654785e+00 -9.881405830383300781e-01 7.819765061140060425e-02 -2.729828655719757080e-01 -2.210463024675846100e-02
4.574000000000000000e+03 2.844327545166015625e+01 -2.038426876068115234e+00 3.404459059238433838e-01 -2.791182100772857666e-01 1.839830540120601654e-02 -2.694499790668487549e-01
4.575000000000000000e+03 2.888210487365722656e+01 -2.001049995422363281e+00 4.515066146850585938e-01 -2.844359874725341797e-01 5.012119188904762268e-02 -5.408356189727783203e-01
4.576000000000000000e+03 2.832481765747070312e+01 -1.577206254005432129e+00 7.514814287424087524e-02 7.489937543869018555e-02 4.501425474882125854e-02 -1.253768801689147949e-01
4.577000000000000000e+03 2.821401214599609375e+01 -2.360190749168395996e-01 4.921525716781616211e-01 1.568158507347106934e+00 6.180933117866516113e-01 -2.208292484283447266e+00
4.578000000000000000e+03 2.321599197387695312e+01 1.189328074455261230e+00 -2.203284978866577148e+00 -2.361692339181900024e-01 -7.318362593650817871e-01 7.775279879570007324e-01
4.579000000000000000e+03 2.378049659729003906e+01 9.738450646400451660e-01 -2.387694358825683594e+00 -1.866240054368972778e-01 -7.722954750061035156e-01 7.993862032890319824e-01
4.580000000000000000e+03 2.266151428222656250e+01 1.359055995941162109e+00 -2.044318914413452148e+00 -2.888844907283782959e-01 -6.999610662460327148e-01 8.179494142532348633e-01
4.581000000000000000e+03 2.438579750061035156e+01 8.117965459823608398e-01 -2.439319133758544922e+00 -1.402296125888824463e-01 -7.738646268844604492e-01 7.047802209854125977e-01
4.582000000000000000e+03 2.495364952087402344e+01 7.306376695632934570e-01 -2.314394474029541016e+00 1.705818809568881989e-02 -6.892008781433105469e-01 5.511121749877929688e-01
4.583000000000000000e+03 2.659014701843261719e+01 1.532967984676361084e-01 -1.873397588729858398e+00 4.945673346519470215e-01 -4.136490821838378906e-01 -2.106894403696060181e-01
4.584000000000000000e+03 2.214998626708984375e+01 1.594537496566772461e+00 -1.853752374649047852e+00 -2.768439650535583496e-01 -6.391788721084594727e-01 7.878516316413879395e-01
4.585000000000000000e+03 2.687885093688964844e+01 2.260089665651321411e-01 -1.451214790344238281e+00 7.426993250846862793e-01 -2.125546187162399292e-01 -5.753723382949829102e-01
4.586000000000000000e+03 2.752580261230468750e+01 2.483073472976684570e-01 -6.979518532752990723e-01 1.553396582603454590e+00 2.566334307193756104e-01 -1.626073718070983887e+00
4.587000000000000000e+03 2.767489242553710938e+01 1.920970678329467773e-01 -5.065467357635498047e-01 1.551264643669128418e+00 3.134153783321380615e-01 -1.742306709289550781e+00
4.588000000000000000e+03 2.788407897949218750e+01 -5.077337846159934998e-02 -5.884928256273269653e-02 1.426487803459167480e+00 4.102915525436401367e-01 -1.862475514411926270e+00
4.589000000000000000e+03 2.804960632324218750e+01 1.134616807103157043e-01 4.885832965373992920e-02 1.994033813476562500e+00 6.128676533699035645e-01 -2.321230411529541016e+00
4.590000000000000000e+03 2.159336471557617188e+01 1.441258937120437622e-01 -4.270506799221038818e-01 -1.098568141460418701e-01 -1.610722541809082031e-01 -6.359289586544036865e-02
4.591000000000000000e+03 2.133313941955566406e+01 4.375022947788238525e-01 -4.728171527385711670e-01 -6.645735353231430054e-02 -1.617823541164398193e-01 -3.965541347861289978e-02
4.592000000000000000e+03 2.189426612854003906e+01 8.997181057929992676e-02 -5.877240300178527832e-01 -9.582563489675521851e-02 -2.050648927688598633e-01 5.921116098761558533e-02
4.593000000000000000e+03 2.061288261413574219e+01 1.679349988698959351e-01 -1.645991802215576172e-01 9.228643029928207397e-02 -2.169382385909557343e-02 -5.193033814430236816e-02
4.594000000000000000e+03 1.998163986206054688e+01 7.198818922042846680e-01 -3.006316423416137695e-01 2.653312683105468750e-02 -8.222954720258712769e-02 8.053169585764408112e-03
4.595000000000000000e+03 2.871779823303222656e+01 -1.326187849044799805e+00 -1.236214041709899902e+00 -9.873048961162567139e-02 -4.004833698272705078e-01 1.316732317209243774e-01
4.596000000000000000e+03 2.168270301818847656e+01 1.809647321701049805e+00 -1.649177789688110352e+00 -2.990192770957946777e-01 -5.844591259956359863e-01 7.559915184974670410e-01
4.597000000000000000e+03 2.157896423339843750e+01 1.564967632293701172e+00 -1.944892644882202148e+00 -2.902806401252746582e-01 -6.705520153045654297e-01 7.494873404502868652e-01
4.598000000000000000e+03 2.183981704711914062e+01 1.349062681198120117e+00 -2.104973316192626953e+00 -2.717153728008270264e-01 -7.130066156387329102e-01 7.950150966644287109e-01
4.599000000000000000e+03 1.951540565490722656e+01 2.229188442230224609e+00 -1.466707110404968262e+00 -3.012062013149261475e-01 -5.303739905357360840e-01 4.273639917373657227e-01
4.600000000000000000e+03 2.135205650329589844e+01 1.723323941230773926e+00 -1.793978452682495117e+00 -2.913517355918884277e-01 -6.255990266799926758e-01 7.446250319480895996e-01
4.601000000000000000e+03 2.149040031433105469e+01 1.906917214393615723e+00 -1.544647336006164551e+00 -3.004871308803558350e-01 -5.535403490066528320e-01 7.008194327354431152e-01
4.602000000000000000e+03 2.051810073852539062e+01 2.082508325576782227e+00 -1.522552132606506348e+00 -2.894570231437683105e-01 -5.436027646064758301e-01 6.123805046081542969e-01
4.603000000000000000e+03 2.026619911193847656e+01 1.806325674057006836e+00 -1.798565745353698730e+00 -2.469497472047805786e-01 -6.136546730995178223e-01 6.110234856605529785e-01
4.604000000000000000e+03 2.008097076416015625e+01 2.032894611358642578e+00 -1.603226780891418457e+00 -2.763495147228240967e-01 -5.638728737831115723e-01 5.492581725120544434e-01
4.605000000000000000e+03 1.972083473205566406e+01 2.122581720352172852e+00 -1.614862680435180664e+00 -2.791572213172912598e-01 -5.682060122489929199e-01 4.909651577472686768e-01
4.606000000000000000e+03 1.990894699096679688e+01 2.051045894622802734e+00 -1.582794666290283203e+00 -2.697706222534179688e-01 -5.557695627212524414e-01 5.068864226341247559e-01
4.607000000000000000e+03 2.995382118225097656e+01 -2.541089057922363281e-01 2.293305158615112305e+00 9.194259643554687500e+00 3.446269512176513672e+00 -6.787240028381347656e+00
4.608000000000000000e+03 2.886927604675292969e+01 -2.450433075428009033e-01 1.830203175544738770e+00 2.864440917968750000e+00 1.408393263816833496e+00 -3.770130872726440430e+00
4.609000000000000000e+03 2.049225044250488281e+01 -1.421464234590530396e-01 3.547032363712787628e-03 1.957610016688704491e-03 1.651392667554318905e-03 2.319065481424331665e-02
4.610000000000000000e+03 1.941262245178222656e+01 1.512052863836288452e-01 -1.643909364938735962e-01 4.021305963397026062e-02 -3.725336119532585144e-02 -2.346268668770790100e-02
4.611000000000000000e+03 2.120802116394042969e+01 1.837977409362792969e+00 -1.635583400726318359e+00 -2.948716580867767334e-01 -5.791364908218383789e-01 6.917189955711364746e-01
4.612000000000000000e+03 2.770507240295410156e+01 -1.987036019563674927e-01 -5.280114412307739258e-01 8.272229433059692383e-01 8.976344764232635498e-02 -1.093762874603271484e+00
4.613000000000000000e+03 2.783073616027832031e+01 -3.960848450660705566e-01 -3.565703928470611572e-01 6.699093580245971680e-01 9.400169551372528076e-02 -1.042673349380493164e+00
4.614000000000000000e+03 2.888020706176757812e+01 -6.619790196418762207e-01 2.648763895034790039e+00 1.628310561180114746e+00 1.283122301101684570e+00 -2.694130182266235352e+00
4.615000000000000000e+03 2.881853103637695312e+01 -1.768127441406250000e+00 -2.996955215930938721e-01 7.856594026088714600e-02 -6.633887439966201782e-02 -5.701416730880737305e-01
4.616000000000000000e+03 2.946666526794433594e+01 -3.386001288890838623e-01 2.936972856521606445e+00 5.292178153991699219e+00 2.468745231628417969e+00 -5.614269256591796875e+00
4.617000000000000000e+03 2.908487892150878906e+01 -2.829491198062896729e-01 2.220800876617431641e+00 3.672291755676269531e+00 1.767927765846252441e+00 -4.360665798187255859e+00
4.618000000000000000e+03 2.124218368530273438e+01 1.556752204895019531e+00 -1.957980871200561523e+00 -2.923901677131652832e-01 -6.751113533973693848e-01 7.366996407508850098e-01
4.619000000000000000e+03 2.021577453613281250e+01 1.547644615173339844e+00 -2.028819322586059570e+00 -2.161683589220046997e-01 -6.734963655471801758e-01 6.257693171501159668e-01
4.620000000000000000e+03 2.196426582336425781e+01 1.213429093360900879e+00 -2.334062814712524414e+00 -2.717921733856201172e-01 -7.817565202713012695e-01 8.263902664184570312e-01
4.621000000000000000e+03 2.212532806396484375e+01 1.377813100814819336e+00 -2.099190473556518555e+00 -2.805934548377990723e-01 -7.139351963996887207e-01 8.039813041687011719e-01
4.622000000000000000e+03 2.306951713562011719e+01 1.252389311790466309e+00 -2.128218650817871094e+00 -2.116187214851379395e-01 -7.019512057304382324e-01 7.846230864524841309e-01
4.623000000000000000e+03 2.464865493774414062e+01 3.493380248546600342e-01 -3.174855947494506836e+00 -2.001779377460479736e-01 -1.012510180473327637e+00 8.617799878120422363e-01
4.624000000000000000e+03 2.478851318359375000e+01 7.962347269058227539e-01 -2.252080440521240234e+00 -5.091533530503511429e-03 -6.771515607833862305e-01 5.613078474998474121e-01
4.625000000000000000e+03 2.575341224670410156e+01 2.724300026893615723e-01 -2.461894989013671875e+00 3.187656402587890625e-02 -7.290055155754089355e-01 4.283055961132049561e-01
4.626000000000000000e+03 2.601101875305175781e+01 1.449248641729354858e-01 -2.474461555480957031e+00 1.182282119989395142e-01 -7.068699598312377930e-01 3.473609387874603271e-01
4.627000000000000000e+03 2.617388725280761719e+01 1.405357718467712402e-01 -2.216390132904052734e+00 1.236845701932907104e-01 -6.278116703033447266e-01 2.320149391889572144e-01
4.628000000000000000e+03 2.637457275390625000e+01 -1.095327585935592651e-01 -2.565638542175292969e+00 1.420078426599502563e-01 -7.270892262458801270e-01 3.527762293815612793e-01
4.629000000000000000e+03 2.695597076416015625e+01 -3.058351278305053711e-01 -2.133243560791015625e+00 4.381070286035537720e-02 -6.268298029899597168e-01 1.236911937594413757e-01
4.630000000000000000e+03 2.822326087951660156e+01 -3.940764367580413818e-01 6.785836219787597656e-01 1.208922266960144043e+00 5.662517547607421875e-01 -1.809356570243835449e+00
4.631000000000000000e+03 2.868435668945312500e+01 -1.908978074789047241e-01 1.249898910522460938e+00 2.633098363876342773e+00 1.164899230003356934e+00 -3.244559288024902344e+00
4.632000000000000000e+03 2.809563636779785156e+01 -3.395256102085113525e-01 2.876945436000823975e-01 1.063720226287841797e+00 4.054244458675384521e-01 -1.665371775627136230e+00
4.633000000000000000e+03 2.836610412597656250e+01 -1.860425472259521484e-01 8.234025835990905762e-01 2.046361207962036133e+00 8.609291315078735352e-01 -2.670902967453002930e+00
4.634000000000000000e+03 2.856115150451660156e+01 -3.394452333450317383e-01 1.321225762367248535e+00 2.015456914901733398e+00 1.001004815101623535e+00 -2.788182735443115234e+00
4.635000000000000000e+03 1.927596282958984375e+01 6.384185552597045898e-01 -2.556685507297515869e-01 1.823744364082813263e-02 -7.122933864593505859e-02 1.166697684675455093e-02
4.636000000000000000e+03 2.107768630981445312e+01 1.641829013824462891e+00 -1.894269824028015137e+00 -2.712409794330596924e-01 -6.496532559394836426e-01 7.335585355758666992e-01
4.637000000000000000e+03 2.276749038696289062e+01 1.157085180282592773e+00 -2.336795806884765625e+00 -2.679953277111053467e-01 -7.814373373985290527e-01 8.483252525329589844e-01
4.638000000000000000e+03 1.924406433105468750e+01 4.091316163539886475e-01 -2.119692564010620117e-01 4.042757302522659302e-02 -5.146250501275062561e-02 -4.268642887473106384e-02
4.639000000000000000e+03 2.764840888977050781e+01 2.302411384880542755e-02 -4.891134798526763916e-01 1.298598647117614746e+00 2.428455352783203125e-01 -1.496766090393066406e+00
4.640000000000000000e+03 2.902076530456542969e+01 -5.035595297813415527e-01 2.853605270385742188e+00 2.697653055191040039e+00 1.665377497673034668e+00 -3.897624015808105469e+00
4.641000000000000000e+03 2.934541511535644531e+01 -4.842942059040069580e-01 3.416815519332885742e+00 4.108442783355712891e+00 2.257577419281005859e+00 -5.067261219024658203e+00
4.642000000000000000e+03 1.814793777465820312e+01 6.606643199920654297e-01 -2.070608586072921753e-01 1.023133657872676849e-02 -5.904885753989219666e-02 -1.585824601352214813e-02
4.643000000000000000e+03 1.838473129272460938e+01 4.933948442339897156e-02 -1.357050985097885132e-01 2.269859425723552704e-02 -3.390195220708847046e-02 -2.305052056908607483e-02
4.644000000000000000e+03 1.856261444091796875e+01 7.385737895965576172e-01 -2.311129868030548096e-01 2.864679321646690369e-02 -6.073985621333122253e-02 -9.962778538465499878e-03
4.645000000000000000e+03 1.865920639038085938e+01 1.130299210548400879e+00 -2.506769895553588867e-01 2.521723322570323944e-02 -6.763792783021926880e-02 6.746842525899410248e-03
4.646000000000000000e+03 1.834276008605957031e+01 1.144911527633666992e+00 -2.483962774276733398e-01 -1.218113303184509277e-02 -7.817322760820388794e-02 -1.251588761806488037e-02
4.647000000000000000e+03 1.857202720642089844e+01 1.320400714874267578e+00 -2.516776025295257568e-01 -2.528843935579061508e-03 -7.626193761825561523e-02 -1.162772532552480698e-03
4.648000000000000000e+03 1.731215667724609375e+01 2.281701266765594482e-01 -1.496353596448898315e-01 1.268719788640737534e-02 -4.108444601297378540e-02 -3.825428336858749390e-02
4.649000000000000000e+03 1.645245742797851562e+01 1.667751818895339966e-01 -1.446291655302047729e-01 -2.652139170095324516e-03 -4.418439045548439026e-02 -4.339303448796272278e-02
4.650000000000000000e+03 1.631423568725585938e+01 8.992047309875488281e-01 -1.939182728528976440e-01 6.685602478682994843e-03 -5.616980046033859253e-02 -3.405310586094856262e-02
4.651000000000000000e+03 1.850059127807617188e+01 2.940516471862792969e-01 -1.823589652776718140e-01 2.865245193243026733e-02 -4.611195251345634460e-02 -2.564858831465244293e-02
4.652000000000000000e+03 1.854812049865722656e+01 5.150997042655944824e-01 -1.918776333332061768e-01 2.999438717961311340e-02 -4.856497421860694885e-02 -1.930405758321285248e-02
4.653000000000000000e+03 1.859737205505371094e+01 9.474506974220275879e-01 -2.530979812145233154e-01 1.947461813688278198e-02 -7.008700817823410034e-02 -9.467775817029178143e-04
4.654000000000000000e+03 1.785100364685058594e+01 1.071228146553039551e+00 -2.477473914623260498e-01 1.076441351324319839e-02 -7.109489291906356812e-02 -2.485650964081287384e-02
4.655000000000000000e+03 1.800023078918457031e+01 2.912877202033996582e-01 -1.642372459173202515e-01 1.158670336008071899e-02 -4.579516127705574036e-02 -2.819840237498283386e-02
4.656000000000000000e+03 1.710795783996582031e+01 9.562023282051086426e-01 -2.279605269432067871e-01 -6.244250107556581497e-03 -7.026143372058868408e-02 -2.605631947517395020e-02
4.657000000000000000e+03 3.037332344055175781e+01 -1.544881343841552734e+00 -4.092559337615966797e+00 7.401827573776245117e-01 -1.005712985992431641e+00 6.400537967681884766e+00
4.658000000000000000e+03 3.037221527099609375e+01 -1.564349174499511719e+00 -2.410954236984252930e+00 3.333551883697509766e+00 2.767792642116546631e-01 1.109070396423339844e+01
4.659000000000000000e+03 3.037492561340332031e+01 -1.583659291267395020e+00 -5.097693204879760742e-01 9.397851943969726562e+00 2.666424751281738281e+00 1.238346195220947266e+01
4.660000000000000000e+03 3.038134765625000000e+01 -1.602070450782775879e+00 4.453480541706085205e-01 1.502317333221435547e+01 4.640556335449218750e+00 1.311445426940917969e+01
4.661000000000000000e+03 3.039123725891113281e+01 -1.618875861167907715e+00 1.428048729896545410e+00 2.185193824768066406e+01 6.983996391296386719e+00 1.287407112121582031e+01
4.662000000000000000e+03 3.040421485900878906e+01 -1.633430123329162598e+00 1.783511161804199219e+00 2.811366271972656250e+01 8.969151496887207031e+00 1.180829334259033203e+01
4.663000000000000000e+03 3.041978073120117188e+01 -1.645174741744995117e+00 2.013724803924560547e+00 3.448859786987304688e+01 1.095069694519042969e+01 9.469302177429199219e+00
4.664000000000000000e+03 3.043733596801757812e+01 -1.653658747673034668e+00 2.402199983596801758e+00 3.941633987426757812e+01 1.254556179046630859e+01 6.210840702056884766e+00
4.665000000000000000e+03 3.045621109008789062e+01 -1.658556342124938965e+00 3.363016128540039062e+00 4.281982421875000000e+01 1.385485267639160156e+01 2.066688776016235352e+00
4.666000000000000000e+03 3.047567749023437500e+01 -1.659679651260375977e+00 5.665960311889648438e+00 4.443182754516601562e+01 1.502933597564697266e+01 -2.298421621322631836e+00
4.667000000000000000e+03 3.049499130249023438e+01 -1.656985402107238770e+00 8.332818984985351562e+00 4.383878707885742188e+01 1.565148162841796875e+01 -6.334029674530029297e+00
4.668000000000000000e+03 3.051340675354003906e+01 -1.650577068328857422e+00 1.218811798095703125e+01 4.193322372436523438e+01 1.623640251159667969e+01 -9.290486335754394531e+00
4.669000000000000000e+03 3.053022003173828125e+01 -1.640700697898864746e+00 1.607068824768066406e+01 3.895928573608398438e+01 1.650899314880371094e+01 -1.097086715698242188e+01
4.670000000000000000e+03 3.054478454589843750e+01 -1.627735495567321777e+00 2.012232780456542969e+01 3.559652709960937500e+01 1.671565628051757812e+01 -1.125367546081542969e+01
4.671000000000000000e+03 3.055654144287109375e+01 -1.612179160118103027e+00 2.282735633850097656e+01 3.251316070556640625e+01 1.660215568542480469e+01 -1.050795078277587891e+01
4.672000000000000000e+03 3.056503868103027344e+01 -1.594628930091857910e+00 2.544891166687011719e+01 3.058598327636718750e+01 1.681046867370605469e+01 -8.533518791198730469e+00
4.673000000000000000e+03 3.056995201110839844e+01 -1.575758576393127441e+00 2.649916839599609375e+01 2.913523674011230469e+01 1.669032096862792969e+01 -6.462527275085449219e+00
4.674000000000000000e+03 3.057109069824218750e+01 -1.556292533874511719e+00 2.693382644653320312e+01 2.916415977478027344e+01 1.682939529418945312e+01 -3.958082914352416992e+00
4.675000000000000000e+03 3.056841087341308594e+01 -1.536978125572204590e+00 2.653144454956054688e+01 3.003348159790039062e+01 1.696947669982910156e+01 -2.048430204391479492e+00
4.676000000000000000e+03 3.056201744079589844e+01 -1.518556833267211914e+00 2.536872291564941406e+01 3.224616622924804688e+01 1.728446769714355469e+01 -2.481317818164825439e-01
4.677000000000000000e+03 3.055215454101562500e+01 -1.501735806465148926e+00 2.383852577209472656e+01 3.486166000366210938e+01 1.761005592346191406e+01 6.625097393989562988e-01
4.678000000000000000e+03 3.053920173645019531e+01 -1.487160921096801758e+00 2.187035751342773438e+01 3.846797943115234375e+01 1.810150146484375000e+01 6.610050201416015625e-01
4.679000000000000000e+03 3.052365303039550781e+01 -1.475391745567321777e+00 1.984303855895996094e+01 4.191653823852539062e+01 1.852787208557128906e+01 -4.068660736083984375e-01
4.680000000000000000e+03 3.050611114501953125e+01 -1.466880083084106445e+00 1.843233489990234375e+01 4.565865325927734375e+01 1.922729682922363281e+01 -3.027667284011840820e+00
4.681000000000000000e+03 3.048724365234375000e+01 -1.461952567100524902e+00 1.679512596130371094e+01 4.772387313842773438e+01 1.935569953918457031e+01 -6.488454341888427734e+00
4.682000000000000000e+03 3.046777915954589844e+01 -1.460798501968383789e+00 1.789751052856445312e+01 4.900821685791015625e+01 2.007171821594238281e+01 -1.112892532348632812e+01
4.683000000000000000e+03 3.044846153259277344e+01 -1.463462233543395996e+00 1.888047409057617188e+01 4.748726272583007812e+01 1.991032028198242188e+01 -1.611157226562500000e+01
4.684000000000000000e+03 3.043003463745117188e+01 -1.469841361045837402e+00 2.262847900390625000e+01 4.417650604248046875e+01 2.004149627685546875e+01 -2.055129814147949219e+01
4.685000000000000000e+03 3.041320610046386719e+01 -1.479691147804260254e+00 2.690932464599609375e+01 3.830938720703125000e+01 1.956561279296875000e+01 -2.386293792724609375e+01
4.686000000000000000e+03 3.039862251281738281e+01 -1.492633342742919922e+00 3.251695251464843750e+01 3.048813438415527344e+01 1.890152549743652344e+01 -2.523892402648925781e+01
4.687000000000000000e+03 3.038684082031250000e+01 -1.508171081542968750e+00 3.762229919433593750e+01 2.183574676513671875e+01 1.783741378784179688e+01 -2.420921325683593750e+01
4.688000000000000000e+03 3.037831497192382812e+01 -1.525707840919494629e+00 4.365455245971679688e+01 1.062193775177001953e+01 1.628294754028320312e+01 -1.909325790405273438e+01
