# el_label, x, y, sXX, sYY, sZZ, sXY
1.000000000000000000e+00 3.861128234863281250e+01 1.520105957984924316e+00 1.814106941223144531e+01 1.738146305084228516e+00 5.963765144348144531e+00 7.948605060577392578e+00
2.000000000000000000e+00 3.843392562866210938e+01 1.429764151573181152e+00 1.434922122955322266e+01 4.181733608245849609e+00 5.559286594390869141e+00 6.847342014312744141e+00
3.000000000000000000e+00 3.825657272338867188e+01 1.339422345161437988e+00 1.160065650939941406e+01 2.145069837570190430e+00 4.123717784881591797e+00 5.554532051086425781e+00
4.000000000000000000e+00 3.807921600341796875e+01 1.249080538749694824e+00 9.983384132385253906e+00 2.490231752395629883e+00 3.742084741592407227e+00 4.683844566345214844e+00
5.000000000000000000e+00 3.864279174804687500e+01 1.470858216285705566e+00 1.964549636840820312e+01 5.982546806335449219e+00 7.688412666320800781e+00 1.227264785766601562e+01
6.000000000000000000e+00 3.848644638061523438e+01 1.347684621810913086e+00 1.353389739990234375e+01 5.267285823822021484e+00 5.640355110168457031e+00 8.183297157287597656e+00
7.000000000000000000e+00 3.833009719848632812e+01 1.224510908126831055e+00 1.145661640167236328e+01 5.080773353576660156e+00 4.961216926574707031e+00 7.242200374603271484e+00
8.000000000000000000e+00 3.817374801635742188e+01 1.101337313652038574e+00 9.576965332031250000e+00 3.745463848114013672e+00 3.996728658676147461e+00 6.274022579193115234e+00
9.000000000000000000e+00 3.868329620361328125e+01 1.428695678710937500e+00 1.678253555297851562e+01 1.156162929534912109e+01 8.503249168395996094e+00 1.449885559082031250e+01
1.000000000000000000e+01 3.855395126342773438e+01 1.277413725852966309e+00 1.314972877502441406e+01 8.436448097229003906e+00 6.475852966308593750e+00 9.919881820678710938e+00
1.100000000000000000e+01 3.842460632324218750e+01 1.126131772994995117e+00 1.019815731048583984e+01 7.045236587524414062e+00 5.173018455505371094e+00 8.277533531188964844e+00
1.200000000000000000e+01 3.829525756835937500e+01 9.748497605323791504e-01 8.831648826599121094e+00 6.588279247283935547e+00 4.625978469848632812e+00 7.301468849182128906e+00
1.300000000000000000e+01 3.873124313354492188e+01 1.395235300064086914e+00 1.432762908935546875e+01 1.730867958068847656e+01 9.490892410278320312e+00 1.437646770477294922e+01
1.400000000000000000e+01 3.863385772705078125e+01 1.221646308898925781e+00 1.095899200439453125e+01 1.177237415313720703e+01 6.819409847259521484e+00 1.063520812988281250e+01
1.500000000000000000e+01 3.853647613525390625e+01 1.048057436943054199e+00 9.263166427612304688e+00 1.009466552734375000e+01 5.807349681854248047e+00 8.775255203247070312e+00
1.600000000000000000e+01 3.843909072875976562e+01 8.744685053825378418e-01 7.364476680755615234e+00 8.708217620849609375e+00 4.821808338165283203e+00 7.880253314971923828e+00
1.700000000000000000e+01 3.878478622436523438e+01 1.371760010719299316e+00 1.130434799194335938e+01 2.148788452148437500e+01 9.837669372558593750e+00 1.275096225738525391e+01
1.800000000000000000e+01 3.872310256958007812e+01 1.182520985603332520e+00 9.624708175659179688e+00 1.539264297485351562e+01 7.505205631256103516e+00 1.000285816192626953e+01
1.900000000000000000e+01 3.866141510009765625e+01 9.932820200920104980e-01 7.381805896759033203e+00 1.258705425262451172e+01 5.990657806396484375e+00 8.567037582397460938e+00
2.000000000000000000e+01 3.859973144531250000e+01 8.040429353713989258e-01 6.526274204254150391e+00 1.126626968383789062e+01 5.337763309478759766e+00 7.541951656341552734e+00
2.100000000000000000e+01 3.884188079833984375e+01 1.359170317649841309e+00 1.032416725158691406e+01 2.449890899658203125e+01 1.044692325592041016e+01 1.005290222167968750e+01
2.200000000000000000e+01 3.881825637817382812e+01 1.161538124084472656e+00 7.780364990234375000e+00 1.788902091979980469e+01 7.700816154479980469e+00 8.571228027343750000e+00
2.300000000000000000e+01 3.879463577270507812e+01 9.639059901237487793e-01 6.680269241333007812e+00 1.498745536804199219e+01 6.500317096710205078e+00 7.398301124572753906e+00
2.400000000000000000e+01 3.877101135253906250e+01 7.662737369537353516e-01 5.090882301330566406e+00 1.296072769165039062e+01 5.415482997894287109e+00 6.675135135650634766e+00
2.500000000000000000e+01 3.890033340454101562e+01 1.357948899269104004e+00 9.750666618347167969e+00 2.556313323974609375e+01 1.059414005279541016e+01 7.112529277801513672e+00
2.600000000000000000e+01 3.891567993164062500e+01 1.159502387046813965e+00 7.485833644866943359e+00 1.958715057373046875e+01 8.121894836425781250e+00 6.636445045471191406e+00
2.700000000000000000e+01 3.893102645874023438e+01 9.610558748245239258e-01 5.758956432342529297e+00 1.637391471862792969e+01 6.639861106872558594e+00 5.794961929321289062e+00
2.800000000000000000e+01 3.894637298583984375e+01 7.626093626022338867e-01 4.892467498779296875e+00 1.445652580261230469e+01 5.804697990417480469e+00 5.240659236907958984e+00
2.900000000000000000e+01 3.895790481567382812e+01 1.368142485618591309e+00 1.061988258361816406e+01 2.544097518920898438e+01 1.081825733184814453e+01 4.727687835693359375e+00
3.000000000000000000e+01 3.901163101196289062e+01 1.176491737365722656e+00 7.586024761199951172e+00 2.002744865417480469e+01 8.284042358398437500e+00 4.576842784881591797e+00
3.100000000000000000e+01 3.906535720825195312e+01 9.848410487174987793e-01 5.941829681396484375e+00 1.700011253356933594e+01 6.882582664489746094e+00 4.142574787139892578e+00
3.200000000000000000e+01 3.911908340454101562e+01 7.931903004646301270e-01 4.863194465637207031e+00 1.507604694366455078e+01 5.981772422790527344e+00 3.799587488174438477e+00
3.300000000000000000e+01 3.901238250732421875e+01 1.389360308647155762e+00 1.207557201385498047e+01 2.432785797119140625e+01 1.092102813720703125e+01 3.075617790222167969e+00
3.400000000000000000e+01 3.910243225097656250e+01 1.211854815483093262e+00 8.377360343933105469e+00 1.961135292053222656e+01 8.396614074707031250e+00 2.932309627532958984e+00
3.500000000000000000e+01 3.919247817993164062e+01 1.034349322319030762e+00 6.738702774047851562e+00 1.677705001831054688e+01 7.054725646972656250e+00 2.748394727706909180e+00
3.600000000000000000e+01 3.928252410888671875e+01 8.568437695503234863e-01 5.422482967376708984e+00 1.473884487152099609e+01 6.048398494720458984e+00 2.509605407714843750e+00
3.700000000000000000e+01 3.906168365478515625e+01 1.420788764953613281e+00 1.337342834472656250e+01 2.274843025207519531e+01 1.083655738830566406e+01 2.308657169342041016e+00
3.800000000000000000e+01 3.918459701538085938e+01 1.264235496520996094e+00 9.815209388732910156e+00 1.865749549865722656e+01 8.541810989379882812e+00 2.003267526626586914e+00
3.900000000000000000e+01 3.930751037597656250e+01 1.107682108879089355e+00 7.716800212860107422e+00 1.584492778778076172e+01 7.068518638610839844e+00 1.757330417633056641e+00
4.000000000000000000e+01 3.943042373657226562e+01 9.511289000511169434e-01 6.578393459320068359e+00 1.407579040527343750e+01 6.196255207061767578e+00 1.690290093421936035e+00
4.100000000000000000e+01 3.910391616821289062e+01 1.461222410202026367e+00 1.483890724182128906e+01 2.146165657043457031e+01 1.089016914367675781e+01 2.473916769027709961e+00
4.200000000000000000e+01 3.925498199462890625e+01 1.331624865531921387e+00 1.092371845245361328e+01 1.719375801086425781e+01 8.435243606567382812e+00 1.670781016349792480e+00
4.300000000000000000e+01 3.940604782104492188e+01 1.202027320861816406e+00 9.096856117248535156e+00 1.491567707061767578e+01 7.203759670257568359e+00 1.574490308761596680e+00
4.400000000000000000e+01 3.955711364746093750e+01 1.072429895401000977e+00 7.556282997131347656e+00 1.300469493865966797e+01 6.168293476104736328e+00 1.252549648284912109e+00
4.500000000000000000e+01 3.913745498657226562e+01 1.509110808372497559e+00 1.537681865692138672e+01 2.001376152038574219e+01 1.061717414855957031e+01 3.008987903594970703e+00
4.600000000000000000e+01 3.931088256835937500e+01 1.411438941955566406e+00 1.214809799194335938e+01 1.626435470581054688e+01 8.523736000061035156e+00 2.258397340774536133e+00
4.700000000000000000e+01 3.948430633544921875e+01 1.313766956329345703e+00 9.881985664367675781e+00 1.364426040649414062e+01 7.057873725891113281e+00 1.795582532882690430e+00
4.800000000000000000e+01 3.965773391723632812e+01 1.216095089912414551e+00 8.615215301513671875e+00 1.241952991485595703e+01 6.310423374176025391e+00 1.667066931724548340e+00
4.900000000000000000e+01 3.916101837158203125e+01 1.562617540359497070e+00 1.575623989105224609e+01 1.959481239318847656e+01 1.060531520843505859e+01 4.076406955718994141e+00
5.000000000000000000e+01 3.935015487670898438e+01 1.500616788864135742e+00 1.247208881378173828e+01 1.509919834136962891e+01 8.271386146545410156e+00 3.147611618041992188e+00
5.100000000000000000e+01 3.953929138183593750e+01 1.438616037368774414e+00 1.047760200500488281e+01 1.329735374450683594e+01 7.132486820220947266e+00 2.774349927902221680e+00
5.200000000000000000e+01 3.972842788696289062e+01 1.376615285873413086e+00 8.918010711669921875e+00 1.149438190460205078e+01 6.123717784881591797e+00 2.343466520309448242e+00
5.300000000000000000e+01 3.917370605468750000e+01 1.619690656661987305e+00 1.522394847869873047e+01 1.890776634216308594e+01 1.023951435089111328e+01 5.156641006469726562e+00
5.400000000000000000e+01 3.937129592895507812e+01 1.595738768577575684e+00 1.237355613708496094e+01 1.515443706512451172e+01 8.258398056030273438e+00 4.447808265686035156e+00
5.500000000000000000e+01 3.956888961791992188e+01 1.571786761283874512e+00 1.020717620849609375e+01 1.274979686737060547e+01 6.887091636657714844e+00 3.883105993270874023e+00
5.600000000000000000e+01 3.976648330688476562e+01 1.547834753990173340e+00 8.833621025085449219e+00 1.167570018768310547e+01 6.152796268463134766e+00 3.451264619827270508e+00
5.700000000000000000e+01 3.917502212524414062e+01 1.678141593933105469e+00 1.439317035675048828e+01 1.933583259582519531e+01 1.011870098114013672e+01 6.256320953369140625e+00
5.800000000000000000e+01 3.937349700927734375e+01 1.693156957626342773e+00 1.131171607971191406e+01 1.511775112152099609e+01 7.928840160369873047e+00 5.684920310974121094e+00
5.900000000000000000e+01 3.957196807861328125e+01 1.708172202110290527e+00 9.422336578369140625e+00 1.334885120391845703e+01 6.831356048583984375e+00 5.045011520385742188e+00
6.000000000000000000e+01 3.977043914794921875e+01 1.723187565803527832e+00 7.994918346405029297e+00 1.178260517120361328e+01 5.933257102966308594e+00 4.499180793762207031e+00
6.100000000000000000e+01 3.916492462158203125e+01 1.735728859901428223e+00 1.276333332061767578e+01 1.963183784484863281e+01 9.718551635742187500e+00 7.231152057647705078e+00
6.200000000000000000e+01 3.935666656494140625e+01 1.789135575294494629e+00 9.780618667602539062e+00 1.611671447753906250e+01 7.769200325012207031e+00 6.599093914031982422e+00
6.300000000000000000e+01 3.954840469360351562e+01 1.842542409896850586e+00 7.864971637725830078e+00 1.386354541778564453e+01 6.518555164337158203e+00 5.940798759460449219e+00
6.400000000000000000e+01 3.974014663696289062e+01 1.895949125289916992e+00 6.665605068206787109e+00 1.280573940277099609e+01 5.841403484344482422e+00 5.309008121490478516e+00
6.500000000000000000e+01 3.914379882812500000e+01 1.790243983268737793e+00 1.080020427703857422e+01 2.070793533325195312e+01 9.452442169189453125e+00 7.759903907775878906e+00
6.600000000000000000e+01 3.932145309448242188e+01 1.879994153976440430e+00 7.606226444244384766e+00 1.702254295349121094e+01 7.388630390167236328e+00 7.065490245819091797e+00
6.700000000000000000e+01 3.949910736083984375e+01 1.969744324684143066e+00 5.963702201843261719e+00 1.504360485076904297e+01 6.302192211151123047e+00 6.298958778381347656e+00
6.800000000000000000e+01 3.967676544189453125e+01 2.059494495391845703e+00 4.781593322753906250e+00 1.364126396179199219e+01 5.526856899261474609e+00 5.699132442474365234e+00
6.900000000000000000e+01 3.911245346069335938e+01 1.839596390724182129e+00 8.263593673706054688e+00 2.183138847351074219e+01 9.028494834899902344e+00 7.782817840576171875e+00
7.000000000000000000e+01 3.926921081542968750e+01 1.962248325347900391e+00 5.326581954956054688e+00 1.818196296691894531e+01 7.052563190460205078e+00 6.796388626098632812e+00
7.100000000000000000e+01 3.942596817016601562e+01 2.084900140762329102e+00 3.781687498092651367e+00 1.599068546295166016e+01 5.931712150573730469e+00 6.119042396545410156e+00
7.200000000000000000e+01 3.958272552490234375e+01 2.207551956176757812e+00 2.715888023376464844e+00 1.470981311798095703e+01 5.227710247039794922e+00 5.519215583801269531e+00
7.300000000000000000e+01 3.907209014892578125e+01 1.881893754005432129e+00 5.611145019531250000e+00 2.299701118469238281e+01 8.582447052001953125e+00 7.006847381591796875e+00
7.400000000000000000e+01 3.920193862915039062e+01 2.032743692398071289e+00 3.079905748367309570e+00 1.901292037963867188e+01 6.627848148345947266e+00 5.841857433319091797e+00
7.500000000000000000e+01 3.933178710937500000e+01 2.183593750000000000e+00 1.711742162704467773e+00 1.669236183166503906e+01 5.521231174468994141e+00 5.317858219146728516e+00
7.600000000000000000e+01 3.946163558959960938e+01 2.334443807601928711e+00 8.103010058403015137e-01 1.536801719665527344e+01 4.853495597839355469e+00 4.845596790313720703e+00
7.700000000000000000e+01 3.902425384521484375e+01 1.915513753890991211e+00 3.182626008987426758e+00 2.385157203674316406e+01 8.110259056091308594e+00 5.345345973968505859e+00
7.800000000000000000e+01 3.912221527099609375e+01 2.088777065277099609e+00 1.149936079978942871e+00 1.923154067993164062e+01 6.114442825317382812e+00 4.319964885711669922e+00
7.900000000000000000e+01 3.922017669677734375e+01 2.262040615081787109e+00 1.051160916686058044e-01 1.681632995605468750e+01 5.076434135437011719e+00 3.964660167694091797e+00
8.000000000000000000e+01 3.931813812255859375e+01 2.435303926467895508e+00 -8.212812542915344238e-01 1.537312412261962891e+01 4.365552902221679688e+00 3.750055789947509766e+00
8.100000000000000000e+01 3.897079086303710938e+01 1.939167261123657227e+00 1.140944600105285645e+00 2.381317329406738281e+01 7.486235141754150391e+00 2.991956233978271484e+00
8.200000000000000000e+01 3.903310394287109375e+01 2.128199577331542969e+00 5.340743064880371094e-02 1.870372772216796875e+01 5.627140522003173828e+00 2.355268478393554688e+00
8.300000000000000000e+01 3.909542083740234375e+01 2.317232131958007812e+00 -1.135130047798156738e+00 1.612075424194335938e+01 4.495687484741210938e+00 2.376891851425170898e+00
8.400000000000000000e+01 3.915773773193359375e+01 2.506264448165893555e+00 -1.733549833297729492e+00 1.460020351409912109e+01 3.859996080398559570e+00 2.274664163589477539e+00
8.500000000000000000e+01 3.891373825073242188e+01 1.951947212219238281e+00 3.463005125522613525e-01 2.276205825805664062e+01 6.932507514953613281e+00 1.905490309000015259e-01
8.600000000000000000e+01 3.893801879882812500e+01 2.149499416351318359e+00 -6.107525825500488281e-01 1.717550468444824219e+01 4.969425678253173828e+00 3.596800863742828369e-01
8.700000000000000000e+01 3.896229934692382812e+01 2.347051858901977539e+00 -1.370357394218444824e+00 1.458672523498535156e+01 3.964910268783569336e+00 7.065963745117187500e-01
8.800000000000000000e+01 3.898657989501953125e+01 2.544604301452636719e+00 -2.416144132614135742e+00 1.303686809539794922e+01 3.186217308044433594e+00 8.554215431213378906e-01
8.900000000000000000e+01 3.885528945922851562e+01 1.953363418579101562e+00 2.159373164176940918e-01 2.029135513305664062e+01 6.152187347412109375e+00 -2.535240650177001953e+00
9.000000000000000000e+01 3.884060287475585938e+01 2.151859998703002930e+00 -1.225575506687164307e-01 1.486819553375244141e+01 4.423691749572753906e+00 -1.337217211723327637e+00
9.100000000000000000e+01 3.882592010498046875e+01 2.350356578826904297e+00 -1.409845471382141113e+00 1.226255702972412109e+01 3.255813598632812500e+00 -7.453185319900512695e-01
9.200000000000000000e+01 3.881123352050781250e+01 2.548853158950805664e+00 -2.056367874145507812e+00 1.062878322601318359e+01 2.571724414825439453e+00 -3.009692430496215820e-01
9.300000000000000000e+01 3.879768371582031250e+01 1.943361759185791016e+00 1.416689991950988770e+00 1.684097290039062500e+01 5.477299213409423828e+00 -4.475018501281738281e+00
9.400000000000000000e+01 3.874459838867187500e+01 2.135190486907958984e+00 4.997926652431488037e-01 1.183209609985351562e+01 3.699566602706909180e+00 -2.584790945053100586e+00
9.500000000000000000e+01 3.869150924682617188e+01 2.327019214630126953e+00 -5.457643866539001465e-01 9.485034942626953125e+00 2.681781291961669922e+00 -1.584088206291198730e+00
9.600000000000000000e+01 3.863842391967773438e+01 2.518848180770874023e+00 -1.749503135681152344e+00 7.624629497528076172e+00 1.762537956237792969e+00 -1.283222556114196777e+00
9.700000000000000000e+01 3.874313354492187500e+01 1.922325611114501953e+00 2.888665437698364258e+00 1.250106334686279297e+01 4.616918563842773438e+00 -5.454009532928466797e+00
9.800000000000000000e+01 3.865367889404296875e+01 2.100130319595336914e+00 1.569672822952270508e+00 8.701030731201171875e+00 3.081210851669311523e+00 -2.899741172790527344e+00
9.900000000000000000e+01 3.856422424316406250e+01 2.277935028076171875e+00 2.902933061122894287e-01 6.434603214263916016e+00 2.017468929290771484e+00 -2.027382135391235352e+00
1.000000000000000000e+02 3.847477340698242188e+01 2.455739736557006836e+00 -9.887405037879943848e-01 4.764961719512939453e+00 1.132866263389587402e+00 -1.579280257225036621e+00
1.010000000000000000e+02 3.869372940063476562e+01 1.891061782836914062e+00 4.278553962707519531e+00 8.326972961425781250e+00 3.781658172607421875e+00 -5.010178089141845703e+00
1.020000000000000000e+02 3.857133865356445312e+01 2.048023939132690430e+00 2.426552772521972656e+00 5.536487102508544922e+00 2.388911962509155273e+00 -2.571763753890991211e+00
1.030000000000000000e+02 3.844894790649414062e+01 2.204986095428466797e+00 1.025518417358398438e+00 3.839130878448486328e+00 1.459394812583923340e+00 -1.723558306694030762e+00
1.040000000000000000e+02 3.832655715942382812e+01 2.361948013305664062e+00 -2.121034711599349976e-01 2.257222175598144531e+00 6.135356426239013672e-01 -1.527203083038330078e+00
1.050000000000000000e+02 3.865136718750000000e+01 1.850769162178039551e+00 4.992702484130859375e+00 4.624056816101074219e+00 2.885027647018432617e+00 -3.511426448822021484e+00
1.060000000000000000e+02 3.850073242187500000e+01 1.980869412422180176e+00 2.652492761611938477e+00 3.048671245574951172e+00 1.710349202156066895e+00 -1.593192815780639648e+00
1.070000000000000000e+02 3.835009765625000000e+01 2.110969781875610352e+00 1.456605553627014160e+00 1.710727572441101074e+00 9.501999020576477051e-01 -9.650099277496337891e-01
1.080000000000000000e+02 3.819946289062500000e+01 2.241070032119750977e+00 1.529643684625625610e-01 6.778177022933959961e-01 2.492346167564392090e-01 -9.898624420166015625e-01
1.090000000000000000e+02 3.861766815185546875e+01 1.802992820739746094e+00 4.251588344573974609e+00 2.082310438156127930e+00 1.900169610977172852e+00 -1.490919351577758789e+00
1.100000000000000000e+02 3.844456481933593750e+01 1.901242256164550781e+00 2.297925472259521484e+00 1.259977936744689941e+00 1.067371010780334473e+00 -2.517214119434356689e-01
1.110000000000000000e+02 3.827146530151367188e+01 1.999491572380065918e+00 1.107237815856933594e+00 4.522484540939331055e-01 4.678458869457244873e-01 -2.621998079121112823e-02
1.120000000000000000e+02 3.809836578369140625e+01 2.097740888595581055e+00 2.389566600322723389e-01 -2.018866688013076782e-01 1.112099736928939819e-02 -1.400323957204818726e-01
1.130000000000000000e+02 3.859392166137695312e+01 1.749564886093139648e+00 2.282489776611328125e+00 7.668469548225402832e-01 9.148010015487670898e-01 5.042791366577148438e-01
1.140000000000000000e+02 3.840499496459960938e+01 1.812195777893066406e+00 9.015243053436279297e-01 2.719720005989074707e-01 3.520489037036895752e-01 9.004393815994262695e-01
1.150000000000000000e+02 3.821606826782226562e+01 1.874826550483703613e+00 3.294696211814880371e-01 7.241015881299972534e-02 1.205639317631721497e-01 8.966885209083557129e-01
1.160000000000000000e+02 3.802713775634765625e+01 1.937457323074340820e+00 -2.648546099662780762e-01 -5.604608058929443359e-01 -2.475946247577667236e-01 4.851882159709930420e-01
1.170000000000000000e+02 3.858104705810546875e+01 1.692534327507019043e+00 -1.216183066368103027e+00 2.722710669040679932e-01 -2.831735908985137939e-01 1.542044878005981445e+00
1.180000000000000000e+02 3.838353729248046875e+01 1.717144846916198730e+00 -1.004575371742248535e+00 8.528508245944976807e-02 -2.757870852947235107e-01 1.637973308563232422e+00
1.190000000000000000e+02 3.818602371215820312e+01 1.741755247116088867e+00 -1.034113287925720215e+00 2.221101075410842896e-01 -2.436009496450424194e-01 1.236004114151000977e+00
1.200000000000000000e+02 3.798851394653320312e+01 1.766365647315979004e+00 -7.637793421745300293e-01 -2.631927728652954102e-01 -3.080916404724121094e-01 6.509325504302978516e-01
1.210000000000000000e+02 3.857953262329101562e+01 1.634088158607482910e+00 -5.634721279144287109e+00 1.926852166652679443e-01 -1.632610797882080078e+00 1.568362832069396973e+00
1.220000000000000000e+02 3.838101196289062500e+01 1.619734406471252441e+00 -3.693119764328002930e+00 3.422797620296478271e-01 -1.005252003669738770e+00 1.038345575332641602e+00
1.230000000000000000e+02 3.818249130249023438e+01 1.605380773544311523e+00 -1.560324788093566895e+00 4.476066827774047852e-01 -3.338154256343841553e-01 6.927862167358398438e-01
1.240000000000000000e+02 3.798397064208984375e+01 1.591027140617370605e+00 -1.157574892044067383e+00 -6.617071339860558510e-04 -3.474709987640380859e-01 6.402947902679443359e-01
1.250000000000000000e+02 3.858943939208984375e+01 1.576467633247375488e+00 -1.211041641235351562e+01 -6.144355535507202148e-01 -3.817455530166625977e+00 -1.677411198616027832e+00
1.260000000000000000e+02 3.839752197265625000e+01 1.523700237274169922e+00 -3.830946445465087891e+00 1.202695965766906738e-01 -1.113203048706054688e+00 -8.087093830108642578e-01
1.270000000000000000e+02 3.820560455322265625e+01 1.470932841300964355e+00 -1.890415549278259277e+00 1.971552334725856781e-02 -5.612100362777709961e-01 -3.379992023110389709e-02
1.280000000000000000e+02 3.801368713378906250e+01 1.418165445327758789e+00 -6.591580510139465332e-01 1.495307385921478271e-01 -1.528881937265396118e-01 1.066472604870796204e-01
1.290000000000000000e+02 1.777486610412597656e+01 1.073900461196899414e+00 -7.068706750869750977e-01 4.952966868877410889e-01 -6.347219645977020264e-02 -4.922526329755783081e-02
1.300000000000000000e+02 1.792778015136718750e+01 4.714254438877105713e-01 -5.236615538597106934e-01 -3.277227580547332764e-01 -2.554152905941009521e-01 -7.191616576164960861e-03
1.310000000000000000e+02 1.644459342956542969e+01 1.723731011152267456e-01 -4.715449213981628418e-01 -2.658992111682891846e-01 -2.212332487106323242e-01 -8.366455137729644775e-02
1.320000000000000000e+02 1.848871994018554688e+01 6.747622489929199219e-01 -4.788976609706878662e-01 3.757911622524261475e-01 -3.093194961547851562e-02 1.363184954971075058e-02
1.330000000000000000e+02 1.726383209228515625e+01 2.464335858821868896e-01 -4.097211360931396484e-01 3.273673057556152344e-01 -2.470614574849605560e-02 -1.002779826521873474e-01
1.340000000000000000e+02 1.847787094116210938e+01 1.163098692893981934e+00 -7.109029889106750488e-01 -5.516054034233093262e-01 -3.787525296211242676e-01 -4.807511717081069946e-02
1.350000000000000000e+02 1.630637359619140625e+01 9.048026204109191895e-01 -5.703527927398681641e-01 2.498177587985992432e-01 -9.616050124168395996e-02 -1.224161088466644287e-01
1.360000000000000000e+02 1.839068794250488281e+01 1.810296177864074707e-01 -7.417988181114196777e-01 8.020944893360137939e-02 -1.984768062829971313e-01 -1.020909100770950317e-01
1.370000000000000000e+02 1.705963325500488281e+01 9.744657874107360840e-01 -6.880604028701782227e-01 -3.354299068450927734e-01 -3.070470988750457764e-01 -6.165580451488494873e-02
1.380000000000000000e+02 2.069370651245117188e+01 3.904900848865509033e-01 -9.424288868904113770e-01 8.123591542243957520e-01 -3.902091830968856812e-02 6.142798662185668945e-01
1.390000000000000000e+02 2.311314582824707031e+01 -1.502791643142700195e-01 -1.569004893302917480e+00 4.399315416812896729e-01 -3.387219905853271484e-01 9.576905518770217896e-02
1.400000000000000000e+02 2.569888687133789062e+01 -5.156913399696350098e-01 -3.817420721054077148e+00 4.146466255187988281e-01 -1.020832180976867676e+00 1.092687368392944336e+00
1.410000000000000000e+02 2.401404762268066406e+01 3.338841721415519714e-02 -1.434091448783874512e+00 9.445434808731079102e-01 -1.468643993139266968e-01 -2.929101884365081787e-01
1.420000000000000000e+02 2.763137626647949219e+01 -1.746285796165466309e+00 1.204123377799987793e+00 1.679238319396972656e+00 8.650085330009460449e-01 -8.188779950141906738e-01
1.430000000000000000e+02 2.771944427490234375e+01 -1.175511240959167480e+00 -2.695229530334472656e+00 -7.070696353912353516e-01 -1.020689725875854492e+00 1.178539156913757324e+00
1.440000000000000000e+02 2.848646163940429688e+01 -2.198873519897460938e+00 1.940737366676330566e-01 -8.357310891151428223e-01 -1.924972087144851685e-01 -2.888599596917629242e-02
1.450000000000000000e+02 2.930397224426269531e+01 -2.423318624496459961e+00 -6.134800910949707031e-01 1.885346472263336182e-01 -1.274836212396621704e-01 3.280129749327898026e-03
1.460000000000000000e+02 1.982421684265136719e+01 3.275624811649322510e-01 -6.868153810501098633e-01 2.013193517923355103e-01 -1.456488072872161865e-01 -1.516353338956832886e-01
1.470000000000000000e+02 1.909939575195312500e+01 1.000163033604621887e-01 -3.359622061252593994e-01 9.893000125885009766e-02 -7.110965996980667114e-02 -1.191977038979530334e-01
1.480000000000000000e+02 1.978351783752441406e+01 -9.413920342922210693e-02 -6.680550985038280487e-03 -2.195631414651870728e-01 -6.787311285734176636e-02 -2.865716814994812012e-02
1.490000000000000000e+02 2.930961036682128906e+01 -1.660121440887451172e+00 -1.476740002632141113e+00 -4.533624053001403809e-01 -5.790306925773620605e-01 4.384970664978027344e-01
1.500000000000000000e+02 3.012296295166015625e+01 -2.638345956802368164e+00 -4.232752621173858643e-01 -8.743043541908264160e-01 -3.892738819122314453e-01 -9.530003368854522705e-02
1.510000000000000000e+02 3.009844779968261719e+01 -1.867299437522888184e+00 -1.743487358093261719e+00 -1.655530929565429688e-02 -5.280128121376037598e-01 1.150403022766113281e-01
1.520000000000000000e+02 2.688036918640136719e+01 -8.299868702888488770e-01 -4.131783008575439453e+00 -1.695071160793304443e-01 -1.290387153625488281e+00 1.589297652244567871e+00
1.530000000000000000e+02 2.669494247436523438e+01 -1.065739393234252930e+00 2.276497125625610352e+00 4.948509633541107178e-01 8.314043879508972168e-01 -1.776882052421569824e+00
1.540000000000000000e+02 2.604942893981933594e+01 -5.149537920951843262e-01 -6.023585319519042969e+00 -9.719105362892150879e-01 -2.098648786544799805e+00 1.408849239349365234e+00
1.550000000000000000e+02 2.534797477722167969e+01 -2.902369797229766846e-01 -3.817775487899780273e+00 1.529256343841552734e+00 -6.865557432174682617e-01 1.085268974304199219e+00
1.560000000000000000e+02 2.502335357666015625e+01 -2.417187690734863281e-01 -1.408066082000732422e+01 -1.867915153503417969e+00 -4.784573078155517578e+00 5.350516319274902344e+00
1.570000000000000000e+02 2.246835899353027344e+01 1.378261744976043701e-01 -1.045562624931335449e+00 1.699787259101867676e+00 1.962673664093017578e-01 -5.955690145492553711e-01
1.580000000000000000e+02 2.035116004943847656e+01 -1.736120879650115967e-01 3.959288075566291809e-02 1.262957811355590820e+00 3.907651901245117188e-01 -3.990529477596282959e-01
1.590000000000000000e+02 1.996188163757324219e+01 8.227458000183105469e-01 -1.147212505340576172e+00 -6.434401273727416992e-01 -5.371958017349243164e-01 -2.839283086359500885e-03
1.600000000000000000e+02 1.914756202697753906e+01 5.841042995452880859e-01 -8.753292560577392578e-01 -1.450996249914169312e-01 -3.061286509037017822e-01 -5.199322849512100220e-02
1.610000000000000000e+02 1.921282958984375000e+01 1.082078099250793457e+00 -6.890616416931152344e-01 5.760742425918579102e-01 -3.389621153473854065e-02 1.772119700908660889e-01
1.620000000000000000e+02 2.161278152465820312e+01 8.425430953502655029e-02 -7.720299959182739258e-01 -1.164951443672180176e+00 -5.810944437980651855e-01 2.261722236871719360e-01
1.630000000000000000e+02 2.852224922180175781e+01 -1.443525433540344238e+00 -1.856373310089111328e+00 -1.965175271034240723e-01 -6.158672571182250977e-01 7.988696098327636719e-01
1.640000000000000000e+02 2.421053886413574219e+01 -1.071830093860626221e-01 -9.174910545349121094e+00 -4.702019095420837402e-01 -2.893533706665039062e+00 7.232663631439208984e-01
1.650000000000000000e+02 2.475981521606445312e+01 -1.221572384238243103e-01 -1.026998329162597656e+01 -2.830711603164672852e+00 -3.930208444595336914e+00 3.030439138412475586e+00
1.660000000000000000e+02 2.316209220886230469e+01 1.658043712377548218e-01 -1.810464859008789062e+00 -1.188920259475708008e+00 -8.998155593872070312e-01 1.023810029029846191e+00
1.670000000000000000e+02 3.323424148559570312e+01 -1.178823471069335938e+00 -1.057790994644165039e+00 2.722563445568084717e-01 -2.356603890657424927e-01 -1.793020218610763550e-01
1.680000000000000000e+02 3.254612731933593750e+01 -2.088479995727539062e+00 -4.949066340923309326e-01 6.044207215309143066e-01 3.285422176122665405e-02 -7.663294672966003418e-02
1.690000000000000000e+02 3.313323211669921875e+01 -1.905991792678833008e+00 -3.385013639926910400e-01 3.350227475166320801e-01 -1.043583848513662815e-03 4.438640177249908447e-01
1.700000000000000000e+02 3.345050048828125000e+01 -1.349192380905151367e+00 -6.347039341926574707e-01 6.348026394844055176e-01 2.962073813250754029e-05 2.567518353462219238e-01
1.710000000000000000e+02 3.342295837402343750e+01 -1.172991514205932617e+00 -9.187815189361572266e-01 1.140115857124328613e-01 -2.414309829473495483e-01 -1.746697425842285156e-01
1.720000000000000000e+02 3.278313064575195312e+01 -1.040291309356689453e+00 -1.436197400093078613e+00 2.854886949062347412e-01 -3.452126085758209229e-01 -5.387691259384155273e-01
1.730000000000000000e+02 3.305778121948242188e+01 -7.394024729728698730e-01 -1.422776699066162109e+00 -8.062600344419479370e-02 -4.510208070278167725e-01 -6.826527714729309082e-01
1.740000000000000000e+02 3.174377250671386719e+01 -2.303175687789916992e+00 -7.043781876564025879e-01 -4.675731062889099121e-01 -3.515853881835937500e-01 -1.726591438055038452e-01
1.750000000000000000e+02 3.086289215087890625e+01 -1.835228919982910156e+00 -1.755931138992309570e+00 -6.621326804161071777e-01 -7.254191637039184570e-01 -3.346251249313354492e-01
1.760000000000000000e+02 3.093039894104003906e+01 -2.599794864654541016e+00 -4.557190537452697754e-01 -6.350051611661911011e-02 -1.557658761739730835e-01 -6.977731734514236450e-02
1.770000000000000000e+02 3.317014694213867188e+01 -1.379196643829345703e+00 -1.014684319496154785e+00 1.439937800168991089e-01 -2.612071633338928223e-01 -1.166364774107933044e-01
1.780000000000000000e+02 3.324458312988281250e+01 -8.885482549667358398e-01 -1.172393798828125000e+00 -7.484639436006546021e-02 -3.741720616817474365e-01 -3.309925794601440430e-01
1.790000000000000000e+02 3.348078918457031250e+01 -1.539823651313781738e+00 -4.191380441188812256e-01 2.340637743473052979e-01 -5.552228167653083801e-02 2.785197198390960693e-01
1.800000000000000000e+02 3.336038589477539062e+01 -1.025797605514526367e+00 -9.343630075454711914e-01 1.479335129261016846e-01 -2.359288483858108521e-01 -2.870830595493316650e-01
1.810000000000000000e+02 3.304969024658203125e+01 -1.094967484474182129e+00 -1.001163005828857422e+00 -1.849488019943237305e-01 -3.558335602283477783e-01 -5.644214153289794922e-01
1.820000000000000000e+02 3.230847930908203125e+01 -1.227923274040222168e+00 -1.495428681373596191e+00 -5.947747826576232910e-01 -6.270610690116882324e-01 -4.649766683578491211e-01
1.830000000000000000e+02 3.162043190002441406e+01 -1.559420228004455566e+00 -1.472966313362121582e+00 1.008985936641693115e-01 -4.116203188896179199e-01 -6.224712133407592773e-01
1.840000000000000000e+02 3.265008163452148438e+01 -1.595770478248596191e+00 -1.045958638191223145e+00 -5.310756713151931763e-02 -3.297198414802551270e-01 -2.791854441165924072e-01
1.850000000000000000e+02 3.352508926391601562e+01 -1.720353603363037109e+00 -3.010555207729339600e-01 8.006548285484313965e-01 1.498797833919525146e-01 3.078044652938842773e-01
1.860000000000000000e+02 3.348044204711914062e+01 -1.935517787933349609e+00 -2.577174901962280273e-01 5.998888611793518066e-01 1.026514098048210144e-01 4.127109646797180176e-01
1.870000000000000000e+02 3.311341476440429688e+01 -1.628976345062255859e+00 -6.124948263168334961e-01 7.618625760078430176e-01 4.481032118201255798e-02 2.503197789192199707e-01
1.880000000000000000e+02 3.289918136596679688e+01 -1.294440150260925293e+00 -1.449850440025329590e+00 1.804625689983367920e-01 -3.808163404464721680e-01 -2.269570976495742798e-01
1.890000000000000000e+02 3.751695632934570312e+01 2.028533697128295898e+00 -1.984724521636962891e+00 -1.913634061813354492e+00 -1.169507622718811035e+00 -1.194864630699157715e+00
1.900000000000000000e+02 3.980694580078125000e+01 1.116851568222045898e+00 7.445206642150878906e+00 1.104229450225830078e+01 5.546250343322753906e+00 1.320026993751525879e+00
1.910000000000000000e+02 3.952219390869140625e+01 7.988809943199157715e-01 5.463536739349365234e+00 1.275805664062500000e+01 5.466478347778320312e+00 1.511095046997070312e+00
1.920000000000000000e+02 3.745627975463867188e+01 6.716853976249694824e-01 5.473198890686035156e+00 2.413254976272583008e+00 2.365936040878295898e+00 4.011680126190185547e+00
1.930000000000000000e+02 3.913779830932617188e+01 5.593390464782714844e-01 3.824718236923217773e+00 1.331184482574462891e+01 5.140968799591064453e+00 3.779791355133056641e+00
1.940000000000000000e+02 3.972362518310546875e+01 2.300199270248413086e+00 2.305544614791870117e+00 1.384596538543701172e+01 4.845453262329101562e+00 5.118123531341552734e+00
1.950000000000000000e+02 3.776724243164062500e+01 1.782599568367004395e+00 -1.129948019981384277e+00 -7.955821156501770020e-01 -5.776590704917907715e-01 1.366161257028579712e-01
1.960000000000000000e+02 3.665320968627929688e+01 1.270294308662414551e+00 -1.597571372985839844e+00 -1.077649474143981934e+00 -8.025662302970886230e-01 -1.654949665069580078e+00
1.970000000000000000e+02 3.428163909912109375e+01 2.883312702178955078e-01 -4.737027168273925781e+00 -4.664276540279388428e-01 -1.561036467552185059e+00 -1.672827720642089844e+00
1.980000000000000000e+02 3.287925720214843750e+01 8.253902792930603027e-01 -1.314911365509033203e+00 4.613761007785797119e-01 -2.560605704784393311e-01 -1.388885825872421265e-01
1.990000000000000000e+02 3.310251998901367188e+01 2.331087142229080200e-01 -3.252953290939331055e+00 3.743709996342658997e-02 -9.646548628807067871e-01 -6.060758233070373535e-01
2.000000000000000000e+02 3.317856216430664062e+01 3.704985231161117554e-02 -3.838843822479248047e+00 4.461077600717544556e-02 -1.138269901275634766e+00 -9.033164978027343750e-01
2.010000000000000000e+02 3.361917114257812500e+01 4.342332184314727783e-01 -3.137950897216796875e+00 1.132005900144577026e-01 -9.074251055717468262e-01 -7.618138790130615234e-01
2.020000000000000000e+02 3.370572662353515625e+01 8.724438548088073730e-01 -1.465742826461791992e+00 3.747563362121582031e-01 -3.272959589958190918e-01 -4.981405436992645264e-01
2.030000000000000000e+02 3.411531448364257812e+01 1.662967354059219360e-01 -5.006694316864013672e+00 -4.856744408607482910e-01 -1.647710561752319336e+00 -1.675692439079284668e+00
2.040000000000000000e+02 3.333160781860351562e+01 -3.575314581394195557e-01 -5.118127822875976562e+00 -8.111686110496520996e-01 -1.778788924217224121e+00 -1.782439589500427246e+00
2.050000000000000000e+02 3.325568771362304688e+01 -1.589558571577072144e-01 -4.483456611633300781e+00 -2.845685482025146484e-01 -1.430407524108886719e+00 -1.284081339836120605e+00
2.060000000000000000e+02 3.324737167358398438e+01 9.626783728599548340e-01 -1.064338922500610352e+00 5.274636149406433105e-01 -1.610625833272933960e-01 -2.708213925361633301e-01
2.070000000000000000e+02 3.417398071289062500e+01 1.292539954185485840e+00 6.613761782646179199e-01 5.295758843421936035e-01 3.572856187820434570e-01 -8.638149499893188477e-01
2.080000000000000000e+02 3.648998260498046875e+01 8.424863815307617188e-01 -1.984139442443847656e+00 -4.614669978618621826e-01 -7.336819171905517578e-01 -1.006615161895751953e+00
2.090000000000000000e+02 3.664928817749023438e+01 9.361269474029541016e-01 -1.396068692207336426e+00 -3.969925940036773682e-01 -5.379183888435363770e-01 -9.126919507980346680e-01
2.100000000000000000e+02 3.735738372802734375e+01 1.462751388549804688e+00 -7.571647763252258301e-01 -5.562142133712768555e-01 -3.940137028694152832e-01 -5.104574561119079590e-01
2.110000000000000000e+02 3.782120132446289062e+01 1.363250136375427246e+00 -1.192807555198669434e-01 -4.080463573336601257e-02 -4.802561551332473755e-02 1.636524945497512817e-01
2.120000000000000000e+02 3.930148696899414062e+01 2.847929000854492188e+00 -2.709550857543945312e+00 1.329956817626953125e+01 3.177005290985107422e+00 2.046626329421997070e+00
2.130000000000000000e+02 3.901282882690429688e+01 2.757013320922851562e+00 -2.737161159515380859e+00 1.191798019409179688e+01 2.754245519638061523e+00 9.448560476303100586e-01
2.140000000000000000e+02 3.824166107177734375e+01 2.573110342025756836e+00 -1.623324632644653320e+00 1.116939306259155273e+00 -1.519156247377395630e-01 -1.744313001632690430e+00
2.150000000000000000e+02 3.806597900390625000e+01 2.418920278549194336e+00 -1.192365884780883789e+00 -6.320346593856811523e-01 -5.473201870918273926e-01 -1.593733549118041992e+00
2.160000000000000000e+02 3.756201171875000000e+01 1.530884861946105957e+00 -7.846450209617614746e-01 -4.510002434253692627e-01 -3.706935644149780273e-01 -1.763227880001068115e-01
2.170000000000000000e+02 3.790205383300781250e+01 1.162594676017761230e+00 8.669187545776367188e+00 1.826262712478637695e+00 3.148635149002075195e+00 4.254975795745849609e+00
2.180000000000000000e+02 3.801348495483398438e+01 9.874264001846313477e-01 8.430713653564453125e+00 3.790189027786254883e+00 3.666270971298217773e+00 5.475685119628906250e+00
2.190000000000000000e+02 3.913440704345703125e+01 2.848538756370544434e-01 2.906584978103637695e+00 1.166155815124511719e+01 4.370442867279052734e+00 3.844555139541625977e+00
2.200000000000000000e+02 3.814944076538085938e+01 8.307768106460571289e-01 7.438002109527587891e+00 5.378301620483398438e+00 3.844891071319580078e+00 6.609270572662353516e+00
2.210000000000000000e+02 3.641154098510742188e+01 5.495323538780212402e-01 2.992679357528686523e+00 7.001618146896362305e-01 1.107852339744567871e+00 1.636013150215148926e+00
2.220000000000000000e+02 3.683992767333984375e+01 -3.075870275497436523e-01 2.222773075103759766e+00 3.228350162506103516e+00 1.635336875915527344e+00 3.786563158035278320e+00
2.230000000000000000e+02 3.547559356689453125e+01 1.966823637485504150e-01 9.846752882003784180e-01 5.278891324996948242e-01 4.537693262100219727e-01 5.512291193008422852e-01
2.240000000000000000e+02 3.448106384277343750e+01 -3.281958401203155518e-01 -4.070740044116973877e-01 2.211727946996688843e-01 -5.577036365866661072e-02 1.715088635683059692e-01
2.250000000000000000e+02 3.412203216552734375e+01 -5.728984475135803223e-01 -8.087931871414184570e-01 -2.673848904669284821e-02 -2.506594955921173096e-01 1.190727129578590393e-01
2.260000000000000000e+02 3.355922317504882812e+01 -9.365857243537902832e-01 -1.002711176872253418e+00 -4.379336908459663391e-02 -3.139513731002807617e-01 -1.306975632905960083e-01
2.270000000000000000e+02 3.342099380493164062e+01 -5.839741230010986328e-01 -1.712447524070739746e+00 -5.019724369049072266e-01 -6.643260121345520020e-01 -2.609149217605590820e-01
2.280000000000000000e+02 3.387715530395507812e+01 -1.786513328552246094e+00 -2.277749031782150269e-01 1.797692656517028809e+00 4.709753394126892090e-01 6.237478852272033691e-01
2.290000000000000000e+02 3.380944824218750000e+01 -1.610397100448608398e+00 -3.193685710430145264e-01 5.845351815223693848e-01 7.954997569322586060e-02 5.692324042320251465e-01
2.300000000000000000e+02 3.361849594116210938e+01 -1.109644174575805664e+00 -7.034789919853210449e-01 5.481479167938232422e-01 -4.659930989146232605e-02 1.602056622505187988e-01
2.310000000000000000e+02 3.850099945068359375e+01 5.892648100852966309e-01 5.042000293731689453e+00 9.622201919555664062e+00 4.399260997772216797e+00 6.842873573303222656e+00
2.320000000000000000e+02 3.838116455078125000e+01 1.332790404558181763e-02 2.816038370132446289e+00 8.449949264526367188e+00 3.379796266555786133e+00 5.743226528167724609e+00
2.330000000000000000e+02 3.690732574462890625e+01 4.907882809638977051e-01 4.104107379913330078e+00 1.876161336898803711e+00 1.794080615043640137e+00 2.831832408905029297e+00
2.340000000000000000e+02 3.725434875488281250e+01 -4.840745627880096436e-01 2.024047613143920898e+00 4.727941036224365234e+00 2.025596618652343750e+00 4.512012958526611328e+00
2.350000000000000000e+02 3.644658660888671875e+01 -2.259926348924636841e-01 1.855736255645751953e+00 2.553698539733886719e+00 1.322830438613891602e+00 2.869065523147583008e+00
2.360000000000000000e+02 3.444769668579101562e+01 -1.557534098625183105e+00 -1.944599486887454987e-02 9.871152639389038086e-01 2.903007864952087402e-01 1.288518428802490234e+00
2.370000000000000000e+02 3.974950027465820312e+01 2.531269073486328125e+00 4.268416166305541992e-01 1.389922714233398438e+01 4.297820568084716797e+00 4.281700611114501953e+00
2.380000000000000000e+02 4.028476715087890625e+01 1.896234393119812012e+00 5.319338798522949219e+00 1.033802795410156250e+01 4.697210311889648438e+00 3.729237079620361328e+00
2.390000000000000000e+02 3.994826507568359375e+01 1.720227837562561035e+00 7.228993415832519531e+00 1.121307468414306641e+01 5.532620429992675781e+00 4.038497447967529297e+00
2.400000000000000000e+02 3.461816024780273438e+01 -1.509284257888793945e+00 2.710978873074054718e-02 1.747536778450012207e+00 5.323939919471740723e-01 1.024271726608276367e+00
2.410000000000000000e+02 3.306305694580078125e+01 8.944058418273925781e-01 -1.327402114868164062e+00 3.839598894119262695e-01 -2.830326557159423828e-01 -1.234261244535446167e-01
2.420000000000000000e+02 3.517602539062500000e+01 3.961900174617767334e-01 -5.426221847534179688e+00 -8.903105258941650391e-01 -1.894959688186645508e+00 -2.272072792053222656e+00
2.430000000000000000e+02 3.537103271484375000e+01 4.703843891620635986e-01 -5.107450485229492188e+00 -8.928813934326171875e-01 -1.800099492073059082e+00 -2.194680929183959961e+00
2.440000000000000000e+02 3.983112716674804688e+01 2.128007888793945312e+00 4.079396724700927734e+00 1.305551815032958984e+01 5.140474319458007812e+00 5.204279899597167969e+00
2.450000000000000000e+02 3.970520019531250000e+01 2.824121713638305664e+00 -1.382654666900634766e+00 1.389105415344238281e+01 3.752519845962524414e+00 3.068385362625122070e+00
2.460000000000000000e+02 3.764654541015625000e+01 2.651011943817138672e+00 -4.399379730224609375e+00 -3.776386737823486328e+00 -2.452729940414428711e+00 -3.964476585388183594e+00
2.470000000000000000e+02 3.941819381713867188e+01 2.593057155609130859e+00 -1.133348584175109863e+00 1.461119651794433594e+01 4.043354511260986328e+00 3.465915441513061523e+00
2.480000000000000000e+02 3.880881500244140625e+01 2.760165929794311523e+00 -2.993390798568725586e+00 9.446587562561035156e+00 1.935958981513977051e+00 -2.227433770895004272e-01
2.490000000000000000e+02 3.861365890502929688e+01 2.730424642562866211e+00 -2.490471839904785156e+00 6.742191314697265625e+00 1.275515794754028320e+00 -8.624168038368225098e-01
2.500000000000000000e+02 3.937320709228515625e+01 2.982392072677612305e+00 -2.705258846282958984e+00 1.316750240325927734e+01 3.138673067092895508e+00 2.102505922317504883e+00
2.510000000000000000e+02 3.934411621093750000e+01 6.639042496681213379e-01 4.457377910614013672e+00 1.342178440093994141e+01 5.363748550415039062e+00 2.598600387573242188e+00
2.520000000000000000e+02 3.968098068237304688e+01 9.405713677406311035e-01 6.721415996551513672e+00 1.216846466064453125e+01 5.666964054107666016e+00 1.258416652679443359e+00
2.530000000000000000e+02 3.759043121337890625e+01 5.034932494163513184e-01 5.189277648925781250e+00 3.665710926055908203e+00 2.656496524810791016e+00 4.608139514923095703e+00
2.540000000000000000e+02 3.871183776855468750e+01 5.516683459281921387e-01 4.389093875885009766e+00 1.165307807922363281e+01 4.812651634216308594e+00 6.190806388854980469e+00
2.550000000000000000e+02 4.002419662475585938e+01 1.254981517791748047e+00 7.345894813537597656e+00 1.003119659423828125e+01 5.213127613067626953e+00 1.836845636367797852e+00
2.560000000000000000e+02 3.988597488403320312e+01 1.315609455108642578e+00 8.137714385986328125e+00 1.094236755371093750e+01 5.724024772644042969e+00 2.153198480606079102e+00
2.570000000000000000e+02 3.858421707153320312e+01 6.384802609682083130e-02 2.903538942337036133e+00 9.409888267517089844e+00 3.694028139114379883e+00 5.574544429779052734e+00
2.580000000000000000e+02 3.772209548950195312e+01 1.079574227333068848e+00 7.711453914642333984e+00 1.914658427238464355e+00 2.887833833694458008e+00 3.663886308670043945e+00
2.590000000000000000e+02 3.991477584838867188e+01 1.932059407234191895e+00 5.879183769226074219e+00 1.167940044403076172e+01 5.267575263977050781e+00 4.772017955780029297e+00
2.600000000000000000e+02 3.822488403320312500e+01 2.859975814819335938e+00 -2.859573602676391602e+00 -8.147642016410827637e-02 -8.823149800300598145e-01 -2.067071199417114258e+00
2.610000000000000000e+02 3.990906524658203125e+01 8.540602922439575195e-01 6.123388767242431641e+00 1.054715633392333984e+01 5.001163482666015625e+00 9.845327734947204590e-01
2.620000000000000000e+02 3.861727142333984375e+01 2.988027572631835938e+00 -3.231227636337280273e+00 5.859012126922607422e+00 7.883353829383850098e-01 -7.749179601669311523e-01
2.630000000000000000e+02 3.980574417114257812e+01 5.970166921615600586e-01 4.742245197296142578e+00 1.078568744659423828e+01 4.658380031585693359e+00 1.096596717834472656e+00
2.640000000000000000e+02 3.959049224853515625e+01 2.460732936859130859e+00 2.935700714588165283e-01 1.458837318420410156e+01 4.464582920074462891e+00 4.482329845428466797e+00
2.650000000000000000e+02 4.014069747924804688e+01 2.250759363174438477e+00 3.372525930404663086e+00 1.183974838256835938e+01 4.563682079315185547e+00 4.246778964996337891e+00
2.660000000000000000e+02 4.019134521484375000e+01 1.183207511901855469e+00 6.726162433624267578e+00 9.469407081604003906e+00 4.858670711517333984e+00 1.544974446296691895e+00
2.670000000000000000e+02 4.010885238647460938e+01 1.657179832458496094e+00 6.751363277435302734e+00 1.016566371917724609e+01 5.075108051300048828e+00 3.334506750106811523e+00
2.680000000000000000e+02 4.007380294799804688e+01 1.454904317855834961e+00 7.468990802764892578e+00 1.019772911071777344e+01 5.300015926361083984e+00 2.660785913467407227e+00
2.690000000000000000e+02 3.901821899414062500e+01 3.008602619171142578e+00 -3.508479595184326172e+00 1.083710575103759766e+01 2.198587894439697266e+00 8.480057120323181152e-01
2.700000000000000000e+02 3.881374740600585938e+01 3.011643886566162109e+00 -3.216706991195678711e+00 8.515123367309570312e+00 1.589524745941162109e+00 1.195547804236412048e-01
2.710000000000000000e+02 3.920718002319335938e+01 3.009533166885375977e+00 -3.092784404754638672e+00 1.241874313354492188e+01 2.797787666320800781e+00 1.429836034774780273e+00
2.720000000000000000e+02 3.993480682373046875e+01 2.583673238754272461e+00 7.432273030281066895e-01 1.330681419372558594e+01 4.215012550354003906e+00 3.999903917312622070e+00
2.730000000000000000e+02 4.022080612182617188e+01 2.068891286849975586e+00 4.433143138885498047e+00 1.088610076904296875e+01 4.595773220062255859e+00 3.964839220046997070e+00
2.740000000000000000e+02 4.011960220336914062e+01 9.975010156631469727e-01 6.316161632537841797e+00 9.500427246093750000e+00 4.744976520538330078e+00 1.179233670234680176e+00
2.750000000000000000e+02 3.994355010986328125e+01 7.037657499313354492e-01 5.108263492584228516e+00 1.037999629974365234e+01 4.646478176116943359e+00 9.546760916709899902e-01
2.760000000000000000e+02 3.954223632812500000e+01 2.904015779495239258e+00 -2.128867626190185547e+00 1.367449188232421875e+01 3.463687181472778320e+00 2.508438348770141602e+00
2.770000000000000000e+02 3.921816635131835938e+01 2.696699857711791992e+00 -2.519975662231445312e+00 1.364328193664550781e+01 3.336991786956787109e+00 2.104897975921630859e+00
2.780000000000000000e+02 3.948704528808593750e+01 3.820571303367614746e-01 3.571923732757568359e+00 1.164790248870849609e+01 4.565948009490966797e+00 2.537668943405151367e+00
2.790000000000000000e+02 3.612048721313476562e+01 7.529245018959045410e-01 -3.135497570037841797e+00 -8.298033475875854492e-01 -1.189590215682983398e+00 -1.605034351348876953e+00
2.800000000000000000e+02 3.390830612182617188e+01 -1.461000293493270874e-01 -5.723224639892578125e+00 -6.197018623352050781e-01 -1.902878046035766602e+00 -2.024026155471801758e+00
2.810000000000000000e+02 3.396136856079101562e+01 2.634405717253684998e-02 -5.246243953704833984e+00 -5.114560127258300781e-01 -1.727309942245483398e+00 -1.793246030807495117e+00
2.820000000000000000e+02 3.416072082519531250e+01 7.709364891052246094e-01 -2.200186014175415039e+00 1.457388550043106079e-01 -6.163341403007507324e-01 -9.992887973785400391e-01
2.830000000000000000e+02 3.632591629028320312e+01 7.840837240219116211e-01 -2.618185520172119141e+00 -6.896862983703613281e-01 -9.923615455627441406e-01 -1.291201233863830566e+00
2.840000000000000000e+02 3.703103637695312500e+01 1.109487652778625488e+00 -4.264052510261535645e-01 -3.970137834548950195e-01 -2.470257133245468140e-01 -5.259391069412231445e-01
2.850000000000000000e+02 3.575430297851562500e+01 8.034304380416870117e-01 -3.137389421463012695e+00 -1.015244722366333008e+00 -1.245790243148803711e+00 -2.044977188110351562e+00
2.860000000000000000e+02 3.762768554687500000e+01 1.302478671073913574e+00 9.674416482448577881e-02 -1.938379742205142975e-02 2.320811152458190918e-02 4.016669094562530518e-02
2.870000000000000000e+02 3.442402267456054688e+01 8.082816004753112793e-02 -6.047424793243408203e+00 -8.548091053962707520e-01 -2.070670127868652344e+00 -2.240356683731079102e+00
2.880000000000000000e+02 3.407835769653320312e+01 -9.506220370531082153e-02 -5.953163146972656250e+00 -8.066771626472473145e-01 -2.027952194213867188e+00 -2.171501159667968750e+00
2.890000000000000000e+02 3.371596145629882812e+01 -1.975831091403961182e-01 -5.522564411163330078e+00 -7.762116193771362305e-01 -1.889632701873779297e+00 -1.930427432060241699e+00
2.900000000000000000e+02 3.713972091674804688e+01 8.433870673179626465e-01 5.328715801239013672e+00 1.194291234016418457e+00 1.956902027130126953e+00 2.680645942687988281e+00
2.910000000000000000e+02 3.540814971923828125e+01 -8.251248002052307129e-01 5.874490141868591309e-01 1.934840202331542969e+00 7.566867470741271973e-01 1.759166717529296875e+00
2.920000000000000000e+02 3.510449218750000000e+01 3.682421520352363586e-02 3.119994401931762695e-01 4.453742802143096924e-01 2.272121012210845947e-01 2.686239778995513916e-01
2.930000000000000000e+02 3.400228881835937500e+01 -3.740651309490203857e-01 -1.021957397460937500e+00 4.434654489159584045e-02 -2.932832539081573486e-01 -3.841105103492736816e-01
2.940000000000000000e+02 3.373826599121093750e+01 -1.445001006126403809e+00 -3.409459590911865234e-01 1.041215658187866211e+00 2.100809067487716675e-01 3.583694100379943848e-01
2.950000000000000000e+02 3.370306015014648438e+01 -7.022532820701599121e-01 -1.226150035858154297e+00 -1.067444235086441040e-01 -3.998683393001556396e-01 -7.360161840915679932e-02
2.960000000000000000e+02 3.349340820312500000e+01 -7.613109350204467773e-01 -1.031111240386962891e+00 -1.014612056314945221e-02 -3.123772144317626953e-01 -3.676972091197967529e-01
2.970000000000000000e+02 3.765465545654296875e+01 7.858605384826660156e-01 6.595055103302001953e+00 2.897223711013793945e+00 2.847683668136596680e+00 4.298849582672119141e+00
2.980000000000000000e+02 3.696322631835937500e+01 7.920612692832946777e-01 4.606344223022460938e+00 1.234242200851440430e+00 1.752175927162170410e+00 2.153958559036254883e+00
2.990000000000000000e+02 3.660123825073242188e+01 6.274700760841369629e-01 3.542326450347900391e+00 9.579058885574340820e-01 1.350069761276245117e+00 1.761845588684082031e+00
3.000000000000000000e+02 3.566072845458984375e+01 2.712882757186889648e-01 1.290431380271911621e+00 2.464201450347900391e-01 4.610554575920104980e-01 8.444870114326477051e-01
3.010000000000000000e+02 3.610567092895507812e+01 1.788179129362106323e-01 2.021324634552001953e+00 1.280420184135437012e+00 9.905234575271606445e-01 1.629408955574035645e+00
3.020000000000000000e+02 3.529101181030273438e+01 1.187125146389007568e-01 5.761943459510803223e-01 1.002168431878089905e-01 2.029233574867248535e-01 5.650881528854370117e-01
3.030000000000000000e+02 3.743503570556640625e+01 -4.108482301235198975e-01 2.150399923324584961e+00 4.950502872467041016e+00 2.130270719528198242e+00 4.758582592010498047e+00
3.040000000000000000e+02 3.762148666381835938e+01 -3.449693024158477783e-01 2.277650833129882812e+00 5.582700729370117188e+00 2.358105421066284180e+00 4.979394912719726562e+00
3.050000000000000000e+02 3.893693923950195312e+01 1.812471896409988403e-01 2.813102245330810547e+00 1.126512241363525391e+01 4.223467350006103516e+00 4.652453899383544922e+00
3.060000000000000000e+02 3.876514816284179688e+01 1.023710817098617554e-01 2.611201286315917969e+00 1.020519447326660156e+01 3.844918727874755859e+00 5.334704399108886719e+00
3.070000000000000000e+02 3.798688507080078125e+01 -1.884055137634277344e-01 2.606789827346801758e+00 6.680233478546142578e+00 2.786107063293457031e+00 5.505337238311767578e+00
3.080000000000000000e+02 3.649076080322265625e+01 -7.175108194351196289e-01 1.327748417854309082e+00 3.433985471725463867e+00 1.428520202636718750e+00 3.357341527938842773e+00
3.090000000000000000e+02 3.580419540405273438e+01 -7.250201702117919922e-01 9.518917798995971680e-01 2.340210676193237305e+00 9.876307249069213867e-01 2.258876562118530273e+00
3.100000000000000000e+02 3.628698730468750000e+01 -7.686826586723327637e-01 1.168743848800659180e+00 2.915877342224121094e+00 1.225386381149291992e+00 3.106714248657226562e+00
3.110000000000000000e+02 3.590827560424804688e+01 -9.514541029930114746e-01 7.323881387710571289e-01 2.610624790191650391e+00 1.002903819084167480e+00 2.626433134078979492e+00
3.120000000000000000e+02 3.468042373657226562e+01 -3.692437112331390381e-01 -3.168687820434570312e-01 2.490328252315521240e-01 -2.035079151391983032e-02 3.172936737537384033e-01
3.130000000000000000e+02 3.533373641967773438e+01 -1.167494058609008789e+00 4.018300175666809082e-01 2.274944543838500977e+00 8.030323982238769531e-01 1.912877440452575684e+00
3.140000000000000000e+02 3.464920043945312500e+01 -1.246471881866455078e+00 6.235921382904052734e-02 1.382921457290649414e+00 4.335842132568359375e-01 1.023394107818603516e+00
3.150000000000000000e+02 3.496161270141601562e+01 -1.335548043251037598e+00 2.000465989112854004e-01 1.991427302360534668e+00 6.574421525001525879e-01 1.478690743446350098e+00
3.160000000000000000e+02 3.862705230712890625e+01 3.161729872226715088e-01 3.534383535385131836e+00 1.029627704620361328e+01 4.149198532104492188e+00 5.986270904541015625e+00
3.170000000000000000e+02 3.757767868041992188e+01 -1.784819215536117554e-01 2.872173070907592773e+00 5.047100067138671875e+00 2.375782012939453125e+00 5.027894020080566406e+00
3.180000000000000000e+02 3.817665863037109375e+01 -7.827766239643096924e-02 2.907422304153442383e+00 7.409396648406982422e+00 3.095045804977416992e+00 5.673296451568603516e+00
3.190000000000000000e+02 3.688985824584960938e+01 -5.709006190299987793e-01 1.769510746002197266e+00 3.990571737289428711e+00 1.728024721145629883e+00 3.975546360015869141e+00
3.200000000000000000e+02 3.594755172729492188e+01 -6.206946372985839844e-01 1.093125462532043457e+00 2.281674385070800781e+00 1.012439966201782227e+00 2.579454183578491211e+00
3.210000000000000000e+02 3.609156036376953125e+01 -8.520229458808898926e-01 9.663650393486022949e-01 2.969483613967895508e+00 1.180754542350769043e+00 2.738475561141967773e+00
3.220000000000000000e+02 3.571983337402343750e+01 -1.024684667587280273e+00 6.465307474136352539e-01 2.635065317153930664e+00 9.844788312911987305e-01 2.294707059860229492e+00
3.230000000000000000e+02 3.514537811279296875e+01 -1.250121951103210449e+00 2.373372465372085571e-01 1.876326799392700195e+00 6.340991854667663574e-01 1.791613817214965820e+00
3.240000000000000000e+02 3.363482284545898438e+01 1.314462162554264069e-02 -4.706783771514892578e+00 -3.466221094131469727e-01 -1.516021728515625000e+00 -1.431985974311828613e+00
3.250000000000000000e+02 3.302847671508789062e+01 4.295823872089385986e-01 -2.740515947341918945e+00 1.883553415536880493e-01 -7.656481862068176270e-01 -3.136573731899261475e-01
3.260000000000000000e+02 3.784255218505859375e+01 2.752973556518554688e+00 -4.010398864746093750e+00 -3.431957244873046875e+00 -2.232706785202026367e+00 -3.530250072479248047e+00
3.270000000000000000e+02 3.802712631225585938e+01 2.807899475097656250e+00 -3.300092697143554688e+00 -2.025599718093872070e+00 -1.597707748413085938e+00 -3.006389856338500977e+00
3.280000000000000000e+02 3.740379333496093750e+01 2.501574277877807617e+00 -4.743577003479003906e+00 -3.248169183731079102e+00 -2.397523880004882812e+00 -3.759747266769409180e+00
3.290000000000000000e+02 3.790663909912109375e+01 2.224719762802124023e+00 -1.083925843238830566e+00 -1.520656704902648926e+00 -7.813747525215148926e-01 -9.716229438781738281e-01
3.300000000000000000e+02 3.842537307739257812e+01 2.938457489013671875e+00 -3.060006856918334961e+00 3.199073553085327148e+00 4.171997681260108948e-02 -1.248045921325683594e+00
3.310000000000000000e+02 3.842595672607421875e+01 2.668952465057373047e+00 -2.051077365875244141e+00 3.591962575912475586e+00 4.622655808925628662e-01 -1.481859326362609863e+00
3.320000000000000000e+02 3.398666763305664062e+01 1.228481173515319824e+00 2.338541299104690552e-01 6.146249175071716309e-01 2.545437216758728027e-01 -7.051646113395690918e-01
3.330000000000000000e+02 3.389365005493164062e+01 9.296185970306396484e-01 -1.283860802650451660e+00 4.141172766685485840e-01 -2.609230577945709229e-01 -7.166952490806579590e-01
3.340000000000000000e+02 3.343253707885742188e+01 1.029946804046630859e+00 -8.303608298301696777e-01 4.623913764953613281e-01 -1.103908345103263855e-01 -3.708699643611907959e-01
3.350000000000000000e+02 3.454869461059570312e+01 1.424905300140380859e+00 1.696280002593994141e+00 2.820219993591308594e-01 5.934906005859375000e-01 -8.658663034439086914e-01
3.360000000000000000e+02 3.436099624633789062e+01 1.355626583099365234e+00 1.199280261993408203e+00 4.555165767669677734e-01 4.964390695095062256e-01 -9.480328559875488281e-01
3.370000000000000000e+02 3.411749267578125000e+01 4.789094328880310059e-01 -3.685210466384887695e+00 -1.296344548463821411e-01 -1.144453406333923340e+00 -1.203308105468750000e+00
3.380000000000000000e+02 3.467663574218750000e+01 1.155197739601135254e+00 -5.731356739997863770e-01 2.241057157516479492e-01 -1.047089844942092896e-01 -1.161936759948730469e+00
3.390000000000000000e+02 3.344224929809570312e+01 -7.911332696676254272e-02 -4.635292530059814453e+00 -4.430006146430969238e-01 -1.523487925529479980e+00 -1.391800403594970703e+00
3.400000000000000000e+02 3.479324722290039062e+01 2.447082698345184326e-01 -5.900494098663330078e+00 -8.595981001853942871e-01 -2.028027772903442383e+00 -2.310249805450439453e+00
3.410000000000000000e+02 3.723443603515625000e+01 1.174290895462036133e+00 -1.088548675179481506e-01 -3.086287677288055420e-01 -1.252450942993164062e-01 -2.906668782234191895e-01
3.420000000000000000e+02 3.339082717895507812e+01 5.608624815940856934e-01 -2.488103389739990234e+00 2.425225824117660522e-01 -6.736742258071899414e-01 -4.945507049560546875e-01
3.430000000000000000e+02 3.498373413085937500e+01 3.186408877372741699e-01 -5.701635360717773438e+00 -8.642141222953796387e-01 -1.969754815101623535e+00 -2.312051773071289062e+00
3.440000000000000000e+02 3.714759445190429688e+01 1.435265898704528809e+00 -1.113184690475463867e+00 -1.079992890357971191e+00 -6.579532623291015625e-01 -1.000228762626647949e+00
3.450000000000000000e+02 3.485663604736328125e+01 5.713133215904235840e-01 -3.969702482223510742e+00 -6.037941575050354004e-01 -1.372048974037170410e+00 -1.926055073738098145e+00
3.460000000000000000e+02 3.556966018676757812e+01 5.337253212928771973e-01 -4.748673915863037109e+00 -8.828622698783874512e-01 -1.689460754394531250e+00 -2.075136661529541016e+00
3.470000000000000000e+02 3.469430541992187500e+01 -5.878467559814453125e-01 3.123273141682147980e-02 8.578822016716003418e-01 2.667344808578491211e-01 5.662536621093750000e-01
3.480000000000000000e+02 3.630337524414062500e+01 2.335451692342758179e-01 2.424143552780151367e+00 1.177904725074768066e+00 1.080614447593688965e+00 2.066628217697143555e+00
3.490000000000000000e+02 3.491137313842773438e+01 -5.455650016665458679e-02 -9.411118924617767334e-03 -3.848182410001754761e-02 -1.436788309365510941e-02 2.967352271080017090e-01
3.500000000000000000e+02 3.717811965942382812e+01 -3.211663067340850830e-01 2.361461639404296875e+00 4.058926105499267578e+00 1.926116228103637695e+00 4.392185688018798828e+00
3.510000000000000000e+02 3.709186935424804688e+01 6.278476119041442871e-01 4.583038806915283203e+00 1.725370526313781738e+00 1.892522811889648438e+00 3.049303770065307617e+00
3.520000000000000000e+02 3.470710372924804688e+01 -1.196836978197097778e-01 -2.222920060157775879e-01 4.333178699016571045e-01 6.330775469541549683e-02 4.848976805806159973e-02
3.530000000000000000e+02 3.599706268310546875e+01 -1.214174553751945496e-01 1.638915419578552246e+00 1.655681729316711426e+00 9.883791804313659668e-01 1.949436902999877930e+00
3.540000000000000000e+02 3.670378494262695312e+01 4.033186435699462891e-01 3.394128561019897461e+00 1.418101072311401367e+00 1.443668842315673828e+00 2.597112655639648438e+00
3.550000000000000000e+02 3.617010879516601562e+01 -5.148457735776901245e-02 1.918063640594482422e+00 1.449792861938476562e+00 1.010356903076171875e+00 2.231441736221313477e+00
3.560000000000000000e+02 3.633457946777343750e+01 6.266104057431221008e-03 2.271571397781372070e+00 1.863400578498840332e+00 1.240491628646850586e+00 2.389589071273803711e+00
3.570000000000000000e+02 3.840171051025390625e+01 3.184606730937957764e-01 4.205941677093505859e+00 8.745371818542480469e+00 3.885394096374511719e+00 6.254903793334960938e+00
3.580000000000000000e+02 3.659261703491210938e+01 -1.964603066444396973e-01 2.253458738327026367e+00 2.498498916625976562e+00 1.425587296485900879e+00 3.239868879318237305e+00
3.590000000000000000e+02 3.447302627563476562e+01 -6.943435668945312500e-01 -3.469776809215545654e-01 3.773973882198333740e-01 9.125906042754650116e-03 6.103427410125732422e-01
3.600000000000000000e+02 3.705132675170898438e+01 -1.361628770828247070e-01 2.766108512878417969e+00 3.600759983062744141e+00 1.910060524940490723e+00 3.933267116546630859e+00
3.610000000000000000e+02 3.368917083740234375e+01 2.912111282348632812e-01 -3.900837421417236328e+00 -6.846659630537033081e-02 -1.190791249275207520e+00 -1.028129100799560547e+00
3.620000000000000000e+02 3.399180984497070312e+01 -1.511631488800048828e+00 -2.077324986457824707e-01 1.392318248748779297e+00 3.553757071495056152e-01 4.782779216766357422e-01
3.630000000000000000e+02 3.750087738037109375e+01 1.768993973731994629e+00 -1.485882997512817383e+00 -1.180887460708618164e+00 -8.000311255455017090e-01 -6.369877457618713379e-01
3.640000000000000000e+02 3.750613403320312500e+01 2.275824785232543945e+00 -2.853013038635253906e+00 -2.689021110534667969e+00 -1.662610292434692383e+00 -2.252413988113403320e+00
3.650000000000000000e+02 3.382311248779296875e+01 -1.065802454948425293e+00 -6.485963463783264160e-01 1.392105817794799805e-01 -1.528157442808151245e-01 1.052573099732398987e-01
3.660000000000000000e+02 3.361622238159179688e+01 -5.159676074981689453e-01 -1.241457343101501465e+00 5.895119905471801758e-02 -3.547518551349639893e-01 -6.034778952598571777e-01
3.670000000000000000e+02 3.434350585937500000e+01 7.889298796653747559e-01 -2.342705011367797852e+00 5.468599870800971985e-02 -6.864057183265686035e-01 -1.156571507453918457e+00
3.680000000000000000e+02 3.357801437377929688e+01 6.146326065063476562e-01 -2.506110429763793945e+00 2.134225815534591675e-01 -6.878063678741455078e-01 -5.653392672538757324e-01
3.690000000000000000e+02 3.505444717407226562e+01 6.659397482872009277e-01 -3.571710109710693359e+00 -7.484428286552429199e-01 -1.296045899391174316e+00 -1.993576288223266602e+00
3.700000000000000000e+02 3.618376541137695312e+01 1.762157559394836426e+00 -2.994184255599975586e+00 -8.599811196327209473e-01 -1.156249642372131348e+00 -1.680905938148498535e+00
3.710000000000000000e+02 3.672046279907226562e+01 1.667183995246887207e+00 -2.373509883880615234e+00 -1.467835187911987305e+00 -1.152403593063354492e+00 -1.906301021575927734e+00
3.720000000000000000e+02 3.527180862426757812e+01 7.546610236167907715e-01 -3.254289388656616211e+00 -8.483981490135192871e-01 -1.230806231498718262e+00 -2.039517402648925781e+00
3.730000000000000000e+02 3.690929031372070312e+01 3.985118120908737183e-02 2.979304790496826172e+00 2.761240243911743164e+00 1.722163438796997070e+00 3.604911327362060547e+00
3.740000000000000000e+02 3.649464797973632812e+01 -4.973327368497848511e-02 2.451596260070800781e+00 2.055475950241088867e+00 1.352121710777282715e+00 2.699853420257568359e+00
3.750000000000000000e+02 3.576368713378906250e+01 -5.319530367851257324e-01 9.945619702339172363e-01 1.692786931991577148e+00 8.062046766281127930e-01 2.018485307693481445e+00
3.760000000000000000e+02 3.791229248046875000e+01 -2.308948896825313568e-02 3.229388713836669922e+00 6.089149951934814453e+00 2.795561790466308594e+00 5.569816589355468750e+00
3.770000000000000000e+02 3.784149551391601562e+01 8.850557208061218262e-01 7.289901256561279297e+00 3.027288675308227539e+00 3.095156908035278320e+00 5.020394802093505859e+00
3.780000000000000000e+02 3.465335083007812500e+01 5.086328387260437012e-01 -4.151849269866943359e+00 -4.877682924270629883e-01 -1.391885161399841309e+00 -1.771997928619384766e+00
3.790000000000000000e+02 3.399343109130859375e+01 -8.418485522270202637e-01 -7.472702860832214355e-01 8.690374344587326050e-02 -1.981099694967269897e-01 2.399436682462692261e-01
3.800000000000000000e+02 3.609611892700195312e+01 1.043709039688110352e+00 -2.157570600509643555e+00 -1.114346265792846680e+00 -9.815750718116760254e-01 -1.946642160415649414e+00
3.810000000000000000e+02 3.541403198242187500e+01 1.341225147247314453e+00 -9.409145712852478027e-01 -6.370269656181335449e-01 -4.733824729919433594e-01 -1.562093734741210938e+00
3.820000000000000000e+02 3.601925277709960938e+01 -3.945852816104888916e-01 1.351771473884582520e+00 1.954596877098083496e+00 9.919105172157287598e-01 2.339291572570800781e+00
3.830000000000000000e+02 3.565647888183593750e+01 -2.205179631710052490e-01 1.035083413124084473e+00 1.368800759315490723e+00 7.211652398109436035e-01 1.458386063575744629e+00
3.840000000000000000e+02 3.662368774414062500e+01 8.999484777450561523e-02 2.707697153091430664e+00 1.962849259376525879e+00 1.401163935661315918e+00 2.861318826675415039e+00
3.850000000000000000e+02 3.624069976806640625e+01 -4.417020082473754883e-01 1.479363918304443359e+00 2.570776224136352539e+00 1.215041995048522949e+00 2.764796733856201172e+00
3.860000000000000000e+02 3.499637222290039062e+01 -1.014450311660766602e+00 2.390937358140945435e-01 1.618642568588256836e+00 5.573208928108215332e-01 1.323615550994873047e+00
3.870000000000000000e+02 3.830873870849609375e+01 6.860423684120178223e-01 6.446954250335693359e+00 7.874759197235107422e+00 4.296514034271240234e+00 6.957039833068847656e+00
3.880000000000000000e+02 3.353332901000976562e+01 1.939919739961624146e-01 -3.977953910827636719e+00 -1.202515959739685059e-01 -1.229461669921875000e+00 -9.988609552383422852e-01
3.890000000000000000e+02 3.380980682373046875e+01 -4.464488327503204346e-01 -1.294433474540710449e+00 -2.467102259397506714e-01 -4.623430967330932617e-01 -2.972385287284851074e-01
3.900000000000000000e+02 3.723675155639648438e+01 1.660006880760192871e+00 -1.593235492706298828e+00 -1.271516799926757812e+00 -8.594256639480590820e-01 -1.108564138412475586e+00
3.910000000000000000e+02 3.797428894042968750e+01 7.014958262443542480e-01 6.734735965728759766e+00 4.938489437103271484e+00 3.501967668533325195e+00 5.787491798400878906e+00
3.920000000000000000e+02 3.712080383300781250e+01 2.297587871551513672e+00 -4.848109722137451172e+00 -2.400278806686401367e+00 -2.174516439437866211e+00 -3.204925537109375000e+00
3.930000000000000000e+02 3.702717971801757812e+01 1.866307497024536133e+00 -2.803993463516235352e+00 -1.795237541198730469e+00 -1.379769325256347656e+00 -1.922743678092956543e+00
3.940000000000000000e+02 3.428811645507812500e+01 6.020106077194213867e-01 -3.238504648208618164e+00 -4.918812587857246399e-02 -9.863077998161315918e-01 -1.212923765182495117e+00
3.950000000000000000e+02 3.487708663940429688e+01 1.243963718414306641e+00 -3.213962316513061523e-01 1.960686407983303070e-02 -9.053681045770645142e-02 -1.217206835746765137e+00
3.960000000000000000e+02 3.628621292114257812e+01 -1.907848417758941650e-01 1.870245695114135742e+00 2.057662963867187500e+00 1.178372621536254883e+00 2.588747262954711914e+00
3.970000000000000000e+02 3.556315994262695312e+01 -1.779522933065891266e-02 9.888535141944885254e-01 5.923402309417724609e-01 4.743581116199493408e-01 1.167379975318908691e+00
3.980000000000000000e+02 3.650707626342773438e+01 3.062920272350311279e-01 2.906502485275268555e+00 1.548813223838806152e+00 1.336594700813293457e+00 2.198513746261596680e+00
3.990000000000000000e+02 3.723009109497070312e+01 4.777076467871665955e-02 3.206990480422973633e+00 3.488610029220581055e+00 2.008680105209350586e+00 4.331202983856201172e+00
4.000000000000000000e+02 3.650032043457031250e+01 1.916826725006103516e+00 -4.132893562316894531e+00 -1.261146783828735352e+00 -1.618212103843688965e+00 -2.206956863403320312e+00
4.010000000000000000e+02 3.551111221313476562e+01 7.980329990386962891e-01 -3.087326765060424805e+00 -9.632966518402099609e-01 -1.215187072753906250e+00 -2.070529460906982422e+00
4.020000000000000000e+02 3.534572219848632812e+01 1.598319530487060547e+00 2.156679332256317139e-02 -2.109225839376449585e-01 -5.680673569440841675e-02 -4.803166687488555908e-01
4.030000000000000000e+02 3.503016662597656250e+01 -6.655775308609008789e-01 3.035511672496795654e-01 1.196362137794494629e+00 4.499740004539489746e-01 1.032547593116760254e+00
4.040000000000000000e+02 3.517519378662109375e+01 -5.110999345779418945e-01 3.633866608142852783e-01 1.071023225784301758e+00 4.303229749202728271e-01 1.358583211898803711e+00
4.050000000000000000e+02 3.519687652587890625e+01 1.034165740013122559e+00 -1.852248787879943848e+00 -6.084617972373962402e-01 -7.382131814956665039e-01 -1.855598092079162598e+00
4.060000000000000000e+02 3.578547286987304688e+01 1.080040335655212402e+00 -2.094430923461914062e+00 -1.063514709472656250e+00 -9.473836421966552734e-01 -2.035744667053222656e+00
4.070000000000000000e+02 3.427257156372070312e+01 -1.031341433525085449e+00 -3.679946959018707275e-01 4.619872868061065674e-01 2.819777838885784149e-02 5.324488282203674316e-01
4.080000000000000000e+02 3.682008743286132812e+01 2.094162464141845703e+00 -4.748145103454589844e+00 -1.743982911109924316e+00 -1.947638392448425293e+00 -2.741376638412475586e+00
4.090000000000000000e+02 3.689712524414062500e+01 1.392645478248596191e+00 -1.414696812629699707e+00 -1.066869258880615234e+00 -7.444698214530944824e-01 -1.443657755851745605e+00
4.100000000000000000e+02 3.511865615844726562e+01 1.298087358474731445e+00 -4.343221783638000488e-01 -2.669900059700012207e-01 -2.103936523199081421e-01 -1.377391457557678223e+00
4.110000000000000000e+02 3.747107315063476562e+01 1.090205013751983643e-01 3.719460725784301758e+00 4.086864948272705078e+00 2.341897726058959961e+00 4.757117271423339844e+00
4.120000000000000000e+02 3.448228454589843750e+01 -1.083547115325927734e+00 -2.262443453073501587e-01 1.117232441902160645e+00 2.672964334487915039e-01 1.045260667800903320e+00
4.130000000000000000e+02 3.621941757202148438e+01 1.309152364730834961e+00 -1.970697045326232910e+00 -1.276188969612121582e+00 -9.740657806396484375e-01 -2.099843263626098633e+00
4.140000000000000000e+02 3.644084167480468750e+01 1.503172397613525391e+00 -2.034528255462646484e+00 -1.438897728919982910e+00 -1.042027831077575684e+00 -2.048189640045166016e+00
4.150000000000000000e+02 3.595325469970703125e+01 1.547083735466003418e+00 -1.933228850364685059e+00 -8.961842656135559082e-01 -8.488239645957946777e-01 -1.595736622810363770e+00
4.160000000000000000e+02 3.567225265502929688e+01 1.660078287124633789e+00 -1.453475236892700195e+00 -4.151965677738189697e-01 -5.606015324592590332e-01 -9.222261905670166016e-01
4.170000000000000000e+02 3.406599044799804688e+01 -1.701059103012084961e+00 -1.677000429481267929e-03 8.076552152633666992e-01 2.417934685945510864e-01 9.731460213661193848e-01
4.180000000000000000e+02 3.425825500488281250e+01 -1.610085368156433105e+00 -3.818538784980773926e-02 1.804594755172729492e+00 5.299228429794311523e-01 8.150337338447570801e-01
4.190000000000000000e+02 3.449916076660156250e+01 -1.382261991500854492e+00 -1.003061681985855103e-01 1.395566701889038086e+00 3.885781466960906982e-01 1.162320375442504883e+00
4.200000000000000000e+02 3.478412246704101562e+01 -1.422446846961975098e+00 2.118153870105743408e-02 1.618702650070190430e+00 4.919652640819549561e-01 1.475858092308044434e+00
4.210000000000000000e+02 3.367459487915039062e+01 -1.279655218124389648e+00 -5.670171976089477539e-01 2.040204405784606934e-01 -1.088990345597267151e-01 6.725721806287765503e-02
4.220000000000000000e+02 3.390179443359375000e+01 -1.366300463676452637e+00 -4.598625898361206055e-01 6.365038156509399414e-01 5.299237370491027832e-02 4.887494742870330811e-01
4.230000000000000000e+02 3.384901809692382812e+01 -1.229655027389526367e+00 -4.358386695384979248e-01 8.085876703262329102e-01 1.118247061967849731e-01 5.121339559555053711e-01
4.240000000000000000e+02 3.481312561035156250e+01 -1.125656247138977051e+00 2.669242024421691895e-02 1.320150732994079590e+00 4.040529429912567139e-01 1.342016458511352539e+00
4.250000000000000000e+02 3.519271087646484375e+01 -9.036521911621093750e-01 3.310616016387939453e-01 1.455367803573608398e+00 5.359288454055786133e-01 1.644349694252014160e+00
4.260000000000000000e+02 3.295468902587890625e+01 6.268446445465087891e-01 -2.076044082641601562e+00 3.531852960586547852e-01 -5.168576240539550781e-01 -2.510269582271575928e-01
4.270000000000000000e+02 3.391186523437500000e+01 -6.416155099868774414e-01 -8.009480237960815430e-01 3.088029921054840088e-01 -1.476435065269470215e-01 -1.839172840118408203e-01
4.280000000000000000e+02 3.432961273193359375e+01 -4.763940870761871338e-01 -5.234622359275817871e-01 4.439884126186370850e-01 -2.384215220808982849e-02 1.317792236804962158e-01
4.290000000000000000e+02 3.418877792358398438e+01 -2.944328486919403076e-01 -9.457924962043762207e-01 -3.147269487380981445e-01 -3.781558573246002197e-01 -2.021155059337615967e-01
4.300000000000000000e+02 3.435461044311523438e+01 -2.061110138893127441e-01 -7.281840443611145020e-01 3.668418824672698975e-01 -1.084026470780372620e-01 -3.564169108867645264e-01
4.310000000000000000e+02 3.377356719970703125e+01 -8.860508799552917480e-01 -7.479045391082763672e-01 4.456444680690765381e-01 -9.067802131175994873e-02 2.121520228683948517e-02
4.320000000000000000e+02 3.451573562622070312e+01 -1.480337232351303101e-01 -5.561103224754333496e-01 -3.449815213680267334e-01 -2.703275382518768311e-01 6.021657958626747131e-02
4.330000000000000000e+02 3.313894653320312500e+01 6.936514973640441895e-01 -1.875584959983825684e+00 3.327672481536865234e-01 -4.628453254699707031e-01 -2.852575182914733887e-01
4.340000000000000000e+02 3.361745834350585938e+01 1.096300482749938965e+00 -4.503031969070434570e-01 5.131443738937377930e-01 1.885234564542770386e-02 -5.238219499588012695e-01
4.350000000000000000e+02 3.351383590698242188e+01 8.179342746734619141e-01 -1.650379419326782227e+00 3.655346035957336426e-01 -3.854534327983856201e-01 -4.350312948226928711e-01
4.360000000000000000e+02 3.380150604248046875e+01 1.162455081939697266e+00 -1.063168942928314209e-01 5.646084547042846680e-01 1.374874711036682129e-01 -5.262475609779357910e-01
4.370000000000000000e+02 3.328068161010742188e+01 3.035688102245330811e-01 -3.301222562789916992e+00 1.418875753879547119e-01 -9.478005170822143555e-01 -5.902035236358642578e-01
4.380000000000000000e+02 3.320963668823242188e+01 4.969325661659240723e-01 -2.627628326416015625e+00 2.323336899280548096e-01 -7.185883522033691406e-01 -4.582265615463256836e-01
4.390000000000000000e+02 3.345410156250000000e+01 3.728825151920318604e-01 -3.217277050018310547e+00 7.772669196128845215e-02 -9.418650865554809570e-01 -6.693935394287109375e-01
4.400000000000000000e+02 3.427504348754882812e+01 1.038373351097106934e+00 -8.885655403137207031e-01 2.981765866279602051e-01 -1.771166920661926270e-01 -9.427602291107177734e-01
4.410000000000000000e+02 3.474150085449218750e+01 1.497983813285827637e+00 2.011590003967285156e+00 2.174145728349685669e-01 6.687013506889343262e-01 -6.623809337615966797e-01
4.420000000000000000e+02 3.500629806518554688e+01 1.552095413208007812e+00 1.473648309707641602e+00 7.563646417111158371e-03 4.443635940551757812e-01 -3.849463462829589844e-01
4.430000000000000000e+02 3.572385025024414062e+01 1.383562445640563965e+00 -1.369170188903808594e+00 -9.683312177658081055e-01 -7.012504339218139648e-01 -1.758518934249877930e+00
4.440000000000000000e+02 3.351992797851562500e+01 -2.809379398822784424e-01 -5.309760570526123047e+00 -5.532210469245910645e-01 -1.758894562721252441e+00 -1.900377631187438965e+00
4.450000000000000000e+02 3.424539947509765625e+01 -6.924186833202838898e-03 -6.002965927124023438e+00 -7.952885627746582031e-01 -2.039476394653320312e+00 -2.244184017181396484e+00
4.460000000000000000e+02 3.460661697387695312e+01 1.662436723709106445e-01 -6.008953094482421875e+00 -8.103512525558471680e-01 -2.045791387557983398e+00 -2.295653820037841797e+00
4.470000000000000000e+02 3.576085662841796875e+01 5.831133127212524414e-01 -4.336109161376953125e+00 -8.315203785896301270e-01 -1.550288796424865723e+00 -1.919066190719604492e+00
4.480000000000000000e+02 3.592935180664062500e+01 6.686308979988098145e-01 -3.599659681320190430e+00 -7.090597748756408691e-01 -1.292615771293640137e+00 -1.820098161697387695e+00
4.490000000000000000e+02 3.683222579956054688e+01 1.027795433998107910e+00 -8.523148894309997559e-01 -4.111808538436889648e-01 -3.790487349033355713e-01 -7.508162856101989746e-01
4.500000000000000000e+02 3.743291854858398438e+01 1.235928297042846680e+00 6.347059458494186401e-02 -1.800470501184463501e-01 -3.497293591499328613e-02 -6.131098791956901550e-02
4.510000000000000000e+02 3.777801132202148438e+01 1.570418953895568848e+00 -8.602967262268066406e-01 -2.477584332227706909e-01 -3.324165642261505127e-01 1.934588700532913208e-01
4.520000000000000000e+02 3.780052566528320312e+01 2.008365631103515625e+00 -1.038920998573303223e+00 -1.267586469650268555e+00 -6.919522881507873535e-01 -3.933112919330596924e-01
4.530000000000000000e+02 3.774178695678710938e+01 2.415518283843994141e+00 -2.371773719787597656e+00 -2.493133306503295898e+00 -1.459472179412841797e+00 -2.170571327209472656e+00
4.540000000000000000e+02 3.753562164306640625e+01 9.946963787078857422e-01 6.714797019958496094e+00 1.476500034332275391e+00 2.457389116287231445e+00 3.425085306167602539e+00
4.550000000000000000e+02 3.733789825439453125e+01 9.002463221549987793e-01 5.944427967071533203e+00 1.624678134918212891e+00 2.270731687545776367e+00 2.933368206024169922e+00
4.560000000000000000e+02 3.678918457031250000e+01 7.067351937294006348e-01 4.039518356323242188e+00 8.192183971405029297e-01 1.457621097564697266e+00 2.036134243011474609e+00
4.570000000000000000e+02 3.622098541259765625e+01 4.775572717189788818e-01 2.579106092453002930e+00 8.451300263404846191e-01 1.027270793914794922e+00 1.306404948234558105e+00
4.580000000000000000e+02 3.603152465820312500e+01 4.098596870899200439e-01 2.089079856872558594e+00 4.457756578922271729e-01 7.604566812515258789e-01 1.225752592086791992e+00
4.590000000000000000e+02 3.584568405151367188e+01 3.416580259799957275e-01 1.720535635948181152e+00 7.020813226699829102e-01 7.267851233482360840e-01 8.890061378479003906e-01
4.600000000000000000e+02 3.592405700683593750e+01 1.176394894719123840e-01 1.669993162155151367e+00 8.077162504196166992e-01 7.433128356933593750e-01 1.537629723548889160e+00
4.610000000000000000e+02 3.520458221435546875e+01 -1.949287801980972290e-01 3.983681499958038330e-01 5.233513116836547852e-01 2.765158414840698242e-01 9.722262620925903320e-01
4.620000000000000000e+02 3.538616180419921875e+01 -1.038017719984054565e-01 7.869740128517150879e-01 8.566725850105285645e-01 4.930939674377441406e-01 9.055435657501220703e-01
4.630000000000000000e+02 3.502249526977539062e+01 -3.075044751167297363e-01 2.571585476398468018e-01 8.171671032905578613e-01 3.222976922988891602e-01 5.902023315429687500e-01
4.640000000000000000e+02 3.818256759643554688e+01 3.296874463558197021e-01 4.395754337310791016e+00 7.266664028167724609e+00 3.498725652694702148e+00 6.270353317260742188e+00
4.650000000000000000e+02 3.812672424316406250e+01 5.341960787773132324e-01 5.507369518280029297e+00 6.416100025177001953e+00 3.577040910720825195e+00 6.414024829864501953e+00
4.660000000000000000e+02 3.882744979858398438e+01 3.004174232482910156e-01 3.280186891555786133e+00 1.134115886688232422e+01 4.386403560638427734e+00 5.175299644470214844e+00
4.670000000000000000e+02 3.892212295532226562e+01 5.315482020378112793e-01 3.677890539169311523e+00 1.261218833923339844e+01 4.887023925781250000e+00 5.110395431518554688e+00
4.680000000000000000e+02 3.552650451660156250e+01 -1.092922687530517578e+00 4.611095786094665527e-01 2.240673065185546875e+00 8.105348348617553711e-01 2.173490524291992188e+00
4.690000000000000000e+02 3.986656951904296875e+01 2.360464811325073242e+00 2.112119913101196289e+00 1.337815666198730469e+01 4.647082805633544922e+00 4.759958267211914062e+00
4.700000000000000000e+02 3.993087768554687500e+01 1.513538599014282227e+00 7.902984619140625000e+00 1.049448490142822266e+01 5.519240856170654297e+00 2.967976808547973633e+00
4.710000000000000000e+02 4.027955245971679688e+01 1.564017295837402344e+00 6.477399349212646484e+00 9.659755706787109375e+00 4.841146469116210938e+00 2.721260547637939453e+00
4.720000000000000000e+02 3.975135421752929688e+01 7.798239588737487793e-01 5.664281845092773438e+00 1.130246639251708984e+01 5.090024471282958984e+00 1.100572347640991211e+00
4.730000000000000000e+02 3.958521270751953125e+01 6.506175398826599121e-01 4.917599201202392578e+00 1.232850551605224609e+01 5.173831462860107422e+00 1.675083398818969727e+00
4.740000000000000000e+02 3.562100219726562500e+01 -7.764315009117126465e-01 7.074496746063232422e-01 1.909114956855773926e+00 7.849693894386291504e-01 2.135717868804931641e+00
4.750000000000000000e+02 3.668714141845703125e+01 -6.534320116043090820e-01 1.601156115531921387e+00 3.474805355072021484e+00 1.522788405418395996e+00 3.660651683807373047e+00
4.760000000000000000e+02 3.644919586181640625e+01 -4.448251426219940186e-01 1.755800008773803711e+00 2.685374021530151367e+00 1.332352280616760254e+00 3.145690679550170898e+00
4.770000000000000000e+02 3.664134216308593750e+01 -4.003576934337615967e-01 1.870968937873840332e+00 3.261525154113769531e+00 1.539748191833496094e+00 3.438163518905639648e+00
4.780000000000000000e+02 3.708116531372070312e+01 -5.249032974243164062e-01 2.103978633880615234e+00 4.025566101074218750e+00 1.838863492012023926e+00 4.163207054138183594e+00
4.790000000000000000e+02 3.738379287719726562e+01 -2.238908410072326660e-01 2.640392780303955078e+00 4.625515937805175781e+00 2.179772615432739258e+00 4.596929550170898438e+00
4.800000000000000000e+02 3.780501937866210938e+01 -2.730927765369415283e-01 2.497082471847534180e+00 5.983504772186279297e+00 2.544176101684570312e+00 5.265490055084228516e+00
4.810000000000000000e+02 3.807319259643554688e+01 1.170748025178909302e-01 3.765805721282958984e+00 7.032300472259521484e+00 3.239431858062744141e+00 5.869451045989990234e+00
4.820000000000000000e+02 3.932508087158203125e+01 3.302991986274719238e-01 3.135422945022583008e+00 1.234872913360595703e+01 4.645245552062988281e+00 2.858714580535888672e+00
4.830000000000000000e+02 3.964899444580078125e+01 4.843167960643768311e-01 4.008507728576660156e+00 1.106107616424560547e+01 4.520875453948974609e+00 1.613560676574707031e+00
4.840000000000000000e+02 4.004299926757812500e+01 8.298504948616027832e-01 6.010576248168945312e+00 1.016243839263916016e+01 4.851904392242431641e+00 9.180732965469360352e-01
4.850000000000000000e+02 4.024468612670898438e+01 1.374274969100952148e+00 6.692875385284423828e+00 9.324138641357421875e+00 4.805104255676269531e+00 2.074653148651123047e+00
4.860000000000000000e+02 4.030302810668945312e+01 1.736638426780700684e+00 5.938400745391845703e+00 9.669424057006835938e+00 4.682347297668457031e+00 3.055141687393188477e+00
4.870000000000000000e+02 4.017131042480468750e+01 1.819182753562927246e+00 6.045965194702148438e+00 1.048431777954101562e+01 4.959084987640380859e+00 3.800247430801391602e+00
4.880000000000000000e+02 4.004381179809570312e+01 2.423893690109252930e+00 2.001127481460571289e+00 1.259381866455078125e+01 4.378483772277832031e+00 4.256032466888427734e+00
4.890000000000000000e+02 3.982981872558593750e+01 2.723180055618286133e+00 -7.096033543348312378e-02 1.362467002868652344e+01 4.066112995147705078e+00 3.733701467514038086e+00
4.900000000000000000e+02 3.968098831176757812e+01 2.692375659942626953e+00 -6.309697628021240234e-01 1.407655334472656250e+01 4.033675193786621094e+00 3.703421354293823242e+00
4.910000000000000000e+02 3.793749618530273438e+01 2.591953516006469727e+00 -2.310156822204589844e+00 -2.024315595626831055e+00 -1.300341725349426270e+00 -2.392760515213012695e+00
4.920000000000000000e+02 3.727583694458007812e+01 2.103626966476440430e+00 -3.209912776947021484e+00 -2.222941160202026367e+00 -1.629856228828430176e+00 -2.188264131546020508e+00
4.930000000000000000e+02 3.332435989379882812e+01 7.580657005310058594e-01 -1.850333690643310547e+00 3.430094420909881592e-01 -4.521972835063934326e-01 -3.405655920505523682e-01
4.940000000000000000e+02 3.423069381713867188e+01 -7.929698228836059570e-01 -4.227767586708068848e-01 7.916155457496643066e-01 1.106516420841217041e-01 3.539598286151885986e-01
4.950000000000000000e+02 3.777690124511718750e+01 6.019918918609619141e-01 5.812597751617431641e+00 3.987799644470214844e+00 2.940119266510009766e+00 5.305831909179687500e+00
4.960000000000000000e+02 3.408069229125976562e+01 9.905335307121276855e-01 -1.105768680572509766e+00 3.462274372577667236e-01 -2.278623580932617188e-01 -7.969540357589721680e-01
4.970000000000000000e+02 3.398403930664062500e+01 6.919122338294982910e-01 -2.459263563156127930e+00 1.707288175821304321e-01 -6.865603923797607422e-01 -8.314110040664672852e-01
4.980000000000000000e+02 3.455795288085937500e+01 7.880101799964904785e-01 -2.511160850524902344e+00 -1.056881546974182129e-01 -7.850547432899475098e-01 -1.366571784019470215e+00
4.990000000000000000e+02 3.447706222534179688e+01 1.076764106750488281e+00 -7.759954333305358887e-01 2.339433431625366211e-01 -1.626156270503997803e-01 -1.084421753883361816e+00
5.000000000000000000e+02 3.476334762573242188e+01 8.003675341606140137e-01 -2.662591934204101562e+00 -2.654104232788085938e-01 -8.784006834030151367e-01 -1.566939353942871094e+00
5.010000000000000000e+02 3.404146194458007812e+01 -1.054487586021423340e+00 -4.470777809619903564e-01 9.055477976799011230e-01 1.375409960746765137e-01 5.029091238975524902e-01
5.020000000000000000e+02 3.800287246704101562e+01 3.901649713516235352e-01 4.970893859863281250e+00 5.833477973937988281e+00 3.241311550140380859e+00 5.766739845275878906e+00
5.030000000000000000e+02 3.792980575561523438e+01 2.227084040641784668e-01 4.222476959228515625e+00 5.778801918029785156e+00 3.000383615493774414e+00 5.690479755401611328e+00
5.040000000000000000e+02 3.941323471069335938e+01 5.127484202384948730e-01 3.729601621627807617e+00 1.227953815460205078e+01 4.802742004394531250e+00 2.432286024093627930e+00
5.050000000000000000e+02 3.995223617553710938e+01 1.049253463745117188e+00 6.899191856384277344e+00 1.064869785308837891e+01 5.264366626739501953e+00 1.260093212127685547e+00
5.060000000000000000e+02 4.006489944458007812e+01 1.987596511840820312e+00 5.208064556121826172e+00 1.139533424377441406e+01 4.981019496917724609e+00 4.344642162322998047e+00
5.070000000000000000e+02 3.997172927856445312e+01 2.183274984359741211e+00 3.752982378005981445e+00 1.231370067596435547e+01 4.820004940032958984e+00 4.798361301422119141e+00
5.080000000000000000e+02 3.949187088012695312e+01 2.744863271713256836e+00 -1.693894743919372559e+00 1.409631252288818359e+01 3.720725297927856445e+00 3.148451089859008789e+00
5.090000000000000000e+02 3.496884918212890625e+01 1.019030332565307617e+00 -1.666393280029296875e+00 -3.684754371643066406e-01 -6.104606389999389648e-01 -1.705482602119445801e+00
5.100000000000000000e+02 3.547324752807617188e+01 1.068050622940063477e+00 -1.938880920410156250e+00 -8.938357234001159668e-01 -8.498150110244750977e-01 -2.012322425842285156e+00
5.110000000000000000e+02 3.483692932128906250e+01 -7.962447404861450195e-01 -5.366588011384010315e-02 9.629729390144348145e-01 2.727921009063720703e-01 1.128648519515991211e+00
5.120000000000000000e+02 3.434161376953125000e+01 -1.242688655853271484e+00 -6.925230473279953003e-02 1.145365238189697266e+00 3.228338658809661865e-01 7.543887495994567871e-01
5.130000000000000000e+02 3.574273300170898438e+01 5.733155831694602966e-02 1.370466589927673340e+00 1.065820932388305664e+00 7.308862805366516113e-01 1.221156597137451172e+00
5.140000000000000000e+02 3.480144500732421875e+01 9.665792584419250488e-01 -1.707600116729736328e+00 -1.799176633358001709e-01 -5.662553310394287109e-01 -1.614267468452453613e+00
5.150000000000000000e+02 3.783639907836914062e+01 4.323124885559082031e-01 5.056395530700683594e+00 4.973791122436523438e+00 3.009055852890014648e+00 5.499444961547851562e+00
5.160000000000000000e+02 3.771316528320312500e+01 1.671936959028244019e-01 4.054361343383789062e+00 4.935403347015380859e+00 2.696929454803466797e+00 5.230413913726806641e+00
5.170000000000000000e+02 3.674559402465820312e+01 -9.935961663722991943e-02 2.632992506027221680e+00 2.860226869583129883e+00 1.647965788841247559e+00 3.379823446273803711e+00
5.180000000000000000e+02 3.335886383056640625e+01 1.123815923929214478e-01 -3.914172649383544922e+00 -1.411329656839370728e-01 -1.216591715812683105e+00 -9.074242115020751953e-01
5.190000000000000000e+02 3.416670989990234375e+01 -1.383293628692626953e+00 -2.926400899887084961e-01 8.678858280181884766e-01 1.725737154483795166e-01 9.429045319557189941e-01
5.200000000000000000e+02 3.401705169677734375e+01 -1.244767069816589355e+00 -4.242726862430572510e-01 7.627331614494323730e-01 1.015381440520286560e-01 3.804163932800292969e-01
5.210000000000000000e+02 3.381345748901367188e+01 1.507545709609985352e-01 -4.578594684600830078e+00 -3.766417205333709717e-01 -1.486570954322814941e+00 -1.378820657730102539e+00
5.220000000000000000e+02 3.395933151245117188e+01 3.287619948387145996e-01 -4.055985450744628906e+00 -1.437809765338897705e-01 -1.259929895401000977e+00 -1.245423913002014160e+00
5.230000000000000000e+02 3.378769683837890625e+01 4.361852705478668213e-01 -3.407035350799560547e+00 -3.565422818064689636e-02 -1.032806873321533203e+00 -9.001807570457458496e-01
5.240000000000000000e+02 3.378135299682617188e+01 6.435713768005371094e-01 -2.571502208709716797e+00 1.676204204559326172e-01 -7.211645245552062988e-01 -7.542462944984436035e-01
5.250000000000000000e+02 3.556408691406250000e+01 -5.437986850738525391e-01 8.521140813827514648e-01 1.785658240318298340e+00 7.913317084312438965e-01 1.812246799468994141e+00
5.260000000000000000e+02 3.758082962036132812e+01 2.444980740547180176e-01 4.429191589355468750e+00 4.287099361419677734e+00 2.614887237548828125e+00 4.884368896484375000e+00
5.270000000000000000e+02 3.754583358764648438e+01 -1.661931164562702179e-02 3.324475526809692383e+00 4.850527286529541016e+00 2.452500820159912109e+00 4.967238903045654297e+00
5.280000000000000000e+02 3.738412094116210938e+01 -4.090145975351333618e-02 3.269003868103027344e+00 4.087199687957763672e+00 2.206861019134521484e+00 4.516514778137207031e+00
5.290000000000000000e+02 3.445793151855468750e+01 4.122463464736938477e-01 -4.354169368743896484e+00 -4.824455380439758301e-01 -1.450984477996826172e+00 -1.691227674484252930e+00
5.300000000000000000e+02 3.779653930664062500e+01 2.916313409805297852e-01 4.561975479125976562e+00 5.150554180145263672e+00 2.913758993148803711e+00 5.416959762573242188e+00
5.310000000000000000e+02 3.486634445190429688e+01 -4.617440700531005859e-01 1.268349867314100266e-02 5.821526050567626953e-01 1.784508228302001953e-01 9.208166003227233887e-01
5.320000000000000000e+02 3.492840576171875000e+01 8.545586466789245605e-01 -2.603893518447875977e+00 -4.314705431461334229e-01 -9.106092453002929688e-01 -1.676939845085144043e+00
5.330000000000000000e+02 3.633846664428710938e+01 9.667662382125854492e-01 -2.054389953613281250e+00 -1.026374340057373047e+00 -9.242292642593383789e-01 -1.652321338653564453e+00
5.340000000000000000e+02 3.774957275390625000e+01 -1.143589243292808533e-01 2.923426151275634766e+00 5.770489692687988281e+00 2.608174800872802734e+00 5.246901988983154297e+00
5.350000000000000000e+02 3.769576644897460938e+01 3.107814490795135498e-02 3.526303291320800781e+00 5.114470005035400391e+00 2.592231988906860352e+00 5.266199588775634766e+00
5.360000000000000000e+02 3.727608489990234375e+01 4.946399033069610596e-01 4.741490840911865234e+00 2.579915046691894531e+00 2.196421861648559570e+00 3.627086400985717773e+00
5.370000000000000000e+02 3.698108673095703125e+01 2.540040314197540283e-01 3.593819379806518555e+00 2.356803178787231445e+00 1.785186767578125000e+00 3.402596235275268555e+00
5.380000000000000000e+02 3.718008804321289062e+01 2.538186907768249512e-01 3.813016414642333984e+00 2.988367795944213867e+00 2.040415287017822266e+00 3.851462125778198242e+00
5.390000000000000000e+02 3.581243515014648438e+01 -1.465973705053329468e-01 1.316691160202026367e+00 1.163769006729125977e+00 7.441380620002746582e-01 1.766668915748596191e+00
5.400000000000000000e+02 3.679454421997070312e+01 1.992482095956802368e-01 3.173788070678710938e+00 2.214441537857055664e+00 1.616468906402587891e+00 2.964113712310791016e+00
5.410000000000000000e+02 3.463463211059570312e+01 -9.229720234870910645e-01 -1.049207709729671478e-02 1.111307978630065918e+00 3.302447497844696045e-01 8.323636054992675781e-01
5.420000000000000000e+02 3.769081497192382812e+01 3.715435564517974854e-01 4.908462524414062500e+00 4.190530300140380859e+00 2.729697942733764648e+00 5.181135177612304688e+00
5.430000000000000000e+02 3.580731964111328125e+01 -3.399081528186798096e-01 1.134516954421997070e+00 1.652465105056762695e+00 8.360946178436279297e-01 1.966543316841125488e+00
5.440000000000000000e+02 3.646347427368164062e+01 1.129418730735778809e+00 -1.719623804092407227e+00 -1.085889101028442383e+00 -8.416538834571838379e-01 -1.736145138740539551e+00
5.450000000000000000e+02 3.744512939453125000e+01 3.647603988647460938e-01 4.583951473236083984e+00 3.356871366500854492e+00 2.382246971130371094e+00 4.544012546539306641e+00
5.460000000000000000e+02 3.734228897094726562e+01 2.022617012262344360e-01 4.200987339019775391e+00 3.526917457580566406e+00 2.318371295928955078e+00 4.295670509338378906e+00
5.470000000000000000e+02 3.782551193237304688e+01 9.606764465570449829e-02 3.812611818313598633e+00 5.828064441680908203e+00 2.892202854156494141e+00 5.515572071075439453e+00
5.480000000000000000e+02 3.535925292968750000e+01 -5.877751708030700684e-01 5.198816657066345215e-01 1.190439581871032715e+00 5.130963921546936035e-01 1.460617542266845703e+00
5.490000000000000000e+02 3.531221008300781250e+01 -3.931899368762969971e-01 6.932036280632019043e-01 1.133500814437866211e+00 5.480113029479980469e-01 1.179669737815856934e+00
5.500000000000000000e+02 3.549230957031250000e+01 -3.201768696308135986e-01 7.283611297607421875e-01 9.941108226776123047e-01 5.167415738105773926e-01 1.441948294639587402e+00
5.510000000000000000e+02 3.159259414672851562e+01 1.520266681909561157e-01 -2.299792528152465820e+00 3.972524702548980713e-01 -5.707620382308959961e-01 3.140769153833389282e-02
5.520000000000000000e+02 3.278088760375976562e+01 4.380521178245544434e-02 -3.298450946807861328e+00 -7.581983227282762527e-03 -9.918098449707031250e-01 -6.385198235511779785e-01
5.530000000000000000e+02 3.084041023254394531e+01 -9.959760904312133789e-01 -2.065088987350463867e+00 1.912523210048675537e-01 -5.621509552001953125e-01 -2.469084709882736206e-01
5.540000000000000000e+02 3.271362304687500000e+01 -4.340257942676544189e-01 -4.207213401794433594e+00 -3.592944741249084473e-01 -1.369952440261840820e+00 -1.314603924751281738e+00
5.550000000000000000e+02 3.289696884155273438e+01 -1.366506963968276978e-01 -3.896878957748413086e+00 -2.286804765462875366e-01 -1.237667798995971680e+00 -1.005326747894287109e+00
5.560000000000000000e+02 3.270431137084960938e+01 2.775771021842956543e-01 -2.648912429809570312e+00 1.376938074827194214e-01 -7.533656358718872070e-01 -3.022098243236541748e-01
5.570000000000000000e+02 3.082203674316406250e+01 -2.130979001522064209e-01 -2.385034799575805664e+00 5.231567025184631348e-01 -5.585634112358093262e-01 3.780947253108024597e-02
5.580000000000000000e+02 3.157741355895996094e+01 -7.941347360610961914e-01 -2.826838254928588867e+00 -3.144057840108871460e-02 -8.574836850166320801e-01 -6.793096065521240234e-01
5.590000000000000000e+02 3.297961044311523438e+01 -4.947462677955627441e-01 -4.549820423126220703e+00 -4.078990817070007324e-01 -1.487315893173217773e+00 -1.524984359741210938e+00
5.600000000000000000e+02 3.300505447387695312e+01 -2.790583670139312744e-01 -4.502294540405273438e+00 -1.859057545661926270e-01 -1.406460046768188477e+00 -1.243734717369079590e+00
5.610000000000000000e+02 3.263313674926757812e+01 4.896603822708129883e-01 -2.258867263793945312e+00 2.479917109012603760e-01 -6.032626628875732422e-01 -6.464995443820953369e-02
5.620000000000000000e+02 3.224695968627929688e+01 8.054085075855255127e-02 -2.639435768127441406e+00 3.427444100379943848e-01 -6.890074014663696289e-01 -2.394205778837203979e-01
5.630000000000000000e+02 3.225244140625000000e+01 -6.277173757553100586e-01 -3.723680734634399414e+00 -3.438232541084289551e-01 -1.220251202583312988e+00 -1.112382888793945312e+00
5.640000000000000000e+02 3.182761764526367188e+01 -2.197781950235366821e-01 -2.851373672485351562e+00 1.899811178445816040e-01 -7.984177470207214355e-01 -2.349099665880203247e-01
5.650000000000000000e+02 3.229485321044921875e+01 -2.018816471099853516e-01 -3.216998577117919922e+00 3.937621414661407471e-02 -9.532867074012756348e-01 -5.609059929847717285e-01
5.660000000000000000e+02 3.217805862426757812e+01 3.697763383388519287e-01 -2.170269966125488281e+00 4.693819880485534668e-01 -5.102663636207580566e-01 -8.774069696664810181e-02
5.670000000000000000e+02 3.247905349731445312e+01 6.675391793251037598e-01 -1.748722553253173828e+00 3.671845495700836182e-01 -4.144614040851593018e-01 1.027703378349542618e-02
5.680000000000000000e+02 2.852584266662597656e+01 -6.537437438964843750e-01 -2.613122701644897461e+00 -1.263136267662048340e-01 -8.218308687210083008e-01 6.405478119850158691e-01
5.690000000000000000e+02 2.237283515930175781e+01 1.747218847274780273e+00 -1.843176007270812988e+00 -1.635245829820632935e-01 -6.020101904869079590e-01 5.070153474807739258e-01
5.700000000000000000e+02 3.003009986877441406e+01 -2.786456644535064697e-01 -2.242836475372314453e+00 4.278507232666015625e-01 -5.444957613945007324e-01 1.057579368352890015e-01
5.710000000000000000e+02 1.934751129150390625e+01 2.503270149230957031e+00 -1.802404403686523438e+00 -2.332946807146072388e-01 -6.107097268104553223e-01 2.904164493083953857e-01
5.720000000000000000e+02 2.081994247436523438e+01 1.359829425811767578e+00 -2.296880722045898438e+00 -1.632953733205795288e-01 -7.380528450012207031e-01 5.688613653182983398e-01
5.730000000000000000e+02 2.011012649536132812e+01 2.305401802062988281e+00 -1.996364593505859375e+00 -1.541991978883743286e-01 -6.451691389083862305e-01 3.494925796985626221e-01
5.740000000000000000e+02 2.087202072143554688e+01 2.110936641693115234e+00 -1.916708588600158691e+00 -1.386523693799972534e-01 -6.166082620620727539e-01 4.388321638107299805e-01
5.750000000000000000e+02 2.158644676208496094e+01 1.168239593505859375e+00 -2.255500316619873047e+00 -1.540469527244567871e-01 -7.228641510009765625e-01 5.844099521636962891e-01
5.760000000000000000e+02 2.163119125366210938e+01 1.921256065368652344e+00 -1.888585448265075684e+00 -1.657678484916687012e-01 -6.163060069084167480e-01 4.687740206718444824e-01
5.770000000000000000e+02 2.307723426818847656e+01 1.624484539031982422e+00 -1.806711792945861816e+00 -1.836670041084289551e-01 -5.971136093139648438e-01 5.019009113311767578e-01
5.780000000000000000e+02 2.338090705871582031e+01 6.175161004066467285e-01 -2.308160305023193359e+00 -1.799511313438415527e-01 -7.464334368705749512e-01 6.200758218765258789e-01
5.790000000000000000e+02 2.398313713073730469e+01 4.381691217422485352e-01 -2.376806259155273438e+00 -1.777985692024230957e-01 -7.663815021514892578e-01 6.612430214881896973e-01
5.800000000000000000e+02 2.471397018432617188e+01 1.074061155319213867e+00 -1.917401432991027832e+00 -1.924811899662017822e-01 -6.329647898674011230e-01 6.035457849502563477e-01
5.810000000000000000e+02 2.621602630615234375e+01 -5.633327364921569824e-02 -2.584530591964721680e+00 -1.972778439521789551e-01 -8.345425724983215332e-01 7.169283628463745117e-01
5.820000000000000000e+02 2.698558807373046875e+01 -2.541643083095550537e-01 -2.646255731582641602e+00 -1.854548305273056030e-01 -8.495131731033325195e-01 7.211095690727233887e-01
5.830000000000000000e+02 2.775563621520996094e+01 -4.536604583263397217e-01 -2.667397737503051758e+00 -1.690727025270462036e-01 -8.509411215782165527e-01 7.004988193511962891e-01
5.840000000000000000e+02 1.928076744079589844e+01 1.755981087684631348e+00 -2.676726818084716797e+00 -2.245700657367706299e-01 -8.703890442848205566e-01 4.785588681697845459e-01
5.850000000000000000e+02 2.233542251586914062e+01 9.922933578491210938e-01 -2.252863168716430664e+00 -1.685949563980102539e-01 -7.264374494552612305e-01 5.964447259902954102e-01
5.860000000000000000e+02 2.366904449462890625e+01 1.446964621543884277e+00 -1.839393734931945801e+00 -1.814861893653869629e-01 -6.062639951705932617e-01 5.589273571968078613e-01
5.870000000000000000e+02 2.469855880737304688e+01 3.134082555770874023e-01 -2.452153682708740234e+00 -1.819888949394226074e-01 -7.902427911758422852e-01 6.719555258750915527e-01
5.880000000000000000e+02 2.544886207580566406e+01 1.369469165802001953e-01 -2.514143943786621094e+00 -1.968551725149154663e-01 -8.132997751235961914e-01 6.928064823150634766e-01
5.890000000000000000e+02 2.545693969726562500e+01 8.995088934898376465e-01 -1.946661353111267090e+00 -1.988349854946136475e-01 -6.436489224433898926e-01 6.219222545623779297e-01
5.900000000000000000e+02 2.697899818420410156e+01 5.122158527374267578e-01 -2.025164127349853516e+00 -1.356043666601181030e-01 -6.482305526733398438e-01 6.002777814865112305e-01
5.910000000000000000e+02 2.926754379272460938e+01 -8.154577016830444336e-02 -2.071660995483398438e+00 2.212667465209960938e-01 -5.551182627677917480e-01 2.849007844924926758e-01
5.920000000000000000e+02 2.929613304138183594e+01 -8.536532521247863770e-01 -2.411250829696655273e+00 -2.658636309206485748e-02 -7.313511967658996582e-01 4.906702935695648193e-01
5.930000000000000000e+02 3.006602287292480469e+01 -1.052662253379821777e+00 -1.935580253601074219e+00 1.332588791847229004e-01 -5.406964421272277832e-01 1.954221725463867188e-01
5.940000000000000000e+02 2.621677017211914062e+01 7.081378102302551270e-01 -1.992923378944396973e+00 -1.754491627216339111e-01 -6.505117416381835938e-01 6.199161410331726074e-01
5.950000000000000000e+02 2.850458717346191406e+01 1.164546608924865723e-01 -2.049808740615844727e+00 3.027634508907794952e-02 -6.058597564697265625e-01 4.384591877460479736e-01
5.960000000000000000e+02 2.774171447753906250e+01 3.146288096904754639e-01 -2.047970056533813477e+00 -6.840762495994567871e-02 -6.349133253097534180e-01 5.427873134613037109e-01
5.970000000000000000e+02 2.399707603454589844e+01 1.007387638092041016e+00 -2.013191461563110352e+00 -1.874894499778747559e-01 -6.602042913436889648e-01 5.888370871543884277e-01
5.980000000000000000e+02 2.305155563354492188e+01 1.057019233703613281e+00 -2.181540966033935547e+00 -1.731834262609481812e-01 -7.064172625541687012e-01 6.102653741836547852e-01
5.990000000000000000e+02 2.005071449279785156e+01 1.556203603744506836e+00 -2.385206699371337891e+00 -1.343692094087600708e-01 -7.558727264404296875e-01 5.724840760231018066e-01
6.000000000000000000e+02 1.611225318908691406e+01 2.416136503219604492e+00 -1.140092730522155762e+00 2.026669867336750031e-02 -3.359478116035461426e-01 3.745157718658447266e-01
6.010000000000000000e+02 1.692862129211425781e+01 2.473628282546997070e+00 -1.432101726531982422e+00 5.023119226098060608e-02 -4.145611822605133057e-01 3.401305973529815674e-01
6.020000000000000000e+02 1.619552993774414062e+01 1.680045008659362793e+00 -1.327038168907165527e+00 1.747010648250579834e-02 -3.928703963756561279e-01 5.622519925236701965e-02
6.030000000000000000e+02 1.774459457397460938e+01 2.528052330017089844e+00 -1.701477766036987305e+00 -5.722270160913467407e-02 -5.276101231575012207e-01 4.104690849781036377e-01
6.040000000000000000e+02 1.851055526733398438e+01 1.834378838539123535e+00 -2.558570146560668945e+00 -1.624777317047119141e-01 -8.163143992424011230e-01 2.051460742950439453e-01
6.050000000000000000e+02 1.855901145935058594e+01 2.579250097274780273e+00 -1.686297416687011719e+00 -2.203722000122070312e-01 -5.720009207725524902e-01 4.383840262889862061e-01
6.060000000000000000e+02 1.696798706054687500e+01 1.734610080718994141e+00 -1.642212986946105957e+00 -1.490986347198486328e-02 -4.971368610858917236e-01 6.423548609018325806e-02
6.070000000000000000e+02 1.774004745483398438e+01 1.786107659339904785e+00 -2.005908727645874023e+00 2.608480863273143768e-02 -5.939471721649169922e-01 6.066904589533805847e-02
6.080000000000000000e+02 1.307423973083496094e+01 1.803115367889404297e+00 -2.286208271980285645e-01 6.734011229127645493e-03 -6.656604260206222534e-02 1.901328563690185547e-01
6.090000000000000000e+02 1.322374725341796875e+01 1.078295350074768066e+00 -2.219610661268234253e-02 2.755312249064445496e-02 1.607104553841054440e-03 7.668781280517578125e-02
6.100000000000000000e+02 1.396254444122314453e+01 1.243136167526245117e+00 -2.281936109066009521e-01 1.186814531683921814e-02 -6.489764153957366943e-02 7.377146929502487183e-02
6.110000000000000000e+02 1.470126342773437500e+01 1.407449364662170410e+00 -5.085462927818298340e-01 3.600898385047912598e-02 -1.417611837387084961e-01 4.844526574015617371e-02
6.120000000000000000e+02 1.544029712677001953e+01 1.569983482360839844e+00 -9.237037301063537598e-01 -1.019938383251428604e-02 -2.801709473133087158e-01 5.255591496825218201e-02
6.130000000000000000e+02 1.532874107360839844e+01 2.303210496902465820e+00 -9.053062796592712402e-01 6.960317492485046387e-02 -2.507109344005584717e-01 3.623371422290802002e-01
6.140000000000000000e+02 1.382568740844726562e+01 1.970758438110351562e+00 -4.147384762763977051e-01 4.232754930853843689e-02 -1.117232739925384521e-01 2.442240864038467407e-01
6.150000000000000000e+02 1.457705688476562500e+01 2.137874126434326172e+00 -6.819730401039123535e-01 4.669445380568504333e-02 -1.905835717916488647e-01 3.250461816787719727e-01
6.160000000000000000e+02 1.104393005371093750e+01 6.161050796508789062e-01 2.445904463529586792e-01 7.645937148481607437e-04 7.360651344060897827e-02 6.370416283607482910e-02
6.170000000000000000e+02 1.093760776519775391e+01 1.349887132644653320e+00 7.294318079948425293e-02 -1.400543563067913055e-02 1.768132299184799194e-02 5.695755034685134888e-02
6.180000000000000000e+02 1.032133674621582031e+01 4.645727574825286865e-01 2.488617599010467529e-01 -2.292393473908305168e-03 7.397080957889556885e-02 4.047654569149017334e-02
6.190000000000000000e+02 1.176770782470703125e+01 7.675349712371826172e-01 2.033562660217285156e-01 1.804738678038120270e-02 6.642109155654907227e-02 6.953731179237365723e-02
6.200000000000000000e+02 1.234649181365966797e+01 1.644436478614807129e+00 -9.308224916458129883e-02 1.240856945514678955e-02 -2.420210279524326324e-02 1.370058953762054443e-01
6.210000000000000000e+02 1.249242305755615234e+01 9.189449548721313477e-01 1.169127672910690308e-01 5.036151967942714691e-03 3.658467531204223633e-02 8.060014992952346802e-02
6.220000000000000000e+02 1.023481845855712891e+01 1.202500104904174805e+00 1.275452375411987305e-01 -3.281595185399055481e-02 2.841878496110439301e-02 4.109137505292892456e-02
6.230000000000000000e+02 1.164158153533935547e+01 1.497171759605407715e+00 3.050758736208081245e-03 -1.802329719066619873e-02 -4.491761792451143265e-03 1.047967523336410522e-01
6.240000000000000000e+02 7.887229919433593750e+00 3.867234289646148682e-01 2.682327628135681152e-01 -2.746286801993846893e-03 7.964593917131423950e-02 -7.511095609515905380e-03
6.250000000000000000e+02 8.716233253479003906e+00 3.873925805091857910e-01 2.778052389621734619e-01 -2.321632346138358116e-03 8.264508098363876343e-02 -2.140980912372469902e-03
6.260000000000000000e+02 7.056899547576904297e+00 3.878324329853057861e-01 2.462235689163208008e-01 -1.294204615987837315e-03 7.347881048917770386e-02 -1.259867753833532333e-02
6.270000000000000000e+02 6.178035259246826172e+00 1.128378868103027344e+00 1.260918974876403809e-01 -5.151398945599794388e-03 3.628215193748474121e-02 -3.629092872142791748e-02
6.280000000000000000e+02 4.565147399902343750e+00 3.867084681987762451e-01 1.460870206356048584e-01 2.784645475912839174e-04 4.390964657068252563e-02 -1.667636446654796600e-02
6.290000000000000000e+02 3.734298944473266602e+00 3.859201967716217041e-01 1.080507561564445496e-01 -1.955572806764394045e-04 3.235656023025512695e-02 -1.697579212486743927e-02
6.300000000000000000e+02 2.903336763381958008e+00 3.870553672313690186e-01 7.115475833415985107e-02 1.037153415381908417e-03 2.165757492184638977e-02 -1.574526913464069366e-02
6.310000000000000000e+02 2.880990266799926758e+00 1.127055406570434570e+00 5.061703920364379883e-02 2.321475418284535408e-03 1.588155515491962433e-02 -4.111455008387565613e-02
6.320000000000000000e+02 2.073071718215942383e+00 3.892002105712890625e-01 3.809975460171699524e-02 1.342528965324163437e-03 1.183268520981073380e-02 -1.346693839877843857e-02
6.330000000000000000e+02 2.057110071182250977e+00 1.129200220108032227e+00 3.197992593050003052e-02 8.119696751236915588e-03 1.202988624572753906e-02 -3.417566791176795959e-02
6.340000000000000000e+02 1.234333992004394531e+00 1.129331231117248535e+00 1.515071839094161987e-02 1.221808325499296188e-02 8.210640400648117065e-03 -2.321202121675014496e-02
6.350000000000000000e+02 4.116423428058624268e-01 1.129539847373962402e+00 3.717119572684168816e-03 1.127403322607278824e-02 4.497345536947250366e-03 -7.790476549416780472e-03
6.360000000000000000e+02 4.148346781730651855e-01 3.895398080348968506e-01 2.518582157790660858e-03 1.890028477646410465e-03 1.322583178989589214e-03 -2.298045903444290161e-03
6.370000000000000000e+02 4.530031204223632812e+00 1.126708507537841797e+00 9.145031869411468506e-02 -2.243894385173916817e-03 2.676192671060562134e-02 -4.294087365269660950e-02
6.380000000000000000e+02 5.353859424591064453e+00 1.127378344535827637e+00 1.104292795062065125e-01 -1.273874077014625072e-03 3.274662047624588013e-02 -3.945961967110633850e-02
6.390000000000000000e+02 6.225920200347900391e+00 3.883788883686065674e-01 2.168273180723190308e-01 -4.621641128323972225e-04 6.490954756736755371e-02 -1.430581789463758469e-02
6.400000000000000000e+02 7.002630233764648438e+00 1.127832412719726562e+00 1.379806846380233765e-01 -5.531710572540760040e-03 3.973469510674476624e-02 -2.713966555893421173e-02
6.410000000000000000e+02 7.826575756072998047e+00 1.126723408699035645e+00 1.451468765735626221e-01 -1.012933347374200821e-02 4.050526022911071777e-02 -1.938749104738235474e-02
6.420000000000000000e+02 9.544963836669921875e+00 3.890661597251892090e-01 2.593153715133666992e-01 -1.306167431175708771e-02 7.387610524892807007e-02 1.660577207803726196e-02
6.430000000000000000e+02 9.471539497375488281e+00 1.129066109657287598e+00 1.483539193868637085e-01 -2.786377258598804474e-02 3.614704683423042297e-02 1.876258291304111481e-02
6.440000000000000000e+02 3.705567836761474609e+00 1.125920176506042480e+00 7.163829356431961060e-02 1.837238320149481297e-03 2.204266004264354706e-02 -4.259870573878288269e-02
6.450000000000000000e+02 1.243910908699035645e+00 3.893312513828277588e-01 1.415835972875356674e-02 3.365968121215701103e-03 5.257298238575458527e-03 -7.876635529100894928e-03
6.460000000000000000e+02 5.395359992980957031e+00 3.873783648014068604e-01 1.827319711446762085e-01 -8.991096401587128639e-04 5.454985797405242920e-02 -1.623141579329967499e-02
6.470000000000000000e+02 8.649193763732910156e+00 1.127392530441284180e+00 1.419567465782165527e-01 -1.804310828447341919e-02 3.717409074306488037e-02 2.284959424287080765e-03
6.480000000000000000e+02 1.338139057159423828e+01 3.142086565494537354e-01 -4.559103250503540039e-01 1.593152284622192383e-01 -8.897852897644042969e-02 -1.472088843584060669e-01
6.490000000000000000e+02 1.410687160491943359e+01 4.760258793830871582e-01 -4.972080588340759277e-01 -2.482227385044097900e-01 -2.236292362213134766e-01 -9.366151690483093262e-02
6.500000000000000000e+02 1.353089809417724609e+01 -4.106113612651824951e-01 -3.385375738143920898e-01 -2.273876965045928955e-01 -1.697775870561599731e-01 -1.253028362989425659e-01
6.510000000000000000e+02 1.483218193054199219e+01 6.374483108520507812e-01 -5.184047818183898926e-01 2.053875625133514404e-01 -9.390517324209213257e-02 -1.686401367187500000e-01
6.520000000000000000e+02 1.495638942718505859e+01 -9.297639876604080200e-02 -3.899110257625579834e-01 -2.629565000534057617e-01 -1.958602666854858398e-01 -9.444040060043334961e-02
6.530000000000000000e+02 1.566942024230957031e+01 6.387124955654144287e-02 -4.257008135318756104e-01 2.970387339591979980e-01 -3.859861940145492554e-02 -1.512515693902969360e-01
6.540000000000000000e+02 1.555786418914794922e+01 7.970982789993286133e-01 -5.417979955673217773e-01 -2.467709481716156006e-01 -2.365706861019134521e-01 -7.318454235792160034e-02
6.550000000000000000e+02 1.424372863769531250e+01 -2.515964508056640625e-01 -3.817437291145324707e-01 1.838801205158233643e-01 -5.935908481478691101e-02 -1.442158371210098267e-01
6.560000000000000000e+02 3.208315134048461914e+00 -2.007737398147583008e+00 -1.954139396548271179e-02 6.274776533246040344e-03 -3.979985136538743973e-03 -1.528832688927650452e-02
6.570000000000000000e+02 4.681486606597900391e+00 -1.936975002288818359e+00 -3.624618798494338989e-02 1.209572050720453262e-02 -7.245140615850687027e-03 -2.793525345623493195e-02
6.580000000000000000e+02 9.984448432922363281e+00 -2.533191919326782227e+00 -1.145193725824356079e-01 3.532373160123825073e-02 -2.375869452953338623e-02 -1.092416942119598389e-01
6.590000000000000000e+02 1.791055870056152344e+01 -2.962416648864746094e+00 1.613263785839080811e-01 2.994714081287384033e-01 1.382393389940261841e-01 1.207450479269027710e-01
6.600000000000000000e+02 1.703590774536132812e+01 -1.853070497512817383e+00 8.360198698937892914e-03 -1.002173498272895813e-01 -2.755714580416679382e-02 -9.633862972259521484e-02
6.610000000000000000e+02 2.011634445190429688e+01 -9.006749987602233887e-01 2.010096311569213867e-01 3.400238752365112305e-01 1.623100489377975464e-01 -1.737841069698333740e-01
6.620000000000000000e+02 1.741252899169921875e+01 -4.492972493171691895e-01 -4.366182684898376465e-01 -1.419631689786911011e-01 -1.735744327306747437e-01 1.711205462925136089e-03
6.630000000000000000e+02 5.624098777770996094e-01 -1.061804866790771484e+01 -2.444308716803789139e-03 -7.676406204700469971e-02 -2.376251108944416046e-02 -6.020281463861465454e-03
6.640000000000000000e+02 6.642453193664550781e+00 -1.482431030273437500e+01 -1.438411772251129150e-01 -2.080499082803726196e-01 -1.055673286318778992e-01 -1.619137823581695557e-01
6.650000000000000000e+02 1.013817596435546875e+01 -1.259233379364013672e+01 -1.302606910467147827e-01 -5.414299666881561279e-02 -5.532110482454299927e-02 -4.416769370436668396e-02
6.660000000000000000e+02 8.929430007934570312e+00 -1.300859069824218750e+01 -1.869934201240539551e-01 -1.168720051646232605e-01 -9.115962684154510498e-02 -1.366580277681350708e-01
6.670000000000000000e+02 1.257940864562988281e+01 -1.203074741363525391e+01 2.335124649107456207e-02 1.107242256402969360e-01 4.022264108061790466e-02 -8.843060582876205444e-02
6.680000000000000000e+02 1.818592834472656250e+01 -1.578491020202636719e+01 1.132811754941940308e-01 1.452642977237701416e-01 7.756364345550537109e-02 -2.680421769618988037e-01
6.690000000000000000e+02 1.667233085632324219e+01 -1.042859172821044922e+01 -7.074923813343048096e-02 2.106861025094985962e-01 4.198105633258819580e-02 2.588537894189357758e-02
6.700000000000000000e+02 1.702665710449218750e+01 -8.433247566223144531e+00 6.741739809513092041e-02 3.951055109500885010e-01 1.387568712234497070e-01 -2.305299602448940277e-02
6.710000000000000000e+02 1.706049919128417969e+01 -5.531489849090576172e+00 9.566690772771835327e-02 3.877602517604827881e-01 1.450281441211700439e-01 5.416458100080490112e-02
6.720000000000000000e+02 3.192968606948852539e+00 -2.144840049743652344e+01 9.032312780618667603e-02 -2.659430801868438721e-01 -5.268598347902297974e-02 -9.609186649322509766e-02
6.730000000000000000e+02 6.024538516998291016e+00 -2.177229309082031250e+01 2.376163005828857422e-01 2.303701788187026978e-01 1.403959393501281738e-01 -2.153870314359664917e-01
6.740000000000000000e+02 7.697726249694824219e+00 -2.301364517211914062e+01 2.090566754341125488e-01 1.491973102092742920e-01 1.074761971831321716e-01 -1.775985956192016602e-01
6.750000000000000000e+02 4.127712726593017578e+00 -2.401649093627929688e+01 5.599937587976455688e-02 -1.451367288827896118e-01 -2.674120664596557617e-02 -4.417016729712486267e-02
6.760000000000000000e+02 6.504508256912231445e-01 -3.031592369079589844e+01 2.731374464929103851e-03 -6.517250537872314453e-01 -1.946981102228164673e-01 1.760260760784149170e-02
6.770000000000000000e+02 1.205595207214355469e+01 -3.670977020263671875e+01 -5.076646059751510620e-02 7.426677942276000977e-01 2.075704038143157959e-01 1.280795335769653320e-01
6.780000000000000000e+02 1.318498802185058594e+01 -3.741112899780273438e+01 -6.171840801835060120e-02 5.117077231407165527e-01 1.349968016147613525e-01 7.309404015541076660e-02
6.790000000000000000e+02 1.256474304199218750e+01 -3.520999145507812500e+01 1.142701786011457443e-02 9.672974944114685059e-01 2.936173379421234131e-01 8.935437351465225220e-02
6.800000000000000000e+02 1.244859695434570312e+01 -3.048534011840820312e+01 4.007000625133514404e-01 9.684751033782958984e-01 4.107525348663330078e-01 3.824065625667572021e-01
6.810000000000000000e+02 1.417133045196533203e+01 -2.978523826599121094e+01 5.435782670974731445e-01 1.243874907493591309e+00 5.362359881401062012e-01 7.382567524909973145e-01
6.820000000000000000e+02 1.503849124908447266e+01 -2.866729354858398438e+01 6.817880272865295410e-01 1.041610836982727051e+00 5.170196294784545898e-01 7.949020862579345703e-01
6.830000000000000000e+02 1.166613674163818359e+01 -2.297855758666992188e+01 -1.926171593368053436e-02 8.208531141281127930e-02 1.884707808494567871e-02 5.072425678372383118e-02
6.840000000000000000e+02 1.033200740814208984e+01 -2.315342712402343750e+01 -5.659500509500503540e-02 1.531851012259721756e-02 -1.238294877111911774e-02 -3.608224168419837952e-02
6.850000000000000000e+02 1.140013599395751953e+01 -2.461284446716308594e+01 1.700271517038345337e-01 1.929406970739364624e-01 1.088903546333312988e-01 6.948787719011306763e-02
6.860000000000000000e+02 7.492211341857910156e+00 -3.654047012329101562e+01 -6.724999099969863892e-02 2.493850886821746826e-01 5.464052781462669373e-02 3.255618512630462646e-01
6.870000000000000000e+02 9.418053627014160156e+00 -3.494536209106445312e+01 4.739293456077575684e-02 4.578433036804199219e-01 1.515708714723587036e-01 3.098350763320922852e-01
6.880000000000000000e+02 6.715714335441589355e-01 -3.171144294738769531e+01 6.765025667846202850e-03 -6.003088355064392090e-01 -1.780631393194198608e-01 2.814985625445842743e-02
6.890000000000000000e+02 9.106782078742980957e-01 -3.727393341064453125e+01 1.963700912892818451e-02 -2.553449273109436035e-01 -7.071237266063690186e-02 6.644169241189956665e-02
6.900000000000000000e+02 3.019061565399169922e+00 -3.785409545898437500e+01 -4.671441856771707535e-04 -8.638705313205718994e-02 -2.605625800788402557e-02 1.684654653072357178e-01
6.910000000000000000e+02 2.215929985046386719e+01 -3.978473663330078125e+01 -6.605315804481506348e-01 3.553994297981262207e-01 -9.153964370489120483e-02 3.615438565611839294e-02
6.920000000000000000e+02 2.254726219177246094e+01 -4.151031875610351562e+01 -8.666725754737854004e-01 5.714148283004760742e-01 -8.857732266187667847e-02 1.618019938468933105e-01
6.930000000000000000e+02 2.510101127624511719e+01 -4.043727493286132812e+01 -8.515123128890991211e-01 1.921840548515319824e+00 3.210984766483306885e-01 -1.387770920991897583e-01
6.940000000000000000e+02 2.881069946289062500e+01 -3.914794158935546875e+01 -4.916171431541442871e-01 2.402896881103515625e+00 5.733839273452758789e-01 -1.572266221046447754e-01
6.950000000000000000e+02 2.630164337158203125e+01 -3.855994796752929688e+01 -3.617442548274993896e-01 2.403754472732543945e+00 6.126030683517456055e-01 -2.921738624572753906e-01
6.960000000000000000e+02 3.911617279052734375e+01 -3.401762390136718750e+01 7.551612854003906250e-01 7.381824493408203125e+00 2.441095829010009766e+00 -1.110612526535987854e-01
6.970000000000000000e+02 3.914395904541015625e+01 -3.208469009399414062e+01 1.203602075576782227e+00 9.107991218566894531e+00 3.093478202819824219e+00 2.229413270950317383e+00
6.980000000000000000e+02 3.650427627563476562e+01 -2.962365341186523438e+01 -6.755188107490539551e-01 1.646028995513916016e+00 2.911530435085296631e-01 1.148531317710876465e+00
6.990000000000000000e+02 3.633939743041992188e+01 -3.132963752746582031e+01 1.224605560302734375e+00 2.215622186660766602e+00 1.032068371772766113e+00 9.251665472984313965e-01
7.000000000000000000e+02 3.015296363830566406e+01 -2.525609016418457031e+01 5.098925828933715820e-01 2.279422283172607422e+00 8.367944955825805664e-01 -1.105154871940612793e+00
7.010000000000000000e+02 2.933895874023437500e+01 -2.425852775573730469e+01 7.676912546157836914e-01 4.816067695617675781e+00 1.675127744674682617e+00 -1.304056763648986816e+00
7.020000000000000000e+02 2.928102111816406250e+01 -2.605044746398925781e+01 -6.837495565414428711e-01 3.422399759292602539e+00 8.215950727462768555e-01 -4.585641026496887207e-01
7.030000000000000000e+02 2.244473838806152344e+01 -2.805266189575195312e+01 -8.588778376579284668e-01 -6.978768110275268555e-02 -2.785996496677398682e-01 5.701720714569091797e-01
7.040000000000000000e+02 2.316032218933105469e+01 -2.702801704406738281e+01 -7.159019112586975098e-01 8.815720081329345703e-01 4.970101639628410339e-02 1.959936618804931641e-01
7.050000000000000000e+02 2.344039916992187500e+01 -2.902897071838378906e+01 -5.108419656753540039e-01 7.201983332633972168e-01 6.280691176652908325e-02 3.724402934312820435e-02
7.060000000000000000e+02 2.520982742309570312e+01 -2.886385726928710938e+01 -9.595920443534851074e-01 2.579227924346923828e+00 4.858907461166381836e-01 3.270446062088012695e-01
7.070000000000000000e+02 2.959022712707519531e+01 -3.133567810058593750e+01 -2.453889101743698120e-01 2.023301362991333008e+00 5.333737730979919434e-01 -3.731901645660400391e-01
7.080000000000000000e+02 2.503558731079101562e+01 -3.347476959228515625e+01 -1.169438567012548447e-02 3.466500520706176758e+00 1.036441802978515625e+00 -1.054266840219497681e-01
7.090000000000000000e+02 2.353845214843750000e+01 -3.894835662841796875e+01 -2.324021309614181519e-01 8.930350542068481445e-01 1.981898844242095947e-01 2.849546372890472412e-01
7.100000000000000000e+02 4.023840332031250000e+01 -3.649755859375000000e+01 -5.373630523681640625e-01 1.834992647171020508e+00 3.892889022827148438e-01 -1.120305210351943970e-01
7.110000000000000000e+02 4.607146453857421875e+01 -3.754548645019531250e+01 -1.834842085838317871e+00 -1.830305159091949463e-01 -6.053617596626281738e-01 -4.257513284683227539e-01
7.120000000000000000e+02 4.822943496704101562e+01 -3.635603332519531250e+01 2.934083640575408936e-01 3.032257556915283203e+00 9.976997971534729004e-01 1.511020302772521973e+00
7.130000000000000000e+02 5.798931121826171875e+01 -3.737541580200195312e+01 -9.003973007202148438e-01 2.688994407653808594e+00 5.365791320800781250e-01 -1.176905870437622070e+00
7.140000000000000000e+02 5.650756454467773438e+01 -3.529708480834960938e+01 1.609309911727905273e+00 9.608256340026855469e+00 3.365269899368286133e+00 -2.409009456634521484e+00
7.150000000000000000e+02 5.776268386840820312e+01 -4.120802307128906250e+01 -2.343711137771606445e+00 3.468993186950683594e+00 3.375845849514007568e-01 -5.872869491577148438e-01
7.160000000000000000e+02 5.822300720214843750e+01 -3.886816787719726562e+01 -1.905918955802917480e+00 2.655929565429687500e+00 2.250032126903533936e-01 -1.256167411804199219e+00
7.170000000000000000e+02 6.134774017333984375e+01 -3.873728942871093750e+01 -3.749645948410034180e+00 -9.696795940399169922e-01 -1.415797710418701172e+00 7.745373249053955078e-02
7.180000000000000000e+02 6.421865844726562500e+01 -3.736290359497070312e+01 -1.456907391548156738e+00 1.210127115249633789e+00 -7.403408735990524292e-02 2.508382871747016907e-02
7.190000000000000000e+02 6.892108917236328125e+01 -3.411661148071289062e+01 1.163952469825744629e+00 6.159480571746826172e+00 2.197030067443847656e+00 -1.706140875816345215e+00
7.200000000000000000e+02 7.791094970703125000e+01 -4.163701629638671875e+01 -1.910574175417423248e-02 8.290603637695312500e+00 2.481449365615844727e+00 -5.094435997307300568e-03
7.210000000000000000e+02 7.758638000488281250e+01 -3.673047637939453125e+01 5.090581253170967102e-02 7.830782413482666016e+00 2.364506483078002930e+00 -1.814675778150558472e-01
7.220000000000000000e+02 7.807048034667968750e+01 -3.021072769165039062e+01 -1.016235277056694031e-01 7.817917346954345703e+00 2.314888238906860352e+00 8.287547528743743896e-02
7.230000000000000000e+02 7.475329589843750000e+01 -2.056851577758789062e+01 1.274039506912231445e+00 1.039495944976806641e+01 3.500699758529663086e+00 1.143368333578109741e-01
7.240000000000000000e+02 7.228048706054687500e+01 -1.763904762268066406e+01 1.246945858001708984e+00 3.860845565795898438e+00 1.532337427139282227e+00 -1.912718653678894043e+00
7.250000000000000000e+02 7.826842498779296875e+01 -1.111334419250488281e+01 -3.693523108959197998e-01 9.604814529418945312e+00 2.770638704299926758e+00 -7.412772774696350098e-01
7.260000000000000000e+02 7.939065551757812500e+01 -1.250965785980224609e+01 -3.487079590559005737e-02 1.071917724609375000e+01 3.205291986465454102e+00 -9.999790042638778687e-02
7.270000000000000000e+02 7.303016662597656250e+01 -1.145891094207763672e+01 -2.899378538131713867e+00 3.267183005809783936e-01 -7.717980742454528809e-01 -5.254949331283569336e-01
7.280000000000000000e+02 7.104663848876953125e+01 -1.209433841705322266e+01 -2.712376832962036133e+00 -4.278579056262969971e-01 -9.420704245567321777e-01 -1.098430156707763672e+00
7.290000000000000000e+02 6.940084838867187500e+01 -1.320553112030029297e+01 -5.779081583023071289e-01 4.616413414478302002e-01 -3.488004580140113831e-02 -2.120987892150878906e+00
7.300000000000000000e+02 6.958473205566406250e+01 -1.541045761108398438e+01 -9.570755362510681152e-01 1.210284829139709473e-01 -2.508141100406646729e-01 -1.462746262550354004e+00
7.310000000000000000e+02 7.127899932861328125e+01 -1.701581954956054688e+01 1.341258406639099121e+00 1.260736346244812012e+00 7.805984020233154297e-01 -9.101957678794860840e-01
7.320000000000000000e+02 7.033877563476562500e+01 -1.641287231445312500e+01 -4.708066880702972412e-01 2.467491477727890015e-01 -6.721726059913635254e-02 -8.424409031867980957e-01
7.330000000000000000e+02 7.348545837402343750e+01 -1.946849441528320312e+01 1.415189027786254883e+00 1.015822029113769531e+01 3.472022771835327148e+00 -2.150386571884155273e+00
7.340000000000000000e+02 7.822193145751953125e+01 -1.809288597106933594e+01 9.141860902309417725e-02 8.504251480102539062e+00 2.578701019287109375e+00 1.007128953933715820e+00
7.350000000000000000e+02 7.716643524169921875e+01 -1.077600669860839844e+01 -7.145342230796813965e-01 9.700898170471191406e+00 2.695909023284912109e+00 -1.040427088737487793e+00
7.360000000000000000e+02 7.532673645019531250e+01 -8.073465347290039062e+00 6.971622109413146973e-01 1.422400760650634766e+01 4.476350784301757812e+00 3.500253856182098389e-01
7.370000000000000000e+02 7.670748901367187500e+01 -6.873330116271972656e+00 1.130105733871459961e+00 1.074677276611328125e+01 3.563063621520996094e+00 -5.203441381454467773e-01
7.380000000000000000e+02 7.679323577880859375e+01 -5.459565639495849609e+00 9.202682375907897949e-01 1.029448699951171875e+01 3.364426612854003906e+00 4.801337420940399170e-02
7.390000000000000000e+02 7.935439300537109375e+01 2.860399961471557617e+00 3.423847956582903862e-03 8.693724632263183594e+00 2.609144687652587891e+00 -2.317829579114913940e-01
7.400000000000000000e+02 6.862393951416015625e+01 4.145797729492187500e+00 3.549272418022155762e-01 2.070523262023925781e+00 7.276351451873779297e-01 1.926699757575988770e+00
7.410000000000000000e+02 6.677218627929687500e+01 5.945607185363769531e+00 -1.108083486557006836e+00 4.389896392822265625e-01 -2.007281333208084106e-01 7.550132274627685547e-01
7.420000000000000000e+02 6.295759201049804688e+01 5.992179393768310547e+00 -7.488390207290649414e-01 3.145036220550537109e+00 7.188591361045837402e-01 -1.527916550636291504e+00
7.430000000000000000e+02 6.317044067382812500e+01 8.370067596435546875e+00 2.919838428497314453e-01 1.349793791770935059e+00 4.925332963466644287e-01 -7.712981104850769043e-01
7.440000000000000000e+02 6.100222015380859375e+01 -3.400833129882812500e+00 1.938065528869628906e+00 1.266231060028076172e+01 4.380112648010253906e+00 -2.670337438583374023e+00
7.450000000000000000e+02 6.499457550048828125e+01 -3.310451269149780273e+00 1.369862318038940430e+00 7.395760536193847656e+00 2.629686832427978516e+00 1.215557456016540527e+00
7.460000000000000000e+02 6.123817443847656250e+01 -4.771594524383544922e+00 3.334723711013793945e-01 1.130855464935302734e+01 3.492608070373535156e+00 -9.294298887252807617e-01
7.470000000000000000e+02 6.334516525268554688e+01 -6.652322292327880859e+00 1.618476510047912598e+00 9.349412918090820312e+00 3.290366649627685547e+00 -1.300237029790878296e-01
7.480000000000000000e+02 6.204123306274414062e+01 -9.929247856140136719e+00 -4.295112490653991699e-01 7.251590251922607422e+00 2.046623706817626953e+00 7.709082961082458496e-01
7.490000000000000000e+02 6.138809204101562500e+01 -8.820049285888671875e+00 1.126714706420898438e+00 8.025478363037109375e+00 2.745657920837402344e+00 1.480080485343933105e+00
7.500000000000000000e+02 5.817176818847656250e+01 -1.099867248535156250e+01 -6.660774350166320801e-01 1.424023747444152832e+00 2.273838967084884644e-01 1.078360900282859802e-02
7.510000000000000000e+02 6.006515502929687500e+01 -1.109847736358642578e+01 -6.231047511100769043e-01 5.280863761901855469e+00 1.397327780723571777e+00 2.111253261566162109e+00
7.520000000000000000e+02 5.690730667114257812e+01 -1.024888706207275391e+01 -6.340371966361999512e-01 5.760591030120849609e-01 -1.739342696964740753e-02 -1.229756832122802734e+00
7.530000000000000000e+02 5.401603698730468750e+01 -1.003246879577636719e+01 1.618227124214172363e+00 4.575239181518554688e+00 1.858039975166320801e+00 -3.005611896514892578e+00
7.540000000000000000e+02 4.789229965209960938e+01 -6.838159084320068359e+00 2.237206935882568359e+00 9.839847564697265625e+00 3.623116254806518555e+00 -1.889564633369445801e+00
7.550000000000000000e+02 4.853136062622070312e+01 -5.642059803009033203e+00 1.473407983779907227e+00 7.976580619812011719e+00 2.834996461868286133e+00 -9.306780099868774414e-01
7.560000000000000000e+02 5.014690017700195312e+01 -4.944556236267089844e+00 1.753318071365356445e+00 8.124548912048339844e+00 2.963360071182250977e+00 -4.665566682815551758e-01
7.570000000000000000e+02 4.584410858154296875e+01 -5.529224395751953125e+00 2.033969402313232422e+00 3.472807168960571289e+00 1.652032971382141113e+00 -2.731391429901123047e+00
7.580000000000000000e+02 4.970926666259765625e+01 -7.748219966888427734e+00 2.765270709991455078e+00 8.406947135925292969e+00 3.351665258407592773e+00 5.142114683985710144e-02
7.590000000000000000e+02 4.830540084838867188e+01 -1.020524024963378906e+01 2.538749694824218750e+00 1.195740222930908203e+01 4.348845481872558594e+00 1.424250721931457520e+00
7.600000000000000000e+02 5.054257965087890625e+01 -1.310872650146484375e+01 -2.814253270626068115e-01 4.305985927581787109e+00 1.207368135452270508e+00 -9.619746208190917969e-01
7.610000000000000000e+02 4.742602920532226562e+01 -1.113172340393066406e+01 2.881198883056640625e+00 1.262458324432373047e+01 4.651734828948974609e+00 3.447769641876220703e+00
7.620000000000000000e+02 4.540853881835937500e+01 -1.303084087371826172e+01 -2.079043149948120117e+00 3.035684823989868164e+00 2.869924306869506836e-01 1.498491406440734863e+00
7.630000000000000000e+02 4.275662994384765625e+01 -1.382359409332275391e+01 -7.462745189666748047e+00 -3.307769596576690674e-01 -2.338056564331054688e+00 -4.597812145948410034e-02
7.640000000000000000e+02 4.055956649780273438e+01 -1.970548439025878906e+01 1.374535918235778809e+00 3.597939968109130859e+00 1.491742730140686035e+00 -6.627345681190490723e-01
7.650000000000000000e+02 4.150585174560546875e+01 -1.436107730865478516e+01 -5.255778789520263672e+00 -3.125366941094398499e-02 -1.586109757423400879e+00 -4.970426559448242188e-01
7.660000000000000000e+02 4.072182846069335938e+01 -1.336604690551757812e+01 -5.021295070648193359e+00 2.448188513517379761e-01 -1.432942867279052734e+00 2.888132929801940918e-01
7.670000000000000000e+02 3.745030212402343750e+01 -1.189711189270019531e+01 -1.213432431221008301e+00 4.598472118377685547e+00 1.015511870384216309e+00 -6.433759331703186035e-01
7.680000000000000000e+02 3.708934783935546875e+01 -7.867089748382568359e+00 1.417060256004333496e+00 1.238141250610351562e+01 4.139541625976562500e+00 1.529070615768432617e+00
7.690000000000000000e+02 3.832748031616210938e+01 -5.139073371887207031e+00 3.965302467346191406e+00 7.913451194763183594e+00 3.563626050949096680e+00 5.024735450744628906e+00
7.700000000000000000e+02 3.429801177978515625e+01 -1.969827532768249512e+00 1.302723437547683716e-01 1.477912306785583496e+00 4.824553728103637695e-01 1.155986666679382324e+00
7.710000000000000000e+02 3.924515914916992188e+01 -2.474253065884113312e-02 2.159157037734985352e+00 1.060698127746582031e+01 3.829841375350952148e+00 3.492665529251098633e+00
7.720000000000000000e+02 3.990882492065429688e+01 4.313177764415740967e-01 4.084751129150390625e+00 1.009754180908203125e+01 4.254688262939453125e+00 1.132752537727355957e+00
7.730000000000000000e+02 4.477323532104492188e+01 -4.745988368988037109e+00 7.025984525680541992e-01 2.030031681060791016e+00 8.197890520095825195e-01 -1.519871115684509277e+00
7.740000000000000000e+02 7.798937988281250000e+01 4.464161872863769531e+00 -7.752476632595062256e-02 7.605011940002441406e+00 2.258246183395385742e+00 -7.680087089538574219e-01
7.750000000000000000e+02 7.931541442871093750e+01 8.457022666931152344e+00 1.916421228088438511e-03 6.124359607696533203e+00 1.837882757186889648e+00 -3.160133957862854004e-01
7.760000000000000000e+02 7.199984741210937500e+01 1.387637424468994141e+01 6.224189400672912598e-01 1.333489322662353516e+01 4.187193393707275391e+00 -1.242878556251525879e+00
7.770000000000000000e+02 7.196711730957031250e+01 1.051277542114257812e+01 1.755201220512390137e+00 1.249214649200439453e+01 4.274204254150390625e+00 2.438543796539306641e+00
7.780000000000000000e+02 7.141307830810546875e+01 9.413216590881347656e+00 1.835411667823791504e+00 8.479049682617187500e+00 3.094338178634643555e+00 3.275689840316772461e+00
7.790000000000000000e+02 6.897064208984375000e+01 7.314906120300292969e+00 4.861642420291900635e-01 1.105756640434265137e+00 4.775762557983398438e-01 1.093773007392883301e+00
7.800000000000000000e+02 7.937366485595703125e+01 1.261325454711914062e+01 5.712247639894485474e-02 5.013098239898681641e+00 1.521066188812255859e+00 4.382651299238204956e-02
7.810000000000000000e+02 7.945209503173828125e+01 1.677787971496582031e+01 -4.690253175795078278e-03 6.309899806976318359e+00 1.891562819480895996e+00 2.530582845211029053e-01
7.820000000000000000e+02 7.015995025634765625e+01 1.757747650146484375e+01 1.444097906351089478e-01 3.051256179809570312e+00 9.586998224258422852e-01 -1.333272099494934082e+00
7.830000000000000000e+02 7.163696289062500000e+01 1.519455528259277344e+01 1.429399728775024414e+00 1.169213676452636719e+01 3.936460971832275391e+00 -2.571771621704101562e+00
7.840000000000000000e+02 7.839293670654296875e+01 1.824963951110839844e+01 -1.283407658338546753e-01 7.028474330902099609e+00 2.070039987564086914e+00 5.597305893898010254e-01
7.850000000000000000e+02 7.942350006103515625e+01 2.367672920227050781e+01 -2.464356075506657362e-04 7.753625392913818359e+00 2.326013803482055664e+00 -3.629298135638237000e-02
7.860000000000000000e+02 6.730534362792968750e+01 3.125236320495605469e+01 8.829963803291320801e-01 5.321351051330566406e+00 1.861304283142089844e+00 9.486590027809143066e-01
7.870000000000000000e+02 6.348341751098632812e+01 3.059968185424804688e+01 3.003322482109069824e-01 7.670226573944091797e+00 2.391167640686035156e+00 -1.685513742268085480e-02
7.880000000000000000e+02 6.349943542480468750e+01 2.808261871337890625e+01 7.302606105804443359e-01 9.629633903503417969e+00 3.107968330383300781e+00 1.156914830207824707e+00
7.890000000000000000e+02 6.409844207763671875e+01 2.706623077392578125e+01 2.339304447174072266e+00 8.800320625305175781e+00 3.341887474060058594e+00 2.066632747650146484e+00
7.900000000000000000e+02 6.329387664794921875e+01 2.619354820251464844e+01 2.826194763183593750e+00 1.027755451202392578e+01 3.931124925613403320e+00 3.718944787979125977e+00
7.910000000000000000e+02 6.482369995117187500e+01 2.131761169433593750e+01 -1.457279682159423828e+00 2.129113197326660156e+00 2.015500515699386597e-01 3.142527580261230469e+00
7.920000000000000000e+02 6.230315017700195312e+01 2.393433952331542969e+01 5.432173013687133789e-01 5.904384613037109375e+00 1.934280514717102051e+00 3.385775566101074219e+00
7.930000000000000000e+02 5.844674682617187500e+01 2.327597427368164062e+01 -6.180962562561035156e+00 -6.846027821302413940e-02 -1.874826908111572266e+00 -3.685344457626342773e-01
7.940000000000000000e+02 5.721153259277343750e+01 2.330418777465820312e+01 -3.810034513473510742e+00 5.227215886116027832e-01 -9.861938357353210449e-01 -6.640949249267578125e-01
7.950000000000000000e+02 5.548086929321289062e+01 2.433621025085449219e+01 1.539840400218963623e-01 2.991350650787353516e+00 9.436004161834716797e-01 -1.734339118003845215e+00
7.960000000000000000e+02 5.465048980712890625e+01 2.531910324096679688e+01 1.702464699745178223e+00 5.205080986022949219e+00 2.072263717651367188e+00 -2.808364152908325195e+00
7.970000000000000000e+02 4.900815582275390625e+01 2.305957603454589844e+01 7.559052109718322754e-01 4.989250659942626953e+00 1.723546743392944336e+00 3.133003711700439453e-01
7.980000000000000000e+02 4.563978958129882812e+01 2.477682495117187500e+01 2.628736019134521484e+00 1.117598628997802734e+01 4.141416549682617188e+00 3.989780426025390625e+00
7.990000000000000000e+02 5.006124114990234375e+01 2.212142181396484375e+01 -1.155134513974189758e-01 4.153482913970947266e+00 1.211390852928161621e+00 -4.652948379516601562e-01
8.000000000000000000e+02 4.496142196655273438e+01 2.359222030639648438e+01 1.774456262588500977e+00 6.621621608734130859e+00 2.518823385238647461e+00 3.561047077178955078e+00
8.010000000000000000e+02 4.612784194946289062e+01 2.308559608459472656e+01 -5.661127567291259766e-01 8.044832229614257812e+00 2.243615865707397461e+00 1.932151913642883301e+00
8.020000000000000000e+02 4.331739425659179688e+01 2.087423896789550781e+01 -2.633561134338378906e+00 4.125649452209472656e+00 4.476264417171478271e-01 2.370118856430053711e+00
8.030000000000000000e+02 4.068822479248046875e+01 2.075841140747070312e+01 -1.554443597793579102e+00 4.828664958477020264e-01 -3.214731514453887939e-01 -1.381498575210571289e+00
8.040000000000000000e+02 4.067789077758789062e+01 2.180265426635742188e+01 -5.417486190795898438e+00 -5.932132154703140259e-02 -1.643042325973510742e+00 -3.295016586780548096e-01
8.050000000000000000e+02 3.932457733154296875e+01 2.200434875488281250e+01 -2.026189804077148438e+00 1.008738040924072266e+00 -3.052355647087097168e-01 -9.383140802383422852e-01
8.060000000000000000e+02 3.788841247558593750e+01 2.201332473754882812e+01 -4.399650692939758301e-01 2.908066272735595703e+00 7.404303550720214844e-01 -1.934577465057373047e+00
8.070000000000000000e+02 3.943239212036132812e+01 8.056243896484375000e+00 1.854147791862487793e+00 1.465090465545654297e+01 4.951515674591064453e+00 -2.292389631271362305e+00
8.080000000000000000e+02 3.925803375244140625e+01 5.108642101287841797e+00 6.022534966468811035e-01 1.627264404296875000e+01 5.062469482421875000e+00 5.645776391029357910e-01
8.090000000000000000e+02 4.054483795166015625e+01 1.933008313179016113e+00 4.728571891784667969e+00 9.613784790039062500e+00 4.302707195281982422e+00 2.997439146041870117e+00
8.100000000000000000e+02 4.043632125854492188e+01 1.078097581863403320e+00 5.905431270599365234e+00 8.439055442810058594e+00 4.303346157073974609e+00 1.102322697639465332e+00
8.110000000000000000e+02 7.713995361328125000e+01 2.223531723022460938e+01 -3.222880959510803223e-01 7.190287113189697266e+00 2.060399770736694336e+00 -2.438130602240562439e-02
8.120000000000000000e+02 7.931842803955078125e+01 2.922361755371093750e+01 2.426338568329811096e-02 7.145411491394042969e+00 2.150902509689331055e+00 -3.579054400324821472e-02
8.130000000000000000e+02 7.049102783203125000e+01 3.544102096557617188e+01 -1.055221557617187500e-01 5.700117111206054688e+00 1.678378582000732422e+00 5.258135199546813965e-01
8.140000000000000000e+02 6.083467102050781250e+01 3.739207077026367188e+01 -8.223592638969421387e-01 1.190794348716735840e+00 1.105305179953575134e-01 -5.477274656295776367e-01
8.150000000000000000e+02 5.871437835693359375e+01 3.584818649291992188e+01 -2.555875539779663086e+00 -1.617316156625747681e-01 -8.152821063995361328e-01 9.756246209144592285e-02
8.160000000000000000e+02 5.740653991699218750e+01 3.547438430786132812e+01 -1.178206562995910645e+00 8.291860222816467285e-01 -1.047061681747436523e-01 4.995070099830627441e-01
8.170000000000000000e+02 5.535576629638671875e+01 3.662020874023437500e+01 -1.023697614669799805e+00 4.034032821655273438e+00 9.031005501747131348e-01 1.474408030509948730e+00
8.180000000000000000e+02 6.222506332397460938e+01 3.557823562622070312e+01 -1.515917539596557617e+00 3.159137487411499023e+00 4.929659962654113770e-01 -7.321783900260925293e-01
8.190000000000000000e+02 6.137373352050781250e+01 3.466427993774414062e+01 -8.300101161003112793e-01 4.250755310058593750e-01 -1.214803755283355713e-01 9.934582561254501343e-02
8.200000000000000000e+02 6.373891067504882812e+01 3.364200973510742188e+01 -1.231774464249610901e-01 4.966716289520263672e+00 1.453061699867248535e+00 -2.215608209371566772e-01
8.210000000000000000e+02 6.345634460449218750e+01 3.192944717407226562e+01 5.582376718521118164e-01 6.635911464691162109e+00 2.158244609832763672e+00 -7.186252474784851074e-01
8.220000000000000000e+02 7.921089172363281250e+01 3.203360748291015625e+01 2.845101989805698395e-02 7.101327896118164062e+00 2.138933658599853516e+00 2.541163191199302673e-02
8.230000000000000000e+02 7.939331054687500000e+01 3.761237716674804688e+01 3.016049740836024284e-03 7.323798179626464844e+00 2.198044300079345703e+00 2.093676105141639709e-02
8.240000000000000000e+02 7.195110321044921875e+01 4.094980239868164062e+01 -3.686241209506988525e-01 5.969008922576904297e+00 1.680115342140197754e+00 1.121446490287780762e-01
8.250000000000000000e+02 5.464723968505859375e+01 3.863459777832031250e+01 -1.354643940925598145e+00 4.326614379882812500e+00 8.915911316871643066e-01 1.003155708312988281e+00
8.260000000000000000e+02 4.918517684936523438e+01 3.818548202514648438e+01 -1.477446436882019043e+00 5.065857887268066406e+00 1.076523303985595703e+00 -2.517267167568206787e-01
8.270000000000000000e+02 5.344488906860351562e+01 3.075053787231445312e+01 1.048887014389038086e+00 9.720005989074707031e+00 3.230667829513549805e+00 1.466047525405883789e+00
8.280000000000000000e+02 5.393952941894531250e+01 3.301271057128906250e+01 1.350417733192443848e+00 7.795480728149414062e+00 2.743769407272338867e+00 2.292705774307250977e+00
8.290000000000000000e+02 4.928827667236328125e+01 3.093018341064453125e+01 1.102949976921081543e+00 6.450935840606689453e+00 2.266165733337402344e+00 3.864459991455078125e-01
8.300000000000000000e+02 5.343906021118164062e+01 2.945127487182617188e+01 3.769316673278808594e-01 9.143309593200683594e+00 2.856072425842285156e+00 3.304847180843353271e-01
8.310000000000000000e+02 5.354318618774414062e+01 2.819641304016113281e+01 7.623866796493530273e-01 9.211415290832519531e+00 2.992140531539916992e+00 -5.673661231994628906e-01
8.320000000000000000e+02 4.256594085693359375e+01 4.105352401733398438e+01 -5.839972496032714844e-01 2.381959915161132812e+00 5.393888354301452637e-01 -2.361471503973007202e-01
8.330000000000000000e+02 4.466722869873046875e+01 3.749381637573242188e+01 -9.460929036140441895e-01 3.358845710754394531e+00 7.238258123397827148e-01 -8.402623534202575684e-01
8.340000000000000000e+02 4.322996520996093750e+01 3.313212585449218750e+01 -1.348974108695983887e-01 1.615835785865783691e+00 4.442815184593200684e-01 -7.839180231094360352e-01
8.350000000000000000e+02 4.189892196655273438e+01 3.429265213012695312e+01 -1.069519639015197754e+00 7.160673141479492188e-01 -1.060356795787811279e-01 -4.032681882381439209e-01
8.360000000000000000e+02 4.532738494873046875e+01 3.103023147583007812e+01 1.062810063362121582e+00 5.261168479919433594e+00 1.897193551063537598e+00 -1.623501062393188477e+00
8.370000000000000000e+02 4.618990325927734375e+01 2.884231567382812500e+01 9.779923558235168457e-01 8.687756538391113281e+00 2.899724721908569336e+00 -9.947733879089355469e-01
8.380000000000000000e+02 4.616542816162109375e+01 2.751121711730957031e+01 4.029294848442077637e-01 1.027782821655273438e+01 3.204227447509765625e+00 1.075813099741935730e-01
8.390000000000000000e+02 3.855601119995117188e+01 3.468518447875976562e+01 -1.736187815666198730e+00 4.489342570304870605e-01 -3.861760497093200684e-01 2.797335982322692871e-01
8.400000000000000000e+02 3.717167282104492188e+01 3.687847518920898438e+01 -8.145555853843688965e-01 1.785271525382995605e+00 2.912147939205169678e-01 7.504644393920898438e-01
8.410000000000000000e+02 3.591932296752929688e+01 3.359225463867187500e+01 -4.753398299217224121e-01 2.935379505157470703e+00 7.380118966102600098e-01 4.459598064422607422e-01
8.420000000000000000e+02 4.021868133544921875e+01 3.496786880493164062e+01 -1.735602140426635742e+00 3.896777033805847168e-01 -4.037773311138153076e-01 -9.101997315883636475e-02
8.430000000000000000e+02 3.507452392578125000e+01 3.951017379760742188e+01 -7.867465615272521973e-01 2.325203418731689453e+00 4.615370631217956543e-01 2.076954245567321777e-01
8.440000000000000000e+02 3.022430992126464844e+01 3.392443847656250000e+01 -1.266886293888092041e-01 2.870112419128417969e+00 8.230271339416503906e-01 -7.817432880401611328e-01
8.450000000000000000e+02 2.757196617126464844e+01 2.868613815307617188e+01 1.842871904373168945e+00 9.687442183494567871e-01 8.434848189353942871e-01 -9.749225378036499023e-01
8.460000000000000000e+02 2.939486885070800781e+01 2.871049880981445312e+01 1.607671976089477539e+00 1.936714053153991699e+00 1.063315868377685547e+00 -1.504729747772216797e+00
8.470000000000000000e+02 2.862262535095214844e+01 2.782238769531250000e+01 1.532905578613281250e+00 1.182510733604431152e+00 8.146248459815979004e-01 -1.341866612434387207e+00
8.480000000000000000e+02 3.053499984741210938e+01 2.595541000366210938e+01 1.601034522056579590e+00 2.924557447433471680e+00 1.357677578926086426e+00 -1.919313549995422363e+00
8.490000000000000000e+02 3.132685279846191406e+01 2.491809844970703125e+01 1.114256381988525391e+00 4.947626590728759766e+00 1.818564891815185547e+00 -1.571239590644836426e+00
8.500000000000000000e+02 3.434880065917968750e+01 2.411049079895019531e+01 1.012405276298522949e+00 6.014213562011718750e+00 2.107985496520996094e+00 -1.058863639831542969e+00
8.510000000000000000e+02 3.376757049560546875e+01 2.591533088684082031e+01 1.853076815605163574e+00 6.429052829742431641e+00 2.484638929367065430e+00 -1.176651000976562500e+00
8.520000000000000000e+02 3.525424957275390625e+01 2.673604774475097656e+01 1.264287710189819336e+00 1.040074634552001953e+01 3.499510049819946289e+00 -2.175583362579345703e+00
8.530000000000000000e+02 3.412824249267578125e+01 2.711674880981445312e+01 1.814915895462036133e+00 7.291331768035888672e+00 2.731874227523803711e+00 -1.330307006835937500e+00
8.540000000000000000e+02 3.598555755615234375e+01 3.209103775024414062e+01 2.440925985574722290e-01 3.788690567016601562e+00 1.209834933280944824e+00 1.108127951622009277e+00
8.550000000000000000e+02 3.539465332031250000e+01 2.965778350830078125e+01 4.838741421699523926e-01 7.563231468200683594e+00 2.414131641387939453e+00 1.066213250160217285e+00
8.560000000000000000e+02 2.190414237976074219e+01 3.740552139282226562e+01 -5.543953552842140198e-02 1.256502270698547363e+00 3.603188395500183105e-01 -2.678901255130767822e-01
8.570000000000000000e+02 2.549727439880371094e+01 2.889036178588867188e+01 1.609345674514770508e+00 5.619606375694274902e-01 6.513918638229370117e-01 2.541085183620452881e-01
8.580000000000000000e+02 2.449136543273925781e+01 2.983926391601562500e+01 9.374573826789855957e-01 1.140710592269897461e+00 6.234503984451293945e-01 8.651114255189895630e-02
8.590000000000000000e+02 2.837731361389160156e+01 2.977072143554687500e+01 1.434974431991577148e+00 1.625030755996704102e+00 9.180015325546264648e-01 -1.022765874862670898e+00
8.600000000000000000e+02 1.636179351806640625e+01 3.577070236206054688e+01 9.368089586496353149e-02 1.994466632604598999e-01 8.793827146291732788e-02 -8.334693312644958496e-02
8.610000000000000000e+02 1.223713970184326172e+01 3.496257781982421875e+01 2.739787846803665161e-02 -3.546942025423049927e-02 -2.421463141217827797e-03 1.795290969312191010e-02
8.620000000000000000e+02 1.632099342346191406e+01 3.363909149169921875e+01 -1.026207581162452698e-01 5.287058651447296143e-03 -2.920011058449745178e-02 3.031210228800773621e-02
8.630000000000000000e+02 1.737762069702148438e+01 3.304486846923828125e+01 -2.903579175472259521e-02 1.215588748455047607e-01 2.775692380964756012e-02 -4.892593249678611755e-02
8.640000000000000000e+02 1.996620559692382812e+01 2.789852523803710938e+01 1.608579456806182861e-01 1.346002340316772461e+00 4.520581066608428955e-01 2.857255339622497559e-01
8.650000000000000000e+02 2.449387550354003906e+01 2.824355888366699219e+01 9.173297286033630371e-01 1.016474008560180664e+00 5.801411271095275879e-01 8.114022612571716309e-01
8.660000000000000000e+02 2.094070243835449219e+01 2.592352104187011719e+01 5.122862458229064941e-01 1.257132887840270996e+00 5.308257341384887695e-01 4.746295809745788574e-01
8.670000000000000000e+02 2.004125213623046875e+01 2.524890899658203125e+01 5.229101181030273438e-01 1.284970879554748535e+00 5.423642992973327637e-01 4.527163803577423096e-01
8.680000000000000000e+02 2.027622413635253906e+01 2.434169578552246094e+01 5.075349211692810059e-01 1.230387330055236816e+00 5.213766694068908691e-01 3.178850710391998291e-01
8.690000000000000000e+02 1.755709266662597656e+01 2.414219474792480469e+01 1.020862936973571777e+00 5.160028338432312012e-01 4.610597193241119385e-01 5.964135527610778809e-01
8.700000000000000000e+02 1.736896896362304688e+01 1.961012268066406250e+01 4.374708831310272217e-01 -9.567598253488540649e-02 1.025384664535522461e-01 3.329105079174041748e-01
8.710000000000000000e+02 1.448947334289550781e+01 1.864521217346191406e+01 7.584735155105590820e-01 1.775545179843902588e-01 2.808084189891815186e-01 4.315380156040191650e-01
8.720000000000000000e+02 1.632956504821777344e+01 2.033691978454589844e+01 5.205925107002258301e-01 4.643364995718002319e-02 1.701078414916992188e-01 5.048120021820068359e-01
8.730000000000000000e+02 1.677233314514160156e+01 2.161823081970214844e+01 7.084978222846984863e-01 2.205768525600433350e-01 2.787224054336547852e-01 4.073543846607208252e-01
8.740000000000000000e+02 1.998178863525390625e+01 1.691726303100585938e+01 -3.244529366493225098e-01 2.161193341016769409e-01 -3.250008821487426758e-02 1.552838087081909180e-01
8.750000000000000000e+02 2.256615447998046875e+01 1.746339035034179688e+01 2.113280594348907471e-01 1.385739445686340332e+00 4.791202545166015625e-01 -4.381820857524871826e-01
8.760000000000000000e+02 2.038581466674804688e+01 1.163972377777099609e+01 6.704784929752349854e-02 7.597374916076660156e-01 2.480356097221374512e-01 9.040612727403640747e-02
8.770000000000000000e+02 2.084023094177246094e+01 1.065484428405761719e+01 2.345040738582611084e-01 7.109197378158569336e-01 2.836271524429321289e-01 1.860288083553314209e-01
8.780000000000000000e+02 2.057866859436035156e+01 8.334529876708984375e+00 5.319064259529113770e-01 2.556875050067901611e-01 2.362781763076782227e-01 1.834093034267425537e-01
8.790000000000000000e+02 1.947474861145019531e+01 8.696084976196289062e+00 7.215021848678588867e-01 7.707942724227905273e-01 4.476889371871948242e-01 6.140661835670471191e-01
8.800000000000000000e+02 1.919547843933105469e+01 7.612629413604736328e+00 7.031120657920837402e-01 5.129121541976928711e-01 3.648072481155395508e-01 4.574690163135528564e-01
8.810000000000000000e+02 1.793913269042968750e+01 7.430244922637939453e+00 9.168586730957031250e-01 4.917062819004058838e-01 4.225694835186004639e-01 6.272277235984802246e-01
8.820000000000000000e+02 2.017928886413574219e+01 3.010693550109863281e+00 -1.421009898185729980e+00 -1.909456700086593628e-01 -4.835866689682006836e-01 2.584357261657714844e-01
8.830000000000000000e+02 2.172327804565429688e+01 2.670532703399658203e+00 -1.489250659942626953e+00 -1.647208929061889648e-01 -4.961914420127868652e-01 3.531053662300109863e-01
8.840000000000000000e+02 2.629534530639648438e+01 1.399255633354187012e+00 -1.498279213905334473e+00 -1.341000944375991821e-01 -4.897137880325317383e-01 5.222007632255554199e-01
8.850000000000000000e+02 3.218453979492187500e+01 3.075398921966552734e+00 1.485670089721679688e+00 1.395915389060974121e+00 8.644756674766540527e-01 -1.426515221595764160e+00
8.860000000000000000e+02 3.311445236206054688e+01 1.696795821189880371e+00 1.392816662788391113e+00 7.908293604850769043e-01 6.550937891006469727e-01 -7.052764296531677246e-01
8.870000000000000000e+02 1.093123722076416016e+01 3.543337249755859375e+01 1.789405345916748047e-01 7.777056843042373657e-02 7.701332867145538330e-02 1.042421162128448486e-01
8.880000000000000000e+02 5.095291137695312500e+00 4.032923126220703125e+01 -7.367134094238281250e-02 -6.376486420631408691e-01 -2.133959978818893433e-01 2.408302016556262970e-02
8.890000000000000000e+02 8.543270111083984375e+00 3.466000747680664062e+01 3.567220866680145264e-01 1.454698592424392700e-01 1.506575793027877808e-01 1.705146133899688721e-01
8.900000000000000000e+02 1.236953735351562500e+01 3.674280548095703125e+01 1.532268077135086060e-01 1.624093391001224518e-02 5.084032192826271057e-02 1.585174053907394409e-01
8.910000000000000000e+02 2.039097309112548828e+00 4.161044692993164062e+01 -8.818008005619049072e-02 -1.165171027183532715e+00 -3.760053217411041260e-01 -2.495940588414669037e-02
8.920000000000000000e+02 4.977225303649902344e+00 3.726515960693359375e+01 2.104760892689228058e-02 -6.374546885490417480e-01 -1.849221289157867432e-01 -3.127355128526687622e-03
8.930000000000000000e+02 6.539580821990966797e-01 3.326986312866210938e+01 1.342547591775655746e-02 -1.484179854393005371e+00 -4.412263333797454834e-01 6.917831022292375565e-03
8.940000000000000000e+02 1.931441903114318848e+00 3.313379287719726562e+01 3.157526627182960510e-02 -1.216482758522033691e+00 -3.554722368717193604e-01 2.025545947253704071e-02
8.950000000000000000e+02 7.630990028381347656e+00 3.372050857543945312e+01 2.688385248184204102e-01 1.473551541566848755e-01 1.248581036925315857e-01 2.152333557605743408e-01
8.960000000000000000e+02 6.855451583862304688e+00 3.257347869873046875e+01 1.558462232351303101e-01 3.320939838886260986e-02 5.671668797731399536e-02 1.032798588275909424e-01
8.970000000000000000e+02 5.900360584259033203e+00 2.999561309814453125e+01 2.125014737248420715e-02 -4.828926324844360352e-01 -1.384927481412887573e-01 -6.172646768391132355e-03
8.980000000000000000e+02 5.612289905548095703e+00 2.874301147460937500e+01 -3.536473959684371948e-02 -7.034115791320800781e-01 -2.216328978538513184e-01 4.809366539120674133e-02
8.990000000000000000e+02 3.599398851394653320e+00 2.602776527404785156e+01 -6.158846989274024963e-02 -8.464418649673461914e-01 -2.724091112613677979e-01 4.398826882243156433e-02
9.000000000000000000e+02 6.014118194580078125e-01 2.467662620544433594e+01 8.262555114924907684e-03 -1.172928094863891602e+00 -3.493996560573577881e-01 -1.071641780436038971e-02
9.010000000000000000e+02 1.762113690376281738e+00 2.305094718933105469e+01 8.615653961896896362e-03 -1.036379337310791016e+00 -3.083291053771972656e-01 -2.087832055985927582e-02
9.020000000000000000e+02 1.905724048614501953e+00 1.734203147888183594e+01 5.100478231906890869e-02 -8.994066119194030762e-01 -2.545205354690551758e-01 1.164886504411697388e-01
9.030000000000000000e+02 1.749767184257507324e+00 1.186014175415039062e+01 -1.058793533593416214e-02 -4.009153842926025391e-01 -1.234509944915771484e-01 2.437738776206970215e-01
9.040000000000000000e+02 2.179042577743530273e+00 4.714569568634033203e+00 -3.719174861907958984e-02 2.218078635632991791e-02 -4.503288306295871735e-03 -1.263738051056861877e-02
9.050000000000000000e+02 1.016585063934326172e+01 2.051110029220581055e+00 -2.906294912099838257e-02 -5.653187632560729980e-02 -2.567844837903976440e-02 5.590068921446800232e-02
9.060000000000000000e+02 1.249548816680908203e+01 7.435534954071044922e+00 -1.326790690422058105e+00 -8.262566328048706055e-01 -6.459141969680786133e-01 9.099115729331970215e-01
9.070000000000000000e+02 1.087196159362792969e+01 2.184372186660766602e+00 -8.655446022748947144e-02 -6.656349450349807739e-02 -4.593538492918014526e-02 1.086453124880790710e-01
9.080000000000000000e+02 1.157755374908447266e+01 2.312786817550659180e+00 -1.598095148801803589e-01 -4.812842607498168945e-02 -6.238138303160667419e-02 1.474343240261077881e-01
9.090000000000000000e+02 1.380591011047363281e+01 2.752606153488159180e+00 -5.459374189376831055e-01 -8.112268522381782532e-03 -1.662149131298065186e-01 4.216578006744384766e-01
9.100000000000000000e+02 1.689490890502929688e+01 3.226906299591064453e+00 -1.175013899803161621e+00 5.325300619006156921e-02 -3.365282416343688965e-01 5.723153352737426758e-01
9.110000000000000000e+02 1.775376701354980469e+01 3.299659729003906250e+00 -1.246988654136657715e+00 -5.074893310666084290e-02 -3.893212676048278809e-01 5.275693535804748535e-01
9.120000000000000000e+02 3.292634201049804688e+01 1.146565556526184082e+00 -4.419217109680175781e-01 5.272808074951171875e-01 2.560772560536861420e-02 -1.448838859796524048e-01
9.130000000000000000e+02 3.068564224243164062e+01 1.507951068878173828e+01 2.437529712915420532e-01 5.639922022819519043e-01 2.423235476016998291e-01 3.181694149971008301e-01
9.140000000000000000e+02 2.696311187744140625e+01 1.535018157958984375e+01 2.753561548888683319e-02 4.118321463465690613e-02 2.061564847826957703e-02 -6.091252341866493225e-02
9.150000000000000000e+02 2.573332023620605469e+01 1.576730728149414062e+01 2.159007638692855835e-01 3.072970211505889893e-01 1.569593399763107300e-01 -2.452480494976043701e-01
9.160000000000000000e+02 2.146989059448242188e+01 1.406466293334960938e+01 -9.078072011470794678e-02 5.742108821868896484e-01 1.450290530920028687e-01 1.130794361233711243e-01
9.170000000000000000e+02 2.465984153747558594e+01 1.647194671630859375e+01 3.487558662891387939e-01 5.595846176147460938e-01 2.725021541118621826e-01 -4.371361136436462402e-01
9.180000000000000000e+02 1.879351043701171875e+01 1.714194488525390625e+01 -5.562449693679809570e-01 -2.684469223022460938e-01 -2.474075704813003540e-01 3.933656811714172363e-01
9.190000000000000000e+02 2.207458496093750000e+01 2.156139183044433594e+01 2.150523960590362549e-01 1.807765841484069824e+00 6.068454384803771973e-01 -5.822666734457015991e-02
9.200000000000000000e+02 2.321164512634277344e+01 2.767992210388183594e+01 6.643107533454895020e-01 1.368747711181640625e+00 6.099175214767456055e-01 6.357697248458862305e-01
9.210000000000000000e+02 2.333870124816894531e+01 2.660614585876464844e+01 4.964434802532196045e-01 1.452969908714294434e+00 5.848240256309509277e-01 7.144218087196350098e-01
9.220000000000000000e+02 3.226791763305664062e+01 1.215021419525146484e+01 -1.278920531272888184e+00 -1.529456675052642822e-01 -4.295598864555358887e-01 -9.990908205509185791e-02
9.230000000000000000e+02 3.420407104492187500e+01 -2.263413190841674805e+00 4.771288856863975525e-02 1.825894355773925781e+00 5.620821714401245117e-01 1.296272516250610352e+00
9.240000000000000000e+02 2.983515548706054688e+01 -5.605755329132080078e+00 7.741951942443847656e-02 -6.186937093734741211e-01 -1.623822599649429321e-01 9.303317964076995850e-02
9.250000000000000000e+02 2.991241264343261719e+01 -8.132541656494140625e+00 5.492979884147644043e-01 1.795462846755981445e+00 7.034282684326171875e-01 1.201620936393737793e+00
9.260000000000000000e+02 3.022287368774414062e+01 -1.078376197814941406e+01 1.535184741020202637e+00 2.401866197586059570e+00 1.181115269660949707e+00 2.061608552932739258e+00
9.270000000000000000e+02 3.712138748168945312e+01 -9.044521331787109375e+00 1.115528464317321777e+00 9.926054000854492188e+00 3.312474727630615234e+00 -9.396047592163085938e-01
9.280000000000000000e+02 2.917488098144531250e+01 -3.944149732589721680e+00 3.059145510196685791e-01 3.590415418148040771e-02 1.025456115603446960e-01 -4.250113666057586670e-02
9.290000000000000000e+02 2.933884620666503906e+01 -1.002938270568847656e+01 1.928101658821105957e+00 3.733044147491455078e+00 1.698343753814697266e+00 2.488618373870849609e+00
9.300000000000000000e+02 2.855084800720214844e+01 -1.102126789093017578e+01 1.952408432960510254e+00 3.394158363342285156e+00 1.603970050811767578e+00 2.577938318252563477e+00
9.310000000000000000e+02 2.744439888000488281e+01 -1.312325763702392578e+01 -1.965763121843338013e-01 2.367943525314331055e+00 6.514101624488830566e-01 1.275145649909973145e+00
9.320000000000000000e+02 2.485580062866210938e+01 -1.355885505676269531e+01 -9.973596930503845215e-01 2.186455577611923218e-01 -2.336142510175704956e-01 -5.520550906658172607e-02
9.330000000000000000e+02 2.242127990722656250e+01 -1.469936847686767578e+01 -7.015356421470642090e-01 -1.453430205583572388e-01 -2.540636062622070312e-01 -1.649175882339477539e-01
9.340000000000000000e+02 2.392047309875488281e+01 -1.697583770751953125e+01 6.283106207847595215e-01 7.320597767829895020e-01 4.081111252307891846e-01 1.916649788618087769e-01
9.350000000000000000e+02 2.191918563842773438e+01 -2.610176658630371094e+01 -3.468905985355377197e-01 4.745798557996749878e-02 -8.982978761196136475e-02 3.281800746917724609e-01
9.360000000000000000e+02 2.138287162780761719e+01 -1.374266338348388672e+01 -1.059868097305297852e+00 -1.364630311727523804e-01 -3.588993549346923828e-01 5.287959426641464233e-02
9.370000000000000000e+02 2.026673507690429688e+01 -1.294847965240478516e+01 -3.778155446052551270e-01 -7.072674483060836792e-02 -1.345626860857009888e-01 1.881442964076995850e-01
9.380000000000000000e+02 1.839377784729003906e+01 -1.088750267028808594e+01 -4.128444939851760864e-02 6.157343462109565735e-02 6.086695007979869843e-03 3.651877120137214661e-02
9.390000000000000000e+02 1.930155372619628906e+01 -1.192938137054443359e+01 -1.948546171188354492e-01 -4.546317830681800842e-02 -7.209533452987670898e-02 6.994573771953582764e-02
9.400000000000000000e+02 1.700140762329101562e+01 -1.292341518402099609e+01 -1.458625048398971558e-01 2.631689608097076416e-01 3.519193455576896667e-02 -3.354656696319580078e-02
9.410000000000000000e+02 1.710948944091796875e+01 -1.769832611083984375e+01 2.137060165405273438e-01 1.935715824365615845e-01 1.221832782030105591e-01 -1.750232577323913574e-01
9.420000000000000000e+02 1.664543724060058594e+01 -1.935647583007812500e+01 1.790052354335784912e-01 1.296442747116088867e-01 9.259485453367233276e-02 8.518141508102416992e-02
9.430000000000000000e+02 1.371582412719726562e+01 -2.203246116638183594e+01 1.344350129365921021e-01 1.633982956409454346e-01 8.934999257326126099e-02 1.784204542636871338e-01
9.440000000000000000e+02 1.681493759155273438e+01 -2.139815139770507812e+01 3.712290227413177490e-01 1.230653747916221619e-01 1.482883244752883911e-01 3.397268950939178467e-01
9.450000000000000000e+02 1.858656883239746094e+01 -2.656347846984863281e+01 3.574492409825325012e-02 3.186700865626335144e-02 2.028357982635498047e-02 2.963805794715881348e-01
9.460000000000000000e+02 1.994568824768066406e+01 -2.657747077941894531e+01 -9.959260225296020508e-01 -3.492578268051147461e-01 -4.035551548004150391e-01 6.257706284523010254e-01
9.470000000000000000e+02 1.589702033996582031e+01 -7.835575938224792480e-01 -2.865911722183227539e-01 -2.547199726104736328e-01 -1.623933315277099609e-01 -6.366928666830062866e-02
9.480000000000000000e+02 1.216962051391601562e+01 -1.458095312118530273e+00 -2.152438014745712280e-01 8.065518736839294434e-02 -4.037658497691154480e-02 -1.187731400132179260e-01
9.490000000000000000e+02 5.250864028930664062e+01 -1.560058784484863281e+01 -3.533887147903442383e+00 1.451360583305358887e+00 -6.247579455375671387e-01 -2.155756235122680664e+00
9.500000000000000000e+02 5.442241287231445312e+01 -1.736701583862304688e+01 1.857493042945861816e+00 7.049000740051269531e+00 2.671948194503784180e+00 -2.909232139587402344e+00
9.510000000000000000e+02 5.432749557495117188e+01 -1.558869457244873047e+01 -2.000622987747192383e+00 6.081590175628662109e+00 1.224290251731872559e+00 -3.350695610046386719e+00
9.520000000000000000e+02 5.714876556396484375e+01 -1.853643989562988281e+01 1.555046558380126953e+00 7.190750598907470703e+00 2.623739004135131836e+00 -3.242287039756774902e-01
9.530000000000000000e+02 6.472626495361328125e+01 -2.019925308227539062e+01 2.654527425765991211e-01 1.008470439910888672e+01 3.105047225952148438e+00 -1.656567305326461792e-01
9.540000000000000000e+02 6.445687103271484375e+01 -1.761242675781250000e+01 -4.952067434787750244e-01 6.356130123138427734e+00 1.758277058601379395e+00 -3.875619964674115181e-03
9.550000000000000000e+02 6.304579544067382812e+01 -1.802163124084472656e+01 1.872473023831844330e-02 6.970869064331054688e+00 2.096878051757812500e+00 -8.141852617263793945e-01
9.560000000000000000e+02 6.685061645507812500e+01 -1.049363708496093750e+01 1.662710428237915039e+00 3.874130249023437500e+00 1.661052227020263672e+00 -2.224978208541870117e+00
9.570000000000000000e+02 6.380487060546875000e+01 -1.046035861968994141e+01 -3.111552894115447998e-01 7.478339672088623047e+00 2.150155305862426758e+00 1.674398183822631836e-01
9.580000000000000000e+02 6.493968963623046875e+01 -9.976681709289550781e+00 3.952147960662841797e-01 8.083882331848144531e+00 2.543729066848754883e+00 -7.368530035018920898e-01
9.590000000000000000e+02 5.567433929443359375e+01 -1.809549522399902344e+01 1.744991183280944824e+00 8.500116348266601562e+00 3.073532104492187500e+00 -1.821448683738708496e+00
9.600000000000000000e+02 5.542675781250000000e+01 -2.062540054321289062e+01 6.278071403503417969e-01 1.199103069305419922e+01 3.785651206970214844e+00 -4.417776465415954590e-01
9.610000000000000000e+02 5.641248321533203125e+01 -2.216342163085937500e+01 2.325297117233276367e+00 8.220627784729003906e+00 3.163777351379394531e+00 9.590946435928344727e-01
9.620000000000000000e+02 5.465662765502929688e+01 -2.593075752258300781e+01 -3.099363803863525391e+00 7.168368339538574219e+00 1.220701456069946289e+00 2.208969116210937500e+00
9.630000000000000000e+02 5.553848648071289062e+01 -2.650657653808593750e+01 -2.091182231903076172e+00 7.408370494842529297e+00 1.595156431198120117e+00 2.284985780715942383e+00
9.640000000000000000e+02 5.819204711914062500e+01 -2.807143783569335938e+01 4.572718441486358643e-01 4.683339595794677734e+00 1.542183399200439453e+00 2.030763626098632812e+00
9.650000000000000000e+02 5.735232543945312500e+01 -2.923023796081542969e+01 1.493732810020446777e+00 7.204827308654785156e+00 2.609568119049072266e+00 3.315872192382812500e+00
9.660000000000000000e+02 5.306407928466796875e+01 -2.588304138183593750e+01 -3.073265790939331055e+00 2.151891469955444336e+00 -2.764123082160949707e-01 1.260235548019409180e+00
9.670000000000000000e+02 4.679782104492187500e+01 -2.852237701416015625e+01 1.981119066476821899e-01 2.221795082092285156e+00 7.259720563888549805e-01 -1.880587697029113770e+00
9.680000000000000000e+02 4.935512542724609375e+01 -2.538687705993652344e+01 -2.709747076034545898e+00 2.381201982498168945e+00 -9.856353700160980225e-02 -1.672750115394592285e+00
9.690000000000000000e+02 4.878468322753906250e+01 -2.430095863342285156e+01 -5.881688594818115234e-01 2.463356018066406250e+00 5.625561475753784180e-01 -1.389161348342895508e+00
9.700000000000000000e+02 4.374845504760742188e+01 -2.224509620666503906e+01 2.345605134963989258e+00 3.797370195388793945e+00 1.842892646789550781e+00 1.308359622955322266e+00
9.710000000000000000e+02 4.699920654296875000e+01 -2.206954765319824219e+01 2.354355096817016602e+00 8.432616233825683594e+00 3.236091375350952148e+00 -2.332158327102661133e+00
9.720000000000000000e+02 4.490653228759765625e+01 -2.781866073608398438e+01 -2.858608484268188477e+00 6.710585951805114746e-01 -6.562649607658386230e-01 -3.520103171467781067e-02
9.730000000000000000e+02 4.601674652099609375e+01 -2.747266197204589844e+01 -1.610105037689208984e+00 2.270140886306762695e+00 1.980107128620147705e-01 -1.726903319358825684e+00
9.740000000000000000e+02 4.786180114746093750e+01 -2.936230278015136719e+01 2.444676399230957031e+00 3.769249677658081055e+00 1.864177823066711426e+00 -3.059453725814819336e+00
9.750000000000000000e+02 4.878344726562500000e+01 -3.041758728027343750e+01 3.159969568252563477e+00 6.500771045684814453e+00 2.898222208023071289e+00 -3.554865121841430664e+00
9.760000000000000000e+02 4.932936096191406250e+01 -3.167698669433593750e+01 1.662160277366638184e+00 8.994232177734375000e+00 3.196917772293090820e+00 -2.459755897521972656e+00
9.770000000000000000e+02 4.962234497070312500e+01 -3.299891662597656250e+01 8.714988827705383301e-01 8.880531311035156250e+00 2.925609111785888672e+00 -1.700601167976856232e-02
9.780000000000000000e+02 5.030001068115234375e+01 -3.462829208374023438e+01 1.329035162925720215e+00 7.039616107940673828e+00 2.510595560073852539e+00 7.114081978797912598e-01
9.790000000000000000e+02 4.670777893066406250e+01 -2.062288475036621094e+01 1.341284155845642090e+00 1.079319572448730469e+01 3.640344142913818359e+00 3.777844086289405823e-02
9.800000000000000000e+02 4.626716995239257812e+01 -1.671148681640625000e+01 -1.621074676513671875e+00 6.939354896545410156e+00 1.595484018325805664e+00 1.623482108116149902e+00
9.810000000000000000e+02 3.966599273681640625e+01 -1.601184082031250000e+01 -1.762157797813415527e+00 2.818285465240478516e+00 3.168383240699768066e-01 -1.146089911460876465e+00
9.820000000000000000e+02 4.756409072875976562e+01 -1.671539497375488281e+01 -2.228886365890502930e+00 6.534232139587402344e+00 1.291603803634643555e+00 2.681227684020996094e+00
9.830000000000000000e+02 4.890690994262695312e+01 -1.667381668090820312e+01 -3.258364677429199219e+00 2.223660230636596680e+00 -3.104113638401031494e-01 9.553434252738952637e-01
9.840000000000000000e+02 5.014213562011718750e+01 -1.635401153564453125e+01 -6.607181549072265625e+00 -1.141653358936309814e-01 -2.016404151916503906e+00 -1.077190041542053223e+00
9.850000000000000000e+02 7.385452270507812500e+01 -2.203190612792968750e+01 7.193268537521362305e-01 1.359799861907958984e+01 4.295197486877441406e+00 3.843564689159393311e-01
9.860000000000000000e+02 7.944515228271484375e+01 -2.640745544433593750e+01 -3.550444170832633972e-02 7.737082481384277344e+00 2.310473442077636719e+00 -1.991433054208755493e-01
9.870000000000000000e+02 7.190407562255859375e+01 -2.610831069946289062e+01 -1.911363005638122559e+00 1.838155388832092285e+00 -2.196229994297027588e-02 1.130305886268615723e+00
9.880000000000000000e+02 7.112268829345703125e+01 -2.728225135803222656e+01 -1.496136546134948730e+00 1.600095987319946289e+00 3.118783794343471527e-02 1.082261919975280762e+00
9.890000000000000000e+02 6.970667266845703125e+01 -2.657822608947753906e+01 -3.742264270782470703e+00 -1.716616302728652954e-01 -1.174177765846252441e+00 1.197036504745483398e-01
9.900000000000000000e+02 6.872500610351562500e+01 -2.950948333740234375e+01 2.101478576660156250e+00 4.150189876556396484e+00 1.875500679016113281e+00 -1.531051516532897949e+00
9.910000000000000000e+02 6.717876434326171875e+01 -2.543279647827148438e+01 4.660182595252990723e-01 4.863621711730957031e+00 1.598892092704772949e+00 -2.578894376754760742e+00
9.920000000000000000e+02 6.354545211791992188e+01 -2.761762809753417969e+01 7.855066657066345215e-01 4.376604080200195312e+00 1.548633217811584473e+00 -2.597249507904052734e+00
9.930000000000000000e+02 6.574194335937500000e+01 -2.906057929992675781e+01 2.644037961959838867e+00 1.017796039581298828e+01 3.846599340438842773e+00 -3.902908802032470703e+00
9.940000000000000000e+02 6.569364166259765625e+01 -3.040593147277832031e+01 2.882418870925903320e+00 1.312614059448242188e+01 4.802567958831787109e+00 -4.180634021759033203e+00
9.950000000000000000e+02 6.583124542236328125e+01 -3.306503295898437500e+01 2.091989666223526001e-01 9.851108551025390625e+00 3.018092393875122070e+00 -5.573518276214599609e-01
9.960000000000000000e+02 6.592232513427734375e+01 -3.435309600830078125e+01 3.265628814697265625e-01 8.340344429016113281e+00 2.600072145462036133e+00 6.897943466901779175e-02
9.970000000000000000e+02 6.529510498046875000e+01 -3.641013717651367188e+01 -2.760550975799560547e-01 4.448054790496826172e+00 1.251599907875061035e+00 5.981426835060119629e-01
9.980000000000000000e+02 6.729366302490234375e+01 -4.152201843261718750e+01 -1.678061008453369141e+00 4.822859287261962891e+00 9.434394836425781250e-01 -5.634638667106628418e-02
9.990000000000000000e+02 6.648870849609375000e+01 -3.770140838623046875e+01 -1.893304467201232910e+00 5.156333923339843750e+00 9.789088964462280273e-01 -5.542576909065246582e-01
1.000000000000000000e+03 6.116732025146484375e+01 -2.642922019958496094e+01 -5.122879028320312500e+00 -4.368971586227416992e-01 -1.667932868003845215e+00 -4.550406336784362793e-01
1.001000000000000000e+03 6.475189971923828125e+01 -2.166452026367187500e+01 2.104997873306274414e+00 1.308018016815185547e+01 4.555553436279296875e+00 -2.667132616043090820e+00
1.002000000000000000e+03 6.693663024902343750e+01 -1.639639282226562500e+01 -3.433798074722290039e+00 2.589481323957443237e-02 -1.022371053695678711e+00 -4.891469180583953857e-01
1.003000000000000000e+03 6.827355957031250000e+01 -1.605981445312500000e+01 -2.763019084930419922e+00 8.203928917646408081e-02 -8.042939305305480957e-01 -9.046044945716857910e-01
1.004000000000000000e+03 6.242907333374023438e+01 -2.679333114624023438e+01 -3.007017612457275391e+00 1.919662237167358398e+00 -3.262065947055816650e-01 -8.303464651107788086e-01
1.005000000000000000e+03 6.606224822998046875e+01 -2.441174888610839844e+01 2.469988822937011719e+00 7.881131172180175781e+00 3.105335950851440430e+00 -4.740255832672119141e+00
1.006000000000000000e+03 6.596722412109375000e+01 -2.778286743164062500e+01 -7.450810670852661133e-01 7.889948844909667969e+00 2.143460273742675781e+00 -2.564966917037963867e+00
1.007000000000000000e+03 5.598930740356445312e+01 -3.331355667114257812e+01 1.032798647880554199e+00 1.190579700469970703e+01 3.881578683853149414e+00 -1.469807326793670654e-02
1.008000000000000000e+03 5.987627410888671875e+01 -2.595965194702148438e+01 -2.558234691619873047e+00 1.528026223182678223e+00 -3.090625405311584473e-01 5.652025938034057617e-01
1.009000000000000000e+03 4.698947429656982422e+00 -1.942129135131835938e+01 6.868973374366760254e-02 1.199823990464210510e-02 2.420639060437679291e-02 -1.350214779376983643e-01
1.010000000000000000e+03 4.431891441345214844e+00 -1.817863082885742188e+01 -6.943187117576599121e-02 -1.716688126325607300e-01 -7.233020663261413574e-02 -1.383959800004959106e-01
1.011000000000000000e+03 1.900236368179321289e+00 -1.881439018249511719e+01 2.661362662911415100e-02 -3.496970832347869873e-01 -9.692504256963729858e-02 -1.574037969112396240e-01
1.012000000000000000e+03 4.517017364501953125e+00 -1.571558952331542969e+01 -1.124549210071563721e-01 -1.748158037662506104e-01 -8.618121594190597534e-02 -1.358306854963302612e-01
1.013000000000000000e+03 1.852218747138977051e+00 -1.464740753173828125e+01 -2.467998862266540527e-02 -1.790298074483871460e-01 -6.111294031143188477e-02 -7.000867277383804321e-02
1.014000000000000000e+03 4.658134841918945312e+01 1.810107994079589844e+01 2.250753879547119141e+00 6.568370819091796875e+00 2.645737409591674805e+00 3.653228998184204102e+00
1.015000000000000000e+03 4.761584091186523438e+01 1.884514236450195312e+01 -1.921236991882324219e+00 2.257150888442993164e+00 1.007741466164588928e-01 2.129773378372192383e+00
1.016000000000000000e+03 5.074906921386718750e+01 1.805179023742675781e+01 -1.358633518218994141e+00 9.020139575004577637e-01 -1.369858682155609131e-01 -9.436781704425811768e-02
1.017000000000000000e+03 5.281925201416015625e+01 1.613587570190429688e+01 1.071552157402038574e+00 2.759194850921630859e+00 1.149224042892456055e+00 -1.793524384498596191e+00
1.018000000000000000e+03 5.375992965698242188e+01 1.515042972564697266e+01 1.409439921379089355e+00 5.048932075500488281e+00 1.937511563301086426e+00 -2.142277717590332031e+00
1.019000000000000000e+03 5.725743484497070312e+01 1.346653747558593750e+01 1.682624816894531250e+00 8.035274505615234375e+00 2.915369749069213867e+00 1.017894864082336426e+00
1.020000000000000000e+03 5.515028762817382812e+01 1.901914978027343750e+01 -5.248529911041259766e-01 4.472939491271972656e+00 1.184425950050354004e+00 -2.117209434509277344e+00
1.021000000000000000e+03 5.463109207153320312e+01 1.314308357238769531e+01 9.144652485847473145e-01 8.780972480773925781e+00 2.908631324768066406e+00 -1.532398223876953125e+00
1.022000000000000000e+03 5.479603958129882812e+01 1.051743984222412109e+01 2.435374557971954346e-01 1.172934722900390625e+01 3.591865301132202148e+00 5.241239666938781738e-01
1.023000000000000000e+03 6.005217361450195312e+01 7.796288013458251953e+00 3.746274113655090332e-01 5.649398326873779297e+00 1.807207703590393066e+00 -9.374582171440124512e-01
1.024000000000000000e+03 5.411397933959960938e+01 7.277172565460205078e+00 3.484965801239013672e+00 9.801637649536132812e+00 3.985980987548828125e+00 4.267034530639648438e+00
1.025000000000000000e+03 5.770272445678710938e+01 2.531113386154174805e+00 -3.761157989501953125e-01 3.236217737197875977e+00 8.580306172370910645e-01 -1.530169844627380371e+00
1.026000000000000000e+03 5.170880889892578125e+01 3.685579061508178711e+00 5.231440663337707520e-01 3.231817245483398438e+00 1.126488327980041504e+00 2.288022756576538086e+00
1.027000000000000000e+03 5.810256958007812500e+01 1.193899273872375488e+00 -1.237868189811706543e+00 2.511942863464355469e+00 3.822224140167236328e-01 -1.868552207946777344e+00
1.028000000000000000e+03 5.539590072631835938e+01 4.404413104057312012e-01 -1.462969422340393066e+00 1.509674549102783203e+00 1.401156745851039886e-02 9.635034799575805664e-01
1.029000000000000000e+03 5.367967224121093750e+01 -6.788603067398071289e-01 6.926867961883544922e-01 5.012323379516601562e+00 1.711503028869628906e+00 2.161000490188598633e+00
1.030000000000000000e+03 5.316881179809570312e+01 6.295858383178710938e+00 2.904763698577880859e+00 4.525324821472167969e+00 2.229026556015014648e+00 3.690280437469482422e+00
1.031000000000000000e+03 5.092809677124023438e+01 4.918082237243652344e+00 -1.142065133899450302e-02 1.168879270553588867e+00 3.472375869750976562e-01 1.459626913070678711e+00
1.032000000000000000e+03 5.175730514526367188e+01 2.531126737594604492e+00 7.569546997547149658e-02 4.319052219390869141e+00 1.318424224853515625e+00 1.862176060676574707e+00
1.033000000000000000e+03 4.771414947509765625e+01 7.336840152740478516e+00 -2.451274245977401733e-01 4.325102269649505615e-01 5.621483922004699707e-02 -3.207487985491752625e-02
1.034000000000000000e+03 4.872684478759765625e+01 6.428239822387695312e+00 -1.184145450592041016e+00 -1.729559302330017090e-01 -4.071304202079772949e-01 4.472405910491943359e-01
1.035000000000000000e+03 4.672683334350585938e+01 8.256272315979003906e+00 2.525806427001953125e-01 1.278894662857055664e+00 4.594426155090332031e-01 -7.097403407096862793e-01
1.036000000000000000e+03 4.482863235473632812e+01 9.675874710083007812e+00 7.452489733695983887e-01 7.670621871948242188e+00 2.524761438369750977e+00 -1.116509675979614258e+00
1.037000000000000000e+03 4.475704193115234375e+01 1.384583377838134766e+01 8.469578027725219727e-01 1.401578617095947266e+01 4.458823204040527344e+00 2.007367134094238281e+00
1.038000000000000000e+03 4.546218872070312500e+01 1.648796081542968750e+01 2.813051462173461914e+00 1.078095531463623047e+01 4.078202247619628906e+00 4.490672111511230469e+00
1.039000000000000000e+03 4.499316024780273438e+01 1.524357128143310547e+01 1.848653912544250488e+00 1.273311328887939453e+01 4.374530315399169922e+00 3.588891744613647461e+00
1.040000000000000000e+03 4.206055068969726562e+01 2.189124870300292969e+01 -5.136799812316894531e+00 -4.430159553885459900e-02 -1.554330468177795410e+00 -3.747619092464447021e-01
1.041000000000000000e+03 4.614384078979492188e+01 2.056879043579101562e+01 -1.974585890769958496e+00 6.809579372406005859e+00 1.450498104095458984e+00 2.890497207641601562e+00
1.042000000000000000e+03 1.664328002929687500e+01 6.895730495452880859e+00 4.937434792518615723e-01 2.381113469600677490e-01 2.195564508438110352e-01 4.628093838691711426e-01
1.043000000000000000e+03 1.050328254699707031e+01 9.115927696228027344e+00 -7.238150238990783691e-01 -8.856270909309387207e-01 -4.828326404094696045e-01 7.147592306137084961e-01
1.044000000000000000e+03 9.521432876586914062e+00 1.092982578277587891e+01 -2.977995574474334717e-01 -7.331392168998718262e-01 -3.092816472053527832e-01 4.379070103168487549e-01
1.045000000000000000e+03 9.449528694152832031e+00 1.351253986358642578e+01 1.641578078269958496e-01 3.599323332309722900e-01 1.572270393371582031e-01 3.262222111225128174e-01
1.046000000000000000e+03 9.447185516357421875e+00 1.223710155487060547e+01 -2.306060865521430969e-02 -1.993674188852310181e-01 -6.672840565443038940e-02 2.029332369565963745e-01
1.047000000000000000e+03 7.569920063018798828e+00 1.406209373474121094e+01 2.739544808864593506e-01 -2.199811935424804688e-01 1.619198732078075409e-02 5.439050197601318359e-01
1.048000000000000000e+03 5.640229701995849609e+00 1.882911872863769531e+01 2.374288588762283325e-01 -4.588996171951293945e-01 -6.644122302532196045e-02 1.337337940931320190e-01
1.049000000000000000e+03 1.095961570739746094e+01 1.662306404113769531e+01 9.630256295204162598e-01 9.431679248809814453e-01 5.718580484390258789e-01 8.357099294662475586e-01
1.050000000000000000e+03 1.204927349090576172e+01 1.751441955566406250e+01 1.214194178581237793e+00 7.206498980522155762e-01 5.804532170295715332e-01 8.519654870033264160e-01
1.051000000000000000e+03 3.163655281066894531e+01 -1.591357040405273438e+01 1.818365603685379028e-01 2.333032846450805664e+00 7.544608116149902344e-01 1.277473211288452148e+00
1.052000000000000000e+03 2.884820175170898438e+01 -1.474220371246337891e+01 -7.268186807632446289e-01 3.715439081192016602e+00 8.965861201286315918e-01 1.412959933280944824e+00
1.053000000000000000e+03 3.275487136840820312e+01 -1.538005828857421875e+01 -2.647265195846557617e+00 3.653099238872528076e-01 -6.845865845680236816e-01 9.322110563516616821e-02
1.054000000000000000e+03 2.488982772827148438e+01 -1.644142341613769531e+01 4.615793526172637939e-01 1.253121614456176758e+00 5.144103169441223145e-01 3.404899537563323975e-01
1.055000000000000000e+03 2.967849159240722656e+01 -1.843975830078125000e+01 1.302052378654479980e+00 5.978783130645751953e+00 2.184250593185424805e+00 2.510444641113281250e+00
1.056000000000000000e+03 2.362238121032714844e+01 -1.396612262725830078e+01 -1.343286275863647461e+00 -5.063387379050254822e-02 -4.181760251522064209e-01 -1.516074985265731812e-01
1.057000000000000000e+03 3.389091491699218750e+01 -1.499630069732666016e+01 -5.964777469635009766e+00 -2.668496668338775635e-01 -1.869488120079040527e+00 4.070172309875488281e-01
1.058000000000000000e+03 3.803773117065429688e+01 -1.081195831298828125e+01 1.453054308891296387e+00 5.235186100006103516e+00 2.006472110748291016e+00 -2.110599756240844727e+00
1.059000000000000000e+03 3.781747817993164062e+01 -1.470431518554687500e+01 -3.701933145523071289e+00 3.755622148513793945e+00 1.610674522817134857e-02 -1.321049571037292480e+00
1.060000000000000000e+03 3.789191055297851562e+01 -1.679839706420898438e+01 -9.076429903507232666e-02 3.125758409500122070e+00 9.104982614517211914e-01 -1.395150542259216309e+00
1.061000000000000000e+03 4.200843048095703125e+01 -2.450088310241699219e+01 2.160931587219238281e+00 3.301928281784057617e+00 1.638857960700988770e+00 1.696348905563354492e+00
1.062000000000000000e+03 4.625829315185546875e+01 -1.781461334228515625e+01 -8.565168827772140503e-02 6.824808597564697266e+00 2.021747112274169922e+00 1.390602231025695801e+00
1.063000000000000000e+03 3.910963058471679688e+01 -1.729000282287597656e+01 -3.744013234972953796e-02 2.987846612930297852e+00 8.851219415664672852e-01 -1.438142418861389160e+00
1.064000000000000000e+03 3.980716705322265625e+01 -2.234107589721679688e+01 2.167119644582271576e-02 5.639020919799804688e+00 1.698207616806030273e+00 1.201984733343124390e-01
1.065000000000000000e+03 4.294350433349609375e+01 -2.118667221069335938e+01 2.393088102340698242e+00 3.471634864807128906e+00 1.759416937828063965e+00 8.545773029327392578e-01
1.066000000000000000e+03 4.126239395141601562e+01 -2.775558662414550781e+01 -2.148324489593505859e+00 3.314277410507202148e+00 3.497858643531799316e-01 9.526143670082092285e-01
1.067000000000000000e+03 3.998080444335937500e+01 -2.770960426330566406e+01 -1.717073440551757812e+00 6.672766685485839844e+00 1.486707925796508789e+00 1.491795659065246582e+00
1.068000000000000000e+03 3.744191360473632812e+01 -2.833185958862304688e+01 -1.837199449539184570e+00 2.401058673858642578e+00 1.691577881574630737e-01 7.303940653800964355e-01
1.069000000000000000e+03 3.370738601684570312e+01 -2.941284179687500000e+01 -1.699495434761047363e+00 -2.170978635549545288e-01 -5.749779939651489258e-01 -2.467692494392395020e-01
1.070000000000000000e+03 3.285943603515625000e+01 -2.819481468200683594e+01 -2.232504129409790039e+00 -2.866689115762710571e-02 -6.783512830734252930e-01 2.353396415710449219e-01
1.071000000000000000e+03 3.105630874633789062e+01 -2.623438072204589844e+01 -1.302015185356140137e-01 1.055284380912780762e+00 2.775248587131500244e-01 -4.626768529415130615e-01
1.072000000000000000e+03 2.874318313598632812e+01 -2.225683021545410156e+01 6.610422134399414062e-01 6.901571750640869141e+00 2.268784284591674805e+00 -2.510333061218261719e-01
1.073000000000000000e+03 2.744167137145996094e+01 -2.175037956237792969e+01 1.232949018478393555e+00 4.204931259155273438e+00 1.631364107131958008e+00 4.783909916877746582e-01
1.074000000000000000e+03 2.921719551086425781e+01 -1.968635749816894531e+01 1.051388740539550781e+00 7.136212825775146484e+00 2.456280469894409180e+00 1.929669022560119629e+00
1.075000000000000000e+03 1.728787803649902344e+01 -4.034822082519531250e+01 -9.105572700500488281e-01 -7.079539448022842407e-02 -2.944057881832122803e-01 3.709284067153930664e-01
1.076000000000000000e+03 1.890560722351074219e+01 -4.086527252197265625e+01 -1.111831068992614746e+00 -2.426616549491882324e-01 -4.063478112220764160e-01 -1.612263023853302002e-01
1.077000000000000000e+03 1.569017791748046875e+01 -4.084569549560546875e+01 -6.964362859725952148e-01 -1.075705066323280334e-01 -2.412020415067672729e-01 1.220656782388687134e-01
1.078000000000000000e+03 1.533371925354003906e+01 -3.902442932128906250e+01 -1.975259333848953247e-01 -2.354888990521430969e-02 -6.632244586944580078e-02 3.697733581066131592e-01
1.079000000000000000e+03 1.565549182891845703e+01 2.318573188781738281e+01 1.037401318550109863e+00 2.164078205823898315e-01 3.761427104473114014e-01 4.623531103134155273e-01
1.080000000000000000e+03 1.028137874603271484e+01 2.269508361816406250e+01 -1.833338141441345215e-01 -7.624004967510700226e-03 -5.728734657168388367e-02 7.630883902311325073e-02
1.081000000000000000e+03 8.940178871154785156e+00 2.248525619506835938e+01 -1.131424978375434875e-01 -9.340324997901916504e-02 -6.196372210979461670e-02 5.794565752148628235e-02
1.082000000000000000e+03 7.413758277893066406e+00 2.447752571105957031e+01 -1.200183704495429993e-01 -2.188378870487213135e-01 -1.016568765044212341e-01 1.658618748188018799e-01
1.083000000000000000e+03 1.971694827079772949e+00 2.562949371337890625e+01 -1.774896495044231415e-02 -1.050644874572753906e+00 -3.205181360244750977e-01 1.782672666013240814e-02
1.084000000000000000e+03 6.500601959228515625e+01 2.014976692199707031e+01 -4.268892288208007812e+00 2.875411510467529297e-01 -1.194405317306518555e+00 5.833783745765686035e-01
1.085000000000000000e+03 6.385192489624023438e+01 2.470381355285644531e+01 7.805715799331665039e-01 6.750626087188720703e+00 2.259359359741210938e+00 1.541248083114624023e+00
1.086000000000000000e+03 6.371559524536132812e+01 1.989946746826171875e+01 4.188793525099754333e-02 3.047935009002685547e+00 9.269468784332275391e-01 2.708456039428710938e+00
1.087000000000000000e+03 6.112594604492187500e+01 2.006996536254882812e+01 -6.771447509527206421e-02 6.938716888427734375e+00 2.061300754547119141e+00 2.676248073577880859e+00
1.088000000000000000e+03 5.460398483276367188e+01 1.636224555969238281e+01 5.705177187919616699e-01 5.247344970703125000e+00 1.745358705520629883e+00 -1.210415840148925781e+00
1.089000000000000000e+03 6.144078826904296875e+01 1.746603012084960938e+01 2.652277946472167969e+00 1.134983825683593750e+01 4.200634956359863281e+00 4.690469741821289062e+00
1.090000000000000000e+03 6.068015670776367188e+01 1.344365024566650391e+01 3.498911559581756592e-01 1.065573120117187500e+01 3.301686763763427734e+00 3.916355967521667480e-01
1.091000000000000000e+03 5.591031265258789062e+01 1.286089134216308594e+01 1.405483007431030273e+00 8.381226539611816406e+00 2.936012983322143555e+00 4.135394692420959473e-01
1.092000000000000000e+03 6.153914260864257812e+01 1.012617015838623047e+01 1.426399707794189453e+00 5.407922267913818359e+00 2.050296545028686523e+00 -1.992568373680114746e+00
1.093000000000000000e+03 6.629986572265625000e+01 2.027808189392089844e+01 -5.994038105010986328e+00 -3.604302704334259033e-01 -1.906340479850769043e+00 7.990497350692749023e-01
1.094000000000000000e+03 6.826233673095703125e+01 1.953131866455078125e+01 -3.370749711990356445e+00 1.223313361406326294e-01 -9.745255112648010254e-01 6.598773002624511719e-01
1.095000000000000000e+03 6.919998931884765625e+01 1.857488250732421875e+01 -8.129513263702392578e-01 1.185708284378051758e+00 1.118270829319953918e-01 -8.255983889102935791e-02
1.096000000000000000e+03 6.942769622802734375e+01 2.044125175476074219e+01 -2.217307090759277344e+00 3.244449377059936523e+00 3.081427514553070068e-01 -1.390643835067749023e+00
1.097000000000000000e+03 6.874279785156250000e+01 2.150172805786132812e+01 -1.260985970497131348e+00 2.406775474548339844e+00 3.437368571758270264e-01 -1.380397677421569824e+00
1.098000000000000000e+03 6.396944046020507812e+01 7.466233730316162109e+00 -1.147770166397094727e+00 6.393335461616516113e-01 -1.525309830904006958e-01 -1.347830891609191895e-01
1.099000000000000000e+03 3.242014694213867188e+01 2.396590995788574219e+01 9.092023968696594238e-01 5.603895664215087891e+00 1.953929424285888672e+00 -8.839753866195678711e-01
1.100000000000000000e+03 3.170587158203125000e+01 2.051035308837890625e+01 2.679573558270931244e-02 4.388421058654785156e+00 1.324565052986145020e+00 -2.252904325723648071e-01
1.101000000000000000e+03 3.001576805114746094e+01 1.569215774536132812e+01 3.246150910854339600e-01 1.368669569492340088e-01 1.384446173906326294e-01 2.683956623077392578e-01
1.102000000000000000e+03 3.664148330688476562e+01 2.417492675781250000e+01 2.357819557189941406e+00 4.430856227874755859e+00 2.036602735519409180e+00 -3.174768447875976562e+00
1.103000000000000000e+03 5.274787902832031250e+01 3.206977462768554688e+01 1.344686985015869141e+00 8.167069435119628906e+00 2.853527069091796875e+00 1.330700397491455078e+00
1.104000000000000000e+03 7.241207885742187500e+01 -1.330087780952453613e+00 -9.929319620132446289e-01 1.560975193977355957e+00 1.704129725694656372e-01 -5.685275197029113770e-01
1.105000000000000000e+03 6.777783966064453125e+01 6.863826751708984375e+00 -1.134572029113769531e+00 3.452629446983337402e-01 -2.367926985025405884e-01 5.253887772560119629e-01
1.106000000000000000e+03 7.425821685791015625e+01 -3.584948778152465820e+00 1.072908639907836914e+00 7.755755424499511719e+00 2.648599147796630859e+00 -2.904707908630371094e+00
1.107000000000000000e+03 7.645942687988281250e+01 -6.392749547958374023e-01 -6.621188521385192871e-01 7.894248008728027344e+00 2.169638872146606445e+00 -2.085111737251281738e-01
1.108000000000000000e+03 7.672531890869140625e+01 -3.980098009109497070e+00 2.077863663434982300e-01 9.605588912963867188e+00 2.944012641906738281e+00 1.588394939899444580e-01
1.109000000000000000e+03 6.011713409423828125e+01 -9.386281013488769531e+00 7.366154193878173828e-01 4.822933197021484375e+00 1.667864561080932617e+00 2.053369522094726562e+00
1.110000000000000000e+03 6.125602722167968750e+01 -7.564497947692871094e+00 1.526394248008728027e+00 9.835609436035156250e+00 3.408601045608520508e+00 1.625135660171508789e+00
1.111000000000000000e+03 6.772808074951171875e+01 -1.555534005165100098e+00 1.564234614372253418e+00 2.308826446533203125e+00 1.161918282508850098e+00 1.767758131027221680e+00
1.112000000000000000e+03 6.677341461181640625e+01 -2.552962779998779297e+00 1.997401595115661621e+00 3.984884738922119141e+00 1.794685959815979004e+00 2.615850210189819336e+00
1.113000000000000000e+03 6.854557800292968750e+01 -4.607365429401397705e-01 5.713546276092529297e-01 1.591675877571105957e+00 6.489091515541076660e-01 1.705013275146484375e+00
1.114000000000000000e+03 6.979273986816406250e+01 -8.186199665069580078e-01 -4.401420354843139648e-01 4.378390610218048096e-01 -6.908904761075973511e-04 7.324746847152709961e-01
1.115000000000000000e+03 4.475769424438476562e+01 -3.827479934692382812e+01 -2.650741577148437500e+00 -2.795445919036865234e-01 -8.790858387947082520e-01 -1.743550300598144531e-01
1.116000000000000000e+03 4.303208923339843750e+01 -3.847829437255859375e+01 -2.553078413009643555e+00 -1.554727368056774139e-02 -7.705877423286437988e-01 -3.029647283256053925e-02
1.117000000000000000e+03 4.140460205078125000e+01 -3.775177764892578125e+01 -1.564242601394653320e+00 7.542198300361633301e-01 -2.430068254470825195e-01 3.728999942541122437e-02
1.118000000000000000e+03 3.965607452392578125e+01 -3.096245956420898438e+01 1.677565693855285645e+00 9.129528999328613281e+00 3.242128372192382812e+00 3.500465631484985352e+00
1.119000000000000000e+03 3.785134887695312500e+01 -2.730983543395996094e+01 -7.078867554664611816e-01 2.407042026519775391e+00 5.097466111183166504e-01 1.037364125251770020e+00
1.120000000000000000e+03 4.027802658081054688e+01 -2.987164688110351562e+01 1.648586988449096680e+00 6.782566547393798828e+00 2.529345989227294922e+00 3.183809280395507812e+00
1.121000000000000000e+03 4.118269348144531250e+01 -2.520071601867675781e+01 1.405316948890686035e+00 4.060142993927001953e+00 1.639637947082519531e+00 2.101269960403442383e+00
1.122000000000000000e+03 4.038048553466796875e+01 -2.451010131835937500e+01 1.967496871948242188e+00 7.137298583984375000e+00 2.731438636779785156e+00 2.476298093795776367e+00
1.123000000000000000e+03 5.669295883178710938e+01 6.673756241798400879e-01 -2.192866563796997070e+00 4.434682428836822510e-01 -5.248194932937622070e-01 -4.114340245723724365e-01
1.124000000000000000e+03 5.875976562500000000e+01 2.047013863921165466e-02 -1.633335500955581665e-01 2.988120079040527344e+00 8.474359512329101562e-01 -1.940263390541076660e+00
1.125000000000000000e+03 5.962654495239257812e+01 -9.900660514831542969e-01 2.143751382827758789e+00 4.991128444671630859e+00 2.140463829040527344e+00 -3.156874179840087891e+00
1.126000000000000000e+03 5.305061721801757812e+01 -1.761525511741638184e+00 1.419114232063293457e+00 7.795893192291259766e+00 2.764502286911010742e+00 2.371585607528686523e+00
1.127000000000000000e+03 5.086042022705078125e+01 3.162602186203002930e+00 6.644434928894042969e-01 2.666755437850952148e+00 9.993596673011779785e-01 1.048859596252441406e+00
1.128000000000000000e+03 5.121455764770507812e+01 -2.793852806091308594e+01 -1.095723360776901245e-01 3.679258584976196289e+00 1.070905804634094238e+00 -5.095227956771850586e-01
1.129000000000000000e+03 5.051786422729492188e+01 -2.655699920654296875e+01 -1.460984706878662109e+00 1.987776637077331543e+00 1.580375880002975464e-01 -1.972068190574645996e+00
1.130000000000000000e+03 9.853327751159667969e+00 -1.843023300170898438e+00 -1.447665542364120483e-01 -1.344806551933288574e-01 -8.377416431903839111e-02 -1.122170910239219666e-01
1.131000000000000000e+03 2.741945648193359375e+01 -3.026354217529296875e+01 -4.894286394119262695e-01 2.701569080352783203e+00 6.636421680450439453e-01 2.629830874502658844e-02
1.132000000000000000e+03 2.499601173400878906e+01 -3.215759277343750000e+01 1.906049847602844238e-01 3.449001312255859375e+00 1.091881871223449707e+00 -2.772392034530639648e-01
1.133000000000000000e+03 6.581512451171875000e+01 -3.172586059570312500e+01 8.325481414794921875e-01 1.235832786560058594e+01 3.957262754440307617e+00 -1.803066492080688477e+00
1.134000000000000000e+03 6.918265533447265625e+01 -2.804899215698242188e+01 1.227606415748596191e+00 1.912602066993713379e+00 9.420625567436218262e-01 -9.863022565841674805e-01
1.135000000000000000e+03 7.830645751953125000e+01 -2.625996971130371094e+01 -1.626060605049133301e-01 7.914654731750488281e+00 2.325614690780639648e+00 -4.721882045269012451e-01
1.136000000000000000e+03 7.943635559082031250e+01 -2.369560432434082031e+01 4.988928884267807007e-02 6.725960731506347656e+00 2.032755136489868164e+00 -1.607452481985092163e-01
1.137000000000000000e+03 7.934056091308593750e+01 -3.326798248291015625e+01 4.481291770935058594e-02 8.084059715270996094e+00 2.438661813735961914e+00 -4.165818449109792709e-03
1.138000000000000000e+03 4.881285858154296875e+01 -8.828927993774414062e+00 3.061924934387207031e+00 9.490990638732910156e+00 3.765874624252319336e+00 1.106401607394218445e-01
1.139000000000000000e+03 3.890721893310546875e+01 -1.166984081268310547e+01 3.199843168258666992e-01 2.071162939071655273e+00 7.173441648483276367e-01 -1.645054817199707031e+00
1.140000000000000000e+03 4.963105010986328125e+01 1.887234687805175781e+01 -3.658566474914550781e+00 3.844662755727767944e-02 -1.086035966873168945e+00 5.597350001335144043e-01
1.141000000000000000e+03 3.266806793212890625e+01 1.938516235351562500e+01 2.963956259191036224e-02 3.864923715591430664e+00 1.168369054794311523e+00 -7.139676213264465332e-01
1.142000000000000000e+03 2.199354934692382812e+01 1.262410545349121094e+01 8.463862538337707520e-02 5.312096476554870605e-01 1.847544908523559570e-01 5.211549252271652222e-02
1.143000000000000000e+03 3.170598793029785156e+01 1.805607986450195312e+01 8.816202729940414429e-02 3.004624366760253906e+00 9.278358817100524902e-01 -5.330836400389671326e-02
1.144000000000000000e+03 6.633254241943359375e+01 3.270953369140625000e+01 4.222299158573150635e-01 5.380039691925048828e+00 1.740680932998657227e+00 7.711507678031921387e-01
1.145000000000000000e+03 4.674316024780273438e+01 3.022953224182128906e+01 1.092463970184326172e+00 6.828379154205322266e+00 2.376252889633178711e+00 -7.456919550895690918e-01
1.146000000000000000e+03 9.839387893676757812e+00 2.043222427368164062e+01 2.894054353237152100e-01 7.682370394468307495e-02 1.098687425255775452e-01 1.594188958406448364e-01
1.147000000000000000e+03 1.063436794281005859e+01 1.948390960693359375e+01 4.554067850112915039e-01 3.003820180892944336e-01 2.267366498708724976e-01 2.515472173690795898e-01
1.148000000000000000e+03 2.231949234008789062e+01 2.293976402282714844e+01 8.450083434581756592e-02 1.606100559234619141e+00 5.071803927421569824e-01 2.269086390733718872e-01
1.149000000000000000e+03 1.835875749588012695e+00 1.595267963409423828e+01 4.907487705349922180e-02 -8.146917819976806641e-01 -2.296850681304931641e-01 1.805994063615798950e-01
1.150000000000000000e+03 8.945620536804199219e+00 1.471614074707031250e+01 4.117606282234191895e-01 3.298813700675964355e-01 2.224926054477691650e-01 4.739325344562530518e-01
1.151000000000000000e+03 2.082226943969726562e+01 1.964833831787109375e+01 4.905842840671539307e-01 9.829321503639221191e-01 4.420549273490905762e-01 -2.718507647514343262e-01
1.152000000000000000e+03 1.664361834526062012e+00 9.024778366088867188e+00 -4.135717079043388367e-02 -1.180146262049674988e-01 -4.781153798103332520e-02 1.504427492618560791e-01
1.153000000000000000e+03 4.539949417114257812e+01 8.024956703186035156e+00 -1.556401420384645462e-02 5.503432273864746094e+00 1.646360516548156738e+00 -1.007830977439880371e+00
1.154000000000000000e+03 2.370198631286621094e+01 1.720534133911132812e+01 4.506097435951232910e-01 1.112314343452453613e+00 4.688772261142730713e-01 -6.356677412986755371e-01
1.155000000000000000e+03 5.479530715942382812e+01 9.213197708129882812e+00 1.436444044113159180e+00 1.306460762023925781e+01 4.350315570831298828e+00 2.311817407608032227e+00
1.156000000000000000e+03 5.185184478759765625e+01 -1.452359771728515625e+01 -1.766782879829406738e+00 1.710694551467895508e+00 -1.682650856673717499e-02 -2.838391542434692383e+00
1.157000000000000000e+03 5.213714218139648438e+01 -2.684658050537109375e+00 1.145536780357360840e+00 9.017672538757324219e+00 3.048962831497192383e+00 1.167365550994873047e+00
1.158000000000000000e+03 9.112309455871582031e+00 -1.870441675186157227e+00 -1.270357817411422729e-01 3.562135249376296997e-02 -2.742432989180088043e-02 -9.427199512720108032e-02
1.159000000000000000e+03 7.643823623657226562e+00 -1.910472989082336426e+00 -9.097818285226821899e-02 2.790784277021884918e-02 -1.892110146582126617e-02 -6.735224276781082153e-02
1.160000000000000000e+03 8.378147125244140625e+00 -1.892372131347656250e+00 -1.198233813047409058e-01 -8.784262090921401978e-02 -6.229979917407035828e-02 -9.603082388639450073e-02
1.161000000000000000e+03 6.905574798583984375e+00 -1.923728108406066895e+00 -7.953702658414840698e-02 -5.784093961119651794e-02 -4.121338948607444763e-02 -6.652954220771789551e-02
1.162000000000000000e+03 2.513584852218627930e+00 -1.936561822891235352e+00 -3.057598602026700974e-03 -2.309506759047508240e-02 -7.845800369977951050e-03 -1.934755593538284302e-02
1.163000000000000000e+03 3.061111450195312500e+00 -3.142244100570678711e+00 -1.352952327579259872e-02 -3.129747882485389709e-02 -1.344810053706169128e-02 -2.903032302856445312e-02
1.164000000000000000e+03 3.943983793258666992e+00 -1.977420449256896973e+00 -2.368221618235111237e-02 -3.087963163852691650e-02 -1.636855490505695343e-02 -2.879548631608486176e-02
1.165000000000000000e+03 1.864853024482727051e+00 -1.959130167961120605e+00 -4.636234603822231293e-03 1.033213948176125996e-06 -1.390560413710772991e-03 -9.024643222801387310e-04
1.166000000000000000e+03 1.162275195121765137e+00 -2.104888677597045898e+00 -6.371846422553062439e-03 -6.513924337923526764e-03 -3.865731181576848030e-03 -3.205989021807909012e-03
1.167000000000000000e+03 2.071954011917114258e+00 -4.163076400756835938e+01 -8.637168258428573608e-02 -5.450468882918357849e-02 -4.226291179656982422e-02 2.472422085702419281e-02
1.168000000000000000e+03 5.296296119689941406e+00 -3.763083648681640625e+01 -6.536097079515457153e-02 8.430782705545425415e-02 5.684054922312498093e-03 1.880164891481399536e-01
1.169000000000000000e+03 1.106382608413696289e+00 -3.864517974853515625e+01 -1.569020003080368042e-02 -1.668393611907958984e-01 -5.475886538624763489e-02 5.927147716283798218e-02
1.170000000000000000e+03 7.359273433685302734e-01 -3.450592041015625000e+01 9.980414994060993195e-03 -4.463217854499816895e-01 -1.309024095535278320e-01 4.821468517184257507e-02
1.171000000000000000e+03 6.980286240577697754e-01 -3.310926437377929688e+01 1.054160878993570805e-03 -5.327258110046386719e-01 -1.595014929771423340e-01 3.534103557467460632e-02
1.172000000000000000e+03 6.338656544685363770e-01 -2.892173576354980469e+01 1.587212085723876953e-03 -6.852499842643737793e-01 -2.050988227128982544e-01 1.182675175368785858e-02
1.173000000000000000e+03 6.210853457450866699e-01 -2.752495193481445312e+01 4.741726908832788467e-03 -7.059885859489440918e-01 -2.103740572929382324e-01 6.112307775765657425e-03
1.174000000000000000e+03 1.868667364120483398e+00 -2.724975013732910156e+01 1.013546530157327652e-02 -5.127470493316650391e-01 -1.507834792137145996e-01 1.423979271203279495e-02
1.175000000000000000e+03 1.848933339118957520e+00 -2.306760406494140625e+01 2.553483285009860992e-02 -4.883529543876647949e-01 -1.388454288244247437e-01 -2.470215037465095520e-02
1.176000000000000000e+03 6.373331546783447266e-01 -2.187495422363281250e+01 1.298797409981489182e-02 -6.757626533508300781e-01 -1.988324075937271118e-01 -2.155179902911186218e-02
1.177000000000000000e+03 6.408519148826599121e-01 -2.046439933776855469e+01 8.265715092420578003e-03 -6.054638028144836426e-01 -1.791594177484512329e-01 -4.645681008696556091e-02
1.178000000000000000e+03 1.875828146934509277e+00 -1.741737747192382812e+01 -3.465788066387176514e-02 -2.575066387653350830e-01 -8.764936029911041260e-02 -1.433383971452713013e-01
1.179000000000000000e+03 6.114677786827087402e-01 -1.483881855010986328e+01 4.893208388239145279e-03 -1.688625812530517578e-01 -4.919081181287765503e-02 -2.187626622617244720e-02
1.180000000000000000e+03 5.962619185447692871e-01 -1.343565559387207031e+01 -1.059833727777004242e-02 -1.209286749362945557e-01 -3.945810347795486450e-02 -1.697057485580444336e-02
1.181000000000000000e+03 1.798424363136291504e+00 -1.326150703430175781e+01 -1.430579274892807007e-02 -1.455519348382949829e-01 -4.795731976628303528e-02 -3.721578791737556458e-02
1.182000000000000000e+03 5.582199096679687500e-01 -9.205513000488281250e+00 1.126438961364328861e-03 -6.534308940172195435e-02 -1.926499605178833008e-02 -4.242731723934412003e-03
1.183000000000000000e+03 5.659195184707641602e-01 -7.791271209716796875e+00 -1.197565215989015996e-04 -5.118737742304801941e-02 -1.539214048534631729e-02 -5.310943350195884705e-03
1.184000000000000000e+03 1.689640879631042480e+00 -7.675081253051757812e+00 1.235487754456698895e-03 -6.540327519178390503e-02 -1.925033517181873322e-02 -1.963142305612564087e-02
1.185000000000000000e+03 5.759189724922180176e-01 -6.372106552124023438e+00 2.055497607216238976e-03 -3.738496080040931702e-02 -1.059883926063776016e-02 -7.734785787761211395e-03
1.186000000000000000e+03 7.160417175292968750e+01 -4.125005722045898438e+01 -8.760147094726562500e-01 6.649558544158935547e+00 1.732063055038452148e+00 -2.532214522361755371e-01
1.187000000000000000e+03 5.219563674926757812e+01 -4.101820373535156250e+01 -2.886811017990112305e+00 6.081647396087646484e+00 9.584509730339050293e-01 1.366253644227981567e-01
1.188000000000000000e+03 3.237075805664062500e+01 -4.140790557861328125e+01 -7.898478507995605469e-01 2.700375318527221680e+00 5.731582045555114746e-01 1.401760131120681763e-01
1.189000000000000000e+03 1.186493492126464844e+01 -3.911960220336914062e+01 -4.900728464126586914e-01 5.093283653259277344e-01 5.776653066277503967e-03 1.447374224662780762e-01
1.190000000000000000e+03 7.525834655761718750e+01 4.017014694213867188e+01 -1.031515598297119141e-01 6.711321353912353516e+00 1.982450842857360840e+00 2.006725221872329712e-01
1.191000000000000000e+03 7.930108642578125000e+01 3.879298782348632812e+01 -1.643973216414451599e-02 7.338627338409423828e+00 2.196656227111816406e+00 -2.699047036003321409e-04
1.192000000000000000e+03 7.704749298095703125e+01 3.884205245971679688e+01 -8.503547310829162598e-02 7.104420661926269531e+00 2.105815410614013672e+00 9.940037876367568970e-02
1.193000000000000000e+03 7.918584442138671875e+01 3.488286972045898438e+01 1.789226941764354706e-02 7.203526496887207031e+00 2.166425704956054688e+00 3.944024071097373962e-02
1.194000000000000000e+03 7.750450897216796875e+01 3.345234298706054688e+01 4.830642044544219971e-02 6.828466892242431641e+00 2.063031911849975586e+00 1.216326206922531128e-01
1.195000000000000000e+03 7.917604827880859375e+01 3.345353698730468750e+01 -1.405338943004608154e-02 7.145991802215576172e+00 2.139581441879272461e+00 3.714223206043243408e-02
1.196000000000000000e+03 7.926486206054687500e+01 3.062535858154296875e+01 5.971929524093866348e-03 7.092125892639160156e+00 2.129429340362548828e+00 -7.198262028396129608e-03
1.197000000000000000e+03 7.689825439453125000e+01 2.750689506530761719e+01 6.743114441633224487e-02 6.679244518280029297e+00 2.024002790451049805e+00 -2.597847282886505127e-01
1.198000000000000000e+03 7.939314270019531250e+01 2.644003868103027344e+01 1.355193182826042175e-02 7.428209304809570312e+00 2.232528448104858398e+00 -7.354457676410675049e-02
1.199000000000000000e+03 7.706451416015625000e+01 2.488621902465820312e+01 -1.052130907773971558e-01 6.922026157379150391e+00 2.045043945312500000e+00 -2.957898974418640137e-01
1.200000000000000000e+03 7.941098022460937500e+01 2.505757713317871094e+01 -2.286654151976108551e-02 7.607752323150634766e+00 2.275465726852416992e+00 -6.525044888257980347e-02
1.201000000000000000e+03 7.944638824462890625e+01 2.092114448547363281e+01 -1.036891806870698929e-02 7.698869228363037109e+00 2.306550025939941406e+00 8.736854046583175659e-02
1.202000000000000000e+03 7.945829010009765625e+01 1.954237174987792969e+01 -4.810635000467300415e-02 7.404940605163574219e+00 2.207050323486328125e+00 1.638190150260925293e-01
1.203000000000000000e+03 7.833867645263671875e+01 2.094306373596191406e+01 -1.730448603630065918e-01 7.415579319000244141e+00 2.172760248184204102e+00 1.979953497648239136e-01
1.204000000000000000e+03 7.946141052246093750e+01 1.816141700744628906e+01 -8.459666743874549866e-03 6.914997577667236328e+00 2.071961402893066406e+00 2.362928837537765503e-01
1.205000000000000000e+03 7.940687561035156250e+01 1.400496768951416016e+01 5.236594006419181824e-02 5.231341361999511719e+00 1.585112094879150391e+00 1.694882363080978394e-01
1.206000000000000000e+03 7.808553314208984375e+01 1.276133537292480469e+01 2.714999616146087646e-01 6.136711597442626953e+00 1.922463417053222656e+00 1.205969601869583130e-01
1.207000000000000000e+03 7.936760711669921875e+01 1.122436046600341797e+01 7.806150615215301514e-02 5.100998401641845703e+00 1.553717970848083496e+00 -1.052581369876861572e-01
1.208000000000000000e+03 7.935092926025390625e+01 7.048382282257080078e+00 2.568204328417778015e-02 6.797577381134033203e+00 2.046977758407592773e+00 -3.462310433387756348e-01
1.209000000000000000e+03 7.936128234863281250e+01 5.662058830261230469e+00 -2.793530188500881195e-02 7.562089443206787109e+00 2.260246276855468750e+00 -3.371320068836212158e-01
1.210000000000000000e+03 7.934040069580078125e+01 4.269948005676269531e+00 -3.891443088650703430e-02 8.176272392272949219e+00 2.441207408905029297e+00 -2.638522982597351074e-01
1.211000000000000000e+03 7.938027191162109375e+01 5.213487148284912109e-02 4.010775312781333923e-02 9.152985572814941406e+00 2.757927894592285156e+00 -1.621260307729244232e-02
1.212000000000000000e+03 7.940307617187500000e+01 -1.343098282814025879e+00 -1.835076212882995605e-01 8.987626075744628906e+00 2.641235589981079102e+00 1.634167879819869995e-01
1.213000000000000000e+03 7.938770294189453125e+01 -2.720232009887695312e+00 5.118715018033981323e-02 8.427230834960937500e+00 2.543525457382202148e+00 3.026391863822937012e-01
1.214000000000000000e+03 7.934094238281250000e+01 -4.116961002349853516e+00 -3.764514252543449402e-02 7.794420719146728516e+00 2.327032566070556641e+00 2.988893985748291016e-01
1.215000000000000000e+03 7.497430419921875000e+01 -9.499715805053710938e+00 8.654069900512695312e-01 1.132917690277099609e+01 3.658375263214111328e+00 1.619524717330932617e+00
1.216000000000000000e+03 7.931973266601562500e+01 -8.396303176879882812e+00 -1.872487924993038177e-02 7.991955757141113281e+00 2.391969203948974609e+00 -4.514032900333404541e-01
1.217000000000000000e+03 7.941335296630859375e+01 -1.113644027709960938e+01 -2.442226558923721313e-01 1.015358829498291016e+01 2.972809553146362305e+00 -4.223141372203826904e-01
1.218000000000000000e+03 7.936161041259765625e+01 -1.530613327026367188e+01 -1.334781050682067871e-01 1.028694438934326172e+01 3.046039819717407227e+00 3.294926881790161133e-01
1.219000000000000000e+03 7.369602966308593750e+01 -1.638792610168457031e+01 -3.620110750198364258e-01 5.339382648468017578e+00 1.493211388587951660e+00 3.887670859694480896e-02
1.220000000000000000e+03 7.939896392822265625e+01 -1.811019897460937500e+01 -8.489031344652175903e-02 8.529088973999023438e+00 2.533259630203247070e+00 4.164071977138519287e-01
1.221000000000000000e+03 7.448657226562500000e+01 -2.323383522033691406e+01 1.253219842910766602e+00 1.179278564453125000e+01 3.913801431655883789e+00 6.601229906082153320e-01
1.222000000000000000e+03 7.817314910888671875e+01 -2.240019035339355469e+01 3.593485653400421143e-01 7.679095268249511719e+00 2.411533117294311523e+00 2.819150872528553009e-02
1.223000000000000000e+03 7.945348358154296875e+01 -2.505189323425292969e+01 9.079082868993282318e-03 7.225137233734130859e+00 2.170264720916748047e+00 -2.362239807844161987e-01
1.224000000000000000e+03 7.731298828125000000e+01 -2.663412094116210938e+01 -3.566263914108276367e-01 8.061253547668457031e+00 2.311388254165649414e+00 -3.708390891551971436e-01
1.225000000000000000e+03 7.937031555175781250e+01 -2.911791992187500000e+01 -3.642772138118743896e-02 8.189812660217285156e+00 2.446015596389770508e+00 -2.525272592902183533e-02
1.226000000000000000e+03 7.802539825439453125e+01 -3.157419776916503906e+01 5.821881070733070374e-02 7.769909858703613281e+00 2.348438501358032227e+00 4.980511218309402466e-02
1.227000000000000000e+03 7.934794616699218750e+01 -3.189396095275878906e+01 -2.531380578875541687e-02 8.122069358825683594e+00 2.429026842117309570e+00 3.350025787949562073e-02
1.228000000000000000e+03 7.926850128173828125e+01 -3.601368331909179688e+01 4.385248944163322449e-02 8.114520072937011719e+00 2.447511672973632812e+00 -3.795794397592544556e-02
1.229000000000000000e+03 7.913294219970703125e+01 -3.736064910888671875e+01 -2.694463357329368591e-02 8.168409347534179688e+00 2.442439556121826172e+00 -3.309263288974761963e-02
1.230000000000000000e+03 7.890019989013671875e+01 -3.868974685668945312e+01 4.418886452913284302e-02 8.243325233459472656e+00 2.486254215240478516e+00 -6.663700193166732788e-02
1.231000000000000000e+03 7.854075622558593750e+01 -4.006422042846679688e+01 -5.782845616340637207e-02 8.284344673156738281e+00 2.467954874038696289e+00 -3.040905669331550598e-02
1.232000000000000000e+03 2.455097579956054688e+01 3.857958602905273438e+01 -2.357901185750961304e-01 1.742890357971191406e+00 4.521300792694091797e-01 -3.197063803672790527e-01
1.233000000000000000e+03 4.677413940429687500e+01 3.848972320556640625e+01 -1.300196051597595215e+00 4.373313426971435547e+00 9.219352602958679199e-01 -6.218378543853759766e-01
1.234000000000000000e+03 4.084695875644683838e-01 2.195351600646972656e+00 1.447825226932764053e-03 4.188140854239463806e-02 1.299876999109983444e-02 -1.380511652678251266e-02
1.235000000000000000e+03 2.090302467346191406e+00 3.419730663299560547e+00 -1.466490887105464935e-02 2.995664998888969421e-02 4.587522242218255997e-03 -4.435453191399574280e-02
1.236000000000000000e+03 4.597022533416748047e+00 3.029393672943115234e+00 -3.924230113625526428e-02 -1.210706401616334915e-02 -1.540480926632881165e-02 -4.715268313884735107e-02
1.237000000000000000e+03 2.316293954849243164e+00 6.013739109039306641e+00 -5.775365233421325684e-02 6.564390379935503006e-03 -1.535677816718816757e-02 3.263112157583236694e-02
1.238000000000000000e+03 5.507835149765014648e-01 9.196683883666992188e+00 -1.079628895968198776e-02 -7.508140802383422852e-02 -2.576331049203872681e-02 5.647340044379234314e-02
1.239000000000000000e+03 5.801586508750915527e-01 1.201897525787353516e+01 -3.190258052200078964e-03 -4.476430714130401611e-01 -1.352500021457672119e-01 8.674938976764678955e-02
1.240000000000000000e+03 6.121033430099487305e-01 1.621459579467773438e+01 9.354910813271999359e-03 -1.024666547775268555e+00 -3.045935034751892090e-01 5.861669406294822693e-02
1.241000000000000000e+03 6.327455639839172363e-01 1.762351799011230469e+01 9.550022892653942108e-03 -1.132349252700805664e+00 -3.368397653102874756e-01 3.724117577075958252e-02
1.242000000000000000e+03 6.190817952156066895e-01 2.188233947753906250e+01 6.235938053578138351e-03 -1.203776717185974121e+00 -3.592622280120849609e-01 -8.546639233827590942e-03
1.243000000000000000e+03 3.178555727005004883e+00 2.502979087829589844e+01 -4.377238079905509949e-02 -8.939587473869323730e-01 -2.813193500041961670e-01 3.343709558248519897e-02
1.244000000000000000e+03 4.716668128967285156e+00 2.527703094482421875e+01 -7.339695841073989868e-02 -7.026053071022033691e-01 -2.328006774187088013e-01 7.174942642450332642e-02
1.245000000000000000e+03 2.110462665557861328e+00 2.910830116271972656e+01 -2.998458454385399818e-03 -1.084626555442810059e+00 -3.262874782085418701e-01 9.665773808956146240e-02
1.246000000000000000e+03 6.347094178199768066e-01 3.045149421691894531e+01 1.972978189587593079e-02 -1.374541044235229492e+00 -4.064433872699737549e-01 4.254081100225448608e-02
1.247000000000000000e+03 4.474368572235107422e+00 2.953987884521484375e+01 -6.836978718638420105e-04 -7.546047568321228027e-01 -2.265865355730056763e-01 1.207744702696800232e-01
1.248000000000000000e+03 7.662527561187744141e-01 3.612616729736328125e+01 -2.169186947867274284e-03 -1.447507262229919434e+00 -4.349029064178466797e-01 -1.828461326658725739e-02
1.249000000000000000e+03 2.062958717346191406e+00 3.773359680175781250e+01 1.281456463038921356e-02 -1.126296401023864746e+00 -3.340445458889007568e-01 -7.671606540679931641e-02
1.250000000000000000e+03 8.181363344192504883e-01 3.871134185791015625e+01 -9.669254533946514130e-03 -1.297882199287414551e+00 -3.922654390335083008e-01 -4.722367227077484131e-02
1.251000000000000000e+03 1.297043323516845703e+00 4.000296020507812500e+01 3.128545358777046204e-02 -1.199940085411071777e+00 -3.505963981151580811e-01 -7.801554352045059204e-02
1.252000000000000000e+03 9.415498733520507812e+00 1.963831067085266113e+00 4.880523309111595154e-03 -5.189486220479011536e-02 -1.410430110991001129e-02 3.326738998293876648e-02
1.253000000000000000e+03 8.616381645202636719e+00 1.932011961936950684e+00 2.493950724601745605e-02 -4.044571891427040100e-02 -4.651864059269428253e-03 2.668140921741724014e-03
1.254000000000000000e+03 7.804423332214355469e+00 1.914915323257446289e+00 3.056594356894493103e-02 -2.361953258514404297e-02 2.083923434838652611e-03 -1.269744150340557098e-02
1.255000000000000000e+03 6.985892772674560547e+00 1.914803385734558105e+00 3.700704127550125122e-02 -1.871535927057266235e-02 5.487503949552774429e-03 -3.319831937551498413e-02
1.256000000000000000e+03 5.347723007202148438e+00 1.968329548835754395e+00 3.476444631814956665e-02 -9.164732880890369415e-03 7.679914589971303940e-03 -5.058553814888000488e-02
1.257000000000000000e+03 4.526466369628906250e+00 2.011323451995849609e+00 3.081497550010681152e-02 -2.499162685126066208e-03 8.494743146002292633e-03 -5.399280413985252380e-02
1.258000000000000000e+03 3.703113555908203125e+00 2.057395696640014648e+00 2.475695312023162842e-02 -5.710960831493139267e-04 7.255757227540016174e-03 -5.686665698885917664e-02
1.259000000000000000e+03 2.054136753082275391e+00 2.137841224670410156e+00 1.260362844914197922e-02 1.789698377251625061e-02 9.150183759629726410e-03 -4.769492894411087036e-02
1.260000000000000000e+03 1.228909015655517578e+00 2.169496536254882812e+00 6.299129221588373184e-03 3.182277828454971313e-02 1.143657229840755463e-02 -3.512740135192871094e-02
1.261000000000000000e+03 1.145992660522460938e+01 8.293510437011718750e+00 -8.568369150161743164e-01 -7.707248330116271973e-01 -4.882685244083404541e-01 8.259367346763610840e-01
1.262000000000000000e+03 1.229685688018798828e+01 2.455040454864501953e+00 -2.467634230852127075e-01 -7.968341559171676636e-02 -9.793405234813690186e-02 2.357655614614486694e-01
1.263000000000000000e+03 1.448809146881103516e+01 2.820247888565063477e+00 -6.983037590980529785e-01 5.012442916631698608e-02 -1.944537907838821411e-01 4.739287197589874268e-01
1.264000000000000000e+03 1.523131084442138672e+01 3.015090703964233398e+00 -8.356807827949523926e-01 3.487086296081542969e-02 -2.402429729700088501e-01 5.493059754371643066e-01
1.265000000000000000e+03 1.874003982543945312e+01 4.083811283111572266e+00 -9.123505353927612305e-01 -5.049536377191543579e-02 -2.888537645339965820e-01 4.347084164619445801e-01
1.266000000000000000e+03 1.861452674865722656e+01 3.307361602783203125e+00 -1.297701239585876465e+00 -1.381997317075729370e-01 -4.307703077793121338e-01 4.075253903865814209e-01
1.267000000000000000e+03 2.250147438049316406e+01 2.439953565597534180e+00 -1.481342673301696777e+00 -1.656047254800796509e-01 -4.940842390060424805e-01 3.820065855979919434e-01
1.268000000000000000e+03 2.099863243103027344e+01 3.674699068069458008e+00 -1.029584288597106934e+00 -1.859998255968093872e-01 -3.646752238273620605e-01 2.158558368682861328e-01
1.269000000000000000e+03 2.326958847045898438e+01 2.219841241836547852e+00 -1.494133949279785156e+00 -1.952076554298400879e-01 -5.068024992942810059e-01 4.441501796245574951e-01
1.270000000000000000e+03 2.403010559082031250e+01 2.010659456253051758e+00 -1.486731886863708496e+00 -2.025650441646575928e-01 -5.067890882492065430e-01 4.851104915142059326e-01
1.271000000000000000e+03 2.478681755065917969e+01 1.807043910026550293e+00 -1.473880648612976074e+00 -1.915028691291809082e-01 -4.996150732040405273e-01 5.110583305358886719e-01
1.272000000000000000e+03 2.866896820068359375e+01 1.391728878021240234e+00 -1.186481952667236328e+00 2.978483438491821289e-01 -2.665900886058807373e-01 2.524059116840362549e-01
1.273000000000000000e+03 3.096909713745117188e+01 1.618852734565734863e+00 -4.156456589698791504e-01 6.142838001251220703e-01 5.959144979715347290e-02 -4.733588546514511108e-02
1.274000000000000000e+03 3.077396965026855469e+01 4.792290031909942627e-01 -1.814415454864501953e+00 5.718209743499755859e-01 -3.727783560752868652e-01 1.909427046775817871e-01
1.275000000000000000e+03 3.373377227783203125e+01 1.799254775047302246e+00 3.223588228225708008e+00 9.440381526947021484e-01 1.250287890434265137e+00 -1.498222827911376953e+00
1.276000000000000000e+03 3.365924072265625000e+01 1.563343167304992676e+00 1.686489224433898926e+00 7.723761200904846191e-01 7.376596331596374512e-01 -8.262548446655273438e-01
1.277000000000000000e+03 3.423406600952148438e+01 1.709356427192687988e+00 4.180242538452148438e+00 4.826380610466003418e-01 1.398864150047302246e+00 -1.269093036651611328e+00
1.278000000000000000e+03 3.451511383056640625e+01 1.659414649009704590e+00 3.988884687423706055e+00 1.107611581683158875e-01 1.229893803596496582e+00 -6.614842414855957031e-01
1.279000000000000000e+03 3.423682785034179688e+01 1.542061090469360352e+00 2.710126399993896484e+00 4.500078260898590088e-01 9.480402469635009766e-01 -7.618754506111145020e-01
1.280000000000000000e+03 3.267291641235351562e+01 1.071012854576110840e+00 -7.658677101135253906e-01 3.962870240211486816e-01 -1.108742132782936096e-01 -3.065418638288974762e-02
1.281000000000000000e+03 3.009897041320800781e+01 1.164278745651245117e+00 -1.135722041130065918e+00 5.365712046623229980e-01 -1.797452718019485474e-01 1.407294869422912598e-01
1.282000000000000000e+03 2.720314598083496094e+01 1.778021454811096191e+00 -1.116951107978820801e+00 2.465479820966720581e-02 -3.276889026165008545e-01 3.870487213134765625e-01
1.283000000000000000e+03 2.855344200134277344e+01 8.014695048332214355e-01 -1.601882219314575195e+00 1.816699206829071045e-01 -4.260637164115905762e-01 3.300578594207763672e-01
1.284000000000000000e+03 2.937370300292968750e+01 7.359713554382324219e+00 5.494927614927291870e-02 1.773543834686279297e+00 5.485479235649108887e-01 -3.158054500818252563e-02
1.285000000000000000e+03 2.923558998107910156e+01 8.668765068054199219e+00 4.935540258884429932e-02 1.031923055648803711e+00 3.243835270404815674e-01 -2.252296730875968933e-02
1.286000000000000000e+03 2.985805511474609375e+01 9.319001197814941406e+00 4.641328006982803345e-02 6.192544102668762207e-01 1.997003108263015747e-01 1.719662398099899292e-01
1.287000000000000000e+03 3.145227432250976562e+01 1.172970199584960938e+01 -6.359356045722961426e-01 -1.236608847975730896e-01 -2.278789430856704712e-01 -2.715686857700347900e-01
1.288000000000000000e+03 3.595899581909179688e+01 1.179464626312255859e+01 2.093849420547485352e+00 1.158594369888305664e+00 9.757331609725952148e-01 -1.443636059761047363e+00
1.289000000000000000e+03 3.632796096801757812e+01 1.158743190765380859e+01 2.440663576126098633e+00 1.677092552185058594e+00 1.235326886177062988e+00 -1.901423096656799316e+00
1.290000000000000000e+03 3.786530303955078125e+01 1.018549633026123047e+01 2.840442657470703125e+00 5.182689189910888672e+00 2.406939506530761719e+00 -3.599779605865478516e+00
1.291000000000000000e+03 3.981082916259765625e+01 7.144495487213134766e+00 1.362019181251525879e+00 1.419997501373291016e+01 4.668598175048828125e+00 -1.393954038619995117e+00
1.292000000000000000e+03 3.928331375122070312e+01 6.365682125091552734e+00 1.005833074450492859e-01 1.538737010955810547e+01 4.646386146545410156e+00 -2.767314612865447998e-01
1.293000000000000000e+03 3.931795883178710938e+01 5.516796112060546875e+00 1.721746027469635010e-01 1.530148696899414062e+01 4.642098426818847656e+00 7.344708591699600220e-02
1.294000000000000000e+03 3.919920730590820312e+01 4.705621719360351562e+00 9.116114377975463867e-01 1.637806892395019531e+01 5.186903953552246094e+00 1.664763331413269043e+00
1.295000000000000000e+03 3.924185943603515625e+01 3.302522420883178711e+00 -3.400727510452270508e+00 1.197218608856201172e+01 2.571437597274780273e+00 9.933829307556152344e-01
1.296000000000000000e+03 3.793325042724609375e+01 3.071126937866210938e+00 -5.119866371154785156e+00 -4.240218639373779297e+00 -2.808025598526000977e+00 -4.857080936431884766e+00
1.297000000000000000e+03 3.771563720703125000e+01 2.877611160278320312e+00 -5.592898845672607422e+00 -4.706597805023193359e+00 -3.089848995208740234e+00 -4.933908939361572266e+00
1.298000000000000000e+03 3.786753845214843750e+01 2.928822278976440430e+00 -4.468205451965332031e+00 -3.700854063034057617e+00 -2.450717926025390625e+00 -4.053505897521972656e+00
1.299000000000000000e+03 3.820530700683593750e+01 3.070659875869750977e+00 -3.809803724288940430e+00 -1.815538406372070312e+00 -1.687602639198303223e+00 -2.668029546737670898e+00
1.300000000000000000e+03 3.902424621582031250e+01 3.322540760040283203e+00 -3.486618518829345703e+00 1.006292915344238281e+01 1.972893118858337402e+00 5.962724685668945312e-01
1.301000000000000000e+03 3.965327072143554688e+01 3.143765449523925781e+00 -2.161740303039550781e+00 1.352580356597900391e+01 3.409218788146972656e+00 1.903854966163635254e+00
1.302000000000000000e+03 3.982883834838867188e+01 3.454305410385131836e+00 -1.690614819526672363e+00 1.339138698577880859e+01 3.510231733322143555e+00 1.177007794380187988e+00
1.303000000000000000e+03 4.021462249755859375e+01 2.751247406005859375e+00 8.419649600982666016e-01 1.242570781707763672e+01 3.980301856994628906e+00 3.171694755554199219e+00
1.304000000000000000e+03 4.033186340332031250e+01 2.548148393630981445e+00 1.937559008598327637e+00 1.171403598785400391e+01 4.095478534698486328e+00 3.380186796188354492e+00
1.305000000000000000e+03 4.042725753784179688e+01 2.347182989120483398e+00 2.996822834014892578e+00 1.090317344665527344e+01 4.169999122619628906e+00 3.426142692565917969e+00
1.306000000000000000e+03 4.050191497802734375e+01 2.141844987869262695e+00 3.946394681930541992e+00 1.029599857330322266e+01 4.272717952728271484e+00 3.318182945251464844e+00
1.307000000000000000e+03 4.056891632080078125e+01 1.491933703422546387e+00 5.721077919006347656e+00 8.558425903320312500e+00 4.283851146697998047e+00 1.942879080772399902e+00
1.308000000000000000e+03 4.052786254882812500e+01 1.276458621025085449e+00 5.950416564941406250e+00 8.474688529968261719e+00 4.327531337738037109e+00 1.543426156044006348e+00
1.309000000000000000e+03 4.007323455810546875e+01 5.466229319572448730e-01 4.751946926116943359e+00 9.618577003479003906e+00 4.311157226562500000e+00 7.875948548316955566e-01
1.310000000000000000e+03 3.963801193237304688e+01 1.661554872989654541e-01 3.002662897109985352e+00 1.032911777496337891e+01 3.999534368515014648e+00 2.011981487274169922e+00
1.311000000000000000e+03 3.904376220703125000e+01 -1.024311706423759460e-01 1.847514986991882324e+00 1.017555713653564453e+01 3.606921672821044922e+00 4.151812553405761719e+00
1.312000000000000000e+03 3.824730300903320312e+01 -3.498977422714233398e-01 1.871012091636657715e+00 7.652740001678466797e+00 2.857125520706176758e+00 5.382639408111572266e+00
1.313000000000000000e+03 4.065808868408203125e+01 -3.524525403976440430e+00 -4.741942405700683594e+00 7.538627386093139648e-01 -1.196423888206481934e+00 4.305048286914825439e-01
1.314000000000000000e+03 3.676137161254882812e+01 -9.462707638740539551e-01 1.078552246093750000e+00 4.234113216400146484e+00 1.593799591064453125e+00 3.790524005889892578e+00
1.315000000000000000e+03 3.601934432983398438e+01 -1.227884054183959961e+00 6.121090054512023926e-01 3.371671676635742188e+00 1.195134162902832031e+00 2.794317960739135742e+00
1.316000000000000000e+03 3.656172943115234375e+01 -1.267366886138916016e+00 6.932743787765502930e-01 4.206844806671142578e+00 1.470035791397094727e+00 3.649554014205932617e+00
1.317000000000000000e+03 3.451612091064453125e+01 -1.960957646369934082e+00 1.207717955112457275e-01 2.132490634918212891e+00 6.759787201881408691e-01 1.194478631019592285e+00
1.318000000000000000e+03 3.476055145263671875e+01 -1.882522821426391602e+00 1.495283693075180054e-01 2.073590517044067383e+00 6.669356822967529297e-01 1.596184611320495605e+00
1.319000000000000000e+03 3.410989761352539062e+01 -1.986145734786987305e+00 -4.582682624459266663e-02 1.805868387222290039e+00 5.280124545097351074e-01 9.294493794441223145e-01
1.320000000000000000e+03 3.187572860717773438e+01 -3.084910869598388672e+00 1.691190712153911591e-02 3.859484791755676270e-01 1.208581179380416870e-01 3.881138935685157776e-02
1.321000000000000000e+03 3.100618934631347656e+01 -3.398634910583496094e+00 2.222090065479278564e-01 -5.847994685173034668e-01 -1.087771356105804443e-01 -1.700042337179183960e-01
1.322000000000000000e+03 3.013094520568847656e+01 -3.430928945541381836e+00 5.472585558891296387e-01 -1.209575533866882324e-01 1.278903037309646606e-01 -3.263175487518310547e-01
1.323000000000000000e+03 2.869728660583496094e+01 -3.057589054107666016e+00 4.121196568012237549e-01 7.832741141319274902e-01 3.586181402206420898e-01 -8.198136687278747559e-01
1.324000000000000000e+03 2.934394454956054688e+01 -3.198600769042968750e+00 4.729952812194824219e-01 -9.309117197990417480e-01 -1.373749226331710815e-01 -3.958756849169731140e-02
1.325000000000000000e+03 3.104192733764648438e+01 -6.658134937286376953e+00 7.371109724044799805e-01 1.306232571601867676e+00 6.130030751228332520e-01 1.245917201042175293e+00
1.326000000000000000e+03 2.606206130981445312e+01 -1.311214733123779297e+01 -2.802579104900360107e-01 9.166736602783203125e-01 1.909247189760208130e-01 5.327287316322326660e-01
1.327000000000000000e+03 1.750262641906738281e+01 -9.774643898010253906e+00 -3.241209685802459717e-02 2.560100853443145752e-01 6.707940250635147095e-02 -6.351082026958465576e-02
1.328000000000000000e+03 1.742106628417968750e+01 -4.166239261627197266e+00 -1.866361871361732483e-02 3.716825544834136963e-01 1.059056818485260010e-01 1.173534318804740906e-01
1.329000000000000000e+03 1.604653930664062500e+01 -1.718745946884155273e+00 -1.639473736286163330e-01 2.654368281364440918e-01 3.044683299958705902e-02 4.547204822301864624e-03
1.330000000000000000e+03 1.920858001708984375e+01 -1.618527531623840332e+00 -1.008709073066711426e-01 -1.996081620454788208e-01 -9.014371782541275024e-02 3.194172680377960205e-01
1.331000000000000000e+03 1.898833274841308594e+01 -4.472909867763519287e-01 -3.024554252624511719e-01 4.758103564381599426e-02 -7.646232098340988159e-02 -4.697873815894126892e-02
1.332000000000000000e+03 1.958864784240722656e+01 -6.191154122352600098e-01 -1.542470231652259827e-02 1.538877468556165695e-02 -1.077811975846998394e-05 2.035041004419326782e-01
1.333000000000000000e+03 1.815725517272949219e+01 -1.159437298774719238e+00 -3.353871107101440430e-01 3.286479273810982704e-03 -9.963019192218780518e-02 1.263537555932998657e-01
1.334000000000000000e+03 1.666383361816406250e+01 -5.880600214004516602e-01 -2.691300213336944580e-01 3.574503660202026367e-01 2.649610303342342377e-02 -2.006969004869461060e-01
1.335000000000000000e+03 1.366597175598144531e+01 -1.146847248077392578e+00 -2.567379772663116455e-01 1.373957246541976929e-01 -3.580268099904060364e-02 -1.055654659867286682e-01
1.336000000000000000e+03 1.589522743225097656e+01 -2.631741285324096680e+00 1.637355610728263855e-02 5.552353709936141968e-02 2.156912721693515778e-02 -1.414740681648254395e-01
1.337000000000000000e+03 1.437811183929443359e+01 -1.006188869476318359e+00 -2.347777485847473145e-01 -2.312423884868621826e-01 -1.398060321807861328e-01 -1.422505229711532593e-01
1.338000000000000000e+03 1.139914798736572266e+01 -1.612658858299255371e+00 -1.915416568517684937e-01 -1.653296947479248047e-01 -1.070614084601402283e-01 -1.192061975598335266e-01
1.339000000000000000e+03 1.061935615539550781e+01 -1.758080244064331055e+00 -1.693058758974075317e-01 4.846349731087684631e-02 -3.625271469354629517e-02 -1.154017969965934753e-01
1.340000000000000000e+03 5.504141235351562500e+01 -2.325997161865234375e+01 1.770198464393615723e+00 1.010091590881347656e+01 3.561334133148193359e+00 3.152802705764770508e+00
1.341000000000000000e+03 7.343020629882812500e+01 -1.798462867736816406e+01 6.896322369575500488e-01 6.965724945068359375e+00 2.296607255935668945e+00 -1.317384243011474609e+00
1.342000000000000000e+03 6.517258453369140625e+01 -2.312495040893554688e+01 3.458070516586303711e+00 1.240645408630371094e+01 4.759357452392578125e+00 -5.198249340057373047e+00
1.343000000000000000e+03 5.232661819458007812e+01 -7.665452957153320312e+00 2.597048997879028320e+00 8.187356948852539062e+00 3.235321760177612305e+00 -2.053326368331909180e+00
1.344000000000000000e+03 3.978011703491210938e+01 -1.257450580596923828e+01 -1.271183729171752930e+00 1.636612176895141602e+00 1.096285432577133179e-01 -2.340578138828277588e-01
1.345000000000000000e+03 3.686385726928710938e+01 -1.034092712402343750e+01 1.303953766822814941e+00 6.298982143402099609e+00 2.280880689620971680e+00 -6.686304211616516113e-01
1.346000000000000000e+03 6.428614807128906250e+01 -3.968567276000976562e+01 -1.799885988235473633e+00 1.747071146965026855e+00 -1.584445126354694366e-02 6.874640583992004395e-01
1.347000000000000000e+03 5.618425750732421875e+01 -3.190040016174316406e+01 1.323391914367675781e+00 1.158099555969238281e+01 3.871316432952880859e+00 2.133300065994262695e+00
1.348000000000000000e+03 1.684836769104003906e+01 -1.677854156494140625e+01 1.606071889400482178e-01 2.268264591693878174e-01 1.162300929427146912e-01 -2.605144381523132324e-01
1.349000000000000000e+03 1.433372116088867188e+01 -2.804144477844238281e+01 6.080703735351562500e-01 8.509427905082702637e-01 4.377039670944213867e-01 6.014028787612915039e-01
1.350000000000000000e+03 7.778777122497558594e+00 -1.385524559020996094e+01 -1.563915461301803589e-01 -1.656119674444198608e-01 -9.660105407238006592e-02 -1.484451293945312500e-01
1.351000000000000000e+03 5.491291427612304688e+01 1.442028713226318359e+01 1.309636354446411133e+00 6.969288825988769531e+00 2.483677625656127930e+00 -1.228102445602416992e+00
1.352000000000000000e+03 5.517017745971679688e+01 7.975828647613525391e+00 2.762571811676025391e+00 1.056834793090820312e+01 3.999275922775268555e+00 2.319703817367553711e+00
1.353000000000000000e+03 1.832754898071289062e+01 1.883198547363281250e+01 1.203372329473495483e-01 -5.348666012287139893e-02 2.005517110228538513e-02 1.080628857016563416e-01
1.354000000000000000e+03 1.954333305358886719e+01 3.794766664505004883e+00 -1.063828349113464355e+00 -1.187648698687553406e-01 -3.547779619693756104e-01 3.020699918270111084e-01
1.355000000000000000e+03 9.443993568420410156e+00 9.563819885253906250e+00 -6.028449535369873047e-01 -6.970323324203491211e-01 -3.899631798267364502e-01 5.202428102493286133e-01
1.356000000000000000e+03 1.007665252685546875e+01 1.558699512481689453e+01 5.482203960418701172e-01 8.180935382843017578e-01 4.098941981792449951e-01 6.165724992752075195e-01
1.357000000000000000e+03 3.896345901489257812e+01 -1.860970115661621094e+01 1.220951318740844727e+00 3.555728435516357422e+00 1.433003902435302734e+00 -1.705927491188049316e+00
1.358000000000000000e+03 3.963907623291015625e+01 -2.106433868408203125e+01 7.662167549133300781e-01 4.888188838958740234e+00 1.696321725845336914e+00 -5.974019765853881836e-01
1.359000000000000000e+03 3.498408508300781250e+01 -2.871375083923339844e+01 -3.317892074584960938e+00 -2.783133983612060547e-01 -1.078861594200134277e+00 -1.447939574718475342e-01
1.360000000000000000e+03 3.021958351135253906e+01 -1.729938888549804688e+01 1.376379013061523438e+00 4.554831504821777344e+00 1.779363155364990234e+00 2.277878761291503906e+00
1.361000000000000000e+03 2.428427886962890625e+01 -3.005718612670898438e+01 -6.291344016790390015e-02 2.319526433944702148e+00 6.769838929176330566e-01 -2.702171206474304199e-01
1.362000000000000000e+03 2.500525665283203125e+01 -3.631284332275390625e+01 1.475492119789123535e-01 3.291777610778808594e+00 1.031798005104064941e+00 2.295944988727569580e-01
1.363000000000000000e+03 1.268152904510498047e+01 -3.382397079467773438e+01 8.721782267093658447e-02 1.248722672462463379e+00 4.007821381092071533e-01 1.730739176273345947e-01
1.364000000000000000e+03 1.296221160888671875e+01 -3.240753936767578125e+01 1.961580067873001099e-01 1.446390748023986816e+00 4.927646517753601074e-01 3.699433803558349609e-01
1.365000000000000000e+03 1.602842903137207031e+01 -2.759739303588867188e+01 9.125255942344665527e-01 8.313388228416442871e-01 5.231593251228332520e-01 7.786366343498229980e-01
1.366000000000000000e+03 1.371548652648925781e+01 3.478905868530273438e+01 -1.242423616349697113e-02 -9.065843187272548676e-03 -6.447023712098598480e-03 5.348085612058639526e-02
1.367000000000000000e+03 1.515447711944580078e+01 3.432901000976562500e+01 -7.863616198301315308e-02 -6.736802868545055389e-03 -2.561189047992229462e-02 4.952863231301307678e-02
1.368000000000000000e+03 1.999969291687011719e+01 3.216032791137695312e+01 1.194939091801643372e-01 7.556269168853759766e-01 2.625362575054168701e-01 -1.861228197813034058e-01
1.369000000000000000e+03 2.297564315795898438e+01 2.547185897827148438e+01 2.565162181854248047e-01 1.538473963737487793e+00 5.384970307350158691e-01 5.658859014511108398e-01
1.370000000000000000e+03 1.436585235595703125e+01 2.187201309204101562e+01 5.832147002220153809e-01 2.390715181827545166e-01 2.466858625411987305e-01 5.608184337615966797e-01
1.371000000000000000e+03 1.300680160522460938e+01 2.273832321166992188e+01 3.261402845382690430e-01 8.094613999128341675e-02 1.221259310841560364e-01 2.000373005867004395e-01
1.372000000000000000e+03 6.592193126678466797e+00 2.553402328491210938e+01 -1.597970873117446899e-01 -4.623889625072479248e-01 -1.866558194160461426e-01 2.073803842067718506e-01
1.373000000000000000e+03 7.101553344726562500e+01 1.646086692810058594e+01 1.229120373725891113e+00 6.486075401306152344e+00 2.314558744430541992e+00 -2.652939319610595703e+00
1.374000000000000000e+03 7.292810058593750000e+01 1.153645038604736328e+01 1.732282519340515137e+00 1.176132297515869141e+01 4.048081874847412109e+00 7.999812364578247070e-01
1.375000000000000000e+03 6.428998565673828125e+01 6.481035232543945312e+00 -1.706572651863098145e+00 1.007293462753295898e+00 -2.097837477922439575e-01 -4.440984725952148438e-01
1.376000000000000000e+03 6.073698425292968750e+01 1.482013702392578125e+01 8.152208924293518066e-01 1.214804553985595703e+01 3.888979911804199219e+00 1.589912891387939453e+00
1.377000000000000000e+03 6.206005859375000000e+01 1.864433479309082031e+01 3.475441217422485352e+00 8.616353034973144531e+00 3.627538204193115234e+00 4.748578071594238281e+00
1.378000000000000000e+03 3.188335037231445312e+01 1.702490615844726562e+01 2.875184118747711182e-01 2.205873966217041016e+00 7.480177283287048340e-01 -1.334319859743118286e-01
1.379000000000000000e+03 2.821356773376464844e+01 1.523569774627685547e+01 7.239331305027008057e-02 4.858635738492012024e-02 3.629390150308609009e-02 6.489315629005432129e-02
1.380000000000000000e+03 2.247738265991210938e+01 1.885213851928710938e+01 4.894581139087677002e-01 1.935385704040527344e+00 7.274531126022338867e-01 -7.044868469238281250e-01
1.381000000000000000e+03 2.171000862121582031e+01 2.731823348999023438e+01 4.291975796222686768e-01 1.183072566986083984e+00 4.836810529232025146e-01 4.903623461723327637e-01
1.382000000000000000e+03 4.842984390258789062e+01 2.961869430541992188e+01 1.379486680030822754e+00 7.028778553009033203e+00 2.522479534149169922e+00 6.373997330665588379e-01
1.383000000000000000e+03 4.602518463134765625e+01 2.612108612060546875e+01 1.303215503692626953e+00 1.195959568023681641e+01 3.978843450546264648e+00 1.778130173683166504e+00
1.384000000000000000e+03 4.331349182128906250e+01 2.225052452087402344e+01 -1.646713137626647949e+00 2.406084775924682617e+00 2.278115004301071167e-01 1.243031740188598633e+00
1.385000000000000000e+03 3.579290390014648438e+01 2.533736801147460938e+01 2.691024303436279297e+00 8.212627410888671875e+00 3.271095514297485352e+00 -3.466412544250488281e+00
1.386000000000000000e+03 6.496039581298828125e+01 2.768934631347656250e+01 1.721658945083618164e+00 6.076836109161376953e+00 2.339548587799072266e+00 1.796528935432434082e+00
1.387000000000000000e+03 5.976534652709960938e+01 2.353612136840820312e+01 -3.607130765914916992e+00 6.415498256683349609e-01 -8.896742463111877441e-01 2.307219058275222778e-01
1.388000000000000000e+03 5.486661911010742188e+01 3.410176467895507812e+01 1.095344424247741699e+00 5.005411148071289062e+00 1.830226659774780273e+00 2.175018548965454102e+00
1.389000000000000000e+03 7.937531280517578125e+01 -9.779862403869628906e+00 1.325723528861999512e-01 9.006537437438964844e+00 2.741732835769653320e+00 -5.573610067367553711e-01
1.390000000000000000e+03 6.538854217529296875e+01 -8.311616897583007812e+00 1.972823023796081543e+00 1.126288127899169922e+01 3.970711469650268555e+00 -2.478546142578125000e+00
1.391000000000000000e+03 6.392953491210937500e+01 -5.644309997558593750e+00 1.772638082504272461e+00 9.646393775939941406e+00 3.425709486007690430e+00 -6.879503726959228516e-01
1.392000000000000000e+03 4.711324310302734375e+01 -3.693663024902343750e+01 -6.540134549140930176e-01 1.308858633041381836e+00 1.964535713195800781e-01 2.859108448028564453e-01
1.393000000000000000e+03 4.092700576782226562e+01 -2.884818458557128906e+01 -3.179807960987091064e-01 3.575323581695556641e+00 9.772028326988220215e-01 1.433636665344238281e+00
1.394000000000000000e+03 6.043984222412109375e+01 -2.127460956573486328e+00 2.685386657714843750e+00 9.080407142639160156e+00 3.529738187789916992e+00 -4.110295772552490234e+00
1.395000000000000000e+03 5.457545852661132812e+01 -8.887559890747070312e+00 2.658671855926513672e+00 3.101720094680786133e+00 1.728117585182189941e+00 -3.012140750885009766e+00
1.396000000000000000e+03 5.245641326904296875e+01 -4.931142807006835938e+00 7.554787993431091309e-01 1.247759532928466797e+01 3.969922065734863281e+00 -7.354876399040222168e-02
1.397000000000000000e+03 3.291672897338867188e+01 1.417603969573974609e+00 2.271006703376770020e-01 5.430956482887268066e-01 2.310588955879211426e-01 -2.573207616806030273e-01
1.398000000000000000e+03 3.334828948974609375e+01 1.996968150138854980e+00 2.623189926147460938e+00 1.230981349945068359e+00 1.156251430511474609e+00 -1.598104834556579590e+00
1.399000000000000000e+03 3.387409973144531250e+01 1.444338321685791016e+00 1.463971495628356934e+00 8.786164522171020508e-01 7.027764320373535156e-01 -8.543912172317504883e-01
1.400000000000000000e+03 3.334257507324218750e+01 1.268646597862243652e+00 1.758059710264205933e-01 7.775155305862426758e-01 2.859964370727539062e-01 -3.569755554199218750e-01
1.401000000000000000e+03 3.438852310180664062e+01 1.602197289466857910e+00 2.947328805923461914e+00 4.267513155937194824e-01 1.012223958969116211e+00 -8.587390184402465820e-01
1.402000000000000000e+03 3.405619812011718750e+01 1.503239989280700684e+00 2.234367132186889648e+00 7.245623469352722168e-01 8.876788616180419922e-01 -9.845447540283203125e-01
1.403000000000000000e+03 3.301441955566406250e+01 2.270276784896850586e+00 2.128546953201293945e+00 1.380986332893371582e+00 1.052860021591186523e+00 -1.612593412399291992e+00
1.404000000000000000e+03 3.839162826538085938e+01 3.180824041366577148e+00 -3.376333475112915039e+00 1.318531990051269531e+00 -6.173404455184936523e-01 -1.578364610671997070e+00
1.405000000000000000e+03 4.004182815551757812e+01 2.912668466567993164e+00 -3.059269189834594727e-01 1.308906078338623047e+01 3.834940195083618164e+00 2.820009231567382812e+00
1.406000000000000000e+03 3.887929916381835938e+01 3.960391283035278320e+00 4.414985701441764832e-02 7.782638549804687500e+00 2.348036527633666992e+00 1.805512905120849609e+00
1.407000000000000000e+03 4.024856948852539062e+01 6.874368190765380859e-01 5.174882888793945312e+00 8.859333992004394531e+00 4.210265159606933594e+00 7.541981935501098633e-01
1.408000000000000000e+03 4.242992019653320312e+01 -3.585671424865722656e+00 -4.841632366180419922e+00 6.302551180124282837e-02 -1.433582067489624023e+00 1.790195852518081665e-01
1.409000000000000000e+03 3.859865188598632812e+01 3.270215749740600586e+00 -3.596471786499023438e+00 4.548347949981689453e+00 2.855628132820129395e-01 -4.187180995941162109e-01
1.410000000000000000e+03 4.036727523803710938e+01 8.706765770912170410e-01 5.655489921569824219e+00 8.663021087646484375e+00 4.295553207397460938e+00 8.514635562896728516e-01
1.411000000000000000e+03 4.055745697021484375e+01 1.718583583831787109e+00 5.407083511352539062e+00 9.083910942077636719e+00 4.347298622131347656e+00 2.584907770156860352e+00
1.412000000000000000e+03 3.945435714721679688e+01 3.239278793334960938e+00 -2.809886932373046875e+00 1.314598846435546875e+01 3.100830554962158203e+00 1.477305412292480469e+00
1.413000000000000000e+03 3.944664001464843750e+01 5.627598613500595093e-02 2.444099426269531250e+00 1.085943984985351562e+01 3.991061925888061523e+00 2.883404016494750977e+00
1.414000000000000000e+03 3.880988693237304688e+01 3.312757730484008789e+00 -3.889454841613769531e+00 7.477786064147949219e+00 1.076499342918395996e+00 8.522501587867736816e-02
1.415000000000000000e+03 4.461673355102539062e+01 6.349645614624023438e+00 6.250516176223754883e-01 6.123169898986816406e+00 2.024466514587402344e+00 -1.115434050559997559e+00
1.416000000000000000e+03 3.907831192016601562e+01 4.298250675201416016e+00 8.257837295532226562e-01 1.334380054473876953e+01 4.250875473022460938e+00 2.430029869079589844e+00
1.417000000000000000e+03 3.865865707397460938e+01 -2.673447132110595703e-01 1.782598257064819336e+00 9.116142272949218750e+00 3.269622087478637695e+00 4.961761951446533203e+00
1.418000000000000000e+03 3.772325897216796875e+01 -8.890451192855834961e-01 1.037567377090454102e+00 6.258250713348388672e+00 2.188745498657226562e+00 4.934806823730468750e+00
1.419000000000000000e+03 3.844895935058593750e+01 -3.129352033138275146e-01 1.962026476860046387e+00 8.213656425476074219e+00 3.052705049514770508e+00 5.184516906738281250e+00
1.420000000000000000e+03 3.639088439941406250e+01 -1.081001758575439453e+00 8.410631418228149414e-01 3.802368640899658203e+00 1.393029570579528809e+00 3.297158002853393555e+00
1.421000000000000000e+03 3.511154174804687500e+01 -1.613975048065185547e+00 2.573689818382263184e-01 2.276972055435180664e+00 7.603023052215576172e-01 1.903637886047363281e+00
1.422000000000000000e+03 3.921298599243164062e+01 -4.205425381660461426e-01 1.198452711105346680e+00 9.766893386840820312e+00 3.289603948593139648e+00 3.634607791900634766e+00
1.423000000000000000e+03 3.770628738403320312e+01 -5.459864735603332520e-01 1.815367460250854492e+00 5.940145492553710938e+00 2.326653718948364258e+00 5.080704212188720703e+00
1.424000000000000000e+03 3.919918441772460938e+01 -4.368282318115234375e+00 8.902607560157775879e-01 3.431045532226562500e+00 1.296391963958740234e+00 2.594351291656494141e+00
1.425000000000000000e+03 3.885383987426757812e+01 -1.924009472131729126e-01 1.836534738540649414e+00 9.689732551574707031e+00 3.457880258560180664e+00 4.730146408081054688e+00
1.426000000000000000e+03 3.787952804565429688e+01 -4.662035405635833740e-01 1.916422247886657715e+00 6.492468833923339844e+00 2.522667169570922852e+00 5.231630325317382812e+00
1.427000000000000000e+03 3.736057281494140625e+01 -7.432780861854553223e-01 1.531263351440429688e+00 5.165124416351318359e+00 2.008916378021240234e+00 4.648365020751953125e+00
1.428000000000000000e+03 3.716857910156250000e+01 -8.485131859779357910e-01 1.244331955909729004e+00 4.959547042846679688e+00 1.861163616180419922e+00 4.328248500823974609e+00
1.429000000000000000e+03 3.657400131225585938e+01 -1.008964657783508301e+00 1.006951689720153809e+00 3.824706792831420898e+00 1.449497461318969727e+00 3.633958101272583008e+00
1.430000000000000000e+03 3.583335113525390625e+01 -1.295449972152709961e+00 4.870318472385406494e-01 3.003171443939208984e+00 1.047060966491699219e+00 2.665981054306030273e+00
1.431000000000000000e+03 3.546025848388671875e+01 -1.883907079696655273e+00 1.751334369182586670e-01 3.126072645187377930e+00 9.903618693351745605e-01 2.238476991653442383e+00
1.432000000000000000e+03 3.495104598999023438e+01 -1.740962862968444824e+00 2.409981787204742432e-01 2.315754175186157227e+00 7.670256495475769043e-01 1.622306466102600098e+00
1.433000000000000000e+03 3.342741394042968750e+01 -2.329586267471313477e+00 -3.708286210894584656e-02 1.258360147476196289e+00 3.663831949234008789e-01 5.034393668174743652e-01
1.434000000000000000e+03 3.358255767822265625e+01 -2.829426050186157227e+00 2.063847780227661133e-01 1.479190349578857422e+00 5.056725740432739258e-01 8.643465042114257812e-01
1.435000000000000000e+03 3.273725128173828125e+01 -4.571600914001464844e+00 8.766152858734130859e-01 1.405942797660827637e+00 6.847674250602722168e-01 6.515834331512451172e-01
1.436000000000000000e+03 3.180797576904296875e+01 1.202039051055908203e+01 -1.067375898361206055e+00 -1.921011209487915039e-01 -3.778430819511413574e-01 -2.148297876119613647e-01
1.437000000000000000e+03 3.011473655700683594e+01 4.999024391174316406e+00 1.447669744491577148e+00 1.897295713424682617e+00 1.003489613533020020e+00 -1.540594577789306641e+00
1.438000000000000000e+03 3.116913223266601562e+01 1.141830635070800781e+01 -3.613539934158325195e-01 -8.340494334697723389e-02 -1.334276795387268066e-01 -1.598018407821655273e-01
1.439000000000000000e+03 2.929385948181152344e+01 6.467355251312255859e+00 3.955372869968414307e-01 2.663703918457031250e+00 9.177723526954650879e-01 -6.055462956428527832e-01
1.440000000000000000e+03 2.984815597534179688e+01 5.313502311706542969e+00 1.381956458091735840e+00 2.366237640380859375e+00 1.124458193778991699e+00 -1.607828497886657715e+00
1.441000000000000000e+03 2.944711685180664062e+01 7.764400959014892578e+00 4.489557817578315735e-02 1.513952851295471191e+00 4.676545560359954834e-01 5.336114019155502319e-02
1.442000000000000000e+03 2.928634262084960938e+01 6.923281192779541016e+00 2.369809895753860474e-01 2.215177059173583984e+00 7.356473803520202637e-01 -2.749339938163757324e-01
1.443000000000000000e+03 3.273418807983398438e+01 2.554604530334472656e+00 1.783574461936950684e+00 1.487520575523376465e+00 9.813284873962402344e-01 -1.582290768623352051e+00
1.444000000000000000e+03 3.214228057861328125e+01 1.807746767997741699e+00 4.813088178634643555e-01 6.055454611778259277e-01 3.260563015937805176e-01 -3.716460168361663818e-01
1.445000000000000000e+03 3.039135360717773438e+01 1.047090148925781250e+01 -3.057195246219635010e-02 2.241869121789932251e-01 5.808448791503906250e-02 2.570084296166896820e-02
1.446000000000000000e+03 3.097200202941894531e+01 4.129376888275146484e+00 1.286381721496582031e+00 1.345586180686950684e+00 7.895903587341308594e-01 -1.308868646621704102e+00
1.447000000000000000e+03 3.064264869689941406e+01 1.079915714263916016e+01 -9.314494580030441284e-02 1.129006743431091309e-01 5.926718935370445251e-03 -1.447175629436969757e-02
1.448000000000000000e+03 3.015161705017089844e+01 1.011803340911865234e+01 -9.441002272069454193e-03 3.403443098068237305e-01 9.927099198102951050e-02 7.283430546522140503e-02
1.449000000000000000e+03 3.157743263244628906e+01 3.520050525665283203e+00 1.279991626739501953e+00 1.311562657356262207e+00 7.774662971496582031e-01 -1.281555771827697754e+00
1.450000000000000000e+03 3.152251434326171875e+01 2.650463819503784180e+00 8.890981078147888184e-01 9.023998975753784180e-01 5.374494194984436035e-01 -8.061000704765319824e-01
1.451000000000000000e+03 2.930088424682617188e+01 6.245764493942260742e-01 -1.676175832748413086e+00 3.549332022666931152e-01 -3.963727951049804688e-01 2.442891448736190796e-01
1.452000000000000000e+03 3.068237686157226562e+01 4.415744304656982422e+00 1.328261494636535645e+00 1.424961686134338379e+00 8.259669542312622070e-01 -1.357528209686279297e+00
1.453000000000000000e+03 3.151344490051269531e+01 6.573541164398193359e-01 -1.618119478225708008e+00 5.053132176399230957e-01 -3.338418900966644287e-01 1.424608230590820312e-01
1.454000000000000000e+03 2.780241012573242188e+01 9.932910203933715820e-01 -1.556126117706298828e+00 4.214930534362792969e-02 -4.541930258274078369e-01 4.260886609554290771e-01
1.455000000000000000e+03 3.190019416809082031e+01 3.283384561538696289e+00 1.329956650733947754e+00 1.321285367012023926e+00 7.953726053237915039e-01 -1.310432553291320801e+00
1.456000000000000000e+03 3.089339637756347656e+01 3.439631223678588867e+00 9.446421265602111816e-01 1.107228994369506836e+00 6.155613064765930176e-01 -1.005594491958618164e+00
1.457000000000000000e+03 2.889447975158691406e+01 7.488269329071044922e+00 1.400382965803146362e-01 1.629159808158874512e+00 5.307593941688537598e-01 -3.362185955047607422e-01
1.458000000000000000e+03 3.390071487426757812e+01 1.200682544708251953e+01 -6.564669013023376465e-01 -1.522612059488892555e-03 -1.973968595266342163e-01 -1.927520334720611572e-01
1.459000000000000000e+03 3.984107589721679688e+01 3.030020952224731445e+00 -1.417907953262329102e+00 1.361301898956298828e+01 3.658533334732055664e+00 2.382234573364257812e+00
1.460000000000000000e+03 3.654596328735351562e+01 1.201449394226074219e+01 1.846702694892883301e+00 2.432528734207153320e+00 1.283769488334655762e+00 -1.945527672767639160e+00
1.461000000000000000e+03 3.274745178222656250e+01 1.211274814605712891e+01 -1.181340217590332031e+00 -1.912331767380237579e-02 -3.601390719413757324e-01 3.693553851917386055e-03
1.462000000000000000e+03 3.926632308959960938e+01 7.570733070373535156e+00 1.303735136985778809e+00 1.661119651794433594e+01 5.374479293823242188e+00 -2.218232870101928711e+00
1.463000000000000000e+03 3.905398941040039062e+01 8.224239349365234375e+00 1.756056189537048340e+00 1.546616744995117188e+01 5.166666984558105469e+00 -3.854659795761108398e+00
1.464000000000000000e+03 3.848880386352539062e+01 1.012093544006347656e+01 2.050636053085327148e+00 7.562391281127929688e+00 2.883908271789550781e+00 -3.113730907440185547e+00
1.465000000000000000e+03 3.926814270019531250e+01 7.172431468963623047e+00 5.212008953094482422e-01 1.661105537414550781e+01 5.139677047729492188e+00 -1.247162222862243652e+00
1.466000000000000000e+03 3.986514663696289062e+01 7.540420532226562500e+00 1.800673842430114746e+00 1.318790149688720703e+01 4.496572494506835938e+00 -1.308696985244750977e+00
1.467000000000000000e+03 3.428391265869140625e+01 1.210886764526367188e+01 -3.879084587097167969e-01 3.700497373938560486e-02 -1.052710413932800293e-01 -2.748903334140777588e-01
1.468000000000000000e+03 3.667341995239257812e+01 1.134759235382080078e+01 2.584375858306884766e+00 2.293994188308715820e+00 1.463510990142822266e+00 -2.240294933319091797e+00
1.469000000000000000e+03 3.927044296264648438e+01 6.771608829498291016e+00 3.779205977916717529e-01 1.612259483337402344e+01 4.950154781341552734e+00 -6.388937234878540039e-01
1.470000000000000000e+03 3.759128952026367188e+01 1.049988651275634766e+01 2.724358081817626953e+00 4.181488037109375000e+00 2.071753740310668945e+00 -3.212788820266723633e+00
1.471000000000000000e+03 3.812343597412109375e+01 9.855930328369140625e+00 2.889895677566528320e+00 6.482172012329101562e+00 2.811620235443115234e+00 -4.047712802886962891e+00
1.472000000000000000e+03 3.355090713500976562e+01 1.197923946380615234e+01 -8.271239995956420898e-01 8.161883056163787842e-02 -2.236515432596206665e-01 -8.220729976892471313e-02
1.473000000000000000e+03 3.730229949951171875e+01 1.079907703399658203e+01 2.655414104461669922e+00 3.444453239440917969e+00 1.829960107803344727e+00 -2.851798772811889648e+00
1.474000000000000000e+03 3.699727630615234375e+01 1.108270740509033203e+01 2.596390247344970703e+00 2.827471017837524414e+00 1.627158284187316895e+00 -2.569910526275634766e+00
1.475000000000000000e+03 3.932728958129882812e+01 5.941239356994628906e+00 1.526173204183578491e-01 1.499925518035888672e+01 4.545561790466308594e+00 -1.044192537665367126e-01
1.476000000000000000e+03 3.983824157714843750e+01 5.302690982818603516e+00 8.622383475303649902e-01 1.391300868988037109e+01 4.432574272155761719e+00 3.422757685184478760e-01
1.477000000000000000e+03 3.980694961547851562e+01 6.366954326629638672e+00 5.797885656356811523e-01 1.440917396545410156e+01 4.496688842773437500e+00 -6.894139051437377930e-01
1.478000000000000000e+03 1.306945133209228516e+01 2.664612293243408203e+00 -3.993296325206756592e-01 -3.142668306827545166e-02 -1.292268931865692139e-01 3.452644944190979004e-01
1.479000000000000000e+03 1.230627727508544922e+01 3.257660865783691406e+00 -3.637933731079101562e-01 -1.149395629763603210e-01 -1.436198800802230835e-01 2.841872274875640869e-01
1.480000000000000000e+03 1.085635280609130859e+01 3.108983516693115234e+00 -2.374569922685623169e-01 -1.165871992707252502e-01 -1.062132567167282104e-01 1.425386965274810791e-01
1.481000000000000000e+03 1.103060817718505859e+01 5.039506435394287109e+00 -5.036629438400268555e-01 -2.934207320213317871e-01 -2.391251027584075928e-01 2.598004937171936035e-01
1.482000000000000000e+03 1.012170791625976562e+01 2.982525587081909180e+00 -1.868569105863571167e-01 -1.074829399585723877e-01 -8.830195665359497070e-02 1.073903664946556091e-01
1.483000000000000000e+03 1.510912799835205078e+01 -8.864436745643615723e-01 -3.088339269161224365e-01 2.429395467042922974e-01 -1.976832002401351929e-02 -1.284183561801910400e-01
1.484000000000000000e+03 1.293254947662353516e+01 -1.300159811973571777e+00 -2.347094565629959106e-01 -1.887239962816238403e-01 -1.270300447940826416e-01 -1.408959180116653442e-01
1.485000000000000000e+03 1.487604141235351562e+01 -2.983179092407226562e+00 -1.113350782543420792e-02 1.462007015943527222e-01 4.052015766501426697e-02 -5.443711206316947937e-02
1.486000000000000000e+03 1.681299591064453125e+01 -2.839293003082275391e+00 -3.295495361089706421e-02 1.809032112360000610e-01 4.438447579741477966e-02 6.870423257350921631e-02
1.487000000000000000e+03 4.639313220977783203e+00 -2.763562679290771484e+00 -2.500373683869838715e-02 -4.897782579064369202e-02 -2.219446748495101929e-02 -4.445672780275344849e-02
1.488000000000000000e+03 6.945012569427490234e+00 -2.763822317123413086e+00 -5.719378218054771423e-02 5.457457620650529861e-03 -1.552089769393205643e-02 -7.227020710706710815e-02
1.489000000000000000e+03 5.421220779418945312e+00 -1.933195471763610840e+00 -4.521055892109870911e-02 -4.298981651663780212e-02 -2.646011300384998322e-02 -4.437620937824249268e-02
1.490000000000000000e+03 9.373322486877441406e+00 -3.323278188705444336e+00 -6.665109843015670776e-02 2.000228688120841980e-02 -1.399464346468448639e-02 -9.400271624326705933e-02
1.491000000000000000e+03 9.221940994262695312e+00 -2.604718446731567383e+00 -9.650281071662902832e-02 -1.260974109172821045e-01 -6.678006798028945923e-02 -1.269189715385437012e-01
1.492000000000000000e+03 8.471904754638671875e+00 -2.672808408737182617e+00 -7.860606163740158081e-02 1.729300245642662048e-02 -1.839391700923442841e-02 -8.993163704872131348e-02
1.493000000000000000e+03 6.162920475006103516e+00 -1.931781530380249023e+00 -5.878056958317756653e-02 1.760742068290710449e-02 -1.235194504261016846e-02 -4.740187525749206543e-02
1.494000000000000000e+03 7.715754985809326172e+00 -2.727866411209106445e+00 -8.030176162719726562e-02 -8.334562927484512329e-02 -4.909421876072883606e-02 -1.014179289340972900e-01
1.495000000000000000e+03 2.995247602462768555e+00 -4.594666004180908203e+00 -6.441468838602304459e-03 -3.187241405248641968e-02 -1.149416528642177582e-02 -2.781511098146438599e-02
1.496000000000000000e+03 3.910250663757324219e-01 -2.184428930282592773e+00 -7.040378171950578690e-03 6.103218765929341316e-04 -1.929016900248825550e-03 -1.541068428196012974e-03
1.497000000000000000e+03 4.766766130924224854e-01 -3.556730270385742188e+00 5.372128449380397797e-03 -1.133951451629400253e-02 -1.790215843357145786e-03 -3.385637653991580009e-03
1.498000000000000000e+03 5.566391348838806152e-01 -4.952922344207763672e+00 -5.224674008786678314e-03 -1.973284035921096802e-02 -7.487254217267036438e-03 -4.570350050926208496e-03
1.499000000000000000e+03 1.897843360900878906e+01 -1.023442983627319336e+00 1.516310572624206543e-01 2.097637951374053955e-01 1.084184572100639343e-01 8.376004546880722046e-02
1.500000000000000000e+03 1.604583549499511719e+01 3.141283035278320312e+00 -1.007886886596679688e+00 7.493966072797775269e-02 -2.798841595649719238e-01 5.729904174804687500e-01
1.501000000000000000e+03 1.264130210876464844e+01 4.749298572540283203e+00 -5.517237782478332520e-01 -3.577161133289337158e-01 -2.728319764137268066e-01 4.473529458045959473e-01
1.502000000000000000e+03 1.301062488555908203e+01 3.561497926712036133e+00 -4.807243943214416504e-01 -1.746609956026077271e-01 -1.966156214475631714e-01 4.758350849151611328e-01
1.503000000000000000e+03 1.510672092437744141e+01 3.713064908981323242e+00 -7.463396787643432617e-01 -6.560727953910827637e-03 -2.258701175451278687e-01 6.669774055480957031e-01
1.504000000000000000e+03 2.704953384399414062e+01 1.194369792938232422e+00 -1.529960274696350098e+00 -6.035057827830314636e-02 -4.770932495594024658e-01 4.887345135211944580e-01
1.505000000000000000e+03 2.094438362121582031e+01 2.864005327224731445e+00 -1.516320109367370605e+00 -1.626184433698654175e-01 -5.036815404891967773e-01 2.978971302509307861e-01
1.506000000000000000e+03 2.554117584228515625e+01 1.604105710983276367e+00 -1.488587856292724609e+00 -1.760429143905639648e-01 -4.993892312049865723e-01 5.238479971885681152e-01
1.507000000000000000e+03 3.003794097900390625e+01 4.720186889171600342e-01 -1.798811435699462891e+00 4.968543350696563721e-01 -3.905871510505676270e-01 2.116475850343704224e-01
1.508000000000000000e+03 2.497220993041992188e+01 2.434898853302001953e+00 -1.101637601852416992e+00 -1.802621632814407349e-01 -3.845699429512023926e-01 4.046945869922637939e-01
1.509000000000000000e+03 3.027371788024902344e+01 4.045634746551513672e+00 9.398824572563171387e-01 1.343465805053710938e+00 6.850044727325439453e-01 -1.057639956474304199e+00
1.510000000000000000e+03 2.021402359008789062e+01 3.669733524322509766e+00 -1.091247558593750000e+00 -1.237543001770973206e-01 -3.645005524158477783e-01 2.733000516891479492e-01
1.511000000000000000e+03 1.942161941528320312e+01 3.183774948120117188e+00 -1.338726758956909180e+00 -1.641163527965545654e-01 -4.508529603481292725e-01 3.599010109901428223e-01
1.512000000000000000e+03 2.268341255187988281e+01 3.112201452255249023e+00 -1.116341710090637207e+00 -1.928089857101440430e-01 -3.927451968193054199e-01 3.012864887714385986e-01
1.513000000000000000e+03 2.421967697143554688e+01 2.644519805908203125e+00 -1.114225387573242188e+00 -1.930736303329467773e-01 -3.921897113323211670e-01 3.758303523063659668e-01
1.514000000000000000e+03 2.945572090148925781e+01 1.841289281845092773e+00 -7.168524265289306641e-01 5.033231973648071289e-01 -6.405878067016601562e-02 8.499982953071594238e-02
1.515000000000000000e+03 2.591103172302246094e+01 2.844380140304565430e+00 -7.208275794982910156e-01 -9.411462396383285522e-02 -2.444826513528823853e-01 3.021900355815887451e-01
1.516000000000000000e+03 2.571820259094238281e+01 2.222131729125976562e+00 -1.089560985565185547e+00 -1.423223167657852173e-01 -3.695649802684783936e-01 4.233321249485015869e-01
1.517000000000000000e+03 1.755335807800292969e+01 5.055426120758056641e+00 -5.849348902702331543e-01 1.929868757724761963e-01 -1.175843998789787292e-01 5.706131458282470703e-01
1.518000000000000000e+03 1.449026584625244141e+01 -1.751999616622924805e+00 -1.920807808637619019e-01 1.800103038549423218e-01 -3.621146082878112793e-03 -4.913414269685745239e-02
1.519000000000000000e+03 1.077539730072021484e+01 -2.450820684432983398e+00 -1.144936606287956238e-01 -1.515793800354003906e-01 -7.982191443443298340e-02 -1.320083290338516235e-01
1.520000000000000000e+03 1.308415317535400391e+01 -2.037265539169311523e+00 -1.448538303375244141e-01 8.400458842515945435e-02 -1.825477182865142822e-02 -1.080226600170135498e-01
1.521000000000000000e+03 1.593528270721435547e+01 -5.264085292816162109e+00 -2.544388361275196075e-02 2.000932395458221436e-01 5.239480361342430115e-02 4.923614114522933960e-02
1.522000000000000000e+03 9.377760887145996094e+00 2.867805004119873047e+00 -1.315881162881851196e-01 -9.072506427764892578e-02 -6.669395416975021362e-02 4.599257558584213257e-02
1.523000000000000000e+03 6.166915893554687500e+00 1.933884739875793457e+00 3.720681741833686829e-02 -9.437696076929569244e-03 8.330737240612506866e-03 -4.126980900764465332e-02
1.524000000000000000e+03 1.554769515991210938e+00 7.612683296203613281e+00 -3.629545867443084717e-02 -2.464144490659236908e-02 -1.828107051551342010e-02 8.778250217437744141e-02
1.525000000000000000e+03 3.065882444381713867e+00 4.557817935943603516e+00 -6.705711036920547485e-02 4.557638894766569138e-03 -1.874984242022037506e-02 -1.099680829793214798e-02
1.526000000000000000e+03 5.869315147399902344e+00 4.510038852691650391e+00 -1.805992573499679565e-01 -4.288436844944953918e-02 -6.704508513212203979e-02 1.359203644096851349e-02
1.527000000000000000e+03 2.879348993301391602e+00 2.100562810897827148e+00 1.924051530659198761e-02 9.156133048236370087e-03 8.518994785845279694e-03 -5.411029234528541565e-02
1.528000000000000000e+03 1.247229933738708496e+00 3.512864589691162109e+00 -7.550208363682031631e-03 5.440986156463623047e-02 1.405789609998464584e-02 -3.422452136874198914e-02
1.529000000000000000e+03 8.612578392028808594e+00 2.790678262710571289e+00 -1.014185100793838501e-01 -5.882044881582260132e-02 -4.807168617844581604e-02 2.411171980202198029e-02
1.530000000000000000e+03 7.020335197448730469e+00 2.727296113967895508e+00 -5.825091525912284851e-02 -2.738278545439243317e-02 -2.569011040031909943e-02 -1.993162930011749268e-02
1.531000000000000000e+03 5.415417671203613281e+00 2.894871473312377930e+00 -4.346994310617446899e-02 -1.373762451112270355e-02 -1.716227084398269653e-02 -3.995586931705474854e-02
1.532000000000000000e+03 6.220462799072265625e+00 2.785142421722412109e+00 -4.863205552101135254e-02 -2.418056502938270569e-02 -2.184378728270530701e-02 -3.459225594997406006e-02
1.533000000000000000e+03 3.221490478515625000e+01 8.811842799186706543e-01 -1.235252022743225098e+00 4.768322706222534180e-01 -2.275259345769882202e-01 1.424907147884368896e-02
1.534000000000000000e+03 3.244998931884765625e+01 2.813696622848510742e+00 1.607701182365417480e+00 1.473027825355529785e+00 9.242187142372131348e-01 -1.536972045898437500e+00
1.535000000000000000e+03 3.079433059692382812e+01 1.100855588912963867e+00 -1.055595993995666504e+00 5.816722512245178223e-01 -1.421771347522735596e-01 1.305221766233444214e-01
1.536000000000000000e+03 1.683622741699218750e+01 3.993653059005737305e+00 -9.269243478775024414e-01 1.370224654674530029e-01 -2.369705736637115479e-01 6.659477949142456055e-01
1.537000000000000000e+03 1.590407085418701172e+01 4.572811603546142578e+00 -7.636314034461975098e-01 7.172797620296478271e-02 -2.075710296630859375e-01 7.980185747146606445e-01
1.538000000000000000e+03 1.703069686889648438e+01 5.941399097442626953e+00 -1.862416714429855347e-01 3.536019623279571533e-01 5.020808055996894836e-02 5.833869576454162598e-01
1.539000000000000000e+03 1.514510631561279297e+01 6.562966823577880859e+00 -4.196792244911193848e-01 4.572349414229393005e-02 -1.121867224574089050e-01 4.016655683517456055e-01
1.540000000000000000e+03 3.268562698364257812e+01 -2.697626829147338867e+00 -7.243607938289642334e-02 4.562529325485229492e-01 1.151450574398040771e-01 3.426787257194519043e-01
1.541000000000000000e+03 3.674468231201171875e+01 -6.817949295043945312e+00 2.467384576797485352e+00 1.026968669891357422e+01 3.821121454238891602e+00 2.612614631652832031e+00
1.542000000000000000e+03 3.295501327514648438e+01 -3.320663928985595703e+00 4.327846169471740723e-01 1.236216425895690918e+00 5.007002949714660645e-01 5.454912185668945312e-01
1.543000000000000000e+03 3.214869689941406250e+01 -3.929393053054809570e+00 6.624120473861694336e-01 6.607239842414855957e-01 3.969407975673675537e-01 3.937182426452636719e-01
1.544000000000000000e+03 3.111297035217285156e+01 -4.356145381927490234e+00 5.373340249061584473e-01 3.039805889129638672e-01 2.523943781852722168e-01 -3.058898728340864182e-03
1.545000000000000000e+03 1.816018867492675781e+01 -1.965962648391723633e+00 1.613157838582992554e-01 5.297608375549316406e-01 2.073229849338531494e-01 1.744396612048149109e-02
1.546000000000000000e+03 1.521700477600097656e+01 -1.696536421775817871e+00 -1.090812906622886658e-01 -2.179324030876159668e-01 -9.810410439968109131e-02 -2.037387490272521973e-01
1.547000000000000000e+03 3.992645263671875000e+01 -2.354695701599121094e+01 9.407020211219787598e-01 7.765438556671142578e+00 2.611842155456542969e+00 1.453045487403869629e+00
1.548000000000000000e+03 4.810983276367187500e+01 -2.597556304931640625e+01 -1.680058240890502930e+00 4.216798782348632812e+00 7.610220909118652344e-01 -2.774005651473999023e+00
1.549000000000000000e+03 4.717037963867187500e+01 2.570110321044921875e+01 2.407511949539184570e+00 8.120265960693359375e+00 3.158333301544189453e+00 1.690921068191528320e+00
1.550000000000000000e+03 4.781274414062500000e+01 2.836857604980468750e+01 1.593788027763366699e+00 7.151016712188720703e+00 2.623441457748413086e+00 6.542152762413024902e-01
1.551000000000000000e+03 1.813485336303710938e+01 -2.242209434509277344e+01 5.480369925498962402e-01 9.345358610153198242e-02 1.924471706151962280e-01 5.058770775794982910e-01
1.552000000000000000e+03 1.477878570556640625e+01 -2.123689842224121094e+01 2.734723389148712158e-01 2.348677963018417358e-01 1.525020450353622437e-01 2.554590702056884766e-01
1.553000000000000000e+03 2.961058235168457031e+01 2.691526985168457031e+01 1.703328609466552734e+00 1.742736101150512695e+00 1.033819437026977539e+00 -1.572393536567687988e+00
1.554000000000000000e+03 3.126239585876464844e+01 3.032710647583007812e+01 9.556648135185241699e-01 3.472460031509399414e+00 1.328437447547912598e+00 -1.443941235542297363e+00
1.555000000000000000e+03 4.772107315063476562e+01 -1.296466255187988281e+01 -1.832756400108337402e+00 8.216513633728027344e+00 1.915127158164978027e+00 1.581786274909973145e+00
1.556000000000000000e+03 4.968371200561523438e+01 -8.703796386718750000e+00 2.737334489822387695e+00 8.492448806762695312e+00 3.368935108184814453e+00 1.621540188789367676e-01
1.557000000000000000e+03 3.094555854797363281e+01 1.639554214477539062e+01 3.946366906166076660e-01 1.059998869895935059e+00 4.363906383514404297e-01 3.943663537502288818e-01
1.558000000000000000e+03 6.012182235717773438e+01 3.567515945434570312e+01 -2.187801599502563477e+00 -1.474145203828811646e-01 -7.005648016929626465e-01 2.184204459190368652e-01
1.559000000000000000e+03 6.232784652709960938e+01 3.389044570922851562e+01 1.302456948906183243e-02 2.521658658981323242e+00 7.604050040245056152e-01 -7.867296934127807617e-01
1.560000000000000000e+03 4.924507141113281250e+01 -3.543112564086914062e+01 7.935779690742492676e-01 6.232848644256591797e+00 2.107928037643432617e+00 1.745765686035156250e+00
1.561000000000000000e+03 4.263439178466796875e+01 -4.104351806640625000e+01 -9.900410771369934082e-01 4.186373949050903320e-01 -1.714211106300354004e-01 -2.072225660085678101e-01
1.562000000000000000e+03 3.668374633789062500e+01 -4.113478088378906250e+01 -1.338467836380004883e+00 2.613621473312377930e+00 3.825460672378540039e-01 1.174595654010772705e-01
1.563000000000000000e+03 5.257415771484375000e+01 -3.531761550903320312e+01 9.783350825309753418e-01 6.656848907470703125e+00 2.290555238723754883e+00 4.663031399250030518e-01
1.564000000000000000e+03 4.990515518188476562e+01 -3.014396286010742188e+01 2.166240215301513672e+00 5.420083045959472656e+00 2.275897026062011719e+00 -1.466388821601867676e+00
1.565000000000000000e+03 4.762639617919921875e+01 -8.066737174987792969e+00 1.630816817283630371e+00 1.288473320007324219e+01 4.354665279388427734e+00 -2.221128463745117188e+00
1.566000000000000000e+03 4.775347518920898438e+01 -9.216207504272460938e+00 1.214336395263671875e+00 1.487913894653320312e+01 4.828042507171630859e+00 3.760724961757659912e-01
1.567000000000000000e+03 5.786653900146484375e+01 4.116382217407226562e+01 -3.517370223999023438e-01 2.278246402740478516e+00 5.779528021812438965e-01 2.448428124189376831e-01
1.568000000000000000e+03 1.990948486328125000e+01 2.918626403808593750e+01 9.921137988567352295e-02 1.053114056587219238e+00 3.456976413726806641e-01 1.966067776083946228e-02
1.569000000000000000e+03 1.599416446685791016e+01 -2.323876953125000000e+01 2.857778370380401611e-01 3.249751627445220947e-01 1.832258999347686768e-01 4.617261290550231934e-01
1.570000000000000000e+03 1.724391555786132812e+01 -2.685625076293945312e+01 7.715265750885009766e-01 4.342820644378662109e-01 3.617425858974456787e-01 5.240623354911804199e-01
1.571000000000000000e+03 1.841777610778808594e+01 -2.561491012573242188e+01 2.670247294008731842e-02 1.277897506952285767e-01 4.634766653180122375e-02 7.647489905357360840e-01
1.572000000000000000e+03 2.545026779174804688e+01 1.475732231140136719e+01 6.889962404966354370e-02 4.411028027534484863e-01 1.530007272958755493e-01 -2.457848042249679565e-01
1.573000000000000000e+03 4.374642562866210938e+01 -2.766288375854492188e+01 -5.992667198181152344e+00 -5.862581729888916016e-01 -1.973677515983581543e+00 3.735879361629486084e-01
1.574000000000000000e+03 4.360765838623046875e+01 -4.096905231475830078e+00 -1.314595580101013184e+00 7.054674625396728516e-01 -1.827384233474731445e-01 -3.766292929649353027e-01
1.575000000000000000e+03 3.163610267639160156e+01 -1.178429317474365234e+01 4.884770810604095459e-01 2.246690988540649414e+00 8.205503821372985840e-01 2.465176105499267578e+00
1.576000000000000000e+03 3.585439682006835938e+01 -8.966488838195800781e+00 2.424894332885742188e+00 5.872823715209960938e+00 2.489315271377563477e+00 1.719413399696350098e+00
1.577000000000000000e+03 2.137328720092773438e+01 1.595836544036865234e+01 -2.486088126897811890e-01 9.140170216560363770e-01 1.996224671602249146e-01 5.382789671421051025e-02
1.578000000000000000e+03 3.194520187377929688e+01 2.289705276489257812e+01 3.265974819660186768e-01 5.698907375335693359e+00 1.807651519775390625e+00 -6.154017448425292969e-01
1.579000000000000000e+03 3.388352584838867188e+01 2.311640357971191406e+01 5.454851388931274414e-01 5.587696075439453125e+00 1.839954257011413574e+00 -9.368150830268859863e-01
1.580000000000000000e+03 4.256487274169921875e+01 -2.773678970336914062e+01 -4.401216030120849609e+00 1.733260601758956909e-02 -1.315165042877197266e+00 -2.857532799243927002e-01
1.581000000000000000e+03 2.179826736450195312e+01 3.196037673950195312e+01 2.299996614456176758e-01 1.093898653984069824e+00 3.971695005893707275e-01 -1.412551999092102051e-01
1.582000000000000000e+03 2.989400100708007812e+01 1.087121009826660156e+01 -1.709385663270950317e-01 3.848311305046081543e-01 6.416776776313781738e-02 -9.202403016388416290e-03
1.583000000000000000e+03 3.596567153930664062e+01 1.913206481933593750e+01 -2.231385558843612671e-01 3.744868993759155273e+00 1.056519150733947754e+00 -2.531798839569091797e+00
1.584000000000000000e+03 3.483958435058593750e+01 1.336329174041748047e+01 7.635402083396911621e-01 1.018166780471801758e+00 5.345121026039123535e-01 -1.431082963943481445e+00
1.585000000000000000e+03 3.758949661254882812e+01 -6.066706657409667969e+00 3.104722499847412109e+00 1.194104099273681641e+01 4.513729095458984375e+00 4.494576930999755859e+00
1.586000000000000000e+03 3.576351547241210938e+01 -7.256628513336181641e+00 2.785243272781372070e+00 6.433732986450195312e+00 2.765692949295043945e+00 1.553069233894348145e+00
1.587000000000000000e+03 2.211407279968261719e+01 2.014976310729980469e+01 2.547364830970764160e-01 2.056350231170654297e+00 6.933259963989257812e-01 -4.180174767971038818e-01
1.588000000000000000e+03 2.008266448974609375e+01 1.812175941467285156e+01 -4.371601343154907227e-02 5.599732398986816406e-01 1.548771560192108154e-01 -4.712009802460670471e-02
1.589000000000000000e+03 3.624948120117187500e+01 -1.251483440399169922e+01 -1.699088573455810547e+00 3.084607601165771484e+00 4.156557321548461914e-01 -3.726608753204345703e-01
1.590000000000000000e+03 3.424234008789062500e+01 -2.654241323471069336e+00 2.658930420875549316e-01 2.362333774566650391e+00 7.884680032730102539e-01 1.162332653999328613e+00
1.591000000000000000e+03 3.677520370483398438e+01 -5.270853042602539062e+00 1.996654748916625977e+00 7.445109367370605469e+00 2.832529306411743164e+00 1.893606543540954590e+00
1.592000000000000000e+03 4.449018478393554688e+01 -1.467382431030273438e+01 -3.547668695449829102e+00 2.635660886764526367e+00 -2.736023664474487305e-01 2.166420221328735352e+00
1.593000000000000000e+03 4.405669021606445312e+01 -1.352620029449462891e+01 -5.838943004608154297e+00 4.645403027534484863e-01 -1.612320780754089355e+00 -1.544248014688491821e-01
1.594000000000000000e+03 3.027592277526855469e+01 2.767581558227539062e+01 1.514659523963928223e+00 2.521816015243530273e+00 1.210942625999450684e+00 -1.679932832717895508e+00
1.595000000000000000e+03 3.745081329345703125e+01 2.315321731567382812e+01 1.116365432739257812e+00 3.014884710311889648e+00 1.239374995231628418e+00 -2.111188888549804688e+00
1.596000000000000000e+03 3.113761901855468750e+01 2.670455741882324219e+01 1.518361091613769531e+00 3.728752613067626953e+00 1.574134111404418945e+00 -1.639851450920104980e+00
1.597000000000000000e+03 3.385930633544921875e+01 3.020538139343261719e+01 5.828868746757507324e-01 5.462552070617675781e+00 1.813631772994995117e+00 -6.199626326560974121e-01
1.598000000000000000e+03 4.660085296630859375e+01 -1.220867443084716797e+01 1.111046791076660156e+00 6.529945373535156250e+00 2.292297601699829102e+00 3.747090339660644531e+00
1.599000000000000000e+03 4.732437896728515625e+01 -1.420393753051757812e+01 -3.631806373596191406e+00 7.098845958709716797e+00 1.040111899375915527e+00 2.937627553939819336e+00
1.600000000000000000e+03 3.193678474426269531e+01 -2.724589920043945312e+01 -6.477183103561401367e-01 4.586268067359924316e-01 -5.672745406627655029e-02 1.321553587913513184e-01
1.601000000000000000e+03 2.658757972717285156e+01 -3.362667465209960938e+01 2.126548439264297485e-01 2.656199455261230469e+00 8.606563210487365723e-01 -1.517719626426696777e-01
1.602000000000000000e+03 2.236150932312011719e+01 1.611295509338378906e+01 -1.383761018514633179e-01 9.616244435310363770e-01 2.469744980335235596e-01 -9.422937035560607910e-02
1.603000000000000000e+03 4.589502334594726562e+01 -1.428168773651123047e+01 -3.604617834091186523e+00 5.429194927215576172e+00 5.473731160163879395e-01 2.860875368118286133e+00
1.604000000000000000e+03 2.261350631713867188e+01 2.423925209045410156e+01 2.106450349092483521e-01 1.562305450439453125e+00 5.318851470947265625e-01 4.004727602005004883e-01
1.605000000000000000e+03 2.075871849060058594e+01 2.175765228271484375e+01 3.770955801010131836e-01 1.271999716758728027e+00 4.947285950183868408e-01 -1.101772934198379517e-01
1.606000000000000000e+03 1.846311950683593750e+01 2.501821517944335938e+01 8.336436152458190918e-01 9.347638487815856934e-01 5.305222272872924805e-01 7.654248476028442383e-01
1.607000000000000000e+03 4.679747772216796875e+01 -6.350294113159179688e+00 2.495621442794799805e+00 7.558349132537841797e+00 3.016191244125366211e+00 -3.377230644226074219e+00
1.608000000000000000e+03 4.410354614257812500e+01 -3.187027454376220703e+00 -1.115447044372558594e+00 2.688521146774291992e+00 4.719222486019134521e-01 -2.436198711395263672e+00
1.609000000000000000e+03 2.139660644531250000e+01 2.831062316894531250e+01 4.248243272304534912e-01 1.216565608978271484e+00 4.924169778823852539e-01 4.045031070709228516e-01
1.610000000000000000e+03 2.039491462707519531e+01 1.423871517181396484e+01 -1.498821750283241272e-02 5.552133321762084961e-01 1.620675325393676758e-01 4.811568185687065125e-02
1.611000000000000000e+03 4.749542617797851562e+01 -5.165968418121337891e+00 8.218331336975097656e-01 7.451421737670898438e+00 2.481976509094238281e+00 -1.724214196205139160e+00
1.612000000000000000e+03 2.113936805725097656e+01 2.305590248107910156e+01 3.125767409801483154e-01 1.449570298194885254e+00 5.286441445350646973e-01 1.231893673539161682e-01
1.613000000000000000e+03 3.810182189941406250e+01 -3.126763725280761719e+01 1.521063685417175293e+00 4.874833106994628906e+00 1.918769001960754395e+00 1.272419929504394531e+00
1.614000000000000000e+03 3.262320327758789062e+01 2.042542457580566406e+01 -4.858038201928138733e-02 4.400312900543212891e+00 1.305519819259643555e+00 -6.453706622123718262e-01
1.615000000000000000e+03 3.170786285400390625e+01 1.927302169799804688e+01 -5.505386274307966232e-03 3.789731264114379883e+00 1.135267734527587891e+00 -1.944201588630676270e-01
1.616000000000000000e+03 3.179384422302246094e+01 2.172674179077148438e+01 -2.746879309415817261e-02 5.085098266601562500e+00 1.517288804054260254e+00 -2.163846492767333984e-01
1.617000000000000000e+03 3.330241775512695312e+01 2.218749427795410156e+01 2.644630074501037598e-01 5.202869415283203125e+00 1.640199661254882812e+00 -9.357779622077941895e-01
1.618000000000000000e+03 3.281312561035156250e+01 2.133208084106445312e+01 -1.282986067235469818e-02 4.987690448760986328e+00 1.492458105087280273e+00 -8.139557838439941406e-01
1.619000000000000000e+03 5.119338607788085938e+01 -1.047069644927978516e+01 2.035121917724609375e+00 5.951080322265625000e+00 2.395860671997070312e+00 -1.425038576126098633e+00
1.620000000000000000e+03 5.177690505981445312e+01 -9.159307479858398438e+00 2.230874538421630859e+00 6.426784038543701172e+00 2.597297430038452148e+00 -1.224167466163635254e+00
1.621000000000000000e+03 3.758077621459960938e+01 -1.056646823883056641e+00 7.735213637351989746e-01 6.085388183593750000e+00 2.057672977447509766e+00 4.649777412414550781e+00
1.622000000000000000e+03 4.534940719604492188e+01 -3.794610977172851562e+00 2.503070831298828125e-01 3.548467159271240234e+00 1.139632225036621094e+00 -2.557514905929565430e+00
1.623000000000000000e+03 3.482537841796875000e+01 -1.269303417205810547e+01 -1.162769436836242676e+00 1.366202235221862793e+00 6.102985143661499023e-02 1.291515946388244629e+00
1.624000000000000000e+03 3.717026519775390625e+01 -1.288881301879882812e+01 -2.340792417526245117e+00 3.368434429168701172e+00 3.082925677299499512e-01 -2.647574543952941895e-01
1.625000000000000000e+03 3.969762802124023438e+01 -3.982686614990234375e+01 -1.539968729019165039e+00 1.887627959251403809e+00 1.042977720499038696e-01 -1.525066047906875610e-01
1.626000000000000000e+03 3.947095489501953125e+01 -3.522685241699218750e+01 -1.647950261831283569e-01 3.849570512771606445e+00 1.105432629585266113e+00 -5.858799219131469727e-01
1.627000000000000000e+03 4.865456771850585938e+01 -3.845955276489257812e+01 -1.923120856285095215e+00 4.322646141052246094e+00 7.198575735092163086e-01 1.245397806167602539e+00
1.628000000000000000e+03 4.861796188354492188e+01 -2.687499809265136719e+01 -1.827282547950744629e+00 3.817993164062500000e+00 5.972131490707397461e-01 -2.780066967010498047e+00
1.629000000000000000e+03 3.803633499145507812e+01 -3.757827758789062500e+01 -1.222712159156799316e+00 3.260366678237915039e+00 6.112963557243347168e-01 6.192184686660766602e-01
1.630000000000000000e+03 5.482442855834960938e+01 2.002855873107910156e+01 -9.569936990737915039e-01 4.400477409362792969e+00 1.033045172691345215e+00 -2.552852630615234375e+00
1.631000000000000000e+03 5.899996948242187500e+01 2.012347793579101562e+01 1.446623206138610840e-01 4.509871006011962891e+00 1.396359920501708984e+00 5.584467649459838867e-01
1.632000000000000000e+03 3.894764709472656250e+01 -2.767226982116699219e+01 -1.762885093688964844e+00 6.907071113586425781e+00 1.543255805969238281e+00 1.768757700920104980e+00
1.633000000000000000e+03 3.733635330200195312e+01 -3.227188873291015625e+01 1.814833760261535645e+00 3.461879491806030273e+00 1.583014011383056641e+00 1.656435370445251465e+00
1.634000000000000000e+03 3.845999908447265625e+01 -3.306249618530273438e+01 1.552528142929077148e+00 6.936547279357910156e+00 2.546722650527954102e+00 1.002953171730041504e+00
1.635000000000000000e+03 5.351287078857421875e+01 -3.274567794799804688e+01 2.732333183288574219e+00 6.862224102020263672e+00 2.878367185592651367e+00 3.176132440567016602e-01
1.636000000000000000e+03 4.748928833007812500e+01 -2.496564292907714844e+01 -1.369122385978698730e+00 4.496053695678710938e+00 9.380793571472167969e-01 -2.480449438095092773e+00
1.637000000000000000e+03 4.786109924316406250e+01 -2.329375076293945312e+01 1.704470396041870117e+00 4.115425586700439453e+00 1.745968818664550781e+00 -2.758975028991699219e+00
1.638000000000000000e+03 6.589048004150390625e+01 3.033411216735839844e+01 1.086777448654174805e+00 5.776812076568603516e+00 2.059076786041259766e+00 1.072981238365173340e+00
1.639000000000000000e+03 6.392730331420898438e+01 3.591002273559570312e+01 -1.290029168128967285e+00 3.959390878677368164e+00 8.008084893226623535e-01 -2.728216052055358887e-01
1.640000000000000000e+03 3.944662857055664062e+01 -2.543495178222656250e+01 2.037376880645751953e+00 9.062170982360839844e+00 3.329864501953125000e+00 3.445675611495971680e+00
1.641000000000000000e+03 3.869038772583007812e+01 -2.643009757995605469e+01 1.618547916412353516e+00 5.765532970428466797e+00 2.215224266052246094e+00 3.022780656814575195e+00
1.642000000000000000e+03 3.244219207763671875e+01 -3.049381065368652344e+01 -1.354901641607284546e-01 7.861475348472595215e-01 1.951972097158432007e-01 -6.008088588714599609e-01
1.643000000000000000e+03 2.827287292480468750e+01 -2.342506408691406250e+01 8.438894152641296387e-01 5.223374366760253906e+00 1.820179224014282227e+00 -2.721708714962005615e-01
1.644000000000000000e+03 3.851876449584960938e+01 -2.953694152832031250e+01 -8.498579859733581543e-01 5.314049243927001953e+00 1.339257359504699707e+00 1.252284288406372070e+00
1.645000000000000000e+03 3.618313980102539062e+01 -2.838749885559082031e+01 -2.766359329223632812e+00 9.775283187627792358e-02 -8.005819320678710938e-01 -3.193867802619934082e-01
1.646000000000000000e+03 3.589195251464843750e+01 -1.522460842132568359e+01 -4.768720149993896484e+00 1.880106925964355469e-01 -1.374212861061096191e+00 4.393439888954162598e-01
1.647000000000000000e+03 3.695907974243164062e+01 -1.595187473297119141e+01 -1.647453784942626953e+00 1.787157416343688965e+00 4.191111028194427490e-02 -2.256966531276702881e-01
1.648000000000000000e+03 2.748217964172363281e+01 -2.447814178466796875e+01 2.242609411478042603e-01 3.521721839904785156e+00 1.123794794082641602e+00 3.026688694953918457e-01
1.649000000000000000e+03 4.865641021728515625e+01 -1.547036743164062500e+01 -4.288582324981689453e+00 5.445097923278808594e+00 3.469546437263488770e-01 2.589783430099487305e+00
1.650000000000000000e+03 5.135760879516601562e+01 -1.607302093505859375e+01 -6.973610877990722656e+00 -2.340249568223953247e-01 -2.162290811538696289e+00 -1.096095085144042969e+00
1.651000000000000000e+03 3.484225845336914062e+01 -1.111264133453369141e+01 7.013771533966064453e-01 2.897195339202880859e+00 1.079571723937988281e+00 1.619343519210815430e+00
1.652000000000000000e+03 3.138347816467285156e+01 -1.477120018005371094e+01 -1.928153753280639648e+00 3.254165410995483398e+00 3.978034853935241699e-01 1.822533369064331055e+00
1.653000000000000000e+03 3.810646438598632812e+01 -1.261027336120605469e+01 -1.943873643875122070e+00 4.172232151031494141e+00 6.685075759887695312e-01 -1.060439944267272949e+00
1.654000000000000000e+03 3.020210647583007812e+01 -1.481580162048339844e+01 -1.203543424606323242e+00 3.807384490966796875e+00 7.811523079872131348e-01 1.475903749465942383e+00
1.655000000000000000e+03 3.037253189086914062e+01 -1.608692550659179688e+01 1.250008195638656616e-01 3.852158069610595703e+00 1.193147659301757812e+00 1.649803757667541504e+00
1.656000000000000000e+03 4.369446563720703125e+01 -2.686979103088378906e+01 -1.720339298248291016e+00 -3.294926583766937256e-01 -6.149495840072631836e-01 -3.703136444091796875e-01
1.657000000000000000e+03 3.866847610473632812e+01 -2.853648948669433594e+01 -1.359084129333496094e+00 5.819652557373046875e+00 1.338170528411865234e+00 1.689066529273986816e+00
1.658000000000000000e+03 2.782295989990234375e+01 -2.057226181030273438e+01 1.281605839729309082e+00 4.998613834381103516e+00 1.884065866470336914e+00 6.212593913078308105e-01
1.659000000000000000e+03 3.966850280761718750e+01 -1.436007976531982422e+01 -3.857709646224975586e+00 3.075301647186279297e+00 -2.347223907709121704e-01 -1.707157969474792480e+00
1.660000000000000000e+03 2.890277099609375000e+01 -2.098783302307128906e+01 4.826695919036865234e-01 7.431073665618896484e+00 2.374123096466064453e+00 9.717068076133728027e-01
1.661000000000000000e+03 3.932775115966796875e+01 -1.980770492553710938e+01 6.567534804344177246e-01 3.948989391326904297e+00 1.381722927093505859e+00 -1.435553193092346191e+00
1.662000000000000000e+03 4.043039321899414062e+01 -1.855057525634765625e+01 8.086398839950561523e-01 2.585005283355712891e+00 1.018093585968017578e+00 -8.178135752677917480e-01
1.663000000000000000e+03 2.898070526123046875e+01 -1.699240684509277344e+01 3.077559471130371094e-01 4.314062118530273438e+00 1.386545419692993164e+00 1.118479132652282715e+00
1.664000000000000000e+03 2.859185981750488281e+01 -1.806279754638671875e+01 9.733486175537109375e-01 4.688512325286865234e+00 1.698558211326599121e+00 1.214160799980163574e+00
1.665000000000000000e+03 5.395311737060546875e+01 2.634101486206054688e+01 1.656838893890380859e+00 8.234508514404296875e+00 2.967404365539550781e+00 -2.314306020736694336e+00
1.666000000000000000e+03 5.154300308227539062e+01 2.823701095581054688e+01 1.672331690788269043e+00 7.192824840545654297e+00 2.659546852111816406e+00 3.119078278541564941e-01
1.667000000000000000e+03 4.530372619628906250e+01 -1.780762863159179688e+01 2.883458733558654785e-01 5.938234806060791016e+00 1.867974162101745605e+00 1.009552121162414551e+00
1.668000000000000000e+03 4.737793350219726562e+01 -1.789811706542968750e+01 1.365600705146789551e+00 8.446900367736816406e+00 2.943750381469726562e+00 3.041634798049926758e+00
1.669000000000000000e+03 3.076552009582519531e+01 -2.814231491088867188e+01 -1.364089608192443848e+00 1.833129763603210449e+00 1.407120227813720703e-01 -2.728309929370880127e-01
1.670000000000000000e+03 3.008842277526855469e+01 -2.700906372070312500e+01 -7.130600810050964355e-01 2.255682229995727539e+00 4.627866446971893311e-01 -4.043416976928710938e-01
1.671000000000000000e+03 6.265402221679687500e+01 2.516408729553222656e+01 3.039641618728637695e+00 7.671896457672119141e+00 3.213461399078369141e+00 4.403771400451660156e+00
1.672000000000000000e+03 6.662023162841796875e+01 2.582691955566406250e+01 1.959765791893005371e+00 4.013040542602539062e+00 1.791841983795166016e+00 5.138497948646545410e-01
1.673000000000000000e+03 1.138494300842285156e+01 -1.257257461547851562e+01 1.933172903954982758e-02 5.253371968865394592e-02 2.155963517725467682e-02 -5.751544982194900513e-02
1.674000000000000000e+03 9.664716720581054688e+00 -1.167800903320312500e+01 -3.126822412014007568e-02 -8.105464279651641846e-02 -3.369686007499694824e-02 -1.117776930332183838e-01
1.675000000000000000e+03 1.368881511688232422e+01 6.744332313537597656e+00 -1.418943524360656738e+00 -4.056708514690399170e-01 -5.473843216896057129e-01 6.282417178153991699e-01
1.676000000000000000e+03 5.400963592529296875e+01 5.361086726188659668e-01 -6.626777648925781250e-01 3.997009754180908203e+00 1.000299572944641113e+00 1.932108044624328613e+00
1.677000000000000000e+03 6.237900543212890625e+01 2.121457099914550781e+01 -2.181336164474487305e+00 6.037682533264160156e+00 1.156903982162475586e+00 3.604008197784423828e+00
1.678000000000000000e+03 6.117303466796875000e+01 2.125508117675781250e+01 -1.494367837905883789e+00 6.024091720581054688e+00 1.358917117118835449e+00 3.048785209655761719e+00
1.679000000000000000e+03 1.785374259948730469e+01 -1.695073699951171875e+01 2.573847770690917969e-01 1.510997861623764038e-01 1.225453615188598633e-01 -2.552740871906280518e-01
1.680000000000000000e+03 1.627305603027343750e+01 -3.974142074584960938e+01 -9.709421396255493164e-01 -4.212113618850708008e-01 -4.176460504531860352e-01 2.951590120792388916e-01
1.681000000000000000e+03 1.421430587768554688e+01 -3.829553222656250000e+01 -2.849711775779724121e-01 1.990842632949352264e-02 -7.951882481575012207e-02 3.148248791694641113e-02
1.682000000000000000e+03 6.100698852539062500e+01 2.389357757568359375e+01 -1.212068251334130764e-03 3.443644762039184570e+00 1.032729864120483398e+00 2.473873376846313477e+00
1.683000000000000000e+03 2.453239440917968750e+01 -3.771662521362304688e+01 2.058525383472442627e-01 2.292812585830688477e+00 7.495995163917541504e-01 3.077476322650909424e-01
1.684000000000000000e+03 5.235031509399414062e+01 3.452787017822265625e+01 -3.603520691394805908e-01 6.111271381378173828e+00 1.725275754928588867e+00 1.592283695936203003e-01
1.685000000000000000e+03 4.786957931518554688e+01 3.165618705749511719e+01 5.660873651504516602e-01 6.015726089477539062e+00 1.974543929100036621e+00 9.813106805086135864e-02
1.686000000000000000e+03 5.139279174804687500e+01 3.134436607360839844e+01 1.143237471580505371e+00 6.965308666229248047e+00 2.432563781738281250e+00 7.309208512306213379e-01
1.687000000000000000e+03 5.990726852416992188e+01 2.239742660522460938e+01 -1.982822299003601074e+00 2.989376544952392578e+00 3.019662797451019287e-01 2.498268604278564453e+00
1.688000000000000000e+03 6.007732772827148438e+01 7.507013082504272461e-01 -8.821085095405578613e-01 5.713506698608398438e+00 1.449419379234313965e+00 -2.421267271041870117e+00
1.689000000000000000e+03 5.444439315795898438e+01 2.353970336914062500e+01 -1.111720681190490723e+00 5.124993324279785156e+00 1.203981757164001465e+00 -2.200433969497680664e+00
1.690000000000000000e+03 1.675832176208496094e+01 -4.190377044677734375e+01 -9.537748694419860840e-01 -2.573317587375640869e-01 -3.633319735527038574e-01 1.374090649187564850e-02
1.691000000000000000e+03 6.574372863769531250e+01 -1.698441505432128906e+01 -1.700426340103149414e+00 3.417848587036132812e+00 5.152266621589660645e-01 3.995974659919738770e-01
1.692000000000000000e+03 6.377701950073242188e+01 -1.643103599548339844e+01 -1.803780794143676758e+00 6.265383720397949219e+00 1.338480949401855469e+00 -8.568364381790161133e-02
1.693000000000000000e+03 5.605694580078125000e+01 3.500457000732421875e+01 1.976607739925384521e-01 2.694920063018798828e+00 8.677742481231689453e-01 1.499541759490966797e+00
1.694000000000000000e+03 2.542556571960449219e+01 -3.085681343078613281e+01 -4.251012951135635376e-02 2.956885099411010742e+00 8.743124604225158691e-01 -1.123898178339004517e-01
1.695000000000000000e+03 1.549757480621337891e+01 -1.468369007110595703e+01 1.759309768676757812e-01 4.489358961582183838e-01 1.874600648880004883e-01 -2.367682904005050659e-01
1.696000000000000000e+03 2.776489639282226562e+01 -1.196222305297851562e+01 9.079822897911071777e-01 2.293004274368286133e+00 9.602959752082824707e-01 1.693348169326782227e+00
1.697000000000000000e+03 3.347876739501953125e+01 -9.284942626953125000e+00 2.067001104354858398e+00 2.538270235061645508e+00 1.381581425666809082e+00 2.563406944274902344e+00
1.698000000000000000e+03 6.112771606445312500e+01 2.251614761352539062e+01 -2.549599647521972656e+00 5.261388778686523438e+00 8.135367631912231445e-01 3.438925981521606445e+00
1.699000000000000000e+03 5.355809020996093750e+01 3.577796554565429688e+01 -1.095298051834106445e+00 5.930702686309814453e+00 1.450621366500854492e+00 9.378671646118164062e-01
1.700000000000000000e+03 6.457518768310546875e+01 2.840185165405273438e+01 1.327836394309997559e+00 6.865460872650146484e+00 2.457989215850830078e+00 1.873344421386718750e+00
1.701000000000000000e+03 6.344650650024414062e+01 2.930220222473144531e+01 -9.209464490413665771e-02 7.666170597076416016e+00 2.272222757339477539e+00 2.198848575353622437e-01
1.702000000000000000e+03 6.458336639404296875e+01 2.936957359313964844e+01 6.903992891311645508e-01 7.603653430938720703e+00 2.488215684890747070e+00 1.106262445449829102e+00
1.703000000000000000e+03 2.686993217468261719e+01 -3.507916259765625000e+01 2.136014699935913086e-01 2.625915288925170898e+00 8.518550395965576172e-01 -5.609736964106559753e-02
1.704000000000000000e+03 5.608206558227539062e+01 2.313576316833496094e+01 -1.804276227951049805e+00 2.809736251831054688e+00 3.016380369663238525e-01 -1.776647806167602539e+00
1.705000000000000000e+03 1.345592308044433594e+01 -3.103651046752929688e+01 3.683009743690490723e-01 1.429299592971801758e+00 5.392801761627197266e-01 5.924299955368041992e-01
1.706000000000000000e+03 1.058457088470458984e+01 -3.661705017089843750e+01 -7.885434478521347046e-02 5.647077560424804688e-01 1.457560211420059204e-01 2.568801045417785645e-01
1.707000000000000000e+03 2.762612724304199219e+01 -2.609640884399414062e+01 -6.205981373786926270e-01 3.295462369918823242e+00 8.024592995643615723e-01 1.781728714704513550e-01
1.708000000000000000e+03 2.065189743041992188e+01 -4.061321258544921875e+01 -1.050643324851989746e+00 1.865128055214881897e-02 -3.095976114273071289e-01 -2.410245537757873535e-01
1.709000000000000000e+03 6.187154388427734375e+01 4.187758445739746094e+00 -6.705032587051391602e-01 4.420253753662109375e+00 1.124925255775451660e+00 -1.914156436920166016e+00
1.710000000000000000e+03 6.260692977905273438e+01 -9.813210964202880859e-01 5.524138808250427246e-01 6.964224338531494141e+00 2.254991531372070312e+00 -4.124313592910766602e-01
1.711000000000000000e+03 6.066463851928710938e+01 1.210366344451904297e+01 6.094996333122253418e-01 9.380057334899902344e+00 2.996866941452026367e+00 -6.527277231216430664e-01
1.712000000000000000e+03 5.587530517578125000e+01 1.170665264129638672e+01 1.078174829483032227e+00 9.334293365478515625e+00 3.123740434646606445e+00 5.032415986061096191e-01
1.713000000000000000e+03 1.333178615570068359e+01 -2.912354660034179688e+01 4.983338415622711182e-01 9.506117701530456543e-01 4.346836805343627930e-01 4.624332189559936523e-01
1.714000000000000000e+03 1.599992370605468750e+01 -1.819583892822265625e+01 7.689268141984939575e-02 1.911875307559967041e-01 8.042406290769577026e-02 -2.827410027384757996e-02
1.715000000000000000e+03 1.567960929870605469e+01 -2.029079437255859375e+01 2.182465046644210815e-01 2.222656756639480591e-01 1.321536600589752197e-01 1.904438138008117676e-01
1.716000000000000000e+03 1.726021003723144531e+01 -1.075839400291442871e+00 -1.787058711051940918e-01 1.707449555397033691e-01 -2.388272900134325027e-03 -1.215517669916152954e-01
1.717000000000000000e+03 7.221671295166015625e+01 -1.233534717559814453e+01 -2.434486389160156250e+00 3.680454492568969727e-01 -6.199322938919067383e-01 -7.440530657768249512e-01
1.718000000000000000e+03 7.204988098144531250e+01 -1.347198867797851562e+01 -7.899000644683837891e-01 1.094691991806030273e+00 9.143757075071334839e-02 -7.072300910949707031e-01
1.719000000000000000e+03 2.127871322631835938e+01 -2.713361930847167969e+01 -1.133954167366027832e+00 -5.549363493919372559e-01 -5.066671371459960938e-01 7.217769622802734375e-01
1.720000000000000000e+03 1.130178546905517578e+01 -3.357334518432617188e+01 1.849322468042373657e-01 7.956971526145935059e-01 2.941888272762298584e-01 2.839937508106231689e-01
1.721000000000000000e+03 1.488928794860839844e+01 -2.539726638793945312e+01 3.029134571552276611e-01 6.398863792419433594e-01 2.828399538993835449e-01 4.242020547389984131e-01
1.722000000000000000e+03 1.260277938842773438e+01 -2.474585151672363281e+01 2.122274339199066162e-01 3.334529697895050049e-01 1.637041121721267700e-01 1.899084895849227905e-01
1.723000000000000000e+03 2.396668052673339844e+01 -2.591683006286621094e+01 -3.641932606697082520e-01 1.562032103538513184e+00 3.593516647815704346e-01 2.265226989984512329e-01
1.724000000000000000e+03 2.507704734802246094e+01 -3.486425399780273438e+01 1.581542491912841797e-01 3.329209089279174805e+00 1.046208977699279785e+00 -1.300598029047250748e-02
1.725000000000000000e+03 2.684001541137695312e+01 -3.138581275939941406e+01 -1.351609230041503906e-01 2.677574396133422852e+00 7.627240419387817383e-01 3.596112504601478577e-02
1.726000000000000000e+03 5.250971221923828125e+01 -6.226440906524658203e+00 1.918262839317321777e+00 1.101818561553955078e+01 3.880934476852416992e+00 -2.132024765014648438e+00
1.727000000000000000e+03 5.255252075195312500e+01 -3.686018943786621094e+00 8.897624611854553223e-01 1.093491077423095703e+01 3.547401905059814453e+00 1.523364424705505371e+00
1.728000000000000000e+03 1.694905662536621094e+01 -6.970886230468750000e+00 -3.833842650055885315e-02 3.944413363933563232e-01 1.068308725953102112e-01 -1.251940615475177765e-03
1.729000000000000000e+03 1.562094879150390625e+01 -9.903469085693359375e+00 7.538692094385623932e-03 2.917689085006713867e-01 8.979228138923645020e-02 9.346177801489830017e-03
1.730000000000000000e+03 3.035545349121093750e+01 -9.189886093139648438e+00 1.686396718025207520e+00 2.531018972396850586e+00 1.265224695205688477e+00 2.199969291687011719e+00
1.731000000000000000e+03 2.985585403442382812e+01 -6.886569499969482422e+00 1.424072980880737305e-01 -1.076230034232139587e-01 1.043528784066438675e-02 3.624220192432403564e-01
1.732000000000000000e+03 6.136673355102539062e+01 -6.182785511016845703e+00 6.027739048004150391e-01 1.068476486206054688e+01 3.386261701583862305e+00 1.225471273064613342e-01
1.733000000000000000e+03 2.527636718750000000e+01 -1.743384933471679688e+01 7.269979715347290039e-01 1.665072798728942871e+00 7.176212072372436523e-01 4.366324245929718018e-01
1.734000000000000000e+03 6.452263641357421875e+01 -2.853307342529296875e+01 2.596654176712036133e+00 8.774724006652832031e+00 3.411413431167602539e+00 -4.631352901458740234e+00
1.735000000000000000e+03 2.900440216064453125e+01 -1.596564674377441406e+01 -3.324335813522338867e-01 4.018720626831054688e+00 1.105886101722717285e+00 1.254020452499389648e+00
1.736000000000000000e+03 3.232406234741210938e+01 -5.557998180389404297e+00 1.331065535545349121e+00 1.609490871429443359e+00 8.821669220924377441e-01 9.698348045349121094e-01
1.737000000000000000e+03 5.568842315673828125e+01 -9.680813789367675781e+00 1.862562537193298340e+00 2.504128217697143555e+00 1.310007214546203613e+00 -2.140105247497558594e+00
1.738000000000000000e+03 5.632024765014648438e+01 -1.130026531219482422e+01 1.983026713132858276e-01 2.826920032501220703e+00 9.075667858123779297e-01 -2.521433591842651367e+00
1.739000000000000000e+03 2.642882919311523438e+01 -1.446107482910156250e+01 -4.425865113735198975e-01 2.021317243576049805e+00 4.736192226409912109e-01 1.021402835845947266e+00
1.740000000000000000e+03 7.365187072753906250e+01 -2.417502403259277344e+01 1.570044040679931641e+00 1.216125202178955078e+01 4.119388580322265625e+00 2.164115190505981445e+00
1.741000000000000000e+03 7.290132904052734375e+01 -2.524137306213378906e+01 7.996898889541625977e-01 6.109752655029296875e+00 2.072832822799682617e+00 2.445428848266601562e+00
1.742000000000000000e+03 1.540177059173583984e+01 -6.328483104705810547e+00 1.750985234975814819e-01 2.464008629322052002e-01 1.264498084783554077e-01 -2.177796140313148499e-02
1.743000000000000000e+03 5.301979446411132812e+01 2.531241989135742188e+01 1.000496029853820801e+00 5.947468757629394531e+00 2.084389448165893555e+00 -7.167021036148071289e-01
1.744000000000000000e+03 4.855812454223632812e+01 1.975663566589355469e+01 -2.509540081024169922e+00 1.180152177810668945e+00 -3.988163769245147705e-01 1.398000240325927734e+00
1.745000000000000000e+03 2.050703239440917969e+01 3.419032669067382812e+01 4.207936301827430725e-02 9.219343066215515137e-01 2.892040908336639404e-01 -2.346074730157852173e-01
1.746000000000000000e+03 1.978317642211914062e+01 3.049679565429687500e+01 9.134500473737716675e-02 7.855572104454040527e-01 2.630706727504730225e-01 -1.241888403892517090e-01
1.747000000000000000e+03 3.020110511779785156e+01 -1.368613243103027344e+01 -1.049792289733886719e+00 3.519345283508300781e+00 7.408658862113952637e-01 1.918545603752136230e+00
1.748000000000000000e+03 2.952400207519531250e+01 -1.151705551147460938e+01 6.860135197639465332e-01 3.120628595352172852e+00 1.141992688179016113e+00 1.682692170143127441e+00
1.749000000000000000e+03 6.971881103515625000e+01 -1.205353260040283203e+01 -9.526614546775817871e-01 2.402069121599197388e-01 -2.137363702058792114e-01 -9.872953295707702637e-01
1.750000000000000000e+03 6.851348114013671875e+01 -1.163343238830566406e+01 1.220506906509399414e+00 1.489545941352844238e+00 8.130158782005310059e-01 -1.493351340293884277e+00
1.751000000000000000e+03 1.910016441345214844e+01 -1.382460975646972656e+01 -3.454242944717407227e-01 1.740750521421432495e-01 -5.140477418899536133e-02 -1.079245582222938538e-01
1.752000000000000000e+03 1.651003837585449219e+01 -1.198703289031982422e+01 -1.047240272164344788e-01 2.526053488254547119e-01 4.436439275741577148e-02 7.692425977438688278e-03
1.753000000000000000e+03 3.115703392028808594e+01 -7.690281867980957031e+00 1.237811207771301270e+00 1.430224657058715820e+00 8.004107475280761719e-01 2.077026844024658203e+00
1.754000000000000000e+03 7.613674163818359375e+01 1.401887416839599609e+01 7.683506608009338379e-01 7.333679199218750000e+00 2.430608987808227539e+00 5.640823841094970703e-01
1.755000000000000000e+03 1.928433609008789062e+01 2.599229049682617188e+01 5.368812084197998047e-01 1.478121399879455566e+00 6.045007705688476562e-01 6.859456300735473633e-01
1.756000000000000000e+03 6.841183471679687500e+01 -2.616712379455566406e+01 -2.956924915313720703e+00 1.060185790061950684e+00 -5.690217614173889160e-01 -3.011181652545928955e-01
1.757000000000000000e+03 1.200721836090087891e+01 2.019469261169433594e+01 4.345869719982147217e-01 3.523915112018585205e-01 2.360935509204864502e-01 4.412462711334228516e-01
1.758000000000000000e+03 8.310924530029296875e+00 2.352841758728027344e+01 -1.889452785253524780e-01 -1.360483467578887939e-01 -9.749808907508850098e-02 1.105682849884033203e-01
1.759000000000000000e+03 6.512405395507812500e+01 -6.261842727661132812e+00 8.091314435005187988e-01 1.196266746520996094e+01 3.831539630889892578e+00 -6.256084144115447998e-02
1.760000000000000000e+03 7.836245727539062500e+01 1.689579772949218750e+01 2.409255132079124451e-02 6.696054458618164062e+00 2.016044139862060547e+00 6.630638837814331055e-01
1.761000000000000000e+03 7.545244598388671875e+01 1.494428825378417969e+01 6.568825244903564453e-01 7.821697235107421875e+00 2.543573856353759766e+00 8.499963283538818359e-01
1.762000000000000000e+03 5.901824569702148438e+01 3.187541484832763672e+00 -6.191729903221130371e-01 4.438938617706298828e+00 1.145929694175720215e+00 -2.201691627502441406e+00
1.763000000000000000e+03 6.565744018554687500e+01 6.530058383941650391e+00 -2.218308925628662109e+00 -3.963625803589820862e-02 -6.773835420608520508e-01 1.491108089685440063e-01
1.764000000000000000e+03 4.550754165649414062e+01 1.758432388305664062e+01 2.063615322113037109e+00 8.729154586791992188e+00 3.237830877304077148e+00 3.790583372116088867e+00
1.765000000000000000e+03 5.905098724365234375e+01 -1.007061958312988281e+01 -9.969035387039184570e-01 1.297209858894348145e+00 9.009189158678054810e-02 7.605683207511901855e-01
1.766000000000000000e+03 6.239371109008789062e+01 1.988328742980957031e+01 7.001560330390930176e-01 6.730644226074218750e+00 2.229240179061889648e+00 3.640467643737792969e+00
1.767000000000000000e+03 8.960357666015625000e+00 -2.322606086730957031e+01 5.943197384476661682e-02 4.146943613886833191e-02 3.027042187750339508e-02 -9.624744206666946411e-02
1.768000000000000000e+03 6.127601265907287598e-01 -2.471068382263183594e+01 7.522190455347299576e-03 -7.192749381065368652e-01 -2.135258316993713379e-01 1.028751255944371223e-03
1.769000000000000000e+03 5.177677631378173828e+00 -2.070220184326171875e+01 1.703539639711380005e-01 1.851920187473297119e-01 1.066637933254241943e-01 -1.903032958507537842e-01
1.770000000000000000e+03 7.413745117187500000e+01 -1.067386817932128906e+01 -1.028182029724121094e+00 3.771683216094970703e+00 8.230503797531127930e-01 9.927502870559692383e-01
1.771000000000000000e+03 7.200067520141601562e+00 3.538804244995117188e+01 1.478569656610488892e-01 -1.399484127759933472e-01 2.372564747929573059e-03 9.765524417161941528e-03
1.772000000000000000e+03 7.821768188476562500e+01 -2.748266601562500000e+01 -1.914696991443634033e-01 7.928941726684570312e+00 2.321241617202758789e+00 -1.983995884656906128e-01
1.773000000000000000e+03 5.563858032226562500e+01 -3.461505508422851562e+01 1.872753739356994629e+00 9.599901199340820312e+00 3.441796541213989258e+00 -1.162660717964172363e+00
1.774000000000000000e+03 5.670540618896484375e+01 -3.848523712158203125e+01 -1.807806968688964844e+00 5.032143592834472656e+00 9.673009514808654785e-01 -1.204198122024536133e+00
1.775000000000000000e+03 7.063463592529296875e+01 6.371211528778076172e+00 -2.448168694972991943e-01 4.686303615570068359e+00 1.332446098327636719e+00 1.603010177612304688e+00
1.776000000000000000e+03 7.130920410156250000e+01 8.127257347106933594e+00 1.226675629615783691e+00 6.366764545440673828e+00 2.278032064437866211e+00 2.073640823364257812e+00
1.777000000000000000e+03 7.011248779296875000e+01 7.860019683837890625e+00 1.608409881591796875e+00 3.876538276672363281e+00 1.645484447479248047e+00 2.213473081588745117e+00
1.778000000000000000e+03 7.255463409423828125e+01 8.983819961547851562e+00 5.293102264404296875e-01 9.276687622070312500e+00 2.941799163818359375e+00 3.556438684463500977e-01
1.779000000000000000e+03 6.195367431640625000e+01 -2.397596931457519531e+01 1.847481489181518555e+00 3.661171436309814453e+00 1.652595877647399902e+00 -1.515748620033264160e+00
1.780000000000000000e+03 5.354802322387695312e+01 -8.096231460571289062e+00 2.893436193466186523e+00 6.005051612854003906e+00 2.669546365737915039e+00 -3.286501884460449219e+00
1.781000000000000000e+03 5.938228607177734375e+00 2.666431999206542969e+01 -8.710216730833053589e-02 -7.612376809120178223e-01 -2.545019388198852539e-01 1.761989444494247437e-01
1.782000000000000000e+03 7.118291473388671875e+01 1.837126350402832031e+01 -1.113867998123168945e+00 5.646789073944091797e+00 1.359876275062561035e+00 -9.522396922111511230e-01
1.783000000000000000e+03 6.096627044677734375e+01 1.617887496948242188e+01 1.795881152153015137e+00 1.254296112060546875e+01 4.301652431488037109e+00 3.305264949798583984e+00
1.784000000000000000e+03 2.016462707519531250e+01 1.558847236633300781e+01 -3.409215509891510010e-01 1.816158592700958252e-01 -4.779171198606491089e-02 2.214515507221221924e-01
1.785000000000000000e+03 5.912857055664062500e+01 -2.709825325012207031e+01 -2.813551664352416992e+00 1.960296988487243652e+00 -2.559763789176940918e-01 6.326137781143188477e-01
1.786000000000000000e+03 6.695368957519531250e+01 4.035154819488525391e+00 1.715369671583175659e-01 1.488038539886474609e+00 4.978726506233215332e-01 1.384506225585937500e+00
1.787000000000000000e+03 7.026239776611328125e+01 4.104033708572387695e-01 2.331250607967376709e-01 1.165321588516235352e+00 4.195339977741241455e-01 1.367698311805725098e+00
1.788000000000000000e+03 5.932477951049804688e+01 -1.183934402465820312e+01 -1.387157142162322998e-01 3.864836931228637695e+00 1.117836356163024902e+00 1.130911827087402344e+00
1.789000000000000000e+03 3.121414661407470703e+00 2.157831001281738281e+01 2.945833653211593628e-02 -8.343469500541687012e-01 -2.414665818214416504e-01 4.288983065634965897e-03
1.790000000000000000e+03 7.023989105224609375e+01 1.943331146240234375e+01 -2.233696699142456055e+00 4.044441223144531250e+00 5.432233810424804688e-01 -7.978527545928955078e-01
1.791000000000000000e+03 6.363315582275390625e+00 1.335816383361816406e+01 1.124538108706474304e-01 -2.671169936656951904e-01 -4.639895260334014893e-02 5.785446166992187500e-01
1.792000000000000000e+03 7.353355407714843750e+01 1.338473224639892578e+01 1.491893529891967773e+00 9.926680564880371094e+00 3.425572156906127930e+00 3.006793260574340820e-01
1.793000000000000000e+03 7.224509429931640625e+01 1.261548328399658203e+01 6.997001767158508301e-01 1.358813762664794922e+01 4.286351203918457031e+00 2.190416753292083740e-01
1.794000000000000000e+03 7.372065734863281250e+01 -2.075136184692382812e+01 5.264420509338378906e-01 1.320867824554443359e+01 4.120535850524902344e+00 -1.280940413475036621e+00
1.795000000000000000e+03 7.939110565185546875e+01 -1.671357917785644531e+01 6.987984478473663330e-02 9.469556808471679688e+00 2.861830949783325195e+00 3.968811631202697754e-01
1.796000000000000000e+03 6.063388824462890625e+01 8.683868408203125000e+00 2.128812111914157867e-02 5.815244197845458984e+00 1.750959753990173340e+00 -6.475606560707092285e-01
1.797000000000000000e+03 6.237295532226562500e+01 9.334046363830566406e+00 1.038404226303100586e+00 1.841690421104431152e+00 8.640283942222595215e-01 -1.626554131507873535e+00
1.798000000000000000e+03 6.211467742919921875e+01 7.976393699645996094e+00 -3.454706668853759766e-01 3.331911802291870117e+00 8.959323167800903320e-01 -1.291255116462707520e+00
1.799000000000000000e+03 6.285281658172607422e+00 3.129920768737792969e+01 1.695407554507255554e-02 -2.346509844064712524e-01 -6.530907005071640015e-02 3.774161636829376221e-02
1.800000000000000000e+03 5.988695907592773438e+01 -3.865866470336914062e+01 -3.073436975479125977e+00 1.138904929161071777e+00 -5.803595781326293945e-01 -1.074011474847793579e-01
1.801000000000000000e+03 4.984638214111328125e+01 5.760904312133789062e+00 -1.509360313415527344e+00 -2.083307802677154541e-01 -5.153073072433471680e-01 5.096643567085266113e-01
1.802000000000000000e+03 4.540017700195312500e+01 -2.626705360412597656e+01 -1.655124783515930176e+00 2.585458993911743164e+00 2.791002988815307617e-01 -1.550999045372009277e+00
1.803000000000000000e+03 4.696540069580078125e+01 -1.916710662841796875e+01 1.280200600624084473e+00 1.099661731719970703e+01 3.683045387268066406e+00 3.032536029815673828e+00
1.804000000000000000e+03 6.565514373779296875e+01 -2.092784047126770020e-01 4.720075130462646484e-01 4.565398693084716797e+00 1.511221766471862793e+00 1.331370711326599121e+00
1.805000000000000000e+03 6.632914733886718750e+01 -1.527162551879882812e+01 -1.479991555213928223e+00 2.373222589492797852e+00 2.679693400859832764e-01 5.964590907096862793e-01
1.806000000000000000e+03 6.477742767333984375e+01 -1.886815261840820312e+01 3.829233050346374512e-01 7.655029773712158203e+00 2.411386013031005859e+00 4.720956683158874512e-01
1.807000000000000000e+03 2.292726516723632812e+01 1.130211162567138672e+01 1.999596953392028809e-01 4.387946128845214844e-01 1.916262954473495483e-01 -1.432571187615394592e-02
1.808000000000000000e+03 2.007392501831054688e+01 9.747925758361816406e+00 3.155407309532165527e-01 8.457787632942199707e-01 3.483958542346954346e-01 4.072506129741668701e-01
1.809000000000000000e+03 6.157605743408203125e+01 -2.517146301269531250e+01 6.245995163917541504e-01 1.748251676559448242e+00 7.118553519248962402e-01 -1.338749647140502930e+00
1.810000000000000000e+03 7.939898681640625000e+01 -2.231521224975585938e+01 1.366655379533767700e-01 6.630312442779541016e+00 2.030093431472778320e+00 6.208952516317367554e-02
1.811000000000000000e+03 4.712647247314453125e+01 -3.575961351394653320e+00 4.332870841026306152e-01 6.034919738769531250e+00 1.940462112426757812e+00 -2.271856069564819336e+00
1.812000000000000000e+03 5.185617446899414062e+01 -1.072003960609436035e+00 4.092091023921966553e-01 6.583728790283203125e+00 2.097881317138671875e+00 4.826561361551284790e-02
1.813000000000000000e+03 1.325776672363281250e+01 1.822702789306640625e+01 1.303991198539733887e+00 4.729292690753936768e-01 5.330761075019836426e-01 6.884148716926574707e-01
1.814000000000000000e+03 1.168338203430175781e+01 2.141715621948242188e+01 2.521560192108154297e-01 1.403162181377410889e-01 1.177416741847991943e-01 2.828191816806793213e-01
1.815000000000000000e+03 5.128678894042968750e+01 -5.061671733856201172e+00 2.086492538452148438e+00 9.303767204284667969e+00 3.417077779769897461e+00 -4.799422025680541992e-01
1.816000000000000000e+03 6.657946777343750000e+01 -3.568585205078125000e+01 3.018214106559753418e-01 6.511614799499511719e+00 2.044030904769897461e+00 -4.368008971214294434e-01
1.817000000000000000e+03 6.344131851196289062e+01 -1.914151000976562500e+01 5.843495130538940430e-01 7.329567909240722656e+00 2.374175071716308594e+00 -1.161055922508239746e+00
1.818000000000000000e+03 5.289716720581054688e+01 -9.542322158813476562e+00 1.697151660919189453e+00 5.799332618713378906e+00 2.248945236206054688e+00 -2.239145278930664062e+00
1.819000000000000000e+03 5.633842849731445312e+01 8.421635627746582031e+00 1.861244559288024902e+00 8.177034378051757812e+00 3.011483669281005859e+00 9.608928561210632324e-01
1.820000000000000000e+03 5.200352478027343750e+01 5.575972080230712891e+00 7.931743860244750977e-01 2.186139822006225586e+00 8.937942385673522949e-01 2.054315567016601562e+00
1.821000000000000000e+03 7.805294036865234375e+01 -1.381282234191894531e+01 -5.802134871482849121e-01 9.545529365539550781e+00 2.689594745635986328e+00 3.839624822139739990e-01
1.822000000000000000e+03 1.730472087860107422e+00 -1.187124347686767578e+01 -8.520732633769512177e-03 -1.163304969668388367e-01 -3.745536878705024719e-02 -2.631542086601257324e-02
1.823000000000000000e+03 6.053111648559570312e+01 -4.043507003784179688e+01 -1.265045166015625000e+00 5.507284402847290039e-02 -3.629916906356811523e-01 -4.292919635772705078e-01
1.824000000000000000e+03 2.033075714111328125e+01 2.681291007995605469e+01 4.367635548114776611e-01 1.465964317321777344e+00 5.708183646202087402e-01 4.972640872001647949e-01
1.825000000000000000e+03 6.113584041595458984e-01 3.186257553100585938e+01 -1.173125230707228184e-03 -1.451347947120666504e+00 -4.357563257217407227e-01 2.140840701758861542e-02
1.826000000000000000e+03 1.929853630065917969e+01 2.451938819885253906e+01 6.476812362670898438e-01 1.087665915489196777e+00 5.206041336059570312e-01 4.386278092861175537e-01
1.827000000000000000e+03 7.692803859710693359e+00 2.197016143798828125e+01 -6.890241988003253937e-03 -2.060236185789108276e-01 -6.387416273355484009e-02 4.978756979107856750e-02
1.828000000000000000e+03 1.832038116455078125e+01 2.257405662536621094e+01 7.222384810447692871e-01 5.772712826728820801e-01 3.898529410362243652e-01 2.974641621112823486e-01
1.829000000000000000e+03 5.272379684448242188e+01 -1.380007743835449219e+01 -1.016285419464111328e+00 2.917814731597900391e+00 5.704588294029235840e-01 -3.171814203262329102e+00
1.830000000000000000e+03 1.886699485778808594e+01 3.439529037475585938e+01 4.604521021246910095e-02 5.491055846214294434e-01 1.785452365875244141e-01 -2.168648242950439453e-01
1.831000000000000000e+03 1.851436042785644531e+01 3.248523330688476562e+01 5.015127360820770264e-02 3.294622898101806641e-01 1.138840690255165100e-01 -1.530695557594299316e-01
1.832000000000000000e+03 6.549947261810302734e+00 3.433294677734375000e+01 2.203491628170013428e-01 -2.124046981334686279e-01 2.383338054642081261e-03 2.085085771977901459e-02
1.833000000000000000e+03 7.354019927978515625e+01 -1.422587966918945312e+01 -7.971976399421691895e-01 3.988020658493041992e+00 9.572468996047973633e-01 4.089736938476562500e-01
1.834000000000000000e+03 2.034053039550781250e+01 1.287917518615722656e+01 -1.993650756776332855e-02 6.416213512420654297e-01 1.865054517984390259e-01 -1.602152129635214806e-03
1.835000000000000000e+03 2.330021858215332031e+01 1.581620693206787109e+01 -1.719091981649398804e-01 1.009501218795776367e+00 2.512775957584381104e-01 -1.871700584888458252e-01
1.836000000000000000e+03 2.039776229858398438e+01 7.437276840209960938e+00 3.825910687446594238e-01 2.077516913414001465e-01 1.771028339862823486e-01 1.478073894977569580e-01
1.837000000000000000e+03 1.740096473693847656e+01 3.444796371459960938e+01 3.647390380501747131e-02 2.358593940734863281e-01 8.169998973608016968e-02 -1.457836329936981201e-01
1.838000000000000000e+03 6.688758087158203125e+01 -2.657996749877929688e+01 -2.104860305786132812e+00 6.475160121917724609e+00 1.311089873313903809e+00 -2.768183946609497070e+00
1.839000000000000000e+03 1.538082027435302734e+01 3.865247726440429688e+01 1.072786971926689148e-01 2.737299203872680664e-01 1.143025904893875122e-01 -1.899052038788795471e-02
1.840000000000000000e+03 1.477200603485107422e+01 2.009970092773437500e+01 6.436102390289306641e-01 2.370081394910812378e-01 2.641855180263519287e-01 6.947330832481384277e-01
1.841000000000000000e+03 1.658425903320312500e+01 1.847679519653320312e+01 -1.778023093938827515e-01 -1.773570030927658081e-01 -1.065477952361106873e-01 3.494557440280914307e-01
1.842000000000000000e+03 2.267587089538574219e+01 2.873539733886718750e+01 5.712749361991882324e-01 1.117578268051147461e+00 5.066559910774230957e-01 3.883908987045288086e-01
1.843000000000000000e+03 2.115426063537597656e+01 2.938893127441406250e+01 2.466305941343307495e-01 1.129197835922241211e+00 4.127485156059265137e-01 2.212017029523849487e-01
1.844000000000000000e+03 1.699106216430664062e+01 2.302238082885742188e+01 9.609416723251342773e-01 4.004472792148590088e-01 4.084166884422302246e-01 4.640761315822601318e-01
1.845000000000000000e+03 1.436002826690673828e+01 2.295013427734375000e+01 7.562776207923889160e-01 1.382711529731750488e-01 2.683646380901336670e-01 3.473717272281646729e-01
1.846000000000000000e+03 7.800591588020324707e-01 2.897452735900878906e+01 -1.803049445152282715e-02 -1.279175400733947754e+00 -3.891617953777313232e-01 4.600068554282188416e-02
1.847000000000000000e+03 3.856095314025878906e+00 2.867277717590332031e+01 -4.113900288939476013e-02 -8.354176282882690430e-01 -2.629669904708862305e-01 1.224066838622093201e-01
1.848000000000000000e+03 5.018258094787597656e+00 2.773895263671875000e+01 -8.314977586269378662e-02 -7.869026660919189453e-01 -2.610157430171966553e-01 9.227488934993743896e-02
1.849000000000000000e+03 7.807593536376953125e+01 -1.528667640686035156e+01 -2.600014209747314453e-01 9.227935791015625000e+00 2.690380334854125977e+00 7.151713371276855469e-01
1.850000000000000000e+03 7.073171138763427734e+00 3.493569374084472656e+00 -1.341920644044876099e-01 -5.091192945837974548e-02 -5.553119629621505737e-02 -4.191276151686906815e-03
1.851000000000000000e+03 1.308859539031982422e+01 2.167521667480468750e+01 3.964200019836425781e-01 2.368032783269882202e-01 1.899669915437698364e-01 4.551084339618682861e-01
1.852000000000000000e+03 1.162480354309082031e+01 2.263802528381347656e+01 -1.576534099876880646e-02 1.475355587899684906e-02 -3.035356639884412289e-04 1.022819504141807556e-01
1.853000000000000000e+03 7.089375019073486328e+00 2.297119331359863281e+01 -6.969955563545227051e-02 -2.631603181362152100e-01 -9.985796362161636353e-02 7.890004664659500122e-02
1.854000000000000000e+03 1.554723548889160156e+01 1.924643898010253906e+01 3.703638613224029541e-01 -3.665789589285850525e-02 1.001117900013923645e-01 4.945254325866699219e-01
1.855000000000000000e+03 1.772855377197265625e+01 1.784356307983398438e+01 -5.905824303627014160e-01 -2.970423698425292969e-01 -2.662874460220336914e-01 4.156486988067626953e-01
1.856000000000000000e+03 1.533190631866455078e+01 2.082154846191406250e+01 5.868834257125854492e-01 1.484602838754653931e-01 2.206031084060668945e-01 6.244696378707885742e-01
1.857000000000000000e+03 7.096135711669921875e+01 -1.485133647918701172e+01 -2.159144431352615356e-01 1.256874561309814453e+00 3.122880160808563232e-01 -1.872413158416748047e+00
1.858000000000000000e+03 6.873328399658203125e+01 -1.428018283843994141e+01 -5.877985358238220215e-01 4.744910299777984619e-01 -3.399225696921348572e-02 -1.903144955635070801e+00
1.859000000000000000e+03 3.732519149780273438e+01 3.388503646850585938e+01 -6.502765417098999023e-01 1.414464831352233887e+00 2.292564660310745239e-01 5.785673260688781738e-01
1.860000000000000000e+03 3.103699874877929688e+01 2.832938385009765625e+01 1.419558525085449219e+00 3.348552465438842773e+00 1.430433273315429688e+00 -1.624712944030761719e+00
1.861000000000000000e+03 6.312542724609375000e+01 -2.430517005920410156e+01 1.214027523994445801e+00 5.669643878936767578e+00 2.065101385116577148e+00 -2.348026514053344727e+00
1.862000000000000000e+03 6.580918121337890625e+01 -2.659929466247558594e+01 -1.516278624534606934e+00 8.306314468383789062e+00 2.037010908126831055e+00 -2.966440916061401367e+00
1.863000000000000000e+03 3.640134429931640625e+01 2.176374244689941406e+01 -2.247378975152969360e-01 4.446153163909912109e+00 1.266424536705017090e+00 -2.341835737228393555e+00
1.864000000000000000e+03 7.735494232177734375e+01 -2.438302803039550781e+01 3.655838668346405029e-01 8.014803886413574219e+00 2.514116287231445312e+00 -5.349699854850769043e-01
1.865000000000000000e+03 7.553171539306640625e+01 -2.431664276123046875e+01 9.653823375701904297e-01 8.966445922851562500e+00 2.979548454284667969e+00 -1.797969043254852295e-01
1.866000000000000000e+03 5.384325790405273438e+01 -2.481699943542480469e+01 -2.281695842742919922e+00 3.612254381179809570e+00 3.991675674915313721e-01 1.833080887794494629e+00
1.867000000000000000e+03 6.544357299804687500e+01 -4.987641811370849609e+00 1.018011331558227539e+00 1.037215614318847656e+01 3.417050361633300781e+00 1.714370131492614746e+00
1.868000000000000000e+03 6.599167633056640625e+01 -3.721788883209228516e+00 1.936146378517150879e+00 6.821691513061523438e+00 2.627351284027099609e+00 2.750637054443359375e+00
1.869000000000000000e+03 4.580432128906250000e+01 9.157005310058593750e+00 7.816962599754333496e-01 4.479908466339111328e+00 1.578481435775756836e+00 -1.678118228912353516e+00
1.870000000000000000e+03 4.477249526977539062e+01 1.103395748138427734e+01 8.384566903114318848e-01 1.019990825653076172e+01 3.311509370803833008e+00 -1.229375243186950684e+00
1.871000000000000000e+03 5.534883880615234375e+01 3.817643880844116211e+00 -2.381247580051422119e-01 5.187083244323730469e+00 1.484687447547912598e+00 1.091577172279357910e+00
1.872000000000000000e+03 7.111502075195312500e+01 -8.961979150772094727e-01 -2.009619474411010742e+00 -4.243506118655204773e-02 -6.156163811683654785e-01 1.717175543308258057e-01
1.873000000000000000e+03 3.591999816894531250e+01 3.533462524414062500e+01 -1.395165681838989258e+00 2.719897747039794922e+00 3.974196016788482666e-01 4.001352190971374512e-01
1.874000000000000000e+03 7.274459075927734375e+01 -3.500289022922515869e-01 -7.270836234092712402e-01 3.122208118438720703e+00 7.185373306274414062e-01 -1.125523209571838379e+00
1.875000000000000000e+03 6.912593078613281250e+01 7.655504345893859863e-01 3.654695749282836914e-01 1.572605729103088379e+00 5.814225673675537109e-01 1.764141321182250977e+00
1.876000000000000000e+03 6.287216567993164062e+01 -3.834829711914062500e+01 -2.836591720581054688e+00 1.224766448140144348e-01 -8.142345547676086426e-01 -5.307765007019042969e-01
1.877000000000000000e+03 5.349561309814453125e+01 2.859606742858886719e+00 -3.269284665584564209e-01 4.485599517822265625e+00 1.247601270675659180e+00 2.345118522644042969e+00
1.878000000000000000e+03 5.405397415161132812e+01 5.457104682922363281e+00 1.740604192018508911e-01 6.727171421051025391e+00 2.070369482040405273e+00 2.211023569107055664e+00
1.879000000000000000e+03 7.925742340087890625e+01 3.629474639892578125e+01 -2.015296369791030884e-02 7.265983104705810547e+00 2.173749208450317383e+00 4.041698947548866272e-02
1.880000000000000000e+03 7.938258361816406250e+01 -2.091097831726074219e+01 7.433112245053052902e-03 6.969848155975341797e+00 2.093184471130371094e+00 2.240097075700759888e-01
1.881000000000000000e+03 7.671420288085937500e+01 -2.866565513610839844e+01 -4.459162354469299316e-01 7.800460815429687500e+00 2.206363439559936523e+00 8.715553581714630127e-02
1.882000000000000000e+03 7.941527557373046875e+01 -2.775745964050292969e+01 -3.610633313655853271e-02 8.083330154418945312e+00 2.414167165756225586e+00 -1.065696775913238525e-01
1.883000000000000000e+03 7.699229431152343750e+01 -3.782875823974609375e+01 -3.349879011511802673e-02 7.739474296569824219e+00 2.311792612075805664e+00 -2.089610397815704346e-01
1.884000000000000000e+03 7.932505798339843750e+01 -3.464310836791992188e+01 -2.837930619716644287e-02 8.076771736145019531e+00 2.414517879486083984e+00 -1.976370345801115036e-03
1.885000000000000000e+03 7.935715484619140625e+01 -3.050782203674316406e+01 2.541844034567475319e-03 8.186237335205078125e+00 2.456633567810058594e+00 3.366329474374651909e-03
1.886000000000000000e+03 7.801483154296875000e+01 -3.291781997680664062e+01 7.964228279888629913e-03 7.758872032165527344e+00 2.330050945281982422e+00 3.466399759054183960e-02
1.887000000000000000e+03 7.454350280761718750e+01 -3.737009048461914062e+01 3.449503704905509949e-02 7.006864070892333984e+00 2.112407684326171875e+00 -5.476213693618774414e-01
1.888000000000000000e+03 7.610308837890625000e+01 -3.898018264770507812e+01 -4.801123961806297302e-02 7.730306625366210938e+00 2.304688692092895508e+00 -3.729417920112609863e-01
1.889000000000000000e+03 7.829827880859375000e+01 1.553223991394042969e+01 3.336768597364425659e-02 6.362552642822265625e+00 1.918776154518127441e+00 6.260527372360229492e-01
1.890000000000000000e+03 7.943206024169921875e+01 1.539272212982177734e+01 8.755821734666824341e-03 5.707714557647705078e+00 1.714941143989562988e+00 2.485224753618240356e-01
1.891000000000000000e+03 7.943405914306640625e+01 2.229806518554687500e+01 -4.505963250994682312e-02 7.800317287445068359e+00 2.326577186584472656e+00 1.804515905678272247e-02
1.892000000000000000e+03 7.762505340576171875e+01 3.194763946533203125e+01 5.565353482961654663e-02 6.794659614562988281e+00 2.055094003677368164e+00 5.147122219204902649e-02
1.893000000000000000e+03 7.810713958740234375e+01 2.770718765258789062e+01 6.461285054683685303e-02 6.991420745849609375e+00 2.116810083389282227e+00 -1.724568158388137817e-01
1.894000000000000000e+03 7.936303710937500000e+01 2.782808494567871094e+01 -1.940791495144367218e-03 7.259206771850585938e+00 2.177179813385009766e+00 -6.180547922849655151e-02
1.895000000000000000e+03 7.823554992675781250e+01 2.498895072937011719e+01 -1.090403832495212555e-02 7.260082721710205078e+00 2.174753427505493164e+00 -1.906426995992660522e-01
1.896000000000000000e+03 7.826581573486328125e+01 2.363742828369140625e+01 -1.038000583648681641e-01 7.369368076324462891e+00 2.179670333862304688e+00 -1.137099862098693848e-01
1.897000000000000000e+03 7.251232147216796875e+01 1.571796131134033203e+01 8.336817026138305664e-01 9.304677963256835938e+00 3.041507959365844727e+00 -4.319540858268737793e-01
1.898000000000000000e+03 7.735314941406250000e+01 1.832388496398925781e+01 -1.837559789419174194e-01 7.182035446166992188e+00 2.099483966827392578e+00 7.280933856964111328e-01
1.899000000000000000e+03 7.401316070556640625e+01 8.924085617065429688e+00 6.543563604354858398e-01 8.034043312072753906e+00 2.606519699096679688e+00 -3.530496358871459961e-01
1.900000000000000000e+03 7.788086700439453125e+01 8.657364845275878906e+00 7.781683653593063354e-02 6.666900634765625000e+00 2.023415088653564453e+00 -7.921001315116882324e-01
1.901000000000000000e+03 7.934740447998046875e+01 9.849001884460449219e+00 6.177341565489768982e-02 5.534088134765625000e+00 1.678758382797241211e+00 -2.603463232517242432e-01
1.902000000000000000e+03 7.483455657958984375e+01 -1.669934082031250000e+01 -4.099595248699188232e-01 7.468435287475585938e+00 2.117542743682861328e+00 5.209518671035766602e-01
1.903000000000000000e+03 7.935935974121093750e+01 -1.389922237396240234e+01 -1.106984019279479980e-01 1.072829914093017578e+01 3.185280323028564453e+00 6.707213073968887329e-02
1.904000000000000000e+03 7.938374328613281250e+01 -1.950617408752441406e+01 1.235526502132415771e-01 7.626552104949951172e+00 2.325031518936157227e+00 3.700548708438873291e-01
1.905000000000000000e+03 7.705413055419921875e+01 -2.229419136047363281e+01 7.189669609069824219e-01 8.325594902038574219e+00 2.713368654251098633e+00 1.681986004114151001e-01
1.906000000000000000e+03 7.931697082519531250e+01 -6.971808433532714844e+00 2.456444650888442993e-01 7.339849948883056641e+00 2.275648355484008789e+00 -2.144704908132553101e-01
1.907000000000000000e+03 7.932725524902343750e+01 -5.543607711791992188e+00 1.367668360471725464e-01 7.306274414062500000e+00 2.232912302017211914e+00 1.840388029813766479e-01
1.908000000000000000e+03 7.812257385253906250e+01 1.282219737768173218e-01 -2.943553924560546875e-01 8.447289466857910156e+00 2.445880174636840820e+00 -3.640853567048907280e-03
1.909000000000000000e+03 7.937211608886718750e+01 1.455507040023803711e+00 -1.194672062993049622e-01 9.034127235412597656e+00 2.674397945404052734e+00 -9.018424153327941895e-02
1.910000000000000000e+03 7.797589111328125000e+01 2.909335899353027344e+01 5.306327715516090393e-02 6.878726482391357422e+00 2.079536914825439453e+00 -1.072855144739151001e-01
1.911000000000000000e+03 7.883850097656250000e+01 4.003137588500976562e+01 -1.451728865504264832e-02 7.306309700012207031e+00 2.187537670135498047e+00 -2.411804907023906708e-02
1.912000000000000000e+03 7.809630584716796875e+01 1.135953235626220703e+01 3.350114822387695312e-01 6.121063709259033203e+00 1.936822533607482910e+00 -1.851438730955123901e-01
1.913000000000000000e+03 7.808326721191406250e+01 2.975201845169067383e+00 -1.956336349248886108e-01 7.967459678649902344e+00 2.331547737121582031e+00 -5.162029862403869629e-01
1.914000000000000000e+03 7.516390228271484375e+01 -3.022198200225830078e+00 -1.074761003255844116e-01 8.811213493347167969e+00 2.611121177673339844e+00 -9.087562561035156250e-01
1.915000000000000000e+03 7.589121246337890625e+01 4.004084765911102295e-01 -7.754333019256591797e-01 7.188856601715087891e+00 1.924026966094970703e+00 -6.239556074142456055e-01
1.916000000000000000e+03 7.560465240478515625e+01 -5.392119884490966797e+00 1.398429751396179199e+00 1.245860099792480469e+01 4.157109260559082031e+00 -1.514515757560729980e+00
1.917000000000000000e+03 7.816331481933593750e+01 -1.240702915191650391e+01 -4.555065631866455078e-01 9.726716995239257812e+00 2.781363248825073242e+00 -4.752874672412872314e-01
1.918000000000000000e+03 7.512636566162109375e+01 -1.455791378021240234e+01 -9.438000321388244629e-01 6.753456592559814453e+00 1.742896914482116699e+00 8.252424597740173340e-01
1.919000000000000000e+03 7.591264343261718750e+01 -1.801950263977050781e+01 1.202586293220520020e-01 8.389126777648925781e+00 2.552815437316894531e+00 1.082791566848754883e+00
1.920000000000000000e+03 7.814253234863281250e+01 -1.949084091186523438e+01 1.285255104303359985e-01 8.168997764587402344e+00 2.489257097244262695e+00 8.616659045219421387e-01
1.921000000000000000e+03 7.791601562500000000e+01 -8.524251937866210938e+00 5.126538872718811035e-01 9.290164947509765625e+00 2.940845727920532227e+00 -1.155892968177795410e+00
1.922000000000000000e+03 7.811364746093750000e+01 -9.921257019042968750e+00 -2.121740877628326416e-01 9.571253776550292969e+00 2.807723760604858398e+00 -1.327304005622863770e+00
1.923000000000000000e+03 5.470333862304687500e+01 -3.295829010009765625e+01 2.453523635864257812e+00 8.015093803405761719e+00 3.140585422515869141e+00 4.577547311782836914e-01
1.924000000000000000e+03 5.548796463012695312e+01 -2.985649108886718750e+01 1.111394166946411133e+00 7.647090911865234375e+00 2.627545595169067383e+00 1.567243814468383789e+00
1.925000000000000000e+03 5.663646697998046875e+01 -3.050687217712402344e+01 1.895998716354370117e+00 1.019027233123779297e+01 3.625881195068359375e+00 3.488474369049072266e+00
1.926000000000000000e+03 4.450147628784179688e+01 2.232497215270996094e+01 -9.327515959739685059e-01 5.318109989166259766e+00 1.315607547760009766e+00 2.470887422561645508e+00
1.927000000000000000e+03 2.178755187988281250e+01 8.687211036682128906e+00 4.473257362842559814e-01 1.761393845081329346e-01 1.870395392179489136e-01 2.527098357677459717e-02
1.928000000000000000e+03 2.429498863220214844e+01 1.533401203155517578e+01 2.533021010458469391e-02 7.966963648796081543e-01 2.466079741716384888e-01 -3.319809734821319580e-01
1.929000000000000000e+03 3.958516311645507812e+01 3.779176330566406250e+01 -3.667272031307220459e-01 1.180460453033447266e+00 2.441199868917465210e-01 8.664357662200927734e-02
1.930000000000000000e+03 7.479975891113281250e+01 -4.760587215423583984e+00 1.373352169990539551e+00 1.232044124603271484e+01 4.108138084411621094e+00 -2.886114358901977539e+00
1.931000000000000000e+03 2.127870750427246094e+01 1.720703887939453125e+01 -1.232681050896644592e-01 1.025823593139648438e+00 2.707666456699371338e-01 -8.543895930051803589e-02
1.932000000000000000e+03 5.934368515014648438e+01 1.252066421508789062e+01 1.288464426994323730e+00 8.793128013610839844e+00 3.024477720260620117e+00 7.786177992820739746e-01
1.933000000000000000e+03 7.539468383789062500e+01 -6.656599521636962891e+00 6.960616111755371094e-01 1.441902065277099609e+01 4.534524917602539062e+00 -1.103449106216430664e+00
1.934000000000000000e+03 6.444723510742187500e+01 -4.508852481842041016e+00 1.714452981948852539e+00 9.096601486206054688e+00 3.243316411972045898e+00 1.698975414037704468e-01
1.935000000000000000e+03 5.715113067626953125e+01 -3.639533233642578125e+01 1.018491744995117188e+00 4.872015476226806641e+00 1.767152190208435059e+00 -2.306776762008666992e+00
1.936000000000000000e+03 6.556699371337890625e+01 -1.102851390838623047e+01 -1.096639707684516907e-01 6.329492568969726562e+00 1.865948557853698730e+00 -1.207777976989746094e+00
1.937000000000000000e+03 6.604711914062500000e+01 -9.434070587158203125e+00 1.934311985969543457e+00 7.077639579772949219e+00 2.703585386276245117e+00 -3.338383197784423828e+00
1.938000000000000000e+03 8.125097274780273438e+00 1.309099864959716797e+01 1.826315373182296753e-01 -1.768965274095535278e-01 1.720502390526235104e-03 5.988808870315551758e-01
1.939000000000000000e+03 9.084796905517578125e+00 1.666569328308105469e+01 6.853924393653869629e-01 1.444150656461715698e-01 2.489422559738159180e-01 3.798092305660247803e-01
1.940000000000000000e+03 2.195186424255371094e+01 1.512266063690185547e+01 -2.676768898963928223e-01 8.196043372154235840e-01 1.655782312154769897e-01 6.636972725391387939e-02
1.941000000000000000e+03 5.056548690795898438e+01 2.943599510192871094e+01 1.710213541984558105e+00 6.508507728576660156e+00 2.465616226196289062e+00 7.047663331031799316e-01
1.942000000000000000e+03 1.390906238555908203e+01 4.117787837982177734e+00 -5.886784791946411133e-01 -1.100036278367042542e-01 -2.096046209335327148e-01 6.345345973968505859e-01
1.943000000000000000e+03 1.597546863555908203e+01 3.857614755630493164e+00 -8.672195672988891602e-01 7.246880978345870972e-02 -2.384252399206161499e-01 7.317951917648315430e-01
1.944000000000000000e+03 1.005768108367919922e+01 7.914445877075195312e+00 -6.720386743545532227e-01 -5.067749023437500000e-01 -3.536440730094909668e-01 4.537681341171264648e-01
1.945000000000000000e+03 7.821836948394775391e+00 2.731836080551147461e+00 -7.134404778480529785e-02 -5.048779770731925964e-02 -3.654955327510833740e-02 -6.231908220797777176e-03
1.946000000000000000e+03 7.300572967529296875e+01 -1.312805175781250000e+01 -1.123478174209594727e+00 2.066761493682861328e+00 2.829850018024444580e-01 1.385691016912460327e-01
1.947000000000000000e+03 4.432295989990234375e+01 3.205563354492187500e+01 5.524210333824157715e-01 2.605574607849121094e+00 9.473987221717834473e-01 -1.413574576377868652e+00
1.948000000000000000e+03 3.415209960937500000e+01 2.864289474487304688e+01 1.084076046943664551e+00 6.970066070556640625e+00 2.416242599487304688e+00 -8.358694911003112793e-01
1.949000000000000000e+03 3.571650314331054688e+01 3.083800506591796875e+01 5.468788743019104004e-01 5.550227165222167969e+00 1.829131841659545898e+00 1.583998560905456543e+00
1.950000000000000000e+03 5.475591659545898438e+01 1.185214710235595703e+01 5.026696920394897461e-01 1.076931667327880859e+01 3.381595849990844727e+00 -4.441157877445220947e-01
1.951000000000000000e+03 5.567262649536132812e+01 1.563040924072265625e+01 1.154304265975952148e+00 6.064121246337890625e+00 2.165527582168579102e+00 -4.556165337562561035e-01
1.952000000000000000e+03 4.550001907348632812e+01 3.340499877929687500e+01 -5.501148700714111328e-01 4.671453475952148438e+00 1.236401557922363281e+00 -1.078091502189636230e+00
1.953000000000000000e+03 5.721633911132812500e+01 -2.726562309265136719e+01 -2.427786350250244141e+00 6.969640731811523438e+00 1.362556338310241699e+00 1.725638270378112793e+00
1.954000000000000000e+03 4.684694290161132812e+01 1.980992126464843750e+01 -2.226661682128906250e+00 6.472477436065673828e+00 1.273744702339172363e+00 3.655613183975219727e+00
1.955000000000000000e+03 4.596193313598632812e+01 1.914905548095703125e+01 -2.641022920608520508e+00 7.478450775146484375e+00 1.451228260993957520e+00 2.881983280181884766e+00
1.956000000000000000e+03 5.784202575683593750e+01 1.203445720672607422e+01 1.634524822235107422e+00 8.411744117736816406e+00 3.013880729675292969e+00 1.273814558982849121e+00
1.957000000000000000e+03 5.180534744262695312e+01 1.711149406433105469e+01 1.619316935539245605e-01 1.768335461616516113e+00 5.790801644325256348e-01 -1.062697649002075195e+00
1.958000000000000000e+03 6.658541107177734375e+01 -3.983064270019531250e+01 -1.810568332672119141e+00 4.740346908569335938e+00 8.789335489273071289e-01 -4.749522730708122253e-02
1.959000000000000000e+03 5.029228210449218750e+01 -3.143045997619628906e+01 2.564999818801879883e+00 6.666934967041015625e+00 2.769580364227294922e+00 -1.217086553573608398e+00
1.960000000000000000e+03 6.691249084472656250e+01 -3.302323913574218750e+01 9.538183808326721191e-01 8.632847785949707031e+00 2.875999689102172852e+00 -1.452148437500000000e+00
1.961000000000000000e+03 6.711782073974609375e+01 -3.057742309570312500e+01 2.988583087921142578e+00 6.832893848419189453e+00 2.946443080902099609e+00 -2.404844284057617188e+00
1.962000000000000000e+03 6.268650436401367188e+01 -7.577983856201171875e+00 1.804988503456115723e+00 8.929709434509277344e+00 3.220409393310546875e+00 -2.503843903541564941e-01
1.963000000000000000e+03 6.451787567138671875e+01 -7.332284927368164062e+00 1.678092241287231445e+00 1.094605827331542969e+01 3.787245035171508789e+00 -1.159119367599487305e+00
1.964000000000000000e+03 4.461875915527343750e+01 1.243519973754882812e+01 7.511329650878906250e-01 1.317890167236328125e+01 4.179010391235351562e+00 1.080089062452316284e-01
1.965000000000000000e+03 3.873228454589843750e+01 9.727985382080078125e+00 1.917287468910217285e+00 8.885570526123046875e+00 3.240857362747192383e+00 -3.196708679199218750e+00
1.966000000000000000e+03 3.416390228271484375e+01 3.363819885253906250e+01 -7.904559373855590820e-01 3.882734298706054688e+00 9.276834726333618164e-01 -2.038520425558090210e-01
1.967000000000000000e+03 2.928333473205566406e+01 3.072275352478027344e+01 1.053377270698547363e+00 2.297042369842529297e+00 1.005125880241394043e+00 -1.243844866752624512e+00
1.968000000000000000e+03 1.359129428863525391e+01 -1.314920806884765625e+01 1.140943020582199097e-01 2.318013310432434082e-01 1.037686914205551147e-01 -1.508000940084457397e-01
1.969000000000000000e+03 7.800193023681640625e+01 -3.948698282241821289e+00 1.197147890925407410e-01 8.758090972900390625e+00 2.663341760635375977e+00 6.574134230613708496e-01
1.970000000000000000e+03 4.388859558105468750e+01 1.527873420715332031e+01 2.147421121597290039e+00 9.804062843322753906e+00 3.585445165634155273e+00 1.960833549499511719e+00
1.971000000000000000e+03 6.661875152587890625e+01 -8.988677263259887695e-01 7.117281556129455566e-01 3.820737600326538086e+00 1.359739661216735840e+00 1.887042403221130371e+00
1.972000000000000000e+03 6.332973861694335938e+01 -2.214849233627319336e+00 1.277819514274597168e+00 7.581824779510498047e+00 2.657893419265747070e+00 -1.943970322608947754e-01
1.973000000000000000e+03 3.515869140625000000e+01 2.830040740966796875e+01 5.059022307395935059e-01 9.363397598266601562e+00 2.960790157318115234e+00 -7.783222477883100510e-03
1.974000000000000000e+03 5.631138610839843750e+01 -2.844269752502441406e+01 -4.163542985916137695e-01 7.519148826599121094e+00 2.130838394165039062e+00 1.985084056854248047e+00
1.975000000000000000e+03 7.798326873779296875e+01 -6.964552402496337891e+00 7.124117016792297363e-01 9.093637466430664062e+00 2.941814661026000977e+00 -3.198615312576293945e-01
1.976000000000000000e+03 7.442592620849609375e+01 -1.723731994628906250e+00 -6.558282971382141113e-01 6.471520423889160156e+00 1.744707584381103516e+00 -1.131693482398986816e+00
1.977000000000000000e+03 7.347967529296875000e+01 -2.351952314376831055e+00 5.929044485092163086e-01 4.385133266448974609e+00 1.493411302566528320e+00 -1.621250271797180176e+00
1.978000000000000000e+03 6.716532897949218750e+01 -3.401092529296875000e+01 8.924783468246459961e-01 7.200814247131347656e+00 2.427987813949584961e+00 -1.230224967002868652e+00
1.979000000000000000e+03 7.196948242187500000e+01 -2.970091247558593750e+01 8.390577435493469238e-01 3.891366958618164062e+00 1.419127464294433594e+00 8.918457031250000000e-01
1.980000000000000000e+03 6.413583374023437500e+01 -2.640287017822265625e+01 -1.736550688743591309e+00 8.030604362487792969e+00 1.888216137886047363e+00 -2.888589859008789062e+00
1.981000000000000000e+03 3.515322875976562500e+01 2.217664909362792969e+01 -4.420491307973861694e-02 5.397780895233154297e+00 1.606072783470153809e+00 -1.759154081344604492e+00
1.982000000000000000e+03 3.605277252197265625e+01 2.281015205383300781e+01 1.413944959640502930e-01 5.226702690124511719e+00 1.610429167747497559e+00 -2.127220869064331055e+00
1.983000000000000000e+03 4.660015869140625000e+01 3.244062805175781250e+01 -2.195139527320861816e-01 5.533984184265136719e+00 1.594341158866882324e+00 -5.022366046905517578e-01
1.984000000000000000e+03 6.737046813964843750e+01 -1.167017459869384766e+01 7.906681895256042480e-01 2.855710983276367188e+00 1.093913793563842773e+00 -1.439477086067199707e+00
1.985000000000000000e+03 7.081221771240234375e+01 -1.349007606506347656e+01 -3.762953579425811768e-01 3.050935566425323486e-01 -2.136053703725337982e-02 -1.664842605590820312e+00
1.986000000000000000e+03 4.357366180419921875e+01 1.648058128356933594e+01 1.740581750869750977e+00 7.846058845520019531e+00 2.875992298126220703e+00 1.436826229095458984e+00
1.987000000000000000e+03 4.450009536743164062e+01 1.710390090942382812e+01 1.524811863899230957e+00 8.634124755859375000e+00 3.047681093215942383e+00 1.974356532096862793e+00
1.988000000000000000e+03 5.252536392211914062e+01 1.817684745788574219e+01 -7.919241786003112793e-01 3.243650913238525391e+00 7.355180382728576660e-01 -1.548617482185363770e+00
1.989000000000000000e+03 5.358056259155273438e+01 1.723248481750488281e+01 -4.255270585417747498e-02 4.177371025085449219e+00 1.240445494651794434e+00 -1.838178992271423340e+00
1.990000000000000000e+03 5.591881942749023438e+01 1.050753116607666016e+01 1.302307724952697754e+00 1.029426097869873047e+01 3.478970766067504883e+00 1.443782448768615723e+00
1.991000000000000000e+03 5.891484832763671875e+01 1.135312652587890625e+01 1.251179337501525879e+00 8.029478073120117188e+00 2.784197330474853516e+00 7.037234306335449219e-01
1.992000000000000000e+03 5.252004623413085938e+00 -1.734862518310546875e+01 -5.126665905117988586e-02 -1.801832914352416992e-01 -6.943498551845550537e-02 -1.414255648851394653e-01
1.993000000000000000e+03 5.759477138519287109e+00 -1.605644798278808594e+01 -1.191071271896362305e-01 -2.554070353507995605e-01 -1.123542413115501404e-01 -1.396262198686599731e-01
1.994000000000000000e+03 1.553071308135986328e+01 -1.573039817810058594e+01 1.807305067777633667e-01 5.050436258316040039e-01 2.057322412729263306e-01 -2.487802207469940186e-01
1.995000000000000000e+03 1.581194782257080078e+01 -1.693975639343261719e+01 4.484963044524192810e-02 3.668966591358184814e-01 1.235238909721374512e-01 -1.751282364130020142e-01
1.996000000000000000e+03 4.512824249267578125e+01 -1.685794258117675781e+01 -1.045333027839660645e+00 5.016059875488281250e+00 1.191218018531799316e+00 1.436513066291809082e+00
1.997000000000000000e+03 1.747581672668457031e+01 -1.146696758270263672e+01 -1.320043355226516724e-01 2.326041013002395630e-01 3.017993271350860596e-02 -6.495311390608549118e-03
1.998000000000000000e+03 1.450765705108642578e+01 -1.409506607055664062e+01 1.703756898641586304e-01 3.705425858497619629e-01 1.622754782438278198e-01 -2.595322132110595703e-01
1.999000000000000000e+03 5.538578414916992188e+01 -1.931231498718261719e+01 1.315083980560302734e+00 1.073766136169433594e+01 3.615823507308959961e+00 -2.009871006011962891e+00
2.000000000000000000e+03 5.631038665771484375e+01 -1.700768280029296875e+01 5.222455263137817383e-01 6.632498741149902344e+00 2.146423339843750000e+00 -7.223004698753356934e-01
2.001000000000000000e+03 5.067082977294921875e+01 -2.525655937194824219e+01 -4.907244682312011719e+00 2.772621810436248779e-01 -1.388994812965393066e+00 -4.082829356193542480e-01
2.002000000000000000e+03 8.729536056518554688e+00 -2.948942947387695312e+01 2.829790711402893066e-01 2.710627019405364990e-01 1.662125289440155029e-01 9.976959973573684692e-02
2.003000000000000000e+03 5.190538406372070312e+01 -2.538237571716308594e+01 -5.482039451599121094e+00 2.990470528602600098e-01 -1.554897785186767578e+00 8.599755167961120605e-02
2.004000000000000000e+03 5.348206329345703125e+01 -1.475160694122314453e+01 -1.248976111412048340e+00 3.820458173751831055e+00 7.714446187019348145e-01 -3.906002044677734375e+00
2.005000000000000000e+03 5.340661239624023438e+01 -1.654392814636230469e+01 -1.568266034126281738e+00 2.419496059417724609e+00 2.553689777851104736e-01 -1.974743247032165527e+00
2.006000000000000000e+03 1.575093078613281250e+01 -2.216453361511230469e+01 2.316032052040100098e-01 2.870312035083770752e-01 1.555903255939483643e-01 3.210137784481048584e-01
2.007000000000000000e+03 1.438415050506591797e+01 -2.646518516540527344e+01 3.884387016296386719e-01 6.373893618583679199e-01 3.077484071254730225e-01 4.094796776771545410e-01
2.008000000000000000e+03 6.129955649375915527e-01 -2.612182235717773438e+01 -3.735356032848358154e-03 -7.160828709602355957e-01 -2.159454673528671265e-01 2.503047697246074677e-03
2.009000000000000000e+03 6.480981826782226562e+00 -2.309176635742187500e+01 1.667391955852508545e-01 1.864545047283172607e-01 1.059581041336059570e-01 -1.621251404285430908e-01
2.010000000000000000e+03 1.426460170745849609e+01 -2.384020996093750000e+01 1.950450986623764038e-01 4.244492053985595703e-01 1.858482956886291504e-01 3.380023241043090820e-01
2.011000000000000000e+03 1.298587989807128906e+01 -2.322595596313476562e+01 4.194831103086471558e-02 1.848079264163970947e-01 6.802687048912048340e-02 1.621702611446380615e-01
2.012000000000000000e+03 1.872881650924682617e+00 -1.602937316894531250e+01 -3.379873186349868774e-02 -2.192979454994201660e-01 -7.592900097370147705e-02 -9.786080569028854370e-02
2.013000000000000000e+03 6.196790337562561035e-01 -1.623954391479492188e+01 -2.298401854932308197e-02 -2.503761947154998779e-01 -8.200806379318237305e-02 -4.669459909200668335e-02
2.014000000000000000e+03 1.776434516906738281e+01 -1.856438827514648438e+01 3.457334339618682861e-01 1.683207005262374878e-01 1.542162448167800903e-01 -7.064406573772430420e-02
2.015000000000000000e+03 4.074322509765625000e+01 -2.088820457458496094e+01 1.077901363372802734e+00 3.986896514892578125e+00 1.519439339637756348e+00 -1.254352629184722900e-01
2.016000000000000000e+03 4.706488418579101562e+01 -2.668814849853515625e+01 -1.560666799545288086e+00 3.813804149627685547e+00 6.759411692619323730e-01 -2.712030410766601562e+00
2.017000000000000000e+03 5.534031677246093750e+01 -2.199815559387207031e+01 1.326176166534423828e+00 1.319025897979736328e+01 4.354930400848388672e+00 1.845827937126159668e+00
2.018000000000000000e+03 5.685403060913085938e+01 -1.968986129760742188e+01 2.085834264755249023e+00 7.682149887084960938e+00 2.930395364761352539e+00 -2.481093108654022217e-01
2.019000000000000000e+03 5.517617034912109375e+01 -2.766318321228027344e+01 -1.727394700050354004e+00 7.018684864044189453e+00 1.587386965751647949e+00 1.572689175605773926e+00
2.020000000000000000e+03 1.437333941459655762e+00 -4.004512405395507812e+01 2.219231985509395599e-02 -8.735512942075729370e-02 -1.954884454607963562e-02 7.293289154767990112e-02
2.021000000000000000e+03 6.978070139884948730e-01 3.748844146728515625e+01 2.355735562741756439e-02 -1.397180557250976562e+00 -4.120869636535644531e-01 -3.822780027985572815e-02
2.022000000000000000e+03 2.377114057540893555e+00 3.616771697998046875e+01 3.430367633700370789e-02 -1.113598585128784180e+00 -3.237884938716888428e-01 -7.352511584758758545e-02
2.023000000000000000e+03 7.216594815254211426e-01 3.469478988647460938e+01 7.100609131157398224e-03 -1.477274417877197266e+00 -4.410521388053894043e-01 -1.419164706021547318e-02
2.024000000000000000e+03 8.054073452949523926e-01 2.748597717285156250e+01 -3.963997587561607361e-03 -1.216701745986938477e+00 -3.661997020244598389e-01 2.622213214635848999e-02
2.025000000000000000e+03 6.700265407562255859e-01 2.606968498229980469e+01 -1.849024370312690735e-02 -1.176823735237121582e+00 -3.585942089557647705e-01 7.682263385504484177e-03
2.026000000000000000e+03 7.992712259292602539e-01 -3.589469146728515625e+01 -6.055857520550489426e-03 -3.570546209812164307e-01 -1.089331433176994324e-01 4.774420708417892456e-02
2.027000000000000000e+03 2.078726768493652344e+00 -3.268700027465820312e+01 2.584039047360420227e-02 -3.808791339397430420e-01 -1.065116152167320251e-01 9.479894489049911499e-02
2.028000000000000000e+03 5.926597118377685547e-01 2.328353691101074219e+01 -6.842467002570629120e-03 -1.191171288490295410e+00 -3.594041466712951660e-01 -5.335312802344560623e-03
2.029000000000000000e+03 2.314882516860961914e+00 2.687483024597167969e+01 -4.542871564626693726e-02 -1.016683936119079590e+00 -3.186338245868682861e-01 6.345391273498535156e-02
2.030000000000000000e+03 3.929361820220947266e+00 3.120157814025878906e+01 6.516371667385101318e-02 -8.136516213417053223e-01 -2.245463728904724121e-01 1.186242848634719849e-01
2.031000000000000000e+03 5.354949951171875000e+00 3.500949859619140625e+01 1.089841648936271667e-01 -5.093505978584289551e-01 -1.201099231839179993e-01 5.340186413377523422e-03
2.032000000000000000e+03 3.212974071502685547e+00 -2.825201416015625000e+01 3.458513319492340088e-02 -3.200805187225341797e-01 -8.564861863851547241e-02 2.958278730511665344e-02
2.033000000000000000e+03 5.272713184356689453e+00 -2.362079238891601562e+01 4.755312576889991760e-02 3.897140175104141235e-02 2.595735713839530945e-02 -6.942842900753021240e-02
2.034000000000000000e+03 1.677157878875732422e+00 -1.047657680511474609e+01 -1.051067723892629147e-03 -9.901910275220870972e-02 -3.002105094492435455e-02 -1.349238865077495575e-02
2.035000000000000000e+03 6.231769323348999023e-01 -2.329210090637207031e+01 2.336816687602549791e-04 -7.104335427284240723e-01 -2.130599617958068848e-01 -1.004715077579021454e-02
2.036000000000000000e+03 2.558856964111328125e+00 -3.664568710327148438e+01 -9.498960338532924652e-03 -1.817303150892257690e-01 -5.736878141760826111e-02 1.336206644773483276e-01
2.037000000000000000e+03 6.411558389663696289e-01 2.046159553527832031e+01 3.336095251142978668e-03 -1.209691166877746582e+00 -3.619065284729003906e-01 2.633628435432910919e-03
2.038000000000000000e+03 6.455252766609191895e-01 1.903843307495117188e+01 9.965145960450172424e-03 -1.189077377319335938e+00 -3.537336587905883789e-01 1.579773612320423126e-02
2.039000000000000000e+03 5.956582427024841309e-01 1.481501483917236328e+01 7.267186418175697327e-03 -8.650416731834411621e-01 -2.573323547840118408e-01 7.833866029977798462e-02
2.040000000000000000e+03 5.858575105667114258e-01 1.341975784301757812e+01 1.007878337986767292e-03 -6.633411049842834473e-01 -1.986999660730361938e-01 8.906221389770507812e-02
2.041000000000000000e+03 5.149673223495483398e-01 7.788073539733886719e+00 -6.636521779000759125e-03 4.524183273315429688e-02 1.158159319311380386e-02 3.276130929589271545e-02
2.042000000000000000e+03 4.695268869400024414e-01 6.382518768310546875e+00 -8.473907597362995148e-03 1.116762459278106689e-01 3.096070140600204468e-02 1.123719289898872375e-02
2.043000000000000000e+03 6.245214939117431641e-01 -1.764415359497070312e+01 9.347687475383281708e-03 -3.720094263553619385e-01 -1.087985262274742126e-01 -5.700960382819175720e-02
2.044000000000000000e+03 3.794226169586181641e+00 -3.904676055908203125e+01 -6.015337258577346802e-02 -4.906741529703140259e-02 -3.276623785495758057e-02 1.273351609706878662e-01
2.045000000000000000e+03 3.694414377212524414e+00 -3.482031250000000000e+01 1.507502235472202301e-02 -1.589796841144561768e-01 -4.317139834165573120e-02 1.705063432455062866e-01
2.046000000000000000e+03 2.168421506881713867e+00 -3.404292678833007812e+01 8.244399912655353546e-03 -3.256042897701263428e-01 -9.520796686410903931e-02 1.095650196075439453e-01
2.047000000000000000e+03 2.015401363372802734e+00 -3.132240295410156250e+01 1.441865414381027222e-02 -4.342685043811798096e-01 -1.259549558162689209e-01 6.454304605722427368e-02
2.048000000000000000e+03 1.832555651664733887e+00 -2.587727165222167969e+01 3.887940198183059692e-03 -5.189164876937866211e-01 -1.545085757970809937e-01 1.347197918221354485e-03
2.049000000000000000e+03 1.819986104965209961e+00 -2.448571395874023438e+01 9.063983336091041565e-03 -5.083747506141662598e-01 -1.497932225465774536e-01 -6.205660291016101837e-03
2.050000000000000000e+03 1.911851882934570312e+00 -2.163471984863281250e+01 4.343045502901077271e-02 -4.480822384357452393e-01 -1.213955357670783997e-01 -7.444617897272109985e-02
2.051000000000000000e+03 3.167028427124023438e+00 -1.855243110656738281e+01 -8.449762128293514252e-03 -1.686952412128448486e-01 -5.314350128173828125e-02 -2.037066519260406494e-01
2.052000000000000000e+03 6.326104402542114258e-01 -1.905437469482421875e+01 -3.881348064169287682e-03 -4.948313832283020020e-01 -1.496138274669647217e-01 -5.282514542341232300e-02
2.053000000000000000e+03 5.772604346275329590e-01 -1.202885627746582031e+01 2.447703853249549866e-03 -9.351374208927154541e-02 -2.731981128454208374e-02 -5.782346706837415695e-03
2.054000000000000000e+03 3.021704435348510742e+00 -1.305864048004150391e+01 -3.225487843155860901e-02 -1.484678685665130615e-01 -5.421682447195053101e-02 -5.992016941308975220e-02
2.055000000000000000e+03 2.784717321395874023e+00 -7.637655258178710938e+00 5.721824709326028824e-03 -8.001916110515594482e-02 -2.228919975459575653e-02 -3.023931756615638733e-02
2.056000000000000000e+03 3.935760736465454102e+00 -2.945709228515625000e+00 -2.104836329817771912e-02 2.114165341481566429e-03 -5.680259317159652710e-03 -3.108549863100051880e-02
2.057000000000000000e+03 1.461990714073181152e+00 -3.336923122406005859e+00 -2.277988009154796600e-03 -7.873426191508769989e-03 -3.045424353331327438e-03 -1.266010385006666183e-02
2.058000000000000000e+03 4.342924654483795166e-01 4.983158588409423828e+00 -2.108891727402806282e-03 1.208842098712921143e-01 3.563259541988372803e-02 -6.437999196350574493e-03
2.059000000000000000e+03 1.305742979049682617e+00 4.863928318023681641e+00 -1.302528288215398788e-02 6.142866611480712891e-02 1.452101487666368484e-02 -1.393749658018350601e-02
2.060000000000000000e+03 1.714667797088623047e+00 1.045012664794921875e+01 -3.303779661655426025e-02 -2.466437518596649170e-01 -8.390446752309799194e-02 2.096476107835769653e-01
2.061000000000000000e+03 5.700122117996215820e-01 1.060916137695312500e+01 -5.364770535379648209e-03 -2.454946339130401611e-01 -7.525782287120819092e-02 7.622142136096954346e-02
2.062000000000000000e+03 1.769428968429565430e+00 1.323353290557861328e+01 7.292659487575292587e-03 -5.518476963043212891e-01 -1.633665263652801514e-01 2.435146123170852661e-01
2.063000000000000000e+03 1.926023364067077637e+00 2.022672271728515625e+01 3.253221511840820312e-02 -9.905626177787780762e-01 -2.874091267585754395e-01 1.410965528339147568e-02
2.064000000000000000e+03 1.945350289344787598e+00 1.876507568359375000e+01 4.133339598774909973e-02 -9.554000496864318848e-01 -2.742199897766113281e-01 6.467625498771667480e-02
2.065000000000000000e+03 1.775967121124267578e+00 2.435844421386718750e+01 -1.614299230277538300e-02 -1.049600839614868164e+00 -3.197231292724609375e-01 -6.983324419707059860e-04
2.066000000000000000e+03 4.455766296386718750e+01 -1.953781700134277344e+01 2.306841135025024414e+00 4.313820362091064453e+00 1.986198425292968750e+00 7.012012004852294922e-01
2.067000000000000000e+03 5.663108444213867188e+01 -2.090384101867675781e+01 2.135788440704345703e+00 8.957101821899414062e+00 3.327867031097412109e+00 2.136389017105102539e-01
2.068000000000000000e+03 4.670515441894531250e+01 -2.386987304687500000e+01 -1.092875227332115173e-01 5.283977985382080078e+00 1.552407145500183105e+00 -1.319445371627807617e+00
2.069000000000000000e+03 3.933524322509765625e+01 2.081257057189941406e+01 -1.553099513053894043e+00 1.972453832626342773e+00 1.258063167333602905e-01 -2.519811868667602539e+00
2.070000000000000000e+03 4.067105484008789062e+01 1.963228607177734375e+01 -1.756966859102249146e-01 2.068805932998657227e+00 5.679327845573425293e-01 -1.281439661979675293e+00
2.071000000000000000e+03 4.728102493286132812e+01 6.467556476593017578e+00 -4.527984187006950378e-02 1.816125035285949707e+00 5.312535762786865234e-01 -7.836959958076477051e-01
2.072000000000000000e+03 5.970864105224609375e+01 1.653541946411132812e+01 2.184031009674072266e+00 8.701538085937500000e+00 3.265670537948608398e+00 1.879648566246032715e+00
2.073000000000000000e+03 6.756616973876953125e+01 2.068543624877929688e+01 -3.628888845443725586e+00 1.349255740642547607e-01 -1.048189043998718262e+00 -5.771153047680854797e-02
2.074000000000000000e+03 3.352905273437500000e+01 1.307304620742797852e+00 4.729565083980560303e-01 5.659009218215942383e-01 3.116572201251983643e-01 -4.552765786647796631e-01
2.075000000000000000e+03 3.784312820434570312e+01 -7.504380345344543457e-01 1.305209159851074219e+00 6.542250156402587891e+00 2.354237794876098633e+00 5.033648490905761719e+00
2.076000000000000000e+03 3.582580566406250000e+01 -1.545211315155029297e+00 4.146674871444702148e-01 3.348818540573120117e+00 1.129045844078063965e+00 2.718174457550048828e+00
2.077000000000000000e+03 3.529884338378906250e+01 -1.542011141777038574e+00 3.526980876922607422e-01 2.582818984985351562e+00 8.806551098823547363e-01 2.009479522705078125e+00
2.078000000000000000e+03 3.693658447265625000e+01 -1.174455881118774414e+00 8.090693950653076172e-01 4.712658882141113281e+00 1.656518459320068359e+00 4.129213333129882812e+00
2.079000000000000000e+03 3.565306854248046875e+01 -1.351530551910400391e+00 3.982712328433990479e-01 2.957892894744873047e+00 1.006849288940429688e+00 2.320885658264160156e+00
2.080000000000000000e+03 3.620558547973632812e+01 -1.154347181320190430e+00 7.508754134178161621e-01 3.426779031753540039e+00 1.253296375274658203e+00 3.211266517639160156e+00
2.081000000000000000e+03 3.395391464233398438e+01 -3.235382318496704102e+00 4.685353934764862061e-01 2.053933858871459961e+00 7.567408084869384766e-01 1.010171294212341309e+00
2.082000000000000000e+03 3.639729309082031250e+01 -1.909041166305541992e+00 7.525850832462310791e-02 4.801615238189697266e+00 1.463062167167663574e+00 3.350049257278442383e+00
2.083000000000000000e+03 4.067152786254882812e+01 7.766851782798767090e-01 5.015235900878906250e+00 7.804898738861083984e+00 3.846040487289428711e+00 6.035339236259460449e-01
2.084000000000000000e+03 3.878303527832031250e+01 3.652168273925781250e+00 -1.515931487083435059e+00 5.527275562286376953e+00 1.203403234481811523e+00 6.471692323684692383e-01
2.085000000000000000e+03 4.009553146362304688e+01 5.201569199562072754e-02 3.065262079238891602e+00 8.610424041748046875e+00 3.502705812454223633e+00 1.322460651397705078e+00
2.086000000000000000e+03 3.977975845336914062e+01 3.048373460769653320e-01 3.472310781478881836e+00 1.040724372863769531e+01 4.163866519927978516e+00 1.526121497154235840e+00
2.087000000000000000e+03 4.060641860961914062e+01 2.947364807128906250e+00 1.001928925514221191e+00 1.153222656250000000e+01 3.760246515274047852e+00 2.300303220748901367e+00
2.088000000000000000e+03 4.079925155639648438e+01 2.459748506546020508e+00 2.669831514358520508e+00 1.022186470031738281e+01 3.867508888244628906e+00 2.584656953811645508e+00
2.089000000000000000e+03 4.083141708374023438e+01 1.104267716407775879e+00 5.238808155059814453e+00 7.604884624481201172e+00 3.853107690811157227e+00 9.691355228424072266e-01
2.090000000000000000e+03 4.090501785278320312e+01 2.214984893798828125e+00 3.538898944854736328e+00 9.254605293273925781e+00 3.838051319122314453e+00 2.323961496353149414e+00
2.091000000000000000e+03 3.943673324584960938e+01 -3.841913044452667236e-01 1.303373694419860840e+00 9.040086746215820312e+00 3.103038072586059570e+00 3.201884269714355469e+00
2.092000000000000000e+03 4.081646728515625000e+01 -2.383686065673828125e+00 -4.673123657703399658e-01 2.501646041870117188e+00 6.103001236915588379e-01 1.676938414573669434e+00
2.093000000000000000e+03 3.317239379882812500e+01 1.204805564880371094e+01 -9.645519256591796875e-01 3.555145114660263062e-02 -2.787001430988311768e-01 -1.662432798184454441e-03
2.094000000000000000e+03 3.126743316650390625e+01 3.835779666900634766e+00 1.263543605804443359e+00 1.311319470405578613e+00 7.724589705467224121e-01 -1.287201404571533203e+00
2.095000000000000000e+03 3.191594696044921875e+01 2.878266096115112305e+00 1.286226034164428711e+00 1.156146168708801270e+00 7.327116727828979492e-01 -1.160603642463684082e+00
2.096000000000000000e+03 3.039590263366699219e+01 4.703307628631591797e+00 1.391239523887634277e+00 1.583946347236633301e+00 8.925557732582092285e-01 -1.442242503166198730e+00
2.097000000000000000e+03 3.018855285644531250e+01 3.364183902740478516e+00 5.961958169937133789e-01 1.041508197784423828e+00 4.913111925125122070e-01 -7.091261148452758789e-01
2.098000000000000000e+03 2.981662940979003906e+01 2.937727451324462891e+00 1.694768071174621582e-01 8.118645548820495605e-01 2.944024205207824707e-01 -3.423931598663330078e-01
2.099000000000000000e+03 2.942728233337402344e+01 6.041101455688476562e+00 7.060143947601318359e-01 3.032065391540527344e+00 1.121423959732055664e+00 -1.074518918991088867e+00
2.100000000000000000e+03 3.195774650573730469e+01 1.507902979850769043e+00 -7.261849194765090942e-02 5.833351016044616699e-01 1.532149910926818848e-01 -8.937200158834457397e-02
2.101000000000000000e+03 3.556565856933593750e+01 1.196196651458740234e+01 1.475024580955505371e+00 6.358407735824584961e-01 6.332595944404602051e-01 -1.019422292709350586e+00
2.102000000000000000e+03 3.413633728027343750e+01 1.269529914855957031e+01 1.596709787845611572e-01 2.636829912662506104e-01 1.270061880350112915e-01 -6.354670524597167969e-01
2.103000000000000000e+03 3.279326629638671875e+01 1.265334987640380859e+01 -5.134757757186889648e-01 5.265879631042480469e-02 -1.382451057434082031e-01 -2.875712215900421143e-01
2.104000000000000000e+03 2.952168846130371094e+01 8.161050796508789062e+00 5.371543765068054199e-02 1.310987591743469238e+00 4.094108939170837402e-01 1.219526156783103943e-01
2.105000000000000000e+03 2.827714729309082031e+01 7.317756175994873047e+00 3.876220285892486572e-01 1.159007906913757324e+00 4.639889895915985107e-01 -5.592997074127197266e-01
2.106000000000000000e+03 3.471325302124023438e+01 1.213961505889892578e+01 6.247669458389282227e-02 1.148881018161773682e-01 5.320943892002105713e-02 -4.070768356323242188e-01
2.107000000000000000e+03 3.978612136840820312e+01 6.756573200225830078e+00 7.712902426719665527e-01 1.437924385070800781e+01 4.545160293579101562e+00 -1.008086085319519043e+00
2.108000000000000000e+03 2.997977256774902344e+01 9.722317695617675781e+00 1.176139246672391891e-02 4.532958269119262695e-01 1.395171731710433960e-01 1.189014911651611328e-01
2.109000000000000000e+03 2.872553253173828125e+01 7.054376125335693359e+00 3.633965849876403809e-01 1.604807019233703613e+00 5.904610753059387207e-01 -5.842876434326171875e-01
2.110000000000000000e+03 3.090549278259277344e+01 1.110826206207275391e+01 -1.553386002779006958e-01 2.188215777277946472e-02 -4.003693163394927979e-02 -9.291886538267135620e-02
2.111000000000000000e+03 3.763765335083007812e+01 1.118435287475585938e+01 2.113962173461914062e+00 4.377711772918701172e+00 1.947502136230468750e+00 -2.687188625335693359e+00
2.112000000000000000e+03 3.794524383544921875e+01 1.085352706909179688e+01 2.118451833724975586e+00 5.280284881591796875e+00 2.219621181488037109e+00 -2.850955963134765625e+00
2.113000000000000000e+03 2.950646972656250000e+01 9.832682609558105469e+00 -5.895850062370300293e-02 6.011450290679931641e-01 1.626559644937515259e-01 2.280909335240721703e-03
2.114000000000000000e+03 2.941460609436035156e+01 1.131247043609619141e+01 -1.959830969572067261e-01 4.730693995952606201e-01 8.312588930130004883e-02 -6.311231758445501328e-03
2.115000000000000000e+03 3.248954772949218750e+01 2.399115324020385742e+00 1.640319347381591797e+00 1.112215995788574219e+00 8.257606029510498047e-01 -1.215295672416687012e+00
2.116000000000000000e+03 3.857107543945312500e+01 9.152925491333007812e+00 2.731336593627929688e+00 1.006211280822753906e+01 3.838034868240356445e+00 -4.964623928070068359e+00
2.117000000000000000e+03 2.933960342407226562e+01 9.057863235473632812e+00 1.599775999784469604e-02 8.671703338623046875e-01 2.649504244327545166e-01 2.540874062106013298e-03
2.118000000000000000e+03 2.860625267028808594e+01 8.049485206604003906e+00 1.293786168098449707e-01 1.230980157852172852e+00 4.081076085567474365e-01 -3.403559625148773193e-01
2.119000000000000000e+03 3.729940795898437500e+01 1.148709106445312500e+01 2.151085615158081055e+00 3.651757001876831055e+00 1.740852832794189453e+00 -2.414373397827148438e+00
2.120000000000000000e+03 3.886305236816406250e+01 1.037868404388427734e+01 1.504209518432617188e+00 8.019523620605468750e+00 2.857119798660278320e+00 -2.361845016479492188e+00
2.121000000000000000e+03 2.961305046081542969e+01 8.553309440612792969e+00 6.660789996385574341e-02 1.087083101272583008e+00 3.461073040962219238e-01 1.754845529794692993e-01
2.122000000000000000e+03 3.078935813903808594e+01 1.173403072357177734e+01 -4.405911862850189209e-01 1.803519725799560547e-01 -7.807176560163497925e-02 -3.565606474876403809e-02
2.123000000000000000e+03 3.021764564514160156e+01 1.119644832611083984e+01 -2.287601828575134277e-01 2.976556718349456787e-01 2.066864632070064545e-02 -2.752667479217052460e-02
2.124000000000000000e+03 3.269744491577148438e+01 2.132203578948974609e+00 1.638912439346313477e+00 9.735446572303771973e-01 7.837371230125427246e-01 -1.079877257347106934e+00
2.125000000000000000e+03 4.039905166625976562e+01 7.469319820404052734e+00 1.596071481704711914e+00 1.226924800872802734e+01 4.159595966339111328e+00 -6.981500387191772461e-01
2.126000000000000000e+03 3.998443984985351562e+01 7.990964412689208984e+00 1.814408183097839355e+00 1.266556739807128906e+01 4.343992710113525391e+00 -9.725809097290039062e-01
2.127000000000000000e+03 2.998704528808593750e+01 4.359996795654296875e+00 9.452883005142211914e-01 1.521436095237731934e+00 7.400172948837280273e-01 -1.052350163459777832e+00
2.128000000000000000e+03 3.911844253540039062e+01 9.959068298339843750e+00 1.556499123573303223e+00 9.255490303039550781e+00 3.243597030639648438e+00 -2.194519758224487305e+00
2.129000000000000000e+03 3.693352890014648438e+01 1.176354312896728516e+01 2.038017272949218750e+00 2.967855930328369141e+00 1.501762032508850098e+00 -2.203462839126586914e+00
2.130000000000000000e+03 3.902030181884765625e+01 8.857536315917968750e+00 1.947191476821899414e+00 1.235241699218750000e+01 4.289882659912109375e+00 -3.536848068237304688e+00
2.131000000000000000e+03 2.961229133605957031e+01 5.658493041992187500e+00 1.137327909469604492e+00 2.896828889846801758e+00 1.210247039794921875e+00 -1.465024590492248535e+00
2.132000000000000000e+03 3.894829940795898438e+01 9.304759025573730469e+00 1.869697451591491699e+00 1.073181247711181641e+01 3.780452966690063477e+00 -3.127898693084716797e+00
2.133000000000000000e+03 3.951535034179687500e+01 1.023868370056152344e+01 1.211921453475952148e+00 9.145834922790527344e+00 3.107326984405517578e+00 -1.426369905471801758e+00
2.134000000000000000e+03 4.017289733886718750e+01 8.532992362976074219e+00 1.739760518074035645e+00 1.174115848541259766e+01 4.044275760650634766e+00 -8.246062994003295898e-01
2.135000000000000000e+03 3.677542495727539062e+01 1.244821262359619141e+01 1.510181188583374023e+00 2.919048547744750977e+00 1.328768849372863770e+00 -2.092123985290527344e+00
2.136000000000000000e+03 3.514825439453125000e+01 1.208211612701416016e+01 7.259122133255004883e-01 3.592315614223480225e-01 3.255431354045867920e-01 -6.518782377243041992e-01
2.137000000000000000e+03 3.044039535522460938e+01 1.240960216522216797e+01 -3.903376460075378418e-01 3.322601318359375000e-01 -1.742325350642204285e-02 2.044015526771545410e-01
2.138000000000000000e+03 2.516533660888671875e+01 3.067856550216674805e+00 -7.357270121574401855e-01 -1.562328189611434937e-01 -2.675879597663879395e-01 2.932998538017272949e-01
2.139000000000000000e+03 3.241838455200195312e+01 1.321872425079345703e+01 -9.154629707336425781e-02 1.854304075241088867e-01 2.816523052752017975e-02 -1.265075504779815674e-01
2.140000000000000000e+03 3.019818878173828125e+01 1.335138607025146484e+01 -1.173535138368606567e-01 3.031495511531829834e-01 5.573880672454833984e-02 3.040155172348022461e-01
2.141000000000000000e+03 3.226358413696289062e+01 1.273349761962890625e+01 -4.240027368068695068e-01 -1.046204194426536560e-01 -1.585869491100311279e-01 -8.343287557363510132e-02
2.142000000000000000e+03 3.170259666442871094e+01 1.300319194793701172e+01 -2.560282349586486816e-01 1.068620309233665466e-01 -4.474985599517822266e-02 1.177837923169136047e-01
2.143000000000000000e+03 3.350028991699218750e+01 -4.903628826141357422e+00 1.402860045433044434e+00 2.421840906143188477e+00 1.147410273551940918e+00 1.125745892524719238e+00
2.144000000000000000e+03 1.159280014038085938e+01 3.189251661300659180e+00 -2.945495247840881348e-01 -1.465141773223876953e-01 -1.323191076517105103e-01 2.362886518239974976e-01
2.145000000000000000e+03 9.337379455566406250e+00 5.872016429901123047e+00 -5.152739286422729492e-01 -2.450754642486572266e-01 -2.281048148870468140e-01 1.817562729120254517e-01
2.146000000000000000e+03 1.167948627471923828e+01 4.020874023437500000e+00 -4.284262657165527344e-01 -2.326521724462509155e-01 -1.983235329389572144e-01 2.764179110527038574e-01
2.147000000000000000e+03 1.379625797271728516e+01 -1.882758140563964844e+00 -1.737134158611297607e-01 -1.918912529945373535e-01 -1.096813976764678955e-01 -1.614958196878433228e-01
2.148000000000000000e+03 1.518257713317871094e+01 -2.424243211746215820e+00 -8.120480924844741821e-02 7.023265212774276733e-02 -3.291646251454949379e-03 3.530774265527725220e-02
2.149000000000000000e+03 5.290536403656005859e+00 -3.611259222030639648e+00 -3.114963695406913757e-02 -5.745649337768554688e-02 -2.658183872699737549e-02 -7.056801766157150269e-02
2.150000000000000000e+03 7.000361442565917969e+00 -3.590566635131835938e+00 -4.832984507083892822e-02 -8.085162192583084106e-02 -3.875444084405899048e-02 -9.830129146575927734e-02
2.151000000000000000e+03 5.375139713287353516e+00 -2.788278341293334961e+00 -3.748429939150810242e-02 -9.453868260607123375e-04 -1.152890548110008240e-02 -4.999944940209388733e-02
2.152000000000000000e+03 7.822520732879638672e+00 -3.546092271804809570e+00 -4.076994583010673523e-02 -8.395028300583362579e-03 -1.474949251860380173e-02 -8.972842246294021606e-02
2.153000000000000000e+03 1.092506504058837891e+01 -3.164796829223632812e+00 -9.716954827308654785e-02 4.537408053874969482e-02 -1.553864125162363052e-02 -1.141677349805831909e-01
2.154000000000000000e+03 7.966262817382812500e+00 -4.391118049621582031e+00 -4.318369925022125244e-02 -9.631859511137008667e-02 -4.185068979859352112e-02 -1.233271583914756775e-01
2.155000000000000000e+03 6.159434318542480469e+00 -2.784712314605712891e+00 -5.120619758963584900e-02 -5.900256708264350891e-02 -3.306262940168380737e-02 -7.147946208715438843e-02
2.156000000000000000e+03 6.156830787658691406e+00 -3.608484745025634766e+00 -3.362045809626579285e-02 -1.484497543424367905e-02 -1.453963015228509903e-02 -6.699751317501068115e-02
2.157000000000000000e+03 2.229485988616943359e+00 -2.777099609375000000e+00 -1.418045349419116974e-02 -2.405740879476070404e-02 -1.147135905921459198e-02 -9.672386571764945984e-03
2.158000000000000000e+03 3.861492633819580078e+00 -7.722862720489501953e+00 4.829791374504566193e-03 -8.787781000137329102e-02 -2.491440437734127045e-02 -4.787544906139373779e-02
2.159000000000000000e+03 1.739794015884399414e+00 -6.234581947326660156e+00 2.523170551285147667e-04 -4.691615700721740723e-02 -1.399915199726819992e-02 -1.626563630998134613e-02
2.160000000000000000e+03 1.233758068084716797e+01 -2.191241979598999023e+00 -1.509899646043777466e-01 -1.634636819362640381e-01 -9.433609247207641602e-02 -1.322178691625595093e-01
2.161000000000000000e+03 1.467830848693847656e+01 -4.103053569793701172e+00 7.835399359464645386e-02 1.664714217185974121e-01 7.344762235879898071e-02 -5.661679059267044067e-02
2.162000000000000000e+03 1.426175975799560547e+01 3.394681930541992188e+00 -6.528201103210449219e-01 -2.128101140260696411e-02 -2.022303342819213867e-01 5.639635324478149414e-01
2.163000000000000000e+03 1.305495071411132812e+01 6.024061679840087891e+00 -7.940946817398071289e-01 -5.642644166946411133e-01 -4.075077176094055176e-01 5.785810947418212891e-01
2.164000000000000000e+03 2.793974494934082031e+01 1.571591138839721680e+00 -1.154637813568115234e+00 1.539570838212966919e-01 -3.002042174339294434e-01 3.272196352481842041e-01
2.165000000000000000e+03 2.078832435607910156e+01 4.574887275695800781e+00 -6.305202841758728027e-01 -9.271087497472763062e-02 -2.169693410396575928e-01 1.747383177280426025e-01
2.166000000000000000e+03 2.186841583251953125e+01 3.447780132293701172e+00 -1.054244756698608398e+00 -1.607210785150527954e-01 -3.644897639751434326e-01 2.322785854339599609e-01
2.167000000000000000e+03 2.174766540527343750e+01 4.765577793121337891e+00 -4.671044349670410156e-01 -1.453495025634765625e-01 -1.837361901998519897e-01 9.670698642730712891e-02
2.168000000000000000e+03 2.938565635681152344e+01 1.246620416641235352e+00 -1.209317684173583984e+00 4.317114651203155518e-01 -2.332818657159805298e-01 1.916320621967315674e-01
2.169000000000000000e+03 2.664425849914550781e+01 2.591029405593872070e+00 -7.200711369514465332e-01 -5.583842867054045200e-04 -2.161888629198074341e-01 3.048878014087677002e-01
2.170000000000000000e+03 2.345834922790527344e+01 2.867617368698120117e+00 -1.127356648445129395e+00 -2.056475132703781128e-01 -3.999012410640716553e-01 3.394423127174377441e-01
2.171000000000000000e+03 2.050711250305175781e+01 5.541781425476074219e+00 -2.219690978527069092e-01 7.424158975481987000e-03 -6.436348706483840942e-02 1.262740939855575562e-01
2.172000000000000000e+03 2.646165084838867188e+01 1.999242663383483887e+00 -1.104820966720581055e+00 -7.375968247652053833e-02 -3.535741865634918213e-01 4.144203662872314453e-01
2.173000000000000000e+03 2.971087646484375000e+01 4.690286159515380859e+00 9.524435400962829590e-01 1.705237269401550293e+00 7.973042726516723633e-01 -1.011048316955566406e+00
2.174000000000000000e+03 2.364850234985351562e+01 3.503747224807739258e+00 -7.828156352043151855e-01 -1.997410207986831665e-01 -2.947669923305511475e-01 2.280173748731613159e-01
2.175000000000000000e+03 1.994166755676269531e+01 4.315227031707763672e+00 -7.650880217552185059e-01 -9.489171206951141357e-02 -2.579939365386962891e-01 2.497325092554092407e-01
2.176000000000000000e+03 1.156847476959228516e+01 -2.334933042526245117e+00 -1.344394236803054810e-01 5.274947732686996460e-02 -2.450698614120483398e-02 -1.218739971518516541e-01
2.177000000000000000e+03 1.458992004394531250e+01 -2.425753116607666016e+00 -1.098881512880325317e-01 -1.634534299373626709e-01 -8.200247585773468018e-02 -1.960464715957641602e-01
2.178000000000000000e+03 1.253326988220214844e+01 -2.928320646286010742e+00 -7.434206455945968628e-02 6.000462919473648071e-02 -4.301229026168584824e-03 -1.292862594127655029e-01
2.179000000000000000e+03 2.931939363479614258e+00 3.311392307281494141e+00 -2.349901944398880005e-02 8.996891789138317108e-03 -4.350638482719659805e-03 -4.832843691110610962e-02
2.180000000000000000e+03 5.573082447052001953e+00 3.794762611389160156e+00 -1.248099356889724731e-01 -2.628288045525550842e-02 -4.532784596085548401e-02 -2.049473859369754791e-02
2.181000000000000000e+03 3.928891181945800781e+00 4.297245025634765625e+00 -9.171310812234878540e-02 -1.409805659204721451e-02 -3.174335137009620667e-02 -1.388350874185562134e-02
2.182000000000000000e+03 3.766772270202636719e+00 3.175872087478637695e+00 -3.167601674795150757e-02 3.635408647824078798e-04 -9.393742308020591736e-03 -4.775111377239227295e-02
2.183000000000000000e+03 4.135423600673675537e-01 3.587965488433837891e+00 -1.817867509089410305e-03 8.886680752038955688e-02 2.611468173563480377e-02 -1.290680095553398132e-02
2.184000000000000000e+03 6.333693504333496094e+00 3.585852146148681641e+00 -1.256355792284011841e-01 -3.298172727227210999e-02 -4.758518934249877930e-02 -1.463681552559137344e-02
2.185000000000000000e+03 8.585810661315917969e+00 3.656761169433593750e+00 -2.074417769908905029e-01 -1.038624420762062073e-01 -9.339126944541931152e-02 4.879298433661460876e-02
2.186000000000000000e+03 7.789223194122314453e+00 4.168317794799804688e+00 -2.260327637195587158e-01 -8.929888159036636353e-02 -9.459949284791946411e-02 3.669686242938041687e-02
2.187000000000000000e+03 1.776780891418457031e+01 4.152169227600097656e+00 -8.766131997108459473e-01 5.423485487699508667e-02 -2.467135041952133179e-01 5.302620530128479004e-01
2.188000000000000000e+03 1.821673202514648438e+01 6.359817981719970703e+00 5.139335244894027710e-02 3.688049614429473877e-01 1.260595023632049561e-01 3.835514783859252930e-01
2.189000000000000000e+03 3.339946746826171875e+01 -3.836688995361328125e+00 8.390137553215026855e-01 1.817811369895935059e+00 7.970475554466247559e-01 8.562743663787841797e-01
2.190000000000000000e+03 3.214340209960937500e+01 -6.563739299774169922e+00 1.500537514686584473e+00 1.420276522636413574e+00 8.762442469596862793e-01 1.441785931587219238e+00
2.191000000000000000e+03 3.756950378417968750e+01 -4.557922840118408203e+00 3.089700043201446533e-01 8.439032554626464844e+00 2.624400854110717773e+00 2.660193204879760742e+00
2.192000000000000000e+03 1.012452507019042969e+01 -3.212456941604614258e+00 -6.008414179086685181e-02 -1.593044847249984741e-01 -6.581658869981765747e-02 -1.509186476469039917e-01
2.193000000000000000e+03 1.497692871093750000e+01 4.500309467315673828e+00 -7.016472816467285156e-01 -6.050239875912666321e-02 -2.286449074745178223e-01 7.668483853340148926e-01
2.194000000000000000e+03 3.144121170043945312e+01 1.089352011680603027e+00 -9.602172970771789551e-01 5.430683493614196777e-01 -1.251446753740310669e-01 1.110140606760978699e-01
2.195000000000000000e+03 1.946606636047363281e+01 5.572969913482666016e+00 -2.408400923013687134e-01 1.228955611586570740e-01 -3.538335859775543213e-02 2.543440461158752441e-01
2.196000000000000000e+03 1.852484321594238281e+01 5.431212425231933594e+00 -3.617648184299468994e-01 1.818546056747436523e-01 -5.397306755185127258e-02 4.023665785789489746e-01
2.197000000000000000e+03 2.256127357482910156e+01 4.974086284637451172e+00 -2.732099294662475586e-01 -1.567817628383636475e-01 -1.289975196123123169e-01 5.144694447517395020e-02
2.198000000000000000e+03 2.173425865173339844e+01 1.131125545501708984e+01 1.886748820543289185e-01 5.129181146621704102e-01 2.104778885841369629e-01 8.649167418479919434e-02
2.199000000000000000e+03 3.977546310424804688e+01 -2.864635658264160156e+01 -1.903009057044982910e+00 7.053030490875244141e+00 1.545006394386291504e+00 1.258224487304687500e+00
2.200000000000000000e+03 4.494572830200195312e+01 1.867917060852050781e+01 -5.763676762580871582e-01 7.270153522491455078e+00 2.008135795593261719e+00 1.974018692970275879e+00
2.201000000000000000e+03 4.206846618652343750e+01 2.076194572448730469e+01 -1.736668586730957031e+00 1.528695702552795410e+00 -6.239188089966773987e-02 1.014262557029724121e+00
2.202000000000000000e+03 3.444906616210937500e+01 2.123600006103515625e+01 -1.563800871372222900e-01 4.879312992095947266e+00 1.416879892349243164e+00 -1.473160505294799805e+00
2.203000000000000000e+03 3.243663024902343750e+01 -1.457547760009765625e+01 -2.469735145568847656e+00 1.800342202186584473e+00 -2.008179277181625366e-01 2.217098236083984375e+00
2.204000000000000000e+03 3.265078353881835938e+01 -1.213897514343261719e+01 1.625294089317321777e-01 2.017458915710449219e+00 6.539965271949768066e-01 2.595070123672485352e+00
2.205000000000000000e+03 4.630368041992187500e+01 7.290072917938232422e+00 2.001129090785980225e-01 3.353002786636352539e+00 1.065934658050537109e+00 -1.343307852745056152e+00
2.206000000000000000e+03 3.168633079528808594e+01 2.743136787414550781e+01 1.505390048027038574e+00 4.012143611907958984e+00 1.655260086059570312e+00 -1.515301108360290527e+00
2.207000000000000000e+03 3.262400436401367188e+01 2.671232986450195312e+01 1.748777270317077637e+00 5.045638084411621094e+00 2.038324594497680664e+00 -1.244977593421936035e+00
2.208000000000000000e+03 1.545234775543212891e+01 -2.432648849487304688e+01 1.646683961153030396e-01 4.746921360492706299e-01 1.918081641197204590e-01 4.632803201675415039e-01
2.209000000000000000e+03 1.116277980804443359e+01 -2.605271911621093750e+01 2.890495657920837402e-01 3.174782991409301758e-01 1.819583624601364136e-01 7.399091124534606934e-02
2.210000000000000000e+03 1.181018829345703125e+01 -3.203492736816406250e+01 3.328894078731536865e-01 9.225398898124694824e-01 3.766287863254547119e-01 2.975188791751861572e-01
2.211000000000000000e+03 3.938485336303710938e+01 1.969366073608398438e+01 -4.278514087200164795e-01 2.197798967361450195e+00 5.309842824935913086e-01 -2.470946788787841797e+00
2.212000000000000000e+03 4.749637985229492188e+01 2.707750320434570312e+01 1.923367738723754883e+00 8.154624938964843750e+00 3.023397684097290039e+00 1.034573793411254883e+00
2.213000000000000000e+03 5.191633987426757812e+01 3.043922996520996094e+01 1.490203261375427246e+00 7.072046279907226562e+00 2.568674802780151367e+00 8.989880084991455078e-01
2.214000000000000000e+03 4.095803833007812500e+01 -2.204011154174804688e+01 1.341427087783813477e+00 5.074012756347656250e+00 1.924631953239440918e+00 1.170697093009948730e+00
2.215000000000000000e+03 4.122415161132812500e+01 -2.306385040283203125e+01 1.440605521202087402e+00 4.379568576812744141e+00 1.746052265167236328e+00 2.133605480194091797e+00
2.216000000000000000e+03 2.997462654113769531e+01 -4.404247283935546875e+00 1.530828326940536499e-01 -8.081694245338439941e-01 -1.965259760618209839e-01 -2.144702225923538208e-01
2.217000000000000000e+03 2.925901794433593750e+01 -2.968992996215820312e+01 -7.203352451324462891e-01 2.346683025360107422e+00 4.879043102264404297e-01 -3.439350426197052002e-01
2.218000000000000000e+03 3.153782081604003906e+01 -2.930416488647460938e+01 -1.033031940460205078e+00 1.413234591484069824e+00 1.140607818961143494e-01 -7.748885750770568848e-01
2.219000000000000000e+03 4.147251510620117188e+01 -3.006438493728637695e+00 -4.117977619171142578e+00 -8.351021260023117065e-02 -1.260446310043334961e+00 -8.455651998519897461e-02
2.220000000000000000e+03 4.291921997070312500e+01 -2.767797708511352539e+00 -1.005814671516418457e+00 1.301505327224731445e+00 8.870719373226165771e-02 -2.211389064788818359e+00
2.221000000000000000e+03 3.353619384765625000e+01 2.059283065795898438e+01 -4.681108519434928894e-02 4.504667282104492188e+00 1.337356925010681152e+00 -1.234686136245727539e+00
2.222000000000000000e+03 3.271899795532226562e+01 1.832439422607421875e+01 1.240363270044326782e-01 3.192479610443115234e+00 9.949547648429870605e-01 -8.160625100135803223e-01
2.223000000000000000e+03 2.925212860107421875e+01 1.496000385284423828e+01 2.109391689300537109e-01 1.729710102081298828e-01 1.151730567216873169e-01 1.834109872579574585e-01
2.224000000000000000e+03 3.227029800415039062e+01 1.621173286437988281e+01 2.862952947616577148e-01 1.590347409248352051e+00 5.629928112030029297e-01 -4.824481010437011719e-01
2.225000000000000000e+03 3.309722518920898438e+01 1.655548477172851562e+01 3.312059640884399414e-01 2.217825174331665039e+00 7.647092938423156738e-01 -9.992610812187194824e-01
2.226000000000000000e+03 6.772812652587890625e+01 4.978180885314941406e+00 2.531990408897399902e-01 1.315079092979431152e+00 4.704834222793579102e-01 1.639342188835144043e+00
2.227000000000000000e+03 6.743439483642578125e+01 1.249706223607063293e-01 6.992570161819458008e-01 2.886525392532348633e+00 1.075734734535217285e+00 1.853620052337646484e+00
2.228000000000000000e+03 4.456447982788085938e+01 -2.675164985656738281e+01 -1.903504490852355957e+00 1.006631612777709961e+00 -2.690618634223937988e-01 -1.679157495498657227e+00
2.229000000000000000e+03 4.151027297973632812e+01 -2.663215827941894531e+01 -1.324599623680114746e+00 3.617056369781494141e+00 6.877370476722717285e-01 1.691687345504760742e+00
2.230000000000000000e+03 3.830167007446289062e+01 -3.951834917068481445e+00 -6.908999681472778320e-01 8.062824249267578125e+00 2.211577177047729492e+00 3.968699693679809570e+00
2.231000000000000000e+03 3.960535430908203125e+01 -3.607382535934448242e+00 -2.050343513488769531e+00 3.389665126800537109e+00 4.017964899539947510e-01 2.146661043167114258e+00
2.232000000000000000e+03 3.855447769165039062e+01 -1.624345898628234863e+00 -5.074505209922790527e-01 7.360171794891357422e+00 2.055816411972045898e+00 4.355030536651611328e+00
2.233000000000000000e+03 3.489125823974609375e+01 -1.439780521392822266e+01 -4.520413398742675781e+00 -1.389128714799880981e-01 -1.397797822952270508e+00 7.031905055046081543e-01
2.234000000000000000e+03 7.148917388916015625e+01 1.295829266309738159e-01 5.401228368282318115e-02 8.303388357162475586e-01 2.653053402900695801e-01 -1.433238089084625244e-01
2.235000000000000000e+03 7.032435607910156250e+01 4.297544479370117188e+00 1.697038412094116211e-01 3.213240146636962891e+00 1.014883160591125488e+00 1.472989678382873535e+00
2.236000000000000000e+03 6.608518981933593750e+01 3.151834297180175781e+01 5.150870084762573242e-01 5.548355579376220703e+00 1.819032788276672363e+00 7.724856734275817871e-01
2.237000000000000000e+03 9.823515892028808594e+00 -4.648958683013916016e+00 -5.711262929253280163e-04 -3.649809164926409721e-03 -1.266280654817819595e-03 -7.664630562067031860e-02
2.238000000000000000e+03 1.076613044738769531e+01 -1.129747962951660156e+01 -3.949150443077087402e-02 -1.655559986829757690e-02 -1.681413128972053528e-02 -1.178134456276893616e-01
2.239000000000000000e+03 6.569767761230468750e+01 2.924297904968261719e+01 1.399189949035644531e+00 5.658203125000000000e+00 2.117217779159545898e+00 1.042482852935791016e+00
2.240000000000000000e+03 1.822109031677246094e+01 -1.259150886535644531e+01 -1.436301320791244507e-01 1.657668501138687134e-01 6.641014479100704193e-03 -3.614370711147785187e-03
2.241000000000000000e+03 6.081410598754882812e+01 2.516593456268310547e+00 -9.059770703315734863e-01 5.196822166442871094e+00 1.287253499031066895e+00 -2.103621244430541992e+00
2.242000000000000000e+03 6.256658554077148438e+01 6.970621585845947266e+00 -7.737268805503845215e-01 3.544372558593750000e+00 8.311937451362609863e-01 -1.556649208068847656e+00
2.243000000000000000e+03 5.226487350463867188e+01 2.600072669982910156e+01 1.776295542716979980e+00 6.229242801666259766e+00 2.401661634445190430e+00 -4.849560856819152832e-01
2.244000000000000000e+03 5.153209304809570312e+01 2.357159423828125000e+01 1.263596415519714355e-01 5.216425418853759766e+00 1.602835536003112793e+00 -8.843656182289123535e-01
2.245000000000000000e+03 4.149599075317382812e+01 -2.389387702941894531e+01 1.859120607376098633e+00 3.793066978454589844e+00 1.695656299591064453e+00 1.913398027420043945e+00
2.246000000000000000e+03 1.116436004638671875e+01 -4.094108581542968750e+01 -5.823549628257751465e-01 4.728143215179443359e-01 -3.286219760775566101e-02 1.261470168828964233e-01
2.247000000000000000e+03 6.274251174926757812e+01 -5.678555965423583984e+00 1.459517359733581543e+00 9.811313629150390625e+00 3.381249427795410156e+00 -2.261090129613876343e-01
2.248000000000000000e+03 1.101045417785644531e+01 7.385495185852050781e+00 -8.946993947029113770e-01 -5.920017957687377930e-01 -4.460103511810302734e-01 5.978094339370727539e-01
2.249000000000000000e+03 5.951388549804687500e+01 1.920765757560729980e+00 -7.640398740768432617e-01 4.970650672912597656e+00 1.261983275413513184e+00 -2.575146675109863281e+00
2.250000000000000000e+03 5.588444900512695312e+01 6.843950271606445312e+00 1.743760585784912109e+00 7.250150680541992188e+00 2.698173522949218750e+00 5.768702626228332520e-01
2.251000000000000000e+03 6.622187805175781250e+01 -1.337019920349121094e+01 -9.129663109779357910e-01 3.903349399566650391e+00 8.971149325370788574e-01 -3.165904879570007324e-01
2.252000000000000000e+03 6.034575271606445312e+01 1.075978851318359375e+01 1.282372355461120605e+00 7.858235836029052734e+00 2.742182493209838867e+00 -6.685943603515625000e-01
2.253000000000000000e+03 5.619156265258789062e+01 1.394316482543945312e+01 1.249284029006958008e+00 7.877690315246582031e+00 2.738092184066772461e+00 2.702726423740386963e-01
2.254000000000000000e+03 4.778906631469726562e+01 -2.762967491149902344e+01 -1.095351934432983398e+00 4.134560108184814453e+00 9.117624163627624512e-01 -3.026152372360229492e+00
2.255000000000000000e+03 4.872550201416015625e+01 -2.843575477600097656e+01 1.028907075524330139e-01 4.342911720275878906e+00 1.333740711212158203e+00 -2.329926490783691406e+00
2.256000000000000000e+03 6.949474334716796875e+01 6.114640712738037109e+00 2.181616425514221191e-02 2.975352764129638672e+00 8.991507291793823242e-01 2.116824626922607422e+00
2.257000000000000000e+03 7.245547485351562500e+01 8.090432167053222656e+00 1.133132353425025940e-01 8.303520202636718750e+00 2.525050163269042969e+00 8.043285608291625977e-01
2.258000000000000000e+03 5.144926834106445312e+01 1.912146186828613281e+01 -2.038155555725097656e+00 2.852133274078369141e+00 2.441932857036590576e-01 -1.516968727111816406e+00
2.259000000000000000e+03 6.327269744873046875e+01 3.845860290527343750e+01 -5.885058045387268066e-01 2.992678165435791016e+00 7.212517261505126953e-01 -5.394756197929382324e-01
2.260000000000000000e+03 6.358267211914062500e+01 -2.035264587402343750e+01 1.793426990509033203e+00 8.501167297363281250e+00 3.088378429412841797e+00 -1.992311358451843262e+00
2.261000000000000000e+03 1.968102645874023438e+01 -2.556387138366699219e+01 -2.425923198461532593e-02 -4.217938780784606934e-01 -1.338159292936325073e-01 7.065821886062622070e-01
2.262000000000000000e+03 7.338459014892578125e+01 5.901605129241943359e+00 -3.232735097408294678e-01 6.544002532958984375e+00 1.866218686103820801e+00 -8.594262599945068359e-02
2.263000000000000000e+03 4.826230621337890625e+01 5.658308506011962891e+00 -3.431338071823120117e-01 1.030813097953796387e+00 2.063037902116775513e-01 -7.874864339828491211e-01
2.264000000000000000e+03 6.074388504028320312e+01 -3.874860405921936035e-01 -1.373624354600906372e-01 6.857631206512451172e+00 2.016080617904663086e+00 -1.867383241653442383e+00
2.265000000000000000e+03 7.287498474121093750e+01 -3.804420471191406250e+01 -2.087523192167282104e-01 6.661375999450683594e+00 1.935787200927734375e+00 -8.223306536674499512e-01
2.266000000000000000e+03 7.549283599853515625e+01 -3.285644912719726562e+01 3.744978308677673340e-01 6.820139408111572266e+00 2.158391237258911133e+00 -3.053660911973565817e-04
2.267000000000000000e+03 7.681825256347656250e+01 -3.511552429199218750e+01 9.807875007390975952e-02 7.539325714111328125e+00 2.291221380233764648e+00 -1.768168359994888306e-01
2.268000000000000000e+03 7.838071441650390625e+01 1.959775924682617188e+01 -1.108782663941383362e-01 7.275293827056884766e+00 2.149324655532836914e+00 4.017183482646942139e-01
2.269000000000000000e+03 7.197259521484375000e+01 1.709804153442382812e+01 -5.758133530616760254e-01 7.885126590728759766e+00 2.192793846130371094e+00 -6.040365099906921387e-01
2.270000000000000000e+03 7.395302581787109375e+01 -2.623753738403320312e+01 -1.967839002609252930e+00 8.499298095703125000e+00 1.959437727928161621e+00 6.393489837646484375e-01
2.271000000000000000e+03 7.752371978759765625e+01 3.501773452758789062e+01 -2.108968049287796021e-02 6.931581974029541016e+00 2.073147535324096680e+00 1.373359709978103638e-01
2.272000000000000000e+03 7.575680541992187500e+01 3.336928939819335938e+01 1.018976643681526184e-01 6.448987483978271484e+00 1.965265512466430664e+00 1.865349262952804565e-01
2.273000000000000000e+03 7.829783630371093750e+01 -2.375695228576660156e+01 3.724537491798400879e-01 7.613564014434814453e+00 2.395805358886718750e+00 -3.072583973407745361e-01
2.274000000000000000e+03 7.652922821044921875e+01 -2.538678169250488281e+01 -2.174314409494400024e-01 8.489990234375000000e+00 2.481767654418945312e+00 -7.326546311378479004e-01
2.275000000000000000e+03 7.805345153808593750e+01 -2.877970695495605469e+01 -1.233147531747817993e-01 7.897583961486816406e+00 2.332280635833740234e+00 -8.211795240640640259e-02
2.276000000000000000e+03 7.684465789794921875e+01 -2.994190597534179688e+01 1.408218313008546829e-02 7.457148551940917969e+00 2.241369247436523438e+00 1.741306483745574951e-01
2.277000000000000000e+03 7.471358489990234375e+01 -2.521917533874511719e+01 -1.278298497200012207e-01 8.690823554992675781e+00 2.568898200988769531e+00 -5.657287240028381348e-01
2.278000000000000000e+03 7.642154693603515625e+01 -2.338884735107421875e+01 9.343231916427612305e-01 8.886262893676757812e+00 2.946175813674926758e+00 -1.600120365619659424e-01
2.279000000000000000e+03 7.801915740966796875e+01 -3.425923156738281250e+01 7.751660794019699097e-02 7.766428947448730469e+00 2.353183507919311523e+00 -3.787305206060409546e-02
2.280000000000000000e+03 7.566713714599609375e+01 -3.664034271240234375e+01 5.595878511667251587e-02 7.376131534576416016e+00 2.229627132415771484e+00 -3.764847218990325928e-01
2.281000000000000000e+03 7.580921936035156250e+01 -3.394940948486328125e+01 1.237536743283271790e-01 7.174581050872802734e+00 2.189500331878662109e+00 -2.204529941082000732e-01
2.282000000000000000e+03 7.522910308837890625e+01 -3.053421211242675781e+01 1.351011097431182861e-01 6.852510452270507812e+00 2.096283435821533203e+00 4.221669435501098633e-01
2.283000000000000000e+03 7.662602233886718750e+01 -3.122694778442382812e+01 -4.489717248361557722e-04 7.324088096618652344e+00 2.197091817855834961e+00 1.176974028348922729e-01
2.284000000000000000e+03 7.467462158203125000e+01 -4.034567642211914062e+01 -3.059632480144500732e-01 7.384911060333251953e+00 2.123684406280517578e+00 -3.743247091770172119e-01
2.285000000000000000e+03 7.829614257812500000e+01 2.228704833984375000e+01 -9.448651224374771118e-02 7.437647819519042969e+00 2.202948331832885742e+00 1.687918044626712799e-02
2.286000000000000000e+03 7.722758483886718750e+01 2.091864013671875000e+01 -3.133868575096130371e-01 7.270038604736328125e+00 2.086995601654052734e+00 2.229193896055221558e-01
2.287000000000000000e+03 7.594009399414062500e+01 2.212728118896484375e+01 -4.629538357257843018e-01 6.974472522735595703e+00 1.953455686569213867e+00 -1.462587416172027588e-01
2.288000000000000000e+03 7.714275360107421875e+01 1.567724227905273438e+01 2.062926590442657471e-01 6.972730636596679688e+00 2.153707027435302734e+00 8.339043259620666504e-01
2.289000000000000000e+03 7.823685455322265625e+01 1.416667747497558594e+01 2.333537191152572632e-01 6.149934768676757812e+00 1.914986610412597656e+00 4.576188921928405762e-01
2.290000000000000000e+03 7.419727325439453125e+01 1.239037513732910156e+01 1.328767776489257812e+00 8.995224952697753906e+00 3.097197771072387695e+00 9.356751292943954468e-02
2.291000000000000000e+03 7.814834594726562500e+01 -2.093549346923828125e+01 3.741733133792877197e-01 7.844980716705322266e+00 2.465746164321899414e+00 6.076387166976928711e-01
2.292000000000000000e+03 7.654722595214843750e+01 8.770187377929687500e+00 3.229025602340698242e-01 7.171917438507080078e+00 2.248445987701416016e+00 -9.456807374954223633e-01
2.293000000000000000e+03 7.700888824462890625e+01 1.092440128326416016e+01 6.066852211952209473e-01 6.922385215759277344e+00 2.258721113204956055e+00 -4.420677423477172852e-01
2.294000000000000000e+03 7.710982513427734375e+01 1.435231781005859375e+01 3.308946490287780762e-01 6.807189464569091797e+00 2.141425132751464844e+00 6.883635520935058594e-01
2.295000000000000000e+03 7.709819793701171875e+01 2.356784439086914062e+01 -1.561439931392669678e-01 7.073361873626708984e+00 2.075165271759033203e+00 -2.073211073875427246e-01
2.296000000000000000e+03 7.819030761718750000e+01 2.634131622314453125e+01 -1.220460794866085052e-02 7.116825580596923828e+00 2.131386280059814453e+00 -2.055032253265380859e-01
2.297000000000000000e+03 7.780452728271484375e+01 3.050300407409667969e+01 9.253945201635360718e-02 6.823210239410400391e+00 2.074724912643432617e+00 -1.875671744346618652e-02
2.298000000000000000e+03 7.701284027099609375e+01 2.619056320190429688e+01 5.441651120781898499e-02 6.809684276580810547e+00 2.059230327606201172e+00 -3.005178272724151611e-01
2.299000000000000000e+03 7.709312438964843750e+01 6.622236728668212891e+00 -4.278685525059700012e-02 7.122765064239501953e+00 2.123993396759033203e+00 -1.018332004547119141e+00
2.300000000000000000e+03 7.804059600830078125e+01 1.008304214477539062e+01 2.633525133132934570e-01 6.311823844909667969e+00 1.972552895545959473e+00 -6.275865435600280762e-01
2.301000000000000000e+03 7.820816040039062500e+01 -1.672353935241699219e+01 -1.332956850528717041e-01 8.980490684509277344e+00 2.654158592224121094e+00 1.005966067314147949e+00
2.302000000000000000e+03 7.592335510253906250e+01 -1.922194290161132812e+01 5.515865683555603027e-01 8.899190902709960938e+00 2.835233211517333984e+00 9.879798889160156250e-01
2.303000000000000000e+03 7.802137756347656250e+01 -5.486632347106933594e+00 4.689407348632812500e-01 8.933930397033691406e+00 2.820861339569091797e+00 1.910389959812164307e-01
2.304000000000000000e+03 7.809763336181640625e+01 5.855119705200195312e+00 -1.048021838068962097e-01 7.287283897399902344e+00 2.154744625091552734e+00 -7.801912426948547363e-01
2.305000000000000000e+03 7.560478210449218750e+01 2.984805107116699219e+00 -4.244652390480041504e-01 6.629462242126464844e+00 1.861499190330505371e+00 -8.503802418708801270e-01
2.306000000000000000e+03 7.613222503662109375e+01 3.709921646118164062e+01 -8.613503724336624146e-02 6.787388324737548828e+00 2.010375976562500000e+00 2.536516487598419189e-01
2.307000000000000000e+03 7.775241088867187500e+01 3.656861114501953125e+01 -2.771058678627014160e-02 7.049708366394042969e+00 2.106599330902099609e+00 8.928786218166351318e-02
2.308000000000000000e+03 7.817024230957031250e+01 -2.542332410812377930e+00 -2.568821609020233154e-01 8.760636329650878906e+00 2.551126241683959961e+00 5.701071619987487793e-01
2.309000000000000000e+03 7.822764587402343750e+01 -1.274451851844787598e+00 -2.241902798414230347e-01 8.530493736267089844e+00 2.491890907287597656e+00 2.381464242935180664e-01
2.310000000000000000e+03 7.732456207275390625e+01 1.961654090881347656e+01 -3.614408671855926514e-01 7.276279449462890625e+00 2.074451684951782227e+00 4.935619235038757324e-01
2.311000000000000000e+03 7.808942413330078125e+01 7.149525642395019531e+00 8.117229491472244263e-02 6.980915546417236328e+00 2.118626356124877930e+00 -8.480513691902160645e-01
2.312000000000000000e+03 7.614479827880859375e+01 5.794209480285644531e+00 -1.123656779527664185e-01 7.132698059082031250e+00 2.106099605560302734e+00 -9.987555742263793945e-01
2.313000000000000000e+03 7.704949951171875000e+01 -2.113243103027343750e+01 6.939804553985595703e-01 8.306820869445800781e+00 2.700240373611450195e+00 5.627772212028503418e-01
2.314000000000000000e+03 7.626042175292968750e+01 -1.464132595062255859e+01 -9.879016280174255371e-01 8.003777503967285156e+00 2.104762792587280273e+00 7.910986542701721191e-01
2.315000000000000000e+03 7.576044464111328125e+01 3.521009063720703125e+01 1.890198700129985809e-02 6.527033805847167969e+00 1.963780760765075684e+00 2.529591619968414307e-01
2.316000000000000000e+03 7.505003356933593750e+01 2.977443122863769531e+01 3.449645042419433594e-01 6.150241851806640625e+00 1.948561906814575195e+00 -8.454902470111846924e-02
2.317000000000000000e+03 7.602336883544921875e+01 3.171500015258789062e+01 1.856941133737564087e-01 6.436264991760253906e+00 1.986587762832641602e+00 9.541063010692596436e-02
2.318000000000000000e+03 7.310326385498046875e+01 1.746602821350097656e+01 -7.163394689559936523e-01 7.859439849853515625e+00 2.142930269241333008e+00 1.004027649760246277e-01
2.319000000000000000e+03 7.597055816650390625e+01 1.015663623809814453e+01 6.664274334907531738e-01 7.296897411346435547e+00 2.388997316360473633e+00 -7.019274830818176270e-01
2.320000000000000000e+03 7.813612365722656250e+01 1.566307187080383301e+00 -1.534472852945327759e-01 8.282031059265136719e+00 2.438575267791748047e+00 -3.661938309669494629e-01
2.321000000000000000e+03 7.625388336181640625e+01 7.631350517272949219e+00 4.832839965820312500e-02 7.171793937683105469e+00 2.166036605834960938e+00 -1.023396372795104980e+00
2.322000000000000000e+03 7.691539001464843750e+01 1.661002039909362793e+00 -4.016683697700500488e-01 7.644145965576171875e+00 2.172743320465087891e+00 -5.216441154479980469e-01
2.323000000000000000e+03 7.668442535400390625e+01 4.417629241943359375e+00 -2.502886056900024414e-01 7.168877124786376953e+00 2.075576543807983398e+00 -9.190082550048828125e-01
2.324000000000000000e+03 7.503317260742187500e+01 5.262938976287841797e+00 -3.170437812805175781e-01 6.866184711456298828e+00 1.964742302894592285e+00 -8.176140785217285156e-01
2.325000000000000000e+03 7.722438812255859375e+01 -1.758152723312377930e+00 -4.642975032329559326e-01 8.574139595031738281e+00 2.432952404022216797e+00 2.239709943532943726e-01
2.326000000000000000e+03 7.468595886230468750e+01 -1.346865367889404297e+01 -1.584241032600402832e+00 6.279451370239257812e+00 1.408563137054443359e+00 9.342868328094482422e-01
2.327000000000000000e+03 7.580257415771484375e+01 -1.259401416778564453e+01 -1.505331277847290039e+00 7.973161697387695312e+00 1.940349102020263672e+00 3.542169332504272461e-01
2.328000000000000000e+03 7.602681732177734375e+01 -1.009258747100830078e+01 -5.324559807777404785e-01 9.863637924194335938e+00 2.799354553222656250e+00 -8.886691331863403320e-01
2.329000000000000000e+03 7.623289489746093750e+01 -2.516026496887207031e+00 -4.731656610965728760e-01 8.532340049743652344e+00 2.417752504348754883e+00 3.691596165299415588e-02
2.330000000000000000e+03 7.654971313476562500e+01 -8.424642562866210938e+00 1.057606339454650879e+00 1.080609416961669922e+01 3.559110164642333984e+00 -8.898660540580749512e-01
2.331000000000000000e+03 4.741108322143554688e+01 -1.549456596374511719e+01 -4.026436805725097656e+00 6.320757865905761719e+00 6.882963180541992188e-01 2.605778217315673828e+00
2.332000000000000000e+03 2.143448257446289062e+01 2.432749557495117188e+01 3.207133412361145020e-01 1.395805001258850098e+00 5.149555206298828125e-01 3.675746619701385498e-01
2.333000000000000000e+03 2.179952239990234375e+01 2.548624992370605469e+01 4.440402388572692871e-01 1.388792276382446289e+00 5.498497486114501953e-01 5.046505928039550781e-01
2.334000000000000000e+03 6.504940795898437500e+01 -2.533700561523437500e+01 -1.166052699089050293e+00 8.762322425842285156e+00 2.278880834579467773e+00 -3.061525583267211914e+00
2.335000000000000000e+03 4.440295028686523438e+01 3.462518692016601562e+01 -8.952313661575317383e-01 3.038973808288574219e+00 6.431227326393127441e-01 -1.083108663558959961e+00
2.336000000000000000e+03 3.216930389404296875e+01 -7.371704578399658203e+00 1.670084714889526367e+00 1.632608413696289062e+00 9.908079504966735840e-01 1.832065820693969727e+00
2.337000000000000000e+03 2.131142807006835938e+01 1.205976867675781250e+01 9.039904922246932983e-02 6.269657611846923828e-01 2.152094542980194092e-01 1.028252020478248596e-01
2.338000000000000000e+03 6.709520721435546875e+01 -2.782133293151855469e+01 2.781515419483184814e-01 6.379504680633544922e+00 1.997296810150146484e+00 -2.678410768508911133e+00
2.339000000000000000e+03 3.874921417236328125e+01 -1.545601367950439453e+01 -2.643010139465332031e+00 3.007184743881225586e+00 1.092524081468582153e-01 -8.722653388977050781e-01
2.340000000000000000e+03 3.880575561523437500e+01 -1.354579830169677734e+01 -3.589729070663452148e+00 3.269248723983764648e+00 -9.614410251379013062e-02 -1.122749686241149902e+00
2.341000000000000000e+03 2.843543815612792969e+01 -2.520480155944824219e+01 -2.718662023544311523e-01 3.845979690551757812e+00 1.072234034538269043e+00 2.194021791219711304e-01
2.342000000000000000e+03 2.843721771240234375e+01 -2.683649063110351562e+01 -9.116147160530090332e-01 3.194777250289916992e+00 6.849487423896789551e-01 1.384569704532623291e-01
2.343000000000000000e+03 1.798073887825012207e+00 3.045820426940917969e+01 2.307308604940772057e-03 -1.195743322372436523e+00 -3.580307960510253906e-01 7.323487102985382080e-02
2.344000000000000000e+03 4.305432319641113281e+00 3.239784622192382812e+01 1.076437532901763916e-01 -7.479590773582458496e-01 -1.920945942401885986e-01 7.111185044050216675e-02
2.345000000000000000e+03 3.000761985778808594e+00 2.789528083801269531e+01 -5.523202195763587952e-02 -9.591544270515441895e-01 -3.043159246444702148e-01 8.253058046102523804e-02
2.346000000000000000e+03 4.318570613861083984e+00 2.431884002685546875e+01 -4.915627092123031616e-02 -7.157744765281677246e-01 -2.294792234897613525e-01 3.531128540635108948e-02
2.347000000000000000e+03 3.041501522064208984e+00 2.955664062500000000e+01 -1.089302077889442444e-02 -9.665023684501647949e-01 -2.932186126708984375e-01 1.074272394180297852e-01
2.348000000000000000e+03 1.787777781486511230e+00 3.177643394470214844e+01 3.703562542796134949e-02 -1.223710894584655762e+00 -3.560025691986083984e-01 6.927386671304702759e-02
2.349000000000000000e+03 2.891099691390991211e+00 3.159484100341796875e+01 4.362711682915687561e-02 -1.021325588226318359e+00 -2.933095395565032959e-01 7.617840915918350220e-02
2.350000000000000000e+03 3.425510406494140625e+00 3.877898788452148438e+01 1.694240607321262360e-02 -1.024083018302917480e+00 -3.021422028541564941e-01 -6.329888105392456055e-02
2.351000000000000000e+03 2.146317005157470703e+00 3.457726287841796875e+01 3.880288451910018921e-02 -1.175266742706298828e+00 -3.409391641616821289e-01 -1.086407247930765152e-02
2.352000000000000000e+03 5.152370929718017578e+00 2.607100486755371094e+01 -1.066638454794883728e-01 -6.967387795448303223e-01 -2.410207837820053101e-01 8.202904462814331055e-02
2.353000000000000000e+03 3.152741432189941406e+00 3.285261917114257812e+01 8.383022993803024292e-02 -9.869638681411743164e-01 -2.709400951862335205e-01 5.581953004002571106e-02
2.354000000000000000e+03 5.900104522705078125e+00 3.311880493164062500e+01 1.695626527070999146e-01 -3.386538028717041016e-01 -5.072734132409095764e-02 8.157205581665039062e-02
2.355000000000000000e+03 3.882470369338989258e+00 -3.598095703125000000e+01 1.195438392460346222e-02 -8.503084629774093628e-02 -2.192293852567672729e-02 2.039957195520401001e-01
2.356000000000000000e+03 1.913248181343078613e+00 -2.860790061950683594e+01 9.890507906675338745e-03 -4.987910985946655273e-01 -1.466701775789260864e-01 2.453606203198432922e-02
2.357000000000000000e+03 5.863859653472900391e+00 -2.737404060363769531e+01 9.595293551683425903e-02 -1.736154593527317047e-02 2.357741631567478180e-02 -2.075111493468284607e-02
2.358000000000000000e+03 5.049122333526611328e+00 -3.439762496948242188e+01 5.863869562745094299e-02 -6.637216545641422272e-03 1.560044381767511368e-02 2.185579240322113037e-01
2.359000000000000000e+03 3.291204452514648438e+00 -2.957087326049804688e+01 3.448077291250228882e-02 -3.085781633853912354e-01 -8.222921937704086304e-02 5.186406150460243225e-02
2.360000000000000000e+03 1.961826562881469727e+00 -2.996186065673828125e+01 1.894363388419151306e-02 -4.705630242824554443e-01 -1.354858130216598511e-01 4.711399227380752563e-02
2.361000000000000000e+03 1.859655737876892090e+00 2.167959976196289062e+01 5.358929280191659927e-03 -1.023060202598571777e+00 -3.053103983402252197e-01 -3.720772685483098030e-03
2.362000000000000000e+03 3.704527616500854492e+00 2.339051628112792969e+01 -1.403253804892301559e-02 -7.835701704025268555e-01 -2.392808049917221069e-01 1.664840616285800934e-02
2.363000000000000000e+03 1.935304999351501465e+00 -2.021634483337402344e+01 2.852974459528923035e-02 -4.030356109142303467e-01 -1.123517602682113647e-01 -1.071412786841392517e-01
2.364000000000000000e+03 3.142611026763916016e+00 -1.444164466857910156e+01 -5.614521354436874390e-02 -1.751439720392227173e-01 -6.938675791025161743e-02 -9.000401198863983154e-02
2.365000000000000000e+03 5.923902034759521484e+00 -1.368870067596435547e+01 -9.523314237594604492e-02 -2.032082527875900269e-01 -8.953242003917694092e-02 -1.051638424396514893e-01
2.366000000000000000e+03 5.242158412933349609e+00 1.726070213317871094e+01 2.759709954261779785e-01 -5.058548450469970703e-01 -6.896515190601348877e-02 2.496451437473297119e-01
2.367000000000000000e+03 4.938211441040039062e+00 1.154994678497314453e+01 -1.021616607904434204e-01 -2.556379139423370361e-01 -1.073398739099502563e-01 4.962417781352996826e-01
2.368000000000000000e+03 2.984140634536743164e+00 -2.427166366577148438e+01 9.565657004714012146e-03 -3.260203599929809570e-01 -9.493640810251235962e-02 -2.324678562581539154e-02
2.369000000000000000e+03 4.968941211700439453e+00 -2.248533821105957031e+01 1.169693395495414734e-01 4.160482436418533325e-02 4.757224768400192261e-02 -8.579768240451812744e-02
2.370000000000000000e+03 3.117413997650146484e+00 -1.721012687683105469e+01 -7.608404755592346191e-02 -2.016817331314086914e-01 -8.332973718643188477e-02 -1.520249545574188232e-01
2.371000000000000000e+03 2.768525123596191406e+00 -1.033676815032958984e+01 -1.299180556088685989e-03 -1.112819239497184753e-01 -3.377433121204376221e-02 -3.237609937787055969e-02
2.372000000000000000e+03 1.661387443542480469e+00 -9.080540657043457031e+00 1.984233269467949867e-03 -8.051955699920654297e-02 -2.356059662997722626e-02 -1.666320674121379852e-02
2.373000000000000000e+03 2.813264846801757812e+00 8.833684921264648438e+00 -1.006950885057449341e-01 -1.237510293722152710e-01 -6.733383238315582275e-02 2.144266813993453979e-01
2.374000000000000000e+03 1.406656861305236816e+00 6.225198745727539062e+00 -3.156796842813491821e-02 3.824713826179504395e-02 2.003751229494810104e-03 2.595991268754005432e-02
2.375000000000000000e+03 1.794398069381713867e+00 1.458800983428955078e+01 2.642792649567127228e-02 -6.894977092742919922e-01 -1.989209353923797607e-01 2.260152250528335571e-01
2.376000000000000000e+03 3.221964120864868164e+00 1.703442764282226562e+01 1.308853477239608765e-01 -7.164754271507263184e-01 -1.756770163774490356e-01 2.037904560565948486e-01
2.377000000000000000e+03 1.726520538330078125e+00 -4.733304977416992188e+00 -2.231336198747158051e-03 -3.735591843724250793e-02 -1.187617704272270203e-02 -2.127019129693508148e-02
2.378000000000000000e+03 2.851318597793579102e+00 1.031083202362060547e+01 -8.300042152404785156e-02 -2.323445826768875122e-01 -9.460350126028060913e-02 3.093595504760742188e-01
2.379000000000000000e+03 4.013052940368652344e+00 -1.146962833404541016e+01 -1.822393201291561127e-02 -1.342381983995437622e-01 -4.573864117264747620e-02 -5.390485003590583801e-02
2.380000000000000000e+03 3.291120290756225586e+00 -1.995054817199707031e+01 1.039760857820510864e-01 -2.206168323755264282e-01 -3.499222546815872192e-02 -1.856230944395065308e-01
2.381000000000000000e+03 2.734845399856567383e+00 -8.993517875671386719e+00 1.737504382617771626e-03 -9.526411443948745728e-02 -2.805798314511775970e-02 -2.723236009478569031e-02
2.382000000000000000e+03 2.312452077865600586e+00 -3.536679840087890625e+01 1.509692892432212830e-02 -2.430210411548614502e-01 -6.837723404169082642e-02 1.390056908130645752e-01
2.383000000000000000e+03 3.539859533309936523e+00 -3.355879592895507812e+01 4.931678622961044312e-02 -1.915495544672012329e-01 -4.266982898116111755e-02 1.602388322353363037e-01
2.384000000000000000e+03 4.858206272125244141e+00 -3.310739898681640625e+01 7.132382690906524658e-02 -8.421335369348526001e-02 -3.866858780384063721e-03 1.768545657396316528e-01
2.385000000000000000e+03 6.555595397949218750e+00 -2.451589012145996094e+01 2.846805751323699951e-02 1.104935333132743835e-01 4.168847575783729553e-02 -1.078290641307830811e-01
2.386000000000000000e+03 2.938462734222412109e+00 1.173015117645263672e+01 -3.216370567679405212e-02 -3.431361913681030273e-01 -1.125899702310562134e-01 3.614841103553771973e-01
2.387000000000000000e+03 5.128737449645996094e+00 1.031774616241455078e+01 -2.017916589975357056e-01 -1.693817526102066040e-01 -1.113520190119743347e-01 4.252245724201202393e-01
2.388000000000000000e+03 2.980401754379272461e+00 1.307728576660156250e+01 2.227338403463363647e-02 -4.687143564224243164e-01 -1.339322924613952637e-01 3.692160844802856445e-01
2.389000000000000000e+03 3.020777463912963867e+00 1.437699604034423828e+01 5.749927461147308350e-02 -5.725922584533691406e-01 -1.545279026031494141e-01 3.359182476997375488e-01
2.390000000000000000e+03 3.050332307815551758e+00 1.568868160247802734e+01 1.026089861989021301e-01 -6.508215665817260742e-01 -1.644637733697891235e-01 2.831922769546508789e-01
2.391000000000000000e+03 3.208685636520385742e+00 2.003321075439453125e+01 6.632594019174575806e-02 -8.028646707534790039e-01 -2.209616154432296753e-01 4.618158563971519470e-02
2.392000000000000000e+03 6.562948703765869141e+00 1.925819587707519531e+01 2.485701739788055420e-01 -3.639068901538848877e-01 -3.460101783275604248e-02 1.191863417625427246e-01
2.393000000000000000e+03 2.639456939697265625e+01 2.973144340515136719e+01 1.573795914649963379e+00 1.015889525413513184e+00 7.769056558609008789e-01 -4.219150245189666748e-01
2.394000000000000000e+03 7.212470245361328125e+01 1.936997985839843750e+01 -1.836758613586425781e+00 6.693376541137695312e+00 1.456985354423522949e+00 -5.715475678443908691e-01
2.395000000000000000e+03 2.195682716369628906e+01 2.642656135559082031e+01 4.954075813293457031e-01 1.349213123321533203e+00 5.533862113952636719e-01 5.681876540184020996e-01
2.396000000000000000e+03 4.094137954711914062e+01 1.957955360412597656e+00 4.264121532440185547e+00 8.722491264343261719e+00 3.895983934402465820e+00 2.176968812942504883e+00
2.397000000000000000e+03 5.432197189331054688e+01 1.827230834960937500e+01 -4.111193418502807617e-01 4.485486030578613281e+00 1.222310066223144531e+00 -1.846020936965942383e+00
2.398000000000000000e+03 5.415041351318359375e+01 -3.793814849853515625e+01 -1.682949066162109375e+00 6.723883152008056641e+00 1.512280106544494629e+00 -4.533432796597480774e-02
2.399000000000000000e+03 2.249044036865234375e+01 1.356498622894287109e+01 -7.932960987091064453e-02 7.228101491928100586e-01 1.930441707372665405e-01 3.970818594098091125e-02
2.400000000000000000e+03 3.286097717285156250e+01 1.737938690185546875e+01 1.958762854337692261e-01 2.661268949508666992e+00 8.571435809135437012e-01 -9.360748529434204102e-01
2.401000000000000000e+03 3.771359634399414062e+01 1.306124591827392578e+01 1.267426013946533203e+00 4.310096263885498047e+00 1.673256754875183105e+00 -2.031889438629150391e+00
2.402000000000000000e+03 4.923448181152343750e+01 -9.491142272949218750e+00 2.643077135086059570e+00 9.025009155273437500e+00 3.500425815582275391e+00 -1.282044500112533569e-01
2.403000000000000000e+03 2.423780059814453125e+01 -2.796345901489257812e+01 -9.062967896461486816e-01 1.929515600204467773e+00 3.069656491279602051e-01 1.181899234652519226e-01
2.404000000000000000e+03 2.296706390380859375e+01 -2.219061660766601562e+01 1.041195750236511230e+00 7.437776327133178711e-01 5.354920029640197754e-01 3.463245332241058350e-01
2.405000000000000000e+03 7.490058898925781250e+01 -2.157641029357910156e+01 1.324728727340698242e+00 1.074743938446044922e+01 3.621650218963623047e+00 1.038528308272361755e-01
2.406000000000000000e+03 7.550670623779296875e+01 -2.249721145629882812e+01 1.246108889579772949e+00 9.758213996887207031e+00 3.301296949386596680e+00 1.159719824790954590e-01
2.407000000000000000e+03 3.346158218383789062e+01 -7.706435680389404297e+00 2.312121868133544922e+00 2.519079446792602539e+00 1.449360370635986328e+00 2.105152130126953125e+00
2.408000000000000000e+03 5.501437759399414062e+01 2.252254867553710938e+01 -1.318640947341918945e+00 4.303023338317871094e+00 8.953146934509277344e-01 -2.565264940261840820e+00
2.409000000000000000e+03 5.375672149658203125e+01 2.447280693054199219e+01 -1.462621539831161499e-01 5.864241123199462891e+00 1.715393781661987305e+00 -1.334485888481140137e+00
2.410000000000000000e+03 4.361817169189453125e+01 1.082265281677246094e+01 8.691686391830444336e-01 9.762177467346191406e+00 3.189404010772705078e+00 6.431599259376525879e-01
2.411000000000000000e+03 4.647514343261718750e+01 -4.542871475219726562e+00 7.650830745697021484e-01 5.874361991882324219e+00 1.991833567619323730e+00 -2.744158983230590820e+00
2.412000000000000000e+03 1.437064552307128906e+01 -9.614535331726074219e+00 -4.962130635976791382e-02 1.766718327999114990e-01 3.811515495181083679e-02 -1.313961856067180634e-02
2.413000000000000000e+03 4.267539501190185547e+00 1.293932247161865234e+01 2.803339809179306030e-02 -3.770705163478851318e-01 -1.047111377120018005e-01 4.702093601226806641e-01
2.414000000000000000e+03 5.595084762573242188e+01 9.383551597595214844e+00 2.180634021759033203e+00 9.023860931396484375e+00 3.361348390579223633e+00 1.731907367706298828e+00
2.415000000000000000e+03 4.815860366821289062e+01 -1.833878040313720703e+00 8.324787020683288574e-01 5.857371807098388672e+00 2.006955146789550781e+00 -2.247492313385009766e+00
2.416000000000000000e+03 5.326803970336914062e+01 1.924024391174316406e+01 -1.362870812416076660e+00 4.254352569580078125e+00 8.674445748329162598e-01 -2.289154529571533203e+00
2.417000000000000000e+03 4.917440414428710938e+00 3.060976982116699219e+01 3.383370861411094666e-02 -6.488881707191467285e-01 -1.845163255929946899e-01 9.428702294826507568e-02
2.418000000000000000e+03 6.382189178466796875e+01 -1.374252891540527344e+01 -1.545971035957336426e+00 6.200295925140380859e+00 1.396297454833984375e+00 6.662804484367370605e-01
2.419000000000000000e+03 4.659299468994140625e+01 3.448367309570312500e+01 -8.995825052261352539e-01 4.797601699829101562e+00 1.169405817985534668e+00 -6.851679682731628418e-01
2.420000000000000000e+03 6.325522899627685547e+00 2.402388763427734375e+01 -9.726911038160324097e-02 -4.431521892547607422e-01 -1.621263921260833740e-01 1.191331222653388977e-01
2.421000000000000000e+03 5.729866027832031250e+00 2.512325668334960938e+01 -6.395544856786727905e-02 -5.942985415458679199e-01 -1.974761933088302612e-01 1.081793010234832764e-01
2.422000000000000000e+03 1.555819320678710938e+01 2.187642478942871094e+01 6.595628857612609863e-01 2.453448027372360229e-01 2.714723050594329834e-01 5.598978996276855469e-01
2.423000000000000000e+03 1.637404060363769531e+01 -3.967074871063232422e+00 1.284416913986206055e-01 2.194975167512893677e-01 1.043817624449729919e-01 7.948412559926509857e-03
2.424000000000000000e+03 1.446782493591308594e+01 -5.873453617095947266e+00 -1.420569233596324921e-02 6.368362903594970703e-02 1.484338100999593735e-02 -5.132723972201347351e-02
2.425000000000000000e+03 1.011622047424316406e+01 -2.464303779602050781e+01 1.837476044893264771e-01 1.202519014477729797e-01 9.119985252618789673e-02 -4.910942539572715759e-02
2.426000000000000000e+03 2.538975906372070312e+01 -1.484624004364013672e+01 -2.742165327072143555e-01 1.188845396041870117e+00 2.743886411190032959e-01 6.901103854179382324e-01
2.427000000000000000e+03 1.071048164367675781e+01 -3.813671112060546875e+01 -2.138479948043823242e-01 4.777975082397460938e-01 7.918485254049301147e-02 2.752972543239593506e-01
2.428000000000000000e+03 1.091435909271240234e+01 -3.508399963378906250e+01 9.029188752174377441e-02 6.601880788803100586e-01 2.251439839601516724e-01 2.834405601024627686e-01
2.429000000000000000e+03 3.033928871154785156e+01 -1.266435813903808594e+01 -2.747842073440551758e-01 3.029414415359497070e+00 8.263890743255615234e-01 2.110810756683349609e+00
2.430000000000000000e+03 2.713952445983886719e+01 -1.890156745910644531e+01 1.196265339851379395e+00 3.527005434036254883e+00 1.416981220245361328e+00 5.650511980056762695e-01
2.431000000000000000e+03 2.611588668823242188e+01 -1.857840156555175781e+01 1.086013674736022949e+00 2.487673282623291016e+00 1.072106122970581055e+00 4.314678311347961426e-01
2.432000000000000000e+03 3.206520843505859375e+01 2.581050491333007812e+01 1.491231441497802734e+00 4.845801830291748047e+00 1.901109933853149414e+00 -1.154339551925659180e+00
2.433000000000000000e+03 9.123486518859863281e+00 8.261686325073242188e+00 -6.462319493293762207e-01 -3.752359151840209961e-01 -3.064403533935546875e-01 4.015460312366485596e-01
2.434000000000000000e+03 8.384560585021972656e+00 4.371369838714599609e+00 -2.921491563320159912e-01 -1.082186996936798096e-01 -1.201103553175926208e-01 6.302668899297714233e-02
2.435000000000000000e+03 4.761331558227539062e+01 3.368252563476562500e+01 -3.949359953403472900e-01 5.514883995056152344e+00 1.535984396934509277e+00 -4.415316581726074219e-01
2.436000000000000000e+03 5.948489761352539062e+01 -1.921955299377441406e+01 2.161611557006835938e+00 5.790931224822998047e+00 2.385762929916381836e+00 -3.910893797874450684e-01
2.437000000000000000e+03 6.237464904785156250e+01 -1.943893432617187500e+01 1.485007524490356445e+00 6.935369014739990234e+00 2.526113033294677734e+00 -1.789480447769165039e+00
2.438000000000000000e+03 9.258967399597167969e+00 2.134881591796875000e+01 9.770387411117553711e-02 -6.295976042747497559e-02 1.042323373258113861e-02 5.232654139399528503e-02
2.439000000000000000e+03 1.263117218017578125e+01 1.913566780090332031e+01 6.618891358375549316e-01 5.292844176292419434e-01 3.573520481586456299e-01 5.384293794631958008e-01
2.440000000000000000e+03 5.517580032348632812e+01 -1.064193153381347656e+01 3.917026817798614502e-01 3.204617738723754883e+00 1.078896164894104004e+00 -2.863946437835693359e+00
2.441000000000000000e+03 3.947536468505859375e+01 -2.787149429321289062e+00 -2.365449905395507812e+00 5.220943450927734375e+00 8.566480278968811035e-01 3.516755104064941406e+00
2.442000000000000000e+03 1.484657478332519531e+01 -2.284160804748535156e+01 1.040920391678810120e-01 3.896043300628662109e-01 1.481089144945144653e-01 3.452192544937133789e-01
2.443000000000000000e+03 7.251399230957031250e+01 -1.610597801208496094e+01 -1.418744772672653198e-01 4.082848072052001953e+00 1.182292103767395020e+00 -8.427535295486450195e-01
2.444000000000000000e+03 4.075254440307617188e+01 -1.612015151977539062e+01 -1.404388546943664551e+00 1.442466735839843750e+00 1.142346672713756561e-02 -1.178571701049804688e+00
2.445000000000000000e+03 7.045552825927734375e+01 -3.515005111694335938e+01 6.336205005645751953e-01 5.826608657836914062e+00 1.938068747520446777e+00 -1.383136868476867676e+00
2.446000000000000000e+03 6.764895629882812500e+01 -3.711301040649414062e+01 -1.051448345184326172e+00 5.798206806182861328e+00 1.424027562141418457e+00 -1.154181361198425293e+00
2.447000000000000000e+03 4.969660186767578125e+01 2.449214744567871094e+01 1.305186748504638672e+00 5.550633907318115234e+00 2.056746244430541992e+00 2.317848652601242065e-01
2.448000000000000000e+03 5.240261840820312500e+01 2.765036010742187500e+01 1.543304085731506348e+00 7.290785789489746094e+00 2.650227069854736328e+00 -1.082376316189765930e-01
2.449000000000000000e+03 2.136821746826171875e+01 -1.571567630767822266e+01 1.441689282655715942e-01 -3.043757379055023193e-02 3.411940485239028931e-02 -3.081551194190979004e-01
2.450000000000000000e+03 1.066069698333740234e+01 -3.163311576843261719e+01 3.077883720397949219e-01 6.282101869583129883e-01 2.807995676994323730e-01 2.687230110168457031e-01
2.451000000000000000e+03 1.932822990417480469e+01 6.524982929229736328e+00 1.769758313894271851e-01 2.198632359504699707e-01 1.190517172217369080e-01 2.372007817029953003e-01
2.452000000000000000e+03 4.354466247558593750e+01 1.274331855773925781e+01 1.547435522079467773e+00 1.035416126251220703e+01 3.570478916168212891e+00 9.247030019760131836e-01
2.453000000000000000e+03 1.397390651702880859e+01 -2.607891798019409180e+00 -6.046374514698982239e-02 1.034640297293663025e-01 1.290008518844842911e-02 -6.385333836078643799e-02
2.454000000000000000e+03 2.601284408569335938e+01 -2.782077026367187500e+01 -9.510258436203002930e-01 2.742244720458984375e+00 5.373656749725341797e-01 2.396028488874435425e-01
2.455000000000000000e+03 5.907878494262695312e+01 8.417065620422363281e+00 5.767503976821899414e-01 6.646258831024169922e+00 2.166902780532836914e+00 -3.184066414833068848e-01
2.456000000000000000e+03 1.967043685913085938e+01 -1.710543060302734375e+01 4.327204227447509766e-01 7.986921817064285278e-02 1.537768989801406860e-01 -2.809149622917175293e-01
2.457000000000000000e+03 5.075541687011718750e+01 -3.267195892333984375e+01 2.265036106109619141e+00 6.666949272155761719e+00 2.679595708847045898e+00 -4.252639412879943848e-01
2.458000000000000000e+03 5.145991897583007812e+01 -3.397404098510742188e+01 1.778901696205139160e+00 6.507137298583984375e+00 2.485811710357666016e+00 -1.325170625932514668e-03
2.459000000000000000e+03 4.321142959594726562e+01 -1.509965515136718750e+01 -2.235874652862548828e+00 5.572242736816406250e-01 -5.035950541496276855e-01 7.044288516044616699e-01
2.460000000000000000e+03 2.820147323608398438e+01 -1.930389976501464844e+01 1.170386672019958496e+00 4.946798324584960938e+00 1.835155487060546875e+00 1.136318087577819824e+00
2.461000000000000000e+03 6.030264663696289062e+01 1.782201576232910156e+01 2.542000770568847656e+00 8.030948638916015625e+00 3.171884775161743164e+00 2.194514751434326172e+00
2.462000000000000000e+03 4.513163375854492188e+01 -1.867591285705566406e+01 1.336477756500244141e+00 5.645489215850830078e+00 2.094590187072753906e+00 6.051685810089111328e-01
2.463000000000000000e+03 2.913783264160156250e+01 -1.244601345062255859e+01 -2.137402296066284180e-01 3.588788032531738281e+00 1.012514352798461914e+00 1.782465696334838867e+00
2.464000000000000000e+03 4.637377166748046875e+01 -2.562563705444335938e+01 -1.256279826164245605e+00 3.790058374404907227e+00 7.601336240768432617e-01 -2.116028308868408203e+00
2.465000000000000000e+03 4.815730285644531250e+01 -4.105179595947265625e+01 -1.791869759559631348e+00 3.038006782531738281e+00 3.738411366939544678e-01 4.879718720912933350e-01
2.466000000000000000e+03 7.565068054199218750e+01 -4.235787391662597656e+00 5.174939036369323730e-01 9.703633308410644531e+00 3.066338062286376953e+00 -5.636453628540039062e-01
2.467000000000000000e+03 6.809078216552734375e+01 -1.261762046813964844e+01 -3.493449389934539795e-01 2.184327602386474609e+00 5.504947900772094727e-01 -1.254169940948486328e+00
2.468000000000000000e+03 6.607334136962890625e+01 -1.215480518341064453e+01 -3.057278096675872803e-01 4.596340656280517578e+00 1.287183880805969238e+00 -7.533893585205078125e-01
2.469000000000000000e+03 3.598787307739257812e+01 -8.024215698242187500e+00 2.741028308868408203e+00 6.461027145385742188e+00 2.760616779327392578e+00 1.479195475578308105e+00
2.470000000000000000e+03 5.493237686157226562e+01 -3.142304039001464844e+01 2.163532972335815430e+00 8.318611145019531250e+00 3.144643068313598633e+00 1.083027243614196777e+00
2.471000000000000000e+03 1.791849899291992188e+01 3.750398635864257812e+01 6.759042292833328247e-02 5.080862641334533691e-01 1.727029979228973389e-01 -1.462824344635009766e-01
2.472000000000000000e+03 1.613841247558593750e+01 5.309172153472900391e+00 -5.549053549766540527e-01 2.082117497920989990e-01 -1.040080860257148743e-01 7.362053394317626953e-01
2.473000000000000000e+03 1.827810096740722656e+01 2.045427322387695312e+01 5.484013557434082031e-01 2.834402620792388916e-01 2.495524734258651733e-01 1.362808197736740112e-01
2.474000000000000000e+03 1.919585990905761719e+01 1.824386596679687500e+01 -1.713037118315696716e-02 1.611100882291793823e-01 4.319391399621963501e-02 -1.694814860820770264e-02
2.475000000000000000e+03 5.988036727905273438e+01 -2.290251922607421875e+01 2.620872259140014648e+00 3.576204061508178711e+00 1.859122872352600098e+00 -2.388317137956619263e-01
2.476000000000000000e+03 2.624463653564453125e+01 -2.963253211975097656e+01 -6.891903877258300781e-01 2.679403305053710938e+00 5.970638394355773926e-01 2.695296704769134521e-01
2.477000000000000000e+03 6.380626296997070312e+01 -3.545762300491333008e+00 1.707338094711303711e+00 8.096795082092285156e+00 2.941239833831787109e+00 -9.635882824659347534e-02
2.478000000000000000e+03 6.251159286499023438e+01 -4.280179500579833984e+00 1.764056444168090820e+00 9.700857162475585938e+00 3.439474105834960938e+00 -1.318467378616333008e+00
2.479000000000000000e+03 3.488855743408203125e+01 2.494005775451660156e+01 1.742577433586120605e+00 7.066796779632568359e+00 2.642812252044677734e+00 -1.625151395797729492e+00
2.480000000000000000e+03 5.358463287353515625e+00 3.183538627624511719e+01 1.203408539295196533e-01 -4.979630112648010254e-01 -1.132866516709327698e-01 8.774991333484649658e-02
2.481000000000000000e+03 1.799255943298339844e+01 2.144519805908203125e+01 6.795582771301269531e-01 3.563232719898223877e-01 3.107644617557525635e-01 2.436625808477401733e-01
2.482000000000000000e+03 1.577129745483398438e+01 -1.271242809295654297e+01 -6.116505712270736694e-02 3.771434128284454346e-01 9.479351341724395752e-02 -8.703947812318801880e-02
2.483000000000000000e+03 4.601877212524414062e+01 -1.898856544494628906e+01 1.825329661369323730e+00 7.516304016113281250e+00 2.802489995956420898e+00 1.239446043968200684e+00
2.484000000000000000e+03 6.405444335937500000e+01 3.035518884658813477e+00 -1.629818081855773926e-01 3.766530513763427734e+00 1.081064581871032715e+00 -5.179644823074340820e-01
2.485000000000000000e+03 4.874246978759765625e+01 -7.972875595092773438e+00 2.616832733154296875e+00 9.827371597290039062e+00 3.733261346817016602e+00 2.777698040008544922e-01
2.486000000000000000e+03 2.025951957702636719e+01 -1.483295440673828125e+01 -1.642670929431915283e-01 5.698057636618614197e-02 -3.218595683574676514e-02 -3.563940227031707764e-01
2.487000000000000000e+03 1.954354858398437500e+01 2.219779205322265625e+01 5.618954896926879883e-01 8.590265512466430664e-01 4.262766242027282715e-01 9.006094187498092651e-02
2.488000000000000000e+03 1.877561569213867188e+01 2.359183120727539062e+01 7.241886258125305176e-01 8.194398880004882812e-01 4.630885720252990723e-01 3.898747265338897705e-01
2.489000000000000000e+03 4.463465118408203125e+01 -2.340338897705078125e+01 1.533222675323486328e+00 3.517209053039550781e+00 1.515129566192626953e+00 5.693733692169189453e-01
2.490000000000000000e+03 6.107765579223632812e+01 7.708437919616699219e+00 -3.167735636234283447e-01 5.121108531951904297e+00 1.441300511360168457e+00 -1.557476997375488281e+00
2.491000000000000000e+03 5.139544296264648438e+01 -4.045073986053466797e+00 1.365013480186462402e+00 9.305752754211425781e+00 3.201229810714721680e+00 -3.449105024337768555e-01
2.492000000000000000e+03 6.852770233154296875e+01 5.758474826812744141e+00 2.248618900775909424e-01 1.426255941390991211e+00 4.953353404998779297e-01 2.001638650894165039e+00
2.493000000000000000e+03 5.263895416259765625e+01 9.656863808631896973e-01 -3.766749203205108643e-01 5.621386528015136719e+00 1.573413491249084473e+00 1.734813332557678223e+00
2.494000000000000000e+03 5.118098068237304688e+01 -1.968446612358093262e+00 1.085367918014526367e+00 7.072947978973388672e+00 2.447494745254516602e+00 -1.169608831405639648e-01
2.495000000000000000e+03 5.439997863769531250e+01 -2.893542098999023438e+01 4.351232945919036865e-01 6.470282554626464844e+00 2.071621656417846680e+00 1.490002870559692383e+00
2.496000000000000000e+03 1.163525199890136719e+01 -2.864901924133300781e+01 3.589027822017669678e-01 6.278001070022583008e-01 2.960108816623687744e-01 2.242072969675064087e-01
2.497000000000000000e+03 9.983922958374023438e+00 -3.325037002563476562e+01 2.499922960996627808e-01 5.148266553878784180e-01 2.294456958770751953e-01 2.741921544075012207e-01
2.498000000000000000e+03 3.446223449707031250e+01 -3.091911888122558594e+01 5.311050415039062500e-01 4.417848587036132812e-01 2.918669581413269043e-01 1.092690229415893555e-02
2.499000000000000000e+03 3.826190185546875000e+01 4.088772583007812500e+01 -4.364086687564849854e-01 1.819540858268737793e+00 4.149396717548370361e-01 1.075168997049331665e-01
2.500000000000000000e+03 4.302807807922363281e+00 -2.168019104003906250e+01 1.619698256254196167e-01 -6.414563953876495361e-02 2.934725582599639893e-02 -9.532364457845687866e-02
2.501000000000000000e+03 6.804009246826171875e+01 1.270475864410400391e+00 5.083277821540832520e-01 2.087562084197998047e+00 7.787669897079467773e-01 2.030474424362182617e+00
2.502000000000000000e+03 8.742584228515625000e+00 -2.472410774230957031e+01 1.303451061248779297e-01 1.234160661697387695e-01 7.612835615873336792e-02 -1.564523726701736450e-01
2.503000000000000000e+03 1.194209671020507812e+01 -2.748736572265625000e+01 4.257034361362457275e-01 4.847530126571655273e-01 2.731369435787200928e-01 1.779156178236007690e-01
2.504000000000000000e+03 6.086871337890625000e+01 1.894226455688476562e+01 1.164022445678710938e+00 7.451417446136474609e+00 2.584631919860839844e+00 2.159125328063964844e+00
2.505000000000000000e+03 5.863837432861328125e+01 2.222922515869140625e+01 -1.501105427742004395e+00 7.839348912239074707e-01 -2.151511460542678833e-01 2.164466530084609985e-01
2.506000000000000000e+03 2.129811668395996094e+01 3.050953102111816406e+01 2.639181613922119141e-01 1.060121774673461914e+00 3.972119688987731934e-01 -7.301896112039685249e-04
2.507000000000000000e+03 3.673318481445312500e+01 -1.403759098052978516e+01 -3.220369815826416016e+00 2.908470392227172852e+00 -9.356987476348876953e-02 -1.229444503784179688e+00
2.508000000000000000e+03 4.198006820678710938e+01 -1.566646575927734375e+01 -1.687538146972656250e+00 8.897718191146850586e-01 -2.393299043178558350e-01 -4.770213663578033447e-01
2.509000000000000000e+03 2.117393493652343750e+01 1.845368576049804688e+01 1.576070934534072876e-01 9.509773850440979004e-01 3.325753509998321533e-01 -1.582733541727066040e-01
2.510000000000000000e+03 3.313335037231445312e+01 2.495213699340820312e+01 1.431967854499816895e+00 5.554844856262207031e+00 2.096043825149536133e+00 -9.063150882720947266e-01
2.511000000000000000e+03 5.024882507324218750e+01 3.216312789916992188e+01 8.655800223350524902e-01 6.643178939819335938e+00 2.252627611160278320e+00 4.679455161094665527e-01
2.512000000000000000e+03 5.888151550292968750e+01 -1.772342300415039062e+01 1.121590256690979004e+00 6.201601505279541016e+00 2.196957588195800781e+00 -2.341179996728897095e-01
2.513000000000000000e+03 5.817896652221679688e+01 -2.009510231018066406e+01 2.455150604248046875e+00 6.331138134002685547e+00 2.635886669158935547e+00 -3.828996419906616211e-02
2.514000000000000000e+03 6.361955642700195312e+01 2.367642784118652344e+01 -2.015791982412338257e-01 6.488337039947509766e+00 1.886027336120605469e+00 2.768064260482788086e+00
2.515000000000000000e+03 6.360258102416992188e+01 2.122089576721191406e+01 -2.482617378234863281e+00 5.106155872344970703e+00 7.870615720748901367e-01 3.860479831695556641e+00
2.516000000000000000e+03 2.681800651550292969e+01 -2.693562316894531250e+01 -9.052021503448486328e-01 3.045056581497192383e+00 6.419563293457031250e-01 3.578625023365020752e-01
2.517000000000000000e+03 4.654000854492187500e+01 5.057645797729492188e+00 8.964911103248596191e-01 3.217748165130615234e+00 1.234271764755249023e+00 -1.620952725410461426e+00
2.518000000000000000e+03 5.455717468261718750e+01 2.096623802185058594e+01 -1.209257364273071289e+00 4.428190708160400391e+00 9.656800031661987305e-01 -2.648765087127685547e+00
2.519000000000000000e+03 6.128739929199218750e+01 6.643110275268554688e+00 -3.658795356750488281e-01 4.373341560363769531e+00 1.202238678932189941e+00 -1.683334350585937500e+00
2.520000000000000000e+03 5.968534851074218750e+01 9.518473625183105469e+00 8.643234372138977051e-01 6.392027854919433594e+00 2.176905393600463867e+00 -1.873125135898590088e-01
2.521000000000000000e+03 1.683118247985839844e+01 -1.574602413177490234e+01 1.372541040182113647e-01 2.346827387809753418e-01 1.115810498595237732e-01 -2.517589926719665527e-01
2.522000000000000000e+03 1.363579082489013672e+01 -2.730505752563476562e+01 4.750727713108062744e-01 6.883848905563354492e-01 3.490372896194458008e-01 3.349977135658264160e-01
2.523000000000000000e+03 5.743733596801757812e+01 -2.346158599853515625e+01 7.744181156158447266e-01 6.776649475097656250e+00 2.265320301055908203e+00 9.356493353843688965e-01
2.524000000000000000e+03 7.132817077636718750e+01 -1.603968238830566406e+01 -1.517456173896789551e-01 1.800920844078063965e+00 4.947525560855865479e-01 -1.558849811553955078e+00
2.525000000000000000e+03 1.015526008605957031e+01 1.756554412841796875e+01 7.119071483612060547e-01 4.285672605037689209e-01 3.421423137187957764e-01 3.827989697456359863e-01
2.526000000000000000e+03 4.338265419006347656e+00 1.980580520629882812e+01 1.098559945821762085e-01 -6.552427411079406738e-01 -1.636160165071487427e-01 6.785545498132705688e-02
2.527000000000000000e+03 4.582843399047851562e+01 -2.260561752319335938e+01 1.905015945434570312e+00 5.744605064392089844e+00 2.294886350631713867e+00 1.125448271632194519e-01
2.528000000000000000e+03 4.041304779052734375e+01 -2.611606216430664062e+01 1.798577904701232910e-01 5.269267082214355469e+00 1.634737491607666016e+00 1.411319375038146973e+00
2.529000000000000000e+03 3.959178924560546875e+01 -2.694476318359375000e+01 -1.427557229995727539e+00 6.923632621765136719e+00 1.648822546005249023e+00 1.568145275115966797e+00
2.530000000000000000e+03 4.377857208251953125e+01 1.400315666198730469e+01 1.852443933486938477e+00 1.096749687194824219e+01 3.845982074737548828e+00 1.534872889518737793e+00
2.531000000000000000e+03 4.257069015502929688e+01 1.317702579498291016e+01 1.828254580497741699e+00 8.875529289245605469e+00 3.211135149002075195e+00 9.731873273849487305e-01
2.532000000000000000e+03 4.669198608398437500e+01 2.432793617248535156e+01 1.797376513481140137e+00 7.814791679382324219e+00 2.883650302886962891e+00 1.429842948913574219e+00
2.533000000000000000e+03 4.547053527832031250e+01 2.005231094360351562e+01 -2.062452077865600586e+00 6.856605052947998047e+00 1.438245773315429688e+00 3.138646364212036133e+00
2.534000000000000000e+03 3.370986557006835938e+01 1.954402732849121094e+01 -5.595064908266067505e-02 4.023882389068603516e+00 1.190379500389099121e+00 -1.331142187118530273e+00
2.535000000000000000e+03 3.799955749511718750e+01 2.078220558166503906e+01 -1.170693039894104004e+00 3.145252227783203125e+00 5.923677086830139160e-01 -2.552992343902587891e+00
2.536000000000000000e+03 5.199852752685546875e+01 -3.837675857543945312e+01 -1.763712763786315918e+00 6.133735179901123047e+00 1.311006784439086914e+00 4.450721144676208496e-01
2.537000000000000000e+03 5.028833770751953125e+01 -3.751791381835937500e+01 -1.372366547584533691e+00 5.193582057952880859e+00 1.146364569664001465e+00 5.330351591110229492e-01
2.538000000000000000e+03 6.708428955078125000e+01 2.193230819702148438e+01 -9.006385803222656250e-01 1.272576570510864258e+00 1.115813925862312317e-01 -3.412661850452423096e-01
2.539000000000000000e+03 1.910506629943847656e+01 1.970542335510253906e+01 4.607872366905212402e-01 3.150154352188110352e-01 2.327408045530319214e-01 -1.540801022201776505e-03
2.540000000000000000e+03 7.474713134765625000e+01 -1.935456657409667969e+01 7.581902146339416504e-01 9.029803276062011719e+00 2.936398029327392578e+00 4.735229313373565674e-01
2.541000000000000000e+03 7.707534027099609375e+01 -1.804604148864746094e+01 4.986095428466796875e-02 8.542407989501953125e+00 2.577680587768554688e+00 1.250900030136108398e+00
2.542000000000000000e+03 6.482958984375000000e+01 3.179622840881347656e+01 6.830642819404602051e-01 5.528619766235351562e+00 1.863505125045776367e+00 5.365177392959594727e-01
2.543000000000000000e+03 9.331337928771972656e+00 1.861439514160156250e+01 5.391355156898498535e-01 9.566916525363922119e-02 1.904414147138595581e-01 2.118282616138458252e-01
2.544000000000000000e+03 4.667325592041015625e+01 2.143885231018066406e+01 -1.867728233337402344e+00 6.862335205078125000e+00 1.498382091522216797e+00 2.399993896484375000e+00
2.545000000000000000e+03 4.440785980224609375e+01 2.097789192199707031e+01 -2.524179220199584961e+00 5.812325000762939453e+00 9.864437580108642578e-01 2.480707406997680664e+00
2.546000000000000000e+03 5.834224700927734375e+01 1.899541282653808594e+01 6.664695143699645996e-01 5.122317790985107422e+00 1.736636161804199219e+00 1.177800670266151428e-01
2.547000000000000000e+03 3.329552841186523438e+01 -3.186819076538085938e+01 5.232262015342712402e-01 5.026308894157409668e-01 3.077571392059326172e-01 -6.322755664587020874e-02
2.548000000000000000e+03 7.322545623779296875e+01 -2.730010414123535156e+01 -1.217341303825378418e+00 6.708502769470214844e+00 1.647348523139953613e+00 2.279355287551879883e+00
2.549000000000000000e+03 6.145111465454101562e+01 -1.603209137916564941e+00 1.296803236007690430e+00 8.275658607482910156e+00 2.871738433837890625e+00 -1.364100933074951172e+00
2.550000000000000000e+03 4.829051589965820312e+01 2.179297065734863281e+01 -5.179167389869689941e-01 4.346335411071777344e+00 1.148525595664978027e+00 1.325937986373901367e+00
2.551000000000000000e+03 4.851803207397460938e+01 -1.190123367309570312e+01 7.307261228561401367e-01 7.761018753051757812e+00 2.547523498535156250e+00 1.023401468992233276e-01
2.552000000000000000e+03 5.065547561645507812e+01 -8.867188453674316406e+00 2.592790126800537109e+00 7.615022659301757812e+00 3.062343835830688477e+00 -5.642295479774475098e-01
2.553000000000000000e+03 3.450306320190429688e+01 3.204643249511718750e+01 -1.621624976396560669e-01 4.395583152770996094e+00 1.270026206970214844e+00 -2.603097558021545410e-01
2.554000000000000000e+03 2.924634552001953125e+01 3.289321517944335938e+01 3.794746994972229004e-01 2.527050256729125977e+00 8.719574809074401855e-01 -1.011470079421997070e+00
2.555000000000000000e+03 6.136114597320556641e+00 3.609991455078125000e+01 5.779444426298141479e-02 -3.392835855484008789e-01 -8.444674313068389893e-02 -4.411077499389648438e-02
2.556000000000000000e+03 6.233211135864257812e+01 2.253556442260742188e+01 -2.224236726760864258e+00 6.037779808044433594e+00 1.144062995910644531e+00 3.543702363967895508e+00
2.557000000000000000e+03 1.240961074829101562e+01 4.135435104370117188e+01 2.849744446575641632e-02 1.085653677582740784e-01 4.111884534358978271e-02 4.028200358152389526e-02
2.558000000000000000e+03 1.448228359222412109e+01 3.659461212158203125e+01 7.807231694459915161e-02 8.821827173233032227e-02 4.988717660307884216e-02 2.759920060634613037e-02
2.559000000000000000e+03 5.825197982788085938e+01 1.298755359649658203e+01 1.447054624557495117e+00 8.458001136779785156e+00 2.971516847610473633e+00 1.303778529167175293e+00
2.560000000000000000e+03 5.850858688354492188e+01 1.397991752624511719e+01 1.758477568626403809e+00 8.530816078186035156e+00 3.086787939071655273e+00 1.497271895408630371e+00
2.561000000000000000e+03 7.312738037109375000e+01 9.774494171142578125e+00 1.229759931564331055e+00 8.785847663879394531e+00 3.004682302474975586e+00 -2.510389387607574463e-01
2.562000000000000000e+03 6.334119033813476562e+01 -2.306660652160644531e+01 3.336432218551635742e+00 6.813362598419189453e+00 3.044938564300537109e+00 -2.324620962142944336e+00
2.563000000000000000e+03 6.289355850219726562e+01 -2.562999725341796875e+01 -1.310995221138000488e+00 4.311923027038574219e+00 9.002783894538879395e-01 -2.962537527084350586e+00
2.564000000000000000e+03 7.393050384521484375e+01 -1.240315151214599609e+01 -1.482288241386413574e+00 4.076733112335205078e+00 7.783334851264953613e-01 1.183880448341369629e+00
2.565000000000000000e+03 3.652116775512695312e+01 -3.340264892578125000e+01 1.414477348327636719e+00 3.057975292205810547e+00 1.341735839843750000e+00 1.471007943153381348e+00
2.566000000000000000e+03 4.059248352050781250e+01 -1.734376907348632812e+01 9.872085601091384888e-02 2.083354234695434570e+00 6.546225547790527344e-01 -1.006349563598632812e+00
2.567000000000000000e+03 4.374034118652343750e+01 -2.037072753906250000e+01 2.527130365371704102e+00 3.944648504257202148e+00 1.941533684730529785e+00 1.073680043220520020e+00
2.568000000000000000e+03 5.135280990600585938e+01 3.326467895507812500e+01 5.371663570404052734e-01 6.317677497863769531e+00 2.056453227996826172e+00 3.514198064804077148e-01
2.569000000000000000e+03 7.538350677490234375e+01 6.926987171173095703e+00 -4.464322328567504883e-02 7.224244117736816406e+00 2.153880119323730469e+00 -9.724220633506774902e-01
2.570000000000000000e+03 7.256476593017578125e+01 -2.843687248229980469e+01 2.490016222000122070e-01 4.777780055999755859e+00 1.508034586906433105e+00 1.814109563827514648e+00
2.571000000000000000e+03 7.059263610839843750e+01 -2.877705764770507812e+01 1.233917832374572754e+00 2.556698560714721680e+00 1.137184977531433105e+00 5.589587092399597168e-01
2.572000000000000000e+03 5.509948730468750000e+01 1.969525694847106934e+00 -6.082705259323120117e-01 3.513928174972534180e+00 8.716973066329956055e-01 1.808473467826843262e+00
2.573000000000000000e+03 5.636502456665039062e+01 2.192359447479248047e+00 1.461131125688552856e-01 2.884723663330078125e+00 9.092510342597961426e-01 2.126158475875854492e-01
2.574000000000000000e+03 7.343574523925781250e+01 1.618064498901367188e+01 1.159968003630638123e-01 8.753936767578125000e+00 2.660979986190795898e+00 4.975786805152893066e-01
2.575000000000000000e+03 7.321062469482421875e+01 1.878661537170410156e+01 -1.218870401382446289e+00 7.396221160888671875e+00 1.853205204010009766e+00 3.630721196532249451e-02
2.576000000000000000e+03 2.696617507934570312e+01 -2.284118652343750000e+01 9.514353871345520020e-01 3.671862840652465820e+00 1.386989474296569824e+00 4.896422624588012695e-01
2.577000000000000000e+03 2.579739189147949219e+01 -2.232106971740722656e+01 1.127164244651794434e+00 2.634056329727172852e+00 1.128366231918334961e+00 5.034008026123046875e-01
2.578000000000000000e+03 2.004914283752441406e+01 2.059260177612304688e+01 4.968011081218719482e-01 8.768604397773742676e-01 4.120984673500061035e-01 -1.636451929807662964e-01
2.579000000000000000e+03 4.529692649841308594e+00 -2.784571647644042969e+01 4.430467635393142700e-02 -1.606445908546447754e-01 -3.490197286009788513e-02 1.067440863698720932e-02
2.580000000000000000e+03 1.176249122619628906e+01 -1.079484558105468750e+01 -5.174539983272552490e-03 8.281276375055313110e-02 2.329146675765514374e-02 -9.992062300443649292e-02
2.581000000000000000e+03 1.469626235961914062e+01 -1.191873264312744141e+01 -6.150984019041061401e-02 2.701168954372406006e-01 6.258211284875869751e-02 -6.248028203845024109e-02
2.582000000000000000e+03 4.338328933715820312e+01 1.951987075805664062e+01 -1.006135106086730957e+00 5.053038597106933594e+00 1.214071154594421387e+00 1.495379209518432617e+00
2.583000000000000000e+03 8.023981094360351562e+00 1.583528518676757812e+01 5.241130590438842773e-01 -5.580261349678039551e-02 1.404931247234344482e-01 4.664676785469055176e-01
2.584000000000000000e+03 3.439574813842773438e+01 -9.649377822875976562e+00 2.036062002182006836e+00 3.036798954010009766e+00 1.521858334541320801e+00 2.323470830917358398e+00
2.585000000000000000e+03 2.646292877197265625e+01 -3.248171997070312500e+01 1.132188662886619568e-01 2.603642463684082031e+00 8.150584101676940918e-01 -1.247131973505020142e-01
2.586000000000000000e+03 6.446387481689453125e+01 2.548501586914062500e+01 2.328101158142089844e+00 5.569387435913085938e+00 2.369246482849121094e+00 1.187374234199523926e+00
2.587000000000000000e+03 3.327233886718750000e+01 -1.414072322845458984e+01 -2.020761966705322266e+00 5.337399244308471680e-01 -4.461066424846649170e-01 2.186479568481445312e+00
2.588000000000000000e+03 3.651604843139648438e+01 -1.156278038024902344e+01 -5.275843739509582520e-01 3.803469419479370117e+00 9.827655553817749023e-01 5.038421154022216797e-01
2.589000000000000000e+03 8.211929321289062500e+00 1.084893226623535156e+01 -3.923416137695312500e-01 -2.169888615608215332e-01 -1.827991306781768799e-01 5.547120571136474609e-01
2.590000000000000000e+03 2.884498214721679688e+01 1.047176170349121094e+01 -1.072575375437736511e-01 6.084148883819580078e-01 1.503472030162811279e-01 -1.083786562085151672e-01
2.591000000000000000e+03 7.011845397949218750e+01 -3.015962219238281250e+01 2.043075323104858398e+00 3.522135496139526367e+00 1.669563293457031250e+00 -5.749777555465698242e-01
2.592000000000000000e+03 4.971017074584960938e+01 -6.050056457519531250e+00 2.214218378067016602e+00 8.642993927001953125e+00 3.257163763046264648e+00 -2.704847753047943115e-01
2.593000000000000000e+03 5.542881011962890625e+01 -3.587640380859375000e+01 5.110985636711120605e-01 7.033672809600830078e+00 2.263431549072265625e+00 -1.371565312147140503e-01
2.594000000000000000e+03 7.205429553985595703e+00 -1.291150951385498047e+01 -1.083859279751777649e-01 -1.457054466009140015e-01 -7.622741162776947021e-02 -1.192034408450126648e-01
2.595000000000000000e+03 3.969416809082031250e+01 8.616864204406738281e+00 1.696573734283447266e+00 1.189825725555419922e+01 4.078449249267578125e+00 -1.501183509826660156e+00
2.596000000000000000e+03 4.456467437744140625e+01 8.480491638183593750e+00 1.042476668953895569e-01 6.753574371337890625e+00 2.057346582412719727e+00 -5.879102945327758789e-01
2.597000000000000000e+03 6.565470886230468750e+01 -2.024011373519897461e+00 1.159553170204162598e+00 5.649034500122070312e+00 2.042576313018798828e+00 1.475835084915161133e+00
2.598000000000000000e+03 6.359143829345703125e+01 -1.271234989166259766e+01 -1.328054547309875488e+00 6.668970584869384766e+00 1.602274775505065918e+00 7.727083563804626465e-01
2.599000000000000000e+03 6.097134017944335938e+01 -1.047273254394531250e+01 -1.313123941421508789e+00 6.770439624786376953e+00 1.637194752693176270e+00 1.382580161094665527e+00
2.600000000000000000e+03 5.280056762695312500e+01 4.106112003326416016e+00 2.423339039087295532e-01 4.186378955841064453e+00 1.328613758087158203e+00 2.875371217727661133e+00
2.601000000000000000e+03 6.316321563720703125e+01 -4.143747329711914062e+01 -1.093403697013854980e+00 7.567818760871887207e-01 -1.009865403175354004e-01 2.382556796073913574e-01
2.602000000000000000e+03 6.982241821289062500e+01 2.230319404602050781e+01 -1.000221967697143555e+00 3.648809194564819336e+00 7.945761680603027344e-01 -1.382240414619445801e+00
2.603000000000000000e+03 5.148588943481445312e+01 -3.640556335449218750e+01 -6.113338842988014221e-02 6.269960880279541016e+00 1.862648248672485352e+00 3.654611408710479736e-01
2.604000000000000000e+03 5.326865768432617188e+01 -3.398722839355468750e+01 2.093190670013427734e+00 6.885332584381103516e+00 2.693557024002075195e+00 3.409600555896759033e-01
2.605000000000000000e+03 1.500498390197753906e+01 5.485783100128173828e+00 -6.078122854232788086e-01 -2.945250831544399261e-02 -1.911794394254684448e-01 7.721482515335083008e-01
2.606000000000000000e+03 5.153987503051757812e+01 -2.676372146606445312e+01 -5.721694231033325195e-01 1.611904263496398926e+00 3.119204342365264893e-01 -1.178274527192115784e-01
2.607000000000000000e+03 5.409434509277343750e+01 -2.684598731994628906e+01 -1.526412487030029297e+00 5.939468383789062500e+00 1.323916792869567871e+00 2.561918735504150391e+00
2.608000000000000000e+03 1.863092231750488281e+01 -1.945557403564453125e+01 4.988632202148437500e-01 5.596259981393814087e-02 1.664477437734603882e-01 3.850921988487243652e-02
2.609000000000000000e+03 7.234427642822265625e+01 -1.470408535003662109e+01 -4.313943684101104736e-01 2.418348312377929688e+00 5.960861444473266602e-01 -7.033648490905761719e-01
2.610000000000000000e+03 7.091637420654296875e+01 2.306356811523437500e+01 -4.117110669612884521e-01 4.586882591247558594e+00 1.252551436424255371e+00 -1.323199033737182617e+00
2.611000000000000000e+03 4.877638626098632812e+01 -3.126738071441650391e+00 8.627259135246276855e-01 6.924224853515625000e+00 2.336085319519042969e+00 -1.629739522933959961e+00
2.612000000000000000e+03 5.110547637939453125e+01 -3.329502820968627930e+00 1.160626173019409180e+00 8.666413307189941406e+00 2.948111772537231445e+00 -2.977461516857147217e-01
2.613000000000000000e+03 4.951911544799804688e+01 -1.425359821319580078e+01 -1.958614945411682129e+00 4.332654953002929688e+00 7.122119665145874023e-01 9.256947636604309082e-01
2.614000000000000000e+03 5.490331268310546875e+01 6.238441944122314453e+00 9.870055317878723145e-01 7.340929508209228516e+00 2.498380661010742188e+00 1.076853752136230469e+00
2.615000000000000000e+03 5.389413833618164062e+01 4.413776874542236328e+00 -2.647877633571624756e-01 5.688199996948242188e+00 1.627023696899414062e+00 2.627609729766845703e+00
2.616000000000000000e+03 5.106299209594726562e+01 -6.272323608398437500e+00 2.486938476562500000e+00 8.551425933837890625e+00 3.311509370803833008e+00 -2.392071187496185303e-01
2.617000000000000000e+03 1.559290409088134766e+01 -1.370503902435302734e+01 3.184064291417598724e-03 3.156960606575012207e-01 9.566403925418853760e-02 -9.841981530189514160e-02
2.618000000000000000e+03 5.952886962890625000e+01 1.510858440399169922e+01 1.794840574264526367e+00 9.254250526428222656e+00 3.314727306365966797e+00 1.840998649597167969e+00
2.619000000000000000e+03 1.708178520202636719e+01 -2.580854606628417969e+01 2.939199209213256836e-01 5.453565120697021484e-01 2.517829239368438721e-01 6.534502506256103516e-01
2.620000000000000000e+03 6.359220504760742188e+01 -2.174338531494140625e+01 3.234768867492675781e+00 8.096613883972167969e+00 3.399414777755737305e+00 -2.796183824539184570e+00
2.621000000000000000e+03 5.664558410644531250e+01 -1.297527122497558594e+01 -3.207202553749084473e-01 4.268362998962402344e+00 1.184292793273925781e+00 -2.053761482238769531e+00
2.622000000000000000e+03 5.337182617187500000e+01 4.113051223754882812e+01 -1.482685208320617676e+00 4.402751922607421875e+00 8.760200142860412598e-01 3.023054599761962891e-01
2.623000000000000000e+03 2.159023475646972656e+01 -2.421075057983398438e+01 5.174623727798461914e-01 1.150519922375679016e-01 1.897543072700500488e-01 4.087569713592529297e-01
2.624000000000000000e+03 6.519500732421875000e+01 3.321450424194335938e+01 -1.324092894792556763e-01 5.314117908477783203e+00 1.554512500762939453e+00 5.699744820594787598e-01
2.625000000000000000e+03 6.622410583496093750e+01 3.588883209228515625e+01 -6.371352076530456543e-01 4.921530723571777344e+00 1.285318613052368164e+00 2.232391238212585449e-01
2.626000000000000000e+03 5.569488906860351562e+01 -1.224575042724609375e+01 -5.480927601456642151e-02 3.746817111968994141e+00 1.107602357864379883e+00 -2.729639530181884766e+00
2.627000000000000000e+03 5.201463699340820312e+01 -2.904961585998535156e+01 1.180131196975708008e+00 4.549206733703613281e+00 1.718801379203796387e+00 1.380803587380796671e-04
2.628000000000000000e+03 3.529656600952148438e+01 -3.850403594970703125e+01 -7.794151306152343750e-01 2.746492862701416016e+00 5.901233553886413574e-01 6.372337341308593750e-01
2.629000000000000000e+03 6.797465515136718750e+01 -2.725363349914550781e+01 -7.397896647453308105e-01 4.130704402923583984e+00 1.017274379730224609e+00 -2.262864351272583008e+00
2.630000000000000000e+03 3.031764793395996094e+01 2.949938201904296875e+01 1.303769946098327637e+00 2.701674699783325195e+00 1.201633453369140625e+00 -1.439834833145141602e+00
2.631000000000000000e+03 3.480819702148437500e+01 3.060913085937500000e+01 4.875781238079071045e-01 5.693193912506103516e+00 1.854231595993041992e+00 1.795587241649627686e-01
2.632000000000000000e+03 4.922337722778320312e+01 4.898222446441650391e+00 5.645068883895874023e-01 7.570399045944213867e-01 3.964640200138092041e-01 -1.858096271753311157e-01
2.633000000000000000e+03 5.140424346923828125e+01 1.424810647964477539e+00 7.280538976192474365e-02 4.759979724884033203e+00 1.449835538864135742e+00 8.854830265045166016e-01
2.634000000000000000e+03 6.362917327880859375e+01 -8.115406036376953125e+00 1.872990012168884277e+00 8.756745338439941406e+00 3.188920736312866211e+00 -3.383640348911285400e-01
2.635000000000000000e+03 6.319293975830078125e+01 -9.483929634094238281e+00 5.204332470893859863e-01 8.225290298461914062e+00 2.623717069625854492e+00 2.307950705289840698e-01
2.636000000000000000e+03 8.182102203369140625e+00 2.090844154357910156e+01 1.173450797796249390e-01 -1.510355472564697266e-01 -1.010713912546634674e-02 5.980432033538818359e-02
2.637000000000000000e+03 5.402544784545898438e+01 -3.597946929931640625e+01 3.080294430255889893e-01 7.031085014343261719e+00 2.201734304428100586e+00 2.890600562095642090e-01
2.638000000000000000e+03 2.375223731994628906e+01 2.920012283325195312e+01 8.588336706161499023e-01 1.097912788391113281e+00 5.870239138603210449e-01 3.387354910373687744e-01
2.639000000000000000e+03 8.151354789733886719e+00 8.425407409667968750e+00 -5.806686282157897949e-01 -2.971069514751434326e-01 -2.633326649665832520e-01 3.538945615291595459e-01
2.640000000000000000e+03 5.843450164794921875e+01 1.013804817199707031e+01 1.475496053695678711e+00 7.902841091156005859e+00 2.813501119613647461e+00 6.894224882125854492e-01
2.641000000000000000e+03 4.194828033447265625e+00 2.692738723754882812e+01 -9.353693574666976929e-02 -7.930180430412292480e-01 -2.659665048122406006e-01 9.838214516639709473e-02
2.642000000000000000e+03 5.864093399047851562e+01 -2.510595130920410156e+01 -4.583056271076202393e-01 4.729628562927246094e+00 1.281396865844726562e+00 1.589467406272888184e+00
2.643000000000000000e+03 5.626104736328125000e+01 -2.442658615112304688e+01 -1.016766786575317383e+00 8.750880241394042969e+00 2.320234060287475586e+00 1.142466664314270020e+00
2.644000000000000000e+03 2.467175674438476562e+01 -2.467033195495605469e+01 2.458246797323226929e-01 1.962900757789611816e+00 6.626176238059997559e-01 4.741088449954986572e-01
2.645000000000000000e+03 2.323128700256347656e+01 -1.592381477355957031e+01 2.906651198863983154e-01 2.137318402528762817e-01 1.513190865516662598e-01 -7.468812167644500732e-02
2.646000000000000000e+03 6.505150604248046875e+01 -1.588761901855468750e+01 -2.334808588027954102e+00 5.230116367340087891e+00 8.685923814773559570e-01 6.818441152572631836e-01
2.647000000000000000e+03 6.186072158813476562e+01 -1.849131011962890625e+01 9.589884877204895020e-01 6.470265388488769531e+00 2.228776216506958008e+00 -1.090718388557434082e+00
2.648000000000000000e+03 5.103833389282226562e+01 -2.902134323120117188e+01 1.318463802337646484e+00 4.297047138214111328e+00 1.684653401374816895e+00 -5.928531885147094727e-01
2.649000000000000000e+03 3.151056861877441406e+01 -8.578373908996582031e+00 1.551774382591247559e+00 1.403852701187133789e+00 8.866881132125854492e-01 2.316224813461303711e+00
2.650000000000000000e+03 3.134282112121582031e+01 -1.375068855285644531e+01 -1.256625652313232422e+00 2.860625982284545898e+00 4.812000691890716553e-01 2.301906347274780273e+00
2.651000000000000000e+03 6.724240112304687500e+01 -2.918396568298339844e+01 2.004650592803955078e+00 6.530186176300048828e+00 2.560451030731201172e+00 -1.916649937629699707e+00
2.652000000000000000e+03 3.041521072387695312e+01 -3.036112785339355469e+01 -5.226036906242370605e-01 1.750245690345764160e+00 3.682925999164581299e-01 -4.423326551914215088e-01
2.653000000000000000e+03 3.537867355346679688e+01 -3.227806472778320312e+01 1.307706832885742188e+00 1.247161030769348145e+00 7.664603590965270996e-01 9.588219523429870605e-01
2.654000000000000000e+03 1.589479446411132812e+01 -8.523111343383789062e+00 -1.311159227043390274e-02 2.321647852659225464e-01 6.571596115827560425e-02 1.639895886182785034e-02
2.655000000000000000e+03 2.507287979125976562e+01 3.081582069396972656e+01 8.429972529411315918e-01 1.220010876655578613e+00 6.189024448394775391e-01 -1.822497397661209106e-01
2.656000000000000000e+03 2.333568763732910156e+01 3.020839118957519531e+01 5.756561756134033203e-01 1.141252756118774414e+00 5.150727033615112305e-01 5.253324657678604126e-02
2.657000000000000000e+03 5.537580490112304688e+01 -2.551078987121582031e+01 -3.564514636993408203e+00 7.490550518035888672e+00 1.177810788154602051e+00 1.938813209533691406e+00
2.658000000000000000e+03 5.525273895263671875e+01 -1.634830474853515625e+01 -1.441727876663208008e+00 6.870045661926269531e+00 1.628495454788208008e+00 -1.377954959869384766e+00
2.659000000000000000e+03 5.628397369384765625e+01 -2.335121536254882812e+01 5.416157841682434082e-01 8.064271926879882812e+00 2.581766366958618164e+00 3.873894810676574707e-01
2.660000000000000000e+03 5.121053218841552734e+00 -4.040386581420898438e+01 -1.293096244335174561e-01 1.128395274281501770e-01 -4.941028542816638947e-03 8.547461032867431641e-02
2.661000000000000000e+03 6.619740962982177734e+00 -3.837627410888671875e+01 -1.714291423559188843e-01 2.655760347843170166e-01 2.824406884610652924e-02 2.034548372030258179e-01
2.662000000000000000e+03 8.451386451721191406e+00 -1.220495319366455078e+01 -1.029936447739601135e-01 -1.450275331735610962e-01 -7.440635561943054199e-02 -8.860277384519577026e-02
2.663000000000000000e+03 4.260155200958251953e+00 -1.279040431976318359e+01 -5.022818967700004578e-02 -1.668423116207122803e-01 -6.512115150690078735e-02 -6.743328273296356201e-02
2.664000000000000000e+03 5.746254348754882812e+01 3.675710678100585938e+01 -9.981513023376464844e-01 1.198244929313659668e+00 6.002808362245559692e-02 1.500262975692749023e+00
2.665000000000000000e+03 3.204168701171875000e+01 -3.916419982910156250e+01 -5.311666727066040039e-01 2.409185647964477539e+00 5.634057521820068359e-01 2.216402888298034668e-01
2.666000000000000000e+03 5.593545913696289062e+01 -1.384416770935058594e+01 -6.706326603889465332e-01 4.894963741302490234e+00 1.267299413681030273e+00 -2.545435667037963867e+00
2.667000000000000000e+03 6.499492645263671875e+01 5.107507228851318359e+00 2.476524375379085541e-02 1.617192983627319336e+00 4.925874769687652588e-01 -3.109991550445556641e-01
2.668000000000000000e+03 5.883577728271484375e+01 2.114244842529296875e+01 -4.059777557849884033e-01 3.195381402969360352e+00 8.368210792541503906e-01 4.840692877769470215e-01
2.669000000000000000e+03 5.644399261474609375e+01 2.181361007690429688e+01 -1.917106986045837402e+00 2.828968524932861328e+00 2.735584676265716553e-01 -2.507179975509643555e+00
2.670000000000000000e+03 7.502195739746093750e+01 -1.147135162353515625e+01 -2.255656242370605469e+00 7.665308475494384766e+00 1.622895717620849609e+00 7.298042774200439453e-01
2.671000000000000000e+03 7.693051147460937500e+01 -1.220053863525390625e+01 -1.263307571411132812e+00 9.326511383056640625e+00 2.418961286544799805e+00 -1.581784784793853760e-01
2.672000000000000000e+03 6.799526214599609375e+01 -3.507783126831054688e+01 3.828957676887512207e-01 6.562735557556152344e+00 2.083689451217651367e+00 -1.639253258705139160e+00
2.673000000000000000e+03 7.067812347412109375e+01 -3.344505310058593750e+01 1.521654367446899414e+00 5.296391963958740234e+00 2.045413970947265625e+00 -1.146508336067199707e+00
2.674000000000000000e+03 4.980730438232421875e+01 -1.528822803497314453e+01 -2.989280939102172852e+00 2.100643157958984375e+00 -2.665913999080657959e-01 1.321925878524780273e+00
2.675000000000000000e+03 6.651914978027343750e+01 6.430726051330566406e-01 4.480470716953277588e-01 3.340693235397338867e+00 1.136622071266174316e+00 1.637065052986145020e+00
2.676000000000000000e+03 3.520213699340820312e+01 -1.954972386360168457e+00 1.971162259578704834e-01 2.997999668121337891e+00 9.585347175598144531e-01 1.957920074462890625e+00
2.677000000000000000e+03 3.931167602539062500e+01 3.701728582382202148e+00 -2.274338722229003906e+00 1.226305770874023438e+01 2.996615648269653320e+00 4.494797587394714355e-01
2.678000000000000000e+03 4.012408065795898438e+01 4.956402778625488281e+00 9.473919868469238281e-01 1.269750308990478516e+01 4.093468666076660156e+00 -4.733424633741378784e-02
2.679000000000000000e+03 4.483662414550781250e+01 5.246732711791992188e+00 1.028490543365478516e+00 5.604037761688232422e+00 1.989758491516113281e+00 -1.393729686737060547e+00
2.680000000000000000e+03 4.106525802612304688e+01 2.801844835281372070e+00 1.944350719451904297e+00 1.021690845489501953e+01 3.648377656936645508e+00 1.894357562065124512e+00
2.681000000000000000e+03 4.089569473266601562e+01 1.717536449432373047e+00 4.839544296264648438e+00 8.257162094116210938e+00 3.929012060165405273e+00 1.907714962959289551e+00
2.682000000000000000e+03 4.001945495605468750e+01 3.305678844451904297e+00 -1.123625397682189941e+00 1.321116065979003906e+01 3.626260757446289062e+00 1.657508611679077148e+00
2.683000000000000000e+03 3.999137115478515625e+01 2.579290568828582764e-01 3.608219861984252930e+00 9.489819526672363281e+00 3.929411888122558594e+00 1.276998400688171387e+00
2.684000000000000000e+03 4.162011718750000000e+01 3.546776473522186279e-01 3.612182617187500000e+00 5.275998592376708984e+00 2.666454315185546875e+00 -5.552625060081481934e-01
2.685000000000000000e+03 4.197377777099609375e+01 -2.312690973281860352e+00 -5.075332522392272949e-01 1.298158168792724609e+00 2.371874898672103882e-01 -8.663738369941711426e-01
2.686000000000000000e+03 4.021864318847656250e+01 3.430792689323425293e-01 4.120739459991455078e+00 8.637233734130859375e+00 3.827392101287841797e+00 7.143615484237670898e-01
2.687000000000000000e+03 4.075101852416992188e+01 -9.326965212821960449e-01 1.336735010147094727e+00 5.308443546295166016e+00 1.993553519248962402e+00 9.212448596954345703e-01
2.688000000000000000e+03 4.010353851318359375e+01 -6.735776662826538086e-01 1.341561555862426758e+00 7.962035655975341797e+00 2.791079044342041016e+00 1.749615669250488281e+00
2.689000000000000000e+03 3.332083511352539062e+01 1.320061397552490234e+01 9.213822335004806519e-02 2.660970985889434814e-01 1.074705943465232849e-01 -5.568870902061462402e-01
2.690000000000000000e+03 3.805959701538085938e+01 -4.003499150276184082e-01 1.990767836570739746e+00 6.994216918945312500e+00 2.695495367050170898e+00 5.397252559661865234e+00
2.691000000000000000e+03 3.740046691894531250e+01 -1.236230015754699707e+00 6.078188419342041016e-01 5.708308219909667969e+00 1.894838213920593262e+00 4.564291477203369141e+00
2.692000000000000000e+03 4.019910812377929688e+01 5.552474021911621094e+00 8.180426359176635742e-01 1.316714191436767578e+01 4.195555210113525391e+00 5.107528064399957657e-03
2.693000000000000000e+03 3.135451126098632812e+01 1.938368916511535645e+00 1.584672331809997559e-01 6.695438027381896973e-01 2.484033107757568359e-01 -2.899773716926574707e-01
2.694000000000000000e+03 3.121469879150390625e+01 3.092463016510009766e+00 9.724873304367065430e-01 1.030371904373168945e+00 6.008577942848205566e-01 -9.433519840240478516e-01
2.695000000000000000e+03 2.807753181457519531e+01 2.136808156967163086e+00 -7.543040513992309570e-01 2.668794691562652588e-01 -1.462273746728897095e-01 2.262180447578430176e-01
2.696000000000000000e+03 3.221504592895507812e+01 2.598059892654418945e+00 1.302245616912841797e+00 1.068002820014953613e+00 7.110745310783386230e-01 -1.138674855232238770e+00
2.697000000000000000e+03 3.962586975097656250e+01 4.539517879486083984e+00 9.591617584228515625e-01 1.329499244689941406e+01 4.276246547698974609e+00 1.646659672260284424e-01
2.698000000000000000e+03 3.718790054321289062e+01 -1.435470461845397949e+00 3.066451549530029297e-01 5.687427043914794922e+00 1.798221588134765625e+00 4.239104270935058594e+00
2.699000000000000000e+03 3.459448242187500000e+01 -2.596222639083862305e+00 2.957895696163177490e-01 2.388899803161621094e+00 8.054068088531494141e-01 1.480030417442321777e+00
2.700000000000000000e+03 3.883568954467773438e+01 -7.065820097923278809e-01 9.081760048866271973e-01 8.540666580200195312e+00 2.834652900695800781e+00 4.435659408569335938e+00
2.701000000000000000e+03 3.829399871826171875e+01 -6.093953847885131836e-01 1.315619349479675293e+00 7.616942882537841797e+00 2.679768800735473633e+00 5.085478782653808594e+00
2.702000000000000000e+03 3.679211044311523438e+01 -1.383513689041137695e+00 5.153738260269165039e-01 4.874247074127197266e+00 1.616886258125305176e+00 3.888161659240722656e+00
2.703000000000000000e+03 3.969702529907226562e+01 -3.062515258789062500e-01 1.707168698310852051e+00 8.927056312561035156e+00 3.190267324447631836e+00 2.180154800415039062e+00
2.704000000000000000e+03 2.944462013244628906e+01 5.039620399475097656e+00 9.893562793731689453e-01 1.884286165237426758e+00 8.620927333831787109e-01 -8.948681950569152832e-01
2.705000000000000000e+03 2.889473152160644531e+01 3.073813915252685547e+00 -2.188526466488838196e-02 6.618492603302001953e-01 1.919891983270645142e-01 -1.242816373705863953e-01
2.706000000000000000e+03 2.803613471984863281e+01 7.909751892089843750e+00 2.728349864482879639e-01 9.907429814338684082e-01 3.790733814239501953e-01 -4.942849576473236084e-01
2.707000000000000000e+03 2.884723854064941406e+01 8.793652534484863281e+00 4.019781574606895447e-02 9.822181463241577148e-01 3.067247867584228516e-01 -1.723611056804656982e-01
2.708000000000000000e+03 2.931338882446289062e+01 1.019400024414062500e+01 -8.498453348875045776e-02 5.894608497619628906e-01 1.513428986072540283e-01 -3.074209950864315033e-02
2.709000000000000000e+03 2.795445632934570312e+01 1.275907325744628906e+01 -3.366912901401519775e-02 3.918429613113403320e-01 1.074521467089653015e-01 8.999792858958244324e-03
2.710000000000000000e+03 2.960272026062011719e+01 1.050410175323486328e+01 -1.150655820965766907e-01 4.788949489593505859e-01 1.091488078236579895e-01 -1.357962749898433685e-02
2.711000000000000000e+03 2.846180343627929688e+01 7.684191226959228516e+00 2.450851649045944214e-01 1.243165135383605957e+00 4.464751183986663818e-01 -4.862654507160186768e-01
2.712000000000000000e+03 3.832398986816406250e+01 1.120558452606201172e+01 1.626984000205993652e+00 5.930840015411376953e+00 2.267347097396850586e+00 -2.422232151031494141e+00
2.713000000000000000e+03 3.822703552246093750e+01 1.049710750579833984e+01 2.036875009536743164e+00 6.276975631713867188e+00 2.494155168533325195e+00 -3.051433563232421875e+00
2.714000000000000000e+03 2.907208824157714844e+01 1.089551067352294922e+01 -1.497239768505096436e-01 5.482441186904907227e-01 1.195560470223426819e-01 -5.947598069906234741e-02
2.715000000000000000e+03 2.911281585693359375e+01 9.905162811279296875e+00 -6.947244703769683838e-02 6.900077462196350098e-01 1.861605942249298096e-01 -7.084416598081588745e-02
2.716000000000000000e+03 3.613779067993164062e+01 1.224034404754638672e+01 1.544307947158813477e+00 1.852658271789550781e+00 1.019089818000793457e+00 -1.779165506362915039e+00
2.717000000000000000e+03 3.570422363281250000e+01 1.244042110443115234e+01 1.212039113044738770e+00 1.389017224311828613e+00 7.803168892860412598e-01 -1.576587080955505371e+00
2.718000000000000000e+03 3.234648513793945312e+01 1.336145639419555664e+00 -2.290677726268768311e-01 4.840420186519622803e-01 7.649227976799011230e-02 -3.518046438694000244e-02
2.719000000000000000e+03 3.240211486816406250e+01 2.016616344451904297e+00 9.773707985877990723e-01 7.545656561851501465e-01 5.195809602737426758e-01 -6.681836843490600586e-01
2.720000000000000000e+03 3.054490661621093750e+01 1.145104885101318359e+01 -3.197223842144012451e-01 2.171916067600250244e-01 -3.075923211872577667e-02 -4.323003441095352173e-02
2.721000000000000000e+03 2.985542678833007812e+01 1.169216537475585938e+01 -3.041963279247283936e-01 4.041464626789093018e-01 2.998504415154457092e-02 5.225068330764770508e-02
2.722000000000000000e+03 2.754619789123535156e+01 2.891294240951538086e+00 -4.036331474781036377e-01 2.218580693006515503e-01 -5.453252047300338745e-02 1.676579266786575317e-01
2.723000000000000000e+03 2.839608001708984375e+01 6.638633728027343750e+00 6.124618649482727051e-01 1.311020970344543457e+00 5.770448446273803711e-01 -6.617480516433715820e-01
2.724000000000000000e+03 2.872722434997558594e+01 6.239475250244140625e+00 7.952440381050109863e-01 1.579170823097229004e+00 7.123244404792785645e-01 -7.106278538703918457e-01
2.725000000000000000e+03 3.799427032470703125e+01 1.157852745056152344e+01 1.721567392349243164e+00 5.152178764343261719e+00 2.062123775482177734e+00 -2.326092243194580078e+00
2.726000000000000000e+03 3.860323333740234375e+01 1.079580688476562500e+01 1.639537572860717773e+00 6.971063613891601562e+00 2.583180427551269531e+00 -2.343558549880981445e+00
2.727000000000000000e+03 2.919211959838867188e+01 5.411659717559814453e+00 1.012415647506713867e+00 1.890220642089843750e+00 8.707908987998962402e-01 -7.910218834877014160e-01
2.728000000000000000e+03 2.929704666137695312e+01 4.392898559570312500e+00 6.997725963592529297e-01 1.342618703842163086e+00 6.127173900604248047e-01 -6.079669594764709473e-01
2.729000000000000000e+03 2.834062957763671875e+01 8.576435089111328125e+00 1.011368185281753540e-01 9.783077836036682129e-01 3.238333761692047119e-01 -3.442590534687042236e-01
2.730000000000000000e+03 2.978343200683593750e+01 1.274422073364257812e+01 -2.017929553985595703e-01 3.773590922355651855e-01 5.266984179615974426e-02 2.060777097940444946e-01
2.731000000000000000e+03 3.937022018432617188e+01 9.514108657836914062e+00 1.492967009544372559e+00 1.021762847900390625e+01 3.513178586959838867e+00 -1.911043643951416016e+00
2.732000000000000000e+03 4.217901611328125000e+01 1.234630012512207031e+01 1.541041612625122070e+00 8.865262985229492188e+00 3.121891498565673828e+00 7.380416393280029297e-01
2.733000000000000000e+03 4.079265975952148438e+01 -4.260069727897644043e-01 2.427089214324951172e+00 5.999604225158691406e+00 2.528007984161376953e+00 4.148324728012084961e-01
2.734000000000000000e+03 2.799488830566406250e+01 6.980373382568359375e+00 4.980401992797851562e-01 9.953250288963317871e-01 4.480095803737640381e-01 -5.938788056373596191e-01
2.735000000000000000e+03 3.964168548583984375e+01 9.084999084472656250e+00 1.713043808937072754e+00 1.133423614501953125e+01 3.914184093475341797e+00 -1.623486995697021484e+00
2.736000000000000000e+03 3.760907745361328125e+01 1.190009593963623047e+01 1.704002022743225098e+00 4.295554161071777344e+00 1.799866795539855957e+00 -2.286709785461425781e+00
2.737000000000000000e+03 4.358455657958984375e+01 7.790677070617675781e+00 4.225634932518005371e-01 7.943907260894775391e+00 2.509941101074218750e+00 -4.316561520099639893e-01
2.738000000000000000e+03 3.980159759521484375e+01 9.838885307312011719e+00 1.349098324775695801e+00 9.961031913757324219e+00 3.393038988113403320e+00 -1.134050369262695312e+00
2.739000000000000000e+03 4.051438522338867188e+01 7.895724296569824219e+00 1.711827874183654785e+00 1.162039566040039062e+01 3.999666929244995117e+00 -6.545246243476867676e-01
2.740000000000000000e+03 4.047069931030273438e+01 9.073968887329101562e+00 1.484167814254760742e+00 1.064645957946777344e+01 3.639188289642333984e+00 -3.881089091300964355e-01
2.741000000000000000e+03 3.719711685180664062e+01 1.218609905242919922e+01 1.664525508880615234e+00 3.588355064392089844e+00 1.575864195823669434e+00 -2.146036624908447266e+00
2.742000000000000000e+03 4.067616271972656250e+01 8.368299484252929688e+00 1.669316053390502930e+00 1.101108169555664062e+01 3.804119348526000977e+00 -3.096338212490081787e-01
2.743000000000000000e+03 3.101431083679199219e+01 1.211336803436279297e+01 -6.358077526092529297e-01 2.139078378677368164e-01 -1.265699714422225952e-01 5.468982830643653870e-02
2.744000000000000000e+03 2.883854293823242188e+01 1.414334869384765625e+01 2.778606861829757690e-02 2.113154679536819458e-01 7.173045724630355835e-02 2.057628929615020752e-01
2.745000000000000000e+03 3.168324279785156250e+01 1.388969230651855469e+01 9.737061709165573120e-02 3.760497570037841797e-01 1.420261114835739136e-01 2.650897949934005737e-02
2.746000000000000000e+03 2.736610603332519531e+01 2.347352743148803711e+00 -7.486835718154907227e-01 1.173956766724586487e-01 -1.893863677978515625e-01 2.765406966209411621e-01
2.747000000000000000e+03 3.815583419799804688e+01 1.964278793334960938e+01 -4.665622711181640625e-01 3.127315759658813477e+00 7.982260584831237793e-01 -2.858798742294311523e+00
2.748000000000000000e+03 3.523265075683593750e+01 1.261151790618896484e+01 9.027304649353027344e-01 8.868864178657531738e-01 5.368850827217102051e-01 -1.357884764671325684e+00
2.749000000000000000e+03 3.135672950744628906e+01 1.252610778808593750e+01 -5.629027485847473145e-01 1.399128288030624390e-01 -1.268969774246215820e-01 1.781411617994308472e-01
2.750000000000000000e+03 2.957554054260253906e+01 1.378242492675781250e+01 8.350509218871593475e-03 3.088509738445281982e-01 9.516043961048126221e-02 2.582398355007171631e-01
2.751000000000000000e+03 3.487077331542968750e+01 -3.091244697570800781e+00 4.139216244220733643e-01 3.171501159667968750e+00 1.075626850128173828e+00 1.586677551269531250e+00
2.752000000000000000e+03 3.265716171264648438e+01 1.443723678588867188e+01 3.285094797611236572e-01 7.984311580657958984e-01 3.380821943283081055e-01 -5.074402689933776855e-01
2.753000000000000000e+03 3.003943443298339844e+01 1.443898105621337891e+01 1.441941261291503906e-01 2.399026304483413696e-01 1.152290254831314087e-01 3.173765540122985840e-01
2.754000000000000000e+03 3.009172630310058594e+01 1.758704662322998047e+00 -6.225900650024414062e-01 5.938928723335266113e-01 -8.609164506196975708e-03 1.832999847829341888e-02
2.755000000000000000e+03 3.389005661010742188e+01 1.331272983551025391e+01 3.498646616935729980e-01 4.833966493606567383e-01 2.499783933162689209e-01 -8.192119002342224121e-01
2.756000000000000000e+03 9.621703147888183594e+00 4.544373035430908203e+00 -3.730645179748535156e-01 -1.714284121990203857e-01 -1.633478850126266479e-01 1.295426487922668457e-01
2.757000000000000000e+03 1.005398082733154297e+01 3.894607543945312500e+00 -3.081408143043518066e-01 -1.774596124887466431e-01 -1.456801295280456543e-01 1.314465999603271484e-01
2.758000000000000000e+03 1.084613895416259766e+01 4.059864044189453125e+00 -3.762621581554412842e-01 -2.019720524549484253e-01 -1.734702587127685547e-01 2.212373167276382446e-01
2.759000000000000000e+03 1.184852886199951172e+01 4.793097972869873047e+00 -5.111016035079956055e-01 -3.410009443759918213e-01 -2.556307613849639893e-01 3.758934438228607178e-01
2.760000000000000000e+03 1.148466491699218750e+01 5.940144062042236328e+00 -6.729773283004760742e-01 -4.754320979118347168e-01 -3.445228338241577148e-01 3.940200805664062500e-01
2.761000000000000000e+03 9.217659950256347656e+00 -4.904904365539550781e+00 -2.832060307264328003e-02 -1.341988444328308105e-01 -4.875583574175834656e-02 -1.438082903623580933e-01
2.762000000000000000e+03 8.820876121520996094e+00 -4.230940341949462891e+00 -2.292577736079692841e-02 -6.878121057525277138e-04 -7.084076758474111557e-03 -8.961774408817291260e-02
2.763000000000000000e+03 8.613451957702636719e+00 -3.449390411376953125e+00 -6.794874370098114014e-02 -1.122623607516288757e-01 -5.406333133578300476e-02 -1.316853016614913940e-01
2.764000000000000000e+03 4.412234783172607422e+00 -3.522307634353637695e+00 -2.028638310730457306e-02 -3.220031782984733582e-02 -1.574601046741008759e-02 -3.997857868671417236e-02
2.765000000000000000e+03 4.036081314086914062e+00 -6.429122447967529297e+00 1.159781124442815781e-03 -8.283143490552902222e-02 -2.450149692595005035e-02 -4.372987523674964905e-02
2.766000000000000000e+03 4.207847118377685547e+00 -4.524860382080078125e+00 -1.495976839214563370e-02 -6.264593452215194702e-02 -2.328171022236347198e-02 -5.901043117046356201e-02
2.767000000000000000e+03 6.161542415618896484e+00 -5.192811489105224609e+00 -3.694467013701796532e-03 -5.605100840330123901e-02 -1.792364381253719330e-02 -7.462849467992782593e-02
2.768000000000000000e+03 2.924299001693725586e+00 -6.183623313903808594e+00 -1.966403098776936531e-03 -5.985137820243835449e-02 -1.854533515870571136e-02 -3.919772803783416748e-02
2.769000000000000000e+03 1.327918148040771484e+01 -2.780903816223144531e+00 -1.226695924997329712e-01 -1.345311254262924194e-01 -7.716021686792373657e-02 -1.262058913707733154e-01
2.770000000000000000e+03 2.221546745300292969e+01 4.057560443878173828e+00 -7.423385381698608398e-01 -1.685515344142913818e-01 -2.732670307159423828e-01 1.534258127212524414e-01
2.771000000000000000e+03 1.917990493774414062e+01 4.811088085174560547e+00 -6.481454372406005859e-01 3.930776566267013550e-02 -1.826513111591339111e-01 3.336931467056274414e-01
2.772000000000000000e+03 2.877958679199218750e+01 1.973313093185424805e+00 -7.549623847007751465e-01 4.057027399539947510e-01 -1.047779023647308350e-01 1.491944640874862671e-01
2.773000000000000000e+03 2.895701980590820312e+01 5.809215068817138672e+00 9.784747362136840820e-01 1.783146262168884277e+00 8.284862637519836426e-01 -7.360840439796447754e-01
2.774000000000000000e+03 2.535788726806640625e+01 3.725280523300170898e+00 -3.677985370159149170e-01 -1.160539090633392334e-01 -1.451557427644729614e-01 1.558590382337570190e-01
2.775000000000000000e+03 2.283710098266601562e+01 4.310008049011230469e+00 -5.117519497871398926e-01 -1.810469180345535278e-01 -2.078396528959274292e-01 1.019306555390357971e-01
2.776000000000000000e+03 2.441259384155273438e+01 3.265253305435180664e+00 -7.580361962318420410e-01 -1.889476329088211060e-01 -2.840951681137084961e-01 2.681054174900054932e-01
2.777000000000000000e+03 2.289204597473144531e+01 3.713272094726562500e+00 -8.210591077804565430e-01 -1.922422200441360474e-01 -3.039903938770294189e-01 1.989836692810058594e-01
2.778000000000000000e+03 2.040988731384277344e+01 6.508877754211425781e+00 1.967697739601135254e-01 1.547864228487014771e-01 1.054668575525283813e-01 1.326872855424880981e-01
2.779000000000000000e+03 2.240104293823242188e+01 5.702949047088623047e+00 -7.065208256244659424e-02 -1.455553472042083740e-01 -6.486222892999649048e-02 -2.878842409700155258e-03
2.780000000000000000e+03 2.220822525024414062e+01 8.090545654296875000e+00 4.317361414432525635e-01 8.862961828708648682e-02 1.561097204685211182e-01 -9.333198890089988708e-03
2.781000000000000000e+03 2.465483093261718750e+01 5.150072097778320312e+00 4.379364475607872009e-02 -1.251823604106903076e-01 -2.441661432385444641e-02 -5.721252411603927612e-02
2.782000000000000000e+03 1.366560363769531250e+01 5.123599052429199219e+00 -6.062577366828918457e-01 -3.536378741264343262e-01 -2.879686951637268066e-01 6.862776279449462891e-01
2.783000000000000000e+03 1.292959594726562500e+01 -4.430341720581054688e+00 1.279525738209486008e-02 4.769656062126159668e-02 1.814754679799079895e-02 -7.680723816156387329e-02
2.784000000000000000e+03 1.175080776214599609e+01 -3.080804347991943359e+00 -7.327896356582641602e-02 -1.593287289142608643e-01 -6.978230923414230347e-02 -1.215202361345291138e-01
2.785000000000000000e+03 1.375903987884521484e+01 -4.331439018249511719e+00 -1.345626078546047211e-02 -8.067107200622558594e-02 -2.823819965124130249e-02 -9.633029997348785400e-02
2.786000000000000000e+03 4.023159027099609375e+01 -2.672062158584594727e+00 -1.113304972648620605e+00 3.941015243530273438e+00 8.483131527900695801e-01 2.879438638687133789e+00
2.787000000000000000e+03 3.180153274536132812e+01 2.165850639343261719e+00 6.985659003257751465e-01 7.484142184257507324e-01 4.340940415859222412e-01 -5.394863486289978027e-01
2.788000000000000000e+03 3.218621063232421875e+01 2.309485912322998047e+00 1.197364807128906250e+00 8.247202634811401367e-01 6.066254973411560059e-01 -8.218689560890197754e-01
2.789000000000000000e+03 7.819595336914062500e+00 3.503746271133422852e+00 -1.648447960615158081e-01 -6.067072600126266479e-02 -6.765466183423995972e-02 1.803030818700790405e-02
2.790000000000000000e+03 6.685335159301757812e+00 5.023498535156250000e+00 -2.709965407848358154e-01 -6.883253902196884155e-02 -1.019487231969833374e-01 5.520752444863319397e-02
2.791000000000000000e+03 5.525090694427490234e+00 5.004150867462158203e+00 -2.038439214229583740e-01 -3.439193591475486755e-02 -7.147075980901718140e-02 3.721034526824951172e-02
2.792000000000000000e+03 7.916449069976806641e+00 4.744163036346435547e+00 -3.261323273181915283e-01 -1.081802323460578918e-01 -1.302937716245651245e-01 7.349833101034164429e-02
2.793000000000000000e+03 4.762722969055175781e+00 4.023571491241455078e+00 -1.131683960556983948e-01 -1.607143692672252655e-02 -3.877194970846176147e-02 -1.392984949052333832e-02
2.794000000000000000e+03 3.158014535903930664e+00 5.770924568176269531e+00 -9.362149238586425781e-02 -2.410472184419631958e-02 -3.531786426901817322e-02 4.407900199294090271e-02
2.795000000000000000e+03 4.822948455810546875e+00 5.579320907592773438e+00 -2.065264880657196045e-01 -3.446570038795471191e-02 -7.229765504598617554e-02 7.061699032783508301e-02
2.796000000000000000e+03 2.790837669372558594e+01 1.433994388580322266e+01 1.118441447615623474e-01 1.329462379217147827e-01 7.343711704015731812e-02 9.021008759737014771e-02
2.797000000000000000e+03 8.909408569335937500e+00 4.990617275238037109e+00 -3.930214941501617432e-01 -1.769769042730331421e-01 -1.709995269775390625e-01 1.325780302286148071e-01
2.798000000000000000e+03 8.231698989868164062e+00 5.401109695434570312e+00 -3.920553326606750488e-01 -1.549373120069503784e-01 -1.640977859497070312e-01 1.173246353864669800e-01
2.799000000000000000e+03 3.078017807006835938e+01 1.294029331207275391e+01 -2.495935261249542236e-01 3.108597397804260254e-01 1.837986148893833160e-02 2.730067670345306396e-01
2.800000000000000000e+03 9.597084999084472656e+00 -4.025147914886474609e+00 -4.244773834943771362e-02 -1.437240540981292725e-01 -5.585153773427009583e-02 -1.510675847530364990e-01
2.801000000000000000e+03 1.027812290191650391e+01 -3.846407651901245117e+00 -6.641966849565505981e-02 5.262430757284164429e-02 -4.138607997447252274e-03 -9.603962302207946777e-02
2.802000000000000000e+03 3.406858062744140625e+01 -5.301414489746093750e+00 1.794454336166381836e+00 3.201956033706665039e+00 1.498923063278198242e+00 1.152303576469421387e+00
2.803000000000000000e+03 1.093445110321044922e+01 -3.820300579071044922e+00 -2.003045938909053802e-02 -1.207691356539726257e-01 -4.223987832665443420e-02 -1.657297611236572266e-01
2.804000000000000000e+03 3.266406631469726562e+01 1.552002716064453125e+01 3.060020506381988525e-01 1.416352748870849609e+00 5.167064666748046875e-01 -5.979691147804260254e-01
2.805000000000000000e+03 3.146046447753906250e+01 1.569073009490966797e+01 1.991306394338607788e-01 1.171610355377197266e+00 4.112223088741302490e-01 -1.015419140458106995e-03
2.806000000000000000e+03 3.200408172607421875e+01 1.346951007843017578e+01 -5.519166961312294006e-02 1.835438311100006104e-01 3.850564733147621155e-02 -1.556087657809257507e-02
2.807000000000000000e+03 4.501551437377929688e+01 7.119893550872802734e+00 3.280271589756011963e-01 5.598166465759277344e+00 1.777858138084411621e+00 -1.115033626556396484e+00
2.808000000000000000e+03 4.428385162353515625e+01 7.530812740325927734e+00 4.042823910713195801e-01 7.036709308624267578e+00 2.232297420501708984e+00 -7.782126665115356445e-01
2.809000000000000000e+03 3.335389328002929688e+01 1.577596187591552734e+01 4.003607630729675293e-01 1.732889890670776367e+00 6.399751901626586914e-01 -1.118949890136718750e+00
2.810000000000000000e+03 3.333794021606445312e+01 -5.625692367553710938e+00 1.795194268226623535e+00 2.230269193649291992e+00 1.207639098167419434e+00 1.284331917762756348e+00
2.811000000000000000e+03 3.458085632324218750e+01 -5.901649475097656250e+00 2.368773937225341797e+00 3.944791078567504883e+00 1.894069433212280273e+00 1.480102896690368652e+00
2.812000000000000000e+03 3.110933113098144531e+01 -5.499022960662841797e+00 5.612900257110595703e-01 5.139546394348144531e-01 3.225733935832977295e-01 4.002484977245330811e-01
2.813000000000000000e+03 1.201919555664062500e+01 6.735008239746093750e+00 -1.039672493934631348e+00 -5.646876692771911621e-01 -4.813080430030822754e-01 5.200642347335815430e-01
2.814000000000000000e+03 4.430307769775390625e+01 -2.188612699508666992e+00 3.943656980991363525e-01 3.024263858795166016e+00 1.025588870048522949e+00 -3.060227394104003906e+00
2.815000000000000000e+03 4.887948226928710938e+01 -1.348705577850341797e+01 -1.614518880844116211e+00 5.798974990844726562e+00 1.255336880683898926e+00 8.093681931495666504e-01
2.816000000000000000e+03 4.854259872436523438e+01 -1.439148044586181641e+01 -2.872296094894409180e+00 5.946467399597167969e+00 9.222513437271118164e-01 1.633567094802856445e+00
2.817000000000000000e+03 6.206454467773437500e+01 -2.904540300369262695e+00 2.128637790679931641e+00 8.747665405273437500e+00 3.262890815734863281e+00 -1.343850851058959961e+00
2.818000000000000000e+03 4.208123779296875000e+01 -2.174850463867187500e+01 1.975044250488281250e+00 3.650680303573608398e+00 1.687717318534851074e+00 1.261776924133300781e+00
2.819000000000000000e+03 3.403111648559570312e+01 -1.347021198272705078e+01 -1.358592629432678223e+00 7.410284280776977539e-01 -1.852692812681198120e-01 1.595517516136169434e+00
2.820000000000000000e+03 5.084675216674804688e+01 2.725185394287109375e+01 1.977842330932617188e+00 6.392896175384521484e+00 2.511221647262573242e+00 3.637476563453674316e-01
2.821000000000000000e+03 4.039946365356445312e+01 -1.513369369506835938e+01 -2.576866149902343750e+00 1.895858168601989746e+00 -2.043024152517318726e-01 -1.400034189224243164e+00
2.822000000000000000e+03 4.457233810424804688e+01 -2.527211380004882812e+01 2.475262284278869629e-01 2.083544969558715820e+00 6.993213891983032227e-01 -5.083613395690917969e-01
2.823000000000000000e+03 4.200350952148437500e+01 -2.571757125854492188e+01 7.249700427055358887e-01 2.558657169342041016e+00 9.850881695747375488e-01 1.404070854187011719e+00
2.824000000000000000e+03 5.111561965942382812e+01 2.115286636352539062e+01 -7.314099669456481934e-01 3.665507078170776367e+00 8.802291154861450195e-01 -1.373273015022277832e+00
2.825000000000000000e+03 6.191854858398437500e+01 1.914498955011367798e-01 -3.280525505542755127e-01 6.744869709014892578e+00 1.925045132637023926e+00 -1.088912725448608398e+00
2.826000000000000000e+03 6.459197998046875000e+01 -1.250542879104614258e+00 7.039253115653991699e-01 6.043993473052978516e+00 2.024375677108764648e+00 8.049168586730957031e-01
2.827000000000000000e+03 3.696955871582031250e+01 -1.609345316886901855e+00 2.105923295021057129e-01 5.286881923675537109e+00 1.649242281913757324e+00 3.972698450088500977e+00
2.828000000000000000e+03 3.870389938354492188e+01 -3.386842727661132812e+00 -9.075162410736083984e-01 6.815629959106445312e+00 1.772433996200561523e+00 4.210197448730468750e+00
2.829000000000000000e+03 5.733699035644531250e+01 3.679329633712768555e+00 -2.274387702345848083e-02 4.420286178588867188e+00 1.319262742996215820e+00 -6.745048165321350098e-01
2.830000000000000000e+03 6.420171356201171875e+01 -2.395228004455566406e+01 1.863552331924438477e+00 8.193030357360839844e+00 3.016974925994873047e+00 -2.749051809310913086e+00
2.831000000000000000e+03 3.612739944458007812e+01 1.341107463836669922e+01 1.080331325531005859e+00 2.334226846694946289e+00 1.024367451667785645e+00 -2.034271717071533203e+00
2.832000000000000000e+03 5.036697006225585938e+01 2.003247261047363281e+01 -1.238472700119018555e+00 2.433919906616210938e+00 3.586341440677642822e-01 -1.289679646492004395e+00
2.833000000000000000e+03 5.219803237915039062e+01 2.021256828308105469e+01 -1.140952229499816895e+00 3.795750379562377930e+00 7.964394688606262207e-01 -2.194505929946899414e+00
2.834000000000000000e+03 2.151550483703613281e+01 5.631719589233398438e+00 -1.190330311655998230e-01 -7.947923988103866577e-02 -5.955368280410766602e-02 4.498208314180374146e-02
2.835000000000000000e+03 4.376108169555664062e+01 8.682859420776367188e+00 4.516997933387756348e-01 8.283170700073242188e+00 2.620461225509643555e+00 -2.211941480636596680e-01
2.836000000000000000e+03 3.250400924682617188e+01 -8.103743553161621094e+00 1.811149954795837402e+00 2.037114381790161133e+00 1.154479384422302246e+00 2.286892652511596680e+00
2.837000000000000000e+03 3.601839065551757812e+01 -5.979336738586425781e+00 2.815057992935180664e+00 6.583411216735839844e+00 2.819540739059448242e+00 2.046607971191406250e+00
2.838000000000000000e+03 3.545229339599609375e+01 -3.481037139892578125e+00 4.474668800830841064e-01 4.597693443298339844e+00 1.513548135757446289e+00 1.894579648971557617e+00
2.839000000000000000e+03 3.559140014648437500e+01 -1.186203670501708984e+01 -1.178892627358436584e-01 3.129868984222412109e+00 9.035939574241638184e-01 7.092862725257873535e-01
2.840000000000000000e+03 2.360476303100585938e+01 1.083070468902587891e+01 2.408962696790695190e-01 4.190965294837951660e-01 1.979978382587432861e-01 -8.714809268712997437e-02
2.841000000000000000e+03 3.900059127807617188e+01 1.106931209564208984e+01 1.300940394401550293e+00 7.380688667297363281e+00 2.604488611221313477e+00 -1.834010839462280273e+00
2.842000000000000000e+03 4.300537872314453125e+01 1.175496864318847656e+01 1.439182996749877930e+00 9.661867141723632812e+00 3.330315113067626953e+00 8.981141448020935059e-01
2.843000000000000000e+03 4.029722976684570312e+01 1.756235885620117188e+01 9.812178611755371094e-01 3.901870489120483398e+00 1.464926481246948242e+00 -1.474501013755798340e+00
2.844000000000000000e+03 2.233630752563476562e+01 1.062222480773925781e+01 2.988898754119873047e-01 4.477529823780059814e-01 2.239928543567657471e-01 5.763972923159599304e-02
2.845000000000000000e+03 2.675582695007324219e+01 -2.012023353576660156e+01 1.398602366447448730e+00 3.276177167892456055e+00 1.402433872222900391e+00 5.674678683280944824e-01
2.846000000000000000e+03 2.452114295959472656e+01 -1.782527923583984375e+01 9.024723768234252930e-01 1.206864118576049805e+00 6.328009366989135742e-01 2.325206995010375977e-01
2.847000000000000000e+03 4.270878219604492188e+01 1.603028678894042969e+01 1.832448720932006836e+00 7.174205780029296875e+00 2.701996326446533203e+00 5.637788176536560059e-01
2.848000000000000000e+03 4.289292907714843750e+01 1.517981910705566406e+01 2.000936508178710938e+00 7.913209438323974609e+00 2.974243879318237305e+00 7.410551309585571289e-01
2.849000000000000000e+03 7.470993041992187500e+01 1.565966796875000000e+01 4.137647151947021484e-01 8.103406906127929688e+00 2.555151462554931641e+00 8.098021745681762695e-01
2.850000000000000000e+03 3.053293991088867188e+01 -1.166777896881103516e+01 5.560596585273742676e-01 2.659432649612426758e+00 9.646477103233337402e-01 2.219559907913208008e+00
2.851000000000000000e+03 1.666054534912109375e+01 4.722228050231933594e+00 -6.787896752357482910e-01 2.488469630479812622e-01 -1.289828121662139893e-01 6.883921027183532715e-01
2.852000000000000000e+03 8.838390350341796875e+00 7.170197010040283203e+00 -5.719127058982849121e-01 -2.908381223678588867e-01 -2.588252425193786621e-01 2.941388487815856934e-01
2.853000000000000000e+03 2.956488800048828125e+01 -2.856149291992187500e+01 -1.196318864822387695e+00 2.549780130386352539e+00 4.060383439064025879e-01 -4.434208571910858154e-01
2.854000000000000000e+03 2.803851127624511719e+01 -2.921336174011230469e+01 -9.588157534599304199e-01 2.804780244827270508e+00 5.537893772125244141e-01 3.007255308330059052e-02
2.855000000000000000e+03 4.381315994262695312e+01 1.823577880859375000e+01 3.196689486503601074e-01 6.509498119354248047e+00 2.048750162124633789e+00 1.469007492065429688e+00
2.856000000000000000e+03 7.116939544677734375e+01 3.258709430694580078e+00 2.521748542785644531e-01 3.397991657257080078e+00 1.095049977302551270e+00 9.017613530158996582e-01
2.857000000000000000e+03 6.306475830078125000e+01 8.220927715301513672e-01 -2.120495885610580444e-01 5.696007251739501953e+00 1.645187258720397949e+00 -4.545894861221313477e-01
2.858000000000000000e+03 4.381262969970703125e+01 9.704924583435058594e+00 5.211917757987976074e-01 9.164893150329589844e+00 2.905825376510620117e+00 5.935112759470939636e-02
2.859000000000000000e+03 4.023633575439453125e+01 1.022593402862548828e+01 1.109233617782592773e+00 9.454506874084472656e+00 3.169122219085693359e+00 -4.505946338176727295e-01
2.860000000000000000e+03 2.141301155090332031e+01 7.314753532409667969e+00 3.503562510013580322e-01 6.681836396455764771e-02 1.251523792743682861e-01 6.582723557949066162e-02
2.861000000000000000e+03 7.691176605224609375e+01 1.315654277801513672e+01 6.887152194976806641e-01 6.923285007476806641e+00 2.283600091934204102e+00 2.303991466760635376e-01
2.862000000000000000e+03 7.708568572998046875e+01 -1.678242874145507812e+01 -1.588078737258911133e-01 8.521548271179199219e+00 2.508821964263916016e+00 1.172504544258117676e+00
2.863000000000000000e+03 7.699121093750000000e+01 -1.928906631469726562e+01 3.986987769603729248e-01 8.329209327697753906e+00 2.618372440338134766e+00 1.112432122230529785e+00
2.864000000000000000e+03 7.487162780761718750e+01 4.081098735332489014e-02 -8.603612780570983887e-01 6.494527339935302734e+00 1.690249800682067871e+00 -1.048390984535217285e+00
2.865000000000000000e+03 7.694154357910156250e+01 3.442600667476654053e-01 -5.150880813598632812e-01 7.975405216217041016e+00 2.238095045089721680e+00 -3.148128688335418701e-01
2.866000000000000000e+03 7.454697418212890625e+01 1.413691234588623047e+01 1.206525325775146484e+00 8.470928192138671875e+00 2.903236150741577148e+00 3.850384652614593506e-01
2.867000000000000000e+03 7.470412445068359375e+01 7.942436695098876953e+00 2.448595762252807617e-01 7.560789585113525391e+00 2.341694831848144531e+00 -8.503993153572082520e-01
2.868000000000000000e+03 7.602539062500000000e+01 -1.567933654785156250e+01 -6.488945484161376953e-01 7.737188816070556641e+00 2.126488208770751953e+00 9.434293508529663086e-01
2.869000000000000000e+03 7.597119903564453125e+01 -1.680632400512695312e+01 -3.033878207206726074e-01 8.183069229125976562e+00 2.363904476165771484e+00 1.100839734077453613e+00
2.870000000000000000e+03 7.357662200927734375e+01 2.879195690155029297e+00 -2.104849964380264282e-01 5.124529361724853516e+00 1.474213361740112305e+00 -4.660126864910125732e-01
2.871000000000000000e+03 7.684982299804687500e+01 2.996868371963500977e+00 -2.871642708778381348e-01 7.436759471893310547e+00 2.144878625869750977e+00 -7.791113853454589844e-01
2.872000000000000000e+03 7.674279785156250000e+01 -1.351038455963134766e+01 -9.664617776870727539e-01 8.560279846191406250e+00 2.278145313262939453e+00 4.071422219276428223e-01
2.873000000000000000e+03 7.488998413085937500e+01 9.560049057006835938e+00 7.464988827705383301e-01 7.985527515411376953e+00 2.619607925415039062e+00 -7.584419846534729004e-01
2.874000000000000000e+03 7.611817169189453125e+01 1.215646266937255859e+01 8.585736751556396484e-01 7.286577224731445312e+00 2.443545341491699219e+00 3.295159898698329926e-03
2.875000000000000000e+03 7.507312774658203125e+01 -1.557299995422363281e+01 -7.665306329727172852e-01 7.106146335601806641e+00 1.901884675025939941e+00 6.376659870147705078e-01
2.876000000000000000e+03 7.696590423583984375e+01 -1.551255893707275391e+01 -5.730153918266296387e-01 8.710871696472167969e+00 2.441356897354125977e+00 1.040206074714660645e+00
2.877000000000000000e+03 7.423110961914062500e+01 1.749169540405273438e+01 -5.493897795677185059e-01 7.995422363281250000e+00 2.233809709548950195e+00 6.909179091453552246e-01
2.878000000000000000e+03 7.729770660400390625e+01 1.702868080139160156e+01 -1.116407141089439392e-01 7.046501159667968750e+00 2.080458164215087891e+00 8.620245456695556641e-01
2.879000000000000000e+03 7.392816925048828125e+01 1.508564758300781250e+01 9.811903834342956543e-01 8.645960807800292969e+00 2.888145446777343750e+00 6.328730583190917969e-01
2.880000000000000000e+03 7.548899078369140625e+01 -1.222912907600402832e+00 -8.587043285369873047e-01 7.732079505920410156e+00 2.062012434005737305e+00 -5.421860218048095703e-01
2.881000000000000000e+03 7.431420135498046875e+01 1.646851730346679688e+01 2.072887308895587921e-02 8.003888130187988281e+00 2.407385110855102539e+00 7.881573438644409180e-01
2.882000000000000000e+03 7.432037353515625000e+01 1.857134819030761719e+01 -8.980746865272521973e-01 7.640349864959716797e+00 2.022682428359985352e+00 4.207246005535125732e-01
2.883000000000000000e+03 7.626154327392578125e+01 -2.171722793579101562e+01 1.029978752136230469e+00 9.061874389648437500e+00 3.027555942535400391e+00 3.491199016571044922e-01
2.884000000000000000e+03 7.442142486572265625e+01 3.122380447387695312e+01 3.295320272445678711e-01 5.988631725311279297e+00 1.895449042320251465e+00 9.387185424566268921e-02
2.885000000000000000e+03 7.576910400390625000e+01 -2.930392646789550781e+01 -3.605295121669769287e-01 7.414715766906738281e+00 2.116255998611450195e+00 4.170819520950317383e-01
2.886000000000000000e+03 7.630050659179687500e+01 -2.730544853210449219e+01 -4.714380204677581787e-01 7.978702545166015625e+00 2.252179384231567383e+00 -8.746361732482910156e-02
2.887000000000000000e+03 7.472138977050781250e+01 2.692060089111328125e+01 1.935949921607971191e-01 6.053730010986328125e+00 1.874197483062744141e+00 -3.689587414264678955e-01
2.888000000000000000e+03 7.374971008300781250e+01 2.220760154724121094e+01 -7.318108081817626953e-01 6.378213882446289062e+00 1.693920969963073730e+00 -6.543920040130615234e-01
2.889000000000000000e+03 7.586238861083984375e+01 2.600864982604980469e+01 -1.535774767398834229e-02 6.479361534118652344e+00 1.939201116561889648e+00 -4.059082269668579102e-01
2.890000000000000000e+03 7.490216827392578125e+01 -3.521368026733398438e+01 2.217357158660888672e-01 6.819936275482177734e+00 2.112501621246337891e+00 -4.461265206336975098e-01
2.891000000000000000e+03 7.645461273193359375e+01 -3.596485137939453125e+01 5.682125315070152283e-02 7.417522430419921875e+00 2.242303133010864258e+00 -2.308673411607742310e-01
2.892000000000000000e+03 7.668727111816406250e+01 2.884817695617675781e+01 1.847019195556640625e-01 6.574923992156982422e+00 2.027887821197509766e+00 -1.673665642738342285e-01
2.893000000000000000e+03 7.575679016113281250e+01 2.723765373229980469e+01 2.056978791952133179e-01 6.360495090484619141e+00 1.969857811927795410e+00 -3.338223397731781006e-01
2.894000000000000000e+03 7.638189697265625000e+01 3.023509025573730469e+01 1.732139885425567627e-01 6.463520050048828125e+00 1.991020321846008301e+00 -4.440876841545104980e-02
2.895000000000000000e+03 7.548025512695312500e+01 2.847661972045898438e+01 2.246845215559005737e-01 6.238659858703613281e+00 1.939003348350524902e+00 -2.174479961395263672e-01
2.896000000000000000e+03 7.457813262939453125e+01 -2.831080627441406250e+01 -5.726889967918395996e-01 7.123923301696777344e+00 1.965370416641235352e+00 6.617249846458435059e-01
2.897000000000000000e+03 7.665763854980468750e+01 -3.263626861572265625e+01 1.475610435009002686e-01 7.279677867889404297e+00 2.228171586990356445e+00 4.847894981503486633e-02
2.898000000000000000e+03 7.385130310058593750e+01 3.539028549194335938e+01 1.925699040293693542e-02 6.137282848358154297e+00 1.846961855888366699e+00 3.773132264614105225e-01
2.899000000000000000e+03 7.224895477294921875e+01 -3.583514404296875000e+01 3.714908957481384277e-01 6.042910575866699219e+00 1.924320459365844727e+00 -1.025605082511901855e+00
2.900000000000000000e+03 5.287479782104492188e+01 2.092384338378906250e+00 -5.911342501640319824e-01 4.658925533294677734e+00 1.220337390899658203e+00 2.219261884689331055e+00
2.901000000000000000e+03 4.557508087158203125e+01 -2.452754211425781250e+01 1.476412564516067505e-01 4.002820491790771484e+00 1.245138525962829590e+00 -6.989803910255432129e-01
2.902000000000000000e+03 3.551940155029296875e+01 -1.006491565704345703e+01 1.304572463035583496e+00 4.541775703430175781e+00 1.753904461860656738e+00 1.627659678459167480e+00
2.903000000000000000e+03 3.287196350097656250e+01 -1.001278972625732422e+01 1.880504250526428223e+00 2.016843557357788086e+00 1.169204354286193848e+00 2.590675354003906250e+00
2.904000000000000000e+03 2.706091690063476562e+01 -1.553534221649169922e+01 -2.284979522228240967e-01 2.753055095672607422e+00 7.573671340942382812e-01 8.766638636589050293e-01
2.905000000000000000e+03 2.429259490966796875e+01 -1.529630088806152344e+01 9.281454980373382568e-02 5.108880400657653809e-01 1.811107844114303589e-01 2.753885090351104736e-01
2.906000000000000000e+03 2.224685096740722656e+01 -1.674139785766601562e+01 4.345092475414276123e-01 5.275042355060577393e-02 1.461779028177261353e-01 -1.506736427545547485e-01
2.907000000000000000e+03 5.199182987213134766e+00 2.195544433593750000e+01 3.996127471327781677e-02 -5.400015115737915039e-01 -1.500120609998703003e-01 3.705004975199699402e-02
2.908000000000000000e+03 2.866916894912719727e+00 2.293613052368164062e+01 -5.500226281583309174e-03 -8.891993165016174316e-01 -2.684098780155181885e-01 1.202049548737704754e-03
2.909000000000000000e+03 5.312426567077636719e+00 2.344807815551757812e+01 -3.375933319330215454e-02 -5.733318924903869629e-01 -1.821273714303970337e-01 5.364452674984931946e-02
2.910000000000000000e+03 4.278445720672607422e+00 -1.707051277160644531e+01 -6.815716624259948730e-02 -1.907241940498352051e-01 -7.766441255807876587e-02 -1.622471809387207031e-01
2.911000000000000000e+03 4.530901432037353516e+00 -1.421509933471679688e+01 -7.834998518228530884e-02 -1.620256751775741577e-01 -7.211269438266754150e-02 -9.304942935705184937e-02
2.912000000000000000e+03 4.522421360015869141e+00 2.266664505004882812e+01 -1.130247395485639572e-02 -6.713293790817260742e-01 -2.047895640134811401e-01 2.008711732923984528e-02
2.913000000000000000e+03 3.288250684738159180e+00 1.849306678771972656e+01 1.160025745630264282e-01 -7.528121471405029297e-01 -1.910428702831268311e-01 1.151187047362327576e-01
2.914000000000000000e+03 4.556102752685546875e+00 1.849295425415039062e+01 1.775369942188262939e-01 -6.136012077331542969e-01 -1.308192610740661621e-01 1.452984660863876343e-01
2.915000000000000000e+03 6.873196601867675781e+00 1.511574649810791016e+01 3.758603632450103760e-01 -2.243972569704055786e-01 4.543893039226531982e-02 4.794664680957794189e-01
2.916000000000000000e+03 3.161617279052734375e+00 -1.583304500579833984e+01 -5.818866193294525146e-02 -1.890011727809906006e-01 -7.415694743394851685e-02 -1.224933713674545288e-01
2.917000000000000000e+03 3.041221618652343750e+00 -2.560921287536621094e+01 2.446424961090087891e-02 -3.309346139430999756e-01 -9.194111078977584839e-02 -5.860223900526762009e-03
2.918000000000000000e+03 3.125168800354003906e+00 -2.693596839904785156e+01 1.329626422375440598e-02 -3.300592899322509766e-01 -9.502890706062316895e-02 6.507200654596090317e-03
2.919000000000000000e+03 4.250490665435791016e+00 -2.528552055358886719e+01 1.765580102801322937e-02 -1.516446769237518311e-01 -4.019666463136672974e-02 -2.851517684757709503e-02
2.920000000000000000e+03 6.857776641845703125e+00 -2.559447097778320312e+01 9.333676099777221680e-02 8.745786547660827637e-02 5.423839017748832703e-02 -1.105994060635566711e-01
2.921000000000000000e+03 4.195144176483154297e+00 1.545534038543701172e+01 1.674800664186477661e-01 -5.633285045623779297e-01 -1.187545284628868103e-01 3.678342998027801514e-01
2.922000000000000000e+03 6.128295898437500000e+00 1.618899536132812500e+01 3.507520258426666260e-01 -3.729000091552734375e-01 -6.644394714385271072e-03 3.715584874153137207e-01
2.923000000000000000e+03 4.339281082153320312e+00 1.422907257080078125e+01 1.085597127676010132e-01 -4.518117904663085938e-01 -1.029756292700767517e-01 4.456017315387725830e-01
2.924000000000000000e+03 5.141109943389892578e+00 8.936752319335937500e+00 -2.614138424396514893e-01 -1.219748407602310181e-01 -1.150166019797325134e-01 3.580966293811798096e-01
2.925000000000000000e+03 3.983654737472534180e+00 3.580824279785156250e+01 7.497406750917434692e-02 -8.780350089073181152e-01 -2.409182786941528320e-01 -3.984125331044197083e-02
2.926000000000000000e+03 4.770029067993164062e+00 3.371105194091796875e+01 1.580751389265060425e-01 -6.768571138381958008e-01 -1.556345969438552856e-01 3.155353292822837830e-02
2.927000000000000000e+03 3.788612842559814453e+00 -8.959452629089355469e+00 7.712215185165405273e-03 -1.088827252388000488e-01 -3.035115264356136322e-02 -4.312394186854362488e-02
2.928000000000000000e+03 2.877718210220336914e+00 -1.169186973571777344e+01 -1.624382473528385162e-02 -1.364499330520629883e-01 -4.580812528729438782e-02 -3.479249402880668640e-02
2.929000000000000000e+03 3.361740589141845703e+00 -3.090538406372070312e+01 5.200465396046638489e-02 -2.794877588748931885e-01 -6.824493408203125000e-02 9.207824617624282837e-02
2.930000000000000000e+03 4.638261795043945312e+00 -2.914846229553222656e+01 7.916575670242309570e-02 -1.504015922546386719e-01 -2.137075178325176239e-02 5.027835816144943237e-02
2.931000000000000000e+03 6.086788177490234375e+00 9.291525840759277344e+00 -3.324769139289855957e-01 -1.254535168409347534e-01 -1.373791396617889404e-01 4.029100239276885986e-01
2.932000000000000000e+03 6.976527214050292969e+00 -3.467165374755859375e+01 7.316144555807113647e-02 1.313281059265136719e-01 6.134686619043350220e-02 2.766636610031127930e-01
2.933000000000000000e+03 4.714991092681884766e+00 -3.047880935668945312e+01 8.065743744373321533e-02 -1.426992863416671753e-01 -1.861255615949630737e-02 8.859465271234512329e-02
2.934000000000000000e+03 3.436590194702148438e+00 -3.224191665649414062e+01 4.095412045717239380e-02 -2.479916960000991821e-01 -6.211126968264579773e-02 1.185667812824249268e-01
2.935000000000000000e+03 6.081990242004394531e+00 -5.990955829620361328e+00 -1.256813388317823410e-02 -7.311411201953887939e-02 -2.570467256009578705e-02 -8.299174904823303223e-02
2.936000000000000000e+03 2.628774642944335938e+00 7.369839191436767578e+00 -9.681214392185211182e-02 -5.762953683733940125e-02 -4.633250460028648376e-02 1.267894804477691650e-01
2.937000000000000000e+03 4.621098995208740234e+00 9.585575103759765625e+00 -2.141869366168975830e-01 -1.688063293695449829e-01 -1.148979812860488892e-01 3.760798871517181396e-01
2.938000000000000000e+03 4.317645549774169922e+00 7.313004970550537109e+00 -1.974107921123504639e-01 -6.686063855886459351e-02 -7.928142696619033813e-02 1.760785281658172607e-01
2.939000000000000000e+03 4.365541934967041016e+00 -3.688179397583007812e+01 -1.645859517157077789e-02 -4.112128913402557373e-02 -1.727396622300148010e-02 1.901022791862487793e-01
2.940000000000000000e+03 6.265388965606689453e+00 -3.385917663574218750e+01 6.867411732673645020e-02 7.912489771842956543e-02 4.433970525860786438e-02 2.384258955717086792e-01
2.941000000000000000e+03 1.440428161621093750e+01 2.090227127075195312e+01 4.960648119449615479e-01 3.295516669750213623e-01 2.476849406957626343e-01 6.394704580307006836e-01
2.942000000000000000e+03 4.988943862915039062e+01 -2.889926147460937500e+01 9.819890260696411133e-01 4.615621089935302734e+00 1.679283022880554199e+00 -1.483740925788879395e+00
2.943000000000000000e+03 5.109265518188476562e+01 -3.010079574584960938e+01 1.989332079887390137e+00 5.089755535125732422e+00 2.123726129531860352e+00 -5.451140403747558594e-01
2.944000000000000000e+03 2.891833686828613281e+01 -1.349690055847167969e+01 -6.846455931663513184e-01 3.678740024566650391e+00 8.982282876968383789e-01 1.732942104339599609e+00
2.945000000000000000e+03 2.752095985412597656e+01 -1.448872661590576172e+01 -6.174870133399963379e-01 3.049881458282470703e+00 7.297183871269226074e-01 1.063671231269836426e+00
2.946000000000000000e+03 7.301062011718750000e+01 1.447020149230957031e+01 1.239085078239440918e+00 1.053489017486572266e+01 3.532192707061767578e+00 -1.874376088380813599e-01
2.947000000000000000e+03 6.224812984466552734e+00 -3.606486511230468750e+01 -2.496049553155899048e-02 1.529761254787445068e-01 3.840469196438789368e-02 2.573546767234802246e-01
2.948000000000000000e+03 6.674465179443359375e+00 3.828442764282226562e+01 -1.201552059501409531e-02 -2.840991914272308350e-01 -8.883441239595413208e-02 -9.365294128656387329e-03
2.949000000000000000e+03 6.544687652587890625e+01 2.835464668273925781e+01 1.570478558540344238e+00 6.221939086914062500e+00 2.337725162506103516e+00 1.186787247657775879e+00
2.950000000000000000e+03 6.632390594482421875e+01 2.793075752258300781e+01 1.674207329750061035e+00 5.170134544372558594e+00 2.053302526473999023e+00 1.110586166381835938e+00
2.951000000000000000e+03 4.933688354492187500e+01 -1.094170856475830078e+01 2.527880191802978516e+00 7.594342708587646484e+00 3.036666870117187500e+00 -2.137200348079204559e-02
2.952000000000000000e+03 1.135820102691650391e+01 1.842610740661621094e+01 7.820398211479187012e-01 5.504540205001831055e-01 3.997481465339660645e-01 4.843935966491699219e-01
2.953000000000000000e+03 1.792077636718750000e+01 -1.453566360473632812e+01 -3.936355933547019958e-02 1.810003221035003662e-01 4.249102622270584106e-02 -2.555596828460693359e-01
2.954000000000000000e+03 1.575289440155029297e+01 -1.106976318359375000e+01 -1.200568526983261108e-01 3.143710494041442871e-01 5.829426273703575134e-02 -2.880189567804336548e-02
2.955000000000000000e+03 7.385784912109375000e+01 -4.251719415187835693e-01 -1.015603661537170410e+00 5.181322574615478516e+00 1.249715685844421387e+00 -1.210345864295959473e+00
2.956000000000000000e+03 5.999692153930664062e+01 2.125239944458007812e+01 -9.687670469284057617e-01 4.355303287506103516e+00 1.015960931777954102e+00 1.966389894485473633e+00
2.957000000000000000e+03 1.905113220214843750e+01 2.120027542114257812e+01 5.735074877738952637e-01 6.255109310150146484e-01 3.597055375576019287e-01 5.833473056554794312e-02
2.958000000000000000e+03 1.980463600158691406e+01 1.899525642395019531e+01 1.942191570997238159e-01 4.691060781478881836e-01 1.989975720643997192e-01 -3.928405046463012695e-02
2.959000000000000000e+03 6.541198730468750000e+01 3.610439538955688477e+00 1.225816607475280762e-01 2.452010393142700195e+00 7.723776698112487793e-01 2.656378746032714844e-01
2.960000000000000000e+03 6.601964569091796875e+01 4.681972026824951172e+00 -1.038357801735401154e-02 1.089133381843566895e+00 3.236249387264251709e-01 7.140459418296813965e-01
2.961000000000000000e+03 4.482281112670898438e+01 -2.139712524414062500e+01 2.590491294860839844e+00 4.896866321563720703e+00 2.246207237243652344e+00 6.867973804473876953e-01
2.962000000000000000e+03 4.558997726440429688e+01 -2.027830696105957031e+01 2.511146068572998047e+00 7.060368537902832031e+00 2.871454477310180664e+00 7.535989284515380859e-01
2.963000000000000000e+03 4.909841537475585938e+01 -7.080616474151611328e+00 2.171233892440795898e+00 9.220764160156250000e+00 3.417599439620971680e+00 -8.750255405902862549e-02
2.964000000000000000e+03 5.079907226562500000e+01 -5.543914437294006348e-01 4.177292287349700928e-01 6.145369529724121094e+00 1.968929648399353027e+00 -2.167794555425643921e-01
2.965000000000000000e+03 2.523807907104492188e+01 -2.343200683593750000e+01 7.741362452507019043e-01 2.191298007965087891e+00 8.896302580833435059e-01 4.966492950916290283e-01
2.966000000000000000e+03 6.600176239013671875e+01 2.150550270080566406e+01 -9.657553434371948242e-01 3.949747681617736816e-01 -1.712341755628585815e-01 9.935442209243774414e-01
2.967000000000000000e+03 6.038048171997070312e+01 -2.464917373657226562e+01 7.987987995147705078e-01 2.044798851013183594e+00 8.530793190002441406e-01 4.315033555030822754e-01
2.968000000000000000e+03 4.257169342041015625e+01 -2.375420570373535156e+01 1.671526908874511719e+00 3.146975040435791016e+00 1.445550560951232910e+00 1.717872262001037598e+00
2.969000000000000000e+03 1.676701927185058594e+01 -1.477123451232910156e+01 9.815538674592971802e-02 2.725172042846679688e-01 1.112017780542373657e-01 -1.742243766784667969e-01
2.970000000000000000e+03 7.470204162597656250e+01 -1.800928306579589844e+01 1.136206313967704773e-01 8.390734672546386719e+00 2.551306724548339844e+00 5.005945563316345215e-01
2.971000000000000000e+03 7.641052246093750000e+01 -2.018564224243164062e+01 6.343700885772705078e-01 8.737725257873535156e+00 2.811628580093383789e+00 9.127618074417114258e-01
2.972000000000000000e+03 2.273411560058593750e+01 -2.507772064208984375e+01 2.655764222145080566e-01 6.540743112564086914e-01 2.758952081203460693e-01 3.298768103122711182e-01
2.973000000000000000e+03 1.876461219787597656e+01 -2.461393165588378906e+01 4.676500856876373291e-01 2.103842981159687042e-02 1.466065496206283569e-01 8.034940361976623535e-01
2.974000000000000000e+03 2.392075538635253906e+01 1.419890117645263672e+01 -8.794017136096954346e-02 7.212998270988464355e-01 1.900078952312469482e-01 -1.177719980478286743e-01
2.975000000000000000e+03 2.247224235534667969e+01 1.193108558654785156e+01 1.131965368986129761e-01 5.543009042739868164e-01 2.002492398023605347e-01 5.490079522132873535e-02
2.976000000000000000e+03 1.365118503570556641e+01 -1.090789890289306641e+01 -1.367121702060103416e-03 2.337477952241897583e-01 6.971420347690582275e-02 -8.223627507686614990e-02
2.977000000000000000e+03 5.395496368408203125e+01 1.799358725547790527e+00 -9.649900794029235840e-01 4.312915325164794922e+00 1.004377603530883789e+00 2.138856649398803711e+00
2.978000000000000000e+03 5.605510711669921875e+01 4.364896774291992188e+00 7.477448135614395142e-02 5.549468040466308594e+00 1.687272667884826660e+00 3.150757253170013428e-01
2.979000000000000000e+03 4.453554153442382812e+01 1.978766822814941406e+01 -2.235040426254272461e+00 6.692760944366455078e+00 1.337316155433654785e+00 2.702353239059448242e+00
2.980000000000000000e+03 4.910185241699218750e+01 -4.587650299072265625e+00 1.304716944694519043e+00 7.891220092773437500e+00 2.758781194686889648e+00 -1.060972213745117188e+00
2.981000000000000000e+03 5.051148223876953125e+01 -4.014354228973388672e+00 1.603432774543762207e+00 8.371509552001953125e+00 2.992482662200927734e+00 -7.902156114578247070e-01
2.982000000000000000e+03 8.262083053588867188e+00 9.595867156982421875e+00 -5.174674987792968750e-01 -2.631676793098449707e-01 -2.341905385255813599e-01 4.282516837120056152e-01
2.983000000000000000e+03 6.437510013580322266e+00 1.160984420776367188e+01 -1.324598193168640137e-01 -1.906781494617462158e-01 -9.694138914346694946e-02 5.821857452392578125e-01
2.984000000000000000e+03 6.524393463134765625e+01 2.628938293457031250e+01 2.602611541748046875e+00 5.314517021179199219e+00 2.375138521194458008e+00 1.712870597839355469e+00
2.985000000000000000e+03 6.494301605224609375e+01 2.461730003356933594e+01 1.335509419441223145e+00 4.906810283660888672e+00 1.872695922851562500e+00 1.570873737335205078e+00
2.986000000000000000e+03 4.945423507690429688e+01 3.428358793258666992e+00 1.002830147743225098e+00 2.159097909927368164e+00 9.485784769058227539e-01 -2.443464100360870361e-01
2.987000000000000000e+03 5.012814712524414062e+01 4.113457679748535156e+00 5.592166781425476074e-01 1.606846332550048828e+00 6.498188972473144531e-01 5.402710437774658203e-01
2.988000000000000000e+03 3.134504508972167969e+01 3.248210906982421875e+01 9.802124649286270142e-02 3.412764310836791992e+00 1.053235650062561035e+00 -1.065539360046386719e+00
2.989000000000000000e+03 3.715966415405273438e+01 -3.050065231323242188e+01 7.341009974479675293e-01 2.796767473220825195e+00 1.059260606765747070e+00 1.260771393775939941e+00
2.990000000000000000e+03 3.748540115356445312e+01 -2.951597785949707031e+01 -7.200446724891662598e-01 3.263277530670166016e+00 7.629699110984802246e-01 1.164307951927185059e+00
2.991000000000000000e+03 6.626051330566406250e+01 3.169284582138061523e+00 3.184645175933837891e-01 2.115372419357299805e+00 7.301511168479919434e-01 1.043560385704040527e+00
2.992000000000000000e+03 3.117302703857421875e+01 -1.009461212158203125e+01 1.817404866218566895e+00 1.971729040145874023e+00 1.136740207672119141e+00 2.442790508270263672e+00
2.993000000000000000e+03 3.143947410583496094e+01 -1.278869152069091797e+01 -5.133722424507141113e-01 2.596039772033691406e+00 6.248002052307128906e-01 2.430524826049804688e+00
2.994000000000000000e+03 6.971868133544921875e+01 -3.151818275451660156e+01 2.310175418853759766e+00 4.587286949157714844e+00 2.069238662719726562e+00 -1.239560604095458984e+00
2.995000000000000000e+03 3.372148513793945312e+01 -6.407029628753662109e+00 2.257634162902832031e+00 2.748163938522338867e+00 1.501739501953125000e+00 1.521422147750854492e+00
2.996000000000000000e+03 6.355203628540039062e+01 2.248402214050292969e+01 -1.269157290458679199e+00 5.242153644561767578e+00 1.191898941993713379e+00 3.216808557510375977e+00
2.997000000000000000e+03 6.478535461425781250e+01 2.356098937988281250e+01 3.181522488594055176e-01 4.297884464263916016e+00 1.384811043739318848e+00 1.557445168495178223e+00
2.998000000000000000e+03 6.014998245239257812e+01 -1.257822895050048828e+01 -9.137744307518005371e-01 5.761260986328125000e+00 1.454246044158935547e+00 1.395655632019042969e+00
2.999000000000000000e+03 5.089823532104492188e+01 -7.579685688018798828e+00 2.517827987670898438e+00 8.380392074584960938e+00 3.269465923309326172e+00 -2.205816507339477539e-01
3.000000000000000000e+03 1.493493366241455078e+01 -7.191279888153076172e+00 -1.240516547113656998e-02 1.590688377618789673e-01 4.399910196661949158e-02 3.272517770528793335e-02
3.001000000000000000e+03 1.326841831207275391e+01 -9.054945945739746094e+00 1.468760054558515549e-02 1.583858877420425415e-01 5.192204564809799194e-02 -7.378683984279632568e-02
3.002000000000000000e+03 7.047259521484375000e+01 2.127861976623535156e+01 -1.381700754165649414e+00 4.279380798339843750e+00 8.693040013313293457e-01 -1.354642391204833984e+00
3.003000000000000000e+03 7.147261810302734375e+01 2.207084274291992188e+01 -1.148756980895996094e+00 5.204690933227539062e+00 1.216780185699462891e+00 -1.296885728836059570e+00
3.004000000000000000e+03 1.888721656799316406e+01 -2.123920249938964844e+01 6.643763184547424316e-01 1.464870013296604156e-02 2.037075012922286987e-01 3.037038147449493408e-01
3.005000000000000000e+03 1.773823547363281250e+01 -2.039153671264648438e+01 5.146371126174926758e-01 1.102315485477447510e-01 1.874606013298034668e-01 2.338473647832870483e-01
3.006000000000000000e+03 1.103901195526123047e+01 -9.809144020080566406e+00 -1.338069979101419449e-02 -2.227031439542770386e-02 -1.069530472159385681e-02 -1.133794412016868591e-01
3.007000000000000000e+03 9.960930824279785156e+00 -2.750641822814941406e+01 2.866949439048767090e-01 3.243358433246612549e-01 1.833092421293258667e-01 3.612428531050682068e-02
3.008000000000000000e+03 1.266675090789794922e+01 -2.817802619934082031e+01 4.376926422119140625e-01 6.923703551292419434e-01 3.390189111232757568e-01 3.166888952255249023e-01
3.009000000000000000e+03 5.696592712402343750e+01 1.256404018402099609e+01 1.324588894844055176e+00 8.560188293457031250e+00 2.965433359146118164e+00 9.101133942604064941e-01
3.010000000000000000e+03 5.952787780761718750e+01 1.375224304199218750e+01 1.173780679702758789e+00 9.640373229980468750e+00 3.244246244430541992e+00 1.145620703697204590e+00
3.011000000000000000e+03 5.766583251953125000e+01 1.435578060150146484e+01 1.664338946342468262e+00 7.644514560699462891e+00 2.792655944824218750e+00 1.062656521797180176e+00
3.012000000000000000e+03 3.536944580078125000e+01 2.016365242004394531e+01 -3.144384920597076416e-01 4.379835128784179688e+00 1.219619035720825195e+00 -2.125630617141723633e+00
3.013000000000000000e+03 3.365666198730468750e+01 1.850973892211914062e+01 6.173906847834587097e-02 3.426148653030395508e+00 1.046366333961486816e+00 -1.395385503768920898e+00
3.014000000000000000e+03 2.896201324462890625e+01 -3.355567550659179688e+01 2.222133129835128784e-01 2.042125940322875977e+00 6.793017387390136719e-01 -1.313112676143646240e-01
3.015000000000000000e+03 3.023262786865234375e+01 -3.215394973754882812e+01 1.297786682844161987e-01 1.720312118530273438e+00 5.550272464752197266e-01 -3.259739875793457031e-01
3.016000000000000000e+03 5.687062454223632812e+01 -1.609837532043457031e+01 -5.213726162910461426e-01 6.517733573913574219e+00 1.798908352851867676e+00 -9.559285640716552734e-01
3.017000000000000000e+03 5.741594696044921875e+01 -1.207869148254394531e+01 2.231351733207702637e-01 2.905608654022216797e+00 9.386231899261474609e-01 -1.270911216735839844e+00
3.018000000000000000e+03 5.253718566894531250e+01 -2.718013572692871094e+01 -9.378432631492614746e-01 3.019881725311279297e+00 6.246114969253540039e-01 1.339764595031738281e+00
3.019000000000000000e+03 4.844561767578125000e+01 2.517989158630371094e+01 2.141753196716308594e+00 6.291180610656738281e+00 2.529880046844482422e+00 7.038557529449462891e-01
3.020000000000000000e+03 1.691500854492187500e+01 -1.388298320770263672e+01 -8.038865029811859131e-02 3.480828106403350830e-01 8.030825108289718628e-02 -1.330826878547668457e-01
3.021000000000000000e+03 6.429352569580078125e+01 -8.976602554321289062e+00 1.184080600738525391e+00 8.419194221496582031e+00 2.880982398986816406e+00 -3.956163823604583740e-01
3.022000000000000000e+03 6.314171600341796875e+01 -1.530793190002441406e+01 -1.617652893066406250e+00 6.451591491699218750e+00 1.450181603431701660e+00 5.239306092262268066e-01
3.023000000000000000e+03 5.694442749023437500e+00 -9.597731590270996094e+00 -1.495501957833766937e-03 -1.462001800537109375e-01 -4.430870711803436279e-02 -6.670800596475601196e-02
3.024000000000000000e+03 5.475897216796875000e+01 4.735625267028808594e+00 1.371994763612747192e-01 5.932361125946044922e+00 1.820868253707885742e+00 1.383862018585205078e+00
3.025000000000000000e+03 5.820832824707031250e+01 7.761415481567382812e+00 1.080531001091003418e+00 6.610503673553466797e+00 2.307310342788696289e+00 -2.979620695114135742e-01
3.026000000000000000e+03 5.805783081054687500e+01 -2.624961662292480469e+01 -2.460494279861450195e+00 6.038260936737060547e+00 1.073330044746398926e+00 1.946308970451354980e+00
3.027000000000000000e+03 4.929842376708984375e+01 -2.745396423339843750e+01 -7.707461118698120117e-01 3.470777511596679688e+00 8.100094795227050781e-01 -2.411472082138061523e+00
3.028000000000000000e+03 7.175831604003906250e+01 6.727199554443359375e+00 -1.793963015079498291e-01 5.948681831359863281e+00 1.730785727500915527e+00 8.809115886688232422e-01
3.029000000000000000e+03 6.779565429687500000e+01 3.202571153640747070e+00 5.085672140121459961e-01 1.901774048805236816e+00 7.231023907661437988e-01 1.877988338470458984e+00
3.030000000000000000e+03 5.388779830932617188e+01 2.024197959899902344e+01 -1.082238674163818359e+00 4.410496711730957031e+00 9.984773993492126465e-01 -2.551420927047729492e+00
3.031000000000000000e+03 5.533362579345703125e+01 1.739606475830078125e+01 4.155582189559936523e-01 5.014371395111083984e+00 1.628978848457336426e+00 -1.311826705932617188e+00
3.032000000000000000e+03 2.291811561584472656e+01 1.466065120697021484e+01 -9.298005700111389160e-02 7.654404640197753906e-01 2.017381340265274048e-01 -6.460532546043395996e-02
3.033000000000000000e+03 6.094979858398437500e+01 -1.204676723480224609e+01 -1.165726780891418457e+00 6.219371795654296875e+00 1.516093611717224121e+00 1.081896185874938965e+00
3.034000000000000000e+03 1.377417659759521484e+01 -2.502399826049804688e+01 1.925303041934967041e-01 4.342527985572814941e-01 1.880349367856979370e-01 2.888436913490295410e-01
3.035000000000000000e+03 1.343177223205566406e+01 -2.626790428161621094e+01 3.544987440109252930e-01 5.742864012718200684e-01 2.786355316638946533e-01 2.938321828842163086e-01
3.036000000000000000e+03 7.121845245361328125e+01 2.030458450317382812e+01 -1.717366218566894531e+00 5.381109714508056641e+00 1.099123001098632812e+00 -1.319794535636901855e+00
3.037000000000000000e+03 5.239605712890625000e+01 -1.085418605804443359e+01 1.478664517402648926e+00 4.879137992858886719e+00 1.907340764999389648e+00 -2.292540788650512695e+00
3.038000000000000000e+03 5.467295837402343750e+01 -1.161906242370605469e+01 3.165286481380462646e-01 4.060714244842529297e+00 1.313172936439514160e+00 -3.482795238494873047e+00
3.039000000000000000e+03 5.347692871093750000e+01 -2.792034339904785156e+01 -6.914861202239990234e-01 4.479210853576660156e+00 1.136317372322082520e+00 1.440549492835998535e+00
3.040000000000000000e+03 6.161548233032226562e+01 5.457599639892578125e+00 -8.095908164978027344e-01 4.408970832824707031e+00 1.079813957214355469e+00 -1.877148985862731934e+00
3.041000000000000000e+03 5.627930831909179688e+01 -2.541617584228515625e+01 -2.136972904205322266e+00 7.772673606872558594e+00 1.690710186958312988e+00 1.641265273094177246e+00
3.042000000000000000e+03 2.719751358032226562e+01 3.090090751647949219e+01 1.048858284950256348e+00 1.583563685417175293e+00 7.897266149520874023e-01 -7.332288622856140137e-01
3.043000000000000000e+03 2.422722816467285156e+01 3.299958038330078125e+01 3.536201715469360352e-01 1.442046165466308594e+00 5.386998653411865234e-01 -3.613910079002380371e-01
3.044000000000000000e+03 4.956556320190429688e+01 2.896678161621093750e+01 1.652567028999328613e+00 6.744105339050292969e+00 2.519001722335815430e+00 5.694420337677001953e-01
3.045000000000000000e+03 5.044679641723632812e+01 -1.400239944458007812e+01 -1.381430506706237793e+00 3.490241765975952148e+00 6.326433420181274414e-01 -4.463960826396942139e-01
3.046000000000000000e+03 5.124126434326171875e+01 -1.231188392639160156e+01 5.424753427505493164e-01 4.483614444732666016e+00 1.507826924324035645e+00 -1.605030298233032227e+00
3.047000000000000000e+03 4.575016784667968750e+01 3.580629730224609375e+01 -1.152433633804321289e+00 4.422185420989990234e+00 9.809255599975585938e-01 -9.920116066932678223e-01
3.048000000000000000e+03 7.560683250427246094e+00 -2.455474853515625000e+01 5.219767987728118896e-02 1.621454358100891113e-01 6.430293619632720947e-02 -1.504369080066680908e-01
3.049000000000000000e+03 5.445155620574951172e+00 -2.489469718933105469e+01 5.489953979849815369e-02 2.358506247401237488e-02 2.354538068175315857e-02 -7.212096452713012695e-02
3.050000000000000000e+03 9.701064109802246094e+00 6.846850395202636719e+00 -6.902252435684204102e-01 -3.244170248508453369e-01 -3.043926656246185303e-01 3.406225144863128662e-01
3.051000000000000000e+03 1.739957618713378906e+01 -2.375373649597167969e+01 2.898678183555603027e-01 2.216879874467849731e-01 1.534667462110519409e-01 6.421646475791931152e-01
3.052000000000000000e+03 6.751931762695312500e+01 -1.366565132141113281e+01 -5.137332081794738770e-01 1.807519793510437012e+00 3.881359696388244629e-01 -9.831612110137939453e-01
3.053000000000000000e+03 3.590410947799682617e+00 3.021030616760253906e+01 7.317648269236087799e-03 -8.703207373619079590e-01 -2.589009404182434082e-01 1.114217862486839294e-01
3.054000000000000000e+03 3.195321083068847656e+01 2.831664657592773438e+01 1.441301822662353516e+00 4.072978019714355469e+00 1.654284000396728516e+00 -1.511376619338989258e+00
3.055000000000000000e+03 4.115686035156250000e+01 1.630966424942016602e+00 4.661747455596923828e+00 7.605690002441406250e+00 3.680231094360351562e+00 1.438784003257751465e+00
3.056000000000000000e+03 5.840006256103515625e+01 4.218992710113525391e+00 -1.627723723649978638e-01 4.794684410095214844e+00 1.389573693275451660e+00 -1.621827960014343262e+00
3.057000000000000000e+03 3.567410659790039062e+01 -1.343261718750000000e+01 -1.883799433708190918e+00 1.578036189079284668e+00 -9.172896295785903931e-02 -5.467719957232475281e-02
3.058000000000000000e+03 5.064301681518554688e+01 3.043850135803222656e+01 1.352947354316711426e+00 7.136368751525878906e+00 2.546794891357421875e+00 6.769518852233886719e-01
3.059000000000000000e+03 5.077339553833007812e+01 3.534836959838867188e+01 -8.801734447479248047e-01 6.057843685150146484e+00 1.553301095962524414e+00 5.932226404547691345e-02
3.060000000000000000e+03 1.389118766784667969e+01 -6.765080451965332031e+00 7.843803614377975464e-02 1.294944286346435547e-01 6.237973645329475403e-02 -6.328278034925460815e-02
3.061000000000000000e+03 7.210218811035156250e+01 2.117313003540039062e+01 -1.396055102348327637e+00 5.939353466033935547e+00 1.362989544868469238e+00 -9.247664213180541992e-01
3.062000000000000000e+03 5.641393661499023438e+01 1.668006134033203125e+01 1.153396487236022949e+00 5.823171138763427734e+00 2.092970132827758789e+00 -4.083609282970428467e-01
3.063000000000000000e+03 5.704539871215820312e+01 1.770643806457519531e+01 8.968092799186706543e-01 5.327336311340332031e+00 1.867243647575378418e+00 -5.733351707458496094e-01
3.064000000000000000e+03 5.713912200927734375e+01 1.044470024108886719e+01 1.703713178634643555e+00 8.092617034912109375e+00 2.938899278640747070e+00 1.111883640289306641e+00
3.065000000000000000e+03 4.621036911010742188e+01 -1.464514970779418945e+00 8.427885174751281738e-01 4.702879428863525391e+00 1.663700461387634277e+00 -3.112631797790527344e+00
3.066000000000000000e+03 4.609088516235351562e+01 -2.890320777893066406e+00 2.209417819976806641e-01 4.930328369140625000e+00 1.545380949974060059e+00 -3.000731706619262695e+00
3.067000000000000000e+03 2.507072830200195312e+01 -2.687000083923339844e+01 -7.464389801025390625e-01 2.341160774230957031e+00 4.784165322780609131e-01 3.579201102256774902e-01
3.068000000000000000e+03 3.660014724731445312e+01 2.061752700805664062e+01 -5.240960121154785156e-01 4.072591781616210938e+00 1.064548730850219727e+00 -2.454770088195800781e+00
3.069000000000000000e+03 6.681873321533203125e+01 3.837268829345703125e+01 -7.114514708518981934e-01 4.748064041137695312e+00 1.210983872413635254e+00 5.172393098473548889e-02
3.070000000000000000e+03 3.754856109619140625e+01 -3.559498214721679688e+01 -1.085871681571006775e-01 3.707808256149291992e+00 1.079766273498535156e+00 1.315281748771667480e+00
3.071000000000000000e+03 1.181864070892333984e+01 -9.252742767333984375e+00 2.058875933289527893e-02 7.002780586481094360e-02 2.718497067689895630e-02 -8.811210840940475464e-02
3.072000000000000000e+03 6.682107543945312500e+01 2.888334083557128906e+01 1.600897908210754395e+00 5.270001411437988281e+00 2.061269760131835938e+00 1.031969070434570312e+00
3.073000000000000000e+03 6.845753479003906250e+01 -3.095151329040527344e+01 2.486447811126708984e+00 5.552413463592529297e+00 2.411658525466918945e+00 -1.814527988433837891e+00
3.074000000000000000e+03 1.486461925506591797e+01 -5.018683433532714844e+00 4.496138170361518860e-02 6.875394284725189209e-02 3.411459550261497498e-02 -5.456294491887092590e-02
3.075000000000000000e+03 1.351899242401123047e+01 -3.539089202880859375e+00 9.916490875184535980e-03 7.747189700603485107e-02 2.621651627123355865e-02 -1.036890000104904175e-01
3.076000000000000000e+03 6.438172149658203125e+01 -1.145223045349121094e+01 -7.898313403129577637e-01 7.010217666625976562e+00 1.866115927696228027e+00 2.905752062797546387e-01
3.077000000000000000e+03 5.500202655792236328e+00 -1.237474822998046875e+01 -5.177562311291694641e-02 -1.439752429723739624e-01 -5.872526019811630249e-02 -7.541933655738830566e-02
3.078000000000000000e+03 5.144296646118164062e+00 -1.114895725250244141e+01 -2.441270276904106140e-02 -1.567842215299606323e-01 -5.435907840728759766e-02 -5.899349600076675415e-02
3.079000000000000000e+03 4.156741333007812500e+01 -1.856924057006835938e+01 1.047996401786804199e+00 2.759215116500854492e+00 1.142163515090942383e+00 -3.463365733623504639e-01
3.080000000000000000e+03 7.420459747314453125e+01 -1.517787456512451172e+01 -6.964386701583862305e-01 5.722347259521484375e+00 1.507772564888000488e+00 4.683304131031036377e-01
3.081000000000000000e+03 2.744857215881347656e+01 -1.759929084777832031e+01 5.960529446601867676e-01 3.392417669296264648e+00 1.196541190147399902e+00 7.313832640647888184e-01
3.082000000000000000e+03 2.797207069396972656e+01 -1.643566894531250000e+01 3.881818428635597229e-02 3.671919345855712891e+00 1.113221287727355957e+00 9.819886088371276855e-01
3.083000000000000000e+03 6.063511371612548828e+00 2.247404289245605469e+01 -1.124511007219552994e-02 -4.410003125667572021e-01 -1.356736272573471069e-01 6.215398758649826050e-02
3.084000000000000000e+03 1.670732498168945312e+01 4.114621353149414062e+01 4.200749099254608154e-02 5.346388816833496094e-01 1.729938983917236328e-01 -2.407712489366531372e-02
3.085000000000000000e+03 2.767466735839843750e+01 -2.766150856018066406e+01 -1.089402079582214355e+00 3.074427843093872070e+00 5.955077409744262695e-01 1.180709898471832275e-01
3.086000000000000000e+03 7.889420032501220703e+00 -3.197794914245605469e+01 2.125579714775085449e-01 2.100026011466979980e-01 1.267681717872619629e-01 1.948768943548202515e-01
3.087000000000000000e+03 8.070122718811035156e+00 -3.490970611572265625e+01 1.150200888514518738e-01 2.938948869705200195e-01 1.226744949817657471e-01 2.851898074150085449e-01
3.088000000000000000e+03 6.160441589355468750e+01 -1.998477745056152344e+01 2.425171852111816406e+00 5.640502452850341797e+00 2.419702291488647461e+00 -1.500137567520141602e+00
3.089000000000000000e+03 1.232637119293212891e+01 -2.619197654724121094e+01 2.799517512321472168e-01 4.236631691455841064e-01 2.110844701528549194e-01 1.685672998428344727e-01
3.090000000000000000e+03 9.946162223815917969e+00 -2.611996269226074219e+01 2.221957296133041382e-01 2.314671427011489868e-01 1.360988616943359375e-01 -3.894964605569839478e-02
3.091000000000000000e+03 1.952714347839355469e+01 -1.597283744812011719e+01 1.035040840506553650e-01 9.256681054830551147e-02 5.882126837968826294e-02 -2.999394237995147705e-01
3.092000000000000000e+03 2.317321777343750000e+01 -1.944819831848144531e+01 1.158257246017456055e+00 7.269614338874816895e-01 5.655655860900878906e-01 1.575706005096435547e-01
3.093000000000000000e+03 4.277074813842773438e+01 1.417903518676757812e+01 2.148933410644531250e+00 8.351075172424316406e+00 3.150002479553222656e+00 9.063869714736938477e-01
3.094000000000000000e+03 6.700616455078125000e+01 -3.186491203308105469e+01 2.195709943771362305e+00 8.426198959350585938e+00 3.186572551727294922e+00 -2.778798103332519531e+00
3.095000000000000000e+03 6.819621276855468750e+01 -3.224492263793945312e+01 2.229068756103515625e+00 6.082447528839111328e+00 2.493454933166503906e+00 -1.886412143707275391e+00
3.096000000000000000e+03 5.290866851806640625e+01 2.365248107910156250e+01 -3.112591803073883057e-01 5.348667144775390625e+00 1.511222362518310547e+00 -1.391294121742248535e+00
3.097000000000000000e+03 5.547026443481445312e+01 2.143148422241210938e+01 -1.392605423927307129e+00 3.948733091354370117e+00 7.668383121490478516e-01 -2.667992353439331055e+00
3.098000000000000000e+03 4.903658676147460938e+01 2.789293098449707031e+01 1.974974751472473145e+00 7.005240917205810547e+00 2.694064617156982422e+00 9.823060035705566406e-01
3.099000000000000000e+03 4.931193542480468750e+01 2.093423271179199219e+01 -3.714178800582885742e-01 2.841006517410278320e+00 7.408766150474548340e-01 1.729518175125122070e-01
3.100000000000000000e+03 1.128674125671386719e+01 -3.004200935363769531e+01 4.196107685565948486e-01 6.639571785926818848e-01 3.250703811645507812e-01 2.338832765817642212e-01
3.101000000000000000e+03 6.139920711517333984e+00 -3.144041252136230469e+01 1.324025690555572510e-01 1.214997936040163040e-02 4.336576536297798157e-02 1.407605558633804321e-01
3.102000000000000000e+03 2.630538940429687500e+01 -2.124447822570800781e+01 1.337903141975402832e+00 3.050149202346801758e+00 1.316415667533874512e+00 5.331388711929321289e-01
3.103000000000000000e+03 5.516577148437500000e+01 -1.469882011413574219e+01 -1.150767564773559570e+00 5.400272846221923828e+00 1.274851560592651367e+00 -2.595318317413330078e+00
3.104000000000000000e+03 5.603480148315429688e+01 -1.542874622344970703e+01 -7.485660314559936523e-01 6.081858158111572266e+00 1.599987626075744629e+00 -1.995024442672729492e+00
3.105000000000000000e+03 7.227977275848388672e+00 1.242226123809814453e+01 -5.279630795121192932e-02 -2.371581792831420898e-01 -8.698634803295135498e-02 6.229757666587829590e-01
3.106000000000000000e+03 5.181901931762695312e+00 1.561541843414306641e+01 2.717227935791015625e-01 -4.451207220554351807e-01 -5.201938003301620483e-02 3.950884342193603516e-01
3.107000000000000000e+03 6.080606079101562500e+01 -2.065547370910644531e+01 2.695128679275512695e+00 5.192244052886962891e+00 2.366211891174316406e+00 -1.241678357124328613e+00
3.108000000000000000e+03 3.447452926635742188e+01 1.857061958312988281e+01 4.242251068353652954e-02 3.557546615600585938e+00 1.079990744590759277e+00 -1.738089084625244141e+00
3.109000000000000000e+03 4.361404418945312500e+01 -2.432972717285156250e+01 1.497868180274963379e+00 2.925853490829467773e+00 1.327116489410400391e+00 8.229511380195617676e-01
3.110000000000000000e+03 5.675787734985351562e+01 1.497734928131103516e+01 1.508116841316223145e+00 7.189372539520263672e+00 2.609246969223022461e+00 3.080857694149017334e-01
3.111000000000000000e+03 4.252009963989257812e+01 3.822481918334960938e+01 -7.071971297264099121e-01 2.214564085006713867e+00 4.522100985050201416e-01 -8.000894188880920410e-01
3.112000000000000000e+03 5.355845260620117188e+01 -3.125247573852539062e+01 2.422669649124145508e+00 6.063957691192626953e+00 2.545988321304321289e+00 5.490823984146118164e-01
3.113000000000000000e+03 5.336919021606445312e+01 -2.978585052490234375e+01 1.512137174606323242e+00 5.570927619934082031e+00 2.124919414520263672e+00 6.576887369155883789e-01
3.114000000000000000e+03 1.656509017944335938e+01 -2.486916351318359375e+01 2.566646039485931396e-01 4.667674303054809570e-01 2.170296013355255127e-01 6.239539980888366699e-01
3.115000000000000000e+03 5.519099807739257812e+01 -4.009273910522460938e+01 -2.721830368041992188e+00 5.974160194396972656e+00 9.756990075111389160e-01 -3.887643665075302124e-02
3.116000000000000000e+03 5.211267471313476562e+01 -2.817889213562011719e+01 2.938221693038940430e-01 3.677076578140258789e+00 1.191269636154174805e+00 9.753847867250442505e-02
3.117000000000000000e+03 4.208216857910156250e+01 1.673613166809082031e+01 1.503403186798095703e+00 5.818573474884033203e+00 2.196593046188354492e+00 -5.468130856752395630e-02
3.118000000000000000e+03 7.373900604248046875e+01 1.994675064086914062e+01 -1.466867327690124512e+00 7.130444049835205078e+00 1.699073076248168945e+00 -1.653964072465896606e-01
3.119000000000000000e+03 1.975110435485839844e+01 -2.398585128784179688e+01 5.019587278366088867e-01 -1.149297207593917847e-01 1.161087080836296082e-01 6.684098839759826660e-01
3.120000000000000000e+03 3.060403823852539062e+01 -3.340945053100585938e+01 3.335053920745849609e-01 1.564036130905151367e+00 5.692624449729919434e-01 -1.291518360376358032e-01
3.121000000000000000e+03 4.892182922363281250e+01 3.300609970092773438e+01 7.256123423576354980e-02 5.945283889770507812e+00 1.805353522300720215e+00 -1.500769555568695068e-01
3.122000000000000000e+03 6.272111511230468750e+01 -1.092602348327636719e+01 -8.980755209922790527e-01 7.435103416442871094e+00 1.961108326911926270e+00 9.361494779586791992e-01
3.123000000000000000e+03 4.484616851806640625e+01 -1.580489444732666016e+01 -1.888968110084533691e+00 4.100797653198242188e+00 6.635489463806152344e-01 1.830992102622985840e+00
3.124000000000000000e+03 4.366304397583007812e+01 -1.620883941650390625e+01 -1.158907055854797363e+00 2.402734518051147461e+00 3.731482625007629395e-01 9.709547162055969238e-01
3.125000000000000000e+03 1.332602787017822266e+01 2.062118148803710938e+01 4.819398522377014160e-01 3.264001905918121338e-01 2.425020188093185425e-01 5.776477456092834473e-01
3.126000000000000000e+03 1.382039833068847656e+01 1.964017677307128906e+01 5.478931069374084473e-01 4.049304723739624023e-01 2.858470678329467773e-01 7.044854760169982910e-01
3.127000000000000000e+03 5.993028640747070312e+01 1.920421600341796875e+01 9.918741583824157715e-01 6.648631572723388672e+00 2.292151689529418945e+00 1.511281847953796387e+00
3.128000000000000000e+03 6.002500152587890625e+01 2.017684364318847656e+01 1.776568591594696045e-02 5.562821388244628906e+00 1.674176096916198730e+00 1.543863654136657715e+00
3.129000000000000000e+03 6.298328876495361328e+00 1.783400344848632812e+01 3.481941819190979004e-01 -3.789109885692596436e-01 -9.215041063725948334e-03 2.117423117160797119e-01
3.130000000000000000e+03 8.169919013977050781e+00 1.771778869628906250e+01 5.063074231147766113e-01 -7.230361551046371460e-02 1.302011460065841675e-01 2.496987134218215942e-01
3.131000000000000000e+03 3.554429626464843750e+01 -3.015496826171875000e+01 3.233707845211029053e-01 2.645948529243469238e-01 1.763896942138671875e-01 5.643897652626037598e-01
3.132000000000000000e+03 3.185014343261718750e+01 4.119556427001953125e+01 -7.655684351921081543e-01 2.499059677124023438e+00 5.200473666191101074e-01 -1.024844590574502945e-02
3.133000000000000000e+03 1.870332908630371094e+01 -1.769980239868164062e+01 3.891053795814514160e-01 7.378003001213073730e-02 1.388656198978424072e-01 -1.881804168224334717e-01
3.134000000000000000e+03 1.002250576019287109e+01 -2.967707633972167969e+01 3.164316415786743164e-01 4.186080694198608398e-01 2.205119132995605469e-01 1.533764898777008057e-01
3.135000000000000000e+03 9.542591094970703125e+00 -3.122675132751464844e+01 3.222594857215881348e-01 4.162596464157104492e-01 2.215557396411895752e-01 1.949107348918914795e-01
3.136000000000000000e+03 5.839021301269531250e+01 1.501623344421386719e+01 1.923570990562438965e+00 8.008704185485839844e+00 2.979682683944702148e+00 1.238445758819580078e+00
3.137000000000000000e+03 8.987136840820312500e+00 -3.673142242431640625e+01 -1.302220480283722281e-04 3.878873884677886963e-01 1.163271516561508179e-01 3.045542240142822266e-01
3.138000000000000000e+03 3.959417724609375000e+01 3.596826791763305664e+00 -2.129545211791992188e+00 1.311910915374755859e+01 3.296869039535522461e+00 6.701520681381225586e-01
3.139000000000000000e+03 4.522428131103515625e+01 5.884666442871093750e+00 6.632060408592224121e-01 5.197474956512451172e+00 1.758204221725463867e+00 -1.380423426628112793e+00
3.140000000000000000e+03 4.109152984619140625e+01 1.236326694488525391e+00 4.938874721527099609e+00 7.224542617797851562e+00 3.649025201797485352e+00 9.565589427947998047e-01
3.141000000000000000e+03 4.150647735595703125e+01 -1.226098656654357910e+00 1.514268994331359863e+00 3.500697851181030273e+00 1.504490017890930176e+00 -4.117721617221832275e-01
3.142000000000000000e+03 4.081375503540039062e+01 4.867657721042633057e-01 4.320528984069824219e+00 7.150984764099121094e+00 3.441454172134399414e+00 3.004713654518127441e-01
3.143000000000000000e+03 4.114928054809570312e+01 6.604845523834228516e-01 4.435532093048095703e+00 6.602582454681396484e+00 3.311434268951416016e+00 2.383509576320648193e-01
3.144000000000000000e+03 3.646836853027343750e+01 -1.550559282302856445e+00 3.765956461429595947e-01 4.439565181732177734e+00 1.444848299026489258e+00 3.480629205703735352e+00
3.145000000000000000e+03 3.717914962768554688e+01 -2.416426658630371094e+00 -5.383965373039245605e-01 6.255487442016601562e+00 1.715127348899841309e+00 3.612101793289184570e+00
3.146000000000000000e+03 3.495334243774414062e+01 -2.517890691757202148e+00 2.598534822463989258e-01 3.295453071594238281e+00 1.066591978073120117e+00 1.657225131988525391e+00
3.147000000000000000e+03 3.078971290588378906e+01 2.767499208450317383e+00 4.803798496723175049e-01 8.231186270713806152e-01 3.910495340824127197e-01 -5.902046561241149902e-01
3.148000000000000000e+03 3.058827400207519531e+01 1.967100262641906738e+00 -2.568080723285675049e-01 6.300345063209533691e-01 1.119679287075996399e-01 -1.441481709480285645e-01
3.149000000000000000e+03 4.102475357055664062e+01 5.354700565338134766e+00 1.045239210128784180e+00 1.131574535369873047e+01 3.708295345306396484e+00 -3.508810400962829590e-01
3.150000000000000000e+03 2.956862068176269531e+01 4.032161235809326172e+00 6.235454082489013672e-01 1.227135539054870605e+00 5.552042722702026367e-01 -6.669632792472839355e-01
3.151000000000000000e+03 2.956297111511230469e+01 2.418906450271606445e+00 -2.261859327554702759e-01 6.468640565872192383e-01 1.262034475803375244e-01 -1.175404489040374756e-01
3.152000000000000000e+03 4.101052474975585938e+01 6.121618270874023438e+00 1.157700657844543457e+00 1.135481452941894531e+01 3.753754615783691406e+00 -4.695580899715423584e-01
3.153000000000000000e+03 4.025611877441406250e+01 6.723701000213623047e+00 1.168595433235168457e+00 1.313331127166748047e+01 4.290572166442871094e+00 -8.590041995048522949e-01
3.154000000000000000e+03 2.913547325134277344e+01 3.732046127319335938e+00 3.752758204936981201e-01 9.717255234718322754e-01 4.041003882884979248e-01 -3.631412684917449951e-01
3.155000000000000000e+03 3.566859436035156250e+01 -1.738687753677368164e+00 2.934666574001312256e-01 3.491200923919677734e+00 1.135400295257568359e+00 2.488370180130004883e+00
3.156000000000000000e+03 3.628466415405273438e+01 -2.323806524276733398e+00 -4.016787186264991760e-02 4.921880245208740234e+00 1.464513778686523438e+00 3.029426813125610352e+00
3.157000000000000000e+03 3.883849334716796875e+01 -1.202193617820739746e+00 -1.761107146739959717e-01 7.968754291534423828e+00 2.337793111801147461e+00 4.341725826263427734e+00
3.158000000000000000e+03 3.775254058837890625e+01 -1.606727242469787598e+00 -2.803404331207275391e-01 6.786900043487548828e+00 1.951967954635620117e+00 4.456175327301025391e+00
3.159000000000000000e+03 3.945915603637695312e+01 -1.599483013153076172e+00 -2.561702132225036621e-01 6.878776550292968750e+00 1.986781835556030273e+00 3.375544071197509766e+00
3.160000000000000000e+03 3.533669281005859375e+01 -2.445647001266479492e+00 1.837103664875030518e-01 3.528659343719482422e+00 1.113710880279541016e+00 2.122809886932373047e+00
3.161000000000000000e+03 3.567783737182617188e+01 -2.262682437896728516e+00 1.963090151548385620e-01 4.085305213928222656e+00 1.284484267234802246e+00 2.485234975814819336e+00
3.162000000000000000e+03 3.447187423706054688e+01 -3.639727354049682617e+00 7.414246797561645508e-01 3.131297349929809570e+00 1.161816596984863281e+00 1.376774311065673828e+00
3.163000000000000000e+03 3.570886230468750000e+01 -2.961479187011718750e+00 1.337223649024963379e-01 4.611358165740966797e+00 1.423524141311645508e+00 2.181621789932250977e+00
3.164000000000000000e+03 2.789665412902832031e+01 7.570681571960449219e+00 3.580372035503387451e-01 9.395518302917480469e-01 3.892767131328582764e-01 -5.457993149757385254e-01
3.165000000000000000e+03 2.894245529174804688e+01 9.173900604248046875e+00 1.751042786054313183e-03 8.613406419754028320e-01 2.589275240898132324e-01 -1.270460784435272217e-01
3.166000000000000000e+03 2.889361572265625000e+01 2.549331665039062500e+00 -3.258643448352813721e-01 5.422595739364624023e-01 6.491857767105102539e-02 -3.570219501852989197e-03
3.167000000000000000e+03 2.445676231384277344e+01 1.265147876739501953e+01 4.489557072520256042e-02 5.574165582656860352e-01 1.806936413049697876e-01 -1.236306354403495789e-01
3.168000000000000000e+03 3.977697753906250000e+01 -1.056390762329101562e+00 3.255228400230407715e-01 7.509409904479980469e+00 2.350479841232299805e+00 2.667701482772827148e+00
3.169000000000000000e+03 4.027795791625976562e+01 -3.489121198654174805e-01 1.967430591583251953e+00 7.436672687530517578e+00 2.821230888366699219e+00 1.363591313362121582e+00
3.170000000000000000e+03 2.868291664123535156e+01 1.007456493377685547e+01 -6.697856634855270386e-02 6.883795261383056641e-01 1.864202767610549927e-01 -1.438125371932983398e-01
3.171000000000000000e+03 3.924254226684570312e+01 1.063787746429443359e+01 1.338297605514526367e+00 8.333536148071289062e+00 2.901550292968750000e+00 -1.650248885154724121e+00
3.172000000000000000e+03 3.960595703125000000e+01 1.089989566802978516e+01 1.112660765647888184e+00 8.380484580993652344e+00 2.847943782806396484e+00 -1.154957413673400879e+00
3.173000000000000000e+03 3.876333236694335938e+01 1.156290435791015625e+01 1.400701999664306641e+00 6.527304649353027344e+00 2.378401994705200195e+00 -1.830500245094299316e+00
3.174000000000000000e+03 2.750585365295410156e+01 7.703878879547119141e+00 3.642829656600952148e-01 7.531183362007141113e-01 3.352203667163848877e-01 -5.348084568977355957e-01
3.175000000000000000e+03 2.766389656066894531e+01 7.315896987915039062e+00 4.480780363082885742e-01 8.163251876831054688e-01 3.793209493160247803e-01 -5.661758780479431152e-01
3.176000000000000000e+03 2.848457336425781250e+01 1.159666156768798828e+01 -1.343828886747360229e-01 5.128683447837829590e-01 1.135456413030624390e-01 -4.162433370947837830e-02
3.177000000000000000e+03 2.851712226867675781e+01 1.112547588348388672e+01 -1.264713257551193237e-01 5.555741190910339355e-01 1.287308335304260254e-01 -9.731619805097579956e-02
3.178000000000000000e+03 3.470193862915039062e+01 1.274176025390625000e+01 5.609074831008911133e-01 5.622475147247314453e-01 3.369464874267578125e-01 -1.036151170730590820e+00
3.179000000000000000e+03 3.033459472656250000e+01 1.188097953796386719e+01 -3.858887553215026855e-01 3.435509800910949707e-01 -1.270133443176746368e-02 5.735179036855697632e-02
3.180000000000000000e+03 2.883382034301757812e+01 1.230649375915527344e+01 -1.338922679424285889e-01 4.236652255058288574e-01 8.693189173936843872e-02 7.914359867572784424e-02
3.181000000000000000e+03 3.941962051391601562e+01 1.126506328582763672e+01 1.274675130844116211e+00 7.684674739837646484e+00 2.687804937362670898e+00 -1.292271852493286133e+00
3.182000000000000000e+03 2.876592636108398438e+01 5.138319015502929688e+00 8.756450414657592773e-01 1.297814965248107910e+00 6.520379781723022461e-01 -5.198623538017272949e-01
3.183000000000000000e+03 3.791743850708007812e+01 1.233581733703613281e+01 1.453120708465576172e+00 4.758503913879394531e+00 1.863487362861633301e+00 -2.050704002380371094e+00
3.184000000000000000e+03 4.009900665283203125e+01 9.419144630432128906e+00 1.360936880111694336e+00 1.039413833618164062e+01 3.526522636413574219e+00 -7.104372382164001465e-01
3.185000000000000000e+03 4.104179000854492188e+01 1.024760627746582031e+01 1.080378055572509766e+00 9.391618728637695312e+00 3.141599178314208984e+00 2.884728014469146729e-01
3.186000000000000000e+03 3.943918228149414062e+01 4.126204490661621094e+00 -6.857383251190185547e-01 1.276256370544433594e+01 3.623047590255737305e+00 6.827154010534286499e-02
3.187000000000000000e+03 4.270403289794921875e+01 1.040340995788574219e+01 1.041470408439636230e+00 9.346801757812500000e+00 3.116481781005859375e+00 7.529926896095275879e-01
3.188000000000000000e+03 3.746080398559570312e+01 1.261776638031005859e+01 1.412281394004821777e+00 3.963034391403198242e+00 1.612594723701477051e+00 -2.152105808258056641e+00
3.189000000000000000e+03 2.903078651428222656e+01 4.760828495025634766e+00 7.881509065628051758e-01 1.355596065521240234e+00 6.431241035461425781e-01 -5.593123435974121094e-01
3.190000000000000000e+03 2.859744071960449219e+01 9.672338485717773438e+00 -3.217945620417594910e-02 7.579192519187927246e-01 2.177219390869140625e-01 -1.777990460395812988e-01
3.191000000000000000e+03 4.031368255615234375e+01 7.083443164825439453e+00 1.422838807106018066e+00 1.250241756439208984e+01 4.177577018737792969e+00 -8.178592324256896973e-01
3.192000000000000000e+03 4.162159347534179688e+01 9.068886756896972656e+00 1.220342278480529785e+00 9.834717750549316406e+00 3.316518068313598633e+00 3.689897060394287109e-01
3.193000000000000000e+03 4.104476165771484375e+01 7.771175861358642578e+00 1.543441772460937500e+00 1.090780448913574219e+01 3.735373973846435547e+00 -2.562967538833618164e-01
3.194000000000000000e+03 4.091192626953125000e+01 8.851151466369628906e+00 1.482872843742370605e+00 1.051942062377929688e+01 3.600687980651855469e+00 -3.102330863475799561e-02
3.195000000000000000e+03 3.727935028076171875e+01 1.332582092285156250e+01 1.228903889656066895e+00 3.618181943893432617e+00 1.454125761985778809e+00 -2.162209749221801758e+00
3.196000000000000000e+03 3.634290695190429688e+01 1.269297313690185547e+01 1.325815796852111816e+00 2.407588481903076172e+00 1.120021224021911621e+00 -1.969983458518981934e+00
3.197000000000000000e+03 3.588970565795898438e+01 1.292328453063964844e+01 1.148213624954223633e+00 1.833502531051635742e+00 8.945148587226867676e-01 -1.886860489845275879e+00
3.198000000000000000e+03 3.016156768798828125e+01 2.256412029266357422e+00 -1.143739521503448486e-01 6.902360320091247559e-01 1.727586239576339722e-01 -2.024966776371002197e-01
3.199000000000000000e+03 3.200989151000976562e+01 1.500826263427734375e+01 2.945593595504760742e-01 9.214382767677307129e-01 3.647992908954620361e-01 -2.556360065937042236e-01
3.200000000000000000e+03 4.159297180175781250e+01 6.057156562805175781e+00 1.194938302040100098e+00 1.043037605285644531e+01 3.487594366073608398e+00 -4.984367787837982178e-01
3.201000000000000000e+03 2.794285583496093750e+01 6.302840232849121094e+00 7.274465560913085938e-01 8.921996355056762695e-01 4.858938455581665039e-01 -6.015304923057556152e-01
3.202000000000000000e+03 2.737834739685058594e+01 5.330615043640136719e+00 5.902361273765563965e-01 4.509959518909454346e-01 3.123696148395538330e-01 -3.081330955028533936e-01
3.203000000000000000e+03 1.058637809753417969e+01 6.423953056335449219e+00 -7.171704769134521484e-01 -3.853952288627624512e-01 -3.307696878910064697e-01 2.995575666427612305e-01
3.204000000000000000e+03 5.239872455596923828e+00 -4.429038047790527344e+00 -1.932026259601116180e-02 -2.912619523704051971e-02 -1.453393697738647461e-02 -5.643433332443237305e-02
3.205000000000000000e+03 3.118494033813476562e+01 1.344709300994873047e+01 -1.474775522947311401e-01 3.454323112964630127e-01 5.938642844557762146e-02 2.202771306037902832e-01
3.206000000000000000e+03 3.066765213012695312e+01 1.393048191070556641e+01 1.795244030654430389e-02 3.887343704700469971e-01 1.220060363411903381e-01 3.306393623352050781e-01
3.207000000000000000e+03 9.058993339538574219e+00 -1.070171546936035156e+01 -2.214707992970943451e-02 -1.168101057410240173e-01 -4.168715700507164001e-02 -1.019843816757202148e-01
3.208000000000000000e+03 7.056537628173828125e+00 -4.415442466735839844e+00 -1.918388716876506805e-02 -3.293163701891899109e-02 -1.563465781509876251e-02 -8.415171504020690918e-02
3.209000000000000000e+03 8.026412010192871094e+00 -5.265805244445800781e+00 1.364493556320667267e-02 -7.020477205514907837e-02 -1.696795038878917694e-02 -9.334091842174530029e-02
3.210000000000000000e+03 6.161903858184814453e+00 -4.407593727111816406e+00 -2.469201944768428802e-02 -7.983621954917907715e-02 -3.135847300291061401e-02 -8.962989598512649536e-02
3.211000000000000000e+03 1.426217174530029297e+01 -3.329370737075805664e+00 -1.011981889605522156e-01 -8.570328354835510254e-02 -5.607043951749801636e-02 -1.100215017795562744e-01
3.212000000000000000e+03 9.332961082458496094e+00 3.744874238967895508e+00 -2.542541325092315674e-01 -1.172360181808471680e-01 -1.114470511674880981e-01 9.087267518043518066e-02
3.213000000000000000e+03 2.613328170776367188e+01 3.480199337005615234e+00 -3.391898870468139648e-01 -3.737786039710044861e-02 -1.129703223705291748e-01 1.750781834125518799e-01
3.214000000000000000e+03 2.378051948547363281e+01 6.297449588775634766e+00 2.014939635992050171e-01 -9.687124192714691162e-02 3.138681501150131226e-02 -1.286706775426864624e-01
3.215000000000000000e+03 2.468037986755371094e+01 4.500962734222412109e+00 -1.720157861709594727e-01 -1.507070511579513550e-01 -9.681685268878936768e-02 3.744005039334297180e-02
3.216000000000000000e+03 2.776606559753417969e+01 3.406966924667358398e+00 -7.206384092569351196e-02 3.639252185821533203e-01 8.755841106176376343e-02 4.530540853738784790e-02
3.217000000000000000e+03 2.685738372802734375e+01 3.163201570510864258e+00 -3.742426931858062744e-01 8.861627429723739624e-02 -8.568792790174484253e-02 1.916561424732208252e-01
3.218000000000000000e+03 2.821224403381347656e+01 2.672513008117675781e+00 -4.157052338123321533e-01 3.850229084491729736e-01 -9.204704314470291138e-03 1.128137260675430298e-01
3.219000000000000000e+03 2.941665077209472656e+01 3.306065797805786133e+00 2.182646244764328003e-01 8.604553937911987305e-01 3.236159980297088623e-01 -3.504268229007720947e-01
3.220000000000000000e+03 2.328114128112792969e+01 5.077702522277832031e+00 -1.781475543975830078e-01 -1.758818775415420532e-01 -1.062088310718536377e-01 1.654990576207637787e-02
3.221000000000000000e+03 2.243621444702148438e+01 9.248250007629394531e+00 4.586969316005706787e-01 2.244501858949661255e-01 2.049441337585449219e-01 -4.267221782356500626e-03
3.222000000000000000e+03 2.402129364013671875e+01 4.563342094421386719e+00 -2.419250309467315674e-01 -1.759866625070571899e-01 -1.253735125064849854e-01 5.430416017770767212e-02
3.223000000000000000e+03 2.541613769531250000e+01 4.440983295440673828e+00 -7.692256569862365723e-02 -8.401650190353393555e-02 -4.828172177076339722e-02 2.345285005867481232e-02
3.224000000000000000e+03 2.396075057983398438e+01 5.129879951477050781e+00 -7.629606127738952637e-02 -1.558010429143905640e-01 -6.962913274765014648e-02 -2.254931628704071045e-02
3.225000000000000000e+03 1.227110862731933594e+01 5.423475742340087891e+00 -6.358754634857177734e-01 -4.021990001201629639e-01 -3.114223480224609375e-01 4.492557942867279053e-01
3.226000000000000000e+03 4.280465602874755859e+00 5.171781063079833984e+00 -1.422256380319595337e-01 -2.326316013932228088e-02 -4.964663833379745483e-02 3.455302491784095764e-02
3.227000000000000000e+03 6.506865978240966797e+00 4.314121246337890625e+00 -1.979836374521255493e-01 -5.214853212237358093e-02 -7.503965497016906738e-02 1.352632883936166763e-02
3.228000000000000000e+03 5.451784610748291016e+00 5.743655204772949219e+00 -2.457529008388519287e-01 -5.240172520279884338e-02 -8.944638818502426147e-02 7.683152705430984497e-02
3.229000000000000000e+03 4.905158042907714844e+00 4.884065628051757812e+00 -1.634016931056976318e-01 -3.239656984806060791e-02 -5.873947963118553162e-02 1.519615575671195984e-02
3.230000000000000000e+03 1.218144130706787109e+01 -4.393272399902343750e+00 -1.094777509570121765e-02 -6.948741525411605835e-02 -2.413055859506130219e-02 -1.481439471244812012e-01
3.231000000000000000e+03 1.275589084625244141e+01 -3.663532495498657227e+00 -5.526215583086013794e-02 -1.192590221762657166e-01 -5.235635116696357727e-02 -1.022154390811920166e-01
3.232000000000000000e+03 1.156634616851806641e+01 -4.124357700347900391e+00 -4.787421971559524536e-02 -5.191201716661453247e-02 -2.993587031960487366e-02 -5.038589239120483398e-02
3.233000000000000000e+03 1.300487518310546875e+01 -5.290347099304199219e+00 2.198425866663455963e-02 -1.494545675814151764e-02 2.111640525981783867e-03 -1.189361438155174255e-01
3.234000000000000000e+03 6.086588859558105469e+00 5.110786914825439453e+00 -2.547404468059539795e-01 -5.674996599555015564e-02 -9.344711899757385254e-02 4.975407943129539490e-02
3.235000000000000000e+03 7.158000469207763672e+00 4.208761692047119141e+00 -2.148814052343368530e-01 -6.326550990343093872e-02 -8.344407379627227783e-02 2.087036706507205963e-02
3.236000000000000000e+03 1.015601444244384766e+01 5.422571659088134766e+00 -5.085082650184631348e-01 -2.947589457035064697e-01 -2.409801632165908813e-01 2.392292916774749756e-01
3.237000000000000000e+03 7.760323524475097656e+00 6.460005283355712891e+00 -4.579311609268188477e-01 -1.654655039310455322e-01 -1.870189905166625977e-01 1.868068426847457886e-01
3.238000000000000000e+03 4.577703857421875000e+01 6.501500606536865234e+00 3.589057922363281250e-01 4.339482307434082031e+00 1.409516453742980957e+00 -1.182511806488037109e+00
3.239000000000000000e+03 3.398440551757812500e+01 -4.265970230102539062e+00 9.109565019607543945e-01 2.649331569671630859e+00 1.068086385726928711e+00 1.031391501426696777e+00
3.240000000000000000e+03 3.592028045654296875e+01 -4.620432376861572266e+00 1.054983615875244141e+00 6.022558212280273438e+00 2.123262643814086914e+00 1.871462106704711914e+00
3.241000000000000000e+03 4.694572067260742188e+01 5.606009483337402344e+00 3.595870137214660645e-01 2.795094728469848633e+00 9.464045166969299316e-01 -1.557850360870361328e+00
3.242000000000000000e+03 2.164310073852539062e+01 9.936412811279296875e+00 3.835970759391784668e-01 4.171803295612335205e-01 2.402332276105880737e-01 1.550800055265426636e-01
3.243000000000000000e+03 2.846231651306152344e+01 8.923884391784667969e+00 5.556125566363334656e-02 9.068009853363037109e-01 2.887086570262908936e-01 -2.750609517097473145e-01
3.244000000000000000e+03 3.323388290405273438e+01 1.504414558410644531e+01 4.533204138278961182e-01 1.277200460433959961e+00 5.191562771797180176e-01 -9.291395545005798340e-01
3.245000000000000000e+03 3.932187271118164062e+01 1.176739692687988281e+01 1.197133302688598633e+00 7.045987129211425781e+00 2.472936153411865234e+00 -1.368711471557617188e+00
3.246000000000000000e+03 4.216043090820312500e+01 1.547206306457519531e+01 1.870327591896057129e+00 6.743594646453857422e+00 2.584176540374755859e+00 1.743155866861343384e-01
3.247000000000000000e+03 4.173607254028320312e+01 1.344940948486328125e+01 1.843867421150207520e+00 7.707617759704589844e+00 2.865445613861083984e+00 3.570621311664581299e-01
3.248000000000000000e+03 4.048107147216796875e+01 -1.464920282363891602e+00 5.406205058097839355e-01 5.361343383789062500e+00 1.770589232444763184e+00 1.819630146026611328e+00
3.249000000000000000e+03 1.547002220153808594e+01 -3.527488946914672852e+00 -3.165105730295181274e-02 -2.463448978960514069e-02 -1.688566431403160095e-02 4.498917609453201294e-03
3.250000000000000000e+03 5.708066177368164062e+01 1.952412796020507812e+01 1.296920478343963623e-01 4.167883396148681641e+00 1.289272665977478027e+00 -1.268416285514831543e+00
3.251000000000000000e+03 4.226101303100585938e+01 1.112685585021972656e+01 1.081134438514709473e+00 9.203890800476074219e+00 3.085507631301879883e+00 7.978525161743164062e-01
3.252000000000000000e+03 8.819785118103027344e+00 -5.368377685546875000e+00 -1.669452525675296783e-02 -4.085059463977813721e-02 -1.726353541016578674e-02 -1.279543936252593994e-01
3.253000000000000000e+03 1.043270587921142578e+01 -4.758673667907714844e+00 -2.194673568010330200e-02 -4.119941592216491699e-02 -1.894384436309337616e-02 -1.666137129068374634e-01
3.254000000000000000e+03 4.184124374389648438e+01 1.423441600799560547e+01 1.830753326416015625e+00 7.264163017272949219e+00 2.728475093841552734e+00 1.927256584167480469e-01
3.255000000000000000e+03 5.004893493652343750e+01 6.909074187278747559e-01 6.041831970214843750e-01 4.857395172119140625e+00 1.638473510742187500e+00 -4.966348707675933838e-01
3.256000000000000000e+03 5.232855606079101562e+01 -9.868872165679931641e-02 -3.589335978031158447e-01 6.369302272796630859e+00 1.803110599517822266e+00 9.295114874839782715e-01
3.257000000000000000e+03 2.653918457031250000e+01 1.206152629852294922e+01 2.621621452271938324e-02 4.622438549995422363e-01 1.465380191802978516e-01 -1.682960987091064453e-01
3.258000000000000000e+03 3.518485641479492188e+01 -6.573194980621337891e+00 2.755720138549804688e+00 5.365210533142089844e+00 2.436279296875000000e+00 1.709039449691772461e+00
3.259000000000000000e+03 2.349209594726562500e+01 1.309972095489501953e+01 2.646402269601821899e-02 5.815504193305969238e-01 1.824043393135070801e-01 -7.659513503313064575e-02
3.260000000000000000e+03 4.126700592041015625e+01 -1.585859358310699463e-01 3.122484445571899414e+00 5.504050254821777344e+00 2.587960481643676758e+00 -2.509488165378570557e-01
3.261000000000000000e+03 1.471679782867431641e+01 -8.301182746887207031e+00 3.970120847225189209e-02 2.051996737718582153e-01 7.347026467323303223e-02 -4.733941331505775452e-02
3.262000000000000000e+03 1.358643341064453125e+01 -7.905933856964111328e+00 -1.036668382585048676e-02 1.068928018212318420e-01 2.895783632993698120e-02 -1.782478950917720795e-02
3.263000000000000000e+03 4.055153656005859375e+01 9.855007171630859375e+00 1.256343841552734375e+00 9.858424186706542969e+00 3.334430456161499023e+00 -2.237485200166702271e-01
3.264000000000000000e+03 3.208327484130859375e+01 -9.362792968750000000e+00 1.965141057968139648e+00 1.943301200866699219e+00 1.172532677650451660e+00 2.606672048568725586e+00
3.265000000000000000e+03 3.129364395141601562e+01 1.446883869171142578e+01 1.333517432212829590e-01 5.932146310806274414e-01 2.179699242115020752e-01 1.071317717432975769e-01
3.266000000000000000e+03 4.232452774047851562e+01 8.700258255004882812e+00 1.012693285942077637e+00 9.504039764404296875e+00 3.155019760131835938e+00 3.601490557193756104e-01
3.267000000000000000e+03 4.213747787475585938e+01 7.444553375244140625e+00 1.087336540222167969e+00 9.648725509643554688e+00 3.220818519592285156e+00 -1.650948077440261841e-01
3.268000000000000000e+03 3.472663497924804688e+01 -8.686043739318847656e+00 2.386794567108154297e+00 3.699196100234985352e+00 1.825797200202941895e+00 2.092493295669555664e+00
3.269000000000000000e+03 3.371999740600585938e+01 -8.521713256835937500e+00 2.259322643280029297e+00 2.871497869491577148e+00 1.539246082305908203e+00 2.349762678146362305e+00
3.270000000000000000e+03 7.084528923034667969e+00 7.474570751190185547e+00 -4.636839926242828369e-01 -1.549007296562194824e-01 -1.855754107236862183e-01 2.410155087709426880e-01
3.271000000000000000e+03 4.181847000122070312e+01 -1.965015029907226562e+01 1.613008737564086914e+00 2.872720718383789062e+00 1.345718860626220703e+00 1.615537852048873901e-01
3.272000000000000000e+03 4.378876495361328125e+01 -1.868078422546386719e+01 1.374347329139709473e+00 3.743961572647094727e+00 1.535492658615112305e+00 7.784045934677124023e-01
3.273000000000000000e+03 2.130189132690429688e+01 -1.760264968872070312e+01 6.662370562553405762e-01 1.128095313906669617e-01 2.337139844894409180e-01 -2.053697109222412109e-01
3.274000000000000000e+03 2.030623245239257812e+01 -1.917671775817871094e+01 7.624509930610656738e-01 6.976918131113052368e-02 2.496660500764846802e-01 -2.982147410511970520e-02
3.275000000000000000e+03 7.038675689697265625e+01 2.412281990051269531e+01 1.086181923747062683e-01 4.113430500030517578e+00 1.266614556312561035e+00 -1.062718391418457031e+00
3.276000000000000000e+03 6.811692047119140625e+01 2.263908576965332031e+01 -4.746208190917968750e-01 1.835515379905700684e+00 4.082683920860290527e-01 -9.145367741584777832e-01
3.277000000000000000e+03 6.934670257568359375e+01 2.766015243530273438e+01 1.485592722892761230e+00 4.337316513061523438e+00 1.746872663497924805e+00 1.661374270915985107e-01
3.278000000000000000e+03 5.128676986694335938e+01 -3.118216133117675781e+01 2.596108675003051758e+00 5.329943180084228516e+00 2.377815485000610352e+00 -3.895837664604187012e-01
3.279000000000000000e+03 4.204520416259765625e+01 1.947650527954101562e+01 -3.755856752395629883e-01 3.270473241806030273e+00 8.684662580490112305e-01 3.437513709068298340e-01
3.280000000000000000e+03 5.788193511962890625e+01 -2.132695579528808594e+01 2.758325099945068359e+00 5.996388435363769531e+00 2.626414060592651367e+00 2.097229361534118652e-01
3.281000000000000000e+03 5.747802352905273438e+01 -2.241786193847656250e+01 1.775372982025146484e+00 6.819178581237792969e+00 2.578365564346313477e+00 7.976378500461578369e-02
3.282000000000000000e+03 5.505490875244140625e+01 -1.313509941101074219e+01 -4.136165380477905273e-01 4.541503906250000000e+00 1.238366127014160156e+00 -3.214498519897460938e+00
3.283000000000000000e+03 5.358047103881835938e+01 -1.115486049652099609e+01 4.475390315055847168e-01 4.550411701202392578e+00 1.499385237693786621e+00 -3.025329589843750000e+00
3.284000000000000000e+03 3.622377395629882812e+01 -3.850918769836425781e+00 3.075461685657501221e-01 5.991034507751464844e+00 1.889574170112609863e+00 2.241795301437377930e+00
3.285000000000000000e+03 3.829403686523437500e+01 1.860693359375000000e+01 8.630552142858505249e-02 3.083408594131469727e+00 9.509142041206359863e-01 -2.734121561050415039e+00
3.286000000000000000e+03 4.175910949707031250e+01 1.825954627990722656e+01 5.696293115615844727e-01 4.279541492462158203e+00 1.454751253128051758e+00 -2.745711207389831543e-01
3.287000000000000000e+03 7.483659362792968750e+01 -3.381187438964843750e+01 4.041769802570343018e-01 6.516429901123046875e+00 2.076181888580322266e+00 -2.394247949123382568e-01
3.288000000000000000e+03 3.882336044311523438e+01 -2.845217227935791016e+00 -1.652961254119873047e+00 6.326974391937255859e+00 1.402203917503356934e+00 4.010154724121093750e+00
3.289000000000000000e+03 6.131262207031250000e+01 1.332484364509582520e+00 -7.403799295425415039e-01 5.899195194244384766e+00 1.547644615173339844e+00 -1.773067235946655273e+00
3.290000000000000000e+03 6.237762069702148438e+01 -2.156817817687988281e+01 3.046915054321289062e+00 5.772114753723144531e+00 2.645708799362182617e+00 -1.904939413070678711e+00
3.291000000000000000e+03 3.908413314819335938e+01 -2.094586610794067383e+00 -8.555181622505187988e-01 6.422468662261962891e+00 1.670085191726684570e+00 4.155553340911865234e+00
3.292000000000000000e+03 2.901417350769042969e+01 1.178274154663085938e+01 -1.914194971323013306e-01 4.860734641551971436e-01 8.839619159698486328e-02 5.618757568299770355e-04
3.293000000000000000e+03 1.097012710571289062e+01 -2.730147933959960938e+01 3.070780634880065918e-01 4.107210636138916016e-01 2.153397351503372192e-01 9.236021339893341064e-02
3.294000000000000000e+03 6.574431610107421875e+01 2.252992439270019531e+01 -1.380512267351150513e-01 2.290074825286865234e+00 6.456070542335510254e-01 1.444473624229431152e+00
3.295000000000000000e+03 3.405581665039062500e+01 -1.197165203094482422e+01 1.664381623268127441e-01 1.739517211914062500e+00 5.717866420745849609e-01 2.110828876495361328e+00
3.296000000000000000e+03 3.770360183715820312e+01 -3.460854291915893555e+00 -8.303655385971069336e-01 7.725396156311035156e+00 2.068509340286254883e+00 3.226085901260375977e+00
3.297000000000000000e+03 3.811746597290039062e+01 -3.066020727157592773e+00 -1.394505620002746582e+00 7.722661018371582031e+00 1.898446679115295410e+00 3.914841890335083008e+00
3.298000000000000000e+03 5.452608489990234375e+01 3.249274969100952148e+00 -1.697541922330856323e-01 4.538217544555664062e+00 1.310539126396179199e+00 1.791311621665954590e+00
3.299000000000000000e+03 5.624259185791015625e+01 3.412981748580932617e+00 -3.494400978088378906e-01 4.448524475097656250e+00 1.229725360870361328e+00 2.878203690052032471e-01
3.300000000000000000e+03 4.042635917663574219e+00 1.174281787872314453e+01 -6.590484827756881714e-02 -2.954277992248535156e-01 -1.083997935056686401e-01 4.477017819881439209e-01
3.301000000000000000e+03 6.995669364929199219e+00 1.059151077270507812e+01 -3.054744005203247070e-01 -1.700819283723831177e-01 -1.426669061183929443e-01 5.343986749649047852e-01
3.302000000000000000e+03 5.554679107666015625e+01 5.291760444641113281e+00 3.132170438766479492e-01 6.238967418670654297e+00 1.965655326843261719e+00 8.022356033325195312e-01
3.303000000000000000e+03 4.959011459350585938e+01 -1.257604694366455078e+01 -1.962715536355972290e-01 6.156897544860839844e+00 1.788187861442565918e+00 -1.132709830999374390e-01
3.304000000000000000e+03 2.059051322937011719e+01 -2.339697265625000000e+01 7.639039158821105957e-01 -6.424380093812942505e-02 2.098980396986007690e-01 5.027419328689575195e-01
3.305000000000000000e+03 2.073554039001464844e+01 -2.505496406555175781e+01 3.084496855735778809e-01 -2.509465217590332031e-01 1.725095137953758240e-02 5.452925562858581543e-01
3.306000000000000000e+03 6.380401229858398438e+01 5.374901294708251953e+00 -8.343371152877807617e-01 2.338136672973632812e+00 4.511398971080780029e-01 -1.283237695693969727e+00
3.307000000000000000e+03 7.390703582763671875e+01 -2.950430107116699219e+01 -1.989185363054275513e-01 6.265064239501953125e+00 1.819843769073486328e+00 9.275390505790710449e-01
3.308000000000000000e+03 3.682320022583007812e+01 -3.085423231124877930e+00 -4.614520072937011719e-01 6.185901165008544922e+00 1.717334628105163574e+00 3.000541210174560547e+00
3.309000000000000000e+03 4.321473312377929688e+01 -1.963099479675292969e+00 2.347693443298339844e-01 2.391438722610473633e+00 7.878624200820922852e-01 -2.455542564392089844e+00
3.310000000000000000e+03 4.504750061035156250e+01 -1.097924828529357910e+00 1.255549907684326172e+00 3.685853958129882812e+00 1.482421159744262695e+00 -3.169867277145385742e+00
3.311000000000000000e+03 5.824456405639648438e+01 -1.305456256866455078e+01 -2.154213488101959229e-01 3.839498758316040039e+00 1.087223291397094727e+00 -3.063511252403259277e-01
3.312000000000000000e+03 6.000670433044433594e+00 -2.870169639587402344e+01 1.086045578122138977e-01 -2.171073853969573975e-02 2.606814540922641754e-02 2.860586158931255341e-02
3.313000000000000000e+03 5.023648834228515625e+01 -2.773534584045410156e+01 -3.306483328342437744e-01 3.339277744293212891e+00 9.025888442993164062e-01 -1.322360038757324219e+00
3.314000000000000000e+03 5.869334030151367188e+01 6.512198448181152344e+00 5.372456312179565430e-01 5.911654949188232422e+00 1.934670090675354004e+00 -9.852216243743896484e-01
3.315000000000000000e+03 5.757316207885742188e+01 1.594047832489013672e+01 1.639252424240112305e+00 6.922896862030029297e+00 2.568644762039184570e+00 6.738278269767761230e-01
3.316000000000000000e+03 5.830274581909179688e+01 1.703095054626464844e+01 1.901084899902343750e+00 6.673623085021972656e+00 2.572412252426147461e+00 7.926209568977355957e-01
3.317000000000000000e+03 5.280959701538085938e+01 -2.873786544799804688e+01 8.176915645599365234e-01 4.465640068054199219e+00 1.584999561309814453e+00 7.627851366996765137e-01
3.318000000000000000e+03 4.578596878051757812e+01 -7.410693764686584473e-01 1.194399356842041016e+00 4.038829326629638672e+00 1.569968700408935547e+00 -3.249025821685791016e+00
3.319000000000000000e+03 4.537628173828125000e+01 -2.003777027130126953e+00 4.627186954021453857e-01 3.905692577362060547e+00 1.310523390769958496e+00 -3.371789216995239258e+00
3.320000000000000000e+03 5.806150054931640625e+01 8.922631263732910156e+00 1.310335993766784668e+00 7.148825168609619141e+00 2.537748336791992188e+00 4.983984231948852539e-01
3.321000000000000000e+03 5.115243530273437500e+01 3.717882633209228516e-01 3.578804731369018555e-01 5.400035381317138672e+00 1.727374672889709473e+00 2.469445019960403442e-01
3.322000000000000000e+03 2.146917343139648438e+01 8.065999031066894531e+00 4.260548353195190430e-01 1.496724188327789307e-01 1.727181822061538696e-01 5.958195775747299194e-02
3.323000000000000000e+03 2.353384780883789062e+01 3.150098991394042969e+01 5.057361721992492676e-01 1.246375799179077148e+00 5.256335735321044922e-01 -1.291988939046859741e-01
3.324000000000000000e+03 3.288456726074218750e+01 -8.794016838073730469e+00 2.002647638320922852e+00 1.943156957626342773e+00 1.183741450309753418e+00 2.513537406921386719e+00
3.325000000000000000e+03 3.374206542968750000e+01 1.761148452758789062e+01 2.138654142618179321e-01 2.940484285354614258e+00 9.463049173355102539e-01 -1.387031197547912598e+00
3.326000000000000000e+03 3.427289199829101562e+01 -3.335734939575195312e+01 1.089848637580871582e+00 1.369743585586547852e+00 7.378776669502258301e-01 6.982951760292053223e-01
3.327000000000000000e+03 3.462885284423828125e+01 -4.738525867462158203e+00 1.410461306571960449e+00 3.839133501052856445e+00 1.574878454208374023e+00 1.422522783279418945e+00
3.328000000000000000e+03 6.177914810180664062e+01 -1.146566867828369141e+01 -8.612508177757263184e-01 6.571454048156738281e+00 1.713060855865478516e+00 1.347658872604370117e+00
3.329000000000000000e+03 2.142587089538574219e+01 6.489721775054931641e+00 1.387505233287811279e-01 -3.730653598904609680e-02 3.043319843709468842e-02 2.806668356060981750e-02
3.330000000000000000e+03 2.317131996154785156e+01 5.712544918060302734e+00 7.034131791442632675e-03 -1.254212558269500732e-01 -3.551613539457321167e-02 -4.041773080825805664e-02
3.331000000000000000e+03 4.292024612426757812e+01 -2.587919807434082031e+01 2.653016448020935059e-01 1.545533418655395508e+00 5.432505011558532715e-01 8.471203446388244629e-01
3.332000000000000000e+03 4.389497756958007812e+01 -2.606455421447753906e+01 -2.376286834478378296e-01 1.267973303794860840e+00 3.091033697128295898e-01 -1.852330118417739868e-01
3.333000000000000000e+03 2.573280906677246094e+01 -1.968564796447753906e+01 1.303217411041259766e+00 2.374701976776123047e+00 1.103375792503356934e+00 4.065828025341033936e-01
3.334000000000000000e+03 1.942151069641113281e+01 -1.862268638610839844e+01 5.830976366996765137e-01 8.613035827875137329e-02 2.007683962583541870e-01 -1.010742187500000000e-01
3.335000000000000000e+03 4.686151123046875000e+01 -2.132099866867065430e+00 6.468499302864074707e-01 5.171329975128173828e+00 1.745453953742980957e+00 -2.803028106689453125e+00
3.336000000000000000e+03 7.970067977905273438e+00 7.381236553192138672e+00 -5.131276845932006836e-01 -1.960201710462570190e-01 -2.127443552017211914e-01 2.608790397644042969e-01
3.337000000000000000e+03 7.533647537231445312e+00 5.643595695495605469e+00 -3.819585144519805908e-01 -1.143981143832206726e-01 -1.489069908857345581e-01 1.159149557352066040e-01
3.338000000000000000e+03 4.769993209838867188e+01 4.823446273803710938e+00 8.573622107505798340e-01 2.038290739059448242e+00 8.686958551406860352e-01 -1.333890080451965332e+00
3.339000000000000000e+03 2.323230934143066406e+01 1.209437179565429688e+01 9.378428757190704346e-02 5.615073442459106445e-01 1.965874880552291870e-01 -4.705512896180152893e-02
3.340000000000000000e+03 4.192398452758789062e+01 -2.075926017761230469e+01 2.017565965652465820e+00 3.831979274749755859e+00 1.754863500595092773e+00 7.860938310623168945e-01
3.341000000000000000e+03 5.650451660156250000e+01 -2.636455917358398438e+01 -2.648161888122558594e+00 7.294680118560791016e+00 1.393955469131469727e+00 2.124825716018676758e+00
3.342000000000000000e+03 6.594150543212890625e+01 1.337222456932067871e+00 2.507870793342590332e-01 3.499582529067993164e+00 1.125110864639282227e+00 1.201818466186523438e+00
3.343000000000000000e+03 6.964897155761718750e+01 1.817177295684814453e+00 5.532377958297729492e-01 1.783660650253295898e+00 7.010695338249206543e-01 1.751301169395446777e+00
3.344000000000000000e+03 7.195469665527343750e+01 1.365623474121093750e+00 1.539548784494400024e-01 2.993194103240966797e+00 9.441446661949157715e-01 -1.039086431264877319e-01
3.345000000000000000e+03 7.424118041992187500e+01 1.420877695083618164e+00 -4.730224609375000000e-01 5.380644321441650391e+00 1.472286581993103027e+00 -8.900871872901916504e-01
3.346000000000000000e+03 4.967967224121093750e+01 -3.623264789581298828e+00 1.313500881195068359e+00 7.479712963104248047e+00 2.637964010238647461e+00 -1.011893749237060547e+00
3.347000000000000000e+03 4.812485504150390625e+01 -4.121285438537597656e+00 9.930518865585327148e-01 6.931452751159667969e+00 2.377351522445678711e+00 -1.736960053443908691e+00
3.348000000000000000e+03 2.697415924072265625e+01 -2.858246994018554688e+01 -9.804409742355346680e-01 2.952887773513793945e+00 5.917340517044067383e-01 2.141478955745697021e-01
3.349000000000000000e+03 6.377820205688476562e+01 -2.102238088846206665e-01 2.096804529428482056e-01 6.111812114715576172e+00 1.896447777748107910e+00 5.681673437356948853e-02
3.350000000000000000e+03 4.281189727783203125e+01 1.754712295532226562e+01 1.011958241462707520e+00 5.866057395935058594e+00 2.063404560089111328e+00 5.872501730918884277e-01
3.351000000000000000e+03 1.068762111663818359e+01 -4.316819667816162109e+00 -2.451063692569732666e-02 -9.331344068050384521e-02 -3.534722328186035156e-02 -9.983944892883300781e-02
3.352000000000000000e+03 1.011382389068603516e+01 -1.026613330841064453e+01 1.261519175022840500e-02 -3.760783374309539795e-02 -7.497792597860097885e-03 -1.156517565250396729e-01
3.353000000000000000e+03 7.389105224609375000e+01 3.310572814941406250e+01 2.731713354587554932e-01 5.991237163543701172e+00 1.879322528839111328e+00 2.873084545135498047e-01
3.354000000000000000e+03 7.436210632324218750e+01 2.795070266723632812e+01 3.618277907371520996e-01 5.972726821899414062e+00 1.900366425514221191e+00 -2.975381314754486084e-01
3.355000000000000000e+03 2.599305725097656250e+01 -1.608774185180664062e+01 1.990032643079757690e-01 2.115922689437866211e+00 6.944777369499206543e-01 6.536318063735961914e-01
3.356000000000000000e+03 7.605349731445312500e+01 1.599270725250244141e+01 1.586989909410476685e-01 7.367398738861083984e+00 2.257829427719116211e+00 9.733754992485046387e-01
3.357000000000000000e+03 7.510520935058593750e+01 -2.712762260437011719e+01 -7.900426983833312988e-01 7.949852466583251953e+00 2.147942781448364258e+00 6.052465438842773438e-01
3.358000000000000000e+03 2.030024909973144531e+01 -1.813483810424804688e+01 6.184902787208557129e-01 5.019946396350860596e-02 2.006069272756576538e-01 -1.300233304500579834e-01
3.359000000000000000e+03 2.054992675781250000e+01 -1.657959556579589844e+01 2.693174481391906738e-01 3.449728339910507202e-02 9.114442020654678345e-02 -3.006110489368438721e-01
3.360000000000000000e+03 7.350572204589843750e+01 2.134450912475585938e+01 -1.204316616058349609e+00 6.571070194244384766e+00 1.610026001930236816e+00 -5.125674009323120117e-01
3.361000000000000000e+03 7.592250823974609375e+01 2.348143577575683594e+01 -3.525652885437011719e-01 6.758116722106933594e+00 1.921665430068969727e+00 -3.392331898212432861e-01
3.362000000000000000e+03 7.359721374511718750e+01 2.320940208435058594e+01 -6.169501543045043945e-01 6.127362251281738281e+00 1.653123617172241211e+00 -7.050539851188659668e-01
3.363000000000000000e+03 7.287682342529296875e+01 2.550136947631835938e+01 1.474921405315399170e-01 5.428187370300292969e+00 1.672703862190246582e+00 -6.716463565826416016e-01
3.364000000000000000e+03 7.588604736328125000e+01 2.476562500000000000e+01 -6.020820513367652893e-02 6.623452186584472656e+00 1.968973159790039062e+00 -3.991487920284271240e-01
3.365000000000000000e+03 7.610364532470703125e+01 2.080363464355468750e+01 -6.716076731681823730e-01 7.204508781433105469e+00 1.959870338439941406e+00 1.179637089371681213e-01
3.366000000000000000e+03 7.833317565917968750e+01 -2.498822975158691406e+01 -4.246975481510162354e-02 7.701189517974853516e+00 2.297616004943847656e+00 -6.221468448638916016e-01
3.367000000000000000e+03 7.398657226562500000e+01 1.058006858825683594e+01 1.463200569152832031e+00 8.557609558105468750e+00 3.006242990493774414e+00 -6.904164701700210571e-02
3.368000000000000000e+03 7.523944091796875000e+01 1.318749618530273438e+01 1.208342552185058594e+00 8.206383705139160156e+00 2.824417829513549805e+00 3.494397401809692383e-01
3.369000000000000000e+03 7.504900360107421875e+01 1.135311031341552734e+01 1.437638998031616211e+00 8.339929580688476562e+00 2.933270692825317383e+00 -1.734541803598403931e-01
3.370000000000000000e+03 7.296497344970703125e+01 4.243152141571044922e+00 -2.127753496170043945e-01 5.312683105468750000e+00 1.529972314834594727e+00 1.493423283100128174e-01
3.371000000000000000e+03 7.196636962890625000e+01 3.862750291824340820e+00 -5.567882582545280457e-02 4.573330402374267578e+00 1.355295538902282715e+00 5.042611956596374512e-01
3.372000000000000000e+03 7.554277801513671875e+01 4.125197887420654297e+00 -2.681804299354553223e-01 6.824633121490478516e+00 1.966935753822326660e+00 -8.402016758918762207e-01
3.373000000000000000e+03 7.634928894042968750e+01 1.838204002380371094e+01 -3.824484944343566895e-01 7.337917804718017578e+00 2.086640834808349609e+00 7.564418315887451172e-01
3.374000000000000000e+03 7.534992218017578125e+01 1.844634056091308594e+01 -5.815606713294982910e-01 7.570284366607666016e+00 2.096617221832275391e+00 7.157754898071289062e-01
3.375000000000000000e+03 7.441691589355468750e+01 6.377435207366943359e+00 -1.061130538582801819e-01 7.017218589782714844e+00 2.073331594467163086e+00 -7.157638669013977051e-01
3.376000000000000000e+03 7.319828796386718750e+01 6.886609792709350586e-01 -3.430392146110534668e-01 4.005850315093994141e+00 1.098843336105346680e+00 -8.784880042076110840e-01
3.377000000000000000e+03 7.554400634765625000e+01 8.500117301940917969e+00 3.908738791942596436e-01 7.357351303100585938e+00 2.324467658996582031e+00 -9.115735292434692383e-01
3.378000000000000000e+03 7.539838409423828125e+01 1.946949005126953125e+01 -7.337281703948974609e-01 7.389788627624511719e+00 1.996818065643310547e+00 4.460926055908203125e-01
3.379000000000000000e+03 7.437937164306640625e+01 2.098548316955566406e+01 -8.893018364906311035e-01 6.883070945739746094e+00 1.798130750656127930e+00 -2.747892439365386963e-01
3.380000000000000000e+03 7.326406097412109375e+01 -3.072460937500000000e+01 7.258003950119018555e-01 5.624883651733398438e+00 1.905205249786376953e+00 6.727713346481323242e-01
3.381000000000000000e+03 7.202391052246093750e+01 3.262844848632812500e+01 3.730340898036956787e-01 5.657858848571777344e+00 1.809267878532409668e+00 3.967149555683135986e-01
3.382000000000000000e+03 7.590637207031250000e+01 -3.503075790405273438e+01 1.636321395635604858e-01 7.230691909790039062e+00 2.218297243118286133e+00 -1.892567723989486694e-01
3.383000000000000000e+03 7.314013671875000000e+01 3.021799087524414062e+01 5.426958799362182617e-01 5.682682991027832031e+00 1.867613554000854492e+00 8.077312260866165161e-02
3.384000000000000000e+03 4.292832565307617188e+01 -1.931326293945312500e+01 1.704372406005859375e+00 3.328576803207397461e+00 1.509884715080261230e+00 4.155132174491882324e-01
3.385000000000000000e+03 3.829927921295166016e+00 -1.019493293762207031e+01 -6.524921860545873642e-03 -1.274720728397369385e-01 -4.019909724593162537e-02 -3.924081102013587952e-02
3.386000000000000000e+03 7.328366851806640625e+01 8.355114936828613281e+00 5.355995893478393555e-01 7.903047084808349609e+00 2.531594038009643555e+00 -3.659321963787078857e-01
3.387000000000000000e+03 7.382308197021484375e+01 7.424545288085937500e+00 4.344817996025085449e-02 7.577598571777343750e+00 2.286314010620117188e+00 -3.899591863155364990e-01
3.388000000000000000e+03 7.283760070800781250e+01 7.026848316192626953e+00 3.661546111106872559e-02 7.050023555755615234e+00 2.125991821289062500e+00 2.330057770013809204e-01
3.389000000000000000e+03 3.001176834106445312e+00 -2.290592193603515625e+01 6.262814253568649292e-02 -2.958251535892486572e-01 -6.995910406112670898e-02 -4.384265840053558350e-02
3.390000000000000000e+03 4.031555652618408203e+00 -2.282699394226074219e+01 3.808434307575225830e-02 -1.589585244655609131e-01 -3.626225516200065613e-02 -4.187924787402153015e-02
3.391000000000000000e+03 6.869502258300781250e+01 2.418268203735351562e+00 5.218187570571899414e-01 1.979448556900024414e+00 7.503802180290222168e-01 1.869947314262390137e+00
3.392000000000000000e+03 4.420242309570312500e+00 1.650083923339843750e+01 2.105776667594909668e-01 -5.716192722320556641e-01 -1.083124950528144836e-01 2.799349129199981689e-01
3.393000000000000000e+03 4.763829231262207031e+00 2.064587402343750000e+01 8.810932934284210205e-02 -6.198548674583435059e-01 -1.595236659049987793e-01 5.006079748272895813e-02
3.394000000000000000e+03 6.644271850585937500e+00 2.151544189453125000e+01 4.765627160668373108e-02 -3.221223354339599609e-01 -8.233981579542160034e-02 5.183153226971626282e-02
3.395000000000000000e+03 7.234334468841552734e+00 1.852474212646484375e+01 3.780370950698852539e-01 -2.517255246639251709e-01 3.789346292614936829e-02 1.654795110225677490e-01
3.396000000000000000e+03 5.683840274810791016e+00 2.108191490173339844e+01 7.410144060850143433e-02 -4.823295474052429199e-01 -1.224684342741966248e-01 4.035479947924613953e-02
3.397000000000000000e+03 5.643291950225830078e+00 -2.613181114196777344e+01 4.494279995560646057e-02 -8.856488391757011414e-03 1.082589291036128998e-02 -5.569478124380111694e-02
3.398000000000000000e+03 4.388432502746582031e+00 -2.656690788269042969e+01 4.633131995797157288e-02 -1.563749611377716064e-01 -3.301309049129486084e-02 -1.225836202502250671e-02
3.399000000000000000e+03 5.661059856414794922e+00 1.448100280761718750e+01 1.957193315029144287e-01 -3.903924524784088135e-01 -5.840193852782249451e-02 5.014612674713134766e-01
3.400000000000000000e+03 5.050937652587890625e+00 -3.571519851684570312e+01 -2.785879885777831078e-03 2.573556033894419670e-03 -6.369712355080991983e-05 2.109351754188537598e-01
3.401000000000000000e+03 5.967076778411865234e+00 1.021281623840332031e+01 -2.637096643447875977e-01 -1.622920185327529907e-01 -1.278005093336105347e-01 4.869508445262908936e-01
3.402000000000000000e+03 4.988262653350830078e+00 -7.909662246704101562e+00 1.208008453249931335e-02 -1.050361990928649902e-01 -2.788683399558067322e-02 -5.858043953776359558e-02
3.403000000000000000e+03 4.437297344207763672e+00 8.271472930908203125e+00 -2.023418247699737549e-01 -1.161121204495429993e-01 -9.553617984056472778e-02 2.558283805847167969e-01
3.404000000000000000e+03 6.192624092102050781e+00 7.461599349975585938e+00 -3.800024688243865967e-01 -7.874548435211181641e-02 -1.376243829727172852e-01 2.318215072154998779e-01
3.405000000000000000e+03 5.364365100860595703e+00 6.533701419830322266e+00 -2.695699334144592285e-01 -5.838263779878616333e-02 -9.838577359914779663e-02 1.402965039014816284e-01
3.406000000000000000e+03 4.784879302978515625e+01 2.376663589477539062e+01 8.998755216598510742e-01 6.340056896209716797e+00 2.171979665756225586e+00 1.068828701972961426e+00
3.407000000000000000e+03 4.534892559051513672e+00 -5.489123821258544922e+00 2.188338199630379677e-03 -3.783063590526580811e-02 -1.069268956780433655e-02 -5.476180464029312134e-02
3.408000000000000000e+03 4.778495788574218750e+01 -2.649103641510009766e+00 7.200618982315063477e-01 5.980777263641357422e+00 2.010251760482788086e+00 -2.339482545852661133e+00
3.409000000000000000e+03 5.694342803955078125e+01 4.727467536926269531e+00 5.940907448530197144e-02 5.512373924255371094e+00 1.671534776687622070e+00 -3.939069509506225586e-01
3.410000000000000000e+03 4.174056243896484375e+01 -1.759985160827636719e+01 4.214085638523101807e-01 2.114096403121948242e+00 7.606515288352966309e-01 -4.559002816677093506e-01
3.411000000000000000e+03 4.856378555297851562e+01 4.047760486602783203e+00 8.254566788673400879e-01 2.009783744812011719e+00 8.505721092224121094e-01 -9.040359854698181152e-01
3.412000000000000000e+03 6.715789794921875000e+00 -1.181559181213378906e+01 -5.309825390577316284e-02 -1.728966981172561646e-01 -6.779848784208297729e-02 -7.941079884767532349e-02
3.413000000000000000e+03 5.697950744628906250e+01 9.237496376037597656e+00 1.653904438018798828e+00 8.419466018676757812e+00 3.022011041641235352e+00 8.877166509628295898e-01
3.414000000000000000e+03 4.843692016601562500e+01 -1.202635645866394043e+00 9.157292842864990234e-01 5.416411876678466797e+00 1.899642348289489746e+00 -1.974657297134399414e+00
3.415000000000000000e+03 6.439168548583984375e+01 -1.482612895965576172e+01 -1.851543784141540527e+00 5.530258178710937500e+00 1.103614330291748047e+00 5.801447033882141113e-01
3.416000000000000000e+03 6.478924560546875000e+01 -1.244567203521728516e+01 -1.182858824729919434e+00 6.158961296081542969e+00 1.492830753326416016e+00 5.102610588073730469e-02
3.417000000000000000e+03 3.382747268676757812e+01 -1.054466342926025391e+01 1.443597197532653809e+00 2.534339427947998047e+00 1.193380951881408691e+00 2.471466064453125000e+00
3.418000000000000000e+03 2.688245964050292969e+01 3.346547698974609375e+01 3.098933696746826172e-01 1.931951165199279785e+00 6.725533604621887207e-01 -6.570236682891845703e-01
3.419000000000000000e+03 6.086630249023437500e+01 -2.353676795959472656e+01 2.332517862319946289e+00 3.301937818527221680e+00 1.690336704254150391e+00 -9.250522851943969727e-01
3.420000000000000000e+03 5.258436965942382812e+01 2.213104438781738281e+01 -8.332472443580627441e-01 4.683476924896240234e+00 1.155068874359130859e+00 -1.959210753440856934e+00
3.421000000000000000e+03 5.775030136108398438e+01 2.092928504943847656e+01 -4.631318151950836182e-01 2.734967231750488281e+00 6.815506219863891602e-01 -9.494197368621826172e-01
3.422000000000000000e+03 5.350253295898437500e+01 2.278810119628906250e+01 -8.808348774909973145e-01 5.103144168853759766e+00 1.266692876815795898e+00 -2.011284112930297852e+00
3.423000000000000000e+03 5.219907379150390625e+01 2.440366172790527344e+01 4.111088216304779053e-01 5.706229686737060547e+00 1.835201501846313477e+00 -8.377260565757751465e-01
3.424000000000000000e+03 2.601159477233886719e+01 -2.609024047851562500e+01 -5.696474313735961914e-01 2.730290174484252930e+00 6.481928229331970215e-01 3.572854995727539062e-01
3.425000000000000000e+03 6.093321228027343750e+01 -1.911882400512695312e+01 1.850168824195861816e+00 5.819118022918701172e+00 2.300786018371582031e+00 -1.145970702171325684e+00
3.426000000000000000e+03 4.760570144653320312e+01 2.069596099853515625e+01 -9.114786386489868164e-01 4.801126003265380859e+00 1.166894197463989258e+00 2.751717329025268555e+00
3.427000000000000000e+03 5.356599426269531250e+01 -1.315558719635009766e+01 -3.769899308681488037e-01 4.187610149383544922e+00 1.143186092376708984e+00 -3.804996728897094727e+00
3.428000000000000000e+03 5.432503128051757812e+01 -1.395197105407714844e+01 -1.341230630874633789e+00 4.893408298492431641e+00 1.065653324127197266e+00 -3.378554821014404297e+00
3.429000000000000000e+03 5.686994934082031250e+01 -1.461639308929443359e+01 -6.388772130012512207e-01 5.432959079742431641e+00 1.438224554061889648e+00 -1.405860781669616699e+00
3.430000000000000000e+03 1.951062202453613281e+01 -2.294096183776855469e+01 6.930642724037170410e-01 -2.863709256052970886e-02 1.993281543254852295e-01 5.658808946609497070e-01
3.431000000000000000e+03 5.004742431640625000e+01 2.761395263671875000e+01 2.109498977661132812e+00 6.486456871032714844e+00 2.578786849975585938e+00 6.875376105308532715e-01
3.432000000000000000e+03 4.878912734985351562e+01 2.661868667602539062e+01 2.284885168075561523e+00 6.455637454986572266e+00 2.622156858444213867e+00 1.011092782020568848e+00
3.433000000000000000e+03 5.004485702514648438e+01 2.656822919845581055e+00 8.573514223098754883e-01 3.054229974746704102e+00 1.173474431037902832e+00 2.025515735149383545e-01
3.434000000000000000e+03 3.027905082702636719e+01 3.160918045043945312e+01 6.473680138587951660e-01 2.796795368194580078e+00 1.033249020576477051e+00 -1.178031444549560547e+00
3.435000000000000000e+03 5.193714904785156250e+01 -1.301335620880126953e+01 -5.670058727264404297e-02 3.243976831436157227e+00 9.561828374862670898e-01 -2.602909088134765625e+00
3.436000000000000000e+03 2.583485221862792969e+01 3.204930114746093750e+01 7.149443030357360840e-01 1.499030947685241699e+00 6.641926169395446777e-01 -4.841551482677459717e-01
3.437000000000000000e+03 2.522465705871582031e+01 3.456036376953125000e+01 1.368731707334518433e-01 1.724793434143066406e+00 5.584999918937683105e-01 -4.928483068943023682e-01
3.438000000000000000e+03 4.254659652709960938e+01 -1.678566932678222656e+01 -3.065618872642517090e-01 1.619206786155700684e+00 3.937934637069702148e-01 7.504928112030029297e-02
3.439000000000000000e+03 5.054052352905273438e+01 2.570339202880859375e+01 1.898933291435241699e+00 5.860108375549316406e+00 2.327712535858154297e+00 2.458501011133193970e-01
3.440000000000000000e+03 6.039368438720703125e+01 3.799024105072021484e+00 -8.007006645202636719e-01 5.106339931488037109e+00 1.291691899299621582e+00 -2.209454059600830078e+00
3.441000000000000000e+03 5.997659301757812500e+01 6.579819679260253906e+00 -1.386246979236602783e-01 5.601247787475585938e+00 1.638786911964416504e+00 -1.418499827384948730e+00
3.442000000000000000e+03 8.663206100463867188e+00 1.975329589843750000e+01 3.297978937625885010e-01 -4.658022895455360413e-02 8.496530354022979736e-02 1.108323410153388977e-01
3.443000000000000000e+03 6.184964370727539062e+01 -1.578961753845214844e+01 -1.092379927635192871e+00 6.613430976867675781e+00 1.656315207481384277e+00 1.075541079044342041e-01
3.444000000000000000e+03 6.937113189697265625e+01 5.049996852874755859e+00 1.426335722208023071e-01 2.921545505523681641e+00 9.192537665367126465e-01 1.952236890792846680e+00
3.445000000000000000e+03 7.233423614501953125e+01 5.475941181182861328e+00 -2.935398519039154053e-01 5.739040851593017578e+00 1.633650183677673340e+00 5.643569231033325195e-01
3.446000000000000000e+03 4.082489776611328125e+01 1.640844726562500000e+01 1.436824202537536621e+00 5.043807983398437500e+00 1.944189667701721191e+00 -9.282718896865844727e-01
3.447000000000000000e+03 3.697964477539062500e+01 1.945296859741210938e+01 -4.231371283531188965e-01 3.552539587020874023e+00 9.388207197189331055e-01 -2.746979713439941406e+00
3.448000000000000000e+03 3.564515304565429688e+01 -3.487177658081054688e+01 5.593066811561584473e-01 2.296082019805908203e+00 8.566166162490844727e-01 1.304097652435302734e+00
3.449000000000000000e+03 6.243081569671630859e+00 -1.067254543304443359e+01 -1.043181680142879486e-02 -1.283396780490875244e-01 -4.163144901394844055e-02 -7.192995399236679077e-02
3.450000000000000000e+03 5.611035156250000000e+01 1.928602981567382812e+01 3.579156473278999329e-02 4.372031688690185547e+00 1.322347044944763184e+00 -1.777471065521240234e+00
3.451000000000000000e+03 5.222692108154296875e+01 -1.206821727752685547e+01 5.460231304168701172e-01 4.404106140136718750e+00 1.485038757324218750e+00 -2.740423202514648438e+00
3.452000000000000000e+03 2.760127067565917969e+01 -3.304722976684570312e+01 1.274339109659194946e-01 2.457214355468750000e+00 7.753944993019104004e-01 -5.285030975937843323e-02
3.453000000000000000e+03 2.858534812927246094e+01 -3.079905700683593750e+01 -4.064482450485229492e-01 2.295181512832641602e+00 5.666199922561645508e-01 -1.593474894762039185e-01
3.454000000000000000e+03 6.504833984375000000e+01 -1.341881275177001953e+01 -1.249016404151916504e+00 5.477713584899902344e+00 1.268609166145324707e+00 1.984113305807113647e-01
3.455000000000000000e+03 6.316370773315429688e+01 3.198157072067260742e+00 -4.896758198738098145e-01 4.234446048736572266e+00 1.123431086540222168e+00 -1.100779652595520020e+00
3.456000000000000000e+03 6.585456085205078125e+01 2.282798528671264648e+00 2.664443552494049072e-01 3.164736986160278320e+00 1.029354333877563477e+00 8.308538198471069336e-01
3.457000000000000000e+03 2.237286949157714844e+01 3.385740280151367188e+01 1.364320367574691772e-01 1.224216818809509277e+00 4.081946611404418945e-01 -3.103727698326110840e-01
3.458000000000000000e+03 4.733487701416015625e+01 3.653717041015625000e+01 -1.125119924545288086e+00 4.792683124542236328e+00 1.100268959999084473e+00 -7.416419386863708496e-01
3.459000000000000000e+03 5.224157333374023438e+01 3.776240539550781250e+01 -1.440438747406005859e+00 5.331889629364013672e+00 1.167435288429260254e+00 2.728053629398345947e-01
3.460000000000000000e+03 5.140688323974609375e+01 2.503246879577636719e+01 1.118737578392028809e+00 5.736382484436035156e+00 2.056535959243774414e+00 -2.338687479496002197e-01
3.461000000000000000e+03 5.084817123413085938e+01 2.294106674194335938e+01 3.027623891830444336e-01 4.747258663177490234e+00 1.515006422996520996e+00 -8.543485403060913086e-01
3.462000000000000000e+03 2.346887779235839844e+01 3.558867645263671875e+01 7.753767538815736771e-03 1.414426684379577637e+00 4.266541302204132080e-01 -3.560494780540466309e-01
3.463000000000000000e+03 3.317578506469726562e+01 -1.137095069885253906e+01 7.554420828819274902e-01 2.020271778106689453e+00 8.327141404151916504e-01 2.507427692413330078e+00
3.464000000000000000e+03 5.597650527954101562e+01 1.830888175964355469e+01 3.160177171230316162e-01 4.846691131591796875e+00 1.548812627792358398e+00 -1.244998693466186523e+00
3.465000000000000000e+03 2.521212768554687500e+01 -1.832244873046875000e+01 9.658832550048828125e-01 1.831348538398742676e+00 8.391695618629455566e-01 3.388947546482086182e-01
3.466000000000000000e+03 2.681442642211914062e+01 -2.541484260559082031e+01 -3.105803132057189941e-01 3.313684940338134766e+00 9.009313583374023438e-01 4.678200781345367432e-01
3.467000000000000000e+03 6.946054840087890625e+01 3.449455642700195312e+01 3.952034562826156616e-02 5.494571685791015625e+00 1.660227656364440918e+00 6.438211202621459961e-01
3.468000000000000000e+03 8.848420143127441406e+00 -3.268371582031250000e+01 2.052631080150604248e-01 3.478280603885650635e-01 1.659273505210876465e-01 2.726117372512817383e-01
3.469000000000000000e+03 3.248785781860351562e+01 -1.293172073364257812e+01 -7.066142559051513672e-01 1.969475984573364258e+00 3.788585364818572998e-01 2.455108642578125000e+00
3.470000000000000000e+03 6.471605682373046875e+01 2.246866989135742188e+01 -8.118101358413696289e-01 3.831261396408081055e+00 9.058353304862976074e-01 2.372552633285522461e+00
3.471000000000000000e+03 4.251531982421875000e+01 -2.275627708435058594e+01 2.133317470550537109e+00 3.505215644836425781e+00 1.691559910774230957e+00 1.265134215354919434e+00
3.472000000000000000e+03 6.705488586425781250e+01 3.008274841308593750e+01 1.153995513916015625e+00 5.162530899047851562e+00 1.894957900047302246e+00 8.895285129547119141e-01
3.473000000000000000e+03 3.383252716064453125e+01 3.559769821166992188e+01 -1.031063795089721680e+00 3.174317836761474609e+00 6.429762244224548340e-01 9.833302348852157593e-02
3.474000000000000000e+03 3.220985412597656250e+01 3.112356376647949219e+01 4.998344779014587402e-01 3.983855724334716797e+00 1.345107078552246094e+00 -1.125363826751708984e+00
3.475000000000000000e+03 7.145908355712890625e+00 1.686723327636718750e+01 4.531441330909729004e-01 -2.441279292106628418e-01 6.270486116409301758e-02 3.144708573818206787e-01
3.476000000000000000e+03 7.510260105133056641e+00 1.946788787841796875e+01 3.199683427810668945e-01 -2.064777761697769165e-01 3.404716774821281433e-02 1.007597073912620544e-01
3.477000000000000000e+03 4.146730804443359375e+01 3.468551158905029297e+00 1.494731664657592773e+00 9.828385353088378906e+00 3.396935224533081055e+00 6.549220681190490723e-01
3.478000000000000000e+03 4.137551116943359375e+01 9.565990567207336426e-01 4.364129543304443359e+00 6.165605068206787109e+00 3.158920526504516602e+00 2.493388503789901733e-01
3.479000000000000000e+03 4.056722640991210938e+01 3.635358572006225586e+00 -5.059657245874404907e-02 1.207178115844726562e+01 3.606355428695678711e+00 8.685623407363891602e-01
3.480000000000000000e+03 4.425464630126953125e+01 5.641890525817871094e+00 9.794548749923706055e-01 6.343617439270019531e+00 2.196921586990356445e+00 -1.176502585411071777e+00
3.481000000000000000e+03 4.397784042358398438e+01 6.722513198852539062e+00 6.183104515075683594e-01 7.021588325500488281e+00 2.291969776153564453e+00 -8.654100894927978516e-01
3.482000000000000000e+03 4.034418106079101562e+01 4.583464145660400391e+00 5.589013099670410156e-01 1.243692016601562500e+01 3.898746490478515625e+00 -1.389123201370239258e-01
3.483000000000000000e+03 4.260538864135742188e+01 6.049402356147766113e-01 3.235290288925170898e+00 4.671206474304199219e+00 2.371949195861816406e+00 -1.301526904106140137e+00
3.484000000000000000e+03 4.064862060546875000e+01 -7.060523331165313721e-02 3.106201171875000000e+00 7.068626880645751953e+00 3.052448511123657227e+00 2.734180688858032227e-01
3.485000000000000000e+03 4.230675125122070312e+01 -1.621172785758972168e+00 6.932416558265686035e-01 2.333242416381835938e+00 9.079452157020568848e-01 -1.726775288581848145e+00
3.486000000000000000e+03 4.183550262451171875e+01 -5.865266323089599609e-01 2.263172388076782227e+00 4.051033496856689453e+00 1.894261717796325684e+00 -9.771456718444824219e-01
3.487000000000000000e+03 3.673357772827148438e+01 -2.475099802017211914e+00 -2.474210858345031738e-01 5.764910221099853516e+00 1.655246734619140625e+00 3.370038270950317383e+00
3.488000000000000000e+03 4.119753646850585938e+01 -1.847356438636779785e+00 -2.821331024169921875e-01 2.342350959777832031e+00 6.180653572082519531e-01 5.412061214447021484e-01
3.489000000000000000e+03 3.744084167480468750e+01 -1.842434167861938477e+00 -2.379909157752990723e-01 6.304462909698486328e+00 1.819941639900207520e+00 4.256205558776855469e+00
3.490000000000000000e+03 3.821232604980468750e+01 -1.281214714050292969e+00 1.263549923896789551e-01 7.279421329498291016e+00 2.221732854843139648e+00 4.860931396484375000e+00
3.491000000000000000e+03 4.127269744873046875e+01 3.177133321762084961e+00 1.519389152526855469e+00 9.974786758422851562e+00 3.448252677917480469e+00 1.115319848060607910e+00
3.492000000000000000e+03 2.887811088562011719e+01 4.114909172058105469e+00 4.830806553363800049e-01 9.961103796958923340e-01 4.437573254108428955e-01 -3.707679212093353271e-01
3.493000000000000000e+03 2.761041831970214844e+01 6.692429542541503906e+00 6.065841317176818848e-01 7.660418748855590820e-01 4.117878079414367676e-01 -5.901213884353637695e-01
3.494000000000000000e+03 2.776944732666015625e+01 8.500510215759277344e+00 2.023174762725830078e-01 8.044365048408508301e-01 3.020261824131011963e-01 -4.352768957614898682e-01
3.495000000000000000e+03 2.728740310668945312e+01 7.123455524444580078e+00 4.928079545497894287e-01 6.455956697463989258e-01 3.415210843086242676e-01 -5.556218624114990234e-01
3.496000000000000000e+03 2.403060722351074219e+01 1.171493339538574219e+01 1.294947564601898193e-01 4.768641889095306396e-01 1.819076836109161377e-01 -1.195358633995056152e-01
3.497000000000000000e+03 3.932660293579101562e+01 1.236829090118408203e+01 1.269783496856689453e+00 6.577579498291015625e+00 2.354208946228027344e+00 -1.308818817138671875e+00
3.498000000000000000e+03 3.839316558837890625e+01 1.200871658325195312e+01 1.377084016799926758e+00 5.633027076721191406e+00 2.103033304214477539e+00 -1.999394178390502930e+00
3.499000000000000000e+03 3.991167449951171875e+01 1.058112335205078125e+01 1.190309882164001465e+00 8.989437103271484375e+00 3.053924083709716797e+00 -8.537848591804504395e-01
3.500000000000000000e+03 4.166643905639648438e+01 1.169081592559814453e+01 1.402023077011108398e+00 8.846061706542968750e+00 3.074425458908081055e+00 6.113910079002380371e-01
3.501000000000000000e+03 2.818996047973632812e+01 8.244862556457519531e+00 1.862459480762481689e-01 9.898498058319091797e-01 3.528287410736083984e-01 -4.355584979057312012e-01
3.502000000000000000e+03 2.942224884033203125e+01 1.217710399627685547e+01 -2.271025627851486206e-01 4.158535301685333252e-01 5.662529543042182922e-02 1.195408031344413757e-01
3.503000000000000000e+03 2.854266738891601562e+01 9.286235809326171875e+00 9.404822252690792084e-03 8.320152163505554199e-01 2.524260282516479492e-01 -2.236098647117614746e-01
3.504000000000000000e+03 2.867865180969238281e+01 1.287333011627197266e+01 -7.695107907056808472e-02 3.693396747112274170e-01 8.771657943725585938e-02 9.316208958625793457e-02
3.505000000000000000e+03 3.871843719482421875e+01 1.254779815673828125e+01 1.278250932693481445e+00 5.826292514801025391e+00 2.131362915039062500e+00 -1.688744664192199707e+00
3.506000000000000000e+03 4.144475936889648438e+01 1.274833297729492188e+01 1.625867486000061035e+00 8.047640800476074219e+00 2.902052640914916992e+00 3.742905557155609131e-01
3.507000000000000000e+03 3.701873016357421875e+01 1.288699436187744141e+01 1.323344826698303223e+00 3.373424291610717773e+00 1.409030795097351074e+00 -2.109678745269775391e+00
3.508000000000000000e+03 2.861941337585449219e+01 4.483424186706542969e+00 6.110598444938659668e-01 9.646765589714050293e-01 4.727209210395812988e-01 -3.461731970310211182e-01
3.509000000000000000e+03 2.866608047485351562e+01 3.488474607467651367e+00 1.730312108993530273e-01 7.050198316574096680e-01 2.634153068065643311e-01 -1.676010191440582275e-01
3.510000000000000000e+03 2.824146842956542969e+01 5.915513038635253906e+00 8.271819949150085449e-01 1.016911745071411133e+00 5.532281398773193359e-01 -5.684154033660888672e-01
3.511000000000000000e+03 2.806955909729003906e+01 5.226959705352783203e+00 7.395018935203552246e-01 7.990707755088806152e-01 4.615718126296997070e-01 -3.834508657455444336e-01
3.512000000000000000e+03 4.060732650756835938e+01 1.154656696319580078e+01 1.249583840370178223e+00 8.352663040161132812e+00 2.880673885345458984e+00 -9.434089064598083496e-02
3.513000000000000000e+03 2.810212135314941406e+01 9.054952621459960938e+00 8.066838234663009644e-02 8.435286283493041992e-01 2.772591114044189453e-01 -3.409085273742675781e-01
3.514000000000000000e+03 2.920375061035156250e+01 1.318504238128662109e+01 -9.154272079467773438e-02 3.194591999053955078e-01 6.837494671344757080e-02 2.179622799158096313e-01
3.515000000000000000e+03 3.819043350219726562e+01 1.281758499145507812e+01 1.297893404960632324e+00 4.930088520050048828e+00 1.868394613265991211e+00 -1.977620005607604980e+00
3.516000000000000000e+03 2.830904197692871094e+01 1.068269348144531250e+01 -8.920077979564666748e-02 6.193522214889526367e-01 1.590454280376434326e-01 -1.511587798595428467e-01
3.517000000000000000e+03 4.068457031250000000e+01 1.066072559356689453e+01 1.167090415954589844e+00 9.115990638732910156e+00 3.084924221038818359e+00 -4.672076925635337830e-02
3.518000000000000000e+03 3.512637710571289062e+01 1.393121242523193359e+01 8.546050190925598145e-01 1.637661933898925781e+00 7.476800680160522461e-01 -1.764802932739257812e+00
3.519000000000000000e+03 3.539659881591796875e+01 1.314268684387207031e+01 9.561960697174072266e-01 1.432730674743652344e+00 7.166780233383178711e-01 -1.694479823112487793e+00
3.520000000000000000e+03 3.724298095703125000e+01 1.838393592834472656e+01 1.001261696219444275e-01 3.372949600219726562e+00 1.041922688484191895e+00 -2.766405344009399414e+00
3.521000000000000000e+03 4.123074722290039062e+01 9.315631866455078125e+00 1.267417550086975098e+00 9.951979637145996094e+00 3.365819215774536133e+00 2.822789847850799561e-01
3.522000000000000000e+03 4.130607986450195312e+01 9.786589622497558594e+00 1.173069834709167480e+00 9.707114219665527344e+00 3.264055252075195312e+00 3.327700197696685791e-01
3.523000000000000000e+03 3.820447921752929688e+01 -1.974794149398803711e+00 -7.689206600189208984e-01 7.092303752899169922e+00 1.897014856338500977e+00 4.665304183959960938e+00
3.524000000000000000e+03 4.118310546875000000e+01 8.223722457885742188e+00 1.472281694412231445e+00 1.055412197113037109e+01 3.607921123504638672e+00 -9.737424552440643311e-02
3.525000000000000000e+03 3.267271804809570312e+01 1.357359886169433594e+01 9.437578171491622925e-02 4.108909666538238525e-01 1.515800207853317261e-01 -3.147549331188201904e-01
3.526000000000000000e+03 4.218725967407226562e+01 9.366643905639648438e+00 1.080474734306335449e+00 9.509039878845214844e+00 3.176854372024536133e+00 5.425658226013183594e-01
3.527000000000000000e+03 4.084868621826171875e+01 9.519438743591308594e+00 1.249800682067871094e+00 9.958886146545410156e+00 3.362606287002563477e+00 4.516729712486267090e-02
3.528000000000000000e+03 3.103525543212890625e+01 2.347421169281005859e+00 3.764248490333557129e-01 7.477205991744995117e-01 3.372436463832855225e-01 -4.355269968509674072e-01
3.529000000000000000e+03 3.390294265747070312e+01 1.680209159851074219e+01 2.897264361381530762e-01 2.528680562973022461e+00 8.455221652984619141e-01 -1.496788263320922852e+00
3.530000000000000000e+03 3.658038330078125000e+01 1.315262699127197266e+01 1.206763744354248047e+00 2.768860578536987305e+00 1.192687273025512695e+00 -2.128172636032104492e+00
3.531000000000000000e+03 3.412511825561523438e+01 1.599912357330322266e+01 4.646009504795074463e-01 2.164122104644775391e+00 7.886168956756591797e-01 -1.526028156280517578e+00
3.532000000000000000e+03 4.078306961059570312e+01 6.980901241302490234e+00 1.373260021209716797e+00 1.172432994842529297e+01 3.929276943206787109e+00 -5.434947609901428223e-01
3.533000000000000000e+03 4.140747451782226562e+01 7.177322387695312500e+00 1.359476685523986816e+00 1.063020229339599609e+01 3.596903800964355469e+00 -3.283132910728454590e-01
3.534000000000000000e+03 8.211120605468750000e+00 -6.077731609344482422e+00 -1.882055774331092834e-02 -9.486863762140274048e-02 -3.410675749182701111e-02 -1.069101914763450623e-01
3.535000000000000000e+03 3.510984420776367188e+01 -4.120645046234130859e+00 8.300222158432006836e-01 4.196801185607910156e+00 1.508046984672546387e+00 1.486493945121765137e+00
3.536000000000000000e+03 3.602368545532226562e+01 -2.657642841339111328e+00 -1.315249949693679810e-01 4.834510326385498047e+00 1.410895586013793945e+00 2.723470211029052734e+00
3.537000000000000000e+03 3.997513961791992188e+01 1.231479740142822266e+01 1.261261343955993652e+00 7.298586845397949219e+00 2.567954540252685547e+00 -7.002148628234863281e-01
3.538000000000000000e+03 7.078043460845947266e+00 -5.262202262878417969e+00 -1.942484080791473389e-02 -8.209690451622009277e-02 -3.045652434229850769e-02 -1.064836531877517700e-01
3.539000000000000000e+03 7.449297428131103516e+00 -6.999463081359863281e+00 1.516270334832370281e-03 -7.991334795951843262e-02 -2.351912297308444977e-02 -8.842176198959350586e-02
3.540000000000000000e+03 5.314726352691650391e+00 -5.188924312591552734e+00 -1.201928127557039261e-02 -8.068978041410446167e-02 -2.781271934509277344e-02 -6.847633421421051025e-02
3.541000000000000000e+03 5.253228664398193359e+00 -5.889597892761230469e+00 8.382478728890419006e-03 -8.894968777894973755e-02 -2.417016215622425079e-02 -7.211213558912277222e-02
3.542000000000000000e+03 5.048468112945556641e+00 -6.766439437866210938e+00 -3.662203205749392509e-03 -7.685565948486328125e-02 -2.415535785257816315e-02 -6.876730173826217651e-02
3.543000000000000000e+03 9.779287338256835938e+00 -6.356345176696777344e+00 2.459873259067535400e-02 -2.643366903066635132e-02 -5.504811415448784828e-04 -1.077808067202568054e-01
3.544000000000000000e+03 1.016794586181640625e+01 -5.147982597351074219e+00 -2.998701483011245728e-02 -9.439153969287872314e-02 -3.731356561183929443e-02 -1.407240033149719238e-01
3.545000000000000000e+03 2.646015548706054688e+01 4.032385349273681641e+00 -3.518258780241012573e-02 6.899967044591903687e-02 1.014512591063976288e-02 4.628132656216621399e-02
3.546000000000000000e+03 2.296048355102539062e+01 8.419106483459472656e+00 3.911115825176239014e-01 1.018174663186073303e-01 1.478787213563919067e-01 -1.257357150316238403e-01
3.547000000000000000e+03 2.712111473083496094e+01 3.711248874664306641e+00 -5.191274732351303101e-02 1.949387639760971069e-01 4.290780425071716309e-02 5.800316110253334045e-02
3.548000000000000000e+03 2.796674728393554688e+01 3.868371963500976562e+00 1.952606737613677979e-01 4.947618544101715088e-01 2.070067673921585083e-01 -7.347362488508224487e-02
3.549000000000000000e+03 2.844030570983886719e+01 3.866202831268310547e+00 2.791202664375305176e-01 7.113059759140014648e-01 2.971278727054595947e-01 -1.746196597814559937e-01
3.550000000000000000e+03 2.606597900390625000e+01 4.495203971862792969e+00 4.520535841584205627e-02 -3.922895062714815140e-03 1.238473877310752869e-02 -1.604674942791461945e-02
3.551000000000000000e+03 2.661686706542968750e+01 4.531258583068847656e+00 2.222352325916290283e-01 1.439212113618850708e-01 1.098469346761703491e-01 -6.217606738209724426e-02
3.552000000000000000e+03 3.224282836914062500e+01 1.392361164093017578e+01 1.765093505382537842e-01 4.654072225093841553e-01 1.925749778747558594e-01 -1.847218126058578491e-01
3.553000000000000000e+03 2.238172912597656250e+01 6.494999408721923828e+00 1.705698966979980469e-01 -7.303810864686965942e-02 2.925953641533851624e-02 -4.098050668835639954e-02
3.554000000000000000e+03 2.386974716186523438e+01 5.721831321716308594e+00 9.179978817701339722e-02 -1.410708427429199219e-01 -1.478131953626871109e-02 -9.015477448701858521e-02
3.555000000000000000e+03 2.455200004577636719e+01 5.781802177429199219e+00 1.799757331609725952e-01 -9.058415889739990234e-02 2.681747451424598694e-02 -1.374171823263168335e-01
3.556000000000000000e+03 5.290978431701660156e+00 7.378847122192382812e+00 -2.988714873790740967e-01 -8.618338406085968018e-02 -1.155164688825607300e-01 2.197227329015731812e-01
3.557000000000000000e+03 2.316566848754882812e+01 6.375170230865478516e+00 1.705405265092849731e-01 -1.004572883248329163e-01 2.102497220039367676e-02 -1.032074168324470520e-01
3.558000000000000000e+03 3.890810251235961914e+00 5.927634239196777344e+00 -1.596358269453048706e-01 -2.724605612456798553e-02 -5.606456473469734192e-02 6.845495849847793579e-02
3.559000000000000000e+03 7.314469337463378906e+00 4.907458782196044922e+00 -2.996123135089874268e-01 -9.382430464029312134e-02 -1.180309876799583435e-01 6.542007625102996826e-02
3.560000000000000000e+03 6.834338188171386719e+00 5.776620388031005859e+00 -3.500867486000061035e-01 -9.676752239465713501e-02 -1.340562850236892700e-01 1.117222383618354797e-01
3.561000000000000000e+03 3.705153274536132812e+01 -3.824277639389038086e+00 -4.212411120533943176e-02 7.188891410827636719e+00 2.144030094146728516e+00 2.677587509155273438e+00
3.562000000000000000e+03 8.547915458679199219e+00 6.220038890838623047e+00 -5.131544470787048340e-01 -1.864950507879257202e-01 -2.098948508501052856e-01 1.945931911468505859e-01
3.563000000000000000e+03 4.366807937622070312e+01 6.013741970062255859e+00 9.639333486557006836e-01 7.336656093597412109e+00 2.490176916122436523e+00 -9.298985004425048828e-01
3.564000000000000000e+03 4.300328063964843750e+01 8.736727714538574219e+00 6.891142129898071289e-01 9.073642730712890625e+00 2.928827047348022461e+00 2.151792794466018677e-01
3.565000000000000000e+03 4.294513320922851562e+01 9.575142860412597656e+00 8.414500951766967773e-01 9.269332885742187500e+00 3.033234834671020508e+00 6.244468092918395996e-01
3.566000000000000000e+03 1.208131027221679688e+01 -5.033847332000732422e+00 4.648406058549880981e-03 -2.257789671421051025e-02 -5.378847010433673859e-03 -5.238475650548934937e-02
3.567000000000000000e+03 2.309227752685546875e+01 9.968501091003417969e+00 3.515384197235107422e-01 2.846510112285614014e-01 1.908568292856216431e-01 -6.338071078062057495e-02
3.568000000000000000e+03 3.530978012084960938e+01 -5.304795265197753906e+00 1.904640793800354004e+00 5.109172344207763672e+00 2.104144096374511719e+00 1.344794511795043945e+00
3.569000000000000000e+03 4.950008010864257812e+01 -9.658679962158203125e-01 8.045560121536254883e-01 5.871736526489257812e+00 2.002887725830078125e+00 -1.332995653152465820e+00
3.570000000000000000e+03 4.481337738037109375e+01 -3.384976387023925781e-01 1.661858439445495605e+00 3.787785768508911133e+00 1.634893298149108887e+00 -3.015735864639282227e+00
3.571000000000000000e+03 3.864068222045898438e+01 -2.368727684020996094e+00 -1.757542610168457031e+00 6.790188789367675781e+00 1.509793877601623535e+00 4.419714927673339844e+00
3.572000000000000000e+03 4.685511398315429688e+01 -9.244554638862609863e-01 9.927394390106201172e-01 4.697400093078613281e+00 1.707041859626770020e+00 -2.822322845458984375e+00
3.573000000000000000e+03 4.334354400634765625e+01 7.014894962310791016e+00 8.123001456260681152e-01 8.089355468750000000e+00 2.670496702194213867e+00 -5.791361927986145020e-01
3.574000000000000000e+03 1.133944225311279297e+01 -4.679853916168212891e+00 -1.079953648149967194e-02 -3.332727402448654175e-02 -1.323804352432489395e-02 -1.709923595190048218e-01
3.575000000000000000e+03 1.107976436614990234e+01 -5.181538105010986328e+00 6.185701116919517517e-03 -9.403686970472335815e-02 -2.635535039007663727e-02 -8.552487194538116455e-02
3.576000000000000000e+03 4.422246551513671875e+01 -1.259098291397094727e+00 1.112435340881347656e+00 3.437560558319091797e+00 1.364998817443847656e+00 -3.062283515930175781e+00
3.577000000000000000e+03 3.797407150268554688e+01 -2.365974187850952148e+00 -1.266842722892761230e+00 7.230151176452636719e+00 1.788992524147033691e+00 4.163185596466064453e+00
3.578000000000000000e+03 9.349155426025390625e+00 -5.778124332427978516e+00 9.213598445057868958e-03 -1.309171915054321289e-01 -3.651107847690582275e-02 -1.243657022714614868e-01
3.579000000000000000e+03 1.185465240478515625e+01 -8.025447845458984375e+00 1.526449155062437057e-02 6.845704466104507446e-02 2.511646039783954620e-02 -8.149045705795288086e-02
3.580000000000000000e+03 4.539839172363281250e+01 4.915341377258300781e+00 1.016884446144104004e+00 4.824992179870605469e+00 1.752562999725341797e+00 -1.639095902442932129e+00
3.581000000000000000e+03 4.953738784790039062e+01 -2.238937139511108398e+00 1.037503719329833984e+00 6.583511829376220703e+00 2.286304712295532227e+00 -1.409010648727416992e+00
3.582000000000000000e+03 2.861150741577148438e+01 1.346521949768066406e+01 2.822713367640972137e-02 2.645438313484191895e-01 8.783128857612609863e-02 1.542591452598571777e-01
3.583000000000000000e+03 2.820898437500000000e+01 1.213097286224365234e+01 -8.901777863502502441e-02 4.651854932308197021e-01 1.128503158688545227e-01 -2.810228802263736725e-02
3.584000000000000000e+03 3.435206222534179688e+01 -7.187449455261230469e+00 2.593586683273315430e+00 3.611051082611083984e+00 1.861391305923461914e+00 1.870306253433227539e+00
3.585000000000000000e+03 5.221516418457031250e+01 -3.003717231750488281e+01 2.052932739257812500e+00 4.878746986389160156e+00 2.079504013061523438e+00 9.827569127082824707e-02
3.586000000000000000e+03 5.230726623535156250e+01 -3.119342041015625000e+01 2.410248994827270508e+00 5.544864654541015625e+00 2.386533975601196289e+00 3.876379877328872681e-02
3.587000000000000000e+03 6.205916213989257812e+01 2.957371234893798828e+00 -7.653813958168029785e-01 4.942396163940429688e+00 1.253104448318481445e+00 -1.626394152641296387e+00
3.588000000000000000e+03 4.160780334472656250e+01 1.064393138885498047e+01 1.161759138107299805e+00 9.262495994567871094e+00 3.127276659011840820e+00 5.296456813812255859e-01
3.589000000000000000e+03 6.180295181274414062e+01 -1.305681419372558594e+01 -1.197098731994628906e+00 6.486946582794189453e+00 1.586954474449157715e+00 1.176102519035339355e+00
3.590000000000000000e+03 4.810890197753906250e+01 3.052739620208740234e+00 1.316525816917419434e+00 2.878330230712890625e+00 1.258456826210021973e+00 -1.410283565521240234e+00
3.591000000000000000e+03 1.263324356079101562e+01 -1.004120063781738281e+01 -2.341647446155548096e-02 8.222313225269317627e-02 1.764199696481227875e-02 -8.677828311920166016e-02
3.592000000000000000e+03 4.335633468627929688e+01 5.401073932647705078e+00 1.198765635490417480e+00 7.451477050781250000e+00 2.595072746276855469e+00 -9.005572795867919922e-01
3.593000000000000000e+03 4.112722015380859375e+01 2.563203096389770508e+00 2.614220142364501953e+00 9.527985572814941406e+00 3.642661571502685547e+00 1.940282940864562988e+00
3.594000000000000000e+03 2.854533386230468750e+01 -2.828948402404785156e+01 -1.029985070228576660e+00 2.939761400222778320e+00 5.729328989982604980e-01 -5.170739814639091492e-02
3.595000000000000000e+03 6.488640594482421875e+01 6.754984855651855469e-01 1.894687265157699585e-01 4.613847732543945312e+00 1.440994977951049805e+00 7.146220207214355469e-01
3.596000000000000000e+03 7.567171478271484375e+01 -2.617506027221679688e+01 -9.854143857955932617e-01 8.769167900085449219e+00 2.335126161575317383e+00 -5.517756938934326172e-02
3.597000000000000000e+03 2.235059738159179688e+01 7.322412014007568359e+00 3.076454401016235352e-01 -1.540435384958982468e-02 8.767232298851013184e-02 -7.230211049318313599e-02
3.598000000000000000e+03 2.524092864990234375e+01 5.894974708557128906e+00 2.921969890594482422e-01 -1.208022888749837875e-02 8.403503149747848511e-02 -2.059860229492187500e-01
3.599000000000000000e+03 3.518178176879882812e+01 1.875503730773925781e+01 -1.149875968694686890e-01 3.810851812362670898e+00 1.108759284019470215e+00 -2.216866016387939453e+00
3.600000000000000000e+03 3.538887405395507812e+01 1.795179176330566406e+01 1.044487431645393372e-01 3.389351844787597656e+00 1.048140168190002441e+00 -2.298969507217407227e+00
3.601000000000000000e+03 2.500401115417480469e+01 1.365702819824218750e+01 1.876375079154968262e-02 5.470048189163208008e-01 1.697305589914321899e-01 -2.133171409368515015e-01
3.602000000000000000e+03 5.018167495727539062e+01 1.668069839477539062e+00 6.838269829750061035e-01 3.948119878768920898e+00 1.389584064483642578e+00 2.926034294068813324e-02
3.603000000000000000e+03 3.938861846923828125e+01 1.865211486816406250e+01 3.334953486919403076e-01 2.931674957275390625e+00 9.795510768890380859e-01 -2.256492137908935547e+00
3.604000000000000000e+03 3.581363677978515625e+01 1.559615325927734375e+01 7.367064952850341797e-01 2.609266281127929688e+00 1.003791809082031250e+00 -2.231870174407958984e+00
3.605000000000000000e+03 2.139230346679687500e+01 -1.969626808166503906e+01 9.874935150146484375e-01 2.055851817131042480e-01 3.579235970973968506e-01 6.021053344011306763e-02
3.606000000000000000e+03 7.453223419189453125e+01 -3.177803611755371094e+01 3.369898796081542969e-01 6.351793766021728516e+00 2.006634950637817383e+00 2.228438705205917358e-01
3.607000000000000000e+03 7.141161346435546875e+01 -3.097246360778808594e+01 1.740817308425903320e+00 4.262908935546875000e+00 1.801117897033691406e+00 -7.592117041349411011e-02
3.608000000000000000e+03 4.452369308471679688e+01 -1.808658599853515625e+01 9.811006188392639160e-01 4.166096210479736328e+00 1.544159054756164551e+00 7.697440981864929199e-01
3.609000000000000000e+03 4.320080184936523438e+01 -1.773871231079101562e+01 6.964865922927856445e-01 2.876669168472290039e+00 1.071946740150451660e+00 4.775852262973785400e-01
3.610000000000000000e+03 7.404848098754882812e+00 -3.103069686889648438e+01 2.072850018739700317e-01 1.509231030941009521e-01 1.074624359607696533e-01 1.586453169584274292e-01
3.611000000000000000e+03 3.294040679931640625e+01 -6.939829349517822266e+00 1.935174703598022461e+00 2.292311668395996094e+00 1.268245935440063477e+00 1.818640828132629395e+00
3.612000000000000000e+03 4.153609085083007812e+01 2.152284383773803711e+00 3.568185329437255859e+00 7.817551612854003906e+00 3.415721178054809570e+00 1.109535813331604004e+00
3.613000000000000000e+03 1.240803527832031250e+01 -8.578741073608398438e+00 7.066227030009031296e-03 2.717314101755619049e-02 1.027181092649698257e-02 -8.552080392837524414e-02
3.614000000000000000e+03 1.279135417938232422e+01 -6.203817367553710938e+00 2.477144449949264526e-02 -2.189905568957328796e-02 8.617169223725795746e-04 -5.721865966916084290e-02
3.615000000000000000e+03 7.290879058837890625e+01 2.189461517333984375e+01 -1.079797625541687012e+00 6.151522159576416016e+00 1.521517395973205566e+00 -8.529632687568664551e-01
3.616000000000000000e+03 2.708002281188964844e+01 9.018217086791992188e+00 1.976384222507476807e-01 6.039147973060607910e-01 2.404659539461135864e-01 -4.231940209865570068e-01
3.617000000000000000e+03 5.788125228881835938e+01 5.116266250610351562e+00 1.761441230773925781e-01 5.585939407348632812e+00 1.728625059127807617e+00 -8.626416325569152832e-01
3.618000000000000000e+03 5.746812057495117188e+01 2.205593490600585938e+01 -1.438948035240173340e+00 1.621692776679992676e+00 5.482340604066848755e-02 -1.953517913818359375e+00
3.619000000000000000e+03 2.476317596435546875e+01 -1.920675086975097656e+01 1.217068791389465332e+00 1.568647265434265137e+00 8.357148170471191406e-01 2.982880175113677979e-01
3.620000000000000000e+03 4.909955596923828125e+01 2.685627698898315430e+00 1.038021802902221680e+00 2.952269554138183594e+00 1.197087407112121582e+00 -7.975593209266662598e-01
3.621000000000000000e+03 4.984974670410156250e+01 -1.758293509483337402e-01 7.194619178771972656e-01 5.355322837829589844e+00 1.822435498237609863e+00 -9.785559177398681641e-01
3.622000000000000000e+03 5.700464630126953125e+01 7.382090091705322266e+00 1.655111312866210938e+00 7.364737987518310547e+00 2.705954790115356445e+00 2.425542920827865601e-01
3.623000000000000000e+03 4.026353836059570312e+01 1.334672832489013672e+01 1.393026232719421387e+00 6.640777111053466797e+00 2.410140991210937500e+00 -7.262489199638366699e-01
3.624000000000000000e+03 3.997550201416015625e+01 1.175913715362548828e+01 1.211343288421630859e+00 7.731091022491455078e+00 2.682730197906494141e+00 -6.667373180389404297e-01
3.625000000000000000e+03 7.180432891845703125e+01 -3.313488006591796875e+01 1.376464843750000000e+00 5.320778369903564453e+00 2.009172916412353516e+00 -6.816099286079406738e-01
3.626000000000000000e+03 4.164181900024414062e+01 1.495023155212402344e+01 1.805297255516052246e+00 6.771279811859130859e+00 2.572973012924194336e+00 -3.197346255183219910e-02
3.627000000000000000e+03 7.037982940673828125e+01 2.552953004837036133e+00 4.558742046356201172e-01 2.433471679687500000e+00 8.668037056922912598e-01 1.192327022552490234e+00
3.628000000000000000e+03 7.224204254150390625e+01 2.674194812774658203e+00 5.703273788094520569e-02 3.873842000961303711e+00 1.179262399673461914e+00 1.266191154718399048e-01
3.629000000000000000e+03 7.088362884521484375e+01 -3.215129852294921875e+01 1.757400393486022949e+00 4.696122646331787109e+00 1.936056971549987793e+00 -8.182184696197509766e-01
3.630000000000000000e+03 7.475260925292968750e+01 2.339928817749023438e+01 -3.209277093410491943e-01 6.452619075775146484e+00 1.839507341384887695e+00 -5.312321782112121582e-01
3.631000000000000000e+03 7.464131164550781250e+01 2.466795349121093750e+01 -1.811126172542572021e-01 6.207601547241210938e+00 1.807946681976318359e+00 -5.348412394523620605e-01
3.632000000000000000e+03 7.472548675537109375e+01 2.587729644775390625e+01 1.212941259145736694e-01 6.119735240936279297e+00 1.872308731079101562e+00 -5.135330557823181152e-01
3.633000000000000000e+03 7.116899871826171875e+01 2.586187362670898438e+01 6.106798648834228516e-01 4.589500427246093750e+00 1.560054063796997070e+00 -6.619458794593811035e-01
3.634000000000000000e+03 7.189685058593750000e+01 2.751003074645996094e+01 7.390218377113342285e-01 4.955912590026855469e+00 1.708480358123779297e+00 -3.316091895103454590e-01
3.635000000000000000e+03 7.398373413085937500e+01 4.738110542297363281e+00 -2.596029043197631836e-01 6.100951671600341797e+00 1.752404689788818359e+00 -4.513216018676757812e-01
3.636000000000000000e+03 7.462749481201171875e+01 3.567833423614501953e+00 -3.451534807682037354e-01 6.193659782409667969e+00 1.754551887512207031e+00 -7.218455672264099121e-01
3.637000000000000000e+03 5.580961227416992188e+01 2.035400199890136719e+01 -7.782792448997497559e-01 3.870262384414672852e+00 9.275949597358703613e-01 -2.414192676544189453e+00
3.638000000000000000e+03 5.166139221191406250e+01 2.215942001342773438e+01 -4.892884492874145508e-01 4.529673099517822266e+00 1.212115287780761719e+00 -1.521046996116638184e+00
3.639000000000000000e+03 5.753517532348632812e+01 -1.744346809387207031e+01 1.080663919448852539e+00 6.787489414215087891e+00 2.360445976257324219e+00 -4.575812220573425293e-01
3.640000000000000000e+03 6.657383728027343750e+01 2.291902732849121094e+01 2.083999961614608765e-01 1.959508061408996582e+00 6.503723859786987305e-01 5.709658265113830566e-01
3.641000000000000000e+03 6.920327758789062500e+01 2.340716171264648438e+01 1.105573698878288269e-01 3.328388929367065430e+00 1.031683921813964844e+00 -1.212008953094482422e+00
3.642000000000000000e+03 2.346179771423339844e+01 -2.397970771789550781e+01 5.475001931190490723e-01 1.072029113769531250e+00 4.858587980270385742e-01 3.567660450935363770e-01
3.643000000000000000e+03 2.120242500305175781e+01 -2.249821472167968750e+01 8.954062461853027344e-01 9.111366420984268188e-02 2.959559857845306396e-01 3.823338150978088379e-01
3.644000000000000000e+03 6.105348587036132812e+00 -3.273812484741210938e+01 1.447578966617584229e-01 3.870778903365135193e-02 5.503970384597778320e-02 2.053035795688629150e-01
3.645000000000000000e+03 6.445288848876953125e+01 3.995478868484497070e+00 -3.735531866550445557e-01 2.677119255065917969e+00 6.910698413848876953e-01 -2.565367817878723145e-01
3.646000000000000000e+03 6.224750900268554688e+01 -2.279125404357910156e+01 3.217024087905883789e+00 5.090880393981933594e+00 2.492371320724487305e+00 -2.017642974853515625e+00
3.647000000000000000e+03 6.153728961944580078e+00 2.017745780944824219e+01 1.727269589900970459e-01 -4.053567647933959961e-01 -6.978894025087356567e-02 8.057679980993270874e-02
3.648000000000000000e+03 5.256996154785156250e+00 1.982415962219238281e+01 1.459278613328933716e-01 -5.272625684738159180e-01 -1.144004166126251221e-01 8.638851344585418701e-02
3.649000000000000000e+03 5.762604904174804688e+01 1.856592369079589844e+01 1.043201088905334473e+00 5.197409152984619141e+00 1.872183203697204590e+00 -4.361646473407745361e-01
3.650000000000000000e+03 5.802204132080078125e+01 1.989650154113769531e+01 4.863273799419403076e-01 4.102187156677246094e+00 1.376554369926452637e+00 -3.829167187213897705e-01
3.651000000000000000e+03 6.050543308258056641e+00 -7.906320095062255859e+00 1.136421109549701214e-03 -1.143069267272949219e-01 -3.395115211606025696e-02 -8.216145634651184082e-02
3.652000000000000000e+03 4.849853038787841797e+00 -9.025503158569335938e+00 6.047696340829133987e-03 -1.104510501027107239e-01 -3.132100403308868408e-02 -5.472593382000923157e-02
3.653000000000000000e+03 2.419656372070312500e+01 -2.014848709106445312e+01 1.261073946952819824e+00 1.294146180152893066e+00 7.665660381317138672e-01 3.061717748641967773e-01
3.654000000000000000e+03 6.013180923461914062e+01 5.187366962432861328e+00 -3.606927394866943359e-01 5.082513332366943359e+00 1.416546225547790527e+00 -1.988276481628417969e+00
3.655000000000000000e+03 6.818444061279296875e+01 3.536904144287109375e+01 -3.080667555332183838e-01 5.196556091308593750e+00 1.466546893119812012e+00 5.663652420043945312e-01
3.656000000000000000e+03 4.997185897827148438e+01 2.661860466003417969e+01 2.135504007339477539e+00 6.206428527832031250e+00 2.502579689025878906e+00 5.348259806632995605e-01
3.657000000000000000e+03 7.150990009307861328e+00 9.491415977478027344e+00 -4.416984021663665771e-01 -1.653620004653930664e-01 -1.821181178092956543e-01 4.549882411956787109e-01
3.658000000000000000e+03 7.126688385009765625e+01 5.027313232421875000e+00 -6.921647489070892334e-02 4.443048477172851562e+00 1.312149643898010254e+00 1.128306508064270020e+00
3.659000000000000000e+03 6.951347351074218750e+01 3.380286931991577148e+00 4.371362626552581787e-01 2.428715229034423828e+00 8.597554564476013184e-01 1.771963119506835938e+00
3.660000000000000000e+03 6.197869777679443359e+00 8.357427597045898438e+00 -3.801611065864562988e-01 -1.200390234589576721e-01 -1.500600427389144897e-01 3.191601932048797607e-01
3.661000000000000000e+03 5.298867702484130859e+00 8.205490112304687500e+00 -2.984330654144287109e-01 -7.862206548452377319e-02 -1.131165400147438049e-01 2.796033024787902832e-01
3.662000000000000000e+03 1.073618793487548828e+01 -5.628075599670410156e+00 2.251821197569370270e-02 -1.229907292872667313e-02 3.065741620957851410e-03 -1.117032542824745178e-01
3.663000000000000000e+03 5.978811740875244141e+00 -6.872707843780517578e+00 2.095822989940643311e-02 -1.002164781093597412e-01 -2.377747558057308197e-02 -7.447271794080734253e-02
3.664000000000000000e+03 5.041844177246093750e+01 -1.157741451263427734e+01 1.309282660484313965e+00 5.801119804382324219e+00 2.133120775222778320e+00 -1.226185321807861328e+00
3.665000000000000000e+03 8.745908737182617188e+00 -2.791828346252441406e+01 2.315499782562255859e-01 2.155542820692062378e-01 1.341312825679779053e-01 1.326135080307722092e-02
3.666000000000000000e+03 5.178212738037109375e+01 -3.212636947631835938e+01 2.709702014923095703e+00 5.809380531311035156e+00 2.555724859237670898e+00 -3.118080198764801025e-01
3.667000000000000000e+03 5.245210266113281250e+01 -3.312896347045898438e+01 2.491773366928100586e+00 6.117974281311035156e+00 2.582924365997314453e+00 1.715174615383148193e-01
3.668000000000000000e+03 7.286928558349609375e+01 2.044994163513183594e+01 -1.306487202644348145e+00 6.569736003875732422e+00 1.578974723815917969e+00 -6.220775842666625977e-01
3.669000000000000000e+03 3.214264678955078125e+01 -1.082465839385986328e+01 1.317997694015502930e+00 2.085117101669311523e+00 1.020934462547302246e+00 2.565581560134887695e+00
3.670000000000000000e+03 3.241598129272460938e+01 -1.376488304138183594e+01 -1.380261659622192383e+00 1.957291245460510254e+00 1.731088906526565552e-01 2.427078962326049805e+00
3.671000000000000000e+03 4.883471298217773438e+01 -6.305806040763854980e-01 8.485151529312133789e-01 5.333797931671142578e+00 1.854693889617919922e+00 -1.787335872650146484e+00
3.672000000000000000e+03 6.814089965820312500e+01 2.593756675720214844e+01 1.691906929016113281e+00 3.714537620544433594e+00 1.621933341026306152e+00 5.767292529344558716e-02
3.673000000000000000e+03 7.207679748535156250e+01 2.376105690002441406e+01 -3.584649860858917236e-01 5.229860782623291016e+00 1.461418747901916504e+00 -1.013452768325805664e+00
3.674000000000000000e+03 1.119857597351074219e+01 -8.493423461914062500e+00 9.981233626604080200e-03 -4.799602925777435303e-02 -1.140443887561559677e-02 -1.140508800745010376e-01
3.675000000000000000e+03 2.303833007812500000e+01 -1.772552490234375000e+01 8.502925634384155273e-01 4.610987305641174316e-01 3.934173882007598877e-01 1.457544788718223572e-02
3.676000000000000000e+03 3.260840606689453125e+01 3.322130966186523438e+01 -3.521280288696289062e-01 3.683988571166992188e+00 9.995581507682800293e-01 -6.804939508438110352e-01
3.677000000000000000e+03 2.805388641357421875e+01 -3.189743614196777344e+01 -7.864493876695632935e-02 2.314523220062255859e+00 6.707634925842285156e-01 -1.657501608133316040e-01
3.678000000000000000e+03 7.906437873840332031e+00 -1.122017669677734375e+01 -2.613158710300922394e-02 -1.262501925230026245e-01 -4.571453481912612915e-02 -9.452277421951293945e-02
3.679000000000000000e+03 4.783471298217773438e+01 3.498561477661132812e+01 -8.973802328109741211e-01 5.465865135192871094e+00 1.370545506477355957e+00 -5.971165299415588379e-01
3.680000000000000000e+03 5.896726989746093750e+01 -2.204762077331542969e+01 2.370256423950195312e+00 4.880733489990234375e+00 2.175297021865844727e+00 2.480294555425643921e-02
3.681000000000000000e+03 5.843482589721679688e+01 -1.888387489318847656e+01 1.954008698463439941e+00 6.324095249176025391e+00 2.483431339263916016e+00 -3.721705079078674316e-01
3.682000000000000000e+03 5.933202362060546875e+01 -2.020586013793945312e+01 2.709702253341674805e+00 5.308616161346435547e+00 2.405495405197143555e+00 -4.059723019599914551e-01
3.683000000000000000e+03 2.523741340637207031e+01 -2.073030090332031250e+01 1.348449945449829102e+00 2.049831390380859375e+00 1.019484400749206543e+00 4.127321839332580566e-01
3.684000000000000000e+03 4.272787094116210938e+01 -2.508250236511230469e+01 1.233443260192871094e+00 2.113189697265625000e+00 1.003989815711975098e+00 1.176767826080322266e+00
3.685000000000000000e+03 7.249628448486328125e+01 2.275468826293945312e+01 -6.733401417732238770e-01 5.709987163543701172e+00 1.510994195938110352e+00 -9.854896068572998047e-01
3.686000000000000000e+03 6.623852539062500000e+01 2.452371025085449219e+01 1.293331027030944824e+00 3.643361806869506836e+00 1.481007814407348633e+00 6.949464082717895508e-01
3.687000000000000000e+03 6.582063293457031250e+01 2.344334983825683594e+01 5.424047708511352539e-01 3.162529945373535156e+00 1.111480355262756348e+00 1.287765502929687500e+00
3.688000000000000000e+03 2.892290496826171875e+01 -3.518703460693359375e+01 2.407833188772201538e-01 2.034618139266967773e+00 6.826204061508178711e-01 -1.166826188564300537e-01
3.689000000000000000e+03 2.901473808288574219e+01 -3.708977127075195312e+01 -5.246401205658912659e-02 2.251074314117431641e+00 6.595830917358398438e-01 -1.247455701231956482e-01
3.690000000000000000e+03 2.852952003479003906e+01 3.443413925170898438e+01 1.226435415446758270e-02 2.401676416397094727e+00 7.241822481155395508e-01 -7.403426766395568848e-01
3.691000000000000000e+03 2.814285659790039062e+01 3.200418472290039062e+01 7.243938446044921875e-01 2.080546855926513672e+00 8.414822220802307129e-01 -9.073876142501831055e-01
3.692000000000000000e+03 1.964345169067382812e+01 -2.020050239562988281e+01 7.973130345344543457e-01 5.506331473588943481e-02 2.557128965854644775e-01 1.693712621927261353e-01
3.693000000000000000e+03 5.876137924194335938e+01 -1.523552989959716797e+01 -3.321085274219512939e-01 5.791076183319091797e+00 1.637690186500549316e+00 -1.295690089464187622e-01
3.694000000000000000e+03 5.888147354125976562e+01 5.196012020111083984e+00 -1.883352696895599365e-01 5.260727405548095703e+00 1.521717667579650879e+00 -1.593159079551696777e+00
3.695000000000000000e+03 5.751782989501953125e+01 6.207250595092773438e+00 6.290355324745178223e-01 6.186152458190917969e+00 2.044556379318237305e+00 -6.543331742286682129e-01
3.696000000000000000e+03 6.756425476074218750e+01 3.246528625488281250e+01 3.982895910739898682e-01 5.262793064117431641e+00 1.698324799537658691e+00 8.047161698341369629e-01
3.697000000000000000e+03 7.192104339599609375e+01 3.079723167419433594e+01 6.772438883781433105e-01 5.374889373779296875e+00 1.815639972686767578e+00 2.614124417304992676e-01
3.698000000000000000e+03 6.245346832275390625e+01 -1.691562461853027344e+01 -5.686357021331787109e-01 6.697647094726562500e+00 1.838703513145446777e+00 -3.560816347599029541e-01
3.699000000000000000e+03 7.905215263366699219e+00 -3.374260711669921875e+01 1.322799175977706909e-01 2.773727774620056152e-01 1.228958070278167725e-01 2.448416203260421753e-01
3.700000000000000000e+03 8.488954544067382812e+00 -3.089886856079101562e+01 2.465208768844604492e-01 2.607809603214263916e-01 1.521905511617660522e-01 1.708537340164184570e-01
3.701000000000000000e+03 6.074428558349609375e+01 -1.357143497467041016e+01 -1.110217809677124023e+00 6.058595657348632812e+00 1.484513401985168457e+00 8.429203629493713379e-01
3.702000000000000000e+03 6.130564498901367188e+01 -1.466067504882812500e+01 -9.863629341125488281e-01 6.365260124206542969e+00 1.613669157028198242e+00 7.153092026710510254e-01
3.703000000000000000e+03 6.008669662475585938e+01 -1.826686859130859375e+01 1.341099739074707031e+00 6.076340198516845703e+00 2.225232124328613281e+00 -5.308498740196228027e-01
3.704000000000000000e+03 7.371201992034912109e+00 -2.826524353027343750e+01 1.853834986686706543e-01 1.123736128211021423e-01 8.932713419198989868e-02 1.130748633295297623e-02
3.705000000000000000e+03 7.400527000427246094e+00 -2.969785690307617188e+01 1.857334226369857788e-01 1.060736924409866333e-01 8.754213154315948486e-02 7.771413773298263550e-02
3.706000000000000000e+03 3.077944183349609375e+01 3.688429260253906250e+01 -6.785861849784851074e-01 2.866852045059204102e+00 6.564797759056091309e-01 -3.495879769325256348e-01
3.707000000000000000e+03 6.328128051757812500e+01 4.264829158782958984e+00 -5.164847373962402344e-01 3.487446546554565430e+00 8.912885189056396484e-01 -1.210608720779418945e+00
3.708000000000000000e+03 6.047671890258789062e+01 -1.626898574829101562e+01 -9.001700580120086670e-02 6.292619228363037109e+00 1.860780596733093262e+00 1.966051349882036448e-04
3.709000000000000000e+03 5.038965988159179688e+01 3.996012115478515625e+01 -1.694616556167602539e+00 5.055380344390869141e+00 1.008229136466979980e+00 2.469833381474018097e-02
3.710000000000000000e+03 6.246169662475585938e+01 1.849723100662231445e+00 -6.260452866554260254e-01 5.428894042968750000e+00 1.440854668617248535e+00 -1.092901706695556641e+00
3.711000000000000000e+03 5.216746902465820312e+01 2.293985939025878906e+01 -1.866513341665267944e-01 5.139681816101074219e+00 1.485909223556518555e+00 -1.352479934692382812e+00
3.712000000000000000e+03 2.386313629150390625e+01 -1.856243324279785156e+01 9.986542463302612305e-01 9.404178857803344727e-01 5.817216038703918457e-01 1.938860267400741577e-01
3.713000000000000000e+03 5.754936218261718750e+01 -1.377470493316650391e+01 -1.978206038475036621e-01 4.521316051483154297e+00 1.297048568725585938e+00 -1.241545796394348145e+00
3.714000000000000000e+03 9.243775367736816406e+00 3.626516342163085938e+01 1.520173847675323486e-01 8.635370433330535889e-02 7.151132822036743164e-02 1.348046213388442993e-01
3.715000000000000000e+03 8.140201568603515625e+00 4.125369262695312500e+01 -7.074682414531707764e-02 -2.166392803192138672e-01 -8.621583133935928345e-02 7.607289124280214310e-03
3.716000000000000000e+03 2.805263710021972656e+01 -4.135616683959960938e+01 -7.655078768730163574e-01 2.439280271530151367e+00 5.021317005157470703e-01 -1.159600093960762024e-01
3.717000000000000000e+03 9.125435829162597656e+00 3.873251724243164062e+01 -2.813728712499141693e-02 -7.057852298021316528e-02 -2.961474284529685974e-02 5.661469697952270508e-02
3.718000000000000000e+03 4.038268661499023438e+01 3.986840963363647461e+00 -9.239682555198669434e-02 1.228115940093994141e+01 3.656628608703613281e+00 3.208268880844116211e-01
3.719000000000000000e+03 4.003463745117187500e+01 4.294525623321533203e+00 -3.895657882094383240e-02 1.273226928710937500e+01 3.807993650436401367e+00 -1.617318391799926758e-01
3.720000000000000000e+03 4.125062179565429688e+01 2.348763465881347656e+00 3.109100580215454102e+00 8.772508621215820312e+00 3.564482688903808594e+00 1.683398723602294922e+00
3.721000000000000000e+03 4.131839752197265625e+01 1.870301485061645508e+00 4.084625244140625000e+00 7.641686916351318359e+00 3.517893552780151367e+00 1.358973383903503418e+00
3.722000000000000000e+03 4.069099426269531250e+01 5.777408599853515625e+00 1.017826676368713379e+00 1.203994560241699219e+01 3.917331695556640625e+00 -4.226137399673461914e-01
3.723000000000000000e+03 4.223966217041015625e+01 5.095675945281982422e+00 1.198050618171691895e+00 9.186053276062011719e+00 3.115231037139892578e+00 -6.306607723236083984e-01
3.724000000000000000e+03 4.256241989135742188e+01 -9.385583400726318359e-01 1.861895203590393066e+00 3.173666715621948242e+00 1.510668635368347168e+00 -1.860029339790344238e+00
3.725000000000000000e+03 4.217088699340820312e+01 2.179589271545410156e+00 3.221877574920654297e+00 6.882775783538818359e+00 3.031395912170410156e+00 1.738899946212768555e-01
3.726000000000000000e+03 4.138721466064453125e+01 1.421128630638122559e+00 4.333839893341064453e+00 6.804028034210205078e+00 3.341360330581665039e+00 7.452228665351867676e-01
3.727000000000000000e+03 4.164561080932617188e+01 1.654282689094543457e+00 4.009304046630859375e+00 6.957187175750732422e+00 3.289947271347045898e+00 5.942672491073608398e-01
3.728000000000000000e+03 4.219615936279296875e+01 3.559065610170364380e-02 3.185964822769165039e+00 4.492823600769042969e+00 2.303636550903320312e+00 -1.273066282272338867e+00
3.729000000000000000e+03 2.850591659545898438e+01 5.524882316589355469e+00 8.791955113410949707e-01 1.168009281158447266e+00 6.141614317893981934e-01 -5.278097391128540039e-01
3.730000000000000000e+03 2.750416946411132812e+01 6.010576725006103516e+00 6.784704923629760742e-01 6.025963425636291504e-01 3.843200504779815674e-01 -4.783186316490173340e-01
3.731000000000000000e+03 3.978523254394531250e+01 3.950091600418090820e+00 -9.404795169830322266e-01 1.307989501953125000e+01 3.641824722290039062e+00 1.657594889402389526e-01
3.732000000000000000e+03 4.307597732543945312e+01 6.338048458099365234e+00 9.172108173370361328e-01 8.150052070617675781e+00 2.720178842544555664e+00 -6.982569694519042969e-01
3.733000000000000000e+03 2.822960853576660156e+01 4.212421894073486328e+00 4.152903258800506592e-01 7.028086185455322266e-01 3.354296684265136719e-01 -2.108533233404159546e-01
3.734000000000000000e+03 4.002787399291992188e+01 1.282748794555664062e+01 1.371533989906311035e+00 6.753297805786132812e+00 2.437449455261230469e+00 -8.180681467056274414e-01
3.735000000000000000e+03 3.948637771606445312e+01 1.298470211029052734e+01 1.272841930389404297e+00 6.285045623779296875e+00 2.267366409301757812e+00 -1.161998629570007324e+00
3.736000000000000000e+03 2.815299224853515625e+01 9.358452796936035156e+00 3.615373373031616211e-02 7.820307612419128418e-01 2.454553544521331787e-01 -2.891229689121246338e-01
3.737000000000000000e+03 2.779917716979980469e+01 9.268877983093261719e+00 8.620455861091613770e-02 7.290409803390502930e-01 2.445736676454544067e-01 -3.680721223354339600e-01
3.738000000000000000e+03 3.985010910034179688e+01 1.125047492980957031e+01 1.169224381446838379e+00 8.171836853027343750e+00 2.802318334579467773e+00 -7.865437269210815430e-01
3.739000000000000000e+03 2.659225273132324219e+01 1.083097743988037109e+01 6.427005678415298462e-02 5.109938979148864746e-01 1.725791841745376587e-01 -2.569789886474609375e-01
3.740000000000000000e+03 2.763268470764160156e+01 4.924938678741455078e+00 5.625650882720947266e-01 5.194941163063049316e-01 3.246177732944488525e-01 -2.551758289337158203e-01
3.741000000000000000e+03 2.813321113586425781e+01 9.750278472900390625e+00 1.989522948861122131e-03 7.212396264076232910e-01 2.169687598943710327e-01 -2.569395601749420166e-01
3.742000000000000000e+03 3.626485061645507812e+01 1.813332366943359375e+01 8.968400955200195312e-02 3.390903711318969727e+00 1.044176340103149414e+00 -2.627813816070556641e+00
3.743000000000000000e+03 3.893499374389648438e+01 1.317000293731689453e+01 1.239214897155761719e+00 5.635036468505859375e+00 2.062275409698486328e+00 -1.555706739425659180e+00
3.744000000000000000e+03 4.027746200561523438e+01 1.101188373565673828e+01 1.052260518074035645e+00 8.655746459960937500e+00 2.912401914596557617e+00 -3.758045434951782227e-01
3.745000000000000000e+03 4.115563201904296875e+01 1.114156532287597656e+01 1.099383473396301270e+00 8.863286972045898438e+00 2.988801002502441406e+00 3.594127297401428223e-01
3.746000000000000000e+03 2.696600532531738281e+01 8.337287902832031250e+00 2.935059070587158203e-01 5.941633582115173340e-01 2.663007676601409912e-01 -4.840969145298004150e-01
3.747000000000000000e+03 2.797232818603515625e+01 8.761378288269042969e+00 1.227660924196243286e-01 8.537168502807617188e-01 2.929448783397674561e-01 -3.897665143013000488e-01
3.748000000000000000e+03 3.751698684692382812e+01 1.754230880737304688e+01 4.344802498817443848e-01 3.289832115173339844e+00 1.117293715476989746e+00 -2.683723926544189453e+00
3.749000000000000000e+03 4.228808975219726562e+01 8.047936439514160156e+00 9.982038736343383789e-01 9.473093032836914062e+00 3.141389131546020508e+00 4.998373985290527344e-02
3.750000000000000000e+03 4.090883636474609375e+01 7.354322433471679688e+00 1.498453497886657715e+00 1.119844627380371094e+01 3.809069871902465820e+00 -5.317093729972839355e-01
3.751000000000000000e+03 3.503098297119140625e+01 1.480122375488281250e+01 7.716178894042968750e-01 1.915246844291687012e+00 8.060594201087951660e-01 -1.836766004562377930e+00
3.752000000000000000e+03 3.564218902587890625e+01 1.366181755065917969e+01 9.765012860298156738e-01 1.852530956268310547e+00 8.487096428871154785e-01 -1.949437856674194336e+00
3.753000000000000000e+03 4.176903915405273438e+01 8.625886917114257812e+00 1.240208983421325684e+00 9.840127944946289062e+00 3.324101209640502930e+00 2.612893879413604736e-01
3.754000000000000000e+03 4.133166885375976562e+01 8.672610282897949219e+00 1.422638535499572754e+00 1.022376346588134766e+01 3.493920564651489258e+00 1.109897941350936890e-01
3.755000000000000000e+03 3.627082824707031250e+01 1.718414306640625000e+01 4.121493101119995117e-01 3.211901187896728516e+00 1.087215185165405273e+00 -2.523152112960815430e+00
3.756000000000000000e+03 3.623700332641601562e+01 1.474924564361572266e+01 9.101695418357849121e-01 2.728685855865478516e+00 1.091656565666198730e+00 -2.232487678527832031e+00
3.757000000000000000e+03 3.593613433837890625e+01 1.418683815002441406e+01 9.475058913230895996e-01 2.344743967056274414e+00 9.876749515533447266e-01 -2.071533203125000000e+00
3.758000000000000000e+03 9.199078559875488281e+00 -6.620775699615478516e+00 4.125045612454414368e-03 -1.034180298447608948e-01 -2.978789433836936951e-02 -1.118057072162628174e-01
3.759000000000000000e+03 4.171410369873046875e+01 8.120601654052734375e+00 1.276562213897705078e+00 1.002886581420898438e+01 3.391628265380859375e+00 7.740361243486404419e-02
3.760000000000000000e+03 6.942125797271728516e+00 -6.092594623565673828e+00 1.003505848348140717e-02 -9.484066069126129150e-02 -2.544168196618556976e-02 -9.459123015403747559e-02
3.761000000000000000e+03 7.646912097930908203e+00 -6.412790775299072266e+00 1.943987794220447540e-02 -6.447133421897888184e-02 -1.350943651050329208e-02 -1.011221334338188171e-01
3.762000000000000000e+03 9.754288673400878906e+00 -5.456543445587158203e+00 1.343402545899152756e-02 -1.403259485960006714e-02 -1.795708813006058335e-04 -8.889306336641311646e-02
3.763000000000000000e+03 4.152804565429687500e+01 6.542999267578125000e+00 1.236205577850341797e+00 1.040185832977294922e+01 3.491419315338134766e+00 -4.768083095550537109e-01
3.764000000000000000e+03 4.291292953491210938e+01 7.951551437377929688e+00 7.371984124183654785e-01 8.912927627563476562e+00 2.895037889480590820e+00 -1.075068786740303040e-01
3.765000000000000000e+03 4.193656158447265625e+01 1.003324127197265625e+01 1.053892612457275391e+00 9.411392211914062500e+00 3.139585256576538086e+00 6.397919058799743652e-01
3.766000000000000000e+03 2.673659896850585938e+01 6.111154079437255859e+00 5.514287352561950684e-01 3.339350819587707520e-01 2.656091451644897461e-01 -4.019727110862731934e-01
3.767000000000000000e+03 6.132347583770751953e+00 5.818357944488525391e+00 -2.883158028125762939e-01 -6.648878753185272217e-02 -1.064413711428642273e-01 9.899860620498657227e-02
3.768000000000000000e+03 6.164982795715332031e+00 6.611916065216064453e+00 -3.500840365886688232e-01 -9.091850370168685913e-02 -1.323007643222808838e-01 1.603911519050598145e-01
3.769000000000000000e+03 2.465067481994628906e+01 7.787194728851318359e+00 3.935075104236602783e-01 1.223140582442283630e-01 1.547464728355407715e-01 -3.023446798324584961e-01
3.770000000000000000e+03 2.748516273498535156e+01 4.178978443145751953e+00 2.422165125608444214e-01 3.484693467617034912e-01 1.772057563066482544e-01 -7.636115700006484985e-02
3.771000000000000000e+03 2.791587829589843750e+01 4.540765285491943359e+00 5.205160975456237793e-01 6.138265728950500488e-01 3.403027951717376709e-01 -2.187849283218383789e-01
3.772000000000000000e+03 2.656709671020507812e+01 5.029077053070068359e+00 3.632945716381072998e-01 1.754282861948013306e-01 1.616168618202209473e-01 -1.733558773994445801e-01
3.773000000000000000e+03 2.499993705749511719e+01 6.533595561981201172e+00 3.584565818309783936e-01 2.706082351505756378e-02 1.156552210450172424e-01 -2.742916047573089600e-01
3.774000000000000000e+03 6.967603683471679688e+00 6.587991714477539062e+00 -3.970406651496887207e-01 -1.098388805985450745e-01 -1.520638614892959595e-01 1.730523109436035156e-01
3.775000000000000000e+03 3.375081253051757812e+01 1.395975017547607422e+01 4.651934802532196045e-01 8.245427012443542480e-01 3.869208395481109619e-01 -9.622505307197570801e-01
3.776000000000000000e+03 4.142371749877929688e+01 2.582660913467407227e+00 2.675235509872436523e+00 8.870983123779296875e+00 3.463865756988525391e+00 1.320142745971679688e+00
3.777000000000000000e+03 1.044582462310791016e+01 -8.928103446960449219e+00 3.049545921385288239e-02 -1.388662867248058319e-02 4.982649348676204681e-03 -1.046808958053588867e-01
3.778000000000000000e+03 4.639047241210937500e+01 1.474827170372009277e+00 1.706236958503723145e+00 3.862696409225463867e+00 1.670680046081542969e+00 -2.455607414245605469e+00
3.779000000000000000e+03 4.391843414306640625e+01 4.985727310180664062e+00 1.302619814872741699e+00 6.675355911254882812e+00 2.393392801284790039e+00 -1.153809785842895508e+00
3.780000000000000000e+03 4.178653717041015625e+01 2.464382648468017578e+00 2.770877361297607422e+00 7.881523609161376953e+00 3.195720195770263672e+00 7.078479528427124023e-01
3.781000000000000000e+03 4.272150802612304688e+01 7.245586395263671875e+00 8.409789204597473145e-01 8.857884407043457031e+00 2.909659147262573242e+00 -3.911024034023284912e-01
3.782000000000000000e+03 7.161703109741210938e+00 8.446538925170898438e+00 -4.751123189926147461e-01 -1.357689499855041504e-01 -1.832643747329711914e-01 3.341369628906250000e-01
3.783000000000000000e+03 3.699564361572265625e+01 1.700088882446289062e+01 5.032415390014648438e-01 3.270026445388793945e+00 1.131980419158935547e+00 -2.624181747436523438e+00
3.784000000000000000e+03 3.456980133056640625e+01 1.777939987182617188e+01 1.330088078975677490e-01 3.212868213653564453e+00 1.003763079643249512e+00 -1.875713467597961426e+00
3.785000000000000000e+03 4.645252227783203125e+01 -3.095712959766387939e-01 1.301926374435424805e+00 4.394556999206542969e+00 1.708945035934448242e+00 -2.891475677490234375e+00
3.786000000000000000e+03 2.382166481018066406e+01 8.586224555969238281e+00 3.973315954208374023e-01 1.392183601856231689e-01 1.609649807214736938e-01 -2.042788714170455933e-01
3.787000000000000000e+03 1.085390949249267578e+01 -6.637114048004150391e+00 4.165621474385261536e-02 -4.995860625058412552e-03 1.099810656160116196e-02 -1.087063029408454895e-01
3.788000000000000000e+03 1.141197013854980469e+01 -6.188565731048583984e+00 3.782361280173063278e-03 -7.352577149868011475e-02 -2.092302218079566956e-02 -1.106636598706245422e-01
3.789000000000000000e+03 2.416939735412597656e+01 7.031559944152832031e+00 3.489151298999786377e-01 1.165189896710216999e-03 1.050240918993949890e-01 -2.304578572511672974e-01
3.790000000000000000e+03 8.212571144104003906e+00 -8.600511550903320312e+00 1.241500023752450943e-02 -1.126413866877555847e-01 -3.006791509687900543e-02 -1.025368943810462952e-01
3.791000000000000000e+03 4.053836822509765625e+01 1.855108451843261719e+01 4.165683090686798096e-01 3.085086345672607422e+00 1.050496339797973633e+00 -1.365776419639587402e+00
3.792000000000000000e+03 3.932316589355468750e+01 1.769485473632812500e+01 6.830928921699523926e-01 3.458093404769897461e+00 1.242355942726135254e+00 -2.114709615707397461e+00
3.793000000000000000e+03 4.105743408203125000e+01 1.361927604675292969e+01 1.597607493400573730e+00 7.115175247192382812e+00 2.613834857940673828e+00 -1.839436441659927368e-01
3.794000000000000000e+03 5.761697006225585938e+01 -1.548520755767822266e+01 -2.210297435522079468e-01 5.857986450195312500e+00 1.691087126731872559e+00 -9.136926531791687012e-01
3.795000000000000000e+03 4.049658203125000000e+01 1.564401054382324219e+01 1.503069281578063965e+00 5.348721027374267578e+00 2.055536985397338867e+00 -9.922948479652404785e-01
3.796000000000000000e+03 4.106272506713867188e+01 1.418144321441650391e+01 1.611465215682983398e+00 6.667363166809082031e+00 2.483648538589477539e+00 -3.611952662467956543e-01
3.797000000000000000e+03 2.395547866821289062e+01 9.503021240234375000e+00 3.545657098293304443e-01 2.595742046833038330e-01 1.842419803142547607e-01 -1.792797297239303589e-01
3.798000000000000000e+03 6.333137130737304688e+01 -1.182740688323974609e+01 -1.049102902412414551e+00 6.871442794799804688e+00 1.746701955795288086e+00 6.698611974716186523e-01
3.799000000000000000e+03 6.258613204956054688e+01 -1.238386917114257812e+01 -1.362672209739685059e+00 6.864608764648437500e+00 1.650580883026123047e+00 8.941305875778198242e-01
3.800000000000000000e+03 4.081771469116210938e+01 1.306453418731689453e+01 1.547280430793762207e+00 7.268456459045410156e+00 2.644721031188964844e+00 -1.956898421049118042e-01
3.801000000000000000e+03 2.072803115844726562e+01 -2.082555198669433594e+01 9.243964552879333496e-01 8.402645587921142578e-02 3.025268614292144775e-01 2.110644280910491943e-01
3.802000000000000000e+03 2.231806755065917969e+01 -2.323330497741699219e+01 8.418416976928710938e-01 5.059346556663513184e-01 4.043329060077667236e-01 3.800908923149108887e-01
3.803000000000000000e+03 2.006336212158203125e+01 -2.187232589721679688e+01 8.367999792098999023e-01 4.089797660708427429e-02 2.633093893527984619e-01 4.088494479656219482e-01
3.804000000000000000e+03 4.454461288452148438e+01 4.582832336425781250e+00 1.367941737174987793e+00 5.689026832580566406e+00 2.117090463638305664e+00 -1.435195446014404297e+00
3.805000000000000000e+03 4.693502044677734375e+01 4.286904335021972656e+00 1.079733729362487793e+00 3.153202533721923828e+00 1.269880890846252441e+00 -1.631353497505187988e+00
3.806000000000000000e+03 4.336398315429687500e+01 -1.185181260108947754e+00 1.410197734832763672e+00 2.986464738845825195e+00 1.318998813629150391e+00 -2.730800628662109375e+00
3.807000000000000000e+03 4.101495361328125000e+01 1.213196468353271484e+01 1.369981527328491211e+00 8.102450370788574219e+00 2.841729640960693359e+00 1.194158717989921570e-01
3.808000000000000000e+03 3.888696670532226562e+01 1.521656608581542969e+01 1.212056756019592285e+00 4.516062736511230469e+00 1.718435764312744141e+00 -1.821636199951171875e+00
3.809000000000000000e+03 7.237071514129638672e+00 -2.679000854492187500e+01 1.229753717780113220e-01 9.555680304765701294e-02 6.555965542793273926e-02 -6.135549396276473999e-02
3.810000000000000000e+03 1.393637561798095703e+01 -5.198299884796142578e+00 5.269563943147659302e-02 1.279067248106002808e-01 5.418071150779724121e-02 -9.463711641728878021e-03
3.811000000000000000e+03 3.467784118652343750e+01 1.702128219604492188e+01 3.194558024406433105e-01 2.827001333236694336e+00 9.439371228218078613e-01 -1.899059414863586426e+00
3.812000000000000000e+03 2.781148338317871094e+01 1.350592231750488281e+01 4.510000348091125488e-02 2.826409339904785156e-01 9.832227975130081177e-02 1.324694976210594177e-02
3.813000000000000000e+03 7.330411434173583984e+00 -1.009636020660400391e+01 -7.559656165540218353e-03 -1.488021016120910645e-01 -4.690852761268615723e-02 -8.683346211910247803e-02
3.814000000000000000e+03 4.688349151611328125e+01 7.946463823318481445e-01 1.517788887023925781e+00 4.086122035980224609e+00 1.681173324584960938e+00 -2.493830204010009766e+00
3.815000000000000000e+03 4.787979888916015625e+01 -8.397157788276672363e-01 9.245480298995971680e-01 5.127038002014160156e+00 1.815475821495056152e+00 -2.331255197525024414e+00
3.816000000000000000e+03 4.741821289062500000e+01 -1.451857805252075195e+00 9.063652157783508301e-01 5.260537624359130859e+00 1.850070953369140625e+00 -2.630808115005493164e+00
3.817000000000000000e+03 5.647138977050781250e+01 5.784345149993896484e+00 5.200920701026916504e-01 6.671934127807617188e+00 2.157607793807983398e+00 4.268439486622810364e-02
3.818000000000000000e+03 3.402832412719726562e+01 -3.623216629028320312e+01 1.468152105808258057e-01 2.235602140426635742e+00 7.147251963615417480e-01 8.394261002540588379e-01
3.819000000000000000e+03 3.204290390014648438e+01 -3.277144622802734375e+01 5.497573018074035645e-01 1.242034554481506348e+00 5.375375747680664062e-01 -1.420444399118423462e-01
3.820000000000000000e+03 7.232349395751953125e+01 2.907493019104003906e+01 7.223792672157287598e-01 5.214639186859130859e+00 1.781105637550354004e+00 -4.277620464563369751e-02
3.821000000000000000e+03 2.585216331481933594e+01 -2.504423904418945312e+01 -5.871720239520072937e-02 2.605107307434082031e+00 7.639170289039611816e-01 4.422606229782104492e-01
3.822000000000000000e+03 5.676788711547851562e+01 2.065470123291015625e+01 -3.333158791065216064e-01 3.308943271636962891e+00 8.926882743835449219e-01 -1.940831661224365234e+00
3.823000000000000000e+03 6.068586826324462891e+00 -3.006509590148925781e+01 1.456620544195175171e-01 1.158848754130303860e-04 4.373338073492050171e-02 9.237215667963027954e-02
3.824000000000000000e+03 7.387150573730468750e+01 2.630221176147460938e+01 2.445755004882812500e-01 5.833168983459472656e+00 1.823323369026184082e+00 -5.364679694175720215e-01
3.825000000000000000e+03 7.162286376953125000e+01 2.481042289733886719e+01 2.662245035171508789e-01 4.946651935577392578e+00 1.563862919807434082e+00 -9.521818161010742188e-01
3.826000000000000000e+03 2.681510353088378906e+01 1.339652252197265625e+01 4.142929613590240479e-02 3.608987629413604736e-01 1.206984147429466248e-01 -1.009836047887802124e-01
3.827000000000000000e+03 2.721046829223632812e+01 1.251285934448242188e+01 1.207883190363645554e-02 4.396084249019622803e-01 1.355061829090118408e-01 -9.755212068557739258e-02
3.828000000000000000e+03 2.468369102478027344e+01 -2.177179145812988281e+01 1.207264184951782227e+00 1.721965909004211426e+00 8.787690401077270508e-01 4.424608647823333740e-01
3.829000000000000000e+03 6.019363021850585938e+01 -1.979809379577636719e+01 2.431334733963012695e+00 5.290542125701904297e+00 2.316562891006469727e+00 -8.601095676422119141e-01
3.830000000000000000e+03 5.638988494873046875e+00 1.097403526306152344e+01 -1.852745562791824341e-01 -2.265968322753906250e-01 -1.235614195466041565e-01 5.255154967308044434e-01
3.831000000000000000e+03 9.554933547973632812e+00 -9.309716224670410156e+00 3.653968917205929756e-03 -9.309927374124526978e-02 -2.683359198272228241e-02 -1.112551987171173096e-01
3.832000000000000000e+03 1.023733997344970703e+01 -7.021351814270019531e+00 1.173991244286298752e-02 -9.136605262756347656e-02 -2.388784289360046387e-02 -1.171953454613685608e-01
3.833000000000000000e+03 6.854431152343750000e+01 2.460451316833496094e+01 9.216169118881225586e-01 3.105344533920288086e+00 1.208088397979736328e+00 -5.585495233535766602e-01
3.834000000000000000e+03 5.965068435668945312e+01 -1.391146659851074219e+01 -6.322741508483886719e-01 5.569726943969726562e+00 1.481235861778259277e+00 5.520523786544799805e-01
3.835000000000000000e+03 5.780360794067382812e+01 -1.643338966369628906e+01 1.995687037706375122e-01 6.274551391601562500e+00 1.942235946655273438e+00 -2.356499582529067993e-01
3.836000000000000000e+03 6.594274044036865234e+00 -8.983844757080078125e+00 2.165958657860755920e-02 -1.101590469479560852e-01 -2.654983848333358765e-02 -7.963175326585769653e-02
3.837000000000000000e+03 6.835385322570800781e+00 -7.689373970031738281e+00 1.407875865697860718e-02 -8.925195038318634033e-02 -2.255195938050746918e-02 -8.061955869197845459e-02
3.838000000000000000e+03 6.254029083251953125e+01 -1.416249179840087891e+01 -1.577100753784179688e+00 6.591765880584716797e+00 1.504399657249450684e+00 7.431303262710571289e-01
3.839000000000000000e+03 1.183802032470703125e+01 -5.656483173370361328e+00 6.934037432074546814e-03 2.173065021634101868e-02 8.599406108260154724e-03 -1.303519159555435181e-01
3.840000000000000000e+03 6.111938095092773438e+01 -1.745787048339843750e+01 4.328159093856811523e-01 6.336767673492431641e+00 2.030874967575073242e+00 -5.605776906013488770e-01
3.841000000000000000e+03 5.074464797973632812e+01 2.398142623901367188e+01 8.031579256057739258e-01 5.098492145538330078e+00 1.770495057106018066e+00 -3.415227532386779785e-01
3.842000000000000000e+03 7.335417175292968750e+01 2.726474189758300781e+01 4.154962599277496338e-01 5.504504680633544922e+00 1.776000261306762695e+00 -3.988965153694152832e-01
3.843000000000000000e+03 7.258883666992187500e+01 -3.196238327026367188e+01 1.092615962028503418e+00 5.110340118408203125e+00 1.860886812210083008e+00 5.912086344324052334e-04
3.844000000000000000e+03 7.372563171386718750e+01 -3.562828826904296875e+01 2.229140102863311768e-01 6.569292068481445312e+00 2.037661790847778320e+00 -5.939579606056213379e-01
3.845000000000000000e+03 3.165760231018066406e+01 3.495237731933593750e+01 -5.596476793289184570e-01 3.199063539505004883e+00 7.918248176574707031e-01 -5.962196588516235352e-01
3.846000000000000000e+03 2.216583251953125000e+01 -1.862030220031738281e+01 8.945269584655761719e-01 2.641507685184478760e-01 3.476033210754394531e-01 -6.877461448311805725e-03
3.847000000000000000e+03 2.184244155883789062e+01 -2.148937416076660156e+01 1.059764862060546875e+00 3.443683087825775146e-01 4.212399721145629883e-01 2.840935885906219482e-01
3.848000000000000000e+03 4.832460403442382812e+01 -2.353547811508178711e-01 1.092228889465332031e+00 4.787930488586425781e+00 1.764047861099243164e+00 -1.967928171157836914e+00
3.849000000000000000e+03 3.156368637084960938e+01 -3.696843338012695312e+01 -3.320767357945442200e-02 2.034902572631835938e+00 6.005085110664367676e-01 2.205275893211364746e-01
3.850000000000000000e+03 2.673222541809082031e+01 1.442498016357421875e+01 1.153190657496452332e-01 2.308226376771926880e-01 1.038425117731094360e-01 -1.360723078250885010e-01
3.851000000000000000e+03 6.848565673828125000e+01 3.095232772827148438e+01 8.661312460899353027e-01 5.088490486145019531e+00 1.786386489868164062e+00 7.307581901550292969e-01
3.852000000000000000e+03 6.803646087646484375e+01 2.870775032043457031e+01 1.598541855812072754e+00 4.697297573089599609e+00 1.888751745223999023e+00 7.622343301773071289e-01
3.853000000000000000e+03 7.013731384277343750e+01 3.349407577514648438e+01 2.483107447624206543e-01 5.526026725769042969e+00 1.732301235198974609e+00 6.192164421081542969e-01
3.854000000000000000e+03 6.774773406982421875e+01 3.380808639526367188e+01 7.434217631816864014e-02 5.199831008911132812e+00 1.582251906394958496e+00 6.893073916435241699e-01
3.855000000000000000e+03 2.915968513488769531e+01 -3.229463577270507812e+01 3.062796033918857574e-02 2.010405302047729492e+00 6.123099923133850098e-01 -1.580047607421875000e-01
3.856000000000000000e+03 4.699422454833984375e+01 4.104722213745117188e+01 -1.451908707618713379e+00 4.255586147308349609e+00 8.411032557487487793e-01 -2.708373367786407471e-01
3.857000000000000000e+03 4.900807952880859375e+01 3.670006561279296875e+01 -1.178981304168701172e+00 5.352284908294677734e+00 1.251991152763366699e+00 -3.994791805744171143e-01
3.858000000000000000e+03 7.283049011230468750e+01 -3.428152465820312500e+01 7.647640705108642578e-01 5.786592960357666016e+00 1.965407133102416992e+00 -7.330920100212097168e-01
3.859000000000000000e+03 5.440356826782226562e+01 -3.437462234497070312e+01 2.099003791809082031e+00 7.702679157257080078e+00 2.940504789352416992e+00 3.116105198860168457e-01
3.860000000000000000e+03 4.075086212158203125e+01 4.722834110260009766e+00 8.521292209625244141e-01 1.161191463470458984e+01 3.739212989807128906e+00 -1.587195098400115967e-01
3.861000000000000000e+03 4.222886276245117188e+01 1.762466669082641602e+00 3.454317808151245117e+00 6.404345512390136719e+00 2.957599163055419922e+00 -1.175513789057731628e-01
3.862000000000000000e+03 4.302919387817382812e+01 2.136416196823120117e+00 2.993756532669067383e+00 5.846972942352294922e+00 2.652218818664550781e+00 -8.263899087905883789e-01
3.863000000000000000e+03 4.224959564208984375e+01 1.030622839927673340e+00 3.759111642837524414e+00 5.344713211059570312e+00 2.731147527694702148e+00 -7.349836826324462891e-01
3.864000000000000000e+03 4.282201004028320312e+01 5.764079093933105469e+00 1.151468396186828613e+00 8.479431152343750000e+00 2.889269828796386719e+00 -6.978402733802795410e-01
3.865000000000000000e+03 4.187318038940429688e+01 1.932232499122619629e+00 3.655030727386474609e+00 6.958644866943359375e+00 3.184102773666381836e+00 5.388411283493041992e-01
3.866000000000000000e+03 4.070816421508789062e+01 4.307454109191894531e+00 3.550706803798675537e-01 1.169757747650146484e+01 3.615794658660888672e+00 -4.881829023361206055e-02
3.867000000000000000e+03 4.345305633544921875e+01 -4.820275008678436279e-01 2.059859275817871094e+00 3.578126430511474609e+00 1.691395640373229980e+00 -2.499370813369750977e+00
3.868000000000000000e+03 2.701570510864257812e+01 7.677903652191162109e+00 4.062524437904357910e-01 5.764302611351013184e-01 2.948048114776611328e-01 -5.222221612930297852e-01
3.869000000000000000e+03 2.759778976440429688e+01 8.904693603515625000e+00 1.450809389352798462e-01 7.453056573867797852e-01 2.671159803867340088e-01 -4.209480583667755127e-01
3.870000000000000000e+03 2.685631752014160156e+01 6.879626750946044922e+00 5.296105146408081055e-01 4.749983251094818115e-01 3.013826608657836914e-01 -5.093195438385009766e-01
3.871000000000000000e+03 2.755968856811523438e+01 8.159613609313964844e+00 2.830689549446105957e-01 7.620016336441040039e-01 3.135211765766143799e-01 -5.044043064117431641e-01
3.872000000000000000e+03 2.779817962646484375e+01 5.615186214447021484e+00 7.191517353057861328e-01 7.000713944435119629e-01 4.257669448852539062e-01 -4.415311217308044434e-01
3.873000000000000000e+03 2.718286132812500000e+01 6.419765472412109375e+00 6.086802482604980469e-01 5.204441547393798828e-01 3.387373387813568115e-01 -5.056529045104980469e-01
3.874000000000000000e+03 4.048529434204101562e+01 1.254065608978271484e+01 1.394220709800720215e+00 7.525391578674316406e+00 2.675883769989013672e+00 -3.065973222255706787e-01
3.875000000000000000e+03 2.803502655029296875e+01 1.136581420898437500e+01 -6.647691130638122559e-02 5.405844449996948242e-01 1.422322690486907959e-01 -1.130786463618278503e-01
3.876000000000000000e+03 3.971335220336914062e+01 1.358786678314208984e+01 1.329851388931274414e+00 6.019261837005615234e+00 2.204734086990356445e+00 -1.134862422943115234e+00
3.877000000000000000e+03 3.840629959106445312e+01 1.336468982696533203e+01 1.204837799072265625e+00 5.046643257141113281e+00 1.875444293022155762e+00 -1.829146862030029297e+00
3.878000000000000000e+03 3.918723297119140625e+01 1.680222892761230469e+01 1.065241813659667969e+00 3.901654958724975586e+00 1.490069031715393066e+00 -1.989019870758056641e+00
3.879000000000000000e+03 2.713748741149902344e+01 9.657595634460449219e+00 1.022873818874359131e-01 6.160938143730163574e-01 2.155143618583679199e-01 -3.553938865661621094e-01
3.880000000000000000e+03 2.834121894836425781e+01 4.850248813629150391e+00 6.944869756698608398e-01 8.953182697296142578e-01 4.769415855407714844e-01 -3.410589098930358887e-01
3.881000000000000000e+03 4.158450317382812500e+01 7.621597766876220703e+00 1.293848037719726562e+00 1.025046920776367188e+01 3.463294982910156250e+00 -2.035056203603744507e-01
3.882000000000000000e+03 4.120972061157226562e+01 6.829063892364501953e+00 1.261775016784667969e+00 1.084683704376220703e+01 3.632583379745483398e+00 -5.145909190177917480e-01
3.883000000000000000e+03 4.160047149658203125e+01 5.503993511199951172e+00 1.097156405448913574e+00 1.025666046142578125e+01 3.406144857406616211e+00 -4.913034439086914062e-01
3.884000000000000000e+03 4.223981475830078125e+01 6.013448715209960938e+00 1.105498552322387695e+00 9.293066978454589844e+00 3.119569778442382812e+00 -5.923864245414733887e-01
3.885000000000000000e+03 8.870289802551269531e+00 -5.971509933471679688e+00 1.393517758697271347e-02 -5.159373581409454346e-02 -1.129756774753332138e-02 -1.212440431118011475e-01
3.886000000000000000e+03 8.008409500122070312e+00 -6.991195201873779297e+00 6.077895406633615494e-03 -1.109236329793930054e-01 -3.145372122526168823e-02 -1.122378483414649963e-01
3.887000000000000000e+03 3.686153030395507812e+01 1.362108898162841797e+01 1.113727569580078125e+00 3.192997217178344727e+00 1.292017459869384766e+00 -2.175157785415649414e+00
3.888000000000000000e+03 3.397202682495117188e+01 1.468185329437255859e+01 5.674363970756530762e-01 1.294332385063171387e+00 5.585306286811828613e-01 -1.244691371917724609e+00
3.889000000000000000e+03 3.641939163208007812e+01 1.391588401794433594e+01 1.022858500480651855e+00 2.717395544052124023e+00 1.122076153755187988e+00 -2.179151535034179688e+00
3.890000000000000000e+03 2.586636543273925781e+01 6.176034450531005859e+00 4.219976365566253662e-01 1.140483319759368896e-01 1.608137935400009155e-01 -3.069183826446533203e-01
3.891000000000000000e+03 3.756548309326171875e+01 1.373829650878906250e+01 1.151829719543457031e+00 3.935569047927856445e+00 1.526219606399536133e+00 -2.112934112548828125e+00
3.892000000000000000e+03 3.608517074584960938e+01 1.633438301086425781e+01 5.811169743537902832e-01 2.963802337646484375e+00 1.063475728034973145e+00 -2.405287265777587891e+00
3.893000000000000000e+03 2.478217887878417969e+01 7.143996715545654297e+00 3.730604052543640137e-01 5.660506710410118103e-02 1.288996487855911255e-01 -2.932834923267364502e-01
3.894000000000000000e+03 4.027317810058593750e+01 1.490872192382812500e+01 1.477460861206054688e+00 5.683294773101806641e+00 2.148226499557495117e+00 -9.824538826942443848e-01
3.895000000000000000e+03 4.055112075805664062e+01 1.389204883575439453e+01 1.487925171852111816e+00 6.433347702026367188e+00 2.376381874084472656e+00 -6.308975219726562500e-01
3.896000000000000000e+03 2.672317504882812500e+01 5.415367126464843750e+00 4.615243971347808838e-01 2.454492747783660889e-01 2.120921015739440918e-01 -2.630975246429443359e-01
3.897000000000000000e+03 4.002628707885742188e+01 1.665954399108886719e+01 1.214641690254211426e+00 4.411353111267089844e+00 1.687798500061035156e+00 -1.482103824615478516e+00
3.898000000000000000e+03 2.698480033874511719e+01 5.086647033691406250e+00 4.578227400779724121e-01 2.955827414989471436e-01 2.260216325521469116e-01 -2.156793922185897827e-01
3.899000000000000000e+03 2.320112609863281250e+01 7.526558876037597656e+00 3.590382635593414307e-01 6.381645333021879196e-03 1.096259728074073792e-01 -1.404397636651992798e-01
3.900000000000000000e+03 2.438924789428710938e+01 6.400436401367187500e+00 2.678304016590118408e-01 -5.931986495852470398e-02 6.255315989255905151e-02 -1.959040015935897827e-01
3.901000000000000000e+03 3.430674362182617188e+01 1.369445323944091797e+01 5.910328626632690430e-01 9.638612866401672363e-01 4.664682447910308838e-01 -1.218409776687622070e+00
3.902000000000000000e+03 9.578344345092773438e+00 -7.336781501770019531e+00 3.376100957393646240e-02 -4.504534602165222168e-02 -3.385301679372787476e-03 -1.060573980212211609e-01
3.903000000000000000e+03 4.200313568115234375e+01 3.664500236511230469e+00 1.621105551719665527e+00 9.029243469238281250e+00 3.195104598999023438e+00 1.132407188415527344e-01
3.904000000000000000e+03 4.245532226562500000e+01 6.604664802551269531e+00 1.099107265472412109e+00 9.197411537170410156e+00 3.088955402374267578e+00 -4.704238176345825195e-01
3.905000000000000000e+03 2.762394142150878906e+01 1.184286594390869141e+01 -5.832263827323913574e-02 4.970053136348724365e-01 1.316048055887222290e-01 -1.041928827762603760e-01
3.906000000000000000e+03 4.613790130615234375e+01 3.392246663570404053e-01 1.600498795509338379e+00 4.014906406402587891e+00 1.684621572494506836e+00 -2.902570009231567383e+00
3.907000000000000000e+03 4.547415161132812500e+01 -5.326431244611740112e-02 1.730614662170410156e+00 3.943655729293823242e+00 1.702281117439270020e+00 -2.959508419036865234e+00
3.908000000000000000e+03 4.189572525024414062e+01 6.896430969238281250e+00 1.138560533523559570e+00 9.906465530395507812e+00 3.313507795333862305e+00 -4.353565275669097900e-01
3.909000000000000000e+03 3.545485305786132812e+01 1.715740394592285156e+01 3.097169101238250732e-01 3.050661087036132812e+00 1.008113384246826172e+00 -2.323794364929199219e+00
3.910000000000000000e+03 4.525379180908203125e+01 4.284991264343261719e+00 1.413236856460571289e+00 4.887260913848876953e+00 1.890149354934692383e+00 -1.691290259361267090e+00
3.911000000000000000e+03 2.627855873107910156e+01 8.565678596496582031e+00 3.162427544593811035e-01 4.276583790779113770e-01 2.231703549623489380e-01 -4.447711408138275146e-01
3.912000000000000000e+03 2.352464294433593750e+01 6.840220451354980469e+00 2.730873823165893555e-01 -6.895950436592102051e-02 6.123836338520050049e-02 -1.603583395481109619e-01
3.913000000000000000e+03 9.977622032165527344e+00 -8.106810569763183594e+00 9.531384333968162537e-03 -8.777412772178649902e-02 -2.347282320261001587e-02 -1.180922687053680420e-01
3.914000000000000000e+03 1.029206943511962891e+01 -6.018356800079345703e+00 -5.101723596453666687e-03 -9.712226688861846924e-02 -3.066719695925712585e-02 -1.333793252706527710e-01
3.915000000000000000e+03 4.605539321899414062e+01 4.172711372375488281e+00 1.375769615173339844e+00 3.872125625610351562e+00 1.574368596076965332e+00 -1.831883192062377930e+00
3.916000000000000000e+03 4.789141845703125000e+01 1.976942420005798340e+00 1.355455875396728516e+00 3.569275856018066406e+00 1.477419614791870117e+00 -1.801580429077148438e+00
3.917000000000000000e+03 4.901263809204101562e+01 1.785621523857116699e+00 1.121023297309875488e+00 3.594636678695678711e+00 1.414698004722595215e+00 -1.111035466194152832e+00
3.918000000000000000e+03 4.705349731445312500e+01 3.295159816741943359e+00 1.370674371719360352e+00 3.187542438507080078e+00 1.367465019226074219e+00 -1.871946334838867188e+00
3.919000000000000000e+03 2.590865325927734375e+01 1.289476490020751953e+01 6.816167384386062622e-02 4.468797445297241211e-01 1.545124202966690063e-01 -1.735290437936782837e-01
3.920000000000000000e+03 5.905130004882812500e+01 -1.648528480529785156e+01 3.129407763481140137e-01 6.280364990234375000e+00 1.977991700172424316e+00 -2.338030785322189331e-01
3.921000000000000000e+03 4.414157867431640625e+01 -4.893435239791870117e-01 1.899280786514282227e+00 3.534582853317260742e+00 1.630159020423889160e+00 -2.892044305801391602e+00
3.922000000000000000e+03 4.519881057739257812e+01 5.519161224365234375e-01 1.974144458770751953e+00 3.942822694778442383e+00 1.775090098381042480e+00 -2.768781423568725586e+00
3.923000000000000000e+03 4.350588989257812500e+01 1.095109358429908752e-01 2.532992362976074219e+00 3.852555513381958008e+00 1.915664315223693848e+00 -2.375874042510986328e+00
3.924000000000000000e+03 4.279309082031250000e+01 -2.957607507705688477e-01 2.457740306854248047e+00 3.765006542205810547e+00 1.866824030876159668e+00 -1.999559402465820312e+00
3.925000000000000000e+03 3.854410552978515625e+01 1.398427200317382812e+01 1.218675136566162109e+00 4.822068691253662109e+00 1.812223076820373535e+00 -1.817025542259216309e+00
3.926000000000000000e+03 3.764250946044921875e+01 1.686202430725097656e+01 7.395782470703125000e-01 3.379678249359130859e+00 1.235776901245117188e+00 -2.513826608657836914e+00
3.927000000000000000e+03 3.543584060668945312e+01 1.443050861358642578e+01 8.963969349861145020e-01 1.970943093299865723e+00 8.602020144462585449e-01 -1.987282514572143555e+00
3.928000000000000000e+03 1.215814685821533203e+01 -6.876723289489746094e+00 5.466623976826667786e-02 6.284354627132415771e-02 3.525293618440628052e-02 -9.542131423950195312e-02
3.929000000000000000e+03 8.477952957153320312e+00 -9.645830154418945312e+00 1.592037081718444824e-02 -9.635614603757858276e-02 -2.413073182106018066e-02 -1.026517003774642944e-01
3.930000000000000000e+03 9.164093971252441406e+00 -8.407392501831054688e+00 3.043019026517868042e-02 -6.640191376209259033e-02 -1.079151686280965805e-02 -1.037680208683013916e-01
3.931000000000000000e+03 7.306650161743164062e+00 -8.368836402893066406e+00 7.309692446142435074e-03 -1.202756315469741821e-01 -3.388978168368339539e-02 -8.538945764303207397e-02
3.932000000000000000e+03 2.527342414855957031e+01 1.207452964782714844e+01 6.847253441810607910e-02 4.987206757068634033e-01 1.701579689979553223e-01 -1.992058604955673218e-01
3.933000000000000000e+03 2.477641487121582031e+01 1.123690128326416016e+01 1.574119627475738525e-01 4.602651000022888184e-01 1.853031218051910400e-01 -1.736754029989242554e-01
3.934000000000000000e+03 2.644898986816406250e+01 9.241470336914062500e+00 2.223051339387893677e-01 5.021792650222778320e-01 2.173453122377395630e-01 -3.998667001724243164e-01
3.935000000000000000e+03 3.542262268066406250e+01 1.644409942626953125e+01 5.179131031036376953e-01 2.804982185363769531e+00 9.968686103820800781e-01 -2.216506242752075195e+00
3.936000000000000000e+03 2.249434089660644531e+01 -2.044323348999023438e+01 1.136984109878540039e+00 4.864304661750793457e-01 4.870243668556213379e-01 2.009752988815307617e-01
3.937000000000000000e+03 2.358836174011230469e+01 -2.114655303955078125e+01 1.219985365867614746e+00 1.059675693511962891e+00 6.838983297348022461e-01 3.170388340950012207e-01
3.938000000000000000e+03 6.990111541748046875e+01 2.523583793640136719e+01 8.614726662635803223e-01 4.147305488586425781e+00 1.502633452415466309e+00 -7.613427639007568359e-01
3.939000000000000000e+03 7.471463203430175781e+00 -7.668757915496826172e+00 2.735216170549392700e-02 -1.189515143632888794e-01 -2.747980505228042603e-02 -1.030642315745353699e-01
3.940000000000000000e+03 4.739223861694335938e+01 -4.341254532337188721e-01 1.121684908866882324e+00 4.788878917694091797e+00 1.773169159889221191e+00 -2.539859294891357422e+00
3.941000000000000000e+03 7.373400878906250000e+01 -3.305531311035156250e+01 7.468373179435729980e-01 6.056446075439453125e+00 2.040985107421875000e+00 -1.800576746463775635e-01
3.942000000000000000e+03 7.041954040527343750e+01 3.064326858520507812e+01 8.178893327713012695e-01 5.161201953887939453e+00 1.793727278709411621e+00 4.930014312267303467e-01
3.943000000000000000e+03 6.927397155761718750e+01 2.894007301330566406e+01 1.282981514930725098e+00 4.722965717315673828e+00 1.801784157752990723e+00 4.314287900924682617e-01
3.944000000000000000e+03 7.153949737548828125e+01 2.842449951171875000e+01 9.189433455467224121e-01 5.028815269470214844e+00 1.784327626228332520e+00 -8.500420302152633667e-02
3.945000000000000000e+03 6.916938018798828125e+01 3.017857933044433594e+01 1.155839085578918457e+00 4.920581340789794922e+00 1.822926163673400879e+00 7.129521369934082031e-01
3.946000000000000000e+03 7.078934478759765625e+01 2.691940116882324219e+01 9.822610616683959961e-01 4.668385028839111328e+00 1.695193886756896973e+00 -3.523459136486053467e-01
3.947000000000000000e+03 6.900460052490234375e+01 3.341524505615234375e+01 2.052799016237258911e-01 5.285500049591064453e+00 1.647234082221984863e+00 7.480393648147583008e-01
3.948000000000000000e+03 7.136550903320312500e+01 3.416933059692382812e+01 2.379290163516998291e-01 5.693081855773925781e+00 1.779303193092346191e+00 5.190237164497375488e-01
3.949000000000000000e+03 7.233416748046875000e+01 2.653326797485351562e+01 5.500217080116271973e-01 5.240278244018554688e+00 1.737089991569519043e+00 -5.358280539512634277e-01
3.950000000000000000e+03 5.470951557159423828e+00 1.246687126159667969e+01 -1.713801175355911255e-02 -3.047872185707092285e-01 -9.657756984233856201e-02 5.575144290924072266e-01
3.951000000000000000e+03 7.037358856201171875e+01 -3.869589614868164062e+01 -9.124963283538818359e-01 6.162135124206542969e+00 1.574891567230224609e+00 -9.051204919815063477e-01
3.952000000000000000e+03 6.928888702392578125e+01 -3.653900146484375000e+01 -2.309493906795978546e-02 6.198139190673828125e+00 1.852513313293457031e+00 -1.297237634658813477e+00
3.953000000000000000e+03 7.198408508300781250e+01 3.567458343505859375e+01 -1.018561236560344696e-02 5.837699413299560547e+00 1.748254179954528809e+00 4.206194579601287842e-01
3.954000000000000000e+03 3.103351402282714844e+01 -3.502807235717773438e+01 3.650172054767608643e-01 1.786328792572021484e+00 6.454038023948669434e-01 1.065834388136863708e-01
3.955000000000000000e+03 3.286721420288085938e+01 -3.436136245727539062e+01 6.797271370887756348e-01 1.351455926895141602e+00 6.093549132347106934e-01 4.051846265792846680e-01
3.956000000000000000e+03 6.005467987060546875e+01 -1.503933143615722656e+01 -6.392875313758850098e-01 6.127842426300048828e+00 1.646566390991210938e+00 2.681419253349304199e-01
3.957000000000000000e+03 6.954525756835937500e+01 2.640747833251953125e+01 1.211529374122619629e+00 4.007658004760742188e+00 1.565756201744079590e+00 -3.643766641616821289e-01
3.958000000000000000e+03 7.370423316955566406e+00 3.660520553588867188e+01 2.287288382649421692e-02 -1.941518187522888184e-01 -5.138368159532546997e-02 1.121001318097114563e-02
3.959000000000000000e+03 4.365859222412109375e+01 2.034466266632080078e+00 2.668691635131835938e+00 5.174050807952880859e+00 2.352822780609130859e+00 -1.455339670181274414e+00
3.960000000000000000e+03 4.280645370483398438e+01 3.291945695877075195e+00 2.161550521850585938e+00 7.184012413024902344e+00 2.803668975830078125e+00 -3.980067074298858643e-01
3.961000000000000000e+03 4.311232376098632812e+01 1.090992689132690430e+00 3.118895292282104492e+00 4.872259140014648438e+00 2.397346258163452148e+00 -1.495460271835327148e+00
3.962000000000000000e+03 4.188102722167968750e+01 2.867213249206542969e+00 2.367660760879516602e+00 8.380525588989257812e+00 3.224456071853637695e+00 5.527777671813964844e-01
3.963000000000000000e+03 4.149213027954101562e+01 4.425533294677734375e+00 9.894266724586486816e-01 1.033625507354736328e+01 3.397704362869262695e+00 -1.357050091028213501e-01
3.964000000000000000e+03 4.190914535522460938e+01 3.300564527511596680e+00 1.842897653579711914e+00 8.707126617431640625e+00 3.165007352828979492e+00 3.393231332302093506e-01
3.965000000000000000e+03 4.339742660522460938e+01 5.984985828399658203e-01 2.757786512374877930e+00 4.310859680175781250e+00 2.120594024658203125e+00 -1.964681148529052734e+00
3.966000000000000000e+03 4.175642395019531250e+01 5.003914833068847656e+00 1.192319631576538086e+00 9.849052429199218750e+00 3.312411785125732422e+00 -3.986134827136993408e-01
3.967000000000000000e+03 4.269345855712890625e+01 1.537084460258483887e+00 3.214626073837280273e+00 5.422910213470458984e+00 2.591260910034179688e+00 -8.529547452926635742e-01
3.968000000000000000e+03 2.708402633666992188e+01 5.721351623535156250e+00 5.715002417564392090e-01 3.897290825843811035e-01 2.883687913417816162e-01 -3.707979321479797363e-01
3.969000000000000000e+03 4.001470565795898438e+01 1.421337318420410156e+01 1.404112935066223145e+00 5.936408042907714844e+00 2.202156305313110352e+00 -9.985190033912658691e-01
3.970000000000000000e+03 4.109755706787109375e+01 6.509439468383789062e+00 1.247852087020874023e+00 1.120753002166748047e+01 3.736614704132080078e+00 -5.623196959495544434e-01
3.971000000000000000e+03 2.556731796264648438e+01 8.911048889160156250e+00 3.123299479484558105e-01 3.420361280441284180e-01 1.963098198175430298e-01 -3.714998066425323486e-01
3.972000000000000000e+03 3.793222045898437500e+01 1.351407814025878906e+01 1.254332423210144043e+00 4.398172378540039062e+00 1.695751547813415527e+00 -2.016319513320922852e+00
3.973000000000000000e+03 3.914439773559570312e+01 1.379324626922607422e+01 1.261871695518493652e+00 5.521398544311523438e+00 2.034981012344360352e+00 -1.439188003540039062e+00
3.974000000000000000e+03 3.937554168701171875e+01 1.442665767669677734e+01 1.314236760139465332e+00 5.253165721893310547e+00 1.970220804214477539e+00 -1.454013824462890625e+00
3.975000000000000000e+03 2.651577949523925781e+01 7.441830158233642578e+00 4.334227144718170166e-01 4.150828123092651367e-01 2.545516490936279297e-01 -4.935083091259002686e-01
3.976000000000000000e+03 2.548185157775878906e+01 1.073253250122070312e+01 1.586656421422958374e-01 4.434033036231994629e-01 1.806206852197647095e-01 -2.605768442153930664e-01
3.977000000000000000e+03 6.781845569610595703e+00 -6.896624088287353516e+00 9.184347465634346008e-03 -1.018247380852699280e-01 -2.779211662709712982e-02 -9.273922443389892578e-02
3.978000000000000000e+03 3.770280456542968750e+01 1.452341461181640625e+01 1.111345529556274414e+00 3.958418369293212891e+00 1.520929098129272461e+00 -2.131420612335205078e+00
3.979000000000000000e+03 2.605982208251953125e+01 7.063471794128417969e+00 4.529529809951782227e-01 2.585277557373046875e-01 2.134442180395126343e-01 -4.287571907043457031e-01
3.980000000000000000e+03 3.721597671508789062e+01 1.409061622619628906e+01 1.068228244781494141e+00 3.493557691574096680e+00 1.368535757064819336e+00 -2.224267721176147461e+00
3.981000000000000000e+03 2.556203269958496094e+01 6.746912479400634766e+00 4.074626266956329346e-01 1.136780232191085815e-01 1.563421934843063354e-01 -3.430290520191192627e-01
3.982000000000000000e+03 8.880065917968750000e+00 -7.577559947967529297e+00 7.700442336499691010e-03 -1.029339060187339783e-01 -2.857003919780254364e-02 -1.116317659616470337e-01
3.983000000000000000e+03 2.628583526611328125e+01 5.711175918579101562e+00 4.304439723491668701e-01 1.522139608860015869e-01 1.747973859310150146e-01 -2.820984125137329102e-01
3.984000000000000000e+03 2.771009254455566406e+01 1.091712570190429688e+01 -4.031378775835037231e-02 5.661725401878356934e-01 1.577576249837875366e-01 -1.928831040859222412e-01
3.985000000000000000e+03 2.701982879638671875e+01 1.024374866485595703e+01 7.762734591960906982e-02 5.646387934684753418e-01 1.926798373460769653e-01 -2.911096811294555664e-01
3.986000000000000000e+03 2.612170028686523438e+01 1.024620246887207031e+01 1.672139465808868408e-01 4.754605591297149658e-01 1.928023546934127808e-01 -3.108222782611846924e-01
3.987000000000000000e+03 3.656939697265625000e+01 1.539420413970947266e+01 8.438273668289184570e-01 3.067990303039550781e+00 1.173545360565185547e+00 -2.351286411285400391e+00
3.988000000000000000e+03 3.561778259277343750e+01 1.495635509490966797e+01 7.780025601387023926e-01 2.358803749084472656e+00 9.410418868064880371e-01 -2.092747926712036133e+00
3.989000000000000000e+03 4.389817428588867188e+01 7.784287333488464355e-01 2.714388608932495117e+00 4.192483425140380859e+00 2.072061538696289062e+00 -2.231220006942749023e+00
3.990000000000000000e+03 4.578048324584960938e+01 9.264943599700927734e-01 1.906504034996032715e+00 4.048064231872558594e+00 1.786370396614074707e+00 -2.661154747009277344e+00
3.991000000000000000e+03 4.684615325927734375e+01 2.278066873550415039e+00 1.630710721015930176e+00 3.681519269943237305e+00 1.593668937683105469e+00 -2.118541479110717773e+00
3.992000000000000000e+03 4.424810028076171875e+01 3.886415958404541016e+00 1.785175442695617676e+00 5.851889133453369141e+00 2.291119337081909180e+00 -1.368550896644592285e+00
3.993000000000000000e+03 4.461440658569335938e+01 3.175437152385711670e-01 2.226936340332031250e+00 3.865608453750610352e+00 1.827763438224792480e+00 -2.733704328536987305e+00
3.994000000000000000e+03 3.456364059448242188e+01 1.532252979278564453e+01 5.990934967994689941e-01 1.915381073951721191e+00 7.543423771858215332e-01 -1.718635439872741699e+00
3.995000000000000000e+03 4.299769210815429688e+01 4.899133205413818359e+00 1.399834871292114258e+00 7.952342987060546875e+00 2.805653333663940430e+00 -7.574141025543212891e-01
3.996000000000000000e+03 2.395752525329589844e+01 7.735627651214599609e+00 3.715567886829376221e-01 5.075246840715408325e-02 1.266927719116210938e-01 -2.303751856088638306e-01
3.997000000000000000e+03 2.531653213500976562e+01 7.256035804748535156e+00 4.122260212898254395e-01 1.452624648809432983e-01 1.672465503215789795e-01 -3.576875329017639160e-01
3.998000000000000000e+03 4.272723388671875000e+01 3.710881471633911133e+00 1.956152796745300293e+00 7.573085308074951172e+00 2.858771562576293945e+00 -3.539707660675048828e-01
3.999000000000000000e+03 2.509459304809570312e+01 9.975256919860839844e+00 2.607751488685607910e-01 3.696622252464294434e-01 1.891312152147293091e-01 -2.703227400779724121e-01
4.000000000000000000e+03 2.465744400024414062e+01 8.485356330871582031e+00 3.640346527099609375e-01 2.047607898712158203e-01 1.706386357545852661e-01 -3.037863373756408691e-01
4.001000000000000000e+03 7.044886779785156250e+01 2.927080154418945312e+01 1.142858624458312988e+00 4.842708110809326172e+00 1.795670032501220703e+00 2.676691114902496338e-01
4.002000000000000000e+03 7.052944946289062500e+01 2.804407882690429688e+01 1.067210435867309570e+00 4.655729770660400391e+00 1.716882109642028809e+00 -8.880195766687393188e-02
4.003000000000000000e+03 2.580055809020996094e+01 9.582785606384277344e+00 2.439752966165542603e-01 4.038341045379638672e-01 1.943428218364715576e-01 -3.580206632614135742e-01
4.004000000000000000e+03 4.603918457031250000e+01 3.394061088562011719e+00 1.602684020996093750e+00 4.002516746520996094e+00 1.681560277938842773e+00 -1.963534832000732422e+00
4.005000000000000000e+03 4.776800918579101562e+01 1.347780525684356689e-01 1.133268237113952637e+00 4.567347526550292969e+00 1.710184812545776367e+00 -2.230161666870117188e+00
4.006000000000000000e+03 4.784448623657226562e+01 9.642359018325805664e-01 1.308495998382568359e+00 4.108378410339355469e+00 1.625062227249145508e+00 -2.054603338241577148e+00
4.007000000000000000e+03 3.516249465942382812e+01 1.585118103027343750e+01 6.098171472549438477e-01 2.475036144256591797e+00 9.254559874534606934e-01 -2.052259206771850586e+00
4.008000000000000000e+03 3.481336212158203125e+01 1.633959388732910156e+01 4.712572097778320312e-01 2.490343332290649414e+00 8.884801864624023438e-01 -1.981961250305175781e+00
4.009000000000000000e+03 3.781201934814453125e+01 1.552808666229248047e+01 1.012709736824035645e+00 3.765682458877563477e+00 1.433517694473266602e+00 -2.228445768356323242e+00
4.010000000000000000e+03 3.898725509643554688e+01 1.595643997192382812e+01 1.140520334243774414e+00 4.245710849761962891e+00 1.615869402885437012e+00 -1.910975217819213867e+00
4.011000000000000000e+03 6.936154937744140625e+01 3.715091323852539062e+01 -3.375303745269775391e-01 5.478727340698242188e+00 1.542359113693237305e+00 4.371683299541473389e-01
4.012000000000000000e+03 3.297098159790039062e+01 3.769076538085937500e+01 -9.181852936744689941e-01 2.834975242614746094e+00 5.750370025634765625e-01 5.219867825508117676e-02
4.013000000000000000e+03 2.811231613159179688e+01 3.657226943969726562e+01 -3.260482847690582275e-01 2.357933759689331055e+00 6.095656752586364746e-01 -5.175364613533020020e-01
4.014000000000000000e+03 4.117425537109375000e+01 4.074558734893798828e+00 8.231341838836669922e-01 1.086628150939941406e+01 3.506824731826782227e+00 2.362015992403030396e-01
4.015000000000000000e+03 2.570842552185058594e+01 7.510816097259521484e+00 4.182187616825103760e-01 2.286046445369720459e-01 1.940470188856124878e-01 -4.100263416767120361e-01
4.016000000000000000e+03 4.313237762451171875e+01 3.918378353118896484e+00 1.829697012901306152e+00 7.248747348785400391e+00 2.723533391952514648e+00 -7.818188071250915527e-01
4.017000000000000000e+03 4.370601272583007812e+01 1.385829448699951172e+00 2.730024814605712891e+00 4.754540920257568359e+00 2.245369672775268555e+00 -1.713909268379211426e+00
4.018000000000000000e+03 4.234302520751953125e+01 3.630160570144653320e+00 1.816672205924987793e+00 8.080342292785644531e+00 2.969104290008544922e+00 -2.328722774982452393e-01
4.019000000000000000e+03 4.535829544067382812e+01 1.364851236343383789e+00 2.037483930587768555e+00 4.020391941070556641e+00 1.817362785339355469e+00 -2.493201017379760742e+00
4.020000000000000000e+03 4.124045181274414062e+01 4.852734088897705078e+00 9.826846122741699219e-01 1.074770927429199219e+01 3.519118070602416992e+00 -2.953982651233673096e-01
4.021000000000000000e+03 2.525025177001953125e+01 7.744597911834716797e+00 3.954378664493560791e-01 1.920720785856246948e-01 1.762529909610748291e-01 -3.697316944599151611e-01
4.022000000000000000e+03 4.404653930664062500e+01 1.733836978673934937e-01 2.263743162155151367e+00 3.899676084518432617e+00 1.849025845527648926e+00 -2.533106803894042969e+00
4.023000000000000000e+03 4.443412780761718750e+01 9.141734242439270020e-01 2.377334594726562500e+00 4.163695335388183594e+00 1.962309002876281738e+00 -2.350922822952270508e+00
4.024000000000000000e+03 2.758431625366210938e+01 1.032910251617431641e+01 7.489413954317569733e-03 6.095006465911865234e-01 1.850970089435577393e-01 -2.556711137294769287e-01
4.025000000000000000e+03 2.711019134521484375e+01 1.137384891510009766e+01 1.606767252087593079e-02 5.211004614830017090e-01 1.611504405736923218e-01 -1.818138211965560913e-01
4.026000000000000000e+03 3.874460220336914062e+01 1.460104465484619141e+01 1.194292664527893066e+00 4.770461082458496094e+00 1.789426088333129883e+00 -1.760049104690551758e+00
4.027000000000000000e+03 3.797426605224609375e+01 1.400450325012207031e+01 1.120013236999511719e+00 4.309704303741455078e+00 1.628915309906005859e+00 -2.051803350448608398e+00
4.028000000000000000e+03 2.665139579772949219e+01 9.839128494262695312e+00 1.471874713897705078e-01 5.212649106979370117e-01 2.005357146263122559e-01 -3.524646759033203125e-01
4.029000000000000000e+03 4.258399963378906250e+01 5.324621200561523438e+00 1.202838063240051270e+00 8.666335105895996094e+00 2.960752010345458984e+00 -6.828883290290832520e-01
4.030000000000000000e+03 4.193213272094726562e+01 4.554860115051269531e+00 1.200618028640747070e+00 9.503467559814453125e+00 3.211225748062133789e+00 -3.278806805610656738e-01
4.031000000000000000e+03 3.958233642578125000e+01 1.509955692291259766e+01 1.309778690338134766e+00 5.047224044799804688e+00 1.907100796699523926e+00 -1.440920114517211914e+00
4.032000000000000000e+03 3.756352615356445312e+01 1.613779830932617188e+01 8.158086538314819336e-01 3.454136133193969727e+00 1.280983448028564453e+00 -2.465952634811401367e+00
4.033000000000000000e+03 4.566824340820312500e+01 1.903768181800842285e+00 2.006537437438964844e+00 4.061402797698974609e+00 1.820382118225097656e+00 -2.296139001846313477e+00
4.034000000000000000e+03 3.977720642089843750e+01 1.583998203277587891e+01 1.348990559577941895e+00 4.778541088104248047e+00 1.838259458541870117e+00 -1.475547194480895996e+00
4.035000000000000000e+03 3.824913787841796875e+01 1.609957122802734375e+01 1.026684284210205078e+00 3.839071512222290039e+00 1.459726810455322266e+00 -2.226640224456787109e+00
4.036000000000000000e+03 4.487522888183593750e+01 1.537571787834167480e+00 2.247203350067138672e+00 4.274678230285644531e+00 1.956564545631408691e+00 -2.243256568908691406e+00
4.037000000000000000e+03 4.353778839111328125e+01 4.376045703887939453e+00 1.574431419372558594e+00 6.851306915283203125e+00 2.527721405029296875e+00 -1.029711008071899414e+00
4.038000000000000000e+03 1.070236492156982422e+01 -7.740427970886230469e+00 3.078246302902698517e-02 3.011475084349513054e-03 1.013818103820085526e-02 -1.010518521070480347e-01
4.039000000000000000e+03 4.509945678710937500e+01 3.565030813217163086e+00 1.780448198318481445e+00 4.682409286499023438e+00 1.938857197761535645e+00 -1.811944961547851562e+00
4.040000000000000000e+03 4.393067932128906250e+01 3.245666027069091797e+00 2.003895998001098633e+00 5.759277343750000000e+00 2.328952074050903320e+00 -1.332161188125610352e+00
4.041000000000000000e+03 4.590711975097656250e+01 2.605349779129028320e+00 1.807139396667480469e+00 3.893347740173339844e+00 1.710146188735961914e+00 -2.206163644790649414e+00
4.042000000000000000e+03 2.481125068664550781e+01 9.218271255493164062e+00 3.301456272602081299e-01 2.641721665859222412e-01 1.782953292131423950e-01 -2.976923882961273193e-01
4.043000000000000000e+03 4.263838577270507812e+01 4.124557971954345703e+00 1.503531217575073242e+00 8.066615104675292969e+00 2.871043920516967773e+00 -5.660555958747863770e-01
4.044000000000000000e+03 4.248979187011718750e+01 4.616544246673583984e+00 1.411644816398620605e+00 8.589931488037109375e+00 3.000472784042358398e+00 -5.618134737014770508e-01
4.045000000000000000e+03 2.602697372436523438e+01 7.959094524383544922e+00 3.856239318847656250e-01 3.533045351505279541e-01 2.216785401105880737e-01 -4.473136067390441895e-01
4.046000000000000000e+03 2.537814521789550781e+01 8.288975715637207031e+00 3.683206140995025635e-01 2.488994598388671875e-01 1.851660162210464478e-01 -3.763853609561920166e-01
4.047000000000000000e+03 4.235487747192382812e+01 3.263145685195922852e+00 2.150324821472167969e+00 7.905416965484619141e+00 3.016722679138183594e+00 -1.003054156899452209e-02
4.048000000000000000e+03 4.432146072387695312e+01 1.493624329566955566e+00 2.502370357513427734e+00 4.428085803985595703e+00 2.079136848449707031e+00 -2.113633155822753906e+00
4.049000000000000000e+03 2.638978195190429688e+01 6.560259819030761719e+00 5.055938363075256348e-01 2.845322489738464355e-01 2.370378375053405762e-01 -4.217286109924316406e-01
4.050000000000000000e+03 3.826114654541015625e+01 1.498695468902587891e+01 1.105410814285278320e+00 4.160870075225830078e+00 1.579884290695190430e+00 -2.078593492507934570e+00
4.051000000000000000e+03 3.721377182006835938e+01 1.502527427673339844e+01 9.840047359466552734e-01 3.414904117584228516e+00 1.319672703742980957e+00 -2.321767091751098633e+00
4.052000000000000000e+03 3.682164001464843750e+01 1.616727828979492188e+01 7.473088502883911133e-01 3.181399106979370117e+00 1.178612470626831055e+00 -2.447926521301269531e+00
4.053000000000000000e+03 4.276850509643554688e+01 2.841764926910400391e+00 2.419498682022094727e+00 6.818868637084960938e+00 2.771510124206542969e+00 -5.597889423370361328e-01
4.054000000000000000e+03 4.332012176513671875e+01 3.355993986129760742e+00 2.027605295181274414e+00 6.619490146636962891e+00 2.594128608703613281e+00 -9.809855818748474121e-01
4.055000000000000000e+03 8.160271644592285156e+00 -7.714172363281250000e+00 2.305902913212776184e-02 -8.050680160522460938e-02 -1.723433285951614380e-02 -1.019660830497741699e-01
4.056000000000000000e+03 8.580048561096191406e+00 -6.814815521240234375e+00 3.409659862518310547e-02 -7.024377584457397461e-02 -1.084415242075920105e-02 -1.087422966957092285e-01
4.057000000000000000e+03 4.501770782470703125e+01 2.800199270248413086e+00 2.005219936370849609e+00 4.662153720855712891e+00 2.000211954116821289e+00 -1.890603303909301758e+00
4.058000000000000000e+03 4.496599197387695312e+01 2.097606658935546875e+00 2.205615282058715820e+00 4.299023151397705078e+00 1.951391458511352539e+00 -2.163749933242797852e+00
4.059000000000000000e+03 7.166830444335937500e+01 3.807944869995117188e+01 -3.001438975334167480e-01 5.878486156463623047e+00 1.673502683639526367e+00 3.279405832290649414e-01
4.060000000000000000e+03 2.756308937072753906e+01 4.135609817504882812e+01 -5.811440348625183105e-01 2.258247375488281250e+00 5.031310319900512695e-01 -7.828284800052642822e-02
4.061000000000000000e+03 4.220770645141601562e+01 3.955144882202148438e+00 1.455056667327880859e+00 8.789693832397460938e+00 3.073425054550170898e+00 -2.191826850175857544e-01
4.062000000000000000e+03 4.429562377929687500e+01 2.747788190841674805e+00 2.281587600708007812e+00 5.086928367614746094e+00 2.210554838180541992e+00 -1.629134893417358398e+00
4.063000000000000000e+03 4.431004714965820312e+01 2.095592260360717773e+00 2.341251611709594727e+00 4.817736625671386719e+00 2.147696495056152344e+00 -1.857616424560546875e+00
4.064000000000000000e+03 4.214937591552734375e+01 5.515632152557373047e+00 1.241657733917236328e+00 9.416567802429199219e+00 3.197467803955078125e+00 -5.955673456192016602e-01
4.065000000000000000e+03 7.997601509094238281e+00 -4.115585708618164062e+01 -3.190509080886840820e-01 3.621161878108978271e-01 1.291958242654800415e-02 6.724055111408233643e-02
4.066000000000000000e+03 8.626375198364257812e+00 -3.873099899291992188e+01 -3.119044303894042969e-01 3.852066099643707275e-01 2.199065312743186951e-02 2.944923341274261475e-01
4.067000000000000000e+03 3.130012702941894531e+01 -3.144193649291992188e+01 -8.330376446247100830e-02 1.303243398666381836e+00 3.659818768501281738e-01 -4.331732690334320068e-01
4.068000000000000000e+03 1.994990539550781250e+01 3.972624588012695312e+01 -1.616051793098449707e-02 9.199133515357971191e-01 2.711258530616760254e-01 -1.228392794728279114e-01
4.069000000000000000e+03 1.983964157104492188e+01 3.595367813110351562e+01 5.127868801355361938e-02 7.869456410408020020e-01 2.514672875404357910e-01 -2.257299721240997314e-01
4.070000000000000000e+03 6.263581848144531250e+01 4.114373397827148438e+01 -2.186158746480941772e-01 2.512506246566772461e+00 6.881670951843261719e-01 -2.142030745744705200e-01
4.071000000000000000e+03 6.737765502929687500e+01 4.108927917480468750e+01 -5.990426540374755859e-01 4.756717681884765625e+00 1.247302412986755371e+00 2.160357497632503510e-02
4.072000000000000000e+03 5.797081375122070312e+01 3.863821029663085938e+01 -2.964343130588531494e-01 1.610869884490966797e+00 3.943306505680084229e-01 8.399195075035095215e-01
4.073000000000000000e+03 1.225761604309082031e+01 3.890232086181640625e+01 2.857899107038974762e-02 1.027110368013381958e-01 3.938701003789901733e-02 1.139362081885337830e-01
4.074000000000000000e+03 7.421600341796875000e+01 3.775100326538085938e+01 -1.808275282382965088e-01 6.306675910949707031e+00 1.837754487991333008e+00 3.068673610687255859e-01
4.075000000000000000e+03 2.775299072265625000e+01 3.901022338867187500e+01 -5.332760810852050781e-01 2.271628856658935547e+00 5.215058326721191406e-01 -2.562281489372253418e-01
4.076000000000000000e+03 2.324738311767578125e+01 4.113135147094726562e+01 -2.343313097953796387e-01 1.501325607299804688e+00 3.800983130931854248e-01 -8.362865447998046875e-02
4.077000000000000000e+03 2.679251861572265625e+01 -3.678330230712890625e+01 1.276906430721282959e-01 2.368129730224609375e+00 7.487460970878601074e-01 -1.761318445205688477e-01
4.078000000000000000e+03 3.804037094116210938e+01 2.992238759994506836e+00 -4.062854766845703125e+00 -2.676798820495605469e+00 -2.021896123886108398e+00 -3.854192495346069336e+00
4.079000000000000000e+03 3.404885864257812500e+01 1.659255385398864746e+00 3.279130220413208008e+00 6.033922433853149414e-01 1.164756774902343750e+00 -1.170640826225280762e+00
4.080000000000000000e+03 3.811250686645507812e+01 3.143876314163208008e+00 -4.591271877288818359e+00 -3.335659980773925781e+00 -2.378079414367675781e+00 -3.844214677810668945e+00
4.081000000000000000e+03 3.370746612548828125e+01 1.369197726249694824e+00 6.300722360610961914e-01 5.878195166587829590e-01 3.653675317764282227e-01 -5.314149260520935059e-01
4.082000000000000000e+03 3.829291915893554688e+01 3.349656343460083008e+00 -3.688775062561035156e+00 -2.510879755020141602e+00 -1.859896421432495117e+00 -3.148199796676635742e+00
4.083000000000000000e+03 3.314713668823242188e+01 1.212196588516235352e+00 -1.128672361373901367e-01 5.565123558044433594e-01 1.330935359001159668e-01 -1.931948661804199219e-01
4.084000000000000000e+03 3.903288269042968750e+01 3.689050436019897461e+00 -2.338794708251953125e+00 1.053620719909667969e+01 2.459223747253417969e+00 8.867794275283813477e-01
4.085000000000000000e+03 1.822752189636230469e+01 -4.357275068759918213e-01 -1.061139404773712158e-01 9.798991680145263672e-02 -2.437205286696553230e-03 -5.810328200459480286e-02
4.086000000000000000e+03 4.023717498779296875e+01 3.220545768737792969e+00 -3.512974679470062256e-01 1.274263191223144531e+01 3.717400312423706055e+00 1.919138073921203613e+00
4.087000000000000000e+03 4.070584869384765625e+01 2.697219848632812500e+00 1.934275031089782715e+00 1.081852436065673828e+01 3.825839996337890625e+00 2.606013774871826172e+00
4.088000000000000000e+03 4.092090225219726562e+01 1.495242238044738770e+00 5.119152545928955078e+00 7.870191574096679688e+00 3.896803140640258789e+00 1.574372649192810059e+00
4.089000000000000000e+03 4.068786239624023438e+01 9.682111740112304688e-01 5.606920719146728516e+00 8.088920593261718750e+00 4.108752250671386719e+00 9.447863101959228516e-01
4.090000000000000000e+03 3.906983566284179688e+01 -5.932016968727111816e-01 1.024709463119506836e+00 8.981109619140625000e+00 3.001745700836181641e+00 3.893219709396362305e+00
4.091000000000000000e+03 3.753643417358398438e+01 -6.405507922172546387e-01 1.667927026748657227e+00 5.612856388092041016e+00 2.184235095977783203e+00 4.830996513366699219e+00
4.092000000000000000e+03 3.695775985717773438e+01 -8.977066874504089355e-01 1.224038124084472656e+00 4.459254741668701172e+00 1.704987883567810059e+00 4.081731319427490234e+00
4.093000000000000000e+03 3.620271301269531250e+01 -1.428707599639892578e+00 4.780883491039276123e-01 3.873284578323364258e+00 1.305411934852600098e+00 3.200635194778442383e+00
4.094000000000000000e+03 3.548419570922851562e+01 -1.450494170188903809e+00 3.539671003818511963e-01 2.573655605316162109e+00 8.782867789268493652e-01 2.191240072250366211e+00
4.095000000000000000e+03 3.389916229248046875e+01 -2.093087434768676758e+00 6.801950186491012573e-02 1.033876895904541016e+00 3.305689394474029541e-01 9.157254695892333984e-01
4.096000000000000000e+03 7.802554321289062500e+01 4.160519027709960938e+01 2.618387155234813690e-02 7.292834281921386719e+00 2.195705413818359375e+00 -7.277601398527622223e-03
4.097000000000000000e+03 2.912969017028808594e+01 8.277857780456542969e+00 6.817362457513809204e-02 1.212432622909545898e+00 3.841818571090698242e-01 -7.374346256256103516e-02
4.098000000000000000e+03 2.902039337158203125e+01 7.887081623077392578e+00 7.917492836713790894e-02 1.397424459457397461e+00 4.429798424243927002e-01 -1.533927619457244873e-01
4.099000000000000000e+03 2.972762298583984375e+01 8.938621520996093750e+00 7.377555221319198608e-02 8.377915024757385254e-01 2.734701335430145264e-01 1.937916427850723267e-01
4.100000000000000000e+03 2.943799018859863281e+01 9.440917968750000000e+00 -1.376943290233612061e-02 7.139632701873779297e-01 2.100581526756286621e-01 1.685904525220394135e-02
4.101000000000000000e+03 3.371109390258789062e+01 1.240336132049560547e+01 -3.722143471240997314e-01 1.337519139051437378e-01 -7.153873145580291748e-02 -2.674143910408020020e-01
4.102000000000000000e+03 3.836231994628906250e+01 9.511489868164062500e+00 2.903175115585327148e+00 8.213692665100097656e+00 3.335060358047485352e+00 -4.470095634460449219e+00
4.103000000000000000e+03 3.872272491455078125e+01 8.792520523071289062e+00 2.640252828598022461e+00 1.201004028320312500e+01 4.395087718963623047e+00 -5.028152942657470703e+00
4.104000000000000000e+03 3.887084960937500000e+01 8.490586280822753906e+00 1.954979062080383301e+00 1.390298175811767578e+01 4.757388114929199219e+00 -4.896478652954101562e+00
4.105000000000000000e+03 3.932652664184570312e+01 8.729310035705566406e+00 1.676397442817687988e+00 1.224702072143554688e+01 4.177025318145751953e+00 -2.165310382843017578e+00
4.106000000000000000e+03 3.991461944580078125e+01 5.960786342620849609e+00 4.847606420516967773e-01 1.406587982177734375e+01 4.365192413330078125e+00 -2.491474747657775879e-01
4.107000000000000000e+03 3.972073745727539062e+01 4.944995403289794922e+00 9.696217179298400879e-01 1.373933124542236328e+01 4.412685871124267578e+00 5.048926472663879395e-01
4.108000000000000000e+03 3.853806304931640625e+01 3.564563035964965820e+00 -1.981036424636840820e+00 1.251820683479309082e+00 -2.187647074460983276e-01 -9.229524135589599609e-01
4.109000000000000000e+03 5.088030624389648438e+01 -1.498728370666503906e+01 -1.906801700592041016e+00 7.804071903228759766e-01 -3.379183411598205566e-01 -9.886327981948852539e-01
4.110000000000000000e+03 5.500469970703125000e+01 -2.443365287780761719e+01 -8.123314380645751953e-01 7.377010822296142578e+00 1.969403862953186035e+00 1.915504813194274902e+00
4.111000000000000000e+03 1.036829185485839844e+01 2.142801094055175781e+01 1.775723695755004883e-01 6.984977424144744873e-02 7.422664761543273926e-02 1.304407417774200439e-01
4.112000000000000000e+03 5.192731094360351562e+01 2.936848068237304688e+01 1.454816341400146484e+00 7.896388053894042969e+00 2.805361270904541016e+00 7.523924708366394043e-01
4.113000000000000000e+03 5.318412399291992188e+01 2.705778503417968750e+01 1.404002666473388672e+00 8.306818008422851562e+00 2.913246154785156250e+00 -1.013780951499938965e+00
4.114000000000000000e+03 5.152208709716796875e+01 2.663615608215332031e+01 1.850432634353637695e+00 6.561183452606201172e+00 2.523484945297241211e+00 -6.172026973217725754e-03
4.115000000000000000e+03 6.468264007568359375e+01 3.053216171264648438e+01 6.609002947807312012e-01 6.417032718658447266e+00 2.123379945755004883e+00 2.124923020601272583e-01
4.116000000000000000e+03 6.154639053344726562e+01 9.056268692016601562e+00 3.589668869972229004e-01 5.173474311828613281e+00 1.659732341766357422e+00 -1.605031251907348633e+00
4.117000000000000000e+03 1.523159980773925781e+01 -3.989138031005859375e+01 -7.232415676116943359e-01 7.345355115830898285e-03 -2.147688567638397217e-01 1.654256880283355713e-01
4.118000000000000000e+03 1.592128181457519531e+01 -2.584671020507812500e+01 3.187604844570159912e-01 6.520999073982238770e-01 2.912581264972686768e-01 5.134459733963012695e-01
4.119000000000000000e+03 2.123045921325683594e+01 1.293942165374755859e+01 2.817402407526969910e-02 6.631993055343627930e-01 2.074119895696640015e-01 5.884449928998947144e-02
4.120000000000000000e+03 8.234450340270996094e+00 1.205983734130859375e+01 -1.044394299387931824e-01 -1.704140901565551758e-01 -8.245605975389480591e-02 6.331970095634460449e-01
4.121000000000000000e+03 3.083885955810546875e+01 3.889609527587890625e+01 -7.633117437362670898e-01 2.597252845764160156e+00 5.501823425292968750e-01 -1.096471697092056274e-01
4.122000000000000000e+03 3.254883193969726562e+01 1.579973816871643066e+00 4.433420598506927490e-01 5.628979802131652832e-01 3.018720149993896484e-01 -2.190199494361877441e-01
4.123000000000000000e+03 3.340142440795898438e+01 1.493724942207336426e+00 1.123488426208496094e+00 7.973185181617736816e-01 5.762420892715454102e-01 -5.693027973175048828e-01
4.124000000000000000e+03 3.272107315063476562e+01 1.853921413421630859e+00 1.253937840461730957e+00 7.919253110885620117e-01 6.137589216232299805e-01 -7.244392633438110352e-01
4.125000000000000000e+03 3.199363899230957031e+01 1.175768852233886719e+00 -7.505526542663574219e-01 5.682057738304138184e-01 -5.470406264066696167e-02 2.928531169891357422e-02
4.126000000000000000e+03 6.247290039062500000e+01 -2.041466140747070312e+01 2.552195787429809570e+00 6.336251735687255859e+00 2.666534185409545898e+00 -2.145552873611450195e+00
4.127000000000000000e+03 6.269366073608398438e+01 -8.546770095825195312e+00 1.040633082389831543e+00 8.642513275146484375e+00 2.904943943023681641e+00 1.886063069105148315e-01
4.128000000000000000e+03 3.329642868041992188e+01 1.260369682312011719e+01 -3.950681090354919434e-01 1.481433957815170288e-01 -7.407741248607635498e-02 -3.290729224681854248e-01
4.129000000000000000e+03 2.902600288391113281e+01 9.549839019775390625e+00 -4.307535663247108459e-02 7.657566070556640625e-01 2.168043702840805054e-01 -1.024571582674980164e-01
4.130000000000000000e+03 2.873393440246582031e+01 8.417412757873535156e+00 7.997612655162811279e-02 1.101081013679504395e+00 3.543171584606170654e-01 -2.338290512561798096e-01
4.131000000000000000e+03 4.312293243408203125e+01 3.606650924682617188e+01 -9.244753122329711914e-01 2.174592256546020508e+00 3.750350773334503174e-01 -1.039493083953857422e+00
4.132000000000000000e+03 4.692086791992187500e+01 -3.838409805297851562e+01 -1.722284674644470215e+00 1.843926668167114258e+00 3.649262711405754089e-02 7.080758213996887207e-01
4.133000000000000000e+03 4.554073333740234375e+01 -4.012958145141601562e+01 -1.250846385955810547e+00 6.376108527183532715e-01 -1.839706748723983765e-01 5.429966449737548828e-01
4.134000000000000000e+03 1.300461101531982422e+01 -4.195401763916015625e+01 -6.252611875534057617e-01 4.156728982925415039e-01 -6.287647783756256104e-02 5.107868835330009460e-02
4.135000000000000000e+03 1.346275806427001953e+01 -4.085058212280273438e+01 -7.746466398239135742e-01 4.044917821884155273e-01 -1.110464483499526978e-01 1.019041091203689575e-01
4.136000000000000000e+03 2.100815773010253906e+01 9.184129714965820312e+00 5.592579841613769531e-01 3.630478680133819580e-01 2.766917645931243896e-01 2.254793196916580200e-01
4.137000000000000000e+03 7.131178379058837891e+00 2.052875900268554688e+01 1.565715819597244263e-01 -2.559094130992889404e-01 -2.980134822428226471e-02 4.721527174115180969e-02
4.138000000000000000e+03 2.221458816528320312e+01 2.983293342590332031e+01 4.695823192596435547e-01 1.146238565444946289e+00 4.847462773323059082e-01 1.848017573356628418e-01
4.139000000000000000e+03 5.055718994140625000e+01 3.692132949829101562e+01 -1.292094588279724121e+00 5.602454662322998047e+00 1.293108105659484863e+00 6.300860643386840820e-02
4.140000000000000000e+03 5.701834869384765625e+01 1.159606552124023438e+01 1.462791919708251953e+00 8.712595939636230469e+00 3.052616357803344727e+00 1.237680196762084961e+00
4.141000000000000000e+03 5.403192901611328125e+01 2.185938835144042969e+01 -1.286382555961608887e+00 4.814309120178222656e+00 1.058377981185913086e+00 -2.495218276977539062e+00
4.142000000000000000e+03 6.797145843505859375e+01 -3.868202590942382812e+01 -1.306791424751281738e+00 5.579702854156494141e+00 1.281873464584350586e+00 -5.358538031578063965e-01
4.143000000000000000e+03 5.584095001220703125e+01 -3.723377227783203125e+01 -1.427371501922607422e+00 6.882800102233886719e+00 1.636628627777099609e+00 -1.401189714670181274e-01
4.144000000000000000e+03 3.552929687500000000e+01 2.385338592529296875e+01 9.332403540611267090e-01 6.375937938690185547e+00 2.192753553390502930e+00 -1.988440394401550293e+00
4.145000000000000000e+03 5.010520172119140625e+01 -9.977119445800781250e+00 2.590549468994140625e+00 7.599261760711669922e+00 3.056943416595458984e+00 -2.395746707916259766e-01
4.146000000000000000e+03 6.677489471435546875e+01 2.708508872985839844e+01 2.263614892959594727e+00 4.608825683593750000e+00 2.061732053756713867e+00 9.927141666412353516e-01
4.147000000000000000e+03 4.611153793334960938e+01 -1.556291103363037109e+01 -3.436998128890991211e+00 6.347540378570556641e+00 8.731626868247985840e-01 2.637593030929565430e+00
4.148000000000000000e+03 4.625114822387695312e+01 5.751503467559814453e+00 2.785745859146118164e-01 3.768582582473754883e+00 1.214147210121154785e+00 -1.511642098426818848e+00
4.149000000000000000e+03 2.917968177795410156e+01 -2.761270523071289062e+01 -1.332673907279968262e+00 2.973194837570190430e+00 4.921562671661376953e-01 -1.435420960187911987e-01
4.150000000000000000e+03 3.886148071289062500e+01 -3.040539741516113281e+01 7.889982461929321289e-01 6.008612632751464844e+00 2.039283275604248047e+00 1.799689292907714844e+00
4.151000000000000000e+03 1.590018749237060547e+01 -7.183753013610839844e+00 4.372097924351692200e-02 2.307983934879302979e-01 8.235581219196319580e-02 -2.347872033715248108e-02
4.152000000000000000e+03 7.826474761962890625e+01 3.794718933105468750e+01 -2.986697107553482056e-02 7.155796051025390625e+00 2.137778759002685547e+00 5.726796388626098633e-02
4.153000000000000000e+03 4.266389846801757812e+01 -2.680135917663574219e+01 -1.514102101325988770e+00 5.794761180877685547e-01 -2.803878188133239746e-01 1.197577118873596191e+00
4.154000000000000000e+03 5.714326858520507812e+01 -2.563004112243652344e+01 -1.800360083580017090e+00 7.193233013153076172e+00 1.617861866950988770e+00 1.516299843788146973e+00
4.155000000000000000e+03 5.125643157958984375e+01 -1.367241573333740234e+01 -5.444569587707519531e-01 2.677750110626220703e+00 6.399879455566406250e-01 -1.567665100097656250e+00
4.156000000000000000e+03 6.738793182373046875e+01 2.377016067504882812e+01 8.858455419540405273e-01 2.761159420013427734e+00 1.094101428985595703e+00 -1.652764379978179932e-01
4.157000000000000000e+03 3.146701812744140625e+01 1.529605507850646973e+00 -2.775114476680755615e-01 5.900906920433044434e-01 9.377377480268478394e-02 -7.364778220653533936e-02
4.158000000000000000e+03 3.397512817382812500e+01 -2.466191768646240234e+00 2.830572128295898438e-01 1.654215574264526367e+00 5.811818242073059082e-01 7.571291327476501465e-01
4.159000000000000000e+03 1.361352729797363281e+01 -3.960892868041992188e+01 -4.783946275711059570e-01 3.290158510208129883e-01 -4.481362923979759216e-02 1.149447560310363770e-01
4.160000000000000000e+03 6.541019439697265625e+01 -3.856784439086914062e+01 -2.079961299896240234e+00 3.952268838882446289e+00 5.616922378540039062e-01 3.260162472724914551e-01
4.161000000000000000e+03 1.996172142028808594e+01 2.326743698120117188e+01 5.037426948547363281e-01 1.100361704826354980e+00 4.812313020229339600e-01 1.621908992528915405e-01
4.162000000000000000e+03 6.763183593750000000e+01 -1.484246730804443359e+01 -8.881418108940124512e-01 8.291987180709838867e-01 -1.768293045461177826e-02 -9.459404945373535156e-01
4.163000000000000000e+03 2.545527839660644531e+01 3.637378692626953125e+01 -1.007652580738067627e-01 1.841840267181396484e+00 5.223224759101867676e-01 -4.680450260639190674e-01
4.164000000000000000e+03 6.506401824951171875e+01 -2.733041763305664062e+01 -1.379767060279846191e+00 9.086133956909179688e+00 2.311909914016723633e+00 -2.601489543914794922e+00
4.165000000000000000e+03 3.608262252807617188e+01 -1.722748994827270508e+00 2.980755865573883057e-01 4.038607120513916016e+00 1.301004767417907715e+00 2.965216159820556641e+00
4.166000000000000000e+03 3.592203903198242188e+01 -2.024077653884887695e+00 1.338507682085037231e-01 4.047028064727783203e+00 1.254263639450073242e+00 2.810239315032958984e+00
4.167000000000000000e+03 2.761847019195556641e+00 3.049818229675292969e+01 2.435885183513164520e-02 -1.012607693672180176e+00 -2.964746356010437012e-01 1.147286668419837952e-01
4.168000000000000000e+03 3.797345352172851562e+01 -1.061398744583129883e+00 7.310147285461425781e-01 6.959596157073974609e+00 2.307183265686035156e+00 4.907965183258056641e+00
4.169000000000000000e+03 3.797428131103515625e+01 -6.678443551063537598e-01 1.451632022857666016e+00 6.848492622375488281e+00 2.490037441253662109e+00 5.227928161621093750e+00
4.170000000000000000e+03 3.812844467163085938e+01 -6.169752478599548340e-01 1.436145544052124023e+00 7.178765296936035156e+00 2.584473133087158203e+00 5.211011886596679688e+00
4.171000000000000000e+03 3.803068542480468750e+01 -8.628024458885192871e-01 8.422560095787048340e-01 7.043632984161376953e+00 2.365766763687133789e+00 5.027900695800781250e+00
4.172000000000000000e+03 3.822072219848632812e+01 -8.092658519744873047e-01 8.656297326087951660e-01 7.352419376373291016e+00 2.465414762496948242e+00 5.059725761413574219e+00
4.173000000000000000e+03 3.851792526245117188e+01 -6.643880009651184082e-01 9.162032604217529297e-01 8.028711318969726562e+00 2.683474302291870117e+00 4.970660686492919922e+00
4.174000000000000000e+03 3.843902587890625000e+01 -1.000169038772583008e+00 5.348807573318481445e-01 7.701198577880859375e+00 2.470823764801025391e+00 4.789585590362548828e+00
4.175000000000000000e+03 3.935995101928710938e+01 -6.842434406280517578e-01 9.262869954109191895e-01 8.726635932922363281e+00 2.895876884460449219e+00 3.328915119171142578e+00
4.176000000000000000e+03 3.991368103027343750e+01 -1.124870032072067261e-01 2.317089319229125977e+00 9.309101104736328125e+00 3.487857103347778320e+00 1.658176541328430176e+00
4.177000000000000000e+03 4.780959129333496094e+00 -3.180897903442382812e+01 9.507650882005691528e-02 -1.117257103323936462e-01 -4.994760267436504364e-03 1.440825760364532471e-01
4.178000000000000000e+03 4.950540161132812500e+01 -2.650683212280273438e+01 -2.343175172805786133e+00 2.859487295150756836e+00 1.548936218023300171e-01 -2.404437541961669922e+00
4.179000000000000000e+03 3.328231048583984375e+01 3.168629646301269531e+01 4.954430088400840759e-02 4.389067649841308594e+00 1.331583619117736816e+00 -7.887528538703918457e-01
4.180000000000000000e+03 4.005678939819335938e+01 3.732601404190063477e+00 -9.544408321380615234e-01 1.293892860412597656e+01 3.595346212387084961e+00 6.200204491615295410e-01
4.181000000000000000e+03 6.126007080078125000e+01 -2.255128288269042969e+01 2.998192548751831055e+00 4.050399780273437500e+00 2.114577770233154297e+00 -1.239486932754516602e+00
4.182000000000000000e+03 6.049144744873046875e+01 -2.206846046447753906e+01 2.764867067337036133e+00 4.251149654388427734e+00 2.104804992675781250e+00 -8.259466290473937988e-01
4.183000000000000000e+03 2.638125038146972656e+01 -2.392023468017578125e+01 6.101973652839660645e-01 3.150992870330810547e+00 1.128357052803039551e+00 4.924360811710357666e-01
4.184000000000000000e+03 3.944326782226562500e+01 -2.957906150817871094e+01 -3.114910423755645752e-01 6.861456394195556641e+00 1.964989662170410156e+00 1.492580413818359375e+00
4.185000000000000000e+03 4.031047058105468750e+01 1.313345283269882202e-01 3.571878194808959961e+00 8.324725151062011719e+00 3.568981170654296875e+00 6.447476148605346680e-01
4.186000000000000000e+03 4.095459365844726562e+01 3.301786899566650391e+00 9.623077511787414551e-01 1.096279335021972656e+01 3.577530145645141602e+00 1.341380596160888672e+00
4.187000000000000000e+03 4.057077789306640625e+01 3.257368087768554688e+00 3.312240839004516602e-01 1.182770442962646484e+01 3.647678375244140625e+00 1.686785697937011719e+00
4.188000000000000000e+03 4.097599029541015625e+01 3.042246818542480469e+00 1.430099606513977051e+00 1.056346797943115234e+01 3.598070383071899414e+00 1.719103336334228516e+00
4.189000000000000000e+03 4.101635360717773438e+01 3.649023294448852539e+00 6.447949409484863281e-01 1.106543731689453125e+01 3.513069629669189453e+00 7.485786080360412598e-01
4.190000000000000000e+03 3.299009323120117188e+01 2.772466278076171875e+01 1.575862407684326172e+00 5.244301319122314453e+00 2.046049118041992188e+00 -1.254109501838684082e+00
4.191000000000000000e+03 3.316281890869140625e+01 2.883110618591308594e+01 1.342158317565917969e+00 5.299355030059814453e+00 1.992454051971435547e+00 -1.326557636260986328e+00
4.192000000000000000e+03 3.782333374023437500e+01 -3.408463668823242188e+01 1.122068047523498535e+00 3.667728424072265625e+00 1.436939001083374023e+00 1.561772823333740234e+00
4.193000000000000000e+03 4.087902450561523438e+01 8.802670836448669434e-01 4.866432666778564453e+00 7.263694286346435547e+00 3.639038085937500000e+00 5.216258764266967773e-01
4.194000000000000000e+03 3.335417938232421875e+01 -1.268565177917480469e+01 -6.059310436248779297e-01 1.455095052719116211e+00 2.547492086887359619e-01 2.379800558090209961e+00
4.195000000000000000e+03 4.047119522094726562e+01 4.361701905727386475e-01 4.341474056243896484e+00 8.233890533447265625e+00 3.772609233856201172e+00 4.184087514877319336e-01
4.196000000000000000e+03 4.056357192993164062e+01 1.732784211635589600e-01 3.754989624023437500e+00 7.756643772125244141e+00 3.453490018844604492e+00 4.015832245349884033e-01
4.197000000000000000e+03 4.723995208740234375e+01 2.251227378845214844e+01 -1.772868931293487549e-01 6.443855285644531250e+00 1.879970431327819824e+00 1.781912922859191895e+00
4.198000000000000000e+03 5.001007843017578125e+01 3.415019989013671875e+01 -3.210367262363433838e-01 6.081659317016601562e+00 1.728186726570129395e+00 -1.223680153489112854e-01
4.199000000000000000e+03 6.786213684082031250e+01 -3.332989883422851562e+01 1.415383696556091309e+00 6.922185420989990234e+00 2.501270771026611328e+00 -2.259480953216552734e+00
4.200000000000000000e+03 4.926354980468750000e+01 3.524805831909179688e+01 -8.598634004592895508e-01 5.505945682525634766e+00 1.393824696540832520e+00 -3.468597233295440674e-01
4.201000000000000000e+03 7.791633605957031250e+01 -3.554849243164062500e+01 1.058183796703815460e-02 7.795363903045654297e+00 2.341783761978149414e+00 -9.075307101011276245e-02
4.202000000000000000e+03 4.565586090087890625e+01 2.196577072143554688e+01 -1.331054568290710449e+00 7.288571357727050781e+00 1.787255048751831055e+00 2.853667259216308594e+00
4.203000000000000000e+03 4.536768722534179688e+01 2.094483375549316406e+01 -2.414949893951416016e+00 6.903358459472656250e+00 1.346522569656372070e+00 2.776946067810058594e+00
4.204000000000000000e+03 4.023604583740234375e+01 6.394130706787109375e+00 8.887324929237365723e-01 1.321641254425048828e+01 4.231543540954589844e+00 -5.863809585571289062e-01
4.205000000000000000e+03 4.052970123291015625e+01 5.147855281829833984e+00 9.158205986022949219e-01 1.213346195220947266e+01 3.914784908294677734e+00 -1.651743352413177490e-01
4.206000000000000000e+03 5.027559661865234375e+01 -1.419859886169433594e+00 6.468639969825744629e-01 6.543751239776611328e+00 2.157184600830078125e+00 -9.850404858589172363e-01
4.207000000000000000e+03 4.892338943481445312e+01 -1.662206172943115234e+00 7.383074164390563965e-01 6.093538761138916016e+00 2.049553871154785156e+00 -1.766786694526672363e+00
4.208000000000000000e+03 2.985885620117187500e+01 3.681332111358642578e+00 6.017890572547912598e-01 1.134720444679260254e+00 5.209528207778930664e-01 -6.866181492805480957e-01
4.209000000000000000e+03 3.057560920715332031e+01 3.744487285614013672e+00 9.527662396430969238e-01 1.220302104949951172e+00 6.519204974174499512e-01 -1.025660037994384766e+00
4.210000000000000000e+03 6.558297729492187500e+01 -1.428711605072021484e+01 -1.564129352569580078e+00 4.222238063812255859e+00 7.974326610565185547e-01 1.957512199878692627e-01
4.211000000000000000e+03 7.561949920654296875e+01 -2.091362571716308594e+01 1.247742652893066406e+00 9.103214263916015625e+00 3.105287075042724609e+00 4.936101138591766357e-01
4.212000000000000000e+03 5.744895172119140625e+01 -2.458472633361816406e+01 -6.645632982254028320e-01 6.473775386810302734e+00 1.742763638496398926e+00 9.287362098693847656e-01
4.213000000000000000e+03 6.576690673828125000e+01 2.717718505859375000e+01 2.355047941207885742e+00 5.500400543212890625e+00 2.356634378433227539e+00 1.346375226974487305e+00
4.214000000000000000e+03 4.018790817260742188e+01 -2.002650260925292969e+00 -1.211827754974365234e+00 5.203197956085205078e+00 1.197411060333251953e+00 2.320633649826049805e+00
4.215000000000000000e+03 3.836241149902343750e+01 -2.673799037933349609e+00 -1.341245532035827637e+00 7.337750911712646484e+00 1.798951625823974609e+00 4.327409744262695312e+00
4.216000000000000000e+03 3.507807159423828125e+01 -7.819222450256347656e+00 2.707264661788940430e+00 4.611375808715820312e+00 2.195592164993286133e+00 1.958690047264099121e+00
4.217000000000000000e+03 6.686724853515625000e+01 2.497018814086914062e+00 4.136359393596649170e-01 2.280496835708618164e+00 8.082398176193237305e-01 1.648042917251586914e+00
4.218000000000000000e+03 6.698430633544921875e+01 1.540883302688598633e+00 5.090970993041992188e-01 2.596426248550415039e+00 9.316570162773132324e-01 1.617492437362670898e+00
4.219000000000000000e+03 7.065339660644531250e+01 1.551533460617065430e+00 5.338975191116333008e-01 1.860453009605407715e+00 7.183051705360412598e-01 1.001206636428833008e+00
4.220000000000000000e+03 5.046165847778320312e+01 2.852678298950195312e+01 2.003675699234008789e+00 6.756795406341552734e+00 2.628141403198242188e+00 9.188744425773620605e-01
4.221000000000000000e+03 1.527840232849121094e+01 -2.696608924865722656e+01 6.241085529327392578e-01 7.583490610122680664e-01 4.147372841835021973e-01 5.078690648078918457e-01
4.222000000000000000e+03 8.628689765930175781e+00 -2.633537483215332031e+01 1.767572015523910522e-01 1.779022812843322754e-01 1.063978448510169983e-01 -7.056532055139541626e-02
4.223000000000000000e+03 5.330344009399414062e+01 -1.221701526641845703e+01 3.800815939903259277e-01 3.912189245223999023e+00 1.287681221961975098e+00 -3.348324298858642578e+00
4.224000000000000000e+03 6.626900482177734375e+01 3.400714492797851562e+01 -3.117425143718719482e-01 5.265334129333496094e+00 1.486077547073364258e+00 5.629669427871704102e-01
4.225000000000000000e+03 5.923181915283203125e+01 -1.281207752227783203e+01 -4.458445906639099121e-01 4.294194698333740234e+00 1.154505014419555664e+00 5.949782729148864746e-01
4.226000000000000000e+03 5.832493209838867188e+01 -2.305048561096191406e+01 1.753061294555664062e+00 5.199946880340576172e+00 2.085902452468872070e+00 6.236654520034790039e-01
4.227000000000000000e+03 5.923303604125976562e+01 -2.393089294433593750e+01 8.668019771575927734e-01 3.862816810607910156e+00 1.418885588645935059e+00 5.950811505317687988e-01
4.228000000000000000e+03 6.129232788085937500e+01 -2.159907531738281250e+01 3.188777685165405273e+00 4.770873069763183594e+00 2.387895107269287109e+00 -1.630211353302001953e+00
4.229000000000000000e+03 3.673768997192382812e+01 -2.001622915267944336e+00 -8.676099777221679688e-02 5.243883609771728516e+00 1.547136783599853516e+00 3.566031455993652344e+00
4.230000000000000000e+03 3.673229598999023438e+01 -1.645387291908264160e+00 2.134075909852981567e-01 5.060729980468750000e+00 1.582241296768188477e+00 3.757493972778320312e+00
4.231000000000000000e+03 3.708425521850585938e+01 -1.968655943870544434e+00 -2.437871992588043213e-01 5.959901809692382812e+00 1.714834332466125488e+00 3.927321910858154297e+00
4.232000000000000000e+03 5.306844329833984375e+01 2.113396453857421875e+01 -1.109072804450988770e+00 4.528039455413818359e+00 1.025689959526062012e+00 -2.265440702438354492e+00
4.233000000000000000e+03 4.124977111816406250e+01 1.726164817810058594e+01 1.228694319725036621e+00 4.753549098968505859e+00 1.794672966003417969e+00 -7.613309621810913086e-01
4.234000000000000000e+03 6.888519287109375000e+01 3.214043426513671875e+01 6.095644235610961914e-01 5.240390777587890625e+00 1.754986643791198730e+00 8.134114146232604980e-01
4.235000000000000000e+03 5.979582595825195312e+01 -2.122337532043457031e+01 3.008672475814819336e+00 4.643991947174072266e+00 2.295799255371093750e+00 -6.815431118011474609e-01
4.236000000000000000e+03 1.259426116943359375e+01 -7.738688945770263672e+00 2.538562379777431488e-02 2.294080704450607300e-02 1.449792925268411636e-02 -9.228480607271194458e-02
4.237000000000000000e+03 2.842231750488281250e+00 2.401807594299316406e+01 -1.809060759842395782e-02 -9.191521406173706055e-01 -2.811728119850158691e-01 5.633263848721981049e-03
4.238000000000000000e+03 6.938507080078125000e+01 -3.285852813720703125e+01 1.714355468750000000e+00 5.582251071929931641e+00 2.188982009887695312e+00 -1.695550680160522461e+00
4.239000000000000000e+03 5.038267898559570312e+01 -2.780180215835571289e+00 1.118184924125671387e+00 7.749820709228515625e+00 2.660401821136474609e+00 -7.623688578605651855e-01
4.240000000000000000e+03 3.509576082229614258e+00 3.425196838378906250e+01 8.148857206106185913e-02 -9.185414910316467285e-01 -2.511158883571624756e-01 -1.637422107160091400e-02
4.241000000000000000e+03 4.033707046508789062e+01 -8.434253931045532227e-02 2.920669794082641602e+00 7.722619056701660156e+00 3.192986726760864258e+00 8.517135977745056152e-01
4.242000000000000000e+03 4.087150192260742188e+01 1.366762518882751465e-01 3.530711412429809570e+00 6.824494838714599609e+00 3.106561899185180664e+00 1.223027482628822327e-01
4.243000000000000000e+03 4.059352111816406250e+01 6.318209648132324219e+00 1.142934322357177734e+00 1.236201095581054688e+01 4.051483631134033203e+00 -6.035174131393432617e-01
4.244000000000000000e+03 3.221876907348632812e+01 2.931040382385253906e+01 1.177654743194580078e+00 4.171677112579345703e+00 1.604799628257751465e+00 -1.373502612113952637e+00
4.245000000000000000e+03 3.291213989257812500e+01 2.992999267578125000e+01 8.328499197959899902e-01 4.881451129913330078e+00 1.714290380477905273e+00 -1.263037323951721191e+00
4.246000000000000000e+03 3.789412689208984375e+01 -1.304191946983337402e+00 6.872859597206115723e-02 6.882768630981445312e+00 2.085449218750000000e+00 4.860853672027587891e+00
4.247000000000000000e+03 5.421221923828125000e+01 -1.251000213623046875e+01 -3.456557989120483398e-01 4.402614593505859375e+00 1.217087626457214355e+00 -3.293900251388549805e+00
4.248000000000000000e+03 5.946118927001953125e+01 1.840841674804687500e+01 1.254359960556030273e+00 6.781507492065429688e+00 2.410760164260864258e+00 1.047010779380798340e+00
4.249000000000000000e+03 5.854384994506835938e+01 1.812562561035156250e+01 1.554715037345886230e+00 6.080707073211669922e+00 2.290626764297485352e+00 3.740463256835937500e-01
4.250000000000000000e+03 4.163289642333984375e+01 1.159830331802368164e+00 4.221293449401855469e+00 6.234811305999755859e+00 3.136831521987915039e+00 2.300576865673065186e-02
4.251000000000000000e+03 1.248191070556640625e+01 3.978016614913940430e+00 -4.691787362098693848e-01 -2.700689733028411865e-01 -2.217743247747421265e-01 4.289464652538299561e-01
4.252000000000000000e+03 7.560505676269531250e+01 1.700600504875183105e+00 -5.268498063087463379e-01 6.812723636627197266e+00 1.885762214660644531e+00 -8.115592002868652344e-01
4.253000000000000000e+03 6.489442443847656250e+01 2.548135280609130859e+00 -1.151484064757823944e-02 3.361968517303466797e+00 1.005136132240295410e+00 4.184977710247039795e-01
4.254000000000000000e+03 7.514199829101562500e+01 1.640345001220703125e+01 -4.545235075056552887e-03 7.908340930938720703e+00 2.371138811111450195e+00 9.414760470390319824e-01
4.255000000000000000e+03 6.413774871826171875e+01 1.575608253479003906e+00 -1.380824297666549683e-01 4.735824108123779297e+00 1.379322528839111328e+00 -5.186142399907112122e-02
4.256000000000000000e+03 5.854561233520507812e+01 -1.410609436035156250e+01 -4.208724200725555420e-01 5.194895744323730469e+00 1.432206988334655762e+00 -2.063925266265869141e-01
4.257000000000000000e+03 3.624084091186523438e+01 -3.146676540374755859e+00 -4.816962406039237976e-02 5.654001712799072266e+00 1.681749582290649414e+00 2.684475421905517578e+00
4.258000000000000000e+03 3.774310684204101562e+01 -2.694564104080200195e+00 -1.016107678413391113e+00 7.234403133392333984e+00 1.865488529205322266e+00 3.764683961868286133e+00
4.259000000000000000e+03 4.896720504760742188e+01 2.571723610162734985e-02 9.226846098899841309e-01 4.927743434906005859e+00 1.755128502845764160e+00 -1.543461680412292480e+00
4.260000000000000000e+03 6.813357543945312500e+01 2.991769218444824219e+01 1.234539866447448730e+00 5.063683986663818359e+00 1.889467120170593262e+00 8.422114849090576172e-01
4.261000000000000000e+03 4.154185104370117188e+01 1.601766967773437500e+01 1.636167168617248535e+00 5.874099254608154297e+00 2.253079891204833984e+00 -4.200058877468109131e-01
4.262000000000000000e+03 3.053868484497070312e+01 3.095221281051635742e+00 6.321224570274353027e-01 9.602832198143005371e-01 4.777216911315917969e-01 -7.014666199684143066e-01
4.263000000000000000e+03 3.032138442993164062e+01 2.711083889007568359e+00 2.198860347270965576e-01 7.863735556602478027e-01 3.018778860569000244e-01 -4.029745459556579590e-01
4.264000000000000000e+03 4.570463562011718750e+01 5.386655330657958984e+00 7.578739523887634277e-01 4.419009208679199219e+00 1.553065061569213867e+00 -1.548295259475708008e+00
4.265000000000000000e+03 2.409552574157714844e+01 -2.285552597045898438e+01 9.442903399467468262e-01 1.470602631568908691e+00 7.244678735733032227e-01 4.403886198997497559e-01
4.266000000000000000e+03 3.313794708251953125e+01 1.386041355133056641e+01 3.690629601478576660e-01 5.781589746475219727e-01 2.841665744781494141e-01 -6.839264631271362305e-01
4.267000000000000000e+03 3.283007049560546875e+01 1.314574623107910156e+01 -8.219093084335327148e-02 1.958474069833755493e-01 3.409694135189056396e-02 -3.603269457817077637e-01
4.268000000000000000e+03 4.195583724975585938e+01 1.391215920448303223e+00 3.728161334991455078e+00 6.173873901367187500e+00 2.970610618591308594e+00 -1.097127124667167664e-01
4.269000000000000000e+03 1.140223121643066406e+01 -7.319920063018798828e+00 2.149322628974914551e-02 -6.124181672930717468e-02 -1.192457694560289383e-02 -9.826053678989410400e-02
4.270000000000000000e+03 4.410546493530273438e+01 -1.720861053466796875e+01 3.340530674904584885e-03 3.630141019821166992e+00 1.090044498443603516e+00 9.408065080642700195e-01
4.271000000000000000e+03 4.241737747192382812e+01 -1.830962944030761719e+01 1.063480854034423828e+00 2.314357519149780273e+00 1.013351559638977051e+00 1.617967784404754639e-01
4.272000000000000000e+03 2.434600639343261719e+01 1.038369560241699219e+01 2.558251917362213135e-01 3.600594103336334229e-01 1.847653687000274658e-01 -1.866562068462371826e-01
4.273000000000000000e+03 3.464236450195312500e+01 1.939400482177734375e+01 -1.584503948688507080e-01 4.085878372192382812e+00 1.178228378295898438e+00 -1.796066403388977051e+00
4.274000000000000000e+03 4.162825012207031250e+01 3.838865280151367188e+00 1.264652848243713379e+00 9.600836753845214844e+00 3.259646892547607422e+00 2.480684816837310791e-01
4.275000000000000000e+03 6.802686309814453125e+01 2.734535408020019531e+01 1.776117444038391113e+00 4.327188491821289062e+00 1.830991864204406738e+00 4.925334453582763672e-01
4.276000000000000000e+03 4.835813999176025391e+00 -1.003836154937744141e+01 -1.491752453148365021e-03 -1.240847781300544739e-01 -3.767295926809310913e-02 -5.847595632076263428e-02
4.277000000000000000e+03 2.596871185302734375e+01 1.144296550750732422e+01 9.721903502941131592e-02 4.738738238811492920e-01 1.713278591632843018e-01 -2.157243937253952026e-01
4.278000000000000000e+03 4.022569656372070312e+01 3.496106147766113281e+00 -6.462054252624511719e-01 1.272563457489013672e+01 3.623828887939453125e+00 1.168072700500488281e+00
4.279000000000000000e+03 4.277751445770263672e+00 2.162789916992187500e+01 4.028815031051635742e-02 -6.942615509033203125e-01 -1.961920261383056641e-01 2.629801444709300995e-02
4.280000000000000000e+03 4.035578155517578125e+01 6.095133304595947266e+00 9.770554900169372559e-01 1.284273052215576172e+01 4.145936012268066406e+00 -4.170590937137603760e-01
4.281000000000000000e+03 4.068618011474609375e+01 6.634159564971923828e+00 1.223647832870483398e+00 1.187753295898437500e+01 3.930354356765747070e+00 -5.270029902458190918e-01
4.282000000000000000e+03 2.629273796081542969e+01 -1.734908294677734375e+01 5.879419445991516113e-01 2.535590410232543945e+00 9.370597004890441895e-01 4.947018921375274658e-01
4.283000000000000000e+03 7.111169338226318359e+00 -3.295719528198242188e+01 1.597634702920913696e-01 1.556892991065979004e-01 9.463582932949066162e-02 2.341420799493789673e-01
4.284000000000000000e+03 6.344333267211914062e+01 2.345082521438598633e+00 -3.766971528530120850e-01 4.551782131195068359e+00 1.252525448799133301e+00 -6.442056894302368164e-01
4.285000000000000000e+03 5.914084243774414062e+01 1.921292304992675781e+01 9.573928713798522949e-01 5.277170658111572266e+00 1.870369076728820801e+00 5.730472803115844727e-01
4.286000000000000000e+03 7.683106994628906250e+01 -3.397673034667968750e+01 1.228481233119964600e-01 7.404470920562744141e+00 2.258195877075195312e+00 -1.055300459265708923e-01
4.287000000000000000e+03 3.735113525390625000e+01 -2.925261020660400391e+00 -8.000937700271606445e-01 7.097920417785644531e+00 1.889348030090332031e+00 3.443562746047973633e+00
4.288000000000000000e+03 4.374580860137939453e+00 1.087573242187500000e+01 -1.388818919658660889e-01 -2.414205819368362427e-01 -1.140907406806945801e-01 4.290376901626586914e-01
4.289000000000000000e+03 3.852722883224487305e+00 1.007459640502929688e+01 -1.239255741238594055e-01 -1.920345574617385864e-01 -9.478803724050521851e-02 3.551100492477416992e-01
4.290000000000000000e+03 1.055443477630615234e+01 -2.837066078186035156e+01 3.734492957592010498e-01 4.314936697483062744e-01 2.414828836917877197e-01 1.077202409505844116e-01
4.291000000000000000e+03 7.457543945312500000e+01 1.957693481445312500e+01 -1.034351587295532227e+00 7.369399070739746094e+00 1.900514364242553711e+00 2.117146402597427368e-01
4.292000000000000000e+03 3.838579940795898438e+01 1.770008277893066406e+01 5.783380270004272461e-01 3.356426477432250977e+00 1.180429339408874512e+00 -2.500400781631469727e+00
4.293000000000000000e+03 3.460123062133789062e+01 1.427913379669189453e+01 7.471333146095275879e-01 1.384127140045166016e+00 6.393781304359436035e-01 -1.585464477539062500e+00
4.294000000000000000e+03 3.758238983154296875e+01 -2.286711454391479492e+00 -9.253933429718017578e-01 7.040093421936035156e+00 1.834410071372985840e+00 4.123715400695800781e+00
4.295000000000000000e+03 2.345395088195800781e+01 4.468736648559570312e+00 -3.853908777236938477e-01 -1.921388655900955200e-01 -1.732589304447174072e-01 8.221144974231719971e-02
4.296000000000000000e+03 4.143325424194335938e+01 2.888111829757690430e+00 2.125184059143066406e+00 9.241060256958007812e+00 3.409873247146606445e+00 1.182711362838745117e+00
4.297000000000000000e+03 4.114279174804687500e+01 1.539402580261230469e+01 1.634084820747375488e+00 5.902367115020751953e+00 2.260935544967651367e+00 -5.483208298683166504e-01
4.298000000000000000e+03 4.186785888671875000e+01 4.179855823516845703e+00 1.322239279747009277e+00 9.485339164733886719e+00 3.242273569107055664e+00 -1.010381206870079041e-01
4.299000000000000000e+03 4.596312332153320312e+01 4.847154140472412109e+00 9.125761985778808594e-01 3.995932102203369141e+00 1.472552537918090820e+00 -1.694645643234252930e+00
4.300000000000000000e+03 4.894820022583007812e+01 8.517552614212036133e-01 1.032743334770202637e+00 4.276193618774414062e+00 1.592681050300598145e+00 -1.336714386940002441e+00
4.301000000000000000e+03 7.333396148681640625e+01 2.436132812500000000e+01 -9.794184565544128418e-02 5.814303398132324219e+00 1.714908480644226074e+00 -7.707711458206176758e-01
4.302000000000000000e+03 4.708851623535156250e+01 7.524652779102325439e-02 1.264342188835144043e+00 4.334974288940429688e+00 1.679795026779174805e+00 -2.588581800460815430e+00
4.303000000000000000e+03 7.513465118408203125e+01 2.038278198242187500e+01 -9.471921324729919434e-01 7.198461055755615234e+00 1.875380754470825195e+00 1.002221256494522095e-01
4.304000000000000000e+03 2.389045906066894531e+01 4.057898521423339844e+00 -4.945143163204193115e-01 -1.875632852315902710e-01 -2.046232819557189941e-01 1.263993233442306519e-01
4.305000000000000000e+03 3.837664031982421875e+01 1.687403297424316406e+01 8.055200576782226562e-01 3.628924608230590820e+00 1.330333471298217773e+00 -2.360923290252685547e+00
4.306000000000000000e+03 1.202559947967529297e+01 -3.770478725433349609e+00 -2.795350365340709686e-02 3.714355081319808960e-02 2.757014473900198936e-03 -1.457050293684005737e-01
4.307000000000000000e+03 3.677321624755859375e+01 1.444908046722412109e+01 9.971261620521545410e-01 3.147340059280395508e+00 1.243339896202087402e+00 -2.243095636367797852e+00
4.308000000000000000e+03 4.303522872924804688e+01 2.493921220302581787e-01 2.877197742462158203e+00 4.206653594970703125e+00 2.125155448913574219e+00 -1.910732507705688477e+00
4.309000000000000000e+03 4.177556991577148438e+01 8.178224563598632812e-01 3.988380432128906250e+00 5.579521179199218750e+00 2.870370388031005859e+00 -4.258390963077545166e-01
4.310000000000000000e+03 7.034700775146484375e+01 3.215663146972656250e+01 6.011573076248168945e-01 5.270228862762451172e+00 1.761415958404541016e+00 6.238112449645996094e-01
4.311000000000000000e+03 7.627350616455078125e+01 1.720282745361328125e+01 -1.656274050474166870e-01 7.395746231079101562e+00 2.169035673141479492e+00 9.102190732955932617e-01
4.312000000000000000e+03 7.526776123046875000e+01 1.739326286315917969e+01 -3.051249384880065918e-01 7.613256931304931641e+00 2.192439556121826172e+00 8.555095791816711426e-01
4.313000000000000000e+03 7.152791595458984375e+01 2.942588996887207031e+01 8.407675623893737793e-01 5.146113395690917969e+00 1.796064257621765137e+00 1.007499322295188904e-01
4.314000000000000000e+03 4.234975814819335938e+01 2.850967407226562500e+00 2.536100864410400391e+00 7.443159580230712891e+00 2.993777990341186523e+00 1.118522733449935913e-01
4.315000000000000000e+03 7.631699371337890625e+01 1.957331085205078125e+01 -5.235655903816223145e-01 7.350820064544677734e+00 2.048176288604736328e+00 5.429741740226745605e-01
4.316000000000000000e+03 2.817109298706054688e+01 1.021865081787109375e+01 -4.278423637151718140e-02 6.588339209556579590e-01 1.848149150609970093e-01 -2.071587294340133667e-01
4.317000000000000000e+03 2.763989448547363281e+01 9.710886001586914062e+00 7.112498581409454346e-02 6.667962074279785156e-01 2.213763594627380371e-01 -3.278889060020446777e-01
4.318000000000000000e+03 3.841383218765258789e+00 8.981126785278320312e+00 -1.665460169315338135e-01 -1.279418766498565674e-01 -8.834636211395263672e-02 2.766600251197814941e-01
4.319000000000000000e+03 3.480659484863281250e+00 6.823822021484375000e+00 -1.404763460159301758e-01 -4.623800143599510193e-02 -5.601430684328079224e-02 1.292422562837600708e-01
4.320000000000000000e+03 4.595633029937744141e+00 6.337941169738769531e+00 -2.102707475423812866e-01 -4.652674123644828796e-02 -7.703924924135208130e-02 1.029102355241775513e-01
4.321000000000000000e+03 7.287332916259765625e+01 2.824317359924316406e+01 6.049991250038146973e-01 5.482093334197998047e+00 1.826127767562866211e+00 -2.052118480205535889e-01
4.322000000000000000e+03 7.476556396484375000e+01 2.213691329956054688e+01 -7.954218983650207520e-01 6.731886863708496094e+00 1.780939459800720215e+00 -3.526445031166076660e-01
4.323000000000000000e+03 2.459048080444335938e+01 3.873409986495971680e+00 -4.627602696418762207e-01 -1.724695116281509399e-01 -1.905689388513565063e-01 1.501044332981109619e-01
4.324000000000000000e+03 4.495069122314453125e+01 1.060559630393981934e+00 2.267457962036132812e+00 4.074384212493896484e+00 1.902552604675292969e+00 -2.520128250122070312e+00
4.325000000000000000e+03 4.096780014038085938e+01 1.479123878479003906e+01 1.639831542968750000e+00 6.248892784118652344e+00 2.366617202758789062e+00 -5.183964967727661133e-01
4.326000000000000000e+03 2.715596008300781250e+01 4.628847599029541016e+00 3.657704591751098633e-01 2.970148026943206787e-01 1.988355666399002075e-01 -1.321696639060974121e-01
4.327000000000000000e+03 2.834769821166992188e+01 3.157676458358764648e+00 -1.007450968027114868e-01 4.920804500579833984e-01 1.174006089568138123e-01 7.508703041821718216e-03
4.328000000000000000e+03 7.387301635742187500e+01 2.907122611999511719e+01 4.353742003440856934e-01 5.757470130920410156e+00 1.857853293418884277e+00 -1.502852439880371094e-01
4.329000000000000000e+03 2.537160491943359375e+01 5.190260410308837891e+00 1.791400164365768433e-01 -4.313987493515014648e-02 4.080004245042800903e-02 -1.133359968662261963e-01
4.330000000000000000e+03 4.322363662719726562e+01 2.744958639144897461e+00 2.356870889663696289e+00 6.124988555908203125e+00 2.544557809829711914e+00 -9.582691192626953125e-01
4.331000000000000000e+03 4.254386901855468750e+01 2.447301149368286133e+00 2.763932943344116211e+00 6.683049678802490234e+00 2.834094762802124023e+00 -2.822759449481964111e-01
4.332000000000000000e+03 4.374075317382812500e+01 2.666197776794433594e+00 2.507071018218994141e+00 5.698650360107421875e+00 2.461716413497924805e+00 -1.189497590065002441e+00
4.333000000000000000e+03 2.603796386718750000e+01 5.148377895355224609e+00 2.720096111297607422e-01 3.645920380949974060e-02 9.254064410924911499e-02 -1.484332084655761719e-01
4.334000000000000000e+03 1.115754413604736328e+01 -1.603091955184936523e-01 -3.389843404293060303e-01 -1.373537331819534302e-01 -1.429014205932617188e-01 -7.766153663396835327e-02
4.335000000000000000e+03 1.126386642456054688e+01 -8.940912485122680664e-01 -2.667881548404693604e-01 7.689607143402099609e-02 -5.696763098239898682e-02 -1.064769178628921509e-01
4.336000000000000000e+03 1.049932956695556641e+01 -1.051980972290039062e+00 -2.232996970415115356e-01 -1.411303728818893433e-01 -1.093290224671363831e-01 -9.311193227767944336e-02
4.337000000000000000e+03 1.279222297668457031e+01 -5.713624954223632812e-01 -3.222219645977020264e-01 1.146655082702636719e-01 -6.226693838834762573e-02 -1.254972964525222778e-01
4.338000000000000000e+03 1.264629268646240234e+01 1.541289687156677246e-01 -4.198081195354461670e-01 -1.847779154777526855e-01 -1.813758015632629395e-01 -9.153176844120025635e-02
4.339000000000000000e+03 1.190196800231933594e+01 -3.807745641097426414e-03 -3.743587136268615723e-01 1.041399464011192322e-01 -8.106563240289688110e-02 -1.151366084814071655e-01
4.340000000000000000e+03 1.202809429168701172e+01 -7.334445118904113770e-01 -2.905367910861968994e-01 -1.759364455938339233e-01 -1.399419754743576050e-01 -1.160593479871749878e-01
4.341000000000000000e+03 1.041281127929687500e+01 -3.140535950660705566e-01 -3.125254809856414795e-01 7.560507208108901978e-02 -7.107612490653991699e-02 -8.417408913373947144e-02
4.342000000000000000e+03 9.660583496093750000e+00 -3.871031999588012695e-01 -2.623503804206848145e-01 -1.109317988157272339e-01 -1.119846552610397339e-01 -3.648316487669944763e-02
4.343000000000000000e+03 8.901437759399414062e+00 -3.833611309528350830e-01 -1.871684491634368896e-01 8.011527359485626221e-02 -3.211595118045806885e-02 -3.465748205780982971e-02
4.344000000000000000e+03 8.142838478088378906e+00 -3.822377920150756836e-01 -1.439339220523834229e-01 -7.436137646436691284e-02 -6.548858433961868286e-02 -1.060912571847438812e-02
4.345000000000000000e+03 7.384317874908447266e+00 -3.816416263580322266e-01 -1.008612513542175293e-01 6.046097725629806519e-02 -1.212008111178874969e-02 -2.673439122736454010e-02
4.346000000000000000e+03 6.625857353210449219e+00 -3.809241652488708496e-01 -7.744955271482467651e-02 -5.576845631003379822e-02 -3.996540233492851257e-02 -1.135416212491691113e-03
4.347000000000000000e+03 5.867558479309082031e+00 -3.799938857555389404e-01 -4.715591296553611755e-02 4.672935605049133301e-02 -1.279666903428733349e-04 -2.209817245602607727e-02
4.348000000000000000e+03 5.109274387359619141e+00 -3.788675963878631592e-01 -3.536545112729072571e-02 -4.294911772012710571e-02 -2.349437028169631958e-02 3.893244313076138496e-03
4.349000000000000000e+03 4.350872039794921875e+00 -3.776756227016448975e-01 -1.516914460808038712e-02 3.495277464389801025e-02 5.935089662671089172e-03 -1.659358851611614227e-02
4.350000000000000000e+03 3.592402935028076172e+00 -3.764508068561553955e-01 -1.074533909559249878e-02 -3.025448881089687347e-02 -1.229994837194681168e-02 5.341140553355216980e-03
4.351000000000000000e+03 2.834043025970458984e+00 -3.751347661018371582e-01 3.387987380847334862e-04 2.224218659102916718e-02 6.774295587092638016e-03 -1.018429454416036606e-02
4.352000000000000000e+03 2.077167272567749023e+00 -3.747134804725646973e-01 3.606151440180838108e-04 -1.708180829882621765e-02 -5.016358103603124619e-03 4.633313510566949844e-03
4.353000000000000000e+03 1.334073781967163086e+00 -3.800741434097290039e-01 2.935850061476230621e-03 9.775848127901554108e-03 3.813509596511721611e-03 -3.704400733113288879e-03
4.354000000000000000e+03 3.531542122364044189e-01 -9.606399536132812500e-01 6.723330821841955185e-03 3.937511704862117767e-03 3.198252758011221886e-03 -1.854871516115963459e-03
4.355000000000000000e+03 6.561777591705322266e-01 -4.032240808010101318e-01 -6.296407897025346756e-03 -7.373701781034469604e-03 -4.101032856851816177e-03 7.108397781848907471e-03
4.356000000000000000e+03 9.748202323913574219e+00 -1.127103209495544434e+00 -1.930854022502899170e-01 4.832132160663604736e-02 -4.342922195792198181e-02 -9.326270967721939087e-02
4.357000000000000000e+03 9.011062622070312500e+00 -1.123361110687255859e+00 -1.757057756185531616e-01 -9.503392875194549561e-02 -8.122190833091735840e-02 -7.361178845167160034e-02
4.358000000000000000e+03 8.274469375610351562e+00 -1.122237801551818848e+00 -1.327548474073410034e-01 5.535087734460830688e-02 -2.322119288146495819e-02 -6.172581762075424194e-02
4.359000000000000000e+03 7.537953376770019531e+00 -1.121641635894775391e+00 -1.111192777752876282e-01 -6.644231826066970825e-02 -5.326847732067108154e-02 -4.107844084501266479e-02
4.360000000000000000e+03 6.801498889923095703e+00 -1.120924115180969238e+00 -7.851273566484451294e-02 4.304174333810806274e-02 -1.064129732549190521e-02 -4.617374017834663391e-02
4.361000000000000000e+03 6.065205574035644531e+00 -1.119993925094604492e+00 -6.437744945287704468e-02 -4.920499399304389954e-02 -3.407473117113113403e-02 -2.206630259752273560e-02
4.362000000000000000e+03 5.328927040100097656e+00 -1.118867635726928711e+00 -4.227260127663612366e-02 3.267762437462806702e-02 -2.878492465242743492e-03 -3.355789557099342346e-02
4.363000000000000000e+03 4.592530727386474609e+00 -1.117675662040710449e+00 -3.154287859797477722e-02 -3.785629943013191223e-02 -2.081975340843200684e-02 -1.049531158059835434e-02
4.364000000000000000e+03 3.856066942214965820e+00 -1.116450786590576172e+00 -1.888974197208881378e-02 2.502358704805374146e-02 1.840153476223349571e-03 -2.148999087512493134e-02
4.365000000000000000e+03 3.119712829589843750e+00 -1.115134716033935547e+00 -1.109980419278144836e-02 -2.846607752144336700e-02 -1.186976488679647446e-02 -2.938578370958566666e-03
4.366000000000000000e+03 2.384842634201049805e+00 -1.114713430404663086e+00 -9.018328040838241577e-03 1.555993594229221344e-02 1.962482463568449020e-03 -8.694672957062721252e-03
4.367000000000000000e+03 1.663754701614379883e+00 -1.120074152946472168e+00 -1.346510834991931915e-03 -1.557380799204111099e-02 -5.076095461845397949e-03 -2.681321057025343180e-04
4.368000000000000000e+03 1.007864356040954590e+00 -1.143224120140075684e+00 4.993988666683435440e-03 2.880487125366926193e-03 2.362342784181237221e-03 -1.448005787096917629e-03
4.369000000000000000e+03 3.878863525390625000e+01 1.610447764396667480e+00 4.058811950683593750e+01 1.453461170196533203e+01 1.653681945800781250e+01 2.199085617065429688e+01
4.370000000000000000e+03 3.879914093017578125e+01 1.594031810760498047e+00 3.411111450195312500e+01 2.417365074157714844e+01 1.748542976379394531e+01 2.482172584533691406e+01
4.371000000000000000e+03 3.881264114379882812e+01 1.579977631568908691e+00 2.927840995788574219e+01 3.203083801269531250e+01 1.839277458190917969e+01 2.436850547790527344e+01
4.372000000000000000e+03 3.882862472534179688e+01 1.568824172019958496e+00 2.387363052368164062e+01 3.781273651123046875e+01 1.850591087341308594e+01 2.215505599975585938e+01
4.373000000000000000e+03 3.884647369384765625e+01 1.560999155044555664e+00 2.048859596252441406e+01 4.203482437133789062e+01 1.875702667236328125e+01 1.836259460449218750e+01
4.374000000000000000e+03 3.886550521850585938e+01 1.556802630424499512e+00 1.743448638916015625e+01 4.361957931518554688e+01 1.831621932983398438e+01 1.399895000457763672e+01
4.375000000000000000e+03 3.888498687744140625e+01 1.556395411491394043e+00 1.657884407043457031e+01 4.349151229858398438e+01 1.802110671997070312e+01 9.770820617675781250e+00
4.376000000000000000e+03 3.890417861938476562e+01 1.559793233871459961e+00 1.646653366088867188e+01 4.154281234741210938e+01 1.740280342102050781e+01 6.062441349029541016e+00
4.377000000000000000e+03 3.892233657836914062e+01 1.566865921020507812e+00 1.715369606018066406e+01 3.867391586303710938e+01 1.674828338623046875e+01 3.476505279541015625e+00
4.378000000000000000e+03 3.893877029418945312e+01 1.577342033386230469e+00 1.853902626037597656e+01 3.548605346679687500e+01 1.620752334594726562e+01 2.009629726409912109e+00
4.379000000000000000e+03 3.895285034179687500e+01 1.590819954872131348e+00 1.955351448059082031e+01 3.212705612182617188e+01 1.550417041778564453e+01 1.441778898239135742e+00
4.380000000000000000e+03 3.896402740478515625e+01 1.606782793998718262e+00 2.089905548095703125e+01 2.966949462890625000e+01 1.517056465148925781e+01 1.894349455833435059e+00
4.381000000000000000e+03 3.897188186645507812e+01 1.624618291854858398e+00 2.151906394958496094e+01 2.722564888000488281e+01 1.462341403961181641e+01 2.800642490386962891e+00
4.382000000000000000e+03 3.897611236572265625e+01 1.643642663955688477e+00 2.211008071899414062e+01 2.626515579223632812e+01 1.451257038116455078e+01 4.285848617553710938e+00
4.383000000000000000e+03 3.897655105590820312e+01 1.663126349449157715e+00 2.188132667541503906e+01 2.547157478332519531e+01 1.420587062835693359e+01 6.034440994262695312e+00
4.384000000000000000e+03 3.897318649291992188e+01 1.682322025299072266e+00 2.125542449951171875e+01 2.615200233459472656e+01 1.422222805023193359e+01 7.803007602691650391e+00
4.385000000000000000e+03 3.896614074707031250e+01 1.700493693351745605e+00 1.964942932128906250e+01 2.733318901062011719e+01 1.409478569030761719e+01 9.455400466918945312e+00
4.386000000000000000e+03 3.895569610595703125e+01 1.716944575309753418e+00 1.744995117187500000e+01 2.948098754882812500e+01 1.407928180694580078e+01 1.048867988586425781e+01
4.387000000000000000e+03 3.894223785400390625e+01 1.731043696403503418e+00 1.454046630859375000e+01 3.207096099853515625e+01 1.398342800140380859e+01 1.068657207489013672e+01
4.388000000000000000e+03 3.892629623413085938e+01 1.742250323295593262e+00 1.124507045745849609e+01 3.460789871215820312e+01 1.375589084625244141e+01 9.810627937316894531e+00
4.389000000000000000e+03 3.890847396850585938e+01 1.750134825706481934e+00 8.192020416259765625e+00 3.673374176025390625e+01 1.347772884368896484e+01 7.735571861267089844e+00
4.390000000000000000e+03 3.888945770263671875e+01 1.754394888877868652e+00 5.279792308807373047e+00 3.762279891967773438e+01 1.287077713012695312e+01 4.729083538055419922e+00
4.391000000000000000e+03 3.886997222900390625e+01 1.754866957664489746e+00 3.527063369750976562e+00 3.717877578735351562e+01 1.221175193786621094e+01 1.181380033493041992e+00
4.392000000000000000e+03 3.885077285766601562e+01 1.751533031463623047e+00 2.224850893020629883e+00 3.487427520751953125e+01 1.112973785400390625e+01 -2.516851663589477539e+00
4.393000000000000000e+03 3.883258819580078125e+01 1.744521021842956543e+00 1.826982378959655762e+00 3.125869178771972656e+01 9.925702095031738281e+00 -5.574198722839355469e+00
4.394000000000000000e+03 3.881612014770507812e+01 1.734099745750427246e+00 1.685995340347290039e+00 2.629307365417480469e+01 8.393720626831054688e+00 -7.915823459625244141e+00
4.395000000000000000e+03 3.880199813842773438e+01 1.720668792724609375e+00 1.297520756721496582e+00 2.089230728149414062e+01 6.656948566436767578e+00 -9.255904197692871094e+00
4.396000000000000000e+03 3.879076385498046875e+01 1.704743385314941406e+00 6.412799358367919922e-01 1.534514141082763672e+01 4.795926570892333984e+00 -9.753565788269042969e+00
4.397000000000000000e+03 3.878285217285156250e+01 1.686934113502502441e+00 -7.648876905441284180e-01 1.003768348693847656e+01 2.781838893890380859e+00 -9.845558166503906250e+00
4.398000000000000000e+03 3.877856063842773438e+01 1.667923808097839355e+00 -2.322819232940673828e+00 5.265624046325683594e+00 8.828414678573608398e-01 -9.471997261047363281e+00
4.399000000000000000e+03 3.877805328369140625e+01 1.648441791534423828e+00 -4.100820064544677734e+00 9.818176627159118652e-01 -9.357007741928100586e-01 -8.980074882507324219e+00
4.400000000000000000e+03 3.878135681152343750e+01 1.629235029220581055e+00 -6.370227336883544922e+00 -1.255789518356323242e+00 -2.287805080413818359e+00 -6.045563697814941406e+00
